LAMMPS (29 Sep 2021 - Update 1)
# Test LAMMPS input file for single DeFDe

# Initialize simulation

clear

units real
atom_style full
boundary p p p
dielectric 1
special_bonds dreiding

bond_style harmonic
angle_style harmonic
dihedral_style harmonic
improper_style umbrella
pair_style hybrid/overlay hbond/dreiding/lj 4 9.0 11.0 90 lj/cut 8.50000

# Read data file
read_data frag5.dat
Reading data file ...
  triclinic box = (0.0000000 0.0000000 0.0000000) to (15.000000 15.000000 15.000000) with tilt (0.0000000 0.0000000 0.0000000)
  2 by 4 by 4 MPI processor grid
  reading atoms ...
  1509 atoms
  scanning bonds ...
  4 = max bonds/atom
  scanning angles ...
  6 = max angles/atom
  scanning dihedrals ...
  9 = max dihedrals/atom
  reading bonds ...
  1008 bonds
  reading angles ...
  513 angles
  reading dihedrals ...
  12 dihedrals
Finding 1-2 1-3 1-4 neighbors ...
  special bond factors lj:    0        0        1       
  special bond factors coul:  0        0        1       
     4 = max # of 1-2 neighbors
     4 = max # of 1-3 neighbors
     8 = max # of special neighbors
  special bonds CPU = 0.002 seconds
  read_data CPU = 0.017 seconds

# Dreiding potential information

bond_coeff 1 350 1.53
bond_coeff 2 350 1.09
bond_coeff 3 350 1.42
bond_coeff 4 350 0.98

angle_coeff 1 50 109.471
angle_coeff 2 50 104.51

dihedral_coeff 1 0.111111111111111 -1 3
dihedral_coeff 2 0.333333333333333 -1 3

improper_coeff 1 40 0

pair_coeff 1 1 lj/cut 0.0951 3.8983
pair_coeff 1 2 lj/cut 0.0953995283007206 3.64309650983885
pair_coeff 1 3 lj/cut 0.0380199947396104 3.52917391183829
pair_coeff 1 4 lj/cut 0.00308382878902186 3.52806914614779
pair_coeff 2 2 lj/cut 0.0957 3.4046
pair_coeff 2 3 lj/cut 0.0381397430510485 3.29813538230316
pair_coeff 2 4 lj/cut 0.0030935416596516 3.29710294046152
pair_coeff 3 3 lj/cut 0.0152 3.195
pair_coeff 3 4 lj/cut 0.0012328828005938 3.19399984345648
pair_coeff 4 4 lj/cut 1e-04 3.193
pair_coeff 2 2 hbond/dreiding/lj 4 j 9.50 2.75 4 9.0 11.0 90

neighbor 2 bin
neigh_modify every 2 one 10000

# Gemoetric relaxation
fix 1 all box/relax iso 1.0 vmax 0.001
minimize 1.0e-4 1.0e-6 10000 10000
WARNING: Using 'neigh_modify every 1 delay 0 check yes' setting during minimization (../min.cpp:188)
Neighbor list info ...
  update every 1 steps, delay 0 steps, check yes
  max neighbors/atom: 10000, page size: 100000
  master list distance cutoff = 13
  ghost atom cutoff = 13
  binsize = 6.5, bins = 3 3 3
  3 neighbor lists, perpetual/occasional/extra = 3 0 0
  (1) pair hbond/dreiding/lj, perpetual, skip from (3)
      attributes: full, newton on
      pair build: skip
      stencil: none
      bin: none
  (2) pair lj/cut, perpetual, half/full from (3)
      attributes: half, newton on
      pair build: halffull/newton
      stencil: none
      bin: none
  (3) neighbor class addition, perpetual
      attributes: full, newton on
      pair build: full/bin
      stencil: full/bin/3d
      bin: standard
Per MPI rank memory allocation (min/avg/max) = 14.03 | 14.35 | 14.77 Mbytes
Step Temp E_pair E_mol TotEng Press Volume 
       0            0 1.1174733e+19    202.02275 1.1174733e+19 9.0812885e+20         3375 
    5383            0   -979.89634    20.271455   -959.62488    101.33365      39457.2 
Loop time of 4.39318 on 32 procs for 5383 steps with 1509 atoms

100.0% CPU use with 32 MPI tasks x no OpenMP threads

Minimization stats:
  Stopping criterion = energy tolerance
  Energy initial, next-to-last, final = 
    1.11747328046285e+19  -959.013841354274  -959.098662967535
  Force two-norm initial, final = 3.1600208e+21 105.73144
  Force max component initial, final = 2.0574338e+21 76.316628
  Final line search alpha, max atom move = 1.5363625e-05 0.0011725001
  Iterations, force evaluations = 5383 5388

MPI task timing breakdown:
Section |  min time  |  avg time  |  max time  |%varavg| %total
---------------------------------------------------------------
Pair    | 1.3101     | 2.5138     | 3.5398     |  36.1 | 57.22
Bond    | 0.0066303  | 0.01099    | 0.018846   |   2.4 |  0.25
Neigh   | 0.091501   | 0.091995   | 0.092332   |   0.1 |  2.09
Comm    | 0.40415    | 1.4331     | 2.6414     |  47.9 | 32.62
Output  | 0          | 0          | 0          |   0.0 |  0.00
Modify  | 0          | 0          | 0          |   0.0 |  0.00
Other   |            | 0.3433     |            |       |  7.81

Nlocal:        47.1562 ave          64 max          25 min
Histogram: 1 0 5 3 5 3 5 4 3 3
Nghost:        1831.97 ave        1881 max        1781 min
Histogram: 4 6 3 3 0 0 1 4 7 4
Neighs:        4574.34 ave        7148 max        2298 min
Histogram: 1 5 2 4 6 4 4 5 0 1

Total # of neighbors = 146379
Ave neighs/atom = 97.003976
Ave special neighs/atom = 2.0159046
Neighbor list builds = 97
Dangerous builds = 0

# MD simulation
velocity all create 300.0 12345 rot yes dist gaussian
timestep 1.0
fix 2 all nvt temp 300.0 300.0 1

# Compute interaction energy
group WAT molecule <> 2 501
1500 atoms in group WAT
group MOL molecule 1
9 atoms in group MOL

compute w WAT group/group MOL pair yes
fix 3 all ave/time 10 5 100 c_w file outa

# Outputs
thermo 100 # Output thermodynamic data every nth step
#dump mf1 all xyz 10000 mol_*.xyz

# Run
run 1000000
Neighbor list info ...
  update every 2 steps, delay 10 steps, check yes
  max neighbors/atom: 10000, page size: 100000
  master list distance cutoff = 13
  ghost atom cutoff = 13
  binsize = 6.5, bins = 6 6 6
  4 neighbor lists, perpetual/occasional/extra = 3 1 0
  (1) pair hbond/dreiding/lj, perpetual, skip from (4)
      attributes: full, newton on
      pair build: skip
      stencil: none
      bin: none
  (2) pair lj/cut, perpetual, half/full from (4)
      attributes: half, newton on
      pair build: halffull/newton
      stencil: none
      bin: none
  (3) compute group/group, occasional, copy from (2)
      attributes: half, newton on
      pair build: copy
      stencil: none
      bin: none
  (4) neighbor class addition, perpetual
      attributes: full, newton on
      pair build: full/bin
      stencil: full/bin/3d
      bin: standard
Per MPI rank memory allocation (min/avg/max) = 12.88 | 12.92 | 13.24 Mbytes
Step Temp E_pair E_mol TotEng Press Volume 
    5383          300   -979.89634    20.271455    388.89358    1663.6302      39457.2 
    5400    302.34361    -919.5943    179.36117    618.82001    342.21343      39457.2 
    5500    297.95483   -1078.7613    216.61406    477.17809    -1125.074      39457.2 
    5600    291.99481   -1073.7064    165.29712    404.12538   -248.44767      39457.2 
    5700    291.12128   -1114.8726    160.40155    354.13697   -106.30607      39457.2 
    5800    300.41496   -1087.2405     198.1579    461.30111    725.50233      39457.2 
    5900    305.61355   -1110.1397    167.15349    430.76551    246.56467      39457.2 
    6000    296.47427   -1116.8637    179.36847    395.17491    628.25384      39457.2 
    6100    312.63698   -1075.3237    166.60979     496.6085    421.85764      39457.2 
    6200    301.94234   -1099.6958    177.80902    435.36261    343.75376      39457.2 
    6300    299.56968   -1038.4334    184.23411    492.38484     690.8991      39457.2 
    6400    303.27724   -1043.9928    168.74451    488.00158    414.44043      39457.2 
    6500    302.19725   -1029.9567    169.00288    497.44145    312.21912      39457.2 
    6600    300.14969   -1045.5927    183.02862    486.62723   -193.78429      39457.2 
    6700    300.05277   -1038.6117    178.90352    489.04752   -173.66974      39457.2 
    6800    301.85007   -1010.4837    176.68968    523.04061    45.831008      39457.2 
    6900    296.89001   -1053.5545    185.77535    466.75971     173.3731      39457.2 
    7000     308.9095   -1041.8124    191.15552    537.91035    395.06825      39457.2 
    7100    307.80468   -1030.7623    190.88388    543.72255    373.03788      39457.2 
    7200    299.23483   -1046.0675    198.32716    497.33863    372.25873      39457.2 
    7300    312.66311   -1037.1192    191.31749    559.63823    320.88558      39457.2 
    7400    294.75829   -1051.2395    194.43921    468.15634     446.9586      39457.2 
    7500    313.17474    -1109.847    193.19449     491.0872    437.25188      39457.2 
    7600    307.93875    -1093.466    192.12607    482.86374    277.88277      39457.2 
    7700    299.11123   -1090.0732    190.96921    445.41938    219.13757      39457.2 
    7800    289.19821    -1113.621     195.1131    381.45588    648.43634      39457.2 
    7900     310.1718   -1111.5466    190.52756    473.22229    678.19484      39457.2 
    8000    297.06683   -1104.4664    203.37082    434.23811    277.13471      39457.2 
    8100    306.26603   -1023.4927    208.69697    561.88892    584.83763      39457.2 
    8200    287.43656   -1052.7684    202.44741    441.72401    612.85658      39457.2 
    8300    304.38868   -1082.8605    219.22807    504.61344    478.63512      39457.2 
    8400    307.13314   -1051.1455    199.64769    529.08457    618.51084      39457.2 
    8500    303.42925   -1050.1883    188.65397     502.3988    336.40179      39457.2 
    8600    297.89019   -1032.0277    197.30097    504.30801    574.16194      39457.2 
    8700    298.62957   -1048.6911    205.67509    499.34226    214.55876      39457.2 
    8800    300.80249   -1051.0654    206.36903    507.42931    327.38039      39457.2 
    8900    296.56508   -1040.4733    202.24892    494.85396   -23.346368      39457.2 
    9000    292.89683   -1069.2254    222.86131     470.2252    231.36427      39457.2 
    9100    298.15298   -1071.4119      216.038    484.84212    386.68767      39457.2 
    9200     294.9956   -1030.6917    216.82493    512.15662    168.72483      39457.2 
    9300     304.1996   -1041.1035    214.61219    540.90464    438.03415      39457.2 
    9400    296.95737   -1049.9623    212.59711    497.47648    661.93663      39457.2 
    9500    288.45329   -1031.6498    214.12427    479.08978    199.89663      39457.2 
    9600    295.53901   -1080.9613     219.8334    467.33817    373.03116      39457.2 
    9700    295.70667   -1068.2025    216.93601    477.95318    351.18152      39457.2 
    9800    292.60841   -1080.4439    226.73195    461.58089    346.90127      39457.2 
    9900    294.44181   -1066.1152    213.39512    470.81392    34.271857      39457.2 
   10000    307.35186   -1044.8265    217.24679    553.98579    463.91197      39457.2 
   10100    315.65832   -1053.7623    242.71162    607.85289   -47.258663      39457.2 
   10200    298.13489    -1052.407    222.14664    509.87435    -146.5319      39457.2 
   10300    310.60488    -1049.693    215.95602    562.45111    48.286252      39457.2 
   10400    311.88371   -1068.7649    225.19739    558.36894   -58.897491      39457.2 
   10500    314.29804   -1051.6618    218.45942    579.58662     18.04666      39457.2 
   10600     295.4935   -1111.9299    214.11417    430.44574    116.33013      39457.2 
   10700    299.13718   -1101.5002    221.71713    464.85695    305.30008      39457.2 
   10800     306.8952   -1101.0142    217.19091    495.68952    44.484688      39457.2 
   10900    297.12078   -1099.6639    235.72849    471.64074   -233.14816      39457.2 
   11000    305.61557   -1031.6507     226.7797    568.88982    51.849443      39457.2 
   11100    298.26584   -1051.8077    222.28191    511.19753    303.13797      39457.2 
   11200    299.10705   -1059.3537    235.75474    520.90561    17.926074      39457.2 
   11300    307.89669   -1058.2452    237.64308    563.41241    722.04345      39457.2 
   11400    308.49671   -1094.6505    232.41524    524.47644    784.46154      39457.2 
   11500     299.3359   -1064.3149    236.53223     517.7506    624.35249      39457.2 
   11600    304.18848   -1069.8039     242.8317    540.37369    531.63923      39457.2 
   11700    291.55335   -1092.2394    237.68427    455.99511    343.72556      39457.2 
   11800    298.62832   -1084.3316    245.40773    503.42884   -39.781587      39457.2 
   11900    294.72833   -1106.6807    243.96085    462.10211   -10.659582      39457.2 
   12000    310.04068   -1090.1414    213.81053    517.32109   -151.88739      39457.2 
   12100    306.48875   -1062.4743    238.04675    553.25828    119.45199      39457.2 
   12200    302.10955   -1113.7229    230.43823    474.71632    257.19089      39457.2 
   12300    293.60439   -1098.7231    238.71377    459.76046    330.54899      39457.2 
   12400    296.41181   -1133.5087    248.50833    447.38899   -31.651642      39457.2 
   12500    298.79475   -1092.7275    238.58157    488.95487     172.5307      39457.2 
   12600    298.94486   -1114.5735    257.92716    487.12921     36.40803      39457.2 
   12700    308.63542   -1105.3927    242.51841     524.4609    439.34574      39457.2 
   12800    288.67061   -1114.9763    250.17602    432.79189    564.39819      39457.2 
   12900    297.70585   -1108.9208     256.1016    485.38686    630.51582      39457.2 
   13000    303.82535   -1124.1984    256.80124    498.31649     907.6458      39457.2 
   13100    310.47946   -1140.4389    259.15681    514.34223    685.20506      39457.2 
   13200    304.03657   -1100.5205    263.67585    529.81848    873.46013      39457.2 
   13300    301.73455    -1135.639    255.99802     476.6744    344.77798      39457.2 
   13400    295.22041   -1129.0014    258.90745    456.94001    622.84455      39457.2 
   13500    311.99494   -1090.7763    262.82336    574.48349    120.07332      39457.2 
   13600      306.231   -1084.6039    250.17661    542.09989   -52.432886      39457.2 
   13700    304.40684   -1129.1375    272.85769    512.04765   -299.71067      39457.2 
   13800    289.35386   -1125.3875    267.30314    442.57906    107.26768      39457.2 
   13900    296.04717   -1093.4982    263.66906    500.92105    102.75013      39457.2 
   14000     314.7767   -1064.9595    255.91785    605.89897    441.90067      39457.2 
   14100    294.23003   -1107.1263    286.49802    501.95379    469.59066      39457.2 
   14200    297.91789   -1086.0033    264.32139    517.47736    616.95011      39457.2 
   14300    302.96269   -1119.6789    271.16693    513.32397    437.38425      39457.2 
   14400    288.52561   -1104.1241    274.77882    467.59508    502.57618      39457.2 
   14500    298.38335   -1105.7908    267.72033    503.18103    267.83009      39457.2 
   14600    303.46044   -1096.7299    282.96642    550.30991     319.8836      39457.2 
   14700    295.55194   -1110.6722    273.83203    491.68401    446.99726      39457.2 
   14800    298.50217   -1111.1563    279.00051    509.62986    4.1956806      39457.2 
   14900    297.14911   -1133.9978    272.72716    474.43287    157.97078      39457.2 
   15000    295.97623   -1139.8275    273.36023    463.96413     318.0056      39457.2 
   15100    304.29102   -1177.7542    261.74049    451.79317    227.35185      39457.2 
   15200    308.24196   -1148.3839    278.67113    515.85382    231.10197      39457.2 
   15300    298.69682   -1126.1239    255.98666     472.5234    5.1141423      39457.2 
   15400    294.29321   -1135.1817    285.52485    473.20927   -230.74731      39457.2 
   15500    298.17394   -1158.2887    270.83416    452.85566   -48.172689      39457.2 
   15600    295.72406    -1169.574    273.99444    433.71827    86.551616      39457.2 
   15700    299.13555   -1176.3799    292.25163    460.50449   -107.62907      39457.2 
   15800    294.60492   -1151.3571    286.50938     459.4195    755.62038      39457.2 
   15900    299.66675   -1161.2355    259.75878    445.54375    366.72224      39457.2 
   16000    312.51555   -1217.8636    274.62969    461.54272    557.55095      39457.2 
   16100    303.97413   -1195.8311    280.49661    451.04795    778.13996      39457.2 
   16200      299.948   -1166.1776    284.38442    466.49153    668.39648      39457.2 
   16300    293.52073   -1175.4747     283.4147    427.33376    823.73359      39457.2 
   16400    310.67726   -1187.6035    272.25419    481.16407     727.8936      39457.2 
   16500     305.9697   -1173.3063    289.13586    491.18221    138.28641      39457.2 
   16600    299.17932   -1184.3673    258.75501    419.21717     55.66809      39457.2 
   16700    294.03577   -1164.9069    277.61614    434.41811   -97.023082      39457.2 
   16800    300.55262   -1143.4824    284.77809    492.29827   -102.80296      39457.2 
   16900    301.28445   -1155.3321    295.40881    494.36889     339.3271      39457.2 
   17000    310.82038   -1157.8024     303.2186    542.57298    481.58752      39457.2 
   17100    300.11741   -1141.9859    280.38353    487.44382    397.55213      39457.2 
   17200    302.72308   -1204.1974    281.13742    437.69894    293.72519      39457.2 
   17300    296.59456    -1188.415    296.90683    441.70263    317.37214      39457.2 
   17400    298.43266   -1141.9004     303.8235    503.39624    1261.9382      39457.2 
   17500    308.25947   -1180.9797    277.74496     482.4105    1054.1056      39457.2 
   17600    307.80948   -1167.8139    311.18124    526.98992    718.54305      39457.2 
   17700    303.89537   -1152.1461    297.64299     511.5253    553.60569      39457.2 
   17800    299.07645   -1160.1734    273.64566    457.83929    648.29686      39457.2 
   17900    291.64973   -1209.0789    320.34864    422.25319    895.04987      39457.2 
   18000    300.18373   -1203.4545    299.03071    444.92051    261.50275      39457.2 
   18100    293.93648   -1146.1008    289.27417    464.43598    275.57052      39457.2 
   18200    299.52096   -1125.8556    304.38353    524.89303   -233.18465      39457.2 
   18300    294.54913   -1180.8651    291.83337    434.98471   -66.884785      39457.2 
   18400     307.0258   -1193.1089    296.32651    483.31747    317.68792      39457.2 
   18500    293.66263   -1188.4194    295.72369     427.3359    138.84431      39457.2 
   18600    302.29247   -1159.3708    299.80624    499.25866    279.38439      39457.2 
   18700    297.46335   -1203.3569    284.91489    418.67404   -99.688405      39457.2 
   18800    305.04384   -1202.1022    297.88984    466.97848    456.40735      39457.2 
   18900     305.2574   -1204.2964    315.31265    483.16706   -21.372867      39457.2 
   19000    294.16418   -1171.5818    289.41285    440.11715    204.09064      39457.2 
   19100     295.8336   -1121.3176    312.77957    521.25221   -61.157638      39457.2 
   19200     314.7618   -1166.2158    309.68186     558.3397    321.49445      39457.2 
   19300    296.40574   -1157.2995    289.50648    464.56905    118.47454      39457.2 
   19400    305.68601   -1180.4645    301.81907    495.43205    448.82614      39457.2 
   19500     299.0278   -1211.0933     297.8096    430.86471   -153.62072      39457.2 
   19600    299.34661   -1144.9922    291.28175    491.87099    -48.91409      39457.2 
   19700    307.83388   -1179.9683    302.68132    506.44527    108.43615      39457.2 
   19800    295.38976   -1169.3128    304.13713    462.61948    166.15502      39457.2 
   19900    304.09878   -1206.9588    287.51503    447.49892    515.18289      39457.2 
   20000    301.97754   -1160.6295    306.88795    503.66602    171.85579      39457.2 
   20100    300.79106   -1218.4695    306.82997    440.43481   -224.26772      39457.2 
   20200    300.81359   -1216.7465    273.72629    409.15543    41.315354      39457.2 
   20300    304.60272   -1158.5748     321.8778    532.51093    555.19122      39457.2 
   20400    296.29722   -1170.0114    317.51648    479.37936     129.8056      39457.2 
   20500    303.30309   -1192.1431    298.01141    469.23442    557.06401      39457.2 
   20600    301.66564   -1190.4052    288.60654    454.20695    568.94399      39457.2 
   20700    300.87914   -1182.7768    313.26252    482.95599    312.39141      39457.2 
   20800    297.87625    -1145.201    304.56765     498.3387    339.35268      39457.2 
   20900    296.17795   -1111.2047    312.46935    532.60273     398.7667      39457.2 
   21000    296.57716    -1103.602    309.71937    539.24991     307.6829      39457.2 
   21100    296.95299   -1152.2088    326.66776    509.28094    369.12872      39457.2 
   21200    302.79318   -1157.3751    312.86363    516.56251    381.47499      39457.2 
   21300    313.65828   -1151.2879    311.91759    570.54301    446.99222      39457.2 
   21400    299.76273   -1166.1954    310.54022    491.79673   -60.300768      39457.2 
   21500    309.65896   -1152.6986    321.05238    560.28987    210.35929      39457.2 
   21600    295.07052   -1159.5169    308.16061    475.00384    241.29991      39457.2 
   21700    296.26052    -1148.912    323.81603    506.61331    16.039963      39457.2 
   21800    298.19683   -1170.4644    330.74429    500.69301   -81.118037      39457.2 
   21900    289.53643   -1199.6318    308.97323    410.82545    135.23144      39457.2 
   22000    297.94702   -1181.4688    310.25759    468.07902   -515.98306      39457.2 
   22100    293.35842   -1126.5883    342.65685    534.73268   -145.11049      39457.2 
   22200    311.44743   -1190.0115    307.30168    517.26552   -420.98158      39457.2 
   22300    300.49046   -1208.7693    323.78346    465.73725   -243.15623      39457.2 
   22400    302.31608    -1195.702    313.83006    477.05746   -219.27899      39457.2 
   22500    306.14945   -1198.4458    317.15303    494.86792     4.531926      39457.2 
   22600    294.70206   -1160.5073    308.68263    472.87925   -366.25664      39457.2 
   22700    304.39297   -1214.7464    297.73186    451.25063    -199.9937      39457.2 
   22800    304.37488   -1206.1536    331.58019    493.61039   -550.59943      39457.2 
   22900    309.40127    -1210.802    324.41339    504.38912   -395.40557      39457.2 
   23000    301.09758   -1203.7346    314.49285    464.21042    11.781317      39457.2 
   23100    306.26685   -1238.6906    311.28382    449.28153   -198.46292      39457.2 
   23200    301.44981   -1245.7319    307.43976    416.74331   -71.629574      39457.2 
   23300    305.88232    -1268.441    317.47121    423.99003    185.55285      39457.2 
   23400    304.24869   -1224.5785    322.26833    465.30641    549.58012      39457.2 
   23500    308.44512   -1255.5263     327.1385    458.09201    580.57722      39457.2 
   23600    290.50448    -1217.548    327.27832    415.56579    476.90738      39457.2 
   23700    308.74302    -1251.146    321.66791    458.34083    625.06017      39457.2 
   23800    310.33803    -1237.882     333.1828    490.28938    903.94445      39457.2 
   23900    297.59456   -1243.1628     310.4128    404.95589    773.87919      39457.2 
   24000    292.61806   -1243.2374    327.84449     399.9433    978.68587      39457.2 
   24100    294.91008   -1201.9816    338.64569    462.30308    634.01083      39457.2 
   24200    300.43973   -1220.2869    333.67466    463.88282    336.83802      39457.2 
   24300    302.78108   -1240.9595    325.35648    445.41652    217.68064      39457.2 
   24400    297.09022   -1217.2724    317.31946     435.4859     285.1987      39457.2 
   24500    312.15274   -1186.7667    319.51787    535.89693    -91.27683      39457.2 
   24600    292.23313    -1230.045     341.5424    425.10327    198.41448      39457.2 
   24700    307.82597    -1184.182    340.79567    540.31038    459.72203      39457.2 
   24800    306.00568   -1218.4939     338.2965    495.31698    290.81985      39457.2 
   24900     302.0836   -1214.9939    326.64208    469.53258    425.04389      39457.2 
   25000    293.45366   -1219.7736    324.65594    423.97457    668.80579      39457.2 
   25100     304.2233   -1253.8701    321.03199    434.66438   -21.460694      39457.2 
   25200    287.06243   -1199.6102    344.73422    435.48734    201.80698      39457.2 
   25300    286.49286   -1224.7206    338.54824    401.63066   -188.79918      39457.2 
   25400     290.7064   -1239.7867    317.29989    384.25636   -237.23821      39457.2 
   25500    296.69236   -1232.0264    310.57906    412.20304   -140.92091      39457.2 
   25600    288.04352   -1220.7902    311.34692    385.33001   -536.19321      39457.2 
   25700    301.45708   -1228.2532    334.40793    461.22291   -581.69693      39457.2 
   25800    297.04273   -1258.1614    350.26401      427.328   -246.85913      39457.2 
   25900    303.83067   -1181.1442    337.64227    522.23562    84.417509      39457.2 
   26000    307.91703   -1211.1876    349.09295    522.01141     444.3718      39457.2 
   26100    300.09945   -1234.3884     340.0248    454.60189   -57.143563      39457.2 
   26200     298.7785   -1210.6781    338.50818    470.85784    10.088408      39457.2 
   26300    312.44572   -1244.2061     322.7904    483.04707    183.64407      39457.2 
   26400    291.34537   -1213.9839    338.37528     434.0068    131.04029      39457.2 
   26500    298.72041   -1187.8534    352.43793    507.35109   -12.565523      39457.2 
   26600    297.98512   -1203.2007    327.49494     463.7557   -145.17273      39457.2 
   26700    295.59846   -1182.7195    346.83817    492.85199    18.957101      39457.2 
   26800    293.81564   -1191.6071    334.96926     464.0815    271.57563      39457.2 
   26900    292.09864   -1228.9787    328.48085    412.50354    367.12358      39457.2 
   27000    293.36689   -1238.4946    334.81017    415.01779    614.79107      39457.2 
   27100    299.36498    -1215.811    349.92827    479.78135    639.13557      39457.2 
   27200    300.93601   -1210.2158    335.54983    478.05992    433.36275      39457.2 
   27300    296.52916   -1240.8007    350.45428    442.57035    719.39321      39457.2 
   27400    308.97067   -1273.3129    334.55404    450.08329    234.05242      39457.2 
   27500    295.23756   -1248.1362    346.07837    425.05312    448.87874      39457.2 
   27600    293.51642   -1247.3163    346.19688    418.25491   -113.97044      39457.2 
   27700    291.09993    -1212.507    332.29026    428.29532    253.26086      39457.2 
   27800     311.1937   -1211.4761    348.05747    535.41624    501.85874      39457.2 
   27900    297.59298   -1213.3643     338.4389    462.77337    286.32832      39457.2 
   28000    302.83743   -1204.0764    327.69205     484.8886    265.67557      39457.2 
   28100    294.81174   -1178.1029    349.43604    496.53011    260.10252      39457.2 
   28200    299.83372     -1201.65    331.37387    477.49489    443.54795      39457.2 
   28300    299.13955   -1200.5914     339.1723    483.23156    404.06569      39457.2 
   28400     292.0225   -1146.8327    354.23176    520.05819    539.38037      39457.2 
   28500     299.9387   -1154.3654    354.80419    548.68173     442.6354      39457.2 
   28600      308.185   -1215.4142    372.51768    542.41398    967.51714      39457.2 
   28700    303.77774   -1213.9369    352.12606    503.68883    794.67462      39457.2 
   28800    307.14911   -1210.8478    342.37655    512.18296    342.33797      39457.2 
   28900    294.17759   -1199.1676    346.45996    469.63874    214.12991      39457.2 
   29000    300.08483   -1222.9896    355.28583    481.19604    163.54169      39457.2 
   29100    297.89405   -1240.9108    348.02574    446.16704    661.65715      39457.2 
   29200    302.26587    -1217.603     349.2712    490.37192    562.61608      39457.2 
   29300    308.18463   -1228.4958    349.84852    506.66164    770.77475      39457.2 
   29400    289.83637   -1195.1834    362.79707    470.44595     456.7728      39457.2 
   29500    294.75727   -1220.9927    350.50517     454.4646    975.32467      39457.2 
   29600    302.81189   -1178.5625    347.52114    530.11673     751.9896      39457.2 
   29700    303.57049   -1202.4546    337.71932    499.83272    336.81963      39457.2 
   29800    306.68036   -1234.3847    339.13305    483.29549   -200.31048      39457.2 
   29900    305.84067   -1219.1392    372.95014    528.58357    114.21948      39457.2 
   30000    292.86277   -1236.8834    368.52479    448.07755     475.0464      39457.2 
   30100    296.94076   -1211.1641    355.00985    478.61275   -212.55014      39457.2 
   30200    296.24638   -1259.0058    339.93113    412.57107    32.186059      39457.2 
   30300    307.27779   -1231.0054    353.00308    503.23021     56.98749      39457.2 
   30400    293.90769   -1246.0071    343.84225    418.96834    471.61966      39457.2 
   30500    297.51376   -1233.0876    345.93614     450.1912   -68.137669      39457.2 
   30600    299.62855   -1260.3976    365.80221    452.25332   -170.29605      39457.2 
   30700    298.67566   -1205.0656    369.10425     506.6041   -203.89984      39457.2 
   30800    287.00101   -1258.1438    355.39011    387.33348   -201.49809      39457.2 
   30900    308.67853   -1261.8721     342.6071      468.264    203.78418      39457.2 
   31000    303.58991   -1271.1225    350.89562    444.42848   -355.14155      39457.2 
   31100    302.33999   -1242.8794    350.39208    466.54954   -167.58447      39457.2 
   31200    303.08583   -1267.2534    354.76575    449.90179   -246.20607      39457.2 
   31300     309.8024   -1230.6432    367.47254    529.41023   -353.87942      39457.2 
   31400    309.66572   -1273.8037     339.5368    457.69961   -307.94128      39457.2 
   31500    300.80568   -1269.9484    351.18565    433.37731   -224.47596      39457.2 
   31600    299.60991   -1312.2886     371.3637     405.8401    35.944682      39457.2 
   31700    291.56833   -1293.5681    346.45154    363.50103   -189.53579      39457.2 
   31800    296.85493   -1246.1729    359.33958    447.54787   -151.16988      39457.2 
   31900    303.91601   -1260.6292    359.84699    465.33893   -499.12668      39457.2 
   32000    306.33585    -1308.121    349.43447    418.31195   -464.35897      39457.2 
   32100    288.21036   -1287.4982     352.3986    360.42368    -532.0955      39457.2 
   32200    306.34562   -1293.8056    353.31877    436.55565   -462.50268      39457.2 
   32300    296.07892   -1301.7082     357.3803    386.56509   -176.21604      39457.2 
   32400    299.28974   -1313.8611    356.13158     387.5963    285.35313      39457.2 
   32500    306.52736   -1290.1976    366.24181    453.90356    751.02489      39457.2 
   32600    304.20056   -1296.2571    368.31737     439.4605    575.62142      39457.2 
   32700    296.32773   -1264.6618    397.18904    464.53866    577.28451      39457.2 
   32800    302.53138   -1257.7446    376.30979    478.46239    280.91866      39457.2 
   32900     291.4861   -1219.4709    382.94438    473.72146    515.35191      39457.2 
   33000    306.30517     -1302.91    356.43317    430.38372    212.57217      39457.2 
   33100     300.5581   -1268.9031    366.98853    449.11258   -114.61872      39457.2 
   33200    297.79486   -1249.5192    367.32214    456.40915    29.325633      39457.2 
   33300    297.26278   -1267.8458    360.50092    428.86964    290.60155      39457.2 
   33400    299.56926   -1296.3871    342.21815    392.41335    41.595815      39457.2 
   33500    298.83223   -1236.2135    351.68869    458.74447    175.60559      39457.2 
   33600    308.00935   -1233.3376    358.29953    509.48298     32.77756      39457.2 
   33700    310.88366   -1242.7333    357.13008    511.83792    29.463985      39457.2 
   33800     301.8863   -1271.3338    379.81886    465.48253    328.18059      39457.2 
   33900    291.73555   -1209.6467    384.03764    485.76024    465.49235      39457.2 
   34000    316.57949   -1239.1091    356.03317    539.96838     730.5446      39457.2 
   34100      288.018   -1275.6743    375.00438    393.98867     435.1801      39457.2 
   34200     302.2603   -1272.4335    366.98475    453.22994    203.97499      39457.2 
   34300    299.63908   -1285.3339    368.47161    430.03378   -3.2368469      39457.2 
   34400     299.5399   -1251.1528    370.69078    465.98824    369.36135      39457.2 
   34500    314.02628   -1227.3822     373.6175     557.8028    661.34428      39457.2 
   34600    292.53812   -1266.1879    381.53712    430.32606    437.71306      39457.2 
   34700    304.85612   -1277.7916    360.97607    453.53153    773.42305      39457.2 
   34800    301.90356   -1275.5354     370.8172    452.35688    668.01169      39457.2 
   34900    303.64627   -1312.4798    378.70581    431.13472    197.34701      39457.2 
   35000    300.01171   -1270.6636    364.92576    442.83323    96.695662      39457.2 
   35100    293.47443    -1257.901    374.95967    436.24428    254.08843      39457.2 
   35200    300.38376   -1200.1216    360.91184    511.03376   -233.74129      39457.2 
   35300     300.4946   -1242.4314    374.74863    483.05889   -218.83444      39457.2 
   35400     295.2523   -1282.1273    380.87207    425.92206   -405.38583      39457.2 
   35500    295.31197   -1267.1136    374.53774    434.86958   -17.555569      39457.2 
   35600    304.71863   -1251.9825    374.90852    492.65502    487.65082      39457.2 
   35700    305.99562    -1266.919    367.03244    475.58264    -34.48877      39457.2 
   35800    294.64003    -1245.517    377.21127    456.11939   -250.13411      39457.2 
   35900    294.90326   -1239.0294    395.86103    482.43993    190.67509      39457.2 
   36000    302.61497   -1271.4366    378.63102    467.46735   -273.25806      39457.2 
   36100    306.10339   -1282.8086    367.84384    460.98886   -556.43642      39457.2 
   36200    309.73117   -1254.3593    390.81858    528.71996    -865.5719      39457.2 
   36300     301.1038   -1264.2293    375.61103    464.86182   -525.33229      39457.2 
   36400     302.3254   -1281.5196    379.51631    456.96801   -122.17809      39457.2 
   36500     297.5934   -1266.3018    373.79278    445.19165   -8.1053225      39457.2 
   36600    301.03637   -1299.2549    370.91965    424.84174    71.484792      39457.2 
   36700    302.14849   -1321.4789    361.94434    398.64148    169.71777      39457.2 
   36800    307.71484   -1312.5186     344.8632    415.54176    320.31462      39457.2 
   36900    294.66623   -1290.7722    368.60131    402.37196    452.38342      39457.2 
   37000     304.4831   -1297.8774    379.16912    449.96205    320.05776      39457.2 
   37100    299.87049   -1349.9318    372.65908    370.66358    177.56185      39457.2 
   37200    295.97488   -1315.4196    375.86684    390.87254     48.11712      39457.2 
   37300      295.154   -1277.4278    380.79621    430.10379   -168.21997      39457.2 
   37400    294.33562   -1321.0004     370.5154    372.57171   -142.43054      39457.2 
   37500    305.70954   -1321.9077    376.20205    428.47751   -283.67409      39457.2 
   37600    304.82162   -1337.8043    382.49759    414.88524    86.952334      39457.2 
   37700    311.91447   -1304.4609    373.72122    471.33504   -249.86757      39457.2 
   37800    289.35618   -1289.3069    378.79843    390.16536    356.55893      39457.2 
   37900     305.2143   -1328.6094    383.24694    426.59461    488.15345      39457.2 
   38000    284.50436   -1325.1253    388.82754    342.56681    306.73723      39457.2 
   38100    306.31026   -1300.4008    381.08227    457.56496   -74.658042      39457.2 
   38200    304.21157    -1296.607    353.79691    424.63962    20.827563      39457.2 
   38300    302.06826   -1268.7341    392.67407    481.75535    104.06672      39457.2 
   38400    303.82948   -1317.5813    402.59847    450.74932   -34.081672      39457.2 
   38500    306.09877   -1326.5625    379.01422    428.38452   -68.434055      39457.2 
   38600    295.33826   -1329.8888    400.12638    397.80129    -393.2321      39457.2 
   38700    300.63346   -1342.4062     373.0203       381.98   -56.838832      39457.2 
   38800    293.12543   -1376.5445    393.90487    334.97718    103.19587      39457.2 
   38900    294.05637   -1322.4625     385.7381    385.07704   -53.664467      39457.2 
   39000    299.63754   -1306.9795    374.35072    414.26038   -90.130507      39457.2 
   39100    298.92718   -1321.6833    383.32968    405.34243    63.027501      39457.2 
   39200    296.27832   -1368.0787    381.56789    345.27846   -44.159864      39457.2 
   39300    316.44933   -1329.5341    376.42011    469.34523    786.79916      39457.2 
   39400      291.329   -1293.3852    405.05564    421.21223    330.61116      39457.2 
   39500    308.36568   -1307.0696    404.29235    483.34543    220.33029      39457.2 
   39600    298.22032   -1295.1821    383.33369     428.6703    28.575376      39457.2 
   39700    305.26669   -1293.1091      376.278    455.36149   -93.423921      39457.2 
   39800    310.80767   -1326.5545    379.53529    450.08046    422.25732      39457.2 
   39900    297.02696   -1333.9052    401.16207    402.41131    152.78931      39457.2 
   40000    309.12385   -1361.4367    383.34592    411.43992   -229.53468      39457.2 
   40100     295.4966   -1290.2747    408.60234    446.60304   -80.817172      39457.2 
   40200    292.40608   -1297.9189    397.06346    413.52784    259.54561      39457.2 
   40300    302.39028   -1310.6514    398.02806    446.63963    264.81279      39457.2 
   40400    299.06822   -1279.4804    371.40263    436.25234    75.373028      39457.2 
   40500    296.68756   -1275.7681    402.13254    459.99324    637.59345      39457.2 
   40600    309.68645    -1256.078    391.31426    527.29592    499.36551      39457.2 
   40700    297.53543   -1261.1924     399.8777    476.12538    528.64564      39457.2 
   40800    304.53407   -1269.9006    405.48783    504.48667    611.99141      39457.2 
   40900     306.3821   -1253.4802    389.01065     512.7369    354.95701      39457.2 
   41000    294.50436   -1289.4454    412.71693    447.08673    640.84349      39457.2 
   41100    306.55341    -1280.901    402.16377    499.23927    240.35594      39457.2 
   41200    293.39562   -1295.3617    410.46404    433.93373   -321.48654      39457.2 
   41300    307.97658   -1258.2038    398.33072    524.50065    75.208019      39457.2 
   41400    299.18025   -1263.6374    393.84738    475.04366   -185.53306      39457.2 
   41500     304.2022   -1266.9499    403.19975    503.65744     417.7681      39457.2 
   41600    297.91839   -1223.3691    431.37811    547.17054    122.17255      39457.2 
   41700    289.34369   -1225.4241    389.49792    464.69149    69.173492      39457.2 
   41800    306.74605   -1186.5302    402.87592    595.18814    -127.7385      39457.2 
   41900     292.6764   -1208.0838    378.47616    485.99077    191.26957      39457.2 
   42000    306.93491   -1230.9556    417.04758    565.78331    246.37602      39457.2 
   42100    297.65898    -1233.361    412.50517    517.13957    309.62502      39457.2 
   42200    299.67373   -1226.0371    394.65156    515.66627    357.91738      39457.2 
   42300    306.27828   -1248.6872    392.65336    520.70586    252.38447      39457.2 
   42400     307.6144    -1256.397    386.46354    512.81222    316.90779      39457.2 
   42500    306.30726   -1248.4221    397.19903     525.6469   -248.21276      39457.2 
   42600    303.16645   -1251.2607    404.78757    516.27875    4.3721485      39457.2 
   42700    297.09455   -1266.7989    397.10616    465.76554   -39.047686      39457.2 
   42800    298.21845    -1236.817    414.60315    518.29639    381.13334      39457.2 
   42900      302.701   -1291.6618     402.6004    471.59829     450.5228      39457.2 
   43000    301.36221    -1285.925    384.29075     453.0074    463.80791      39457.2 
   43100    297.08059    -1280.225    408.44059    463.61109    778.12827      39457.2 
   43200    300.36343    -1299.688    389.63481    440.09892    504.16345      39457.2 
   43300    296.51482   -1295.5746    388.05648    425.33425    366.90104      39457.2 
   43400    301.88804   -1318.8757    391.86825    429.99793    309.00856      39457.2 
   43500    300.35308   -1292.6692    385.59743    443.03385    162.90183      39457.2 
   43600    308.41182   -1277.1782    385.08523    494.23715    227.12302      39457.2 
   43700     307.5303   -1296.0083    394.48641    480.84573     121.9478      39457.2 
   43800    306.92187   -1283.9961    368.68956    464.32621    153.71254      39457.2 
   43900    298.62559   -1277.4536    383.14134     448.0282    805.94786      39457.2 
   44000    301.53604   -1291.3866    407.87831    471.91483    384.56334      39457.2 
   44100    293.53749   -1260.7188    414.28838    473.03863    393.94548      39457.2 
   44200    291.62805   -1308.2034    404.13953     406.8222    445.31645      39457.2 
   44300    302.17376   -1311.1929    385.71169    432.80845  -0.69702034      39457.2 
   44400    305.90314   -1278.4193      392.338    488.97218    68.190697      39457.2 
   44500    294.58591   -1293.5949    404.76075    435.34771    -30.01068      39457.2 
   44600    290.27584   -1286.3402    401.81861    420.28618     243.3533      39457.2 
   44700    297.45957   -1345.9171    394.30377    385.48578    447.76799      39457.2 
   44800    294.61198   -1327.9427     380.6256    376.98185     297.5512      39457.2 
   44900    287.17357   -1316.0833     382.2911    357.07064   -247.03702      39457.2 
   45000    295.07957   -1317.3277    384.08075    393.15391    26.485001      39457.2 
   45100    308.46979   -1304.6505    375.42127    457.36141    603.49672      39457.2 
   45200     314.5825   -1272.5446    393.39827    534.92136    537.01068      39457.2 
   45300    290.94877   -1287.4174    411.59992    432.01521    641.18933      39457.2 
   45400     301.0954   -1324.4668    409.97005    438.94554    148.93777      39457.2 
   45500    298.16495   -1311.4383    386.51576    415.34723   -638.23741      39457.2 
   45600    298.43539   -1293.1883    416.35211     464.6492   -834.82123      39457.2 
   45700      301.959   -1237.6569    394.37179    514.03922   -135.73439      39457.2 
   45800     298.4931   -1235.6679    411.26231     517.3393   -358.22129      39457.2 
   45900    295.09003   -1266.5342    389.14198    449.05563   -9.0062166      39457.2 
   46000    292.74941   -1265.0903    391.58622    442.42254    128.37583      39457.2 
   46100    294.68472   -1292.2542    403.01101    435.38272   -6.5720526      39457.2 
   46200    297.43092   -1277.8069    409.68499    468.84842   0.47713183      39457.2 
   46300    293.66453   -1289.6284     386.9131    417.32488    669.60054      39457.2 
   46400    297.10491   -1284.3483    372.16093    423.31749    410.37182      39457.2 
   46500    307.20393   -1292.9088    378.22964    466.22144    227.50551      39457.2 
   46600    301.36879    -1336.914    400.95171    418.70893   -67.315673      39457.2 
   46700    305.56632   -1326.1133    391.48801    438.91412    320.80663      39457.2 
   46800    308.14032   -1323.7942    403.94425    465.25974    383.51208      39457.2 
   46900    305.10461    -1307.429    395.16021    459.19524    420.36803      39457.2 
   47000    294.97509   -1263.8906    374.25099     436.2916   -253.28293      39457.2 
   47100    298.86462   -1279.0098    369.98311    434.38817   -182.20789      39457.2 
   47200    293.89591   -1291.3738    416.65448     446.3609   -201.87488      39457.2 
   47300    306.61703   -1292.1325    392.08863    478.21852    224.96274      39457.2 
   47400    300.69869   -1264.2099    422.49167    509.94085    284.56824      39457.2 
   47500    304.39653   -1270.4705     406.8642    504.67483    14.192988      39457.2 
   47600    303.77992   -1241.1545     391.1148    515.46973    123.36907      39457.2 
   47700    297.94277    -1278.081    396.43453    457.62458    162.48561      39457.2 
   47800    304.08844   -1266.5141    401.85046    502.23264    406.35247      39457.2 
   47900    309.02172    -1278.721    430.29574    540.64642   -80.174688      39457.2 
   48000    307.64168   -1263.9458    398.50773     517.4302    450.33092      39457.2 
   48100    295.05497   -1237.5553    377.10666    465.84164    254.95013      39457.2 
   48200    289.62607   -1269.0661    410.11894    442.93988    336.12264      39457.2 
   48300    304.72385   -1284.3273    428.31933    513.74454    127.72139      39457.2 
   48400    297.60471   -1303.1425    424.53846    459.14743    130.84266      39457.2 
   48500    299.07987   -1270.9883    404.77349    478.16762    -354.9398      39457.2 
   48600    291.86092   -1275.0812     410.5722    447.42379    -241.4017      39457.2 
   48700     301.1001   -1280.8443    412.14577    484.76492    19.575087      39457.2 
   48800    297.77188   -1292.9166    415.89431    461.48065   -272.79737      39457.2 
   48900    324.32843   -1291.1171     377.7908    544.54995    43.688314      39457.2 
   49000    302.92448   -1331.5741    409.62236     439.7124   -506.10851      39457.2 
   49100    307.21588   -1314.9507    411.61393    477.61749   -242.41259      39457.2 
   49200    285.83549   -1280.0348    390.96186    395.77519    -229.5249      39457.2 
   49300    302.44894   -1305.5095    418.73179    472.74888   -328.90701      39457.2 
   49400    297.47025   -1292.0438    410.92557    456.02885   -498.42103      39457.2 
   49500    307.27774   -1302.6512    418.59991    497.18113   -195.70926      39457.2 
   49600    300.00543   -1297.3659    428.70944     479.8864   -414.54014      39457.2 
   49700    304.45627   -1322.8266    405.82507    451.54811   -212.85316      39457.2 
   49800     300.9371    -1336.856     421.3519     437.2267   -182.96534      39457.2 
   49900    286.85482   -1331.6206     393.4538    351.26323   -201.37318      39457.2 
   50000    293.14337   -1285.0807    413.00122    445.61808   -16.118423      39457.2 
   50100    299.20684   -1296.1116    417.19399    466.03557    47.826222      39457.2 
   50200    294.45435    -1325.368    410.17101    408.39348   -221.88601      39457.2 
   50300    306.12263   -1361.2952     409.9289    424.67377    287.54534      39457.2 
   50400    301.49524   -1341.8101    410.17918    423.60871    -61.98417      39457.2 
   50500    299.24962    -1352.717    408.51681    400.94529   -214.08269      39457.2 
   50600    300.96867   -1365.4236    394.43003    381.87912   -231.00876      39457.2 
   50700    295.77064   -1337.1335    406.15769    398.53139   -51.451507      39457.2 
   50800    305.46051   -1286.3235     399.7894    486.52974     -125.552      39457.2 
   50900    296.61846   -1333.2824    392.73263    392.76845    152.45766      39457.2 
   51000    295.90175   -1331.6575    415.83282    414.27185    95.767524      39457.2 
   51100    303.27435   -1294.0353    394.19163    463.39324    66.865578      39457.2 
   51200    312.20712   -1325.7923    400.80805    478.40591    612.44362      39457.2 
   51300    300.71256   -1320.8117    417.43606    448.34584    1265.3043      39457.2 
   51400    303.59993   -1344.6205    412.03658    432.11641    1076.4442      39457.2 
   51500    302.02242   -1342.6925    398.14031     413.0572    774.68991      39457.2 
   51600    298.94773   -1317.6025     422.4333     448.6193    274.94957      39457.2 
   51700    298.59046   -1304.1197     421.8964    459.95916    431.33906      39457.2 
   51800    293.87831   -1375.3788    420.02145    365.64373    298.58057      39457.2 
   51900    299.55109   -1353.0226    408.59139    402.06935    377.58214      39457.2 
   52000    301.22811   -1358.6506    390.03238     385.4207   -88.070121      39457.2 
   52100    310.51799    -1328.059    418.02777    485.76628   -315.69912      39457.2 
   52200    297.48976   -1342.1241    377.79744    372.90809   -221.81089      39457.2 
   52300    299.08457   -1323.7778    386.35196    406.97771   -358.33587      39457.2 
   52400     300.8049   -1353.7121    403.67424    402.09871    -135.7246      39457.2 
   52500    301.54343   -1298.8333    410.97775    467.60066    124.37264      39457.2 
   52600    303.23311   -1301.2656    418.78459    480.57047    480.44023      39457.2 
   52700    301.96473   -1315.4179    400.63432    442.56643    394.34788      39457.2 
   52800    300.99382   -1344.6261    391.44968    399.80937    78.337197      39457.2 
   52900    291.09083   -1345.7873    393.02688    355.71079     51.57572      39457.2 
   53000    300.02689   -1365.8063     384.0427    366.87576   -238.73272      39457.2 
   53100    307.85872   -1308.7667    379.19304    454.27024    631.96127      39457.2 
   53200    292.74727   -1319.4129    396.64466    393.14877   -94.816166      39457.2 
   53300    287.43896   -1280.6536    413.90988    425.31208    656.94323      39457.2 
   53400    300.74375   -1289.9067    387.50994    449.46488   -55.767788      39457.2 
   53500    301.20048   -1305.1675    395.50133     444.2485   -12.392148      39457.2 
   53600    298.24239   -1314.5277    399.96548    426.05569     287.4803      39457.2 
   53700    306.16403   -1343.3988    405.24069    438.06804    479.50981      39457.2 
   53800    291.87153   -1337.2867    407.68223    382.37601     270.5993      39457.2 
   53900    297.32711   -1352.3419    408.92305    393.08483    129.51535      39457.2 
   54000    306.54347   -1350.4664    403.13163    430.59697    674.91374      39457.2 
   54100     299.9121   -1335.9817    390.27484     402.4165    315.26475      39457.2 
   54200    297.98115   -1329.3585    381.93338    392.01844   -18.286879      39457.2 
   54300    298.32747   -1358.5917    405.94238    388.35103    8.3304698      39457.2 
   54400    308.46218   -1332.5316    414.13225    468.15714   -26.687171      39457.2 
   54500    294.76822    -1331.418    382.22208    375.80543    5.6002351      39457.2 
   54600    303.81232   -1334.0032    406.79092    438.44276    82.745975      39457.2 
   54700    306.67201   -1275.0888    390.00812    493.42886  -0.89878737      39457.2 
   54800    287.95651   -1277.0344    425.63441    442.98228    119.72664      39457.2 
   54900     303.4199   -1295.1713    413.39575    482.11554   -161.26843      39457.2 
   55000    312.61094   -1279.5203    411.38293      537.068   -184.48816      39457.2 
   55100    301.00411    -1280.088    435.02667    507.97063   -176.10098      39457.2 
   55200    303.54719   -1294.5327    451.16129    521.09191   -472.69421      39457.2 
   55300    294.96804   -1335.1672    406.81993    397.55223   -466.22491      39457.2 
   55400    296.47626   -1346.7994    414.29715     400.1768   -800.72157      39457.2 
   55500    294.04864   -1342.1989    413.11735    392.68526    68.347044      39457.2 
   55600    301.47221   -1339.4143    415.94333    431.66521   -8.0251563      39457.2 
   55700    300.92347   -1360.6622    437.19811    429.20537     289.2478      39457.2 
   55800    304.98398   -1339.4549    426.70536    458.17227    534.11222      39457.2 
   55900    304.98663   -1360.1841    406.93441    417.68399    332.43395      39457.2 
   56000    305.36473   -1348.5832    403.98057    428.03069    303.57563      39457.2 
   56100    293.41346   -1341.2108    422.03481    399.73554    1145.1025      39457.2 
   56200    298.85676   -1366.0085    421.81608    399.18711    1060.4868      39457.2 
   56300     295.1709   -1378.9717    415.92173    363.76144    266.96905      39457.2 
   56400    296.98083   -1349.2506      394.497    380.19356    510.50138      39457.2 
   56500    296.95285   -1326.1459    409.74812    418.42358    607.86409      39457.2 
   56600     296.6335   -1356.7922    417.60453    394.19813    509.87351      39457.2 
   56700    305.12241   -1312.8538    442.36237    501.05259    501.09733      39457.2 
   56800    301.65327   -1369.4858    435.60626    422.07054   -111.45465      39457.2 
   56900    306.88061   -1327.4769    411.37339    463.34378   -619.35587      39457.2 
   57000    297.22126   -1299.4742    408.45688    445.01051   -627.08645      39457.2 
   57100    292.39538   -1312.5593    407.11132    408.88724   -97.717035      39457.2 
   57200    300.45214   -1380.5656    410.84427    380.82948    152.39155      39457.2 
   57300    309.38507   -1368.1391    431.54334    454.10917    269.86751      39457.2 
   57400    302.13303   -1339.8152    391.54324    409.83458   -233.59669      39457.2 
   57500    293.94881   -1356.2988    414.66959    379.68883   -31.259863      39457.2 
   57600     302.4427   -1365.7058    396.90396     390.6967   -335.26797      39457.2 
   57700    295.86759   -1317.8514    413.49702    425.58863   -1.5556534      39457.2 
   57800    306.79785   -1341.2371    391.47674    429.31484    29.109144      39457.2 
   57900    301.39493     -1344.84    408.94539    418.89418    177.64841      39457.2 
   58000    309.50665   -1345.4172    419.08088    464.91511    124.84276      39457.2 
   58100    298.56648   -1365.5864    398.09038    374.57866    -171.3163      39457.2 
   58200    291.19731   -1338.1808    427.27896    398.04796   -105.06482      39457.2 
   58300    303.05543   -1328.4358    428.91955    462.73651    133.05417      39457.2 
   58400    295.59786   -1306.1854    425.21499    447.76017    441.32329      39457.2 
   58500    293.96705   -1330.6693    413.02947    403.76016    291.55853      39457.2 
   58600    293.83129   -1334.4905    444.42466    430.72393    337.14136      39457.2 
   58700    287.97456   -1341.9613    424.94535    377.44746    228.47953      39457.2 
   58800    306.98935   -1323.3127    420.43935    477.06271   -30.030334      39457.2 
   58900    294.78002   -1343.5833    425.55956     407.0306   -238.41317      39457.2 
   59000    309.43654   -1353.7137    403.20019    440.42279   -574.24785      39457.2 
   59100    311.53496   -1285.6229    419.32832    534.07427   -279.35057      39457.2 
   59200    294.07318   -1323.3924    427.81931    426.30394   -422.39119      39457.2 
   59300     302.0204    -1328.533    430.46338    459.53069   -569.20544      39457.2 
   59400    299.70122    -1331.067    416.31506    432.42344   -463.92745      39457.2 
   59500    297.48309   -1348.5026     435.3471    424.04932   -470.13025      39457.2 
   59600    303.67509   -1340.3993    392.20205    416.84097    16.765197      39457.2 
   59700    297.16289   -1310.1263    422.79164    448.43082   -197.86155      39457.2 
   59800    302.84479   -1333.2188    417.62671    445.71394   -132.66895      39457.2 
   59900    300.59795   -1329.4843    416.01759    437.73955   -66.222973      39457.2 
   60000    303.24233   -1305.9703    426.59502    483.71769   -378.07609      39457.2 
   60100    301.86335   -1292.1507    437.97681    502.72046    91.874672      39457.2 
   60200     304.9911   -1324.9397    418.94677    464.96086   -15.247708      39457.2 
   60300    294.68548   -1349.3262    440.32629    415.62944    19.890203      39457.2 
   60400    315.92385   -1342.8661    425.27453    502.50555   -234.21572      39457.2 
   60500    292.07976   -1364.0471     394.6097     343.4791   -441.72708      39457.2 
   60600    303.48577   -1348.7114    414.90715    430.38292   -443.73942      39457.2 
   60700    299.07815    -1322.378    405.88922    427.88589   -231.67492      39457.2 
   60800    304.11148   -1327.9719     405.6896    444.71748   -263.74381      39457.2 
   60900    295.54314   -1355.5049    402.65358    375.63323    -136.1451      39457.2 
   61000    303.93938    -1346.016    391.36279      411.573   -350.11626      39457.2 
   61100    314.46113   -1362.7667    394.79659    445.55207   -308.61868      39457.2 
   61200    300.55195   -1377.2597     416.8779    390.61768   -221.13457      39457.2 
   61300    295.00968   -1396.1581    419.69902    349.62759    -18.70417      39457.2 
   61400    304.79265   -1331.6892    420.26132    458.63381    26.449076      39457.2 
   61500    292.91105   -1372.8684    420.53492    364.31975     207.3541      39457.2 
   61600    298.31444   -1386.3612    410.62291    365.20345     200.7693      39457.2 
   61700    305.18211    -1336.877    415.18841    450.12374   -383.68662      39457.2 
   61800    295.92096    -1362.505    420.55202    388.22997   -100.89129      39457.2 
   61900    311.26434   -1340.3691    410.48989    469.27311    66.921082      39457.2 
   62000    306.36871   -1352.3463    423.91439    448.71433    77.746711      39457.2 
   62100    299.00424   -1361.4119    397.78366    380.41426    112.40635      39457.2 
   62200    292.82523   -1368.3326    415.69316    363.62802     -177.632      39457.2 
   62300    312.52328   -1373.1334    434.07049    465.74845    257.97995      39457.2 
   62400    295.83178   -1341.9451    419.14096    406.97795    245.77863      39457.2 
   62500    307.36951   -1406.1655    434.18348    409.66281     215.4404      39457.2 
   62600    309.37561   -1397.8632    428.28145    421.08069    455.20245      39457.2 
   62700    297.69192   -1370.6547    451.63728    419.12612    184.32228      39457.2 
   62800    299.70692   -1423.1729    397.05941     321.0876    262.30135      39457.2 
   62900    310.59251   -1383.0811    395.80992    408.86124    165.85483      39457.2 
   63000    303.79166    -1415.332    408.53163    358.76184    499.16803      39457.2 
   63100    291.24667   -1421.9745    393.82587    281.02302   -3.6354967      39457.2 
   63200    306.96944    -1370.916    422.69803    431.62853   -198.08964      39457.2 
   63300    303.35902   -1360.6138    412.59329      415.597    -232.8916      39457.2 
   63400    298.21679   -1422.1827    422.94818    341.26837   -186.97569      39457.2 
   63500    302.15474    -1396.764    417.49572    378.93594    137.17011      39457.2 
   63600    297.15504   -1416.2275    418.96492    338.46767   -59.745639      39457.2 
   63700    305.01726   -1347.4446    422.68328    446.31008   -70.681964      39457.2 
   63800    290.84489   -1358.0465    449.12991    398.44911   -398.61903      39457.2 
   63900    289.29644   -1348.1279     429.3832    381.66059   -237.92734      39457.2 
   64000    299.71099    -1403.953    438.04004    381.30634   -295.75678      39457.2 
   64100    304.41458   -1400.4441    435.22268    403.14081    -162.5621      39457.2 
   64200    305.03098   -1368.0142    425.39643     428.5153   -98.684471      39457.2 
   64300     298.1728   -1364.3008    437.57568       413.58   -404.04352      39457.2 
   64400    301.58823   -1384.1918    437.07878    408.54463   -269.90401      39457.2 
   64500    313.12278   -1373.4682    463.72697    497.76491   -318.37589      39457.2 
   64600    302.84088   -1394.0212    458.65551    425.92271   -426.22258      39457.2 
   64700    303.73282    -1401.205    422.71629    386.80903    75.339791      39457.2 
   64800     303.5593   -1384.6994    436.44584    416.26418    -80.76885      39457.2 
   64900    297.84102    -1365.662    439.42013    412.57185   -102.07903      39457.2 
   65000    303.95309   -1395.1113    434.28677    405.46333      39.6848      39457.2 
   65100    300.83829   -1367.3343    414.73945    399.69181    450.73351      39457.2 
   65200    294.11652   -1367.6098    431.74178    386.20382    765.44862      39457.2 
   65300    301.41834   -1392.9868    422.20005    384.10726    554.18503      39457.2 
   65400    298.77177    -1347.905    450.34155    445.43401    637.61374      39457.2 
   65500     297.3375   -1378.4035    453.77873    411.92561    224.34487      39457.2 
   65600    306.21761   -1345.8973    428.48613    459.05587    247.96577      39457.2 
   65700    296.81714   -1416.0496    430.49664    348.65838   -589.90464      39457.2 
   65800    293.37956    -1373.735    456.33346    401.35764   -268.28627      39457.2 
   65900    307.93661   -1363.7031    422.38996    442.88085   -413.43932      39457.2 
   66000    294.85869    -1360.644    446.54961    411.31354    213.17064      39457.2 
   66100    301.38299   -1383.2942    419.05741    390.49828   -51.945996      39457.2 
   66200    291.44164    -1361.742     424.1542    372.46031    114.88003      39457.2 
   66300    303.38328     -1368.25    424.54426    420.02077     459.9721      39457.2 
   66400    298.19237   -1345.0775    437.93885    433.25438     -356.052      39457.2 
   66500    295.81783   -1304.8183    438.16335    463.06442    117.21808      39457.2 
   66600    295.60969   -1363.8737    443.13637     408.0464   -761.13149      39457.2 
   66700    296.74343   -1328.7958    429.72233     434.8065    207.02632      39457.2 
   66800    293.63682   -1364.2814    434.89106    390.52522    131.79161      39457.2 
   66900    308.94741   -1363.0634    424.71446    450.38862    108.71985      39457.2 
   67000    308.58549   -1396.8919    419.64642    409.86531    422.35072      39457.2 
   67100    296.83805   -1385.3083     417.9137    366.91069    374.69018      39457.2 
   67200    316.87391   -1396.6595    415.52948    443.23774    480.60685      39457.2 
   67300     307.9444   -1370.9773    411.38933    424.64103    58.427173      39457.2 
   67400    296.99964   -1364.6038    432.95686     403.3847   -302.57993      39457.2 
   67500    289.69825   -1369.2927    399.70086    332.61966    121.62801      39457.2 
   67600    301.65937   -1381.7154     421.8107    396.07276   -111.80631      39457.2 
   67700    300.57585    -1344.915    428.68884    434.88076    4.0859485      39457.2 
   67800     300.5849   -1320.3844    431.30814    462.07136   -96.463812      39457.2 
   67900    297.56899   -1366.5677    449.08689    420.11014   -1.5118578      39457.2 
   68000    301.11604    -1388.844    421.64623    386.33739    209.49212      39457.2 
   68100    297.65172    -1354.321    439.21652    422.85829   -45.767979      39457.2 
   68200    302.46107   -1350.4898    442.08871    451.18004    148.89524      39457.2 
   68300    303.56903    -1367.819    448.38731    445.12978    245.64808      39457.2 
   68400    301.81964   -1368.8468    440.32071     428.1718   -67.786766      39457.2 
   68500    312.24173   -1324.4234    435.68722    514.80959     458.7156      39457.2 
   68600    309.65278   -1366.2143    423.32299      449.017    254.84737      39457.2 
   68700    293.66909   -1414.9489    416.70553     321.8172    96.769757      39457.2 
   68800    293.11065   -1364.7695    427.84984    380.63076    39.190169      39457.2 
   68900    298.72449   -1352.3714    442.68731    433.10088   -204.33089      39457.2 
   69000    307.45661   -1360.8989    426.60524    447.74273   -95.857204      39457.2 
   69100    291.03385   -1374.0524    438.07175    372.23443   -49.886978      39457.2 
   69200    303.67493   -1380.1274    401.99091    386.90102    31.199327      39457.2 
   69300    296.89521   -1409.7252    412.69717    337.53427   -246.89363      39457.2 
   69400    293.51103   -1421.5912    416.04302    313.80195   -346.93924      39457.2 
   69500    310.41003   -1404.3314    430.52059    421.50139   -416.96906      39457.2 
   69600    308.99688   -1424.2911    436.93182    401.60066   -529.28383      39457.2 
   69700    302.40563   -1420.0125    416.69598     356.0154   -95.471612      39457.2 
   69800    302.51339   -1402.7242    419.94611    377.03824    328.26892      39457.2 
   69900    300.64375   -1403.3045    439.42156    387.52919    180.46401      39457.2 
   70000    296.43967   -1400.7072    415.20037    347.00775    97.458267      39457.2 
   70100    301.18474   -1379.5049    429.71281    404.05186    171.89833      39457.2 
   70200    305.21647   -1357.2301    434.68232    449.41899    495.93549      39457.2 
   70300    296.46128   -1323.2636    430.77491    440.12307   -51.613437      39457.2 
   70400    294.76185   -1345.5199     431.6559    411.10867   -210.73387      39457.2 
   70500    293.82796   -1349.4853    422.94154    394.23101    46.627477      39457.2 
   70600    291.29509   -1320.0641    427.65519    416.98043    327.19353      39457.2 
   70700    293.05086    -1328.872    428.93136    417.34097    65.144645      39457.2 
   70800    303.32229   -1403.0187    418.25035    378.68397   -259.12756      39457.2 
   70900    295.84225   -1371.2669    422.71717    381.27943   -479.67826      39457.2 
   71000    297.60802   -1393.4127     427.0409    371.39458   -566.69093      39457.2 
   71100    307.22676   -1374.7117    432.49017    438.78169   -752.21418      39457.2 
   71200     302.2961   -1402.9447    433.55686    389.45174   -433.21135      39457.2 
   71300    308.41559   -1402.0921    406.63055    390.88556   -256.12418      39457.2 
   71400    287.91082   -1381.5899    438.96312    351.55012   -188.28293      39457.2 
   71500    302.45757   -1394.8056    400.26739    365.02718   -427.79988      39457.2 
   71600    301.47562   -1388.1391    404.43465    371.44701    -187.4381      39457.2 
   71700    303.89505    -1353.385    426.72619    439.36812   -241.17783      39457.2 
   71800    304.01467   -1405.7538    416.83296    377.64381   -24.524418      39457.2 
   71900    305.94919   -1367.8865    427.55675     434.9307    28.060282      39457.2 
   72000     293.0443   -1296.1861    451.97905    473.04515    -106.7442      39457.2 
   72100    291.90618   -1330.9725    434.00219    415.16595   -534.29008      39457.2 
   72200    301.21578   -1330.0277    423.36954     447.3253   -680.17057      39457.2 
   72300    300.81354   -1369.0599    430.76831     413.8838   -220.16961      39457.2 
   72400    307.43079   -1330.8998    458.22556    509.24611    -495.9455      39457.2 
   72500    296.38983   -1316.0359    413.06199    429.31658   -244.12067      39457.2 
   72600    294.72672   -1310.6482    458.75353    472.92008   -357.83649      39457.2 
   72700    302.22659   -1354.0232      438.953     443.4569   -526.18779      39457.2 
   72800    302.11281   -1338.3292    418.73554    438.42198   -14.731126      39457.2 
   72900    300.28134   -1341.5362    436.61576    444.86273   -66.044084      39457.2 
   73000    302.38743   -1336.7681    426.56297    449.04494   -265.75177      39457.2 
   73100    296.52695   -1359.5303    432.35924    405.73583   -406.47613      39457.2 
   73200    311.04924   -1350.0477    448.21461    496.35237    20.401992      39457.2 
   73300    298.52751   -1335.9309    418.17326    424.14189    674.12622      39457.2 
   73400    298.21998   -1341.0892    440.46631    439.89426    105.23765      39457.2 
   73500    299.26365   -1352.5104    448.83358    441.53168    369.62594      39457.2 
   73600    296.64021   -1383.1512    451.19872    401.46351    219.82358      39457.2 
   73700    300.98341   -1371.8201    430.56305     411.6819    -99.75403      39457.2 
   73800    302.30823    -1386.035    417.95487    390.81393    250.18682      39457.2 
   73900    301.49833   -1399.2976    405.20069    361.15667    114.51008      39457.2 
   74000     307.0077   -1349.6043    409.39065    439.80486    14.068494      39457.2 
   74100    298.42033   -1397.9464     420.0946    363.56601    14.904428      39457.2 
   74200    300.18804   -1394.4036    443.25233    398.21239    287.30415      39457.2 
   74300    297.99043   -1350.9578    433.12292    421.65045    433.18494      39457.2 
   74400    285.52469   -1353.5767    429.46877    359.34311    405.03515      39457.2 
   74500    297.81207    -1335.552    456.62295    459.75455    570.12989      39457.2 
   74600     300.5889   -1378.4749    431.42436    404.11503    380.66523      39457.2 
   74700    304.89453   -1395.0462    399.45722    374.93068     371.4762      39457.2 
   74800    303.40933   -1368.2606    401.44404    397.02701    1014.5025      39457.2 
   74900    298.62866   -1369.7266    410.78665    383.41429    497.50133      39457.2 
   75000    298.55023   -1329.9732    432.90387    444.93231   -243.56319      39457.2 
   75100    303.00583    -1354.592    427.04202    434.47987    -427.7853      39457.2 
   75200    293.48647   -1344.8712    423.47582    397.84437   -502.88258      39457.2 
   75300    308.44134   -1347.2557    423.35531    462.56241   -507.91862      39457.2 
   75400    302.33778    -1421.486    429.62284    367.16379    115.45415      39457.2 
   75500    306.75639   -1437.4796    416.85236    358.26161    562.86099      39457.2 
   75600     296.2652   -1370.4945    428.53109    389.76686    357.07868      39457.2 
   75700    297.94194   -1370.3726    422.64173     391.5365    416.23025      39457.2 
   75800    301.67253   -1391.1464    446.83384    411.72404    606.97068      39457.2 
   75900    293.17965    -1397.421    428.72941    349.16896    417.55454      39457.2 
   76000    297.88817    -1400.494    409.42836    347.96004    66.319853      39457.2 
   76100    315.42138   -1441.4757    414.85446    391.21734    83.106563      39457.2 
   76200    306.85523   -1418.5128    424.46836     385.2887     143.0594      39457.2 
   76300    307.01278   -1411.5077     424.6226    393.15628    613.72797      39457.2 
   76400    295.38407   -1403.9099    423.27542    347.13508    99.087469      39457.2 
   76500    293.95486   -1381.0537     425.2973    365.58877    491.42223      39457.2 
   76600    302.07036   -1413.2653    415.47532    360.03489    572.95143      39457.2 
   76700       303.96    -1402.874    434.92126    398.36621    517.11364      39457.2 
   76800    304.41685    -1418.732    438.30272    387.94317    515.34585      39457.2 
   76900    304.90946   -1394.5945    420.15591    396.14823    345.15445      39457.2 
   77000    313.75438   -1408.9889    427.27547    428.63181    197.69219      39457.2 
   77100    317.70429   -1383.4252    412.29374    456.96888    630.06834      39457.2 
   77200    303.24244   -1410.9336    431.87984    384.03964    833.06498      39457.2 
   77300    291.28808   -1391.9339    447.77878     365.2027    515.30413      39457.2 
   77400    307.84808   -1410.9292    414.10638    386.97321    35.350961      39457.2 
   77500    300.78501   -1407.8505    421.22118    365.41781    246.86983      39457.2 
   77600    311.36051   -1393.7085    451.23839     457.1145   -53.021266      39457.2 
   77700    293.53718   -1400.6907    456.18441    374.96141   -183.73227      39457.2 
   77800    294.19949   -1394.3135     439.4572    367.58851    443.04248      39457.2 
   77900    313.43725   -1413.6121    426.15121    421.45887   -132.18184      39457.2 
   78000    299.17724    -1402.144    413.18476    355.86082    180.52194      39457.2 
   78100     296.6195   -1370.7868    447.29661    409.83273    179.42795      39457.2 
   78200    297.68059   -1422.8496    425.29803    340.54099    515.48265      39457.2 
   78300    301.70828   -1393.7047    423.66832    386.16087    261.50601      39457.2 
   78400    304.94891   -1392.3477    444.21842    422.63488   -305.02387      39457.2 
   78500    302.74657   -1400.8595    427.80284     387.8078    431.28389      39457.2 
   78600    302.48742   -1464.1607    412.61072    308.14953   -241.85616      39457.2 
   78700    300.17416   -1401.8209    433.53476    381.01517     363.1997      39457.2 
   78800    300.54353   -1393.7781    412.49322    369.67676    105.96525      39457.2 
   78900    292.42874   -1380.6238     416.8693    350.73074   -368.06663      39457.2 
   79000    313.93098   -1338.5392    421.39017    493.99004    31.182386      39457.2 
   79100    297.58735   -1358.9854    415.62582    394.31385    100.73452      39457.2 
   79200    304.77612   -1376.4376    440.95123    434.50107   -25.232371      39457.2 
   79300     301.0833    -1378.176    432.79782    408.00977    524.46958      39457.2 
   79400    306.32368   -1400.0146    423.53015     400.4594    247.67642      39457.2 
   79500    289.71485   -1432.8271    455.08752    324.54648    400.40423      39457.2 
   79600    304.00777   -1376.2266     411.0554    401.36246    493.89948      39457.2 
   79700    303.22701   -1401.8387    412.07204    373.25737    310.27374      39457.2 
   79800    296.60327   -1418.0715    411.33016    326.50862    471.41367      39457.2 
   79900    305.00335    -1421.871    455.68926     404.8271    347.37556      39457.2 
   80000    296.36797   -1383.5001    462.07005    410.76221    -223.3673      39457.2 
   80100    316.04917   -1360.1091    404.13227    464.68362    243.24641      39457.2 
   80200    296.83958   -1386.3533    425.08855    373.04739    403.30273      39457.2 
   80300    299.29484   -1404.6636    449.35709    390.04221    141.61808      39457.2 
   80400    301.85714   -1376.8449    440.06602     420.0876    446.58877      39457.2 
   80500    299.33671   -1416.5479    423.88025    352.86927     73.46074      39457.2 
   80600    296.17662   -1416.1399    395.42945    310.62171    50.184897      39457.2 
   80700    303.02135   -1378.4939    439.14307    422.74876    42.221057      39457.2 
   80800     305.1423   -1386.3858     434.0068    419.25438    658.78535      39457.2 
   80900    293.99357   -1381.4161    461.68997    401.79304     225.0832      39457.2 
   81000    291.93485   -1406.1393      413.925    320.05079   -351.36771      39457.2 
   81100    305.40193   -1389.9268    423.44859    406.32228    138.36123      39457.2 
   81200    295.04902   -1384.2491    435.22695    377.24137    796.26084      39457.2 
   81300    296.46166   -1403.3257     439.3787    368.66641    90.597394      39457.2 
   81400    300.98369   -1339.8753    450.60487     463.6698   -12.165189      39457.2 
   81500    300.91997   -1370.0807     410.0806    392.65371    55.398085      39457.2 
   81600    306.15128    -1381.791     436.0176    430.39549   -642.38383      39457.2 
   81700    306.28198    -1367.065    432.68924     442.3806   -248.91274      39457.2 
   81800    307.50699   -1386.4927    455.89252    451.66269   -428.95618      39457.2 
   81900    305.56842   -1374.5042    436.88818    435.93284   -29.016676      39457.2 
   82000    296.81504   -1409.2122    415.02882    340.01855    335.19652      39457.2 
   82100    300.59296    -1396.757    425.11757     379.5444    302.87369      39457.2 
   82200    300.91962   -1456.4192    439.68991    335.92293    0.9669229      39457.2 
   82300    301.51509   -1440.1286    421.80917    337.00951   -104.42262      39457.2 
   82400    293.48791   -1376.7983    454.59832    397.04624    5.2166319      39457.2 
   82500    303.94942   -1393.8708    459.41782    431.81834    629.52535      39457.2 
   82600    299.74465   -1390.4364    435.19227    392.12652    262.46931      39457.2 
   82700    311.14205   -1389.7567    468.17016    477.01617    427.35316      39457.2 
   82800    299.43973   -1415.9422    412.54866    342.60647     -180.657      39457.2 
   82900    305.01473   -1390.5187    445.28777    425.82907    182.03113      39457.2 
   83000    304.85941   -1386.7737    435.70741    419.29553   -53.491937      39457.2 
   83100     295.0572   -1366.4997    446.23347    406.03407   -517.09421      39457.2 
   83200    298.81403   -1365.6897    421.64838    399.14617   -282.19971      39457.2 
   83300     299.1549   -1354.0334    461.57786    452.26416   -284.15111      39457.2 
   83400    287.99666   -1348.4487     446.3862    392.50018    41.061066      39457.2 
   83500    299.81087   -1347.5338    465.43308    465.56757    114.65011      39457.2 
   83600    303.69934   -1323.8539    437.15253    478.44587    250.23927      39457.2 
   83700    308.33387   -1350.0994     432.2087    468.08906   -101.49611      39457.2 
   83800    289.81003   -1336.5646    456.94573    423.09509    46.674452      39457.2 
   83900    306.54889   -1376.6275    440.55964    441.88831    171.21983      39457.2 
   84000    290.02933    -1341.881    438.36815     400.1868    528.55965      39457.2 
   84100    305.51223   -1342.4179    463.03443    493.91282    66.524301      39457.2 
   84200    295.17432   -1359.7386    419.78065    386.86874   -46.094934      39457.2 
   84300     301.7159   -1375.8946    484.96128    465.29822    124.47213      39457.2 
   84400     302.2976    -1345.927    456.40886    469.32816   -152.23819      39457.2 
   84500    306.70607   -1360.1976    438.27071    456.73574   -108.54671      39457.2 
   84600    302.06545   -1365.9816    427.68548     419.5067   -575.97286      39457.2 
   84700    282.78245    -1356.672    435.16089    349.61336   -229.19878      39457.2 
   84800    289.74905   -1384.0086    422.24002    340.67124   -145.44543      39457.2 
   84900    290.04905    -1368.679    446.45849    381.56788    77.888968      39457.2 
   85000    286.32049   -1355.5413    474.13777    405.62465    216.02098      39457.2 
   85100    304.58789    -1383.612    443.55205    429.08138    173.83062      39457.2 
   85200    297.12128   -1347.1428    449.10107    437.53675    266.53602      39457.2 
   85300    307.20399   -1376.2895    447.73896    452.35026    215.00104      39457.2 
   85400     300.2921    -1354.819    451.96736    446.97982    16.713189      39457.2 
   85500    291.94605   -1361.6021    448.08131    398.79461    188.69774      39457.2 
   85600    288.71389   -1340.0778    451.97947    409.68834    461.49001      39457.2 
   85700    295.60652   -1324.6046    452.70666    456.87156    355.33294      39457.2 
   85800    305.49768    -1314.368     478.1674    537.03033    283.80502      39457.2 
   85900    292.13725   -1349.6888    451.76021    415.24632  -0.51716863      39457.2 
   86000    308.06148   -1392.9934    452.45637    444.21827    147.21706      39457.2 
   86100    297.66312   -1389.3518    455.84055    404.50276   -625.67973      39457.2 
   86200    294.63074   -1350.7954    449.81346    423.40136   -742.27614      39457.2 
   86300    299.40732   -1344.4984     442.0673     443.4232   -475.62043      39457.2 
   86400    303.77555   -1392.3686    461.19098    434.31223   -384.66421      39457.2 
   86500    290.02053   -1397.5694    454.16971    360.26048   -120.87418      39457.2 
   86600    290.35287   -1376.1597    440.06016    369.05448    92.232321      39457.2 
   86700     308.3493   -1412.8333    448.24696    421.46273    217.68733      39457.2 
   86800    302.07348   -1407.2694    438.72154    389.29103   -97.588742      39457.2 
   86900    299.22711   -1391.8997    439.64603    392.79056   -13.587101      39457.2 
   87000    302.65063    -1446.209    426.76009    340.98426   -1.4662309      39457.2 
   87100     300.8211   -1421.6564    459.48096    390.03392    168.80641      39457.2 
   87200    306.04108   -1394.7941    453.78048    434.65985    131.49326      39457.2 
   87300    293.09478   -1381.1063    448.31938    384.69219    72.532368      39457.2 
   87400    308.63117   -1382.0273      449.296    454.58481    314.18083      39457.2 
   87500    308.81547   -1367.6911    443.64404    464.09749    115.67441      39457.2 
   87600    301.84281   -1421.2165    450.47863    386.06408    138.27869      39457.2 
   87700    305.57361   -1414.4156    437.97363    397.13027    133.33586      39457.2 
   87800    301.17137   -1397.3685    432.48578    388.90109    89.277883      39457.2 
   87900    292.76468   -1351.3206    443.78281    408.45748   -168.20143      39457.2 
   88000    308.60036   -1342.2809    447.30594    492.20266   -325.51957      39457.2 
   88100    298.27786   -1326.9299    465.38186    479.22924   -395.84868      39457.2 
   88200    284.41313    -1365.581    439.22304    352.09651   -660.06274      39457.2 
   88300    299.15963   -1354.3316    452.57281    442.98213   -606.26883      39457.2 
   88400    306.45205   -1374.1208    453.85771    457.25773   -800.40298      39457.2 
   88500    302.15122   -1360.0124    462.61015    460.78608   -431.70097      39457.2 
   88600    298.38444   -1357.6958    442.09824    425.65892   -327.32436      39457.2 
   88700    307.61688    -1317.361    455.50431     520.9001    261.17068      39457.2 
   88800     295.8735   -1328.5552    450.08208    451.49643   -249.92708      39457.2 
   88900    310.43868   -1353.5598    447.98887    489.87007    150.75753      39457.2 
   89000    296.88571   -1386.7767    455.50871    403.25151    102.57954      39457.2 
   89100    307.23854   -1384.7821    438.22829     434.5023    335.53264      39457.2 
   89200    296.52199    -1398.031    459.08449    393.93807     -115.347      39457.2 
   89300    290.00015    -1399.625     434.7766    338.72013    41.076715      39457.2 
   89400    290.26852   -1369.7231    443.46373    378.51548    -175.7967      39457.2 
   89500    308.64812   -1356.2718    433.69375    464.81426   -556.80811      39457.2 
   89600    312.39605   -1364.6093    434.14794    473.77816    -346.6906      39457.2 
   89700    299.60719   -1372.3172    452.23849    426.67402    -28.23649      39457.2 
   89800     303.3341   -1397.1851    456.94387    423.26425    343.90163      39457.2 
   89900    295.70445   -1389.1832    435.70028    375.72676   -34.267194      39457.2 
   90000    294.80499   -1371.4381    473.53979    427.26829    89.387381      39457.2 
   90100    304.43692   -1371.3332    438.82176    435.95123     378.6419      39457.2 
   90200    303.82772   -1449.5111    443.87085    360.08402   -72.531151      39457.2 
   90300    297.88588   -1440.4257    449.43808    348.02776   -183.06168      39457.2 
   90400    297.53227   -1385.8904    446.82399    398.35951   -281.65091      39457.2 
   90500    301.06632   -1393.1521    443.62161    403.78118   -299.72578      39457.2 
   90600    302.08121   -1416.1594    451.63159    393.34579   -763.23408      39457.2 
   90700    302.08331   -1428.1704     456.5249    386.23759    219.84461      39457.2 
   90800    305.99968   -1425.4713    470.51582    420.53191    134.61013      39457.2 
   90900    304.28546   -1369.2086    454.61196    453.18529    442.17735      39457.2 
   91000    295.10185   -1401.4741     441.4057    366.43258    90.879148      39457.2 
   91100    304.64421   -1408.9814     457.1887    417.60176    804.97491      39457.2 
   91200    299.58903   -1370.0785    467.64969    444.24228    482.00903      39457.2 
   91300     305.5285    -1369.439    451.25092    455.18137    696.64259      39457.2 
   91400     290.5403   -1430.8352    456.40049    331.56184    970.97217      39457.2 
   91500    302.02519   -1334.6077    453.14655     476.1607    991.87742      39457.2 
   91600     311.8588   -1335.4799    454.06349    520.40807    86.629599      39457.2 
   91700    305.30977   -1324.2112    448.06342    496.23842   -443.32969      39457.2 
   91800    304.70169    -1360.991    445.18654    453.84842    18.163253      39457.2 
   91900    294.05198   -1391.8054    449.15578    379.13216    300.60977      39457.2 
   92000    288.54168    -1355.755    441.57975    382.83735    412.41236      39457.2 
   92100    291.61574   -1349.7507    444.93093    406.01092   -275.52263      39457.2 
   92200    308.16581   -1381.1725    467.58563    471.63743   -81.298678      39457.2 
   92300    308.56086   -1425.2404    459.22383    420.98351    459.22098      39457.2 
   92400    295.27257    -1393.112    459.34428    393.50066    314.70378      39457.2 
   92500    294.30931   -1387.2413    474.38234     410.0795   -311.89473      39457.2 
   92600     294.3107   -1406.0638    453.70785    370.58878    305.91139      39457.2 
   92700    300.24015   -1405.0867    450.66309    395.17436    413.00205      39457.2 
   92800    305.09358   -1408.5555     467.1391    429.99804    587.06379      39457.2 
   92900    302.37953   -1411.5754    461.89718    409.53636    297.41381      39457.2 
   93000    297.86155   -1380.6411    448.71008      406.975    9.6521784      39457.2 
   93100    303.80391   -1421.9735    454.68313    398.32688    222.53932      39457.2 
   93200    304.93482   -1405.9837    460.57127    425.28837   -145.70385      39457.2 
   93300    290.02393   -1420.1861    443.67256    327.16189   -673.98962      39457.2 
   93400    309.20585   -1391.9222    462.28372    460.26079    130.63651      39457.2 
   93500    299.31751   -1430.5725    451.31849    366.19661    196.67127      39457.2 
   93600    300.28875   -1380.5002    456.17926    425.49545   -185.45183      39457.2 
   93700    308.29541   -1396.1476    457.33507    446.99426     182.0033      39457.2 
   93800    299.43263     -1367.58    448.78258    427.17064    303.92633      39457.2 
   93900     297.1882   -1384.9988     456.1173    406.99777   -137.83934      39457.2 
   94000    299.52894   -1405.0899    454.81015    396.12129    318.17164      39457.2 
   94100    294.15022   -1407.4539    453.94415    368.71356    117.17203      39457.2 
   94200    294.51079   -1400.7584    468.03844    391.12413    48.598937      39457.2 
   94300      297.821   -1397.3764    458.73192    400.07927   -48.593443      39457.2 
   94400    293.95419   -1414.6186    434.92726    341.65086   -290.23247      39457.2 
   94500    291.65416   -1415.0892    441.39824    337.31241   -385.55649      39457.2 
   94600    315.85671   -1437.7615    457.17397    439.20785    -184.8524      39457.2 
   94700    296.10099   -1450.5157    437.38925    317.86579   -411.43666      39457.2 
   94800     308.7393   -1421.4057    461.38628    427.78277   -587.95624      39457.2 
   94900    301.61035    -1437.681     432.4947    350.57082   -605.18499      39457.2 
   95000    294.76953   -1430.3691    446.31846    340.95651   -454.16303      39457.2 
   95100    298.00952    -1443.553    438.93516    334.95335   -576.75114      39457.2 
   95200    294.03896   -1417.2565    454.55226    359.01903   -625.00151      39457.2 
   95300    305.01635   -1423.5225    459.11804    406.66284   -252.12528      39457.2 
   95400    308.31312   -1425.4033    458.30276    418.78587   -627.20923      39457.2 
   95500    303.97232   -1464.9164    437.21596    338.67388   -614.58817      39457.2 
   95600    302.90479   -1439.3662    439.01089    361.22033   -1501.4239      39457.2 
   95700    298.58633   -1426.8687    454.16925    369.46447   -1004.6585      39457.2 
   95800    292.81278    -1414.273    461.18489    363.12331   -781.64937      39457.2 
   95900    308.29469   -1443.0032    435.62985    378.43027   -618.82259      39457.2 
   96000    298.36522   -1462.2867    452.54907    331.43239   -363.65312      39457.2 
   96100    301.75226   -1436.7403    456.26375    375.91841   -88.953268      39457.2 
   96200    297.13627   -1448.1796    474.65593    362.12212   -237.73086      39457.2 
   96300    299.41392   -1448.1702    442.82391    340.53769    346.02973      39457.2 
   96400    290.70942   -1441.7084     454.7598    319.80814    5.3978602      39457.2 
   96500    308.69617    -1412.667    447.27006    422.21138    494.44673      39457.2 
   96600    294.87789   -1409.6452    465.73643    381.58546    421.85806      39457.2 
   96700    290.04451   -1438.1572    470.39498    336.00565    219.78266      39457.2 
   96800    299.92056    -1409.387    458.62475    397.39914   -61.441777      39457.2 
   96900    304.95219   -1381.4094    454.37668    443.74608    656.12906      39457.2 
   97000    303.37945   -1417.4424    458.38858    404.65548    640.73136      39457.2 
   97100    291.77051   -1372.6761    471.02913    409.87943    925.39179      39457.2 
   97200    290.60012   -1397.7305    457.10028    365.63517    617.78795      39457.2 
   97300    302.34709   -1410.9984    443.88036    391.95071   -159.90349      39457.2 
   97400    301.78119   -1464.0689    442.12141    334.57747    250.32825      39457.2 
   97500    302.19803   -1428.5181    453.74247    383.62317    103.81134      39457.2 
   97600     300.5468   -1450.2981    447.20911    347.88744     189.9232      39457.2 
   97700    313.41211   -1449.8694    445.58519    404.52249    335.10747      39457.2 
   97800    307.12673   -1437.3032    445.83264    389.08294     64.80037      39457.2 
   97900    295.68717   -1373.2213    447.32617    403.23692   -101.89981      39457.2 
   98000    291.30668   -1437.2885    429.05082    301.20379   -340.81573      39457.2 
   98100     303.6126   -1378.5783    455.51758    441.69657    306.43756      39457.2 
   98200    295.84934   -1416.3426    463.13865    376.65705   -478.41341      39457.2 
   98300    299.91241   -1415.4171    441.62382     374.3315    18.448263      39457.2 
   98400    305.00354   -1469.8905     446.7632    347.88241   -137.40844      39457.2 
   98500    292.74634   -1427.8842     437.7361    325.76468    186.08801      39457.2 
   98600    310.12593   -1422.2633    442.55562    414.32749    168.74196      39457.2 
   98700    306.44936   -1430.8185    441.43196    388.12215   -16.285761      39457.2 
   98800    302.42107   -1417.4162    451.34694    393.33204      346.186      39457.2 
   98900    295.06103   -1421.2254    459.47272    364.56484    289.86298      39457.2 
   99000    304.61774   -1402.4855    449.36953    416.15952    29.441742      39457.2 
   99100    305.54354   -1363.6576    504.09231    513.87175   -21.138539      39457.2 
   99200    303.90823   -1370.9335    451.35762    446.51034   -272.44532      39457.2 
   99300    305.58884   -1417.0032    450.69698    407.33436   -44.388399      39457.2 
   99400    287.73584   -1429.0571    458.69231    323.02548   -49.046862      39457.2 
   99500    315.53213   -1412.1138    464.44896    470.67153   -127.26387      39457.2 
   99600    284.28512   -1451.3729    466.89891    293.40513   -200.78992      39457.2 
   99700    308.39438   -1453.1809    435.47243    368.54321    402.31419      39457.2 
   99800     305.3534   -1432.9993    444.35254    383.93556   -98.754222      39457.2 
   99900    288.98383   -1414.4735    471.99469    356.52125    84.636739      39457.2 
  100000    303.05455   -1423.6217    465.18235    403.80948     794.3534      39457.2 
  100100    301.81849   -1429.1187    452.56094    380.13492   -14.323532      39457.2 
  100200    301.86518   -1433.7535    473.54362    396.69267    170.48233      39457.2 
  100300     304.6781   -1429.6828    458.20669    398.07076    312.34268      39457.2 
  100400    302.64688   -1484.9835    457.09342    332.52625    470.87006      39457.2 
  100500    297.83264   -1464.8554    458.34758    332.26818    301.71361      39457.2 
  100600    301.55934   -1462.2391    440.37096    333.65968    409.83857      39457.2 
  100700    301.13618   -1450.5275    474.33531    377.43344    192.64738      39457.2 
  100800    309.58199   -1406.7594    464.49621    449.32691   -133.83922      39457.2 
  100900    299.77852   -1392.6908    458.30862     413.1407   -1197.5853      39457.2 
  101000    300.96169   -1400.2393    468.13767    420.73968   -894.91899      39457.2 
  101100    309.34933   -1379.9202    469.65178    480.27588      -743.24      39457.2 
  101200    300.31149   -1412.9426     439.0442     376.0202   -459.67249      39457.2 
  101300    297.68126   -1440.4611    469.18734     366.8218   -332.64642      39457.2 
  101400    305.73651   -1403.5731    467.67565    438.40696    207.80293      39457.2 
  101500    298.02848   -1404.5755    443.55875    378.63965    127.69424      39457.2 
  101600    298.87513   -1382.9289    460.11671     420.6499     259.7439      39457.2 
  101700    308.89747   -1404.8785    459.33661    442.97126    320.61894      39457.2 
  101800    314.13073    -1380.581    451.94048    483.39647    98.428947      39457.2 
  101900     283.7911   -1402.0787    456.99329    330.57305    162.67766      39457.2 
  102000    311.84036   -1427.2089    472.52617     447.0589    652.56109      39457.2 
  102100    283.55824   -1441.2954    442.91022     276.2265    396.46833      39457.2 
  102200    305.05654   -1471.5993    476.90156    376.55016    951.78286      39457.2 
  102300    302.18428    -1483.661    452.52326    327.19915    529.28612      39457.2 
  102400    296.43383   -1435.6406    459.43419     356.2819    29.461708      39457.2 
  102500    294.83949   -1403.7785    471.34731    392.89048   -103.14088      39457.2 
  102600    307.47138   -1423.1799    444.70405    403.62694    329.12916      39457.2 
  102700    302.35096   -1441.7382    442.43164    359.77958    306.19548      39457.2 
  102800    301.39252   -1442.6639    464.09254     376.2066    170.94865      39457.2 
  102900    312.70006    -1453.012    453.99827    406.59234    537.91698      39457.2 
  103000    296.57765   -1480.4949    450.13158    302.77147    459.90437      39457.2 
  103100    288.94122   -1451.3782    462.65971    310.09008    578.02247      39457.2 
  103200    294.88922    -1424.116    474.53776    375.96698    99.168791      39457.2 
  103300     291.6976   -1391.0998    469.65256    389.75141    844.61968      39457.2 
  103400    299.10662   -1413.7722    457.14018     387.8706    257.43869      39457.2 
  103500    296.60836   -1456.4496    467.63083    344.45413    411.65639      39457.2 
  103600    301.56335   -1418.0131    441.69606    379.22878    733.01443      39457.2 
  103700    300.09198   -1421.0451    455.87332     383.7601    36.901073      39457.2 
  103800    303.35301   -1425.3595    447.23008    385.46103    350.21972      39457.2 
  103900    292.02348   -1425.9933    467.71492    354.38519    238.47512      39457.2 
  104000    294.14672   -1422.8839    476.47245    375.79616    1099.2989      39457.2 
  104100     301.0272   -1410.9872    468.19019    410.33877    1027.1652      39457.2 
  104200    302.23294    -1428.607    494.69934    424.64801    192.44014      39457.2 
  104300    295.50978   -1446.4675    460.83715    342.70428    24.918343      39457.2 
  104400    302.11665   -1484.5439    454.98199    328.47106   -42.485629      39457.2 
  104500    292.24608   -1475.2905     467.7188    306.09238    410.33123      39457.2 
  104600    298.35907   -1438.6885    467.10431    369.55824    328.26735      39457.2 
  104700    298.63009   -1482.7893    459.65551    319.22683    497.70037      39457.2 
  104800    301.67309   -1484.8847    454.75245    325.90685     -242.413      39457.2 
  104900    303.15117   -1465.9016    472.60695    369.38852   -418.74085      39457.2 
  105000    304.55437   -1430.2507     452.9823    391.72219    234.68615      39457.2 
  105100    317.71503   -1398.2223    478.01163    507.93795    132.64815      39457.2 
  105200    290.33418    -1406.988    462.18667    360.26865     337.6364      39457.2 
  105300    297.65998   -1372.4828    485.87512    451.39223    102.40453      39457.2 
  105400    302.65344   -1349.5558    485.01639    495.90638   -382.08518      39457.2 
  105500    297.88956   -1376.6107     454.3386    416.75979    140.58969      39457.2 
  105600    298.94848   -1411.1104    484.31103    416.99245    505.65188      39457.2 
  105700    310.89701   -1435.5621      461.459    423.39814     356.2062      39457.2 
  105800    313.46221   -1432.1777    482.45033     459.3046    414.04662      39457.2 
  105900    301.45736    -1465.701    467.53115    356.89951    105.43852      39457.2 
  106000    314.52523   -1391.9495    457.55561    479.41637    23.393858      39457.2 
  106100    298.46073    -1407.589    469.28957    403.29992    302.95572      39457.2 
  106200    306.33388   -1412.9576    483.89504    447.92711   -1.2805387      39457.2 
  106300    294.15366    -1384.305    457.04118    394.97503   -188.88855      39457.2 
  106400     306.7422   -1418.7792    468.74743     428.7933   -186.42032      39457.2 
  106500    316.92667   -1377.5073    478.34135    525.43896    494.85315      39457.2 
  106600    304.50471   -1431.7971     461.4082    398.37857    -57.43991      39457.2 
  106700    301.81942   -1386.7969    473.38778    443.28772    455.50406      39457.2 
  106800    300.64111   -1383.0059    456.25036    424.64473   -162.90231      39457.2 
  106900    302.82928   -1418.5554    444.65563    387.33649   -65.822194      39457.2 
  107000    299.11849   -1419.4707    480.57737    405.66276    269.72123      39457.2 
  107100    308.04973   -1419.1292    487.85317    453.42649    -187.0741      39457.2 
  107200    297.63624   -1422.7174    469.03133    384.20717    -234.7379      39457.2 
  107300    295.11058   -1387.5947     462.2269    401.17249   -265.21696      39457.2 
  107400    294.12597    -1384.242      487.205    425.07728    -175.6364      39457.2 
  107500    316.62834   -1402.6281    476.69225    497.32802   -309.50878      39457.2 
  107600    296.70599   -1387.3208    492.29091    438.68179   -274.94875      39457.2 
  107700    307.97004   -1417.3449    462.21924    429.21867   -251.29138      39457.2 
  107800    299.29019   -1385.0334    471.45705    431.75151    -166.4483      39457.2 
  107900    301.02291   -1420.4651    458.07435    390.72573   -84.327797      39457.2 
  108000    299.13721   -1397.7847    457.01116    403.86663   -262.17676      39457.2 
  108100    308.09255    -1431.075    473.01685    426.83685   -863.11038      39457.2 
  108200    300.54543   -1440.3405    466.38551    377.01528     -646.289      39457.2 
  108300    292.15791   -1443.0653    478.33814    348.54063    -522.5399      39457.2 
  108400    294.72169   -1419.8921    456.54238    361.44244   -465.88874      39457.2 
  108500    310.40271   -1424.9218    489.63405    459.99153   -333.84374      39457.2 
  108600    294.48669   -1423.0002    460.34266    361.07819   -95.789096      39457.2 
  108700    299.85927    -1426.291    472.06801    393.66292   -168.67725      39457.2 
  108800       301.16   -1476.7075     452.0223    329.04756   -149.11775      39457.2 
  108900    292.34083   -1432.6697    491.04873    372.46908    -69.94806      39457.2 
  109000    296.83178    -1403.206    473.86567    404.93681   -77.932061      39457.2 
  109100     294.0986   -1496.2652    463.78441    289.51056   -148.26814      39457.2 
  109200    299.14143   -1475.9256     448.9847    317.71824    195.54544      39457.2 
  109300    305.49429   -1465.5695    486.18318    393.82931    202.45917      39457.2 
  109400    289.98672   -1433.9329    458.64846    328.22369    67.331096      39457.2 
  109500    293.75189   -1419.0693     487.2852    388.64873    209.14544      39457.2 
  109600    298.78974   -1406.4374    481.19236    417.83327    304.33157      39457.2 
  109700    302.16102   -1406.7503    436.98213    388.46424    63.832088      39457.2 
  109800    304.02936   -1392.0386    489.87229     464.4644    121.45953      39457.2 
  109900    305.00612   -1402.9669    499.61891    467.67331   -78.793573      39457.2 
  110000    298.12323    -1428.536     452.5603    364.10654   -706.18526      39457.2 
  110100    298.76552   -1417.8882     466.8908    391.97203   -943.67212      39457.2 
  110200    298.15084   -1452.3896    486.44706    374.26379   -881.00705      39457.2 
  110300    303.88464    -1404.305    466.00521    427.68036   -294.89707      39457.2 
  110400      298.691   -1403.8588    483.50382    422.27941    93.593578      39457.2 
  110500    309.02196   -1465.4742    452.74738    376.34598    135.58425      39457.2 
  110600    296.61309   -1415.5929    469.61085    387.31201   -287.27098      39457.2 
  110700    307.80386   -1432.3867    455.40473    406.61536   -154.08071      39457.2 
  110800     302.8846   -1477.7259    421.39995    305.15895   -46.636052      39457.2 
  110900    304.95858   -1474.7245    468.88588    364.96896   -107.04638      39457.2 
  111000    292.89157   -1467.2786    480.35825    329.64532    290.74252      39457.2 
  111100    301.98562   -1453.6176    449.45271    353.27904    89.045556      39457.2 
  111200    296.47433   -1432.9888    486.55319    386.23469    21.577482      39457.2 
  111300    294.34317   -1414.4876     469.8517     378.4548   -871.11313      39457.2 
  111400    313.01345    -1420.738    453.48137    439.75806   -510.19602      39457.2 
  111500    302.14852   -1407.5559    465.99376    416.61403   -55.878116      39457.2 
  111600    304.47782   -1460.3965    488.54248    396.79251   -628.46874      39457.2 
  111700    290.89899   -1395.3114    463.52366    375.82118   -141.83537      39457.2 
  111800    292.24451   -1444.5069    451.27654    320.42672    -190.7475      39457.2 
  111900    305.32628   -1458.9132    459.13876      372.686    -223.6023      39457.2 
  112000    294.49221   -1435.5793    465.33908    353.52037   -4.9934403      39457.2 
  112100    290.94837   -1457.4218    468.49713    318.90618    127.97945      39457.2 
  112200    304.29251   -1449.4592    458.01439    376.36876   -65.658774      39457.2 
  112300    291.93613   -1439.1182    464.04459    337.19722   -183.53691      39457.2 
  112400    293.72791   -1411.1186    469.65771    378.86415    92.341826      39457.2 
  112500    295.57401   -1419.5201    456.90835    366.01165   -22.836665      39457.2 
  112600    309.21931   -1414.2597     484.2353    459.93546    80.772618      39457.2 
  112700     297.0954   -1419.4286    469.68832    385.72179    45.350216      39457.2 
  112800    313.09686   -1419.6876    452.11426    439.81628    234.78319      39457.2 
  112900     301.5033   -1432.3761    457.15135    380.05117   -374.85799      39457.2 
  113000    292.63201   -1429.4055    478.47212    364.46551   -286.62199      39457.2 
  113100    299.01883   -1426.9558    480.18514     397.3374    191.77042      39457.2 
  113200    304.12452   -1416.7112    471.89835    422.24561    364.96642      39457.2 
  113300    295.71795   -1432.7671     476.1183    372.62152    291.75835      39457.2 
  113400    300.44038   -1421.4339    463.15976     392.2239    259.83484      39457.2 
  113500    301.81695   -1402.7174    467.96808    421.93646    496.64741      39457.2 
  113600    298.65107   -1429.7151    480.27306    393.01291    363.63382      39457.2 
  113700    300.72181   -1436.0181       469.89    385.63497    1250.0279      39457.2 
  113800    295.47487   -1430.8172    474.09625    371.45679     622.1902      39457.2 
  113900    302.91992   -1443.7637    458.86277    376.74274    593.82458      39457.2 
  114000    294.99935   -1415.2213     459.0087    369.82767    454.28793      39457.2 
  114100    303.17014    -1429.217     457.3301    390.88153   -217.82418      39457.2 
  114200    288.43756   -1410.0364    459.38278    345.89094   -5.1594751      39457.2 
  114300    303.40092   -1388.3736    467.18997    442.62212   -395.24547      39457.2 
  114400    296.19869   -1402.0652    475.22073     404.5869   -538.16898      39457.2 
  114500    306.76218   -1423.6884    488.09971    443.32621    -202.5123      39457.2 
  114600     292.7191   -1443.4562    451.87755    324.21173    -410.2415      39457.2 
  114700    291.92981   -1407.7798    459.21801    363.68072   -347.45611      39457.2 
  114800    298.79286   -1407.7925    478.70145    414.00125    40.885977      39457.2 
  114900    288.31414   -1382.6863    459.31805    372.62155    68.806239      39457.2 
  115000    297.14662   -1392.0614    450.35618    393.98716    83.065344      39457.2 
  115100    313.84841   -1379.6817    499.84281    530.92907    325.13623      39457.2 
  115200    300.98821   -1448.3323    441.25549    345.88372   -351.17503      39457.2 
  115300    303.74738   -1439.2683    510.07501    436.16988   -952.00646      39457.2 
  115400    291.69973   -1384.8432     452.9342    379.29926   -360.57156      39457.2 
  115500    309.85434   -1417.1302    449.23864    424.92274   -212.42476      39457.2 
  115600    295.79597   -1429.1073    480.98951    381.50331   -186.24922      39457.2 
  115700    299.81847   -1447.9062    447.40028    347.19656    128.78353      39457.2 
  115800    310.38178   -1443.6872    451.30361     402.8016    252.55583      39457.2 
  115900    304.28056   -1432.9189    478.81044    413.65133   -201.36962      39457.2 
  116000    303.99738   -1458.0636    429.96936    338.39269   -295.44379      39457.2 
  116100    296.29529   -1444.3134    453.87089    341.42302    191.15757      39457.2 
  116200     302.9335   -1430.4716    450.51194    381.74505    28.148385      39457.2 
  116300    302.27536   -1414.8977     449.7265    393.57514    172.99586      39457.2 
  116400    301.75143   -1427.3052    471.31893    400.40499    493.63084      39457.2 
  116500     294.2408   -1410.2487    489.34942    401.73122    335.83764      39457.2 
  116600    307.62672   -1426.8674    464.55035    420.48405     400.7262      39457.2 
  116700    305.94168   -1416.4607    475.06458    433.83051    34.505719      39457.2 
  116800     301.9453   -1398.4209     467.8998    426.74159    121.88565      39457.2 
  116900    295.90803   -1438.1155    447.16106    339.17039   -521.44808      39457.2 
  117000    302.55407   -1402.7504    468.47282    425.72158   -448.10868      39457.2 
  117100     306.2094   -1387.4337    453.64806    442.64444    -716.2438      39457.2 
  117200    299.97972   -1450.0621    437.69861    336.06382   -443.38564      39457.2 
  117300    298.86913   -1393.5077    497.12681    447.05427   -371.41052      39457.2 
  117400    301.89866   -1423.0833    477.83057    411.80032   -76.244455      39457.2 
  117500    297.02731   -1424.7519    458.12968    368.53381    371.83986      39457.2 
  117600    299.80582   -1446.7981    489.92471    390.77225    100.55031      39457.2 
  117700    300.36375   -1443.7802    443.66137    350.03477     342.6543      39457.2 
  117800    291.98741   -1398.1286    481.82038    396.19322    319.14767      39457.2 
  117900    312.04747   -1461.6846    438.45644    379.44442   -76.969475      39457.2 
  118000    306.64652   -1419.9769    495.17355     453.5916   -560.78487      39457.2 
  118100    302.16079    -1378.143    473.91818     454.0066   -311.86896      39457.2 
  118200    305.76466   -1444.1557    459.83602    390.11128    57.426401      39457.2 
  118300    285.72568   -1481.1818    501.56947    304.74218   -506.79675      39457.2 
  118400    304.84915   -1475.6745    466.12987    360.77104   -247.40255      39457.2 
  118500     305.0318   -1423.3315    465.07611    412.88134   -647.78623      39457.2 
  118600    296.10696   -1435.2922    456.72667    352.45353   -555.38512      39457.2 
  118700    304.64882   -1421.6022    459.97341    407.78644   -29.572725      39457.2 
  118800     294.1299   -1493.8579    454.22829    282.50236    179.14968      39457.2 
  118900    302.99834   -1461.5082    462.52634    363.01435    616.02238      39457.2 
  119000     290.0113   -1458.4453    457.69498    302.86832    331.14678      39457.2 
  119100    298.53022   -1468.3777    462.91364    336.44764    548.85021      39457.2 
  119200    307.77598    -1444.117    465.38333     404.7383     516.1207      39457.2 
  119300    291.65752   -1459.8311    452.56474    303.75212   -206.33408      39457.2 
  119400     298.0257   -1459.1329    469.00717    349.51809   -111.76763      39457.2 
  119500    308.13564   -1449.8823    443.98492    379.19128   -238.61339      39457.2 
  119600    298.25934    -1377.703    488.90422    451.89526   -503.89526      39457.2 
  119700    306.68262   -1366.3086    487.83913    500.08781    492.87934      39457.2 
  119800    290.02623   -1394.6516    496.35559    405.38976    234.94866      39457.2 
  119900    299.30751   -1431.5714    485.66097    399.49532    474.76436      39457.2 
  120000    312.14823   -1409.4246    459.32905    453.02992    400.07698      39457.2 
  120100    302.85088   -1392.3871    475.43397    444.38017   -20.209406      39457.2 
  120200    298.26952   -1404.6322    476.59864    412.70633    231.73639      39457.2 
  120300    299.12791    -1416.905     464.9038    392.59716   -164.28719      39457.2 
  120400    292.84606   -1470.7569    445.21819    290.82237   -495.16275      39457.2 
  120500    306.32736   -1424.8808    487.76246      439.842   -505.83564      39457.2 
  120600    303.00775   -1425.1838    449.24066    386.09528     248.0122      39457.2 
  120700    292.48213   -1419.9273     478.5287    373.32656    526.37061      39457.2 
  120800     301.0748   -1466.9682    455.99135    342.37292    343.85549      39457.2 
  120900    298.50172   -1432.4135    485.23935    394.60948    231.94875      39457.2 
  121000    295.24734   -1457.9612    471.84845    341.04217    11.218017      39457.2 
  121100    301.28282   -1442.6683    475.70177    387.31826   -318.50355      39457.2 
  121200    297.23788   -1463.2898    480.21747    353.03022   -93.418625      39457.2 
  121300     302.1498   -1478.8511    481.03378    360.36462     256.7748      39457.2 
  121400    304.91459   -1460.8961    462.33308    372.04678    83.374293      39457.2 
  121500     296.0517    -1435.455    461.74471    357.06038    286.86089      39457.2 
  121600    294.77507   -1477.2033    475.01813     322.8469    123.06325      39457.2 
  121700    305.47084   -1431.9043    444.79762    386.00356   -224.11065      39457.2 
  121800    309.98783   -1434.3282    483.94656    443.03277    67.965263      39457.2 
  121900    295.99405   -1421.7613    481.35653    390.10667   -87.102139      39457.2 
  122000    304.68394   -1429.9895    475.51272    415.09626    -184.4877      39457.2 
  122100    293.44232   -1426.9684    468.27647    360.34935   -179.62629      39457.2 
  122200    292.59728   -1455.1392    457.97932    318.08292    313.67363      39457.2 
  122300    309.16807    -1490.053    478.14069    377.81723    337.74865      39457.2 
  122400    300.07881    -1451.844    464.91283    361.94161    201.11271      39457.2 
  122500    294.24996   -1445.2602    460.72624    338.13771     425.9056      39457.2 
  122600    301.32273   -1457.1883    494.70301    391.97893    649.21954      39457.2 
  122700    296.26042   -1453.0402    462.98222    341.65087    293.46256      39457.2 
  122800     293.0687   -1413.7125    477.78155    381.43087    272.02654      39457.2 
  122900    299.28762   -1427.0521    468.89057    387.15474    446.27196      39457.2 
  123000    295.51927   -1436.4523    490.46371     382.3887   -21.425546      39457.2 
  123100    308.71351   -1458.5294    457.20617    386.36305    -50.50349      39457.2 
  123200    297.46372   -1409.7334    473.49988     400.8842   -285.99681      39457.2 
  123300     301.2411   -1426.9722    495.55345    422.67855    240.08592      39457.2 
  123400    308.65054   -1443.1461    462.98064    407.23775   -8.9843596      39457.2 
  123500    314.06598   -1445.3111    468.49348    434.92827    453.91778      39457.2 
  123600     301.0739   -1431.5913     445.2522    367.00662    17.830142      39457.2 
  123700    312.00093   -1423.7992    472.25628    450.92048    254.95574      39457.2 
  123800    311.38015   -1437.5577    472.69096    434.80622    148.42252      39457.2 
  123900    291.43336   -1418.3626    462.31143    353.95978   -542.81436      39457.2 
  124000    300.98109   -1405.2274    463.23725    410.93833   -115.93463      39457.2 
  124100    302.19809   -1401.1108    482.31828    439.60652   -248.69598      39457.2 
  124200    294.15832   -1403.0411    454.93438    374.15298   -368.48451      39457.2 
  124300     301.1341   -1382.5376    458.86114    429.93988   -276.00645      39457.2 
  124400    295.35611   -1406.2993    511.82029     433.1649    -390.6311      39457.2 
  124500    299.09149   -1414.2124    480.81579    411.03809    561.36601      39457.2 
  124600    303.12271    -1391.863    492.73101    463.42327     477.4181      39457.2 
  124700    305.39122   -1447.3915    468.25226    393.61309    279.85689      39457.2 
  124800    304.36297   -1434.0867    467.87922    401.92275   -78.098178      39457.2 
  124900    298.47961   -1455.8402    455.72296    341.56696    393.19258      39457.2 
  125000    300.21096   -1437.9395    457.37758    368.90483    419.46215      39457.2 
  125100    295.37219   -1449.0667    454.29886    332.94831   -187.26251      39457.2 
  125200    306.57264   -1431.7683    469.15215    415.44677    -57.79898      39457.2 
  125300    302.47133    -1459.799    508.10814    407.93642    606.28734      39457.2 
  125400    304.22825   -1455.8201    476.06376    387.76833    211.95998      39457.2 
  125500    298.43286   -1427.0246    438.42637    352.87579   -144.36959      39457.2 
  125600    289.82415    -1419.924    500.49226    383.34563 -0.084706169      39457.2 
  125700    298.95253   -1429.6598    465.32454    379.47475   -500.72226      39457.2 
  125800    298.52592   -1416.1885    474.25478    399.95864   -386.02308      39457.2 
  125900     300.0849   -1444.5561    487.15081    391.49481   -213.45955      39457.2 
  126000    303.04755    -1417.711    480.02849    424.53486   -242.40121      39457.2 
  126100     303.8357   -1454.7498    501.97085    412.98118   -29.814103      39457.2 
  126200     299.6631   -1471.9779     439.3031    314.32929    415.17286      39457.2 
  126300    302.21989   -1424.9061    513.91373    447.50458     311.8461      39457.2 
  126400    296.03733   -1477.4601    475.68026    328.92617   -79.438874      39457.2 
  126500    299.92325   -1443.8617     463.7823    368.09407   -486.33347      39457.2 
  126600    306.41793   -1434.9024    496.10994    438.57501    24.793403      39457.2 
  126700    294.44238   -1432.6792    476.73004    367.58746   -369.58142      39457.2 
  126800    305.84853   -1435.5402    490.81051    430.07834     117.7693      39457.2 
  126900    303.68966   -1418.3523    490.57723    437.32865   -46.353882      39457.2 
  127000     301.1542   -1466.6073    478.50184    365.60121   -238.39487      39457.2 
  127100    297.87875   -1437.3531    491.01238    392.64261    661.75474      39457.2 
  127200    294.49338   -1485.7149    471.18005    309.23096    214.59035      39457.2 
  127300    299.95325   -1415.1436    467.20853    400.37322   -112.98364      39457.2 
  127400     293.1398   -1425.1512    477.30643    369.83662    192.12916      39457.2 
  127500     303.1184   -1458.5302    483.49169    387.49739    12.647214      39457.2 
  127600    273.69418   -1426.7189    440.40977    243.96304   -332.18572      39457.2 
  127700    301.22888   -1434.8179     478.5323    397.75673    187.45176      39457.2 
  127800    298.09899   -1465.3993     470.9835    345.55757   -182.57525      39457.2 
  127900    297.73124   -1472.8813    464.89453    330.33348    493.02396      39457.2 
  128000    293.20463   -1521.2472    438.34535    235.07106   -265.93498      39457.2 
  128100    302.76791   -1522.5898    492.44283    330.81338    110.96747      39457.2 
  128200    300.13202   -1470.8953     463.4166    341.63318    119.29132      39457.2 
  128300    295.78735   -1494.3671    470.84532    306.06059    -372.6621      39457.2 
  128400    295.02812    -1468.216    475.62338    333.57694    -368.8883      39457.2 
  128500    309.28672   -1467.7175    441.16101    363.70636    44.448172      39457.2 
  128600    311.67045   -1479.2524     456.6871    378.41252   -187.83725      39457.2 
  128700    305.84078   -1536.5576    465.32892    303.54439    144.64879      39457.2 
  128800    314.74111   -1516.3879    457.52447    355.91729    853.60559      39457.2 
  128900    302.76954    -1491.696    454.90947    324.18122    330.32328      39457.2 
  129000    295.60743   -1450.5581    461.45651    339.67204   -132.85708      39457.2 
  129100    301.34449   -1454.8689     490.6141    390.30725   -192.14837      39457.2 
  129200    294.11044   -1462.0769    468.09923    328.06682   -415.08674      39457.2 
  129300      299.947   -1461.3003    466.47626    353.45623    -180.6138      39457.2 
  129400     290.7145   -1427.6081    493.09182    372.26333   -397.86573      39457.2 
  129500    298.42852   -1419.3424    460.53954    382.65173   -63.642546      39457.2 
  129600     312.1858   -1466.0239    485.51304    422.78346     110.8734      39457.2 
  129700    292.80095   -1481.7459    490.15628    324.56869    251.16209      39457.2 
  129800    305.33808   -1425.8985    454.34659    400.96154    71.665682      39457.2 
  129900    295.57584   -1477.0189    474.49163    326.10437   -393.86998      39457.2 
  130000    305.72452   -1448.0985    454.51265    380.66466   -502.46677      39457.2 
  130100    298.44929   -1488.6895    481.86862     334.7271   -596.48091      39457.2 
  130200    296.04393    -1444.554    471.36817    357.54989   -531.71575      39457.2 
  130300    296.32387   -1464.5903    485.23908    352.64278   -209.64817      39457.2 
  130400     307.5654   -1439.2636     454.0403     397.3021   -156.51593      39457.2 
  130500    304.19744   -1451.5372    475.39645    391.24552    174.57265      39457.2 
  130600    295.25626   -1455.0665    477.58483    349.71337     203.0419      39457.2 
  130700    314.41143   -1476.6056    498.99813    435.69124    377.76726      39457.2 
  130800    302.28139   -1427.5391    487.14812    418.38243    373.04125      39457.2 
  130900    301.49556   -1436.9068    464.68841    383.02271    479.25203      39457.2 
  131000    307.78119   -1462.9643    500.43176    420.96285    465.53163      39457.2 
  131100    310.02005   -1413.1699    435.40216    415.79148    155.06539      39457.2 
  131200    292.65165   -1454.5792    447.60815    308.51608   -630.44338      39457.2 
  131300    301.96396   -1458.8057    462.60708    361.14802   -367.78499      39457.2 
  131400    304.13079    -1452.122    480.48163    395.44628   -440.90837      39457.2 
  131500    294.65983   -1503.0483    469.80836    291.27415   -204.88078      39457.2 
  131600    296.33255   -1530.0721    445.85065    247.81165   -394.07632      39457.2 
  131700    290.48185   -1503.4865    486.31759    288.56486   -408.51238      39457.2 
  131800    302.99615   -1510.1822    447.47193    299.27607   -196.89268      39457.2 
  131900    296.27422   -1514.1327    465.95788    283.59599   -291.95319      39457.2 
  132000     291.3182   -1491.1689    463.10238    281.42676   -277.11789      39457.2 
  132100    309.16739   -1466.8055     473.4943    396.41524   -69.814563      39457.2 
  132200    304.03688   -1465.4581    488.46546    389.67185      104.659      39457.2 
  132300    303.79867   -1460.5958    476.66965    381.66756   -247.19769      39457.2 
  132400    298.43151   -1471.9943    469.51524    338.98896    -29.08949      39457.2 
  132500    297.83905   -1462.2956    470.18558    346.69487   -211.67054      39457.2 
  132600    288.77771   -1494.9268    447.25721    250.40395   -177.24574      39457.2 
  132700    296.25406   -1476.9187     441.6219    296.38341   -155.26283      39457.2 
  132800    290.02798   -1485.8363    490.79119    308.64849   -470.73103      39457.2 
  132900    287.38761   -1482.8063    466.36463    275.38339    -206.3265      39457.2 
  133000    291.16135   -1507.0417    470.19182    271.93836    161.29746      39457.2 
  133100    299.75092   -1489.7675    471.48356    329.11493    676.97401      39457.2 
  133200    306.60237   -1479.6708    458.24604    356.77179    415.24004      39457.2 
  133300    300.90735   -1541.4743    461.21398    272.33677    788.15394      39457.2 
  133400    291.61561   -1490.0784     476.1723    296.92406   -36.547926      39457.2 
  133500     299.5842   -1465.4529    480.00319    361.19968   -200.34489      39457.2 
  133600    311.39572   -1492.3733     448.6913    356.06092   -275.66826      39457.2 
  133700    302.79654   -1488.0608    468.19826    341.22656    -126.7621      39457.2 
  133800    297.47971     -1539.85     456.5686    253.90819   -414.56306      39457.2 
  133900    303.73324   -1540.9528    505.39691    329.74371     603.8792      39457.2 
  134000    308.25676   -1508.3709    484.30705    361.56925     244.9277      39457.2 
  134100    299.33877   -1564.3576    470.03728    251.22593    537.60909      39457.2 
  134200    295.43605   -1526.6847    444.71276    246.03124    218.98155      39457.2 
  134300    307.26584   -1535.0792    488.95244    335.05217    269.95493      39457.2 
  134400    301.41186   -1511.6157    478.94814    322.19728     214.6519      39457.2 
  134500    304.33035   -1510.5814    473.27644    330.67865    955.85993      39457.2 
  134600    291.76228   -1515.0052    477.20176    273.68591    862.80826      39457.2 
  134700    293.02467   -1491.1468    471.42531    297.44248    836.68134      39457.2 
  134800    303.91343   -1488.5415     481.3927    358.96079    300.66339      39457.2 
  134900    291.31359   -1475.0478    427.49754    261.92222    -327.7517      39457.2 
  135000    288.03595   -1454.4274    493.73129    334.04318   -823.70664      39457.2 
  135100    303.52855   -1528.3839    446.38848     282.3841   -391.68665      39457.2 
  135200    292.99725   -1515.8657    466.74001    267.91494   -92.831687      39457.2 
  135300    312.33632   -1468.2444    490.22481    425.95141   -441.82949      39457.2 
  135400    304.51147   -1486.3053    458.86157    341.35408    112.72302      39457.2 
  135500    297.82178   -1479.2263    497.38226    356.88323    210.71838      39457.2 
  135600    298.17466   -1491.2162    469.40306    318.50034    514.38033      39457.2 
  135700    306.94754   -1473.6898    468.48588     374.5442   -69.158901      39457.2 
  135800    297.37125   -1449.8397    487.56451    374.42692   -445.22235      39457.2 
  135900    300.00911   -1482.2695    461.43383     327.7238   -410.65579      39457.2 
  136000    288.71281   -1451.8335    440.66754    286.61585   -390.58834      39457.2 
  136100    302.98523   -1457.9849    478.35571    382.30805    67.399626      39457.2 
  136200    298.54464   -1494.0837    473.30794    321.20078    132.47993      39457.2 
  136300    309.05315   -1511.7166    468.89681    346.39311   -50.237187      39457.2 
  136400    295.98097   -1466.4983     481.1351    345.08949   -14.579637      39457.2 
  136500    304.95122   -1477.7864    496.66801    389.65608    333.80272      39457.2 
  136600    298.07902   -1478.3906    476.96542     338.4584    159.56119      39457.2 
  136700    302.13626   -1448.6112    484.81917    394.32907    451.36298      39457.2 
  136800    296.49686   -1451.8899    475.83028      356.712    240.66165      39457.2 
  136900    310.55497    -1456.325    473.33086    412.96962   -185.08571      39457.2 
  137000    308.49144   -1501.3726     469.4925    354.80794    -54.42553      39457.2 
  137100    300.58739   -1447.1925     478.6924     382.6587    382.83116      39457.2 
  137200    296.24164   -1484.5674    463.78322     310.8402    393.86776      39457.2 
  137300    302.14577   -1488.3299    483.47111     353.3051    -138.7047      39457.2 
  137400     300.4053   -1465.7106    470.45559    355.08536   -80.109953      39457.2 
  137500    299.94572   -1467.5291    462.30653    343.05194   -413.75452      39457.2 
  137600    300.79933   -1484.9077    463.87036    331.07417   -258.81262      39457.2 
  137700    297.12166    -1465.761    464.12117    333.94028    50.243025      39457.2 
  137800    287.83828    -1485.153    489.61374    298.31151   -151.69165      39457.2 
  137900    295.36456   -1470.5921    472.44538    329.53519   -69.528517      39457.2 
  138000    299.52242   -1459.5328    476.56497    363.40385    288.85734      39457.2 
  138100    287.28507   -1485.3722    488.70046     294.6923    675.62452      39457.2 
  138200    307.21568   -1511.0221    473.74685    343.67811    555.80371      39457.2 
  138300     297.2737   -1498.0636    476.40655    314.60655    67.087032      39457.2 
  138400    295.58281   -1451.5657    478.78529    355.88256   -545.38447      39457.2 
  138500    307.75053   -1467.8402    459.81038    375.32779   -187.31692      39457.2 
  138600    302.70999   -1496.2446    477.79947    342.25487    266.33915      39457.2 
  138700    301.42632   -1480.9325    469.73949    343.73683    310.63042      39457.2 
  138800    296.62351   -1491.9573    468.17142    309.55503   -220.23933      39457.2 
  138900    303.96689   -1457.1259    493.21669    402.44062   -203.99255      39457.2 
  139000    305.93612   -1481.7407    499.54665    393.00765    51.202615      39457.2 
  139100    309.36916   -1514.2803    449.51763    325.87071    443.25361      39457.2 
  139200     293.6542   -1492.5414      475.417     302.8693    1036.9295      39457.2 
  139300     300.8789   -1443.1989    510.51722    419.78747    852.88379      39457.2 
  139400    305.86376   -1501.8098     472.4306    345.49725     648.5244      39457.2 
  139500     296.3374   -1465.1635    474.96159    341.85291    302.70035      39457.2 
  139600    302.10808    -1442.746    464.72741    379.97584   -41.487395      39457.2 
  139700    293.72005   -1468.9439    494.49244    345.83827    184.96448      39457.2 
  139800    294.76938   -1477.5167    469.76664    317.25648    151.77918      39457.2 
  139900    301.29174   -1494.3188    462.42011     322.4262     62.20685      39457.2 
  140000    292.06511   -1482.1016     492.4694    323.21847   -536.71304      39457.2 
  140100    307.15699   -1485.7601    478.68206    373.61158   -679.64464      39457.2 
  140200    295.56692   -1504.9635    477.30828    300.93629   -268.95821      39457.2 
  140300    296.73658   -1503.7332    529.73484    359.85088   -301.46099      39457.2 
  140400    304.14172   -1477.8403    472.11792    361.41341   -487.58347      39457.2 
  140500     305.5717   -1444.9967    475.37988    403.94678    193.07755      39457.2 
  140600    305.33119   -1449.0989    451.35463    374.73818   -380.04834      39457.2 
  140700     292.4619   -1455.3926    473.10321    332.34482   -474.68713      39457.2 
  140800    306.87716   -1484.3925    492.70271      387.742   -322.16738      39457.2 
  140900    289.37451   -1420.9861    468.76446    348.53458   -325.94627      39457.2 
  141000    297.96589   -1480.3932     456.0466    315.02842    455.18244      39457.2 
  141100    291.97053   -1470.5792    483.22268    325.06895    469.57151      39457.2 
  141200    300.99554   -1508.2844    463.64428    308.35336    646.95203      39457.2 
  141300    304.59551   -1512.3059    469.30689    326.17657    964.55025      39457.2 
  141400    296.36323   -1507.3604    463.63921    288.44978    598.52467      39457.2 
  141500    291.93874   -1542.4358    477.99732    247.84414    638.24625      39457.2 
  141600     315.8902   -1504.7134    456.86779    372.10028    611.88484      39457.2 
  141700    311.26837   -1517.0015     462.5487    344.71769    353.04745      39457.2 
  141800    305.12769   -1532.1485    456.03674    295.45596   -52.159889      39457.2 
  141900    306.96982   -1494.6121    470.48569     355.7218    355.13474      39457.2 
  142000     296.0454   -1523.1155    472.54352    280.17031    50.586423      39457.2 
  142100    302.30901   -1488.9861     467.4072    337.31871   -98.128697      39457.2 
  142200    300.22355   -1480.8919    465.82181    334.45319   -146.06477      39457.2 
  142300    297.21127   -1478.3654    464.17227     321.7898    168.62804      39457.2 
  142400    307.88867   -1478.4351    464.82489    370.36834   -336.60503      39457.2 
  142500    295.08548   -1473.4801    478.15886    331.10618    83.452609      39457.2 
  142600    291.31918   -1455.2498    473.45627    327.70415   -576.34781      39457.2 
  142700    302.73524   -1422.2909    474.24435    412.76697   -479.30393      39457.2 
  142800    309.24958    -1461.463    465.18341    393.81626   -345.77104      39457.2 
  142900    298.57787   -1456.9065    449.95657    335.17597    -319.8721      39457.2 
  143000     302.5876   -1449.9465    498.01177    408.21516   -220.23722      39457.2 
  143100    301.47176   -1486.1459    455.05841    324.04659   -243.37928      39457.2 
  143200    303.20465   -1430.8748    466.84825    398.89698   -74.125572      39457.2 
  143300    307.33236   -1427.7857    473.84811    427.54025   -111.69079      39457.2 
  143400     308.0894   -1449.8337    481.80504    416.85217    188.83392      39457.2 
  143500    285.49475   -1415.1981    474.58897    342.70732    167.86567      39457.2 
  143600    294.99248   -1451.0504    463.64239     338.6014    13.187518      39457.2 
  143700     300.0518   -1460.8235    461.92448    349.85229   -185.29053      39457.2 
  143800    300.05059   -1439.1101    481.91847    391.55429    25.227022      39457.2 
  143900    298.05536   -1501.0901    485.26739    323.95448    275.07682      39457.2 
  144000     294.6347   -1477.2974    435.30797    282.41166   -274.61728      39457.2 
  144100    307.21927   -1441.4583     486.0984    425.60965    365.71351      39457.2 
  144200    302.16438   -1427.9828    469.68047    399.94514   -35.980492      39457.2 
  144300    296.27161   -1463.7415    469.18205     337.1997   -418.13267      39457.2 
  144400    295.30953   -1458.9938    455.84298    324.28368  -0.10417752      39457.2 
  144500    299.19356   -1511.6117    466.37599    299.65773   -457.25363      39457.2 
  144600     293.0017   -1489.8439    458.32008    285.53684   -439.89234      39457.2 
  144700    298.98536   -1522.0558    446.18079    268.08263    306.82726      39457.2 
  144800    301.89469    -1521.023    490.98007    326.99231    568.13608      39457.2 
  144900    303.81877   -1493.0475    465.57322    338.20979    670.64424      39457.2 
  145000    300.91761   -1483.0941    447.83076    317.37982    496.42138      39457.2 
  145100    296.94665   -1513.4248    474.32738    295.69608    100.87787      39457.2 
  145200    292.18593   -1493.0236    468.09756    288.46766   -339.28691      39457.2 
  145300    301.15684   -1489.4595    467.90716    332.16621    204.35376      39457.2 
  145400    302.60044   -1415.4445    504.71664    449.47976   -140.88515      39457.2 
  145500    296.16176   -1429.7294    471.29791    372.83384    -358.3904      39457.2 
  145600    299.51512   -1435.0456    498.67723    409.97054     313.6132      39457.2 
  145700    307.43278   -1459.0004    501.79918    424.72802    192.68498      39457.2 
  145800    291.01717   -1515.9389     471.3914    263.59254    321.22182      39457.2 
  145900    291.25676   -1502.2867    485.69869    292.62903     493.9136      39457.2 
  146000    305.98568   -1500.1052     484.6934    360.01273    57.208624      39457.2 
  146100    301.88397   -1459.1324    481.54511     379.3997    22.771528      39457.2 
  146200    291.16352   -1502.5799    465.39865    271.61672   -220.37714      39457.2 
  146300    296.36058   -1478.2776    495.20262    349.08408   -152.80765      39457.2 
  146400    305.05833   -1497.0382    470.79074    345.00852    420.53774      39457.2 
  146500    291.96259    -1487.108    492.62075    317.90258   -39.988941      39457.2 
  146600    312.93934    -1504.055    476.76701    379.39365    46.849249      39457.2 
  146700    302.97162   -1537.1122    460.52922    285.29303     25.02993      39457.2 
  146800    298.40685   -1496.8919     507.6183    352.08362    132.59358      39457.2 
  146900    299.21437   -1488.4306     474.8431    331.39952    383.28845      39457.2 
  147000     299.3976   -1475.6957    487.66734    357.78229    625.05224      39457.2 
  147100    291.48616    -1441.809    489.69565    358.13487    268.18063      39457.2 
  147200    303.18617    -1446.017    479.99171    396.81518    211.20376      39457.2 
  147300    293.06269   -1490.1592    469.34708    296.52269    144.57417      39457.2 
  147400    302.50503   -1490.4454    473.30821    342.64153     411.1496      39457.2 
  147500    292.53153   -1466.7721    481.08781    329.26291     28.84283      39457.2 
  147600    295.88612   -1439.8584    484.11823    374.28619   -513.05388      39457.2 
  147700    295.27199   -1467.0076     465.7156    325.97373   -697.78273      39457.2 
  147800    307.87164   -1447.6915    452.94717    389.15767   -175.50176      39457.2 
  147900    301.80126   -1444.9549     479.7013    391.36164   -608.50107      39457.2 
  148000    301.96075   -1474.5875    484.99662    367.74126   -309.27991      39457.2 
  148100    290.27653   -1424.1145    498.40556    379.10189    -661.6178      39457.2 
  148200    297.33093   -1428.8117    489.89482    397.60396   -276.43298      39457.2 
  148300    299.22349   -1457.8342    465.45236    352.64621   -424.74482      39457.2 
  148400    293.90724   -1440.0882     471.7452    352.78815    -477.4008      39457.2 
  148500    295.46368   -1522.5295    455.10783    260.70574    74.382452      39457.2 
  148600     307.4203   -1495.2516    469.50478    356.12635   -101.65404      39457.2 
  148700    301.73802   -1515.6515    461.89093    302.57043   -552.96991      39457.2 
  148800    300.15933    -1471.297     469.5108    347.44845   -153.54993      39457.2 
  148900    301.65647    -1479.042    455.51025    332.43266    42.651339      39457.2 
  149000    299.79989   -1498.6907    459.79888    308.72715    587.04626      39457.2 
  149100    301.90671   -1554.2207    444.57314    247.44171    433.78471      39457.2 
  149200    292.50411   -1523.3762    447.79001    239.23784    550.30318      39457.2 
  149300    293.29741   -1525.8277    468.01299    260.57526    543.11855      39457.2 
  149400     306.5648   -1545.6296    451.79261    284.19067    189.01413      39457.2 
  149500    304.38001   -1514.6169     461.4595    315.04954    81.982011      39457.2 
  149600    307.42872   -1547.1657     455.5711     290.3164    235.28683      39457.2 
  149700    293.44883   -1534.6266    463.63275    248.07671    317.58114      39457.2 
  149800    299.60407   -1574.5352    437.82396    210.02752    569.68381      39457.2 
  149900    302.62316   -1578.4098    483.52376    265.42365    406.16079      39457.2 
  150000    290.61573   -1554.0006    465.66258    217.99755    533.38659      39457.2 
  150100    310.76189   -1513.4591    450.99007    334.42482   -275.55875      39457.2 
  150200    297.00981   -1541.1342    458.61645    252.55962    181.60257      39457.2 
  150300    300.13658    -1561.298     463.3489    251.18327     346.1026      39457.2 
  150400    305.11702   -1536.8485    466.55418    301.22548    326.91034      39457.2 
  150500    302.70805    -1484.753    487.61395    363.55228    526.54433      39457.2 
  150600    297.66341   -1499.8252    461.90094    300.09105    253.34107      39457.2 
  150700    295.73379   -1518.9748    465.97097    276.33782     652.4154      39457.2 
  150800    294.76438   -1505.8873    459.84644    278.94319   -66.519524      39457.2 
  150900    303.98104   -1527.3097    489.72981    328.83358    45.885053      39457.2 
  151000    299.80545   -1503.2909    458.96249    303.31555    421.83704      39457.2 
  151100    303.05138    -1509.812    476.17212    328.59467   -246.55015      39457.2 
  151200    304.25891   -1491.8881    472.29991    348.07429   -339.39503      39457.2 
  151300     309.0796   -1499.7687    475.48218    365.04535   -519.70503      39457.2 
  151400    294.09583   -1504.6267    481.67853    299.03066   -96.048131      39457.2 
  151500     304.5131   -1505.6679    465.57072    328.70797     500.5144      39457.2 
  151600    307.17701   -1499.3668    474.24863    355.66138    347.29293      39457.2 
  151700    292.83994   -1523.7658    449.34663     241.9144    373.43264      39457.2 
  151800    299.00708   -1517.8724    476.03835    302.22112     536.0087      39457.2 
  151900    294.52647   -1503.7069    457.68588    277.89363   -291.36364      39457.2 
  152000    307.64298   -1513.3391     470.1011    339.63614    -121.1218      39457.2 
  152100    289.78785   -1509.7712    509.75514    302.59815   -503.75418      39457.2 
  152200    293.47626   -1575.2208    441.02886    185.00195   -1047.3356      39457.2 
  152300    305.38607   -1552.9602    450.52422    270.29317    -588.1693      39457.2 
  152400    302.68759    -1563.677    456.57112    253.49346   -41.178889      39457.2 
  152500    304.73948   -1562.6862    460.99766    268.13415   -63.639485      39457.2 
  152600    307.36923   -1538.1194    464.68752    308.21172   -496.41181      39457.2 
  152700    294.85144   -1559.4467    472.48257     238.4113   -606.33655      39457.2 
  152800     306.7356    -1557.232    480.60096    302.16431   -22.559429      39457.2 
  152900     300.9165   -1513.1004     475.9578    315.49561    232.80742      39457.2 
  153000    293.74442   -1539.5986    502.28909    283.08976   -362.00307      39457.2 
  153100     301.3957   -1539.3692     477.9949    293.41797    -240.7478      39457.2 
  153200    293.82908   -1522.5829    476.88033    275.07721   -17.927494      39457.2 
  153300    288.25056   -1490.1361    495.30303    300.87093   -526.85293      39457.2 
  153400    311.12426   -1538.9971    453.98762    313.51321   -256.53158      39457.2 
  153500     287.4647   -1532.4534    467.65547    227.37364    308.64266      39457.2 
  153600    298.92614   -1482.0519    477.46131    339.10078   -262.79684      39457.2 
  153700     298.9369   -1516.2919    461.77607    289.22391    288.45783      39457.2 
  153800    306.41621   -1515.5594    494.32951    356.12981    1156.9164      39457.2 
  153900     310.1947   -1532.0273    474.79794    337.11489    507.33137      39457.2 
  154000    311.98982   -1504.4352    483.31538    381.29357   -27.585589      39457.2 
  154100    307.75279   -1510.2187    482.64949    355.79855   -16.784623      39457.2 
  154200    302.95644   -1516.9609    496.64134    341.48829   -51.612145      39457.2 
  154300    303.68307   -1530.2527    478.84465    313.66609    -779.0665      39457.2 
  154400    295.44982   -1500.5671    479.09936    306.59744   -658.35967      39457.2 
  154500    297.01598    -1467.396    484.79814    352.50726   -250.79265      39457.2 
  154600    295.20974   -1446.5171    504.03664    384.50543   -522.74535      39457.2 
  154700    308.93406   -1460.3499    496.80746    425.13519   -1064.9744      39457.2 
  154800    297.46002   -1501.1887    471.89009    307.80249   -632.08821      39457.2 
  154900    293.42779   -1475.4822    492.67415    336.16788   -649.01769      39457.2 
  155000    300.98993   -1471.7472    482.79299     364.0141   -530.66536      39457.2 
  155100    297.72812   -1456.2448    502.14177    384.20318    87.457233      39457.2 
  155200    297.45937   -1481.7602    478.68881    334.02681   -379.45654      39457.2 
  155300      303.536   -1484.9734    468.53641    347.97604   -216.20964      39457.2 
  155400    283.73708   -1480.4924    504.35384    299.27711   -43.523839      39457.2 
  155500    299.32478    -1507.772    493.25508    330.96635    737.82082      39457.2 
  155600    295.67435   -1492.4217     470.6529    307.30559     16.11766      39457.2 
  155700    308.64129   -1469.3241    483.96427    402.00179    42.054991      39457.2 
  155800     288.5847   -1477.9565    506.61695    325.86647   -3.6629745      39457.2 
  155900    305.29289   -1509.4656    500.85778     363.7025    359.78849      39457.2 
  156000     288.2615   -1448.1005     479.8518    327.50447     284.4812      39457.2 
  156100    292.32762    -1471.122      485.966    328.87464    248.37617      39457.2 
  156200    301.68789   -1504.9752    463.42901    314.55942    143.51819      39457.2 
  156300    302.80082   -1500.1252    476.20172    337.18487    18.045538      39457.2 
  156400     306.0547   -1476.1308    459.66041    359.26428    -215.1998      39457.2 
  156500    298.85106   -1513.7644    450.63588    280.22541    368.67834      39457.2 
  156600    310.28943    -1507.478    464.60367     351.8957    158.38223      39457.2 
  156700    295.52399   -1485.7341    472.91822    315.58271   -51.338371      39457.2 
  156800    295.90309   -1497.1671    495.41191    328.34736   -443.97441      39457.2 
  156900    297.13387   -1479.7668    448.26773    304.13596    86.198788      39457.2 
  157000    293.11722   -1432.7582    476.80835    361.63005    -368.7497      39457.2 
  157100    297.21144   -1458.8802    504.13715    381.24065   -158.62686      39457.2 
  157200    316.12173   -1464.0496    480.28559    437.22269   -19.827886      39457.2 
  157300     292.2638   -1438.0899    473.84321    349.49707   -180.40873      39457.2 
  157400    296.80724   -1404.7937    480.93993    410.31305    132.09344      39457.2 
  157500    292.21399   -1439.0953    452.52525    326.94975   -48.794911      39457.2 
  157600      304.461   -1451.0812    502.25607    419.74585   -118.05299      39457.2 
  157700    286.36963   -1470.2841    480.61296    297.57798   -477.55592      39457.2 
  157800     316.5077   -1468.2669    485.33771    439.79242   -373.24284      39457.2 
  157900    296.40002   -1464.9256    463.17428    330.58502    94.310626      39457.2 
  158000    301.24417   -1455.5306    475.25957    373.84002   -155.03188      39457.2 
  158100     296.1249   -1439.8861    487.41183    378.62533   -33.544485      39457.2 
  158200    294.03276   -1491.8791    486.90977    316.72604   -220.09783      39457.2 
  158300    288.13097   -1447.4233    490.51505    338.25815    577.45115      39457.2 
  158400     301.0461   -1465.0149    478.74659    366.95244    278.41857      39457.2 
  158500    304.19143   -1529.4262    470.48796    308.42099    737.00475      39457.2 
  158600     298.4681   -1488.3407    456.06638    309.35821    853.21096      39457.2 
  158700     304.2025    -1495.112    480.84687    353.14379    308.96413      39457.2 
  158800    295.78589   -1498.4391     479.7838    310.92049    146.54359      39457.2 
  158900    302.12508   -1501.6543     455.9713    312.38782   -293.49338      39457.2 
  159000    290.49186   -1516.6409    484.32921    273.46708    184.26275      39457.2 
  159100    303.86015    -1478.806     498.1731    385.23714    238.77243      39457.2 
  159200    297.62717   -1448.0917    467.01536    356.77614   -357.99558      39457.2 
  159300    294.42575    -1439.271    486.64077    370.83157    -423.5087      39457.2 
  159400     291.0796   -1468.4408    491.15651    331.13643   -277.08078      39457.2 
  159500     298.6052   -1500.0426    476.75994    318.96612   -321.43206      39457.2 
  159600    295.48197   -1480.9065     501.3935    348.69664   -84.183749      39457.2 
  159700    286.99536   -1452.6036    462.89236    300.35052    196.92386      39457.2 
  159800    304.83794   -1459.8231    499.35309    409.79529    339.57419      39457.2 
  159900    290.37773   -1466.6545     466.5228    305.13408    113.93063      39457.2 
  160000    306.67937   -1460.5101    496.68166    414.71421    417.79219      39457.2 
  160100    303.77919   -1507.3898    469.03723    327.15359   -222.01982      39457.2 
  160200    305.32328   -1495.1829    464.17076    341.43478   -170.36735      39457.2 
  160300    306.30091   -1461.3325    473.31839    388.82735   -14.301113      39457.2 
  160400    295.30259   -1464.7823    505.05923     367.6802   -61.814351      39457.2 
  160500     297.7381   -1466.5785    443.95675    315.72935    12.538755      39457.2 
  160600    299.57346    -1426.149    514.97533    435.42746   -398.06709      39457.2 
  160700    303.98775    -1469.214     452.7444     349.9741   -214.16386      39457.2 
  160800    303.37267   -1459.6547    469.93866    373.96274    158.75372      39457.2 
  160900    305.37845   -1471.3208    479.40367     380.7778    25.484688      39457.2 
  161000    298.72831   -1474.4642    488.79285    357.13082   -290.86343      39457.2 
  161100    297.47728   -1487.7069    491.84163     341.3134    51.171095      39457.2 
  161200    298.20828   -1496.7156     480.1069    323.85592   -208.60559      39457.2 
  161300    305.22763    -1518.995    490.34709    343.36905   -61.029773      39457.2 
  161400    305.64865   -1505.9551     491.4556    359.40997   -88.412791      39457.2 
  161500    300.81631   -1502.3197    498.77741     348.6455    450.00211      39457.2 
  161600    292.61807   -1477.8019    495.99886    333.53317   -214.18769      39457.2 
  161700    303.20876   -1473.1164    485.24886    375.07446   -463.14671      39457.2 
  161800    295.67434   -1464.4874    478.88893    343.47595    82.164257      39457.2 
  161900    285.42628   -1488.4637    488.10596    282.65094   -364.34963      39457.2 
  162000    291.57265   -1487.9586    483.60391    306.28232   -98.377126      39457.2 
  162100    293.62336     -1489.01     485.1641    316.00914   -130.82628      39457.2 
  162200    301.78865     -1478.39    475.77826     353.9468    29.919875      39457.2 
  162300    297.83297   -1505.4188    489.60539    322.96411    150.50364      39457.2 
  162400    299.85718   -1453.7986    462.42152    356.49943    140.37362      39457.2 
  162500    298.73843    -1453.567     497.0904    386.37106    427.43341      39457.2 
  162600    296.25351   -1461.9957    516.44448    386.12657    252.13357      39457.2 
  162700    288.91916   -1457.0703    470.73698    312.37611    151.86371      39457.2 
  162800    301.63586   -1461.0629    518.56906    413.37796    124.35976      39457.2 
  162900    304.60166   -1455.7985    477.18334    390.58809    97.386322      39457.2 
  163000    305.23071    -1481.124    488.90859    379.81541    64.676841      39457.2 
  163100    301.82255   -1489.0209     478.4458     346.1358   -97.383101      39457.2 
  163200    299.78378   -1505.7583    481.93598    323.72422   -42.759888      39457.2 
  163300    304.35906   -1495.8499    524.45934    396.72221    296.29485      39457.2 
  163400    300.68539   -1516.4558    470.67482    305.81834    595.68636      39457.2 
  163500    310.68776   -1521.2816    495.25698      370.536     345.7405      39457.2 
  163600    305.41626   -1499.0254    463.23706    337.07649    649.55594      39457.2 
  163700    288.31649    -1506.401    487.90887    277.50826    501.23694      39457.2 
  163800    291.55256   -1476.1381    479.95464    314.36321    739.81635      39457.2 
  163900    298.72194    -1486.111    522.91508    379.57756     394.3739      39457.2 
  164000    291.73956   -1428.8478     485.2274     367.7669    182.88674      39457.2 
  164100    292.74435   -1490.3529    486.91809    312.46905    228.36553      39457.2 
  164200    305.19666   -1508.3737     455.7288    319.23289   -80.219752      39457.2 
  164300    306.51397   -1497.2573    473.92698    354.46879    441.13429      39457.2 
  164400    302.50082   -1470.4227    508.17622    397.51329    931.86146      39457.2 
  164500    288.09641   -1449.5789    512.47134    357.90357    296.35408      39457.2 
  164600    298.67472   -1474.3776    501.92974    370.11338    27.742391      39457.2 
  164700    307.15745   -1478.4184    489.29169     391.5649   -371.87761      39457.2 
  164800    317.81014   -1437.3332     479.6209    470.86386   -137.18421      39457.2 
  164900    298.03766   -1480.2973    499.29399     358.6943   -318.16658      39457.2 
  165000    297.99126   -1452.1416    475.86708    363.21455    120.84328      39457.2 
  165100    297.21534   -1439.6806    512.49377    408.81443    494.44115      39457.2 
  165200    299.50031   -1469.3801     483.2654    360.15759   -63.506821      39457.2 
  165300    290.56353   -1473.9586      453.753    285.89532   -450.03237      39457.2 
  165400    310.11476    -1430.484    485.82489    449.32578   -519.69391      39457.2 
  165500    297.33085   -1453.0294     439.0367     322.5278    -192.3893      39457.2 
  165600    307.77015   -1502.4363    465.96281    346.97226   -411.25839      39457.2 
  165700    292.43666   -1466.2521    450.93346    299.20215   -419.16009      39457.2 
  165800    304.55224   -1508.2187    489.00902    349.77139   -116.93574      39457.2 
  165900    297.31904    -1498.528    483.06245    321.00184     254.8951      39457.2 
  166000    306.89931   -1452.8515    458.81948    385.49928    20.008929      39457.2 
  166100    285.78724   -1489.1395    486.86624    282.35799   -65.024821      39457.2 
  166200    309.70937   -1534.0568    473.37108    331.47695   -188.99936      39457.2 
  166300    298.74873   -1514.3154    473.65384    302.23238   -66.512993      39457.2 
  166400    287.89113   -1499.4418    466.69003    261.33658   -452.00394      39457.2 
  166500    295.56703   -1554.7155    461.55736    235.43379    324.70035      39457.2 
  166600    303.25233    -1519.193    463.70697    307.65189   -118.68079      39457.2 
  166700     312.3516    -1484.642    490.80687    410.20453   -269.43661      39457.2 
  166800    307.39808   -1493.2533    462.27134    350.79133    657.38892      39457.2 
  166900    296.86395   -1512.3114    465.70575    287.81606   -173.37313      39457.2 
  167000    302.50157   -1482.2187    478.36195    355.90647    180.05312      39457.2 
  167100    288.56866   -1516.1927     497.1048    278.04599   -149.47428      39457.2 
  167200    302.97248   -1487.5714    477.88037    352.18892   -630.54003      39457.2 
  167300    291.22865   -1476.7088    462.89696    295.27889   -571.68522      39457.2 
  167400    290.84752   -1510.5999    482.24963    279.02721   -702.46035      39457.2 
  167500    310.01561   -1474.2619    470.70815     389.9855   -456.65148      39457.2 
  167600    299.16369    -1453.601    467.22381    358.38198   -800.47007      39457.2 
  167700    304.06326   -1449.7765    466.03346    383.04002   -1026.7216      39457.2 
  167800    297.01119   -1482.8862     468.8144    321.01185   -198.72131      39457.2 
  167900    297.75018   -1474.1724    480.72748    344.96051    215.05018      39457.2 
  168000    302.53356   -1499.1372    481.81348    342.58324    408.64002      39457.2 
  168100    292.14637   -1461.0799    485.14063    337.27668     715.4206      39457.2 
  168200    310.78622   -1488.4277    457.54592    366.12141    718.13733      39457.2 
  168300    295.53154   -1480.0611    468.74539    317.11672   -199.25823      39457.2 
  168400    301.03681   -1463.4123    473.77703    363.54369    262.46774      39457.2 
  168500    283.56299   -1517.2467    475.78555    233.17189    -462.0574      39457.2 
  168600    304.60851   -1484.5859    455.45941    340.10747   -234.09295      39457.2 
  168700     293.6079   -1462.3632    501.61788    359.04027   -210.14718      39457.2 
  168800    295.22312   -1498.6791    476.85809    305.22511   -47.966199      39457.2 
  168900    307.17621   -1433.9158     502.9602    449.82034    565.46607      39457.2 
  169000    305.32746   -1488.8325    468.43536    352.06862    100.33252      39457.2 
  169100    296.34518   -1469.8909    488.33974    350.53861    161.72515      39457.2 
  169200    301.29197   -1509.8622     470.1298    314.59351   -110.12567      39457.2 
  169300    300.17126   -1499.4975    466.00374    315.79454     -778.425      39457.2 
  169400    303.62718   -1486.2031    481.53035     360.1501   -129.69628      39457.2 
  169500    296.13474   -1445.1086     493.5896    379.62488   -458.63169      39457.2 
  169600    301.26546   -1429.6481    488.76641    413.32513    8.7401552      39457.2 
  169700    296.15139    -1453.572    487.42734    365.07411   -232.71862      39457.2 
  169800    301.24456   -1471.8298    477.76456    360.04759   -438.40979      39457.2 
  169900    301.88437   -1461.0335    455.79773    351.75308   -232.94254      39457.2 
  170000    300.23527   -1463.9868    444.57349    330.16267   -414.16362      39457.2 
  170100    291.34001    -1471.749    497.48479    335.32704   -271.42782      39457.2 
  170200    311.07179   -1494.6958    458.24571     361.8368   -166.41817      39457.2 
  170300    297.14026   -1479.9591    462.30624    318.01088   -556.98874      39457.2 
  170400    308.79448    -1476.514    452.14251    363.67867    143.41719      39457.2 
  170500    292.22085   -1465.0753    465.87135    314.34675   -156.65588      39457.2 
  170600    305.07167   -1478.2483    468.29828     361.3659   -234.39527      39457.2 
  170700    291.18753   -1447.7286    486.95603    348.13332   -968.16915      39457.2 
  170800    298.28691    -1433.955    460.33681    367.19981   -798.65247      39457.2 
  170900    305.53794   -1488.0041    449.48601    334.89374   -755.05315      39457.2 
  171000    303.37631   -1499.0277    472.87047    337.53801   -218.93596      39457.2 
  171100    297.69392   -1508.2191     471.4198    301.35322    123.94712      39457.2 
  171200    301.95472   -1552.9309    489.30488      293.679    391.66323      39457.2 
  171300    298.19291   -1506.1042    454.92438    289.21565    564.90776      39457.2 
  171400    293.95174   -1520.4207    457.68821     258.5987    442.23249      39457.2 
  171500     298.4664    -1498.136    476.31814    319.80702   -204.43989      39457.2 
  171600     297.7132   -1458.0465    499.03547    379.22813   -44.601858      39457.2 
  171700    288.51728   -1476.9969    476.17886    296.08489   -716.55943      39457.2 
  171800    295.36468   -1466.2724    464.98257    326.39257    193.22508      39457.2 
  171900    292.47667    -1493.077    469.32741    290.95105    3.2030814      39457.2 
  172000    306.60372    -1443.468    502.30326    437.03782    336.07787      39457.2 
  172100    296.19048   -1446.5214    469.32179     354.1948    860.17436      39457.2 
  172200    302.99022   -1463.4852    504.22156    402.69599     213.8003      39457.2 
  172300    295.40966   -1474.1241    439.84824    293.60876    436.74618      39457.2 
  172400    285.51779   -1465.7252    489.30073    306.99552   -43.253916      39457.2 
  172500    291.15981   -1458.7156    496.22578    346.29148    -76.23476      39457.2 
  172600    295.67787   -1435.6948    482.36695    375.76238    505.84605      39457.2 
  172700    299.77296   -1447.0981    487.94459    388.34439   -244.04155      39457.2 
  172800    292.78418   -1457.0809    475.84386    334.84586   -465.66202      39457.2 
  172900    299.22513   -1467.3953    492.88126    370.52137   -449.35594      39457.2 
  173000    304.04868     -1515.35    449.82568     301.1932    -452.7161      39457.2 
  173100    307.94755    -1519.168    470.55563    335.63084   -164.07169      39457.2 
  173200     287.8992   -1498.5239    491.21322    286.81394   -467.42316      39457.2 
  173300     297.8956   -1502.3153    486.19758    322.94132    -132.8382      39457.2 
  173400    290.56979   -1518.8875    458.14698    245.38857   -577.46579      39457.2 
  173500    307.92068   -1507.3937    466.54693    343.27561   -199.28002      39457.2 
  173600    318.13396   -1512.5019     481.2368    398.76663   -238.62623      39457.2 
  173700    297.76938   -1527.8349    478.50196    289.15878   -215.76017      39457.2 
  173800    304.44393   -1484.8231    477.95211    361.62317    115.10693      39457.2 
  173900    301.35647   -1521.8384    461.97244    294.74996   -97.456801      39457.2 
  174000    297.84847   -1480.9604    489.76976    347.65658   -55.242424      39457.2 
  174100    287.43855    -1485.779    473.13998    279.41496   -13.982903      39457.2 
  174200    293.32463   -1451.5425    499.38116    366.35096   -293.94235      39457.2 
  174300    304.29858   -1483.0697    493.63595    378.40714    50.891784      39457.2 
  174400    291.98909   -1495.6294     466.5168    283.39631    2.2246229      39457.2 
  174500    297.31148   -1519.6992    485.70061     302.4348    203.95881      39457.2 
  174600    306.30434   -1472.2935    467.80403    372.36737   -185.50439      39457.2 
  174700    309.45293    -1477.325    474.09858    387.78357    -352.5572      39457.2 
  174800    304.09436   -1476.6751     461.9399    352.18766   -92.640766      39457.2 
  174900     296.4416   -1536.0774     461.2165    257.66231    151.89944      39457.2 
  175000    301.07406   -1527.3242    447.24003    273.26227   -153.31477      39457.2 
  175100    307.80274   -1500.6889    501.84759    384.75092    54.104555      39457.2 
  175200    296.06875   -1557.9859    470.34762    243.20897    328.69153      39457.2 
  175300     297.5881   -1528.9111    472.77433    281.54005    304.00398      39457.2 
  175400    302.57151   -1544.8225     476.8369    292.09196     397.0423      39457.2 
  175500    285.03018   -1499.4298    495.67791    277.47634    55.112057      39457.2 
  175600    308.93779   -1521.5638    486.11386    353.24451    268.05754      39457.2 
  175700    292.93084   -1461.0661    465.29622    320.97232   -430.97987      39457.2 
  175800    302.64724   -1481.3028     473.4365    352.55167   -279.18152      39457.2 
  175900     312.2916   -1473.1515    474.41609    405.03456   -674.09425      39457.2 
  176000     300.0398   -1512.2351    469.94364    306.40594   -322.14097      39457.2 
  176100    290.88142   -1480.1184    499.10387    326.51539    -285.5053      39457.2 
  176200    296.33662   -1481.1762    473.05025    323.92541   -55.477063      39457.2 
  176300    306.04348   -1479.7197    470.92622    366.89082     359.8226      39457.2 
  176400    303.12676   -1495.4773    482.17748     349.2736   -248.21981      39457.2 
  176500    290.76232   -1489.0432    481.71352    299.66485    145.51271      39457.2 
  176600    294.15026   -1511.7692    486.23275    296.68707   -111.34875      39457.2 
  176700    296.00634   -1460.4668    516.34909      386.449    293.91722      39457.2 
  176800    298.22392   -1478.0183    488.96421    351.48078    637.62838      39457.2 
  176900     304.1739   -1495.2373    493.60494    365.64806    624.18133      39457.2 
  177000    301.01977   -1503.6927    469.51724    318.92699    319.91308      39457.2 
  177100    291.38113   -1499.7277    488.96403    299.01248     77.41992      39457.2 
  177200    296.87737   -1485.0629    483.18264    332.60173   -28.738921      39457.2 
  177300    316.35462    -1534.001    474.47569    362.50815   -152.37555      39457.2 
  177400    311.45458   -1540.1406    461.09745    320.96439    249.82242      39457.2 
  177500    305.30246   -1518.4183    498.77884    352.71388    363.30413      39457.2 
  177600    298.34533   -1514.8344    483.94446     310.1907    114.41884      39457.2 
  177700    301.26271   -1485.3991    507.09322    375.88851    288.24991      39457.2 
  177800    302.61638   -1465.6197    484.28533     378.9449    17.002089      39457.2 
  177900     305.7021   -1470.1025    485.65729     389.7045    -3.044005      39457.2 
  178000     302.8009    -1475.661    484.67327      370.121   -46.481302      39457.2 
  178100    309.33896   -1518.6123    470.46068    342.34601    240.91871      39457.2 
  178200    298.28361   -1507.1534    477.10409    310.75387    179.50622      39457.2 
  178300    298.68835   -1465.0004     473.3191    350.94119    156.46793      39457.2 
  178400    298.69099   -1471.3692    490.86507    362.13026    556.38245      39457.2 
  178500    308.51019   -1504.7526    470.36605     352.3858    74.616191      39457.2 
  178600    301.74732   -1538.9787    497.81337    315.20749   -254.58722      39457.2 
  178700    300.31434   -1503.4084    475.36302    321.88608   -357.44806      39457.2 
  178800    296.26686   -1507.1507    484.86429    309.45136    281.88461      39457.2 
  178900     294.5389   -1515.7818    475.42234    283.61105    191.86144      39457.2 
  179000    297.15835   -1546.3023    483.16048     272.6033    468.89575      39457.2 
  179100    293.02596   -1499.8648    491.37818    308.68315    422.85367      39457.2 
  179200    296.24567   -1483.2801    479.93311    328.29556    469.57458      39457.2 
  179300     309.9227   -1548.4582    473.90136    318.56474    180.37803      39457.2 
  179400    303.30239   -1520.5694     473.8588    316.65228    273.65897      39457.2 
  179500    291.23004   -1525.7897    458.23776    241.54507   -355.59639      39457.2 
  179600    303.32706   -1539.4711    483.81553    307.81822   -308.19821      39457.2 
  179700    302.25282   -1532.7819    458.97595     284.8391    151.81637      39457.2 
  179800    297.03547   -1502.1111    489.34408    322.42569    446.56879      39457.2 
  179900    294.85231   -1533.8968    500.82087    292.30337   -66.046724      39457.2 
  180000    303.25694   -1538.4429    459.67156    284.38723   -559.97468      39457.2 
  180100    293.70217   -1517.3219    485.11276    288.00023   -422.07861      39457.2 
  180200      289.929    -1457.506    479.34058    325.08331   -579.99282      39457.2 
  180300    300.82214   -1498.0682    488.48358    342.62942   -386.50702      39457.2 
  180400    294.81823   -1547.9919    463.55998    240.79413   -581.89729      39457.2 
  180500    296.35321   -1493.4859    481.05347    319.69345    278.28383      39457.2 
  180600     306.2151   -1547.3228    506.44371    335.57661    297.05817      39457.2 
  180700    303.84043   -1550.5282    482.53253    297.78576    501.91376      39457.2 
  180800    303.23741   -1542.1652    485.91789    306.82347    182.88262      39457.2 
  180900     290.6928   -1522.7444    479.31851    263.25612     220.0044      39457.2 
  181000    297.46413   -1531.3913    472.95397    278.68228   -11.789555      39457.2 
  181100    287.93657   -1541.2827    529.45404    282.46399    305.84815      39457.2 
  181200    295.51209   -1530.1007    475.90002    274.14439     12.54468      39457.2 
  181300    304.55033   -1519.1122    479.80684    329.66707    90.184444      39457.2 
  181400    289.16388   -1495.7743    504.01748    308.05257   -274.30275      39457.2 
  181500     294.2847   -1543.7272    475.94113    255.04177    -249.3827      39457.2 
  181600    296.79611   -1492.4923    480.01383    321.63836   -805.75483      39457.2 
  181700    298.12347   -1511.3625     488.6783    317.39914   -1007.6065      39457.2 
  181800    295.71979    -1514.157    494.00414    309.12584   -493.76575      39457.2 
  181900    314.53084   -1519.8728    467.73922    361.70187     10.58469      39457.2 
  182000    300.44829   -1513.4739    518.51985    355.57946   -58.710964      39457.2 
  182100    305.43439    -1574.864    486.58832     284.6707    626.14323      39457.2 
  182200    296.21162   -1495.3605    485.25048    321.37943    179.35259      39457.2 
  182300    288.45798    -1534.516    481.65927     243.7796    176.17879      39457.2 
  182400    296.58901   -1547.6919    515.20112    300.69507    388.99239      39457.2 
  182500    309.34365   -1572.5292    473.84944    291.83896    179.93827      39457.2 
  182600    304.20374    -1562.941    497.92883    302.40234    113.92318      39457.2 
  182700    300.51222   -1582.3184    486.45408    254.95664    893.16543      39457.2 
  182800    294.45971   -1596.3866    501.20937    228.43731    812.55577      39457.2 
  182900    309.21716   -1514.0312    509.85582    385.77473    716.74926      39457.2 
  183000    292.63066   -1567.6848    458.67606     206.3841   -126.41495      39457.2 
  183100    305.20435     -1523.14    468.08547    316.85781   -281.20011      39457.2 
  183200    299.94108   -1531.6239    508.76887    325.39854   -95.235982      39457.2 
  183300     301.7405   -1526.1191     483.0067    313.22974   -507.90458      39457.2 
  183400    293.09815   -1515.2664    469.68733    271.91511    -552.0372      39457.2 
  183500    304.93436    -1474.722    509.98992    405.96668   -389.85764      39457.2 
  183600    299.85432   -1520.5461    477.38208    304.69961   -422.06557      39457.2 
  183700    301.71115   -1487.0657    487.24132    356.38583   -620.90244      39457.2 
  183800    300.20703   -1523.7514     506.3377    332.03543    184.43958      39457.2 
  183900    299.40126   -1511.5892    491.46163    325.69952   -40.487217      39457.2 
  184000    296.99874   -1547.1453    477.84423    265.72652   -555.73475      39457.2 
  184100    298.19305    -1580.699    489.11555    248.81272   -301.90659      39457.2 
  184200    306.15795   -1536.0124    475.55888    315.74531   -470.75649      39457.2 
  184300    296.96292   -1583.9161    474.22612    225.17666   -308.52768      39457.2 
  184400    295.22685   -1560.1971    513.09284    279.95865   -36.825282      39457.2 
  184500    295.40415   -1550.5928     506.8797    284.14671    228.89604      39457.2 
  184600    297.89743   -1551.6275    492.92136    280.36113     346.0011      39457.2 
  184700     308.9176   -1551.0668    487.74514    325.28194    860.13624      39457.2 
  184800    311.84364   -1549.5529    509.51644    361.71987    405.25785      39457.2 
  184900    300.64659    -1541.438    492.50449    302.49142    277.03627      39457.2 
  185000    306.34815   -1562.8521    482.48062    296.68228     230.8049      39457.2 
  185100    294.68233   -1518.9613    498.40111    304.05496    267.66105      39457.2 
  185200    305.76168   -1551.6877    487.29874    310.02858    -62.97947      39457.2 
  185300    299.15224   -1569.7171     482.2146    257.20526   -201.34643      39457.2 
  185400    304.11684    -1519.797    490.47522    337.70213     -674.404      39457.2 
  185500    307.38559   -1545.7334    486.69009    322.67383   -785.82734      39457.2 
  185600    296.58691   -1491.4359    477.68927    319.42981   -441.58639      39457.2 
  185700     296.8914   -1515.3871    504.71976    323.87777   -510.97458      39457.2 
  185800    287.87338   -1533.1231    493.94279    254.82819    181.52993      39457.2 
  185900    307.19776   -1530.2352    522.64396    373.28156    226.12451      39457.2 
  186000     313.3925   -1513.8175    488.33429    383.23536    118.01864      39457.2 
  186100    307.83363   -1521.1471     483.0639    345.64789   -382.54495      39457.2 
  186200    304.47911   -1513.8915    491.77212    346.53292   -211.00336      39457.2 
  186300    308.17434   -1489.0348    490.08359    386.31136   -238.49122      39457.2 
  186400     296.0131    -1526.578     478.1307    282.14984   -1001.1048      39457.2 
  186500    310.76964   -1513.3559    496.33176    379.90455   -669.16187      39457.2 
  186600    301.07427   -1495.9219    491.55987    348.98532   -872.26923      39457.2 
  186700     295.5198    -1555.247    496.34889    269.48158   -146.65421      39457.2 
  186800    301.18866   -1522.2506    508.30941    339.92034   -220.34904      39457.2 
  186900    305.09736   -1492.4899    498.46575    377.40724    195.17831      39457.2 
  187000    297.74149   -1509.3523    516.67972    345.69375   -14.945737      39457.2 
  187100    302.42259   -1550.3089    488.42796    297.52725   -97.513614      39457.2 
  187200    296.31418   -1526.3812    512.47689    318.04614   -98.187737      39457.2 
  187300    337.78834   -1560.9509    467.39681     424.8253    105.22432      39457.2 
  187400    289.35587   -1508.3987    489.86021      282.134    512.12676      39457.2 
  187500     298.3977   -1524.2554    509.54712    326.60773     82.91238      39457.2 
  187600    290.18528   -1527.2834    467.01385    244.13111   -226.40636      39457.2 
  187700     294.3263   -1530.3661    521.16377    313.81257   -395.35837      39457.2 
  187800    296.24002   -1505.2249    507.35361    333.74585    412.04395      39457.2 
  187900    288.17844   -1532.4843    518.07045    280.96595      851.503      39457.2 
  188000    300.55666   -1572.7468    494.00811    272.28203    637.54718      39457.2 
  188100    306.98449   -1515.2155    501.28112    365.97979    337.75861      39457.2 
  188200    296.94674   -1517.1745    477.92557    295.54496   -284.22128      39457.2 
  188300    295.39717   -1535.7376    512.65568     304.7466   -433.03488      39457.2 
  188400    297.23488   -1552.4795     506.6762    290.28573   -407.56398      39457.2 
  188500    304.69184   -1556.7588    471.82345     284.6732   -209.16236      39457.2 
  188600    295.34933   -1535.7892    526.24763    318.07183    137.37507      39457.2 
  188700    296.91463   -1537.2144    504.42969    301.86483    21.272083      39457.2 
  188800    300.28945   -1552.5613    495.24232    292.50054    769.81677      39457.2 
  188900    306.29337   -1530.6474    486.22961    332.38979    251.40025      39457.2 
  189000    296.88885   -1522.0912    496.94297    309.38537   -241.97608      39457.2 
  189100    304.38282   -1497.3863    497.72836    368.56161   -124.05416      39457.2 
  189200    299.82272   -1564.8432    458.35947    241.23788   -272.78233      39457.2 
  189300    289.83467   -1547.9331    485.32583    240.21746    260.29685      39457.2 
  189400    291.84808   -1534.1383    501.93402    279.67084   -170.84564      39457.2 
  189500    301.91525   -1587.5248    489.62922    259.23209   -361.51086      39457.2 
  189600    301.64114   -1577.7962    472.79471    250.89396    31.215877      39457.2 
  189700    307.24273    -1554.895    483.91581    310.09583    352.82918      39457.2 
  189800     306.6918   -1525.3664    462.15916     315.3913     486.8283      39457.2 
  189900    302.15578     -1540.08     503.9992    322.12803    576.70313      39457.2 
  190000     300.0585   -1479.5371    487.19553    356.43988    70.319197      39457.2 
  190100    297.67746   -1478.2908    491.12134    350.90904    201.53368      39457.2 
  190200    296.18454   -1445.0793    507.09833    393.38673    147.10745      39457.2 
  190300    304.33014   -1424.0981    504.56374    448.44833    521.14894      39457.2 
  190400    300.21678   -1498.2811    512.15853    363.37034    469.70772      39457.2 
  190500     309.1337   -1496.0101    488.19182    381.75679   -43.078351      39457.2 
  190600    291.52501   -1437.6567    504.96127    377.72748    -14.72763      39457.2 
  190700    301.81907   -1479.7902    493.56955     370.4746   -71.215153      39457.2 
  190800    299.17925   -1521.6563    492.45279    315.62562    267.38792      39457.2 
  190900    305.23731   -1542.5177    469.50702    299.04976    78.038658      39457.2 
  191000    301.48188   -1545.6311    491.87321    301.42168    -634.9938      39457.2 
  191100    298.68447   -1512.8666    466.57602    296.31451   -751.19086      39457.2 
  191200    307.89859    -1515.634     497.9423    366.33146   -709.54449      39457.2 
  191300    290.81263    -1502.983    470.38952    274.62721   -844.34782      39457.2 
  191400    295.55514   -1494.6752    496.27086     330.1342   -798.46426      39457.2 
  191500    310.96026   -1464.6461    491.02948    424.16889   -600.09083      39457.2 
  191600    289.25542   -1482.5111    494.48176    312.19155   -55.196381      39457.2 
  191700    293.81359   -1546.3773    477.95859    252.29141    74.244509      39457.2 
  191800    290.20012   -1501.1698     490.4466    293.74423    67.341722      39457.2 
  191900    298.69073   -1517.9438    485.15163      309.841    304.31764      39457.2 
  192000    297.01886   -1476.4246    510.51169    369.20514   -137.76812      39457.2 
  192100    305.98106   -1475.1449    481.55177     381.8106    -307.4437      39457.2 
  192200    312.57771   -1492.1171     483.2335    396.17239   -267.20224      39457.2 
  192300    295.99653    -1503.474    478.09488    305.14353    95.890027      39457.2 
  192400    300.93289   -1487.3633    498.57191    363.92043   -195.63033      39457.2 
  192500    294.20236   -1471.8605    489.58139    340.17864     20.42559      39457.2 
  192600    301.53534   -1463.7951    467.15374    358.77861    277.52166      39457.2 
  192700    303.62239   -1490.2808    481.40004    355.92056   -142.95663      39457.2 
  192800    297.22113   -1473.4781     482.8065    345.35565    -83.65869      39457.2 
  192900    287.74533   -1475.2664    494.42805     312.5946     306.9728      39457.2 
  193000    300.58748   -1480.8605    487.55813    357.85689    -34.46337      39457.2 
  193100    298.18051   -1460.0273    468.88514    349.19758   -402.80265      39457.2 
  193200    309.60122   -1461.3735    492.57156    422.87458   -113.47996      39457.2 
  193300    297.40268   -1463.6023     493.2724    366.51347    59.505779      39457.2 
  193400    300.72339   -1486.0617    465.40029    331.10877    63.216443      39457.2 
  193500    287.13865   -1463.7141    482.89656    309.88839   -427.58388      39457.2 
  193600    307.68822   -1454.8072     465.5467    393.81704   -219.50915      39457.2 
  193700    310.10997   -1513.4853    492.98611    373.46421   -228.28092      39457.2 
  193800    308.20214   -1438.9205    471.63101    418.09813   -181.74561      39457.2 
  193900    321.82522   -1450.1151    506.03326    502.54239    35.642228      39457.2 
  194000    291.87059   -1458.5643    499.54187    352.95386   -343.45064      39457.2 
  194100    297.45552   -1477.5999    480.35393    339.83485   -146.69074      39457.2 
  194200    302.99894   -1456.5543    484.23788    389.68251    174.12976      39457.2 
  194300    292.97398   -1464.7099    484.34731    336.57351   -142.53669      39457.2 
  194400    294.87156   -1462.7489     493.0662    355.78309   -237.41972      39457.2 
  194500    311.90678   -1514.7036    499.97577    387.31239    137.45494      39457.2 
  194600    304.30274   -1490.0249    466.82106    344.65569   -154.22602      39457.2 
  194700    293.61102   -1498.0657     460.3548    282.08868    -614.4338      39457.2 
  194800    306.43514   -1519.4994    507.93289    365.87834   -354.26084      39457.2 
  194900    300.08798   -1492.1943    458.85549    315.57515   -400.92585      39457.2 
  195000    295.98405   -1488.7116    505.87922    347.63415    -634.9722      39457.2 
  195100    303.64103   -1472.4426     512.6369    405.07939   -591.85541      39457.2 
  195200    293.12079   -1494.7322     465.9173    288.78103   -901.27747      39457.2 
  195300    303.28673   -1422.4705    490.02569    430.84773   -438.66283      39457.2 
  195400    295.80566   -1466.9749    487.55857    350.24833   -227.69022      39457.2 
  195500    293.43166   -1511.3584     474.5062    282.14117    132.39178      39457.2 
  195600    290.13091   -1525.8308    486.95338    265.27883    479.18009      39457.2 
  195700    310.39656   -1480.0315    491.35589    406.57599    711.11531      39457.2 
  195800    297.78924   -1494.7447    478.64797    322.48426    388.39215      39457.2 
  195900    296.97877   -1491.5875    496.91082    340.26116    267.23332      39457.2 
  196000    296.08749   -1480.1202    493.47046    344.28177   -137.52833      39457.2 
  196100    295.05301   -1471.5715    496.61669    351.32668    32.086969      39457.2 
  196200    296.93615   -1482.9105    495.18025    347.01603   -17.670521      39457.2 
  196300    307.80077    -1498.258    463.14687    348.47231    309.31628      39457.2 
  196400    291.50451   -1523.6988    476.53187    263.16377    902.34362      39457.2 
  196500    300.73916    -1497.602    487.28572    341.52478    577.59892      39457.2 
  196600    306.91821   -1476.4532    492.28266    395.44574   -15.325825      39457.2 
  196700     297.6187   -1490.4046    481.59451    329.00433    35.246127      39457.2 
  196800    302.78127   -1453.5065    486.29376    393.80768   -230.88469      39457.2 
  196900    299.28181   -1481.5143    464.08429     327.8601    6.8761599      39457.2 
  197000    304.29454   -1449.9885    493.09174    410.92588    -140.0931      39457.2 
  197100    292.05761   -1481.2119    478.99496    310.60004   -379.27127      39457.2 
  197200    304.33339   -1462.3861    484.74827    390.35951    58.857538      39457.2 
  197300    303.02343   -1424.5896    490.91525    428.43464    80.957885      39457.2 
  197400    304.01353   -1420.3932    468.02462    414.19093   -224.24523      39457.2 
  197500    299.94535   -1478.7489    509.02922    378.55316    403.34745      39457.2 
  197600    294.97017   -1437.4597    485.72046    374.16989    325.88956      39457.2 
  197700    295.77765   -1459.1074    486.41131    356.84264    187.42485      39457.2 
  197800    306.23494   -1470.9495    510.52293    416.11836    66.359452      39457.2 
  197900    301.33981   -1494.8184    478.35389    338.07647    90.073683      39457.2 
  198000    302.31407   -1511.2316    492.44603    340.13478    261.40735      39457.2 
  198100    302.18135   -1444.9928    463.10963    376.44055    448.44227      39457.2 
  198200     300.6893   -1427.9134    499.68018    423.38369    523.38921      39457.2 
  198300    292.46803   -1471.2007     493.1954    336.65654    165.43963      39457.2 
  198400    304.48822   -1432.0986    474.07952    410.67418    287.64757      39457.2 
  198500     310.6903   -1463.4371     473.4804    406.61531   -157.59395      39457.2 
  198600    290.90465   -1465.1586    496.25418    338.72987    585.88046      39457.2 
  198700    301.71662   -1476.8781     460.6862    340.04288    18.063909      39457.2 
  198800    306.78305   -1464.8087    461.79022     375.9902    555.24543      39457.2 
  198900    303.74714   -1449.4383    515.21087    431.13467    502.18437      39457.2 
  199000    303.13162    -1454.241    482.63023    390.98451    338.02059      39457.2 
  199100    294.04431    -1447.462    463.88181     338.1671   -170.29122      39457.2 
  199200    307.22249   -1456.9838    486.10318    410.10333     97.05068      39457.2 
  199300    300.79739   -1437.3862    470.11773    384.83427   -222.18753      39457.2 
  199400    294.64343   -1434.2541     497.1376    387.32388    288.64958      39457.2 
  199500      301.993   -1476.8415    485.48898    366.12459    362.30865      39457.2 
  199600    286.24136   -1451.9767     478.9433    313.63912   -187.82593      39457.2 
  199700    289.55246   -1436.6793    489.46595    354.34278   -472.53228      39457.2 
  199800    299.07499   -1419.8399    471.11418    395.63476   -564.82823      39457.2 
  199900    302.49504   -1423.0374    498.42045    435.11694   -7.2663721      39457.2 
  200000    295.96268   -1424.7547     495.1025    400.71821     745.1871      39457.2 
  200100     301.4608   -1434.2391    482.71972    403.56545    1278.3221      39457.2 
  200200    296.36862   -1419.1748    491.57766    404.59806    781.18399      39457.2 
  200300    308.30601   -1412.1119    507.53673    481.27931    883.16985      39457.2 
  200400    296.73585   -1431.3566     492.8535     395.3428    867.85373      39457.2 
  200500    303.82967   -1427.1598    475.54062    414.11391    560.98354      39457.2 
  200600    299.82292   -1433.0677    508.85484    423.50963   -199.91828      39457.2 
  200700    306.01193   -1424.7032    474.38028    425.21952   -47.256584      39457.2 
  200800    302.65332   -1425.2922    488.72626    423.87934   -236.35357      39457.2 
  200900    309.44246   -1424.8339    489.97811    456.10709   -612.78426      39457.2 
  201000    302.40784    -1462.241    445.30317    342.40405   -551.31519      39457.2 
  201100    307.55481   -1469.4164    477.31085    390.37221     135.0003      39457.2 
  201200    312.65792   -1423.3638     509.3333    491.38607     282.8269      39457.2 
  201300    302.87473   -1425.7579    487.42682    423.10947    36.823845      39457.2 
  201400    308.82736   -1403.1137    503.88658    488.97081   -102.86705      39457.2 
  201500    308.93139   -1437.1339    478.49341    430.02511    192.88494      39457.2 
  201600    290.33909   -1434.8639    488.52582    358.75401    152.68208      39457.2 
  201700    303.43758   -1431.5779    470.21858    402.61127    233.77668      39457.2 
  201800    296.54971   -1516.6435    470.24864    286.61434    486.67636      39457.2 
  201900    304.48923   -1482.6278    489.05392    375.12393    758.10996      39457.2 
  202000      297.954   -1474.7606    464.94642     329.5074    889.70022      39457.2 
  202100    303.89207   -1477.9665    495.98904    384.03607    42.359664      39457.2 
  202200    292.30718   -1474.3942    498.69592    338.24052    581.96238      39457.2 
  202300    314.82018   -1469.4619    503.16123    448.83541    174.96153      39457.2 
  202400    299.31952   -1484.2502    480.57732    341.78684    122.42561      39457.2 
  202500    302.74022   -1467.3141    498.89926    392.42115   -149.03835      39457.2 
  202600    303.23731   -1478.8644    481.58235     365.7883   -732.40823      39457.2 
  202700    309.48133   -1480.6432    472.94613    383.44055   -335.78021      39457.2 
  202800    301.56753   -1492.8611    467.13281    329.83635    412.77966      39457.2 
  202900    302.49583   -1500.7865    474.88035    333.83118    750.04256      39457.2 
  203000    307.85759   -1512.0546     454.1344    325.91864    322.94112      39457.2 
  203100    293.85143   -1503.3601    463.11276    280.63292   -118.90932      39457.2 
  203200    292.11558    -1500.184    478.33084    291.22437    339.26716      39457.2 
  203300    301.72501   -1477.2773    487.01925    366.01442    71.231507      39457.2 
  203400    296.74023   -1497.6749    465.35481    301.54549    177.24146      39457.2 
  203500    304.28715   -1507.4974    477.53093    337.82298    16.045994      39457.2 
  203600    288.03144   -1490.9321    487.74714    291.53404    307.86576      39457.2 
  203700    302.49649   -1486.7702    460.82003    333.79012    417.70143      39457.2 
  203800    306.89066   -1476.4936    479.85691    382.85575   -391.25066      39457.2 
  203900    296.46566   -1463.7688    469.79959    338.66218    -116.4362      39457.2 
  204000    305.48033   -1469.3227    468.21562    372.04583   -313.86385      39457.2 
  204100    303.62098   -1473.3686    458.65387    350.08022   -614.33958      39457.2 
  204200    295.49146   -1440.0457    479.06769    367.27429   -477.95006      39457.2 
  204300     294.7601   -1484.4999    477.51367    317.97857   -173.63251      39457.2 
  204400    299.09505   -1481.0246    483.35419    346.78026   -58.426815      39457.2 
  204500    296.86638    -1530.332    478.63079    282.73149   -167.66239      39457.2 
  204600    288.84139   -1480.0655    469.98921    288.28351    -250.8598      39457.2 
  204700     299.5111    -1484.824    486.91983    348.41665   -275.71374      39457.2 
  204800    296.01572   -1491.1775    471.46176    310.89308    -257.9546      39457.2 
  204900    301.61949   -1491.7903     503.2299    367.23778   -9.5966056      39457.2 
  205000    306.96368   -1451.9366    469.94271    397.82674    179.22199      39457.2 
  205100    301.51576    -1435.168     480.9815    401.14538    95.750923      39457.2 
  205200    300.86764   -1442.3597    503.72484    413.78373   -78.426385      39457.2 
  205300    305.89116   -1447.1814    497.23916     425.0574   -256.26747      39457.2 
  205400    299.08531    -1428.785     468.9819    384.60375    125.30205      39457.2 
  205500    298.62404   -1462.6618     500.0536    379.72521   -142.72612      39457.2 
  205600    302.29546   -1454.8109    462.54308    366.56888   -191.98223      39457.2 
  205700    296.82628   -1435.8532    474.46039    372.85961   -143.31247      39457.2 
  205800    299.27982   -1453.2509    481.92693    373.95721    157.48687      39457.2 
  205900    306.65933   -1424.5526    481.55416    435.45409    58.977562      39457.2 
  206000    299.31788   -1423.9157    477.18044    398.71703    253.51863      39457.2 
  206100    307.07185     -1456.38    475.70317    399.63005    42.554999      39457.2 
  206200    294.12442   -1446.9538     499.0898    374.24334    173.23547      39457.2 
  206300    292.68914   -1434.5075    476.68903    357.83725    77.182028      39457.2 
  206400    311.87979   -1466.9909    492.63611    427.56403    484.91976      39457.2 
  206500    300.68178   -1438.5211    479.21709    392.27909    -268.3434      39457.2 
  206600    300.12511   -1501.2749    483.58479    331.39072   -328.75232      39457.2 
  206700    299.73978   -1492.4031      492.219    347.16463   -299.04496      39457.2 
  206800    316.76665    -1471.593    454.29146    406.58404    242.52096      39457.2 
  206900    293.47204   -1478.7289    499.34608    339.79204    13.640802      39457.2 
  207000    304.10296   -1458.0684    493.24461    402.13768   -98.243003      39457.2 
  207100     307.2907   -1445.9206    479.90884     415.2789   -45.617556      39457.2 
  207200    293.82464   -1504.1206    478.27353    294.91281    141.74079      39457.2 
  207300    308.78147   -1477.4783     489.0634    399.57678    464.75674      39457.2 
  207400    288.92568   -1467.6643    482.56194    313.63642     231.8672      39457.2 
  207500     293.5969   -1457.1284    486.69925    349.30702   -280.82397      39457.2 
  207600    300.76699   -1431.7738    465.64684    385.83914    -593.8732      39457.2 
  207700     298.8747   -1440.3862    484.09276    387.16671   -554.27354      39457.2 
  207800    308.54244    -1472.144    465.01398    379.78723   -376.79078      39457.2 
  207900     300.8267   -1455.8407    480.97222    377.36609   -37.486179      39457.2 
  208000    296.95007   -1457.7649    478.91334    355.95727   -412.06442      39457.2 
  208100    300.51226   -1454.7771    469.53315    365.57719   -706.44726      39457.2 
  208200    299.21863   -1456.9279    509.89284    397.97108   -162.24773      39457.2 
  208300    298.06445   -1480.9931    481.52119     340.3461    205.04063      39457.2 
  208400    302.08182   -1470.6411     475.6286    362.86389    725.07243      39457.2 
  208500    305.45929   -1486.3283    469.32968    356.05966    693.68052      39457.2 
  208600    292.70992   -1470.6295    467.45094    312.57053    239.16194      39457.2 
  208700    301.54686   -1508.9569    488.86451    335.37932   -83.512472      39457.2 
  208800    306.26629   -1489.7106    483.02917    370.00435   -120.11516      39457.2 
  208900    290.55768   -1515.4488    461.54516    252.17105   -457.34832      39457.2 
  209000    299.96079   -1496.7565    488.68165    340.26741   -449.89911      39457.2 
  209100    304.66345   -1502.0484    451.34057    318.77311    179.67403      39457.2 
  209200    294.24829   -1473.4198    482.06916    331.31354   -298.62086      39457.2 
  209300    296.70449   -1451.8836    467.73051    349.55184   -203.03716      39457.2 
  209400    297.69702   -1458.7715    489.97508    369.37002   -313.23765      39457.2 
  209500    301.46807   -1461.1875    487.24558    381.17561   -582.87863      39457.2 
  209600    307.21496   -1452.6299    470.90965    399.22991   -852.30488      39457.2 
  209700    305.24104   -1446.8969    473.64971    398.83007   -317.02152      39457.2 
  209800    295.86422   -1455.7416    499.53025    373.71653   -269.47338      39457.2 
  209900    293.55881   -1454.0541    494.98181    360.49263   -65.100326      39457.2 
  210000    294.98806   -1492.2177    465.46536    299.23718   -420.44358      39457.2 
  210100    307.26146   -1508.5435    466.65615    339.27185   -686.34397      39457.2 
  210200    300.21141   -1472.7793    497.74046    374.42991   -114.67608      39457.2 
  210300    303.53467   -1502.7392    477.14763     338.8154   -536.12408      39457.2 
  210400    302.40887   -1513.2228    476.18507    322.30877      229.508      39457.2 
  210500     304.4027   -1504.1057    463.96421    328.16733    427.80689      39457.2 
  210600    296.85281   -1492.8128    482.11483    323.67372   -67.067452      39457.2 
  210700    295.05737   -1468.6033    469.81028    327.50804    532.81895      39457.2 
  210800    306.52894   -1444.5387    475.00615    408.33394    357.61304      39457.2 
  210900    293.25254   -1480.5997    483.34945    320.93798    127.16244      39457.2 
  211000    292.68321   -1448.8596    484.71911    351.48855    864.80046      39457.2 
  211100    297.61939   -1497.2488    472.57455    313.14318    227.74188      39457.2 
  211200    302.24712   -1459.3348    481.64431    380.92895   -118.41557      39457.2 
  211300    287.49909   -1480.9883     460.0073    271.34507   -316.78051      39457.2 
  211400     298.8787   -1474.9319     464.1836    332.72988   -271.76138      39457.2 
  211500    303.59639   -1461.6278    469.81295    372.86957   -402.25144      39457.2 
  211600    299.90609   -1443.2032    483.34426    388.23742   -456.61683      39457.2 
  211700    301.35483   -1454.4519    473.47048    373.62707   -856.77878      39457.2 
  211800    296.22552   -1469.5079    483.51944    345.56348    189.44177      39457.2 
  211900    294.74822   -1470.4851    492.26966    346.69598    37.339296      39457.2 
  212000    296.15559   -1464.7973    477.93376    344.37407    313.42376      39457.2 
  212100    294.99886   -1473.1617    468.77819    321.65453    164.93227      39457.2 
  212200    296.06709   -1491.2416    463.33801     302.9362     233.4675      39457.2 
  212300    300.11302   -1443.8413     488.9078    394.09305    522.89866      39457.2 
  212400    294.87513   -1413.7378    483.57293    395.31703    -191.4867      39457.2 
  212500    298.62674   -1376.0182    475.71196    442.03931   -214.77981      39457.2 
  212600    303.07757   -1463.6266    475.85974    374.58545   -170.60209      39457.2 
  212700    307.54313   -1452.0782     468.2939    398.64101    215.85006      39457.2 
  212800    299.98932   -1471.5334    444.25214    321.18918   -265.21033      39457.2 
  212900    295.35932   -1497.7239    449.78957      279.724    243.87017      39457.2 
  213000     302.0937   -1498.5483    482.93116    342.31265    184.52989      39457.2 
  213100    300.87824   -1490.5442    460.28296      322.205   -151.67211      39457.2 
  213200     301.1348   -1488.1075     471.9589    337.47084    187.25996      39457.2 
  213300    297.87979   -1456.5872    491.88702    374.28786    364.26582      39457.2 
  213400    291.75849     -1494.75    465.69045    282.41282    402.16114      39457.2 
  213500    290.06142   -1474.3549    488.23154    317.72057    605.11352      39457.2 
  213600    300.61138   -1471.8545    485.73081    365.14301     57.47377      39457.2 
  213700    307.28487   -1492.8811    480.79752    369.18087   -42.598023      39457.2 
  213800    297.26459   -1477.6031    479.20365    337.82321   -81.624872      39457.2 
  213900    304.97463   -1488.7303    453.87839    336.02781    337.55397      39457.2 
  214000    303.50169   -1515.6519    484.05942    332.66634    251.75691      39457.2 
  214100    297.92503   -1516.2819    470.32547    293.23487    102.96037      39457.2 
  214200    308.66743   -1456.3325    478.31356    409.46016    207.21115      39457.2 
  214300    295.42603   -1415.5926     483.1682    395.53376   -569.43459      39457.2 
  214400    305.43844   -1450.2841    502.80905    425.48955    837.43399      39457.2 
  214500    291.29805   -1463.1453    482.58573    328.84308    42.325388      39457.2 
  214600    293.24831   -1469.4958    481.55782    330.23126   -23.590477      39457.2 
  214700    307.28474   -1430.8743    486.55486    436.94438    212.03665      39457.2 
  214800    295.24106   -1470.6324    477.75146    334.24582   -192.22091      39457.2 
  214900    302.74001   -1503.7794    470.44644    327.50206    336.65225      39457.2 
  215000     295.5818    -1487.937    489.85955    330.58091    97.484315      39457.2 
  215100    302.52077   -1473.4052    483.31329    369.75759    127.56113      39457.2 
  215200    293.67651   -1430.6925    475.19419    364.59574     222.5896      39457.2 
  215300    308.37255   -1439.0975    489.88641    436.94251    463.81861      39457.2 
  215400    311.10198   -1460.6552    487.90587    425.67323   -6.8591988      39457.2 
  215500     312.3454   -1414.8176    487.97059    477.16477    186.65095      39457.2 
  215600    292.71535   -1496.2572    479.94298    299.45933    583.22276      39457.2 
  215700    305.13592   -1491.5359    474.67496    354.74378    403.38767      39457.2 
  215800    299.16443     -1488.84    466.80026    322.72284    820.37235      39457.2 
  215900    295.70015   -1504.3227    467.78632    292.65403    485.37005      39457.2 
  216000     302.2529   -1457.1074    483.82847    385.36644    359.04942      39457.2 
  216100     290.4606   -1496.2122    457.05277    266.47881    398.16015      39457.2 
  216200    292.97982   -1512.3671    469.90759    274.50281    242.01712      39457.2 
  216300     295.1143   -1482.2545    466.95408    311.25655   -170.05515      39457.2 
  216400     306.3898   -1488.4704    460.03654    348.80711    494.64501      39457.2 
  216500     300.1529   -1513.7316    478.95278    314.42691    380.34649      39457.2 
  216600     295.7301   -1510.5199    480.18849    298.99354    214.18336      39457.2 
  216700    298.06072   -1490.4118    490.33114    339.72059    396.25168      39457.2 
  216800     297.6573   -1507.5146    468.38312    298.85636    720.12282      39457.2 
  216900    300.17453   -1548.5828    445.10455    245.82472    1069.1683      39457.2 
  217000    302.89916    -1549.271    472.14799    284.42738    385.74976      39457.2 
  217100    301.68543   -1494.4632    447.13784    308.76928    392.61801      39457.2 
  217200    296.13973   -1507.6088    472.79827    296.35584    220.12854      39457.2 
  217300    300.55578    -1439.305    469.38418    381.09589      272.843      39457.2 
  217400      293.441    -1462.718    477.41249    333.72985    214.28349      39457.2 
  217500    298.69908   -1456.6426    469.23761    355.26574    330.54734      39457.2 
  217600     299.7249   -1441.1585    475.88786    382.01123    98.005482      39457.2 
  217700    308.06028    -1485.411    486.26767    385.60663    653.23265      39457.2 
  217800    304.09279   -1427.6925    450.64765      389.871    206.57423      39457.2 
  217900    301.52977   -1476.1542    468.60636    347.84708    347.23809      39457.2 
  218000    298.66596   -1495.2657    474.84433    322.10048    381.68594      39457.2 
  218100    304.68038   -1441.3209    463.65187    391.88808    348.58677      39457.2 
  218200    303.91028   -1448.6049    438.39018    355.88069    282.84593      39457.2 
  218300    311.17312   -1459.4796    459.51263     398.7754    400.90393      39457.2 
  218400    293.65869    -1462.888    482.49844    339.62431   -424.79762      39457.2 
  218500    288.43351   -1480.2734    469.73825    285.99127   -477.75326      39457.2 
  218600     303.5545   -1497.6828    479.57702    346.39036   -414.38174      39457.2 
  218700    296.35466   -1499.8637    464.65054    296.91931   -435.63849      39457.2 
  218800    302.25057   -1459.7065     450.0981     349.0265    -279.6456      39457.2 
  218900    299.45579    -1449.182    485.06838    381.95863   -446.62387      39457.2 
  219000    300.41731   -1453.7676    463.40586     360.0325   -363.03204      39457.2 
  219100    303.42804    -1499.397    446.58199    311.11268   -114.03869      39457.2 
  219200    303.16387   -1447.2828    490.11001    405.56747    770.07298      39457.2 
  219300    288.94666   -1472.7061    487.82373    313.95061    696.64487      39457.2 
  219400    312.76741   -1477.7159    479.73398     407.9268    777.17957      39457.2 
  219500      320.751   -1502.0453    478.85405    418.60425    844.24084      39457.2 
  219600    296.44258   -1476.4616     463.5851    319.65113    47.275803      39457.2 
  219700    310.34546   -1470.6518    477.39462    401.76479   -574.40428      39457.2 
  219800    304.47821   -1419.9094    465.33599    414.07492   -592.64164      39457.2 
  219900    293.00342   -1457.1458    485.27475    345.19731    -407.0872      39457.2 
  220000    306.22889   -1429.2773    482.52545    429.76587   -532.58616      39457.2 
  220100    297.87943   -1422.0719     478.9538     395.8683   -121.51595      39457.2 
  220200    292.11157   -1431.6606     480.6872    362.08604   -427.15859      39457.2 
  220300    294.94342   -1428.7009     489.9222     387.0101   -256.07466      39457.2 
  220400    306.67931   -1411.4227    476.08152    443.20118   -290.03971      39457.2 
  220500    305.90422   -1435.9006    484.09879    423.25651   -448.17923      39457.2 
  220600     298.4639   -1414.2388    474.80733    402.18215   -82.286539      39457.2 
  220700    293.56655   -1455.1602    474.66953    339.10901    -424.8735      39457.2 
  220800    294.37517   -1447.6496    454.74382    330.32873   -366.00217      39457.2 
  220900    309.21053   -1471.6052    494.03211    412.34729   -77.128833      39457.2 
  221000    304.35643   -1485.4004    472.05017    354.75073   -130.98756      39457.2 
  221100    287.99348    -1473.485    480.50561    301.56902   -294.21109      39457.2 
  221200    301.97354   -1436.8557    465.14239    385.67632    -610.6403      39457.2 
  221300    311.20944   -1500.9498    464.63733    362.59316   -858.75717      39457.2 
  221400    299.56942   -1454.2086    450.68208     343.0565   -563.44261      39457.2 
  221500    299.23533   -1469.8781    502.36718    377.57028   -530.00469      39457.2 
  221600    298.78938   -1489.6111    482.42132     335.8869   -409.21213      39457.2 
  221700    301.11828   -1493.7434    459.68261     319.4844    261.49915      39457.2 
  221800    296.80855   -1481.1355      465.007    318.04418    90.253691      39457.2 
  221900    304.44886   -1472.9003    465.09392    360.71001    450.52192      39457.2 
  222000    293.88651   -1449.4808    461.13949    332.69664   -98.796512      39457.2 
  222100    298.05991   -1425.8377    492.97962    406.93956   -600.52349      39457.2 
  222200    306.36109   -1445.6049    464.88709    396.39411    -262.3925      39457.2 
  222300    303.33401   -1490.7142    470.28924     343.0801   -534.43183      39457.2 
  222400    300.93181   -1480.8558    477.96497    349.81612   -222.37145      39457.2 
  222500    294.85555   -1460.2694    483.14688    348.27128   -42.515846      39457.2 
  222600    303.83913   -1467.6734    444.46313    342.56528   -305.99103      39457.2 
  222700    300.83155   -1444.5171    495.82101    403.56022   -103.33708      39457.2 
  222800     311.3782   -1440.8547    446.98227     405.7917   -216.74753      39457.2 
  222900    304.99036   -1412.4485    460.77742    419.27939   -476.60154      39457.2 
  223000    302.73202   -1500.5599    492.73278    352.97191   -36.950173      39457.2 
  223100    301.42502   -1466.8075    468.25253     356.3691   -124.29721      39457.2 
  223200    301.22514   -1485.6345    463.07522    331.46624    -383.8651      39457.2 
  223300    305.06174   -1502.5778    459.23889    327.93236    32.174024      39457.2 
  223400    298.37932   -1476.1228    472.89012    338.00078    360.95168      39457.2 
  223500    296.80606   -1527.3725     452.9087    259.69777    792.63801      39457.2 
  223600    296.41381   -1518.3338    495.98769    310.05216    768.76272      39457.2 
  223700    297.98819   -1511.0094    482.88248    311.34834    661.86039      39457.2 
  223800    301.53524   -1510.0263    472.96237    318.35551    531.59152      39457.2 
  223900     299.7547   -1489.0335    450.34913    308.73147    182.94863      39457.2 
  224000     298.4408   -1501.1018    467.58708    307.99504      501.606      39457.2 
  224100    300.06466   -1489.0389    501.66735    361.43751    596.91021      39457.2 
  224200    298.66692   -1527.9824    465.41944    279.96324    257.54365      39457.2 
  224300    304.56858   -1484.6974    465.28933    349.64645    234.48021      39457.2 
  224400    292.09192    -1431.986    481.60545     362.5906   -62.365584      39457.2 
  224500     301.1186   -1435.0377    470.93512     389.4441   -69.668961      39457.2 
  224600    302.37844   -1463.4297    474.38511    370.16509   -82.643791      39457.2 
  224700    291.76234   -1442.9755    490.89875     359.4129     3.970539      39457.2 
  224800    298.06424   -1425.1031     474.4135    389.12745    117.39388      39457.2 
  224900    302.15563   -1459.6318    487.63926     386.2156   -24.018295      39457.2 
  225000    304.13177   -1443.4452    483.23418    406.87999    462.89295      39457.2 
  225100    294.23622   -1467.5968    480.68098    335.69413   -84.332488      39457.2 
  225200    306.84814    -1435.736    463.90278    407.46808   -544.59717      39457.2 
  225300    299.87993   -1432.7402     470.9499    386.18845   -427.93724      39457.2 
  225400    293.17396   -1433.1908    472.68495    357.32913   -165.18366      39457.2 
  225500    290.52056   -1479.6786    478.10468    304.33388   -273.02725      39457.2 
  225600    305.76306   -1517.3933    468.29364    325.32407    165.65489      39457.2 
  225700    319.70243   -1461.2565    480.34597    456.17154    551.51791      39457.2 
  225800    289.57909   -1453.7722    470.81635    318.71995    77.715415      39457.2 
  225900    303.57113   -1436.9043    468.51348    396.18007    810.04234      39457.2 
  226000    297.98658   -1419.0321    470.81262    391.24849    698.18813      39457.2 
  226100    308.48398   -1416.8848    506.92143    476.69108    481.55469      39457.2 
  226200    292.06878   -1413.9008     486.6549    385.62124    434.79171      39457.2 
  226300    295.24836   -1447.5082    492.02799    371.67939     767.7954      39457.2 
  226400    297.44288   -1473.6744    508.73615    372.08581    659.29444      39457.2 
  226500    293.30534   -1430.0156    483.67886    372.08886     199.3825      39457.2 
  226600    301.18992   -1457.9708    466.36053    362.25698   -45.287266      39457.2 
  226700    312.11541    -1466.304    489.42427    426.09827   -103.63753      39457.2 
  226800    302.44686   -1413.4277    454.01588    400.10541   -1.0845162      39457.2 
  226900    296.85832   -1383.4404    492.16769    443.12378   -107.16554      39457.2 
  227000    300.47347    -1458.909    486.76518    378.50295    269.53146      39457.2 
  227100    292.14912   -1472.2003    468.96292    309.99093    108.04091      39457.2 
  227200    299.45382    -1456.021    488.86942     378.9118   -192.27252      39457.2 
  227300    304.30674   -1438.8931    485.66947    414.65385    70.806844      39457.2 
  227400    298.36241   -1434.4283    486.34033    393.06944   -197.26233      39457.2 
  227500    294.19958   -1478.4776    481.86484     325.8325   -399.95956      39457.2 
  227600    311.57427    -1452.816    482.19432    429.92387   -640.90907      39457.2 
  227700    308.93212   -1467.2384    463.23029    384.66074   -248.01442      39457.2 
  227800    297.87287     -1464.77    476.38008    350.56699   -499.93201      39457.2 
  227900    291.15225   -1465.1642    481.31709     324.9002   -526.14585      39457.2 
  228000    302.37726   -1438.4715    469.89472    390.62767    108.44673      39457.2 
  228100    310.00321   -1486.0827    470.22647    377.62727    337.71446      39457.2 
  228200    309.04181   -1484.8069    462.12671    366.48181    80.248674      39457.2 
  228300    292.99436    -1467.677    476.02037    325.37101   -104.15761      39457.2 
  228400    295.99223   -1447.0288    498.19657    381.67101    -45.54702      39457.2 
  228500    318.22977   -1450.4425      494.366     474.3859   -283.54402      39457.2 
  228600    307.30578   -1447.7845    478.18542    411.75929   -722.58288      39457.2 
  228700    289.62384   -1406.6335    496.36696    391.61043   -524.94893      39457.2 
  228800    312.77189   -1433.2184     452.7642    425.47468    400.97724      39457.2 
  228900    289.18772   -1419.4056    476.60733    357.11835    886.65683      39457.2 
  229000    304.40168   -1462.5587    478.00633    383.75196    676.14576      39457.2 
  229100    294.77022   -1445.7179    474.21171    353.50411    732.20348      39457.2 
  229200    300.14091    -1481.605    503.55748    371.10437    512.34503      39457.2 
  229300    297.20463   -1501.9563    466.64064    300.63746    611.26511      39457.2 
  229400    307.77978   -1437.5167    487.34298    433.31535    116.36024      39457.2 
  229500    308.33945   -1417.5359    473.10696    441.57587    216.85857      39457.2 
  229600    294.68751   -1444.5151    509.39772    389.52112    221.95244      39457.2 
  229700    293.34608   -1430.1546    496.90385      385.358    330.95708      39457.2 
  229800    298.47161   -1491.6807    480.28887    330.25641    358.31097      39457.2 
  229900     305.0404   -1497.2396    482.34618    356.28201    488.70695      39457.2 
  230000    295.33751   -1462.8039      504.068    368.82438    1073.5566      39457.2 
  230100    304.68069   -1497.9902    461.64934    333.21758    342.64018      39457.2 
  230200    295.59292   -1473.0277    514.49688    370.17756    341.94857      39457.2 
  230300    308.85091   -1457.4744    463.10353    393.93295    10.319217      39457.2 
  230400    295.32807   -1451.4848    491.25656    367.28963    112.42519      39457.2 
  230500    305.13529   -1426.3762    496.61869    441.84439    214.76142      39457.2 
  230600    295.38338   -1432.2806    495.06132    390.54719    21.692447      39457.2 
  230700    305.33819   -1434.3016    498.29122    436.50354   -11.584698      39457.2 
  230800    296.78572   -1450.4389    478.86409    362.49526    509.94877      39457.2 
  230900    293.12439   -1455.1693    444.38827    306.83118    475.15468      39457.2 
  231000    301.15305   -1469.2973    489.06819    373.47243    190.18674      39457.2 
  231100    301.51158   -1472.9403    477.93296    360.30578     272.8393      39457.2 
  231200      307.956   -1498.4896    479.21966    365.01126    312.90043      39457.2 
  231300     289.6368   -1464.3157    480.16984    317.78944    389.05149      39457.2 
  231400     292.7534   -1432.4284    483.33023    366.84643    121.04165      39457.2 
  231500    300.49718   -1447.7627    495.67652    398.66712    488.49828      39457.2 
  231600    301.10079   -1457.3557    483.80622    379.91705    416.61027      39457.2 
  231700    303.32755   -1406.9011    494.56982    451.14475    113.66146      39457.2 
  231800    300.14015   -1450.7233    479.04007    377.46517   -228.22892      39457.2 
  231900    296.68651   -1439.1294    495.94988    390.44463   -209.27838      39457.2 
  232000    296.75247   -1441.7102    460.41486    352.62524   -459.68647      39457.2 
  232100    297.23846   -1461.9567    503.32093    377.46937   -397.19646      39457.2 
  232200    308.25971   -1446.7715    461.83997     400.7148   -181.72334      39457.2 
  232300    296.92475   -1431.0087    500.19479    403.88115   -31.626456      39457.2 
  232400    310.63922   -1446.0325    486.83757    437.14745   -194.02845      39457.2 
  232500    292.84954   -1509.2179    475.52402    282.68284   -106.08763      39457.2 
  232600    300.55692   -1478.5881    479.89652     352.3303   -185.76739      39457.2 
  232700    294.83464   -1457.9977    470.46224    337.76444   -829.60042      39457.2 
  232800    299.77589   -1437.8644    481.45776    391.10447   -920.44693      39457.2 
  232900    306.88804   -1518.6871    473.49584    334.28939   -839.94543      39457.2 
  233000    285.50205   -1533.9259    481.04927    230.47265   -928.39735      39457.2 
  233100    293.90448   -1499.9312    467.12256    288.31005   -495.76157      39457.2 
  233200    305.47941   -1492.3926    472.08068     352.8369     290.5734      39457.2 
  233300    301.50379   -1502.3954    469.23526      322.118    10.285755      39457.2 
  233400    296.54608   -1519.6257    464.35619    277.72334   -236.89925      39457.2 
  233500    304.32299   -1505.1782     490.6809    353.45326    412.93595      39457.2 
  233600     299.6997   -1505.9297     482.4814    323.72027   -15.360632      39457.2 
  233700    299.38717   -1529.9161    460.61981    276.46747    17.655602      39457.2 
  233800     307.0538   -1515.7786    469.66664     334.1138    480.31149      39457.2 
  233900    295.99346   -1562.9524    476.58171    244.13809    249.64565      39457.2 
  234000    297.65432   -1495.0189    471.10935    314.06493    662.04602      39457.2 
  234100    308.64701   -1481.5223    476.75514    382.62012    72.026945      39457.2 
  234200     304.3884     -1470.68    466.51447    364.07903   -31.810895      39457.2 
  234300    291.00101   -1503.5778    441.75132    246.24101    24.077398      39457.2 
  234400    307.64141    -1515.393    468.32207    335.79614     378.4388      39457.2 
  234500    305.03068   -1475.3888    488.94587     384.6888     307.5468      39457.2 
  234600     291.8743   -1493.8399    483.19797    301.35097   -214.23966      39457.2 
  234700    304.81981   -1520.8773    470.38636    319.69289    -80.48678      39457.2 
  234800    301.36045   -1475.0869    493.68028    373.22717   -14.965117      39457.2 
  234900    294.18069   -1546.4554    453.53226     229.4372   -588.09662      39457.2 
  235000     293.6748   -1516.8979    463.02006    266.20849   -223.90488      39457.2 
  235100    309.64314    -1536.006    461.19886    317.05782   -180.88759      39457.2 
  235200    305.92469   -1526.6483    459.13258    307.63455    -50.06679      39457.2 
  235300    300.89847   -1522.1552    484.73293    315.13491   -200.03839      39457.2 
  235400    299.22502   -1559.8727    469.24123    254.40342   -171.27766      39457.2 
  235500     304.1481   -1503.3254    469.29678    333.13583    130.40539      39457.2 
  235600    308.21477   -1528.0032     472.3945    329.83571   -468.70101      39457.2 
  235700    309.20464   -1507.5564    485.12836     367.4659   -13.904171      39457.2 
  235800    293.14054   -1543.6355    467.65156    241.70078    -144.3963      39457.2 
  235900    307.96071   -1504.9733    495.28456    374.61358    188.55505      39457.2 
  236000    293.26575    -1516.522    469.55752    271.28308   -234.82459      39457.2 
  236100    298.05326   -1496.0547    490.31303    334.02607   -954.39311      39457.2 
  236200    291.54919   -1488.4211    462.23857    284.34905   -1300.5322      39457.2 
  236300    302.73687   -1523.6042    481.59029    318.80697   -1391.8056      39457.2 
  236400    302.33118   -1513.5428    458.52489    303.97931   -1160.8537      39457.2 
  236500    301.63869    -1521.298    465.47005    300.05653   -223.93821      39457.2 
  236600    302.52448   -1537.9442     471.9964    293.91839    324.72127      39457.2 
  236700    295.11519    -1524.306    487.27136    289.52628   -4.4084171      39457.2 
  236800    300.93508   -1504.0985    477.99773    326.62091     141.5315      39457.2 
  236900      289.181   -1482.6722    475.85269    293.06693   -267.40352      39457.2 
  237000    303.66047   -1500.8915    488.71465    352.79562    498.35965      39457.2 
  237100    290.29821   -1484.7144    494.00292    314.19681     144.6664      39457.2 
  237200    289.99135   -1474.5655    474.15586    303.11935   -64.438797      39457.2 
  237300    300.80463    -1488.546    501.03436    364.62375    -61.92799      39457.2 
  237400    294.37947   -1493.9811    504.88142    334.15411    7.4925557      39457.2 
  237500    300.17219   -1475.4398     493.5403      367.393    435.15782      39457.2 
  237600    295.88926   -1472.2831    490.27655    348.03388    -190.4645      39457.2 
  237700     293.8753   -1453.6343     455.6931    323.04633   -261.50608      39457.2 
  237800    308.85679   -1496.4923    448.10305    339.94105   -148.17424      39457.2 
  237900    295.02719   -1478.0325    502.21696    350.34991     -173.059      39457.2 
  238000    303.04172    -1428.023    477.18768    411.35587   -415.58442      39457.2 
  238100    291.40826   -1426.0458    506.08781    389.94007   -348.08051      39457.2 
  238200    286.66145   -1507.3469    460.53364    241.74758   -73.512721      39457.2 
  238300    308.40097   -1492.7467    464.60307    358.13776      -160.87      39457.2 
  238400    300.08072   -1465.8738     471.7519    354.75942    263.13032      39457.2 
  238500    293.71547   -1486.0706    494.59436    328.79294    49.575768      39457.2 
  238600     309.7281   -1460.7083    486.01811    417.55673    738.71206      39457.2 
  238700    306.36651   -1478.2416    476.54349     375.4382    723.66138      39457.2 
  238800    299.80862   -1456.0458    489.23748    380.84989    268.24035      39457.2 
  238900    294.04143   -1452.5625    478.91829    348.09017   -269.95361      39457.2 
  239000     292.8044   -1466.0763    492.09976    342.19725    -128.3668      39457.2 
  239100    305.94052   -1452.1474    501.95079    425.02485    223.18613      39457.2 
  239200    287.38604   -1450.0321    473.21271    314.99856   -154.05796      39457.2 
  239300     303.6408   -1393.1257    511.18602    482.94437    401.44744      39457.2 
  239400    298.70909    -1470.113    471.62441    344.22717   -276.37659      39457.2 
  239500    296.10998   -1478.7269    487.54128      339.847    381.87967      39457.2 
  239600    293.44808   -1502.0531    472.43647    289.45058    36.870524      39457.2 
  239700    304.71548   -1532.6038    477.72806    314.83904    505.56965      39457.2 
  239800    305.16394   -1563.6063    476.97657     285.1009    237.81094      39457.2 
  239900    296.83953    -1486.549    497.08991    344.85281    50.734903      39457.2 
  240000    296.54751   -1467.7385    474.13608    339.39687    187.03089      39457.2 
  240100    308.55491   -1471.6275    495.35276    410.69861    537.87355      39457.2 
  240200     302.4107   -1525.3619    490.36053     324.3534   -351.38905      39457.2 
  240300    304.93609    -1499.474    497.37301     368.6055   -444.32013      39457.2 
  240400    297.98315     -1515.77     460.4817    284.16426    131.90535      39457.2 
  240500    301.72994   -1525.7778    479.34167    309.85853   -23.707231      39457.2 
  240600    304.54928   -1489.6115     515.5041    394.86039    31.159181      39457.2 
  240700    300.21589    -1514.674    452.99849    287.81342   -130.32893      39457.2 
  240800    304.74843   -1510.0028    504.27604    364.13615    -249.3285      39457.2 
  240900    303.13453   -1548.3244    484.37426    298.65822   -397.88402      39457.2 
  241000    305.38164   -1487.8163    464.95006    349.84307   -496.48598      39457.2 
  241100    302.98363   -1475.0245    498.94117    385.84673   -175.05077      39457.2 
  241200    292.44621   -1535.6663    449.19275    228.09012   -58.682777      39457.2 
  241300    296.44426   -1488.3638    506.21996    350.39129    211.03083      39457.2 
  241400    304.97553   -1517.1611      486.384    340.10663    342.72351      39457.2 
  241500    289.87835   -1524.0818     464.1761    243.11531    474.89043      39457.2 
  241600    311.87857    -1515.751    490.66125    376.82364    164.61103      39457.2 
  241700    303.30211   -1528.2663    451.11594    286.21134   -245.63029      39457.2 
  241800     298.7449   -1527.6995    487.82553     303.0027   -139.88715      39457.2 
  241900    293.52137    -1510.187    467.23533    276.44491   -257.05781      39457.2 
  242000    300.58006   -1508.3055    517.54346    360.36381   -83.525243      39457.2 
  242100    303.30448   -1503.5253    458.23915     318.0861   -529.57045      39457.2 
  242200    301.04579    -1517.534    488.10974    323.79514   -786.87693      39457.2 
  242300    299.83533   -1506.4192    453.23618     294.5952   -852.61039      39457.2 
  242400    303.06486   -1494.6682     467.4852    335.11222   -476.66743      39457.2 
  242500     306.9974   -1461.2877    482.85506    401.53955   -51.172045      39457.2 
  242600    291.71231   -1490.7465    474.83223    295.35051   -168.94276      39457.2 
  242700    299.31147   -1475.5249    491.76943    361.66805    372.43292      39457.2 
  242800    297.13611   -1480.9399    503.88824    358.59349    558.49373      39457.2 
  242900    295.59767   -1510.2055    481.30315     299.8274    700.60488      39457.2 
  243000    310.79544   -1515.4874    453.35305    334.91025    335.77881      39457.2 
  243100     298.3485   -1447.2358    483.20276    377.06178    491.77489      39457.2 
  243200    304.05189   -1471.8373    490.82273    385.71742   -31.243479      39457.2 
  243300    295.88474   -1479.5794     481.7849    332.22562    296.02862      39457.2 
  243400    300.65132   -1524.3536    489.46084    316.55339     328.2669      39457.2 
  243500    308.27462   -1498.3936    462.64033    349.96016    168.15698      39457.2 
  243600    295.30647    -1481.597    470.98836    316.81214    238.18062      39457.2 
  243700    313.67038    -1522.873    466.69894    353.79363    513.73516      39457.2 
  243800    311.28246   -1490.6439    496.30215    404.89203    55.143487      39457.2 
  243900    298.71394    -1514.971    511.95573    339.72224    142.34179      39457.2 
  244000    297.16384   -1496.8194    475.64405    314.59436   -19.950486      39457.2 
  244100    291.21526    -1485.673    485.67501    309.03254   -201.38556      39457.2 
  244200    294.03427   -1519.8609    492.63781    294.47906     602.8061      39457.2 
  244300    293.00132   -1534.3201    490.71628    273.45514    645.35777      39457.2 
  244400    290.35832   -1510.8268    499.87599    294.22774    296.14552      39457.2 
  244500    306.91582   -1492.9098    469.48388    356.17955    496.26607      39457.2 
  244600     306.4052   -1465.7087    486.79652     398.3981    653.55706      39457.2 
  244700    302.67637   -1461.5739    499.22823    398.20329    969.60789      39457.2 
  244800    299.05519   -1437.9744    510.63357     416.9307    816.05968      39457.2 
  244900    305.96705    -1478.373    478.39281    375.36055    378.54063      39457.2 
  245000    300.16573   -1481.0243    482.90532    351.14449    573.92038      39457.2 
  245100    288.45494   -1466.8225    521.92045    351.72071    39.817971      39457.2 
  245200    301.50724   -1497.5724    472.58143    330.30261   -136.30306      39457.2 
  245300    302.28105   -1488.9264    504.14747    373.99304    404.09957      39457.2 
  245400     310.9427   -1483.8978    503.01248     416.8213   -478.25697      39457.2 
  245500    297.22463   -1492.6825    493.03441    336.39489   -141.70189      39457.2 
  245600    300.33634   -1438.4904    502.46306    414.00301   -59.808451      39457.2 
  245700     296.6185   -1452.1982    541.68441     422.8046      539.769      39457.2 
  245800    301.31266   -1456.1297    497.73111    396.02034    627.52743      39457.2 
  245900    312.16251   -1420.9535    485.80373    468.03995    782.69649      39457.2 
  246000    308.73131   -1441.4102    513.83442     460.1905    818.49719      39457.2 
  246100    299.74134   -1437.6386    501.83613    411.55338    21.066197      39457.2 
  246200    292.72743   -1458.6234    479.01959    336.22398    477.22547      39457.2 
  246300    303.53472   -1483.6317    507.10336    387.87889    138.79427      39457.2 
  246400    305.85185   -1451.7718    456.87277    379.92387     60.78225      39457.2 
  246500    302.31589   -1489.7902    470.19691    339.33526   -481.55293      39457.2 
  246600    301.00755   -1458.2523     478.3553    373.15047   -95.594682      39457.2 
  246700    296.95278   -1487.9382    448.62591    295.50876    98.878451      39457.2 
  246800    294.71547   -1464.8994    464.21299    324.07776    49.438955      39457.2 
  246900    301.79004   -1419.2531    499.24789    436.55964   -277.00137      39457.2 
  247000    294.09967    -1465.506    488.91364    345.40378   -209.24776      39457.2 
  247100    292.15408   -1431.5153    460.83808    342.57339   -149.66159      39457.2 
  247200    303.41648   -1437.4946    484.46813    410.84925    -520.4652      39457.2 
  247300    304.75379   -1455.7245    492.73532    406.89783    94.872409      39457.2 
  247400    309.21833   -1491.3746    482.09016    380.67104    4.1291576      39457.2 
  247500    303.94455    -1484.938    480.65014    361.96166   -6.3600213      39457.2 
  247600    300.67389    -1478.265    492.25526    365.53789   -14.373616      39457.2 
  247700    303.03843   -1500.5325    477.46032    339.10424   -484.68989      39457.2 
  247800      310.855   -1466.5161    496.60208    427.39838   -48.144941      39457.2 
  247900    306.26337   -1465.3541    479.56205    390.88063    -171.3204      39457.2 
  248000    298.48136   -1457.4084    501.81553    386.09922   -530.93206      39457.2 
  248100    305.60549   -1412.4521    506.07172    467.33515   -190.39903      39457.2 
  248200    291.78175    -1436.575    511.75237    386.75429    126.95529      39457.2 
  248300    300.17041   -1454.3204    492.23121    387.19529    156.73157      39457.2 
  248400    291.97632   -1413.7294    487.65354    386.37568     321.6741      39457.2 
  248500    305.03529   -1431.2497    504.92445    444.82713    148.89676      39457.2 
  248600    302.22402   -1383.6416    508.21441    483.08837    503.75002      39457.2 
  248700    295.71767   -1424.9409    492.78033    397.10854    311.47049      39457.2 
  248800        299.7   -1455.5547    495.35388    386.96916    23.410416      39457.2 
  248900    302.25065   -1457.1315    497.07983    398.58363    351.43765      39457.2 
  249000    296.87565   -1382.7191    514.82388    466.57904    128.69688      39457.2 
  249100    310.12845   -1467.5486    506.27021    432.76812     330.7414      39457.2 
  249200    298.74783   -1475.2724    487.79071    355.40824   -84.342815      39457.2 
  249300    307.29431   -1492.7142     492.4547    381.04729    95.326646      39457.2 
  249400    303.71055   -1468.0736    478.45338    375.57742   -86.049261      39457.2 
  249500    297.63218   -1513.6631    474.35608    298.56792    76.554094      39457.2 
  249600    289.68243   -1458.3536    478.31793    322.10472   -358.24096      39457.2 
  249700    297.74526   -1470.8414    474.61093    342.15283   -512.23663      39457.2 
  249800    308.40752   -1508.7294    503.70627    381.28765   -1014.4531      39457.2 
  249900      298.054    -1481.228    468.33978    326.88279   -439.17368      39457.2 
  250000    292.38389   -1460.5432    475.78269    329.52307   -967.05301      39457.2 
  250100    303.35674   -1493.9693    505.11015    374.74808   -1278.8453      39457.2 
  250200    300.50769   -1474.6377    487.81246     363.9753   -459.60916      39457.2 
  250300    297.98015   -1481.4538    505.16398    363.14927   -703.41858      39457.2 
  250400    298.00864   -1505.3107      509.666    343.92248   -878.48837      39457.2 
  250500    301.10756     -1443.34    494.70413    404.86114   -85.522566      39457.2 
  250600     303.2848   -1503.5713    483.25803    342.97057   -373.60634      39457.2 
  250700    300.10454   -1461.2001    479.23201    367.02027    174.65556      39457.2 
  250800    306.83553   -1443.2123    481.02736     417.0596   -261.36751      39457.2 
  250900    290.45232   -1481.0981    489.55311    314.05606    236.90403      39457.2 
  251000    303.60359   -1511.4181    480.29816    333.59688    717.37446      39457.2 
  251100    303.14712   -1493.0784    498.78014    368.36668   -60.092072      39457.2 
  251200    292.26055   -1492.5297    473.87306    295.07248    380.78262      39457.2 
  251300    301.02134   -1529.2232    488.77472    312.66099    562.39344      39457.2 
  251400    300.38626   -1531.0962    490.43224    309.59076    585.47287      39457.2 
  251500    300.40284   -1543.3005    488.86697    295.89577   -171.15119      39457.2 
  251600      289.184   -1528.2431    499.45022    271.10704    369.48435      39457.2 
  251700     316.3697   -1513.3579    452.40263    361.14597    29.150297      39457.2 
  251800    302.53405   -1528.5867    460.98034    292.30281   -175.70709      39457.2 
  251900    308.90326   -1577.7727     457.8694    268.63591    -306.8516      39457.2 
  252000    304.16332   -1562.8777    449.36991    253.72509   -251.73906      39457.2 
  252100     292.7711   -1541.5751    479.26727    253.71631    561.39448      39457.2 
  252200    292.97062   -1550.1038    504.10476    270.92193    240.34993      39457.2 
  252300    308.62717   -1546.5017    483.14491    323.94135    822.90607      39457.2 
  252400    297.86462   -1532.2322    476.88084    283.56844    213.70302      39457.2 
  252500    306.33541   -1515.9827    476.17762    337.19143    90.574863      39457.2 
  252600    301.64226    -1522.651    470.83326    304.08281    29.010955      39457.2 
  252700    289.88212   -1513.6898    463.08818    252.43637   -22.827126      39457.2 
  252800    301.47988   -1486.4307    483.33566    352.07555    275.26445      39457.2 
  252900    300.57931   -1526.0299    489.37478    314.46736   -195.47417      39457.2 
  253000    299.63832   -1505.1172    473.29743    315.07299    31.688845      39457.2 
  253100    301.00135   -1540.5661    497.29648    309.74999   -521.79416      39457.2 
  253200    290.34703    -1550.001    473.90463    229.03139   -248.81222      39457.2 
  253300    306.63356   -1525.6657    472.64952    325.32053    385.91465      39457.2 
  253400    299.60613   -1545.8582    503.40155    304.29137    122.79616      39457.2 
  253500    298.95661   -1543.9088    486.95196    286.87153    42.494075      39457.2 
  253600    299.53503   -1537.0967    462.89786    272.22954  -0.58969984      39457.2 
  253700     299.2523    -1547.821    468.31338    265.64993    124.55814      39457.2 
  253800    295.37539   -1511.6274    491.11704    307.22021   -4.3825571      39457.2 
  253900    295.76096   -1506.1243    469.66153    293.00095   -6.6331508      39457.2 
  254000    298.47705    -1514.048    486.85594    314.48068    283.55202      39457.2 
  254100    293.30378   -1504.6553    496.84767    310.61087    582.87494      39457.2 
  254200    306.40802   -1516.3416    490.56533    351.54663    690.79553      39457.2 
  254300    301.32241   -1502.6632    462.41896     314.2185    124.85474      39457.2 
  254400    300.11134   -1510.6173    454.63658    293.03828    28.584316      39457.2 
  254500    304.92482   -1491.7686    490.70966    369.59693    263.70776      39457.2 
  254600    303.26607   -1457.9924    464.19624    369.40355    463.81549      39457.2 
  254700    300.16766   -1436.5723    521.74578    434.44556   -39.555553      39457.2 
  254800    306.04083   -1457.8341    487.92018    405.75844   -553.63362      39457.2 
  254900    308.01379   -1450.0164    474.30045    408.82498   -218.07426      39457.2 
  255000    313.83017   -1457.2127    511.26976    464.74294   -218.73181      39457.2 
  255100     291.7358   -1454.6705    488.12817    344.82803   -287.19998      39457.2 
  255200    291.06779   -1465.9994    492.00856    334.37678    119.98778      39457.2 
  255300    309.86258   -1483.3352    492.12141    401.63756    166.20707      39457.2 
  255400    286.42565    -1442.914    460.97412    305.56103    521.47372      39457.2 
  255500    294.78405   -1453.9001    528.68103    399.85339    513.31396      39457.2 
  255600    298.89266   -1463.8689    480.46994    360.14188    375.85187      39457.2 
  255700    301.39305   -1472.8036    488.84449    370.82118    23.050085      39457.2 
  255800    296.30938   -1446.8859    485.77889    370.82186   -468.93317      39457.2 
  255900    307.50977   -1426.0518    483.61059    439.83412   -519.52986      39457.2 
  256000    292.91456   -1424.4185    492.36781    384.61832   -434.41198      39457.2 
  256100    301.07406   -1446.2161    464.60639    371.73671    186.46151      39457.2 
  256200    309.25767   -1483.4098    471.12401    377.84651   -584.75255      39457.2 
  256300    299.92397   -1454.9965     483.0778    376.25798   -292.27214      39457.2 
  256400     305.8179   -1508.8225    468.60528    334.45304    490.07872      39457.2 
  256500    295.30962    -1494.008    486.20072    319.62768    186.29806      39457.2 
  256600    302.84609   -1493.0151    478.76256    347.05922     301.4065      39457.2 
  256700    300.19074   -1477.3803    482.68152    354.67708    120.20439      39457.2 
  256800      292.776   -1469.6503    471.94669    318.34257    71.616216      39457.2 
  256900    299.86261   -1467.3568    483.58975    364.13382    577.84869      39457.2 
  257000    307.16334   -1437.0215    483.81007    427.50663    352.67327      39457.2 
  257100    292.20693   -1468.3912    480.32511    325.42202    51.126149      39457.2 
  257200    302.34369   -1490.1147    469.28221    338.22103    510.26552      39457.2 
  257300    293.06062   -1465.2238    470.97871    323.08041     214.2206      39457.2 
  257400    289.95443   -1476.8127    466.61326    293.16359    17.975081      39457.2 
  257500    301.93597    -1464.148    522.74013    415.81288    77.593142      39457.2 
  257600    295.27486   -1459.5966    469.70834    337.39044   -280.09855      39457.2 
  257700    303.02155   -1435.4047    484.75226    411.44808    37.566763      39457.2 
  257800    318.55464     -1439.14    480.74841    473.53112   -57.734076      39457.2 
  257900    299.88709   -1449.8992    474.41273     372.5245    10.620088      39457.2 
  258000    289.89849   -1492.7603     495.3869    305.73815   -35.342948      39457.2 
  258100    301.33087   -1467.0586    490.70819    378.15041    93.838348      39457.2 
  258200    303.13814   -1476.8356    474.31908    360.10813   -402.62495      39457.2 
  258300    302.02733   -1466.1317     467.0135    358.51318   -132.71376      39457.2 
  258400    307.26581    -1422.806    475.07772    433.45049   -406.08706      39457.2 
  258500    305.41912   -1469.3832    473.60421    377.09878   -102.94667      39457.2 
  258600    309.81755   -1453.9177     473.1634    411.89462   -269.62527      39457.2 
  258700    307.67922   -1473.3563    439.91236    349.59311    221.15295      39457.2 
  258800     313.5048   -1515.5526    467.93797    361.60875    153.22254      39457.2 
  258900    295.92292    -1528.313     465.2549     267.1337    196.44141      39457.2 
  259000    303.53784   -1536.0955    472.74573    301.07156    90.100737      39457.2 
  259100    304.47003   -1486.0613    474.63591    357.18614    577.00819      39457.2 
  259200    299.33498   -1495.3211    474.33856    324.54664    686.01079      39457.2 
  259300    301.28133   -1482.4525    482.08373    353.90936    450.77861      39457.2 
  259400    292.37181   -1483.6607    479.85553    310.42415   -53.877621      39457.2 
  259500    302.04713   -1440.1373    502.62238    420.20551   -74.746911      39457.2 
  259600    295.42361   -1455.6144    467.76719    340.10011   -975.93334      39457.2 
  259700    304.88556   -1512.5653    452.87195    310.78596    -578.6202      39457.2 
  259800    311.34932   -1486.4536    432.99036    346.07115   -394.44259      39457.2 
  259900    313.17283   -1476.6636    463.12714    394.19475   -503.72636      39457.2 
  260000    309.20544   -1440.7666    473.10966    422.24051    46.076139      39457.2 
  260100     295.2486   -1503.2414    469.87418    293.79339    39.796647      39457.2 
  260200    305.56496   -1503.4556    446.08633    316.16407    146.24079      39457.2 
  260300    303.81764   -1501.5862    475.38597    339.47881    1316.5625      39457.2 
  260400    300.14913   -1477.1363    481.29313    353.34565    297.40188      39457.2 
  260500     300.4593   -1468.1207    468.32982    350.79211    67.038954      39457.2 
  260600    298.74915   -1452.2612    487.75269    378.38731    -101.6236      39457.2 
  260700     300.5703   -1482.9704    465.60742    333.71897    -280.3491      39457.2 
  260800    301.87143   -1490.1487    478.84697    345.62891   -84.772246      39457.2 
  260900    293.66453   -1504.6706    477.30218    292.67174   -113.61601      39457.2 
  261000    289.90761   -1493.2699    486.99186    296.87453    250.27225      39457.2 
  261100    295.64597    -1495.016    463.52767    297.45848   -41.536578      39457.2 
  261200    299.75051   -1496.8444    447.59489    298.14748    170.08994      39457.2 
  261300    301.60366   -1511.9113    482.74409    326.55986    89.551756      39457.2 
  261400    291.86548   -1502.2151    469.56082    279.29901    198.98858      39457.2 
  261500    289.16856   -1527.0612     461.8316    234.60087     71.41224      39457.2 
  261600    293.51394   -1519.9257    477.96855    277.40606    335.97741      39457.2 
  261700    296.69098   -1488.3063    487.34198    332.67989    212.48371      39457.2 
  261800    292.93152   -1458.9021    488.70442    346.54755   -286.47266      39457.2 
  261900    297.87567    -1448.995     479.2249    369.19937   -170.10828      39457.2 
  262000    300.34158   -1432.7776    480.27937    397.55564   -426.70552      39457.2 
  262100    303.23802   -1413.8249    496.11571    445.36442    -547.6324      39457.2 
  262200    306.07087   -1438.5869    460.08531    397.30579   -66.066651      39457.2 
  262300    305.02792   -1423.0365     494.6542    442.73694    11.728811      39457.2 
  262400     300.5312   -1470.4595    483.81915    364.26595     28.97896      39457.2 
  262500     298.4797   -1466.8507    476.83145    351.66534     150.8879      39457.2 
  262600    302.73109   -1455.7961    502.17836    407.17715    328.74785      39457.2 
  262700    291.77619   -1416.7938    452.80319    347.56139   -365.79651      39457.2 
  262800    304.39721   -1422.4677    485.45113    431.26766    12.239172      39457.2 
  262900    306.79662   -1432.5832    483.40812    429.89465   -267.38373      39457.2 
  263000    304.25824   -1419.7163    461.83263    409.77584   -409.91673      39457.2 
  263100    296.11903   -1453.7989    484.78589    362.06025   -547.34028      39457.2 
  263200    304.54718    -1439.536    473.76629    403.18866   -617.71091      39457.2 
  263300    298.58522   -1418.2028    474.56347    398.51957   -816.61642      39457.2 
  263400    310.05387   -1435.4746    480.53532    438.77188   -1242.5544      39457.2 
  263500    306.89372   -1433.6816    483.73814    429.56266   -477.54759      39457.2 
  263600     297.5545   -1477.7866    483.31887     343.0581   -306.71942      39457.2 
  263700    290.03092   -1465.1945    470.41698    308.92933   -214.46778      39457.2 
  263800    304.02832   -1454.2617    476.35459    388.71894    178.71669      39457.2 
  263900    289.30373   -1469.5042    470.32949    301.26334   -259.41559      39457.2 
  264000    301.30287   -1463.3299    491.04352    382.08858    197.76095      39457.2 
  264100    300.63535   -1469.6144    486.66047    368.42046    24.295027      39457.2 
  264200    301.24306   -1462.2706    480.27775    372.11323   -292.48497      39457.2 
  264300    299.14894   -1495.2994    462.65732    312.05087   -681.07711      39457.2 
  264400    308.23801   -1507.1608    467.01531    345.40335   -322.01634      39457.2 
  264500    298.01976   -1472.5742    502.31075    369.35374   -107.04502      39457.2 
  264600    298.76565   -1431.1552    489.31772    401.13247   -118.28711      39457.2 
  264700    298.54904   -1454.6442    471.93355    359.28563    601.44536      39457.2 
  264800    291.92249   -1507.5612    477.97412    282.62249    267.85666      39457.2 
  264900    301.72321   -1463.3031    491.44493    384.40625    615.71652      39457.2 
  265000    298.03471   -1458.2363    484.77641    366.22448   -94.464398      39457.2 
  265100    301.65598   -1465.1482    458.08596    348.89993   -252.89066      39457.2 
  265200    292.92291   -1471.8665    479.93358    324.77361    235.67311      39457.2 
  265300    309.39178   -1400.8619    508.56784    498.44107   -188.30119      39457.2 
  265400    297.26409   -1440.1693    488.37376    384.42482     128.5876      39457.2 
  265500    293.25182   -1468.8641    471.11025    320.43111   -84.827269      39457.2 
  265600    303.65466   -1472.7481    465.75952    357.95781   -190.55641      39457.2 
  265700    293.97038   -1465.9315    493.67647    349.15993    51.775291      39457.2 
  265800    294.38644     -1511.79    469.80686    281.30206    538.60106      39457.2 
  265900    296.72791   -1462.2973     463.6272    335.14008    490.29543      39457.2 
  266000    301.43221    -1433.991    475.92929    396.89463   -120.30058      39457.2 
  266100    299.62718   -1463.5658    479.95447    363.23123    242.18268      39457.2 
  266200    306.64785   -1447.7257    488.97826    419.65352   -117.97431      39457.2 
  266300    303.03391   -1453.8682    461.34606    369.63391   -348.28652      39457.2 
  266400    304.33147   -1460.1759    470.20318    378.01594    111.29738      39457.2 
  266500    298.48737   -1484.5692    464.82282    321.97266   -265.83524      39457.2 
  266600    306.98806   -1466.2543    451.06987    364.74584    39.909029      39457.2 
  266700    301.12078   -1496.4367    434.49657    291.61633     306.0062      39457.2 
  266800    290.44507   -1512.2879     439.3382    232.61881    86.183666      39457.2 
  266900    306.66032   -1490.2184    461.73665    349.97525    272.97897      39457.2 
  267000    300.20601   -1511.5294    479.72097    317.63604    65.528849      39457.2 
  267100     305.2803   -1479.9303    483.50874    375.83216    181.53984      39457.2 
  267200    291.95943   -1497.9064    459.16431    273.63349    -337.0419      39457.2 
  267300     297.4197   -1444.8804    465.98644    358.02588   -94.278664      39457.2 
  267400    301.75641   -1464.6805    485.69073    377.42386    230.43102      39457.2 
  267500    302.65826   -1467.6156    473.85823    366.71014    452.07834      39457.2 
  267600    303.10843   -1463.8553    495.64828    394.28403    961.31432      39457.2 
  267700    292.37655   -1447.7881    479.80067    346.26311    -51.58828      39457.2 
  267800    307.76439   -1460.9132    458.14843    380.65514   -230.22575      39457.2 
  267900    293.75599   -1438.5924    492.39413    374.25295   -810.75652      39457.2 
  268000    308.43402   -1462.6637     478.7535    402.51971   -443.03566      39457.2 
  268100    292.69137   -1499.3001    453.82326    270.18886    273.09733      39457.2 
  268200    292.53399   -1477.1231    474.58781    312.42303   -665.26582      39457.2 
  268300    298.10061    -1436.346    500.26528    403.89986   -194.45169      39457.2 
  268400    285.70264   -1457.9984    474.76462    301.01722   -340.18755      39457.2 
  268500    297.29401   -1501.6265    462.15437    296.88276   -348.56008      39457.2 
  268600    301.37112   -1469.7162    455.90637    340.87195   -795.29901      39457.2 
  268700    303.55268   -1422.2353    499.37898    441.63167   -260.89635      39457.2 
  268800    305.46971   -1414.0472     494.6157    453.67364    190.60801      39457.2 
  268900     302.0009   -1462.6841    491.48203    386.31053    8.2560551      39457.2 
  269000    297.97816   -1437.1984    493.10211    395.33392     234.5432      39457.2 
  269100    292.38933   -1442.2323    478.32434    350.40003    110.25556      39457.2 
  269200    298.57366   -1429.6267    500.73307    413.21333    221.93139      39457.2 
  269300    293.47135    -1445.936    459.54946    332.78523   -264.88269      39457.2 
  269400    299.90106   -1412.4209    488.99603    424.64886    5.7583817      39457.2 
  269500    296.02853   -1442.4883    459.30309    347.48124   -51.647279      39457.2 
  269600    313.00199   -1449.4719    473.73754    431.22885    -457.0418      39457.2 
  269700    303.54788   -1455.2341     462.2616    371.49386   -457.27086      39457.2 
  269800    305.34486   -1443.2937    484.63811    413.88831   -83.212366      39457.2 
  269900    292.66285   -1417.2368    456.84262    355.14335    431.23146      39457.2 
  270000    293.67744   -1469.9926    483.38986    333.49538    341.54958      39457.2 
  270100    309.97223   -1469.4721    468.59468    392.46686    313.39976      39457.2 
  270200    294.62332   -1476.3177    479.48453     327.5168    307.26451      39457.2 
  270300    299.47031   -1437.5714    483.43884    392.00488    444.25647      39457.2 
  270400    306.18235   -1439.5655    481.83779     418.5808     484.4014      39457.2 
  270500     313.2988   -1413.0875    457.81267    453.02252    456.33667      39457.2 
  270600    295.81936   -1418.6986    474.80983     385.8375   -498.19149      39457.2 
  270700    306.38603   -1401.9732    482.55817    457.80899    -437.8645      39457.2 
  270800    295.92745   -1437.8121    459.95174    352.35174   -409.31228      39457.2 
  270900    292.99975   -1469.0966     482.7056     330.6609   -421.53631      39457.2 
  271000    298.00597   -1499.2566    449.84491    290.14348   -148.47818      39457.2 
  271100     297.7648   -1507.2869     452.2829    283.46711   -387.37871      39457.2 
  271200    301.69834   -1502.3778    453.47458    307.24938   -299.63843      39457.2 
  271300    297.36351   -1456.8576    464.12325    343.93292   -74.312289      39457.2 
  271400    306.16675   -1475.0546    458.38795    359.57176    143.69391      39457.2 
  271500    286.92749   -1473.1977    441.32856    257.88755     109.9552      39457.2 
  271600    305.68892   -1410.6218    494.01906    457.48782    105.68307      39457.2 
  271700    301.44653    -1448.586    462.72202    369.15669   -595.10472      39457.2 
  271800    298.42143   -1448.5256    460.12283    353.01993     -194.633      39457.2 
  271900    294.65342   -1457.1531    464.81366    332.14581   -525.71127      39457.2 
  272000    296.59258   -1451.1004    466.80733    348.90884   -745.05484      39457.2 
  272100    287.10208    -1429.403    474.97337    336.11189   -350.66578      39457.2 
  272200    301.85621   -1432.5031    488.10957     412.4687   -6.9123722      39457.2 
  272300    299.75047   -1439.4565    475.27154    383.21187     549.0237      39457.2 
  272400    300.63761   -1481.0036    470.05845     340.4394    254.27649      39457.2 
  272500    288.42861   -1479.5686    448.57494     265.5107    323.23533      39457.2 
  272600     307.8658   -1464.4702    466.33117    385.73671    569.93233      39457.2 
  272700     291.7677    -1445.286    474.59421      340.822   -199.44665      39457.2 
  272800    299.60347   -1479.7365    466.67619    333.67576    -195.3083      39457.2 
  272900    300.90546   -1478.9369     476.0119    349.66358   -84.766746      39457.2 
  273000    298.74172   -1465.8682    459.57012    336.56431    425.41054      39457.2 
  273100     306.2602   -1455.2774    475.88838    397.26939    807.00264      39457.2 
  273200    309.35312   -1427.3087    489.55206    452.80473    574.00176      39457.2 
  273300    294.57715   -1446.1507    487.95403     365.9457   -566.33736      39457.2 
  273400     307.6921   -1476.0673    451.71616    358.74373   -209.45535      39457.2 
  273500    304.32083   -1493.5025    451.09085    325.52917    56.194309      39457.2 
  273600    293.50265   -1482.6826    471.98023    308.61008   -279.86641      39457.2 
  273700    299.27309   -1466.5894    467.15171    345.81328    273.23616      39457.2 
  273800    300.82083   -1470.6137    486.29254    367.88699    145.33966      39457.2 
  273900    303.78747   -1488.3565    464.03628    341.22316    755.17105      39457.2 
  274000    288.79382   -1465.3225    475.71068    308.53415    51.841578      39457.2 
  274100    299.02923   -1450.5908    489.05663    382.62058    758.44096      39457.2 
  274200    303.73161   -1443.7707    462.11646    383.63806    411.29364      39457.2 
  274300    300.57147   -1430.0777    468.42178    389.43138    240.54227      39457.2 
  274400    304.99816   -1455.6887    461.04323    376.34001    -354.6211      39457.2 
  274500    303.28478   -1458.2696    456.43511    361.44921    144.81867      39457.2 
  274600    296.11172   -1464.0107    462.42289    329.45262     185.6027      39457.2 
  274700    303.70189   -1466.2925    458.36276    357.22897    658.79361      39457.2 
  274800    306.30865    -1465.919    489.53751    400.49478    252.81821      39457.2 
  274900    291.83305   -1433.4629    468.08831    346.43295    378.43148      39457.2 
  275000     305.6767    -1437.882    464.41239    400.56596    85.397143      39457.2 
  275100    310.80993   -1450.7327    510.22694    456.60398    57.034441      39457.2 
  275200    300.15459   -1488.4963    443.11033    303.82733    175.48855      39457.2 
  275300    304.11397    -1501.018     481.1397    347.13267   -394.50819      39457.2 
  275400    289.51149   -1474.4626    461.20654     288.1159    158.31036      39457.2 
  275500    291.92263   -1509.6426    473.88007    276.44767    407.30293      39457.2 
  275600     297.4578   -1504.2652    467.06599     299.8919    138.01197      39457.2 
  275700    304.73431   -1519.8779    478.00251    327.92403    438.99445      39457.2 
  275800    293.03085   -1506.4132    484.53427    295.31279    264.08401      39457.2 
  275900    306.55361   -1475.0026    461.18609    364.16086    129.74484      39457.2 
  276000    297.50489   -1488.7411    469.94696    318.50862    226.11823      39457.2 
  276100    297.26432   -1470.3491    467.71734    333.58968   -41.148358      39457.2 
  276200    300.99277   -1482.5518    475.78963    346.21884   -18.853529      39457.2 
  276300    295.28148   -1451.5324    475.34948    351.12548   -419.21873      39457.2 
  276400    310.58217   -1458.4339    462.42693    400.07897   -211.87772      39457.2 
  276500    300.97157   -1411.2732    477.31784    418.93041   -82.035616      39457.2 
  276600    288.75086   -1470.3071     476.5954    304.24118    -540.4521      39457.2 
  276700    306.15869   -1471.0604     470.6289    375.77063    255.43187      39457.2 
  276800    304.88742   -1506.4013    472.45059    336.53705   -377.85784      39457.2 
  276900    305.49838   -1454.8527    486.80767    405.18896   -571.87036      39457.2 
  277000    291.30083   -1488.2357    468.35601    289.53545   -980.43392      39457.2 
  277100    294.66783   -1487.6145    474.65921    311.59473   -344.90585      39457.2 
  277200    300.57495   -1462.3101    472.57998    361.37278     7.716762      39457.2 
  277300    305.97076   -1455.1121    458.72788    378.97314   -453.15987      39457.2 
  277400    309.71713   -1469.1892    449.53142    372.53975   -277.82852      39457.2 
  277500    299.00736   -1419.6655    476.79114    401.18207   -227.37883      39457.2 
  277600    303.02062   -1441.1808    456.36279    377.27832   -410.25723      39457.2 
  277700    288.65379   -1476.1548    450.22433    271.58611   -309.29013      39457.2 
  277800    301.55179   -1460.2081    508.71584    404.00156   -617.06075      39457.2 
  277900    290.40319   -1446.4785    468.49592    327.39765    434.84073      39457.2 
  278000    296.70585   -1468.3352    477.11101    342.48688    236.66342      39457.2 
  278100    301.07716   -1499.4728    454.10979    307.99729    68.176123      39457.2 
  278200     307.9088   -1512.4241    462.72805    334.37296    450.03136      39457.2 
  278300    300.05389   -1464.0345     478.6177    363.34386    235.05721      39457.2 
  278400    297.68562   -1468.6562    479.26196    348.72097   -123.19975      39457.2 
  278500    308.14546   -1444.9796    462.84329    402.99646     102.4149      39457.2 
  278600    303.51587   -1447.5615    467.57362    384.33464   -66.579906      39457.2 
  278700    293.66584   -1435.7711    471.29585    355.57074    342.70832      39457.2 
  278800    305.34602   -1438.4826    474.49014    408.55672    305.19467      39457.2 
  278900    291.89004   -1387.3214    491.83656    416.57887   -134.30071      39457.2 
  279000    305.71064    -1406.844     482.3745     449.7187    114.95051      39457.2 
  279100    287.28328   -1421.8154    463.54931    333.08998   -145.24921      39457.2 
  279200    293.54931   -1425.8747    479.82676    373.47424    342.24148      39457.2 
  279300    304.36912   -1416.8668    462.69335    413.98445   -406.84836      39457.2 
  279400    300.46274   -1411.4319    507.57948    446.74609   -457.35764      39457.2 
  279500        291.7   -1480.3496    472.63352    303.49332   -357.62586      39457.2 
  279600    295.62844   -1444.7396    497.00958    381.13801   -580.47723      39457.2 
  279700    303.46788   -1420.2996     475.6327    419.43996   -382.06077      39457.2 
  279800    292.99032   -1454.2483    479.30302    342.06425   -442.36874      39457.2 
  279900    306.88616   -1459.1272     463.4389    383.78387   -363.11359      39457.2 
  280000    303.96956   -1450.0272    487.43015    403.76485   -422.50044      39457.2 
  280100    301.02579   -1434.1934    482.89258    401.82861   -722.46028      39457.2 
  280200     295.4613   -1463.0701     472.2638    337.31037   -780.57956      39457.2 
  280300     310.9108   -1430.5012    453.37331     420.4353   -266.08592      39457.2 
  280400    306.10204   -1451.3989    476.92212     401.4707   -122.04665      39457.2 
  280500    309.19944   -1422.4459    445.92121     413.3458   -539.97645      39457.2 
  280600    288.52572   -1418.1243    474.18044    352.99698    -442.5559      39457.2 
  280700    290.98119   -1425.2832    443.18834     325.8835    -495.1571      39457.2 
  280800    307.38393   -1436.5179    454.85883    400.05059   -338.32949      39457.2 
  280900    296.40071    -1452.573    467.34047    347.10688   -187.06394      39457.2 
  281000    300.00868   -1465.0077    471.62985    355.17959    92.010068      39457.2 
  281100    305.97653   -1428.9296    457.73662    404.19037   -338.45472      39457.2 
  281200    302.94191   -1450.7865    469.18433    380.14035   -312.36086      39457.2 
  281300    303.91369   -1432.9015    462.97613    396.18537    259.90744      39457.2 
  281400    306.72769   -1457.3257    464.27867    385.71287    336.13441      39457.2 
  281500    297.70734   -1448.6798    448.56092    338.09393    514.04551      39457.2 
  281600    295.36234   -1449.3385    471.53519    349.86858    205.20918      39457.2 
  281700    303.09995   -1453.2602    463.90147    373.09414     421.3928      39457.2 
  281800    309.10938   -1425.4731    498.38185    462.37438    209.10372      39457.2 
  281900    298.20574   -1436.7185    454.33291    358.06761    185.63195      39457.2 
  282000    295.89112   -1466.3927    442.07638    305.73253    -61.17819      39457.2 
  282100    309.85409   -1443.5139    465.05613     414.3555    398.88193      39457.2 
  282200    300.10323      -1451.6    464.20971    361.59222    191.25107      39457.2 
  282300    293.11791   -1460.4428    458.42846    315.56872     489.5026      39457.2 
  282400    302.61956    -1424.506    470.29476    406.08232     687.4265      39457.2 
  282500    291.06357   -1434.2349    483.07219    357.18596    930.73737      39457.2 
  282600    288.03825   -1469.0863    455.54463    281.20798    223.32109      39457.2 
  282700    292.12318   -1521.0793    463.61442    255.64682    50.649948      39457.2 
  282800    301.06819   -1462.4714    476.06289    366.91158   -201.85069      39457.2 
  282900    295.50034   -1482.0076    438.33036    284.61497    216.40155      39457.2 
  283000    308.51262   -1439.0395    456.34573     404.0894   -489.30514      39457.2 
  283100    291.46104   -1463.1917    456.05715    303.00076   -600.79269      39457.2 
  283200    302.31423   -1459.6377    449.25641    348.53982   -64.869362      39457.2 
  283300    300.77852   -1453.5199     455.7595    354.25762    147.52754      39457.2 
  283400    306.84232   -1481.7857    465.15521    362.64462   -197.37816      39457.2 
  283500    305.60691    -1443.672    427.93759    357.98745   -17.176953      39457.2 
  283600    298.88138   -1424.9438    465.99068    384.53702     -242.445      39457.2 
  283700    297.64114   -1435.8237    466.36355    368.45508   -374.58416      39457.2 
  283800    298.82687   -1465.9901    470.05585    347.31089    115.99839      39457.2 
  283900    302.53134   -1470.1049    444.61806    334.41012    266.32446      39457.2 
  284000    293.29874   -1449.6582    477.46613    346.20387    299.15287      39457.2 
  284100     302.2931   -1481.9821    445.28946    322.13343    275.46189      39457.2 
  284200    294.10271   -1472.9539    462.47296    311.52885    407.64038      39457.2 
  284300    307.51214   -1465.0215    447.06189    364.32638   -148.41079      39457.2 
  284400    302.47557    -1471.115    429.19554    317.72683   -99.309018      39457.2 
  284500    304.31022   -1451.8676    447.41746    363.44305   -282.59243      39457.2 
  284600    298.33613   -1442.9947    446.56242    344.60698    76.498057      39457.2 
  284700    303.36753    -1420.913    466.01213     408.7549   -285.91821      39457.2 
  284800    310.36102   -1423.1806    459.50279    431.41408   -126.30884      39457.2 
  284900    293.06643    -1430.534    466.76375    353.58143   -81.222912      39457.2 
  285000    302.60022    -1396.586    469.46595    433.08657   -450.53681      39457.2 
  285100    304.54753   -1432.8389    465.26892    401.38993   -194.64172      39457.2 
  285200    283.44116    -1438.455    498.09796    333.72841   -243.44178      39457.2 
  285300    301.42135    -1432.971    471.54603     393.4825    187.30709      39457.2 
  285400    304.19859   -1454.6765    459.31198    372.02683    65.125417      39457.2 
  285500     294.8481   -1463.8196    443.05475    304.59549   -724.57932      39457.2 
  285600    295.23814   -1383.7313     482.1198     425.5021    -260.7078      39457.2 
  285700    294.42075   -1422.4094    496.78415    397.81416   -391.83918      39457.2 
  285800    296.19649    -1401.557    499.62954    429.49396    74.626414      39457.2 
  285900    306.92353   -1391.8271    482.53012    470.34318    356.37565      39457.2 
  286000    298.40746   -1411.7639    472.27992    401.87596    808.77999      39457.2 
  286100    297.71329   -1432.2629    471.48207    377.45878    306.42183      39457.2 
  286200    306.74983    -1441.032    484.35303    422.18043    422.87217      39457.2 
  286300     303.8465   -1434.8524    476.81248    407.76885    495.37932      39457.2 
  286400    296.87196   -1431.6076    466.21307     369.0632    202.95127      39457.2 
  286500    302.18366   -1451.4009    489.92077    396.85403    147.29977      39457.2 
  286600    305.34344   -1455.8354    441.51154    358.21367    221.30304      39457.2 
  286700     302.5602   -1417.8242    486.94866    429.15123    77.609811      39457.2 
  286800    286.08849   -1429.0899    468.32747    325.22296   -332.02176      39457.2 
  286900      297.069   -1391.3111    465.55174     409.5841   -461.84424      39457.2 
  287000     314.6743   -1399.0719    456.34555    471.75395    219.14783      39457.2 
  287100    305.61421   -1418.6005    458.35552    413.50968    178.49263      39457.2 
  287200     307.3877   -1442.0988    473.36881    412.99664    132.01808      39457.2 
  287300    303.76872   -1486.1378    457.90535    337.22661    539.97891      39457.2 
  287400    303.86131   -1453.6945    473.04235    385.22316    292.51062      39457.2 
  287500    304.67991   -1440.9944    484.65691    413.21751    697.72795      39457.2 
  287600    287.68319   -1457.8211    476.97865    312.31121    302.71742      39457.2 
  287700    290.57676   -1447.8473     481.7717     340.0848    900.35086      39457.2 
  287800    298.01563   -1484.4795    437.89333    293.01245     79.62659      39457.2 
  287900    310.40592   -1499.9695    464.89428    360.21845    273.84393      39457.2 
  288000    299.28869   -1522.8943    452.51055    274.93733   -94.963954      39457.2 
  288100    312.18515   -1471.9765      457.798    389.11298   -664.91586      39457.2 
  288200    306.42982     -1471.55     488.1918    394.06271    -261.2977      39457.2 
  288300    308.51818   -1469.1845    445.73264    363.35631    180.52288      39457.2 
  288400    290.18445   -1451.6876    463.74708    316.45641    547.56127      39457.2 
  288500    288.74425   -1499.4525    482.28662    280.75733    1087.6592      39457.2 
  288600    303.29056   -1487.9103    460.96413    336.36353    605.73361      39457.2 
  288700    296.29237    -1478.051    475.27342    329.07486    850.42432      39457.2 
  288800    302.04595   -1481.5795    470.50414    346.63977    703.84454      39457.2 
  288900    286.76525   -1485.1806     476.1684    280.01528    713.85227      39457.2 
  289000    305.18248   -1448.1868    457.53031    381.15753   -55.367441      39457.2 
  289100    299.83753   -1467.0922    438.73318    319.42911   -38.137749      39457.2 
  289200    296.58261   -1408.1815    474.96621    399.94178    66.123002      39457.2 
  289300    303.80657   -1457.0779      473.091    381.64233   -327.38436      39457.2 
  289400    293.45727   -1419.1463     496.6379     396.6001   -325.69385      39457.2 
  289500     309.0693   -1454.1246    491.73073    426.89169    -219.7986      39457.2 
  289600    294.66149   -1454.2051    463.20123    333.51761    33.740602      39457.2 
  289700    297.11546   -1439.0958    463.88912     360.3456   -14.723061      39457.2 
  289800    304.20098   -1457.5961    477.78962    387.59567    512.31139      39457.2 
  289900    299.06063   -1433.7388    503.87684    414.43395   -140.44637      39457.2 
  290000    305.89536   -1417.1212    486.02409    443.92132   -9.0738261      39457.2 
  290100    301.45678   -1445.3833    464.85778    374.54132   -253.03735      39457.2 
  290200    300.71563   -1459.1322    469.00912    361.61225    37.498621      39457.2 
  290300    313.88829   -1464.7241    466.67315     412.8962   -115.75389      39457.2 
  290400    291.53581   -1477.4414    472.24717    305.27713   -94.597635      39457.2 
  290500     296.5585   -1460.6706    461.57555     333.9537   -3.6894947      39457.2 
  290600    303.80952   -1499.7906    472.96086    338.81278   -405.40167      39457.2 
  290700     307.2749   -1488.5298    487.21511    379.90488   -333.50275      39457.2 
  290800    308.94233   -1502.4149    468.25768    354.55757   -273.05152      39457.2 
  290900     297.9233   -1501.0361    497.36318     335.5106   -195.80083      39457.2 
  291000    305.93174   -1491.9042    466.48337    349.76115   -120.13647      39457.2 
  291100    311.15633   -1487.8967    462.28394    373.05407   -339.30338      39457.2 
  291200    312.79296   -1468.4335    451.14657    388.73669   -370.61793      39457.2 
  291300    295.16735   -1462.9675    496.88228    360.71023   -832.52171      39457.2 
  291400    301.33122   -1509.3642    477.44086    322.57905   -99.020817      39457.2 
  291500    305.01485   -1499.0051     442.2296    314.28502    110.42209      39457.2 
  291600    302.61986   -1513.9467    465.52929    311.87743   -53.752402      39457.2 
  291700    310.41016     -1463.84     472.3264    403.79916    996.73054      39457.2 
  291800    308.62258   -1476.6376    485.49758    396.13749    575.24678      39457.2 
  291900    302.24375   -1488.1054    477.84629    348.34509   -9.8961219      39457.2 
  292000    291.20913   -1466.6303     485.0211    327.39375    291.77034      39457.2 
  292100    290.42459   -1521.0265    478.85849    263.30841    805.57673      39457.2 
  292200    312.74364   -1507.3868    499.47826    397.89336    1234.8708      39457.2 
  292300    288.66837   -1462.6844    470.13821    305.03585    897.12471      39457.2 
  292400    310.24521   -1513.6308    514.55246    395.49303    452.76425      39457.2 
  292500    299.43457   -1498.6832    441.93275    289.22641    389.28533      39457.2 
  292600    297.71914   -1488.1643    497.29845        347.4    530.45259      39457.2 
  292700    302.51319   -1481.0117    489.38857     368.1923    620.00545      39457.2 
  292800    290.49664   -1489.2779    465.23326    281.75568    134.68989      39457.2 
  292900    301.06568   -1451.4796    482.71219     384.5413    105.43196      39457.2 
  293000    290.33849   -1467.0698    494.02871    332.04825    487.88035      39457.2 
  293100    299.19925   -1480.1981    475.79364    340.51458    601.23244      39457.2 
  293200    309.00505   -1447.2067    482.87183    424.66189    426.70967      39457.2 
  293300    288.63868   -1511.0592    474.10135    260.49077     325.4479      39457.2 
  293400    298.42216   -1426.4829    483.82944    398.77249    571.75276      39457.2 
  293500    292.92355   -1478.5858    460.78274    298.90628   -72.021677      39457.2 
  293600    298.37391   -1475.5383    466.70253     332.3733   -36.451921      39457.2 
  293700    294.54516   -1453.0085    481.12434    352.11447   -203.14694      39457.2 
  293800    298.54874   -1487.7253     480.6044    334.87404   -442.94619      39457.2 
  293900    295.64244   -1485.6179    464.85801    308.17108    -268.4992      39457.2 
  294000    297.55125   -1464.0662     493.1733    366.61825   -662.22815      39457.2 
  294100    299.38378   -1466.5925    460.79297    339.94895   -532.31217      39457.2 
  294200    297.01406   -1457.9181    493.11308    370.29146   -841.09301      39457.2 
  294300    296.76232   -1440.2766    466.99505    360.68332   -454.48119      39457.2 
  294400    311.59951   -1440.2058    473.88833    434.34155    145.29705      39457.2 
  294500    295.12778   -1485.1517    500.92508    342.39092    150.60754      39457.2 
  294600    300.28975   -1484.7072    487.95094    353.06464    1339.3401      39457.2 
  294700    303.29304   -1453.4458    490.83841     400.7135    707.05444      39457.2 
  294800    307.97048   -1411.9627    460.24246    432.62605    370.32643      39457.2 
  294900    295.20859   -1424.4214    505.67656    408.23596    23.969099      39457.2 
  295000    297.96341    -1430.158    472.49741    381.70329    87.308166      39457.2 
  295100    296.25432   -1440.6411    478.11788    369.15819   -6.4723309      39457.2 
  295200    296.74909   -1464.3005    497.38423    366.98915   -188.89938      39457.2 
  295300    307.67654   -1512.5849     477.6528    348.09285   -60.057135      39457.2 
  295400     293.9053   -1492.9112    498.39344    326.60465   -179.20059      39457.2 
  295500    303.03071   -1512.7276     481.7549    331.16896     132.4162      39457.2 
  295600    302.92864   -1527.4917    448.16655    282.35771   -568.97913      39457.2 
  295700    302.63739   -1537.4171    451.14151    274.09815    201.27907      39457.2 
  295800    285.13278   -1510.2173    463.60638    235.07847    38.266497      39457.2 
  295900    284.59561   -1523.7611    476.11044    231.62409    613.07902      39457.2 
  296000     293.2508   -1515.5941     469.2604    271.84665   -202.55684      39457.2 
  296100    312.55687   -1505.0444    487.97566    387.89359   -199.40969      39457.2 
  296200    297.94461   -1524.1189    455.52591    270.68641   -107.55349      39457.2 
  296300    303.63708   -1538.5471    462.99407     289.3143    228.79226      39457.2 
  296400    299.52856   -1541.3556    490.17148    295.21519     31.87711      39457.2 
  296500    302.96017   -1483.8461    448.73722    326.71573    184.98895      39457.2 
  296600    302.55937    -1497.005    474.15488    337.17285    484.28175      39457.2 
  296700    297.88856    -1552.041    487.49886    274.48522    538.18868      39457.2 
  296800    303.35541   -1499.4459     480.9807    345.13609    55.457548      39457.2 
  296900    303.22304   -1457.4929    481.02734    386.54071    888.90752      39457.2 
  297000    310.06497   -1496.2988    470.37745    367.83982   -302.01087      39457.2 
  297100    304.42671   -1497.5995    449.13136    319.94866   -294.81795      39457.2 
  297200     304.9325   -1478.7815    461.03893    352.94772   -12.495194      39457.2 
  297300     298.0288     -1467.92    487.38237     359.1202    323.89413      39457.2 
  297400    303.85885   -1476.7476    491.31582    380.43244   -53.567114      39457.2 
  297500    296.04196   -1462.5763     486.4112    354.56174    61.665105      39457.2 
  297600    306.12391   -1488.3535    465.13905    352.83137     378.4507      39457.2 
  297700    306.04475   -1482.2348    465.71306    359.16818    263.81052      39457.2 
  297800    310.68781   -1513.1209    491.16078    374.60072    724.91066      39457.2 
  297900       307.82   -1455.5959    493.25498     421.3289   -31.436239      39457.2 
  298000    295.30643   -1456.9357    483.91354    354.39843   -76.161581      39457.2 
  298100    292.61067   -1499.9546    469.94245    285.29079     13.70371      39457.2 
  298200    304.00863    -1444.026    484.06062    406.57218   -86.177873      39457.2 
  298300     294.5077   -1460.1437    487.52056    351.20712   -221.82509      39457.2 
  298400    291.13902   -1423.5612    493.78378    378.91036   -154.83177      39457.2 
  298500    300.58901   -1452.2174    487.02109    385.96973   -464.94135      39457.2 
  298600    294.08945   -1483.2142    490.65579    329.39174    -15.26352      39457.2 
  298700    304.54519   -1445.5298    478.53916    401.95871   -42.935416      39457.2 
  298800    289.59905   -1448.3913    499.68576    353.06005   -557.71946      39457.2 
  298900    303.97836   -1444.0784     448.8829    371.20591   -498.36625      39457.2 
  299000    300.63187   -1451.3991    466.91972    366.87939   -363.92929      39457.2 
  299100    289.14905   -1464.6417    491.95711    327.05823    -455.5683      39457.2 
  299200     291.6703   -1441.3074    490.87528     360.6438   -177.07166      39457.2 
  299300    296.14359   -1436.2595    525.55874     420.4829   -370.62893      39457.2 
  299400    306.83313     -1426.03    484.40718    437.61097   -470.92331      39457.2 
  299500    297.76164   -1470.8382    496.39548    364.01423   -332.93677      39457.2 
  299600    304.32707   -1443.8836     480.5852    404.67055   -325.83397      39457.2 
  299700    292.57596   -1433.3847    471.53483    353.29707   -165.87381      39457.2 
  299800     305.7986   -1420.2698    471.60232    425.91608   -321.29695      39457.2 
  299900    288.52983   -1433.2375     478.8549    342.57672   -588.26462      39457.2 
  300000    297.13354   -1454.0374    489.49072    371.08685   -246.21946      39457.2 
  300100    305.24315   -1455.4386     483.0447    399.69288    6.1368868      39457.2 
  300200    293.45244   -1465.6513     456.5506    309.98603   -737.69518      39457.2 
  300300    301.08616   -1431.1084    510.81173    433.10411   -615.35174      39457.2 
  300400    300.38177   -1517.5599    459.26957    291.94418   -418.52903      39457.2 
  300500    294.98317   -1482.7057    479.59069    322.85255   -507.26064      39457.2 
  300600     310.3593   -1486.9642    497.87771    405.99769    609.72024      39457.2 
  300700    302.71573   -1461.4259    493.48716    392.78709   -256.42818      39457.2 
  300800    303.23203   -1461.4794    461.36133    362.92852    121.76704      39457.2 
  300900    293.52125   -1452.6616    482.23323    348.96768   -455.63584      39457.2 
  301000    286.88403   -1455.4234    496.47998    330.61796   -637.28553      39457.2 
  301100    306.09371    -1399.091    494.67427    471.49332   -429.32046      39457.2 
  301200    300.90336   -1418.5968    487.18333    421.16567     -152.955      39457.2 
  301300    305.61171   -1456.0275    489.75219     407.4681   -393.83152      39457.2 
  301400    292.79826   -1434.6484    464.82218    346.31996    -383.4851      39457.2 
  301500    296.99419   -1445.6972    489.22068    378.53063   -433.92642      39457.2 
  301600    310.25442   -1486.1763    504.22147    412.65786   -177.65869      39457.2 
  301700    303.29186   -1516.5929    467.85346    314.57611   -554.56465      39457.2 
  301800    297.31232   -1472.0249    481.71341    346.12574   -203.95306      39457.2 
  301900    287.91241   -1493.6069    487.12964     287.7067    77.292663      39457.2 
  302000    298.79749   -1484.6581    486.26414    344.71919   -99.288838      39457.2 
  302100    300.56668   -1504.4417    478.23206    324.85609   -133.56886      39457.2 
  302200    297.08703   -1496.7672    470.78531    309.44263   -32.762141      39457.2 
  302300    298.03153   -1489.2792    474.61194    325.00281    106.72369      39457.2 
  302400    292.42504   -1489.4188    480.29281    305.34255   -280.74264      39457.2 
  302500    290.96553   -1487.8592    466.22985    286.27864   -57.683902      39457.2 
  302600     309.6652   -1514.1849    470.89978      348.679    507.39975      39457.2 
  302700    302.17823   -1487.0896    478.01802     349.2381     944.9711      39457.2 
  302800    297.23513   -1498.1572    465.82078    303.75382    180.38706      39457.2 
  302900     293.8164   -1493.5291    487.08877    314.28242   -512.72742      39457.2 
  303000    305.73018    -1475.327    483.79372    382.74274   -206.28052      39457.2 
  303100    302.50395   -1492.1398     491.1895     358.8236     231.8428      39457.2 
  303200     303.2095   -1483.6044    447.30673    326.64771    385.57759      39457.2 
  303300    296.97656   -1486.8565    489.85209    337.92352   -197.16006      39457.2 
  303400    301.68593   -1500.1969    438.68357    294.58349   -21.691832      39457.2 
  303500    304.29163    -1453.564    504.10887    418.35452    251.13124      39457.2 
  303600     301.2617   -1485.5609    495.63248    364.26149    512.15656      39457.2 
  303700     309.8713   -1434.4497    509.43691    467.87776     645.1762      39457.2 
  303800    302.12755   -1515.5454    464.43332    306.96984   -245.64659      39457.2 
  303900    303.46392   -1510.0201     473.9952    328.06411    125.04742      39457.2 
  304000    298.40511    -1469.095    490.96592    363.22024    -45.79251      39457.2 
  304100     294.1003   -1476.0225    462.41268    308.38911    102.45906      39457.2 
  304200    297.44261   -1434.4745    490.37922    392.92755    127.83286      39457.2 
  304300    312.37026     -1423.56    498.89019    479.45368    323.69553      39457.2 
  304400    295.36587   -1465.7554     480.4186    342.35096    595.92187      39457.2 
  304500    297.83038   -1457.8007    467.37569    348.34088     292.8887      39457.2 
  304600    287.71443   -1491.1575    510.00132    312.13793    443.35109      39457.2 
  304700    302.16453    -1477.889    491.79831    372.15743    420.19336      39457.2 
  304800    298.14931    -1488.463    453.39722    305.13373    191.74184      39457.2 
  304900    300.45268    -1489.624    486.47888    347.40819     227.6809      39457.2 
  305000    292.64135   -1454.0978    500.53789    361.88098    479.69157      39457.2 
  305100    296.27614   -1513.3501    452.27226    270.70168    384.74033      39457.2 
  305200    301.94644   -1492.2417    497.31324    362.33937    615.02499      39457.2 
  305300    311.35945   -1472.8139    465.70904    392.47498    963.94213      39457.2 
  305400    300.34949    -1487.535    448.28091    310.83535    13.317792      39457.2 
  305500    303.27043   -1451.9202    485.94777    397.24677    233.72396      39457.2 
  305600    303.21691   -1450.3501    498.51994    411.14855    62.090779      39457.2 
  305700    291.71472   -1461.4413     470.2835    320.11783   -322.59605      39457.2 
  305800    302.72236   -1446.8306     520.0838    434.00879   -79.922091      39457.2 
  305900    298.73385   -1481.1053    470.39874    332.12043   -61.688463      39457.2 
  306000    301.14414   -1504.9259    477.83998    326.57558   -478.01722      39457.2 
  306100    298.31311   -1481.9073     442.3673    301.39578   0.58413149      39457.2 
  306200    290.44534   -1469.2416    479.85509    316.18311    50.432687      39457.2 
  306300    294.97529   -1416.8943    492.90765    401.94545     549.3465      39457.2 
  306400    302.48302   -1487.3804    477.78477    350.08421   -170.58991      39457.2 
  306500     300.2882   -1420.3978    473.68965    403.10585    153.72409      39457.2 
  306600    303.76221   -1479.8187    468.94949     354.5606   -476.87904      39457.2 
  306700    297.81359   -1444.9808    476.81368    370.52331   -2.1352711      39457.2 
  306800    300.80448   -1454.9811    473.70134     370.8549   -219.42815      39457.2 
  306900    291.55071   -1458.9922    465.73545    317.28167   -483.10455      39457.2 
  307000    309.87844   -1439.4055    492.23175    445.74896   -73.169999      39457.2 
  307100    300.07339   -1421.4343    457.79887    385.21293    91.131306      39457.2 
  307200    306.07836   -1453.5503    466.36168    388.65244    472.08006      39457.2 
  307300    293.69149   -1458.8713    487.02459    348.31456     258.5535      39457.2 
  307400    292.11407   -1415.8095    504.91519    402.17637    53.425996      39457.2 
  307500    306.37472   -1427.0623     487.5635    437.67442    111.18525      39457.2 
  307600    312.19336   -1442.0711    487.58355     448.8408   -17.757572      39457.2 
  307700    294.11599   -1424.5353    495.74082    393.27501   -670.64453      39457.2 
  307800    301.81937   -1457.1804    485.16348    384.67974   -250.37883      39457.2 
  307900    313.61839   -1476.6974    461.81154    394.84807   -15.645092      39457.2 
  308000    295.37038   -1496.0881    473.69483    305.31473    131.80877      39457.2 
  308100    300.73095   -1472.9821    482.88465    361.70666    94.643622      39457.2 
  308200    288.81517   -1452.4359    484.77841    330.58451   -80.325957      39457.2 
  308300     299.5289    -1413.792     477.4503    410.05913    -74.04043      39457.2 
  308400    310.11865   -1443.9858    488.54033    438.55699   -387.76165      39457.2 
  308500    299.57006   -1404.2671    476.12934    418.44806   -28.368931      39457.2 
  308600    291.34112   -1420.1179     490.6152    380.09351   -321.21298      39457.2 
  308700     294.5474   -1423.7848    475.75008    375.97395    137.91232      39457.2 
  308800    291.26287   -1442.9842    451.68376    317.94411   -191.00767      39457.2 
  308900    307.16818   -1440.8422    505.47357    445.37126   -218.50295      39457.2 
  309000    288.42647   -1445.9032    470.77169    321.36318   -199.49006      39457.2 
  309100    309.29962   -1411.7048    469.49937    448.11539      29.7643      39457.2 
  309200    307.19684   -1431.9078    484.67478    433.63565   -49.572189      39457.2 
  309300    306.57556   -1458.7721    468.84576    388.14973    210.84138      39457.2 
  309400    298.74967   -1464.3249    453.28238    331.85566    6.3516941      39457.2 
  309500    295.69759   -1476.7706    491.75751    344.16581    598.28924      39457.2 
  309600    301.95163   -1461.9731    483.97112    379.28919    768.93967      39457.2 
  309700    292.76909   -1478.9661    475.85322    312.90218    48.008439      39457.2 
  309800    303.66661   -1472.5382    441.30688    333.76877   -63.795999      39457.2 
  309900    294.05658   -1403.9457    475.50488    393.36154   -176.89103      39457.2 
  310000    294.34714   -1396.1755    499.48106    426.41412    244.09215      39457.2 
  310100    292.42395    -1428.095    484.61225    370.98091    383.03147      39457.2 
  310200    297.65211    -1436.233    490.86651    392.59802    563.91825      39457.2 
  310300    307.53076   -1415.2857    485.36852    452.45252    429.54618      39457.2 
  310400    303.44517   -1428.5463    472.92071    408.37912    402.89239      39457.2 
  310500    301.37153   -1425.9666    476.25249    404.96948    263.30363      39457.2 
  310600     302.8621   -1439.7358    479.42296    401.07096   -65.971317      39457.2 
  310700    308.98954   -1408.3517    483.49128    464.06658   -225.01458      39457.2 
  310800    295.37521   -1476.0662    463.48137     315.1449   -703.90737      39457.2 
  310900    296.22134   -1445.8998    490.64058    376.27395   -470.56421      39457.2 
  311000    278.47841   -1453.8476    453.52455    251.45455    105.65261      39457.2 
  311100    295.62157    -1492.938    460.59825    296.49739    161.10093      39457.2 
  311200    302.49946    -1452.301    498.11508    405.56776    99.357476      39457.2 
  311300    296.18107   -1426.6387    488.85295    393.56636   -459.31908      39457.2 
  311400    306.18295   -1441.3331     472.8648    407.84289    -26.16672      39457.2 
  311500     291.8756   -1466.4017    475.81163    321.40877   -54.878395      39457.2 
  311600    310.50092   -1502.0253    499.87741    393.57281    267.87003      39457.2 
  311700    308.30329   -1481.6506    459.64407    363.83572    451.49769      39457.2 
  311800     303.3632   -1521.6158    449.40211    291.42262    352.26854      39457.2 
  311900    297.96114   -1517.1932    465.36947    287.52994   -111.35668      39457.2 
  312000    295.75319   -1477.1726    455.34212    307.59832   -51.483331      39457.2 
  312100    296.01861    -1481.522      458.093    307.19287   -573.74584      39457.2 
  312200    304.30395   -1452.6347    478.64703    393.87728   -437.75503      39457.2 
  312300    297.08808   -1477.5595     458.0895    315.95927   -600.73695      39457.2 
  312400     291.8329   -1443.0436     501.4087    370.17194   -1005.2223      39457.2 
  312500    310.50217   -1458.5012    467.20531    404.43046   -1131.5237      39457.2 
  312600     297.2998   -1420.7871     483.9399    399.53368   -852.70333      39457.2 
  312700    293.29513    -1468.006     449.9943    300.36797   -732.74303      39457.2 
  312800    297.13856   -1488.0966    466.36104    313.92055   -320.05476      39457.2 
  312900    298.95214   -1511.1271    475.17069    307.85193   -38.586309      39457.2 
  313000    288.97277   -1496.0511    463.74007    266.63932    96.597852      39457.2 
  313100    291.93476   -1553.1284    460.82039    219.95676   -12.769303      39457.2 
  313200    295.67479   -1497.9577    478.52708    309.64578    307.62254      39457.2 
  313300    288.63581    -1509.151    484.86826    273.15302    713.73647      39457.2 
  313400    300.55069   -1530.8667    475.18193    295.30905    310.98678      39457.2 
  313500     296.9083   -1487.6759    501.72609    348.67124   -356.28074      39457.2 
  313600    299.90347   -1514.2409    484.28894    318.13257   -342.67426      39457.2 
  313700    286.27541   -1506.9911    458.26568    238.10014   -1063.2701      39457.2 
  313800    299.03132   -1482.2168    471.23842    333.18586   -1118.5091      39457.2 
  313900    301.48537   -1490.7985     430.1222    294.51896    -579.8946      39457.2 
  314000    302.53147   -1515.9763    482.29623    326.21746   -235.42294      39457.2 
  314100    301.54393   -1513.9251    455.33525    296.86863   -435.89443      39457.2 
  314200    297.80167   -1494.2941    469.43515    313.77785   -818.69253      39457.2 
  314300    304.30621   -1470.7675     451.2889    348.39651   -383.13296      39457.2 
  314400    289.57571   -1500.2875    501.63876    303.01191   -362.68133      39457.2 
  314500    295.96543   -1492.4721    482.80505    320.71584    214.60661      39457.2 
  314600    295.43692   -1508.2803    468.29239    288.01923     86.41188      39457.2 
  314700    299.73122   -1540.2874    474.78032    281.80321     351.5787      39457.2 
  314800    308.68993   -1528.0747    466.27871    325.78428    118.78696      39457.2 
  314900    287.93357   -1496.3316    483.57018    281.51766    27.964708      39457.2 
  315000    302.93585    -1522.994    471.83549    310.55677    248.11926      39457.2 
  315100       307.91   -1546.0718    478.79781    316.80039    101.26735      39457.2 
  315200    300.62403   -1492.7157    464.49587    323.10371    209.20181      39457.2 
  315300    294.32614   -1500.2643     491.6585    314.40829   -700.10373      39457.2 
  315400     294.2043   -1530.9003     469.2278    260.79394     452.7758      39457.2 
  315500     303.6238   -1532.9632    474.86842    306.71284   -12.705739      39457.2 
  315600    291.30902    -1533.751    465.11237    240.81338    -437.3779      39457.2 
  315700    291.82068   -1491.4035    486.75635    307.10481   -394.92833      39457.2 
  315800    301.88228   -1506.2315    463.66536    314.41323   -165.35127      39457.2 
  315900    296.33758   -1461.6748    481.92077    352.30163   -64.617802      39457.2 
  316000    305.41033    -1477.885    468.82842    363.78165    382.24376      39457.2 
  316100    310.06768   -1472.2547      457.457    378.97563    207.21586      39457.2 
  316200    302.75291   -1447.4713    473.42008    386.84175     249.6235      39457.2 
  316300    296.40759   -1466.8832    449.13726     314.6244    55.006843      39457.2 
  316400     303.0675   -1451.3219    511.89525    422.88044    221.89637      39457.2 
  316500     300.6367   -1438.1232    485.02356    398.28087    460.47527      39457.2 
  316600    299.74584    -1461.827    479.76399    365.31302    178.75296      39457.2 
  316700    307.55981   -1463.0615    474.25135    393.69007   -68.733845      39457.2 
  316800    307.86453   -1491.2191    484.36713    377.01806    315.65954      39457.2 
  316900    299.36633   -1484.9002    457.25572    318.02557    263.32783      39457.2 
  317000    300.21782   -1488.2296    464.87481    326.14281    275.07392      39457.2 
  317100    302.60831   -1486.7056    455.85941    329.39677     115.3115      39457.2 
  317200    297.95606    -1419.812    480.87566    400.39446    339.39963      39457.2 
  317300    297.30117   -1410.3361    487.69108    413.74207     578.9923      39457.2 
  317400    295.84067   -1479.2119    465.34373    315.95389     496.9585      39457.2 
  317500    297.16108   -1508.4454    473.33556     300.6475    18.368682      39457.2 
  317600    296.61985   -1467.4575    471.60483    337.47184   -18.001268      39457.2 
  317700    303.77357    -1457.604    472.69397    380.57082   -359.46013      39457.2 
  317800    299.85301   -1452.9472    495.98911    390.89964   -646.53155      39457.2 
  317900    295.99103   -1459.6297    474.37092    345.23909   -389.13047      39457.2 
  318000    296.56213   -1452.1275    473.79493     354.7325    56.309297      39457.2 
  318100    304.96352   -1455.0243    504.16004    419.96554       165.87      39457.2 
  318200     309.2537   -1458.3208     504.2161    436.00967    203.73146      39457.2 
  318300    290.85023    -1481.055    476.73198    303.06668   -527.51649      39457.2 
  318400    296.83612     -1443.81    484.15846    374.64516    -237.8231      39457.2 
  318500     304.8365   -1423.5264    466.49747    413.22991   -201.73858      39457.2 
  318600    299.54568   -1463.2067    464.51828    347.78781   -3.1812433      39457.2 
  318700    300.13964   -1440.4802    492.86571    401.53169    24.177779      39457.2 
  318800    299.49811   -1467.3238    483.82669    362.76535    328.23109      39457.2 
  318900    300.20795   -1457.6938    478.91623    370.67567    110.19962      39457.2 
  319000    287.57985   -1485.5961     504.6606    311.75359     -204.423      39457.2 
  319100    300.38608   -1514.9303    456.69402    292.01762   -4.6022618      39457.2 
  319200    296.23176    -1456.968    464.88723    339.49924   -284.13966      39457.2 
  319300    296.10087    -1495.079    492.67971    328.59232   -629.95797      39457.2 
  319400    298.27685    -1473.338    471.75368    339.18848   -678.51748      39457.2 
  319500    292.64105   -1507.7173    466.05167    273.77392   -582.65158      39457.2 
  319600    306.97941   -1463.0729    467.36332    384.18175    159.59967      39457.2 
  319700    291.15117    -1457.941    470.70526    321.50664    39.888466      39457.2 
  319800    290.90659   -1487.2257    478.61327     299.0306    234.51144      39457.2 
  319900    292.53753   -1469.1219    459.79493    305.64725    387.32977      39457.2 
  320000    299.47159   -1491.5273    491.93216    346.54807    380.06276      39457.2 
  320100    296.65294   -1476.4064    489.33273    346.39959   -117.84532      39457.2 
  320200    294.45077   -1470.0044    490.21162    343.78152   -523.28961      39457.2 
  320300    297.63022   -1406.0129    454.32935    386.18259    26.890443      39457.2 
  320400    298.11881   -1402.6129    507.57224    445.02176   -473.23021      39457.2 
  320500    307.97461   -1433.4721    480.65559    431.54827   -537.69008      39457.2 
  320600    299.99947   -1478.2878    454.50173    324.73003   -374.02388      39457.2 
  320700    307.44065   -1441.2908    479.66064    420.33446   -181.77372      39457.2 
  320800     302.2157    -1482.948     453.4055    328.93566   -45.980399      39457.2 
  320900    295.81565   -1468.2245    475.62486    337.10991   -236.22143      39457.2 
  321000    311.15581   -1490.4852    502.99724    411.17653    261.87687      39457.2 
  321100    299.28792   -1476.8413    459.82357    328.29989    415.20184      39457.2 
  321200    296.34578   -1498.2828    526.04586    359.85557   -91.338842      39457.2 
  321300    303.45089   -1467.2856    484.60748    381.35234    519.71478      39457.2 
  321400    301.47606   -1438.3396    526.97986     443.7937   -297.56303      39457.2 
  321500    299.63149    -1509.254    466.17237    303.78037   -248.80185      39457.2 
  321600    307.04754   -1496.9428     499.1347     382.3895    148.16991      39457.2 
  321700    299.71715   -1499.4818    451.05179    298.81701   -142.66467      39457.2 
  321800    286.70268   -1450.3771    480.39939    318.76849   -415.45355      39457.2 
  321900    294.36788   -1533.7716    494.30085    283.73104   -254.41844      39457.2 
  322000    294.88977   -1519.9202    465.03737    270.66481   -79.983417      39457.2 
  322100    305.00991   -1498.9919    488.69853    360.74495   -19.908683      39457.2 
  322200    306.00756   -1496.9935    469.79049    348.31979    32.814826      39457.2 
  322300    292.89829   -1526.0001    462.78495    253.38066    161.35497      39457.2 
  322400    305.14232   -1503.0945    465.96902    334.50802   -290.83117      39457.2 
  322500    296.66806    -1530.628    473.48343    276.39665    216.62687      39457.2 
  322600     311.4237   -1524.1723     471.9454    347.64182   -65.141229      39457.2 
  322700    294.73327    -1536.087    465.07541    253.83259   -28.450053      39457.2 
  322800    297.84006   -1510.3745     490.7266    319.16151    154.65151      39457.2 
  322900    313.35176   -1530.1438    453.50296    331.89462    233.95972      39457.2 
  323000    294.22956   -1515.1051    449.48657    256.96149   -367.96005      39457.2 
  323100    304.44188   -1499.3249    462.47463    331.63478    127.94667      39457.2 
  323200    310.44695   -1555.7596    465.17383    304.89238    288.19834      39457.2 
  323300    304.04948   -1522.2744    447.50038    291.94705   -684.57952      39457.2 
  323400    294.14617   -1524.5432    464.30259    261.96447   -135.72006      39457.2 
  323500    287.52457   -1522.9541    495.67923    265.16579    164.61654      39457.2 
  323600    297.49096   -1531.8973    469.01348    274.35638    364.69142      39457.2 
  323700    299.61086    -1489.061    481.93151    339.63975     660.9395      39457.2 
  323800    312.18676   -1484.5792     485.3779    404.09746    223.98408      39457.2 
  323900    297.58498   -1493.3665    480.94663    325.24297   -18.859759      39457.2 
  324000    303.83813    -1501.955    477.47315    341.28929    290.62438      39457.2 
  324100    298.64989   -1498.1777    492.95703    337.22902    208.06701      39457.2 
  324200     306.3517   -1537.8618    440.75323    279.96115   -109.18124      39457.2 
  324300    296.82053   -1536.6031     494.6049    292.22837     53.66996      39457.2 
  324400    307.17341   -1536.0451    461.96655     306.6848    88.793174      39457.2 
  324500    300.92498    -1494.183    478.36895    336.86233     176.2111      39457.2 
  324600    299.82665   -1499.1676    461.03781    309.60945    785.34351      39457.2 
  324700     292.7895   -1555.2379    492.36844     253.2373    307.84061      39457.2 
  324800    294.50047   -1514.9707    488.83847    297.66552    1.7684092      39457.2 
  324900    305.82459   -1533.8883    480.08856    320.90059   -170.38204      39457.2 
  325000    297.59102   -1524.4022    469.15298    282.44067   -315.30081      39457.2 
  325100    302.23129   -1544.5052    470.54531    284.58843    290.39509      39457.2 
  325200    298.16443   -1533.7736    468.07685    274.57069    479.35366      39457.2 
  325300    299.99902   -1542.1005     482.2223    288.63587    571.27924      39457.2 
  325400    300.62281   -1523.7724    471.28138    298.82702    776.45264      39457.2 
  325500    301.91644   -1505.1617    475.95585    327.92711    731.67647      39457.2 
  325600    309.13791   -1503.5655    497.20866    383.23713    301.24537      39457.2 
  325700    282.03162   -1463.7125    484.44165     288.4786    94.471186      39457.2 
  325800    305.77101   -1507.2739    472.14002    339.32563   -417.22495      39457.2 
  325900    308.61252   -1520.7488    446.31273    312.79614   -170.80987      39457.2 
  326000    297.03149   -1537.9196    453.88033    251.13561   -202.96087      39457.2 
  326100    294.74589    -1528.832     483.2346     279.3035     -7.48706      39457.2 
  326200    296.47565   -1527.1775    488.44633    293.94514    22.823509      39457.2 
  326300    300.45614   -1542.2536    465.02985    273.34504   -164.83719      39457.2 
  326400    299.21562   -1501.7702    487.35354    330.57591      80.7886      39457.2 
  326500    299.10677   -1526.3627    451.59696     269.7376   -69.941355      39457.2 
  326600    289.08984   -1490.0823    493.71387    303.10825   -152.24462      39457.2 
  326700    300.30827   -1519.5021    472.10133    302.50337    266.54859      39457.2 
  326800    298.09098   -1525.9007    467.42046    281.45704   -106.23479      39457.2 
  326900    293.33678     -1514.67    505.48374    309.38062   -430.79473      39457.2 
  327000     300.2124   -1485.4744    504.95759    368.95636   -444.36089      39457.2 
  327100    310.53492   -1474.8637    490.40753     411.4174    125.72427      39457.2 
  327200    307.67934   -1500.2215    474.27797      357.094     176.9733      39457.2 
  327300    293.30989   -1505.6001    490.34184    303.18776    544.66667      39457.2 
  327400     311.0271     -1474.48    476.34104    399.94697    339.38347      39457.2 
  327500    292.42402   -1518.4318    458.69872    254.73089    -179.5676      39457.2 
  327600    297.09499   -1518.3144    489.34761    306.49349    67.260155      39457.2 
  327700     290.8806   -1485.5617    481.07753    303.04206   -98.797932      39457.2 
  327800    304.07062    -1482.616    472.93641    357.13656   -220.70855      39457.2 
  327900    299.86929   -1520.1164    488.61354    316.42809     -56.4695      39457.2 
  328000    290.09443   -1526.2937    495.59199    273.29058    237.52127      39457.2 
  328100    306.33637   -1573.7477    456.87489    260.12807   -293.49113      39457.2 
  328200    296.66192   -1521.0462    493.02789    305.49525     580.6632      39457.2 
  328300    303.57159   -1526.9054    486.09357    323.76112   -144.35341      39457.2 
  328400    313.41063   -1490.3928    481.34688    399.75412    483.26765      39457.2 
  328500    308.01313   -1493.0069    478.06484    369.59593    -472.3719      39457.2 
  328600    301.63975   -1483.3958    505.82236    378.31575   -628.66404      39457.2 
  328700    296.91035   -1514.3928    476.93646    297.17392   -449.95843      39457.2 
  328800    305.40629   -1483.8153     463.3337    352.33846    124.00242      39457.2 
  328900    292.86764     -1470.24    494.34827    340.56633   -520.36351      39457.2 
  329000    307.40028   -1495.0188    482.93349     369.6979   -213.54182      39457.2 
  329100     305.0514   -1537.0584    482.19946    316.36585    367.89037      39457.2 
  329200    303.80569   -1512.4856    512.56918     365.7088    398.00287      39457.2 
  329300     296.7684    -1550.349     456.0414    239.68463    470.35009      39457.2 
  329400    301.15831   -1533.6247    468.14083    288.24122    -17.53279      39457.2 
  329500    302.72058   -1496.6337    479.17082    343.28478     362.9193      39457.2 
  329600    295.95801   -1509.7203    489.98222    310.61143    216.42021      39457.2 
  329700    291.11733   -1511.7235     508.6408    305.50765    289.07615      39457.2 
  329800    295.74851   -1522.6219    485.60647    292.39236   -217.01761      39457.2 
  329900    300.42362   -1475.2952    488.44583    363.57328   -236.62524      39457.2 
  330000    299.09367   -1453.4105    504.22772    395.26167   -364.08905      39457.2 
  330100    296.64804   -1499.2906    490.63404    324.79466   -600.15837      39457.2 
  330200    308.71907    -1480.604    486.28554    393.39273    -694.4348      39457.2 
  330300    287.37944   -1513.1404    487.86306    266.51089   -1146.3354      39457.2 
  330400     306.0932   -1494.4206    495.36243    376.84961   -585.84002      39457.2 
  330500    297.62523   -1523.7227    460.58352     274.7045    -731.8259      39457.2 
  330600    297.32715    -1500.299    490.99764    327.20249    -237.1846      39457.2 
  330700    303.58088   -1428.0779    515.12485    451.66169   -254.06242      39457.2 
  330800    305.45683   -1469.1834      466.489    370.35288    193.86868      39457.2 
  330900    294.36158   -1451.7362    515.31585    386.75307   -84.038282      39457.2 
  331000    297.66637   -1460.1368    483.85763    361.74954    2.0153603      39457.2 
  331100    295.54277   -1456.0504    487.86826    360.30079    326.00542      39457.2 
  331200     295.4499   -1489.1452    464.10335    303.02361   -159.43942      39457.2 
  331300    300.82187   -1481.5396    477.34941    348.02264    -547.7573      39457.2 
  331400     291.0891   -1453.0869    481.49113    336.86772   -195.52179      39457.2 
  331500    289.03815   -1454.0558    498.52852    343.71697   -365.65139      39457.2 
  331600    290.19612   -1435.2571    495.52055    364.71292   -41.755115      39457.2 
  331700    300.06179   -1475.6313    500.21876    373.38367   -22.551112      39457.2 
  331800    291.06988   -1474.1286    477.44362    311.69201   -140.34625      39457.2 
  331900    300.58959   -1506.7699    500.80161    345.20041    335.63906      39457.2 
  332000    302.29585   -1475.4112    485.62744    369.05474    550.96954      39457.2 
  332100    307.32211   -1454.3599    470.17393    397.24585    306.19605      39457.2 
  332200     297.4163   -1491.2109    490.45166     336.1453    340.19848      39457.2 
  332300    297.61934    -1475.338    498.45128     360.9305    624.26753      39457.2 
  332400    302.04024   -1482.6992    491.51957    366.50987    28.532247      39457.2 
  332500    309.44751   -1497.7695    475.66118    368.87725    172.32962      39457.2 
  332600    300.73642   -1492.2947     496.8546    356.38864    291.85582      39457.2 
  332700    295.30109   -1463.7027    503.99318    367.68704     30.11115      39457.2 
  332800    310.43035   -1480.3786    491.54684    406.57179   -617.50498      39457.2 
  332900    294.62701   -1491.3102    475.49227    308.54866   -1082.0045      39457.2 
  333000    296.99535   -1559.2406     476.3791    252.15088    162.49839      39457.2 
  333100    292.29632   -1541.2407    469.72816    242.37737    169.89063      39457.2 
  333200    304.06893   -1501.2146     503.4332    369.02715    264.85303      39457.2 
  333300    316.76266   -1477.1683    488.97051    435.66982   -115.85195      39457.2 
  333400    311.44004   -1458.5498    469.00015    410.39248      253.244      39457.2 
  333500    305.63276    -1470.154    481.65321    385.33731   -20.354607      39457.2 
  333600    301.14462   -1472.7973    495.95601    376.82234   -149.94569      39457.2 
  333700    305.69465    -1492.016    487.59092    369.69121    496.12589      39457.2 
  333800    287.85917   -1483.8532    508.82284    318.91437    366.58367      39457.2 
  333900    311.40995   -1485.6004    476.85576    391.06229    190.96557      39457.2 
  334000    297.39032   -1490.6454    487.50346    333.64586    777.06033      39457.2 
  334100    302.89488    -1473.052    497.40925     385.8884    78.025079      39457.2 
  334200    305.32884   -1477.2998    465.41836    360.59052    94.046548      39457.2 
  334300    295.89985   -1506.9944    484.61204    307.70568    -9.737004      39457.2 
  334400    298.84228   -1438.5441    476.57285    381.34317    41.325079      39457.2 
  334500    307.79857   -1476.5845    512.10661    419.09561   -163.97645      39457.2 
  334600    296.30306   -1472.3999    484.42331    343.92394    22.353999      39457.2 
  334700    300.92324   -1493.4854    481.94096    341.12407    352.45732      39457.2 
  334800    302.54674   -1511.7021     499.2244     347.4885    323.00741      39457.2 
  334900    297.71973   -1482.4695    488.23728    344.03627    621.75401      39457.2 
  335000    291.66593   -1510.9023    487.60055    287.75451    521.91972      39457.2 
  335100    304.00207   -1511.3592    509.54086    364.68968    499.21412      39457.2 
  335200    295.39825   -1510.4007    493.50998     310.9426    323.50631      39457.2 
  335300    293.56521   -1522.9841    454.45472    251.06435    439.96414      39457.2 
  335400    306.28336   -1487.8207    473.50706    362.44896    592.01551      39457.2 
  335500    303.16306   -1494.4405    489.59421    357.89035   -51.580665      39457.2 
  335600    307.65022   -1518.3631    485.25357    349.79709    428.04485      39457.2 
  335700    305.49534   -1482.1885    501.69261    392.72448    351.57164      39457.2 
  335800    294.78137   -1492.3564    481.00291    313.70686    166.34887      39457.2 
  335900    293.05472   -1533.4533    445.12019    228.96595   -178.51258      39457.2 
  336000    306.98129   -1502.9526     471.9604    348.90755   -358.79286      39457.2 
  336100    303.24227   -1498.6775    459.58771    324.00286    -152.1431      39457.2 
  336200    298.48595   -1491.8994    515.25554    365.06888    -346.2052      39457.2 
  336300    296.53098   -1459.2461    491.17111    364.85003   -397.21285      39457.2 
  336400    290.27735   -1462.5243    501.56417    343.85445    130.08769      39457.2 
  336500    305.53319   -1510.9099    496.88801    359.36857    423.35284      39457.2 
  336600    294.11013   -1508.1016    484.18392    298.12545    50.168039      39457.2 
  336700    306.01154   -1517.8699    495.82015    353.49094    715.88814      39457.2 
  336800    294.60878   -1491.3976      511.471    344.35803    424.25778      39457.2 
  336900    309.29751    -1500.398    502.48328    392.39669    65.182313      39457.2 
  337000    300.84892   -1498.7544    492.96918    346.54916    369.11877      39457.2 
  337100     292.8131   -1486.8299    506.11739    335.50038    870.91844      39457.2 
  337200    307.23923   -1519.5824    498.54627    360.02307    1053.1721      39457.2 
  337300     296.1766   -1485.3164     490.7691    336.78475    596.78466      39457.2 
  337400    299.33431   -1469.4354    509.16402    385.25474    247.40969      39457.2 
  337500     296.4845     -1460.71    491.54848    363.55456    538.06752      39457.2 
  337600    304.50921   -1470.9167    500.82126    398.69225    -51.46306      39457.2 
  337700    303.88529   -1439.1259    470.62761    397.48476   -882.08443      39457.2 
  337800    286.49502   -1478.5947    499.05848    308.27659   -741.60944      39457.2 
  337900    290.04987   -1493.7172    500.55349    310.62827   -270.21102      39457.2 
  338000    317.78101   -1493.2187    508.81736    444.04384   -98.572598      39457.2 
  338100     311.8053   -1486.7779    511.15702    425.96318   -389.24797      39457.2 
  338200    304.31969   -1459.7692    493.33069    401.49725    184.27562      39457.2 
  338300    303.56581   -1505.3747    498.69068    357.86299   -125.86288      39457.2 
  338400     308.0503   -1466.8292    493.69409    411.56989     278.4915      39457.2 
  338500    302.36769   -1468.7321    482.22396     372.6532     161.6446      39457.2 
  338600    289.29188   -1505.2623     471.2043    266.32679    35.536812      39457.2 
  338700    296.37089   -1504.3113    474.62792    302.52203   -327.35191      39457.2 
  338800    295.67569    -1464.434    463.08558    327.73197   -96.288253      39457.2 
  338900    291.26357   -1470.1237    500.64388    339.76789    276.37075      39457.2 
  339000    302.15066    -1520.665    495.44407    332.96494   -296.39116      39457.2 
  339100    296.25249    -1500.976    454.99079    285.68801    50.116964      39457.2 
  339200    296.37833   -1494.4217    492.90647     330.7236    753.45457      39457.2 
  339300    291.38255    -1465.293    473.31064     317.8002    88.214783      39457.2 
  339400    283.37818   -1444.7966    497.56218    326.56797   -464.45607      39457.2 
  339500    290.65534   -1484.2743    461.49323    283.73258   -763.77345      39457.2 
  339600    297.31888   -1454.5561    475.20785    357.11839   -1040.7052      39457.2 
  339700    302.78479   -1483.7137    459.88442    337.20703   -601.20358      39457.2 
  339800     309.8796   -1460.6039    491.65585     423.9798   -174.38572      39457.2 
  339900    302.67674   -1437.9545    494.13299    416.72908    131.42334      39457.2 
  340000    294.93886   -1436.7995     480.4998     369.4686    22.937041      39457.2 
  340100    304.98205   -1462.3628    489.33722    397.88746   -382.22206      39457.2 
  340200    293.32098   -1510.1301    465.40183    273.76759   -400.23438      39457.2 
  340300    295.39815   -1538.5782    458.18329    247.43798   -347.69827      39457.2 
  340400    297.19197   -1517.8375    469.52162    287.58029    -316.9585      39457.2 
  340500    297.49374   -1525.9454    491.06699    302.37426    396.32174      39457.2 
  340600    297.13485   -1551.1118    467.93273    252.46039    174.35698      39457.2 
  340700    303.76328    -1533.978    486.91086    318.36751   -109.96761      39457.2 
  340800    302.26136   -1501.9886    477.98765    334.68245     7.884209      39457.2 
  340900    299.22617   -1503.5872    476.37295    317.82586    39.052678      39457.2 
  341000    297.53834   -1491.9419    515.64665    361.15792   -303.90718      39457.2 
  341100    300.70377   -1530.2207    470.02701    291.48828    47.893446      39457.2 
  341200    303.12212   -1501.6325    482.41355    343.33362   -10.479399      39457.2 
  341300    296.43566   -1488.8362    497.16229    340.82267    208.81079      39457.2 
  341400    302.16623   -1491.0867    461.75117    328.92029    143.18503      39457.2 
  341500    291.33101   -1516.4385     498.0992     291.2115    491.25465      39457.2 
  341600    302.20671   -1467.4935    485.93382    376.87806     259.3617      39457.2 
  341700    294.11679   -1466.3206    470.21526    325.96771     368.4776      39457.2 
  341800    298.87709   -1487.0079    492.06476    348.52778    13.264754      39457.2 
  341900    299.12477   -1464.8084    526.09987    405.87568   -307.35252      39457.2 
  342000    310.46548   -1477.1998     481.3488    399.71044   -99.658367      39457.2 
  342100    290.36551   -1488.4321    473.46604    290.24484   -433.04262      39457.2 
  342200    297.08635   -1496.1783    481.50683    320.74997   -363.73775      39457.2 
  342300    288.76958   -1472.3518    500.48682    326.17204   -598.15474      39457.2 
  342400    297.02081   -1445.5418    502.30582    391.89084   -363.82658      39457.2 
  342500    298.39987   -1465.3243    502.77707    378.77853   -424.64421      39457.2 
  342600    296.08206   -1448.7587    486.97734    369.12576   -411.72204      39457.2 
  342700    307.17525   -1538.6039    515.79246    357.96018    448.42737      39457.2 
  342800    295.37342   -1514.7572    503.88488    316.84939     197.6707      39457.2 
  342900    300.77459   -1461.8288     486.9847     377.1562    336.91873      39457.2 
  343000      298.684    -1452.177    486.71433    377.14028    125.08473      39457.2 
  343100    303.55897   -1433.8131    494.34667    425.04981   -126.88582      39457.2 
  343200    306.28475   -1424.0544    517.95395    470.66835    155.30566      39457.2 
  343300    284.84986   -1435.0625    472.57618    317.93135   -258.51574      39457.2 
  343400    290.51037   -1426.2997     481.5892    361.15154   -792.73123      39457.2 
  343500    296.89766   -1405.8326    502.99695    431.73759   -657.27936      39457.2 
  343600    304.38823   -1442.2178    491.25183     417.2779   -307.47954      39457.2 
  343700    300.01383   -1444.8559    501.03848    404.76328   -162.98209      39457.2 
  343800    316.92062   -1448.6891    501.18362    477.07222    119.48863      39457.2 
  343900    290.21376   -1454.8694    486.63162    336.29093   -72.328332      39457.2 
  344000    307.53718   -1429.8326    489.87691    442.44282    577.33168      39457.2 
  344100    308.54939   -1469.8875    489.10156    406.16256    467.20903      39457.2 
  344200    303.37636   -1467.0287    505.41402    402.08078    305.77155      39457.2 
  344300    296.56241   -1477.4652    474.31895    329.92011    242.26663      39457.2 
  344400    308.36931   -1514.8156    508.77068    380.09408     445.7253      39457.2 
  344500    307.70381   -1537.2812    481.21864    327.08497   0.33454077      39457.2 
  344600    298.92029   -1542.0774    491.48142    293.06913   -432.15727      39457.2 
  344700    289.76732   -1491.1544    456.36871    267.73625   -165.82726      39457.2 
  344800     299.1212   -1487.4251    506.89181    364.03489   -210.72544      39457.2 
  344900    298.16527   -1486.1598    483.57966     337.6911   -302.17837      39457.2 
  345000    307.76185   -1520.4986    481.02824    343.93807    216.77122      39457.2 
  345100    299.20168   -1510.4331    501.30474    335.80161    311.04797      39457.2 
  345200     303.4497   -1509.8878    492.51067    346.64796    497.43398      39457.2 
  345300    298.25908   -1499.9795    486.96531    327.67872    440.96443      39457.2 
  345400    297.86401   -1514.0749    478.15866    303.00083    336.92959      39457.2 
  345500    291.10747   -1501.2484    488.52142    295.81903    249.20926      39457.2 
  345600    299.63338   -1567.0626    468.24374    248.05156    487.85527      39457.2 
  345700      298.243   -1551.4323    479.02002    268.20834    326.43842      39457.2 
  345800    294.95409   -1522.2177    488.23005    291.84913   -47.943065      39457.2 
  345900    298.58674   -1513.9673    466.89538    295.09381   -150.66791      39457.2 
  346000    297.38779   -1518.0176    487.79103    306.54984    222.24797      39457.2 
  346100    297.97796   -1512.3318    459.17884    286.27632   -34.101402      39457.2 
  346200    306.04997    -1510.568    473.87222    339.01764    -71.67129      39457.2 
  346300    301.53257   -1525.3159     481.2348    311.32634   -248.09237      39457.2 
  346400     295.6119   -1582.7782    481.02581    227.04132   -15.703382      39457.2 
  346500    306.62753   -1565.3546    478.59856    291.55358    195.60447      39457.2 
  346600    289.40325   -1555.0583    483.84402    229.67119    34.349575      39457.2 
  346700    298.87976    -1532.606    483.08489     293.9618   -17.278797      39457.2 
  346800    305.57054   -1505.9109    476.93254    344.57998   -1058.2824      39457.2 
  346900    297.62058   -1495.0066    486.21546    329.03171   -1101.7926      39457.2 
  347000    299.72222   -1510.4929    470.70238    307.47933   -932.86151      39457.2 
  347100    300.10159   -1500.6935     502.4213    350.70294   -339.02887      39457.2 
  347200    296.08198   -1529.9272    446.47617    247.45575   -477.86032      39457.2 
  347300    302.77299   -1509.5691    491.39278    342.80691   -121.52252      39457.2 
  347400    307.54035   -1539.4979    493.85512       336.77      351.978      39457.2 
  347500     301.4523   -1522.6926     499.7075    332.06154      531.169      39457.2 
  347600    295.58251   -1532.3567    494.41336    290.71827    524.52149      39457.2 
  347700    295.26635   -1517.0322    467.67023    277.87847    290.02634      39457.2 
  347800    300.15078   -1524.2916    508.23236    333.13697    69.823897      39457.2 
  347900    304.26929   -1483.8363     486.1682    370.04109   -310.10652      39457.2 
  348000    295.06949   -1519.5762    480.87166    287.65094   -228.37125      39457.2 
  348100    308.20866   -1519.8404    465.90236    331.47885   -552.02085      39457.2 
  348200    301.00219   -1528.6084    499.58055    323.99548    376.29926      39457.2 
  348300    310.06847   -1538.0832    482.19812    337.89173    502.97982      39457.2 
  348400    298.07566   -1524.7061    485.79132    300.95368    148.71767      39457.2 
  348500    306.29256    -1480.496    502.26532    398.57321    804.50732      39457.2 
  348600    294.83454   -1502.2222    485.20169     308.2789    272.22771      39457.2 
  348700    299.38741   -1501.2178    484.09019    328.63724    382.59075      39457.2 
  348800    293.38054    -1521.888    458.48544    255.36107    322.97865      39457.2 
  348900    297.45565   -1510.2702    477.73959    304.55085    109.23811      39457.2 
  349000    297.07113   -1510.3388    493.59319    318.60737    741.41864      39457.2 
  349100    291.02339   -1475.8504    497.03854    329.35624   -10.847692      39457.2 
  349200    307.29451   -1448.7775    468.38909    400.91937    211.69613      39457.2 
  349300     295.1794   -1489.2996    462.47062    300.02055   -156.54327      39457.2 
  349400    314.54529   -1450.8533    518.42562     481.4728    286.26954      39457.2 
  349500    286.34008   -1452.5258    481.26163     315.8521    557.24483      39457.2 
  349600    310.60919   -1443.7066    488.79976    441.30062    547.18846      39457.2 
  349700    300.82649   -1477.2026    488.30003    363.33108    390.14002      39457.2 
  349800    297.46042   -1498.8323    491.61497    329.88556    645.45409      39457.2 
  349900    293.56612   -1468.1645    474.88167    326.31493    602.67902      39457.2 
  350000    306.45277   -1482.6827    496.06618    390.90759    76.382369      39457.2 
  350100    290.92005   -1480.0982      475.133    302.73829   -588.36337      39457.2 
  350200    307.14966   -1499.8498    467.68583    348.49268   -495.91504      39457.2 
  350300    304.02109   -1516.6814    466.57127    316.48342   -628.29014      39457.2 
  350400    299.88996   -1471.4982    502.09911     378.6247    -304.3135      39457.2 
  350500    296.72429   -1490.3835    496.91852    340.32894   -216.68237      39457.2 
  350600    299.84604   -1472.9962    452.44776    327.27792   -710.24454      39457.2 
  350700    307.09113   -1495.8213    498.43025     383.0025   -662.95805      39457.2 
  350800    285.96607   -1505.0612    476.00765    256.38152   -831.92344      39457.2 
  350900    290.04248   -1507.5478     502.8574    299.06844     73.34542      39457.2 
  351000    304.86351   -1488.9398     508.2806    389.72106    242.70585      39457.2 
  351100      295.625    -1490.857    501.73293    339.72856    468.19404      39457.2 
  351200    298.34738   -1466.9053    475.75458    349.93906   -233.42909      39457.2 
  351300    301.20807   -1484.2452    502.76506    372.46861     442.4654      39457.2 
  351400      303.209   -1469.6967    509.13823    402.38471    564.35409      39457.2 
  351500    293.71702   -1517.3078    480.71432    283.68265   -44.502917      39457.2 
  351600    298.84499   -1497.8857    487.29722    332.73813    132.79267      39457.2 
  351700    297.12966   -1494.5171    489.92846    331.02753    26.747741      39457.2 
  351800    295.73356   -1488.3462    476.22072    317.21512    465.76553      39457.2 
  351900    287.91907   -1540.0768    496.29085    250.42804   -334.02158      39457.2 
  352000    307.70937   -1516.9723    456.03475    322.23501   -304.41628      39457.2 
  352100    308.53725   -1556.5633     465.0398    295.37038   -280.69233      39457.2 
  352200    297.38253   -1489.6599    493.35726    340.45011   -73.824208      39457.2 
  352300    297.52607   -1503.6477    478.12286    311.87319    160.16415      39457.2 
  352400    307.13402   -1469.3849    511.76129    422.96275    178.23108      39457.2 
  352500    297.20944   -1495.8788     474.0152    314.11108    278.13256      39457.2 
  352600    307.68288   -1497.9603    499.98653    385.07969    764.50081      39457.2 
  352700    300.64403   -1492.6922    512.25728    370.97855     221.4848      39457.2 
  352800    298.74357   -1450.3738    487.07423    379.57121    300.11689      39457.2 
  352900    305.96761   -1450.0852    519.31724    444.57522   -30.306466      39457.2 
  353000    294.14431    -1424.662    484.26816     381.8029    -261.1001      39457.2 
  353100    299.55872   -1380.1317     537.1028    503.50597     151.7912      39457.2 
  353200    297.66044   -1450.4203    496.22143    383.80314   -540.00133      39457.2 
  353300    297.96879   -1453.8907    488.84124    374.33864   -641.42312      39457.2 
  353400    301.96341   -1433.9003    527.96586    451.40966    56.236534      39457.2 
  353500    292.22295   -1434.6766     496.9928    375.87637    -216.7239      39457.2 
  353600    316.24756   -1461.2128    465.91462    426.25405    213.41008      39457.2 
  353700     311.6788   -1498.0178    480.67109    383.66868    32.380911      39457.2 
  353800    304.87347   -1457.2454    507.54821    420.72782    222.42308      39457.2 
  353900    302.30171   -1484.6702    516.72251     390.9171    775.30649      39457.2 
  354000     289.3322   -1480.3083    458.67019     278.9279    183.17544      39457.2 
  354100    299.96199   -1439.2974    513.62439    422.67465    207.80648      39457.2 
  354200    299.45641   -1471.5325    468.59652    343.13896   -442.36458      39457.2 
  354300    289.13012   -1511.1024    503.57248    292.12776   -336.83989      39457.2 
  354400    294.48614   -1498.5955    475.14816      300.286   -96.284466      39457.2 
  354500    294.13824   -1490.9504    490.48945    321.70851   -166.56013      39457.2 
  354600    295.69977    -1519.009    467.57148    277.75114    172.82359      39457.2 
  354700     297.5228   -1457.8621    534.84409    414.36524      59.6971      39457.2 
  354800    310.05903   -1476.6528    489.51853    406.60015    558.54153      39457.2 
  354900    298.57398   -1500.1441    516.09026    358.05458    584.52178      39457.2 
  355000    296.11889   -1461.8194    494.58087    363.83415    404.43982      39457.2 
  355100    303.58408   -1467.2943    502.20536    399.54023    501.82329      39457.2 
  355200    298.09845   -1455.4992    490.09739    374.56912   -28.626813      39457.2 
  355300    298.09951   -1473.8286     516.3021    382.44915   -645.33593      39457.2 
  355400    302.96747   -1512.4917    491.20656    340.57229   -488.08166      39457.2 
  355500    313.11526    -1513.629    494.29782    388.14122   -168.61311      39457.2 
  355600    303.03574   -1505.4238    489.55559    346.29611     -385.355      39457.2 
  355700    303.72944   -1514.8841    472.23796    322.63639   -23.331519      39457.2 
  355800    310.42696   -1478.3478    478.96585    396.00638    -118.5918      39457.2 
  355900    302.77874   -1497.6684    494.00041    357.34111    168.26308      39457.2 
  356000    300.83384   -1506.9738    487.15753    332.45042    602.87716      39457.2 
  356100    299.18728   -1468.5537    484.86032    361.17186   -94.921637      39457.2 
  356200    303.62332   -1479.9671    520.81434    405.65277   -311.85975      39457.2 
  356300    292.82438   -1459.4784    485.32632    342.11151   -654.67378      39457.2 
  356400    295.85416    -1444.282    515.02938    400.63003   -811.39401      39457.2 
  356500    293.81487   -1481.0457    502.10956    341.77977   -782.92433      39457.2 
  356600    297.35142   -1465.7053    497.71894    368.62653   -262.98576      39457.2 
  356700    289.24869   -1484.4677    514.09984    329.82284   -681.42311      39457.2 
  356800    300.71265   -1486.0079    471.91874    337.63274   -132.60991      39457.2 
  356900    287.01736   -1475.3284    484.01295    298.84522   -161.40619      39457.2 
  357000    308.54259   -1466.2809    509.64502    430.28206   -119.06276      39457.2 
  357100    296.64848   -1463.3572    495.04374    365.13971    156.37945      39457.2 
  357200    303.11722   -1512.6522    508.06976    357.94814    437.94289      39457.2 
  357300    291.29943   -1443.2555    485.50673    351.66012   -18.535393      39457.2 
  357400    303.06376   -1452.3869    501.84091    411.74421    168.33055      39457.2 
  357500     285.9618   -1490.0203    509.02384    304.41943    75.339583      39457.2 
  357600    307.41092   -1473.3635    493.22891    401.69639    193.27798      39457.2 
  357700    300.33394   -1448.5914    496.21112    397.63928   -67.501658      39457.2 
  357800    306.02308   -1468.6413    503.24953    410.20081   -30.155567      39457.2 
  357900    300.62289   -1462.6458    506.55288    395.22544   -48.406676      39457.2 
  358000    296.10967   -1459.5322    511.18892    382.68793   -137.02891      39457.2 
  358100    297.73218   -1466.0281    505.52254    377.81894   -124.22051      39457.2 
  358200    304.41279   -1487.4727    523.39125    404.27275   -46.038671      39457.2 
  358300    296.03001   -1478.4932    498.48965    350.66957   -273.38927      39457.2 
  358400    304.25945   -1497.7076    524.62426    394.58168     97.59154      39457.2 
  358500    297.43187   -1495.3075    517.79068    359.45778    151.49765      39457.2 
  358600    303.43607   -1465.3025    510.32332    408.98466    94.272511      39457.2 
  358700    304.89436   -1505.6126    481.99036    346.89668     20.56265      39457.2 
  358800     307.6227   -1487.0023    501.85837    397.63901    36.805981      39457.2 
  358900    293.57793   -1508.8943    499.54669    310.30328     334.8231      39457.2 
  359000    310.51067   -1501.0207    504.23141    398.97524    344.03691      39457.2 
  359100    297.11659   -1534.2549    483.04938    284.35179    394.96177      39457.2 
  359200    296.10512   -1525.0821    488.13736      294.066    273.36509      39457.2 
  359300    303.38115   -1518.5842    519.63315    364.76592    326.65512      39457.2 
  359400    291.56127   -1536.1167    513.47483    287.94398    489.93656      39457.2 
  359500    295.33487   -1525.8978    488.50088    290.15148    370.41424      39457.2 
  359600    290.61169   -1511.8042    503.52742    298.04063    567.29636      39457.2 
  359700     292.8596   -1525.2465    504.54504    295.72049    -434.2246      39457.2 
  359800    297.34088    -1503.569    481.10965     314.1062   -16.374497      39457.2 
  359900    312.38816    -1517.999    508.70161     394.9066    516.85047      39457.2 
  360000    291.25606    -1511.232    489.24522    287.22717   -226.80131      39457.2 
  360100    306.89036   -1536.4371    491.72245    334.77643    48.362723      39457.2 
  360200    300.55639   -1501.9608      501.521     350.5797   -353.17711      39457.2 
  360300    304.37606   -1574.1426    466.25075    260.29721   -223.83023      39457.2 
  360400    299.50545   -1566.8652     492.4877     271.9179   -234.38422      39457.2 
  360500    304.83602   -1558.9532     495.7899    307.09336   -13.797776      39457.2 
  360600    303.38563   -1515.0693    466.12585    314.79369    289.99844      39457.2 
  360700    304.56285   -1525.8116    488.10196    331.31911   -173.68004      39457.2 
  360800    302.77289   -1485.9462    501.16276    376.19936   -649.48111      39457.2 
  360900    294.41972   -1466.8329    455.10205    311.70394   -810.40763      39457.2 
  361000    314.86213   -1521.2863    453.51744     347.5558   -681.07962      39457.2 
  361100     296.8055   -1501.4484    475.36013    308.07076   -935.84206      39457.2 
  361200    305.93976     -1512.15    487.53986    350.60793    70.019467      39457.2 
  361300      302.494   -1552.9258    504.03641    310.83978    258.29454      39457.2 
  361400    312.73802   -1504.2898    494.80001    396.28683    733.83796      39457.2 
  361500    300.53532   -1551.2235    493.73201    293.43327    45.204527      39457.2 
  361600    285.54115   -1505.1782    479.76112    258.10801    544.52269      39457.2 
  361700    302.70256   -1556.7189    489.83461    293.78232    82.740695      39457.2 
  361800    303.61896   -1574.1674    486.54899    277.16748    437.50905      39457.2 
  361900    307.31026   -1562.4289    460.79702    279.74667   -31.781399      39457.2 
  362000    304.80225   -1507.2567    483.90586    346.75407    522.70973      39457.2 
  362100    293.71802   -1525.8051    479.33777    273.81326    173.70743      39457.2 
  362200    304.67307   -1530.4945     484.9159    323.94564    83.073301      39457.2 
  362300    298.58002   -1527.2513    465.84668    280.73091     67.37095      39457.2 
  362400    304.72227   -1505.0732    491.87349     356.5457    202.94205      39457.2 
  362500    301.68069   -1527.5887    499.11229    327.59685    55.862508      39457.2 
  362600    298.06613   -1483.3586    494.27039    350.73739    75.948627      39457.2 
  362700      301.113   -1491.5425    511.27843    373.25742   -183.52968      39457.2 
  362800    297.84627   -1505.5544    515.37273    348.65568    16.587166      39457.2 
  362900    305.07866   -1499.3175    497.16886    369.19874    -263.0819      39457.2 
  363000    296.86981   -1498.4814    514.86868    350.83532   -556.59059      39457.2 
  363100    294.33837   -1506.8116    491.49806    307.75555   -625.54361      39457.2 
  363200    306.71757   -1483.8708    487.69448    382.53804    -218.2861      39457.2 
  363300    299.93612   -1478.5316    484.98851    354.68825    -218.5427      39457.2 
  363400    298.20926   -1496.8341     502.0241    345.65899   -381.73413      39457.2 
  363500    293.38039   -1527.2988    502.81697    294.28107    41.953498      39457.2 
  363600    283.75596    -1541.775    486.03683    219.76235   -447.58269      39457.2 
  363700    286.60046   -1499.9077    498.46327    286.84223    58.568539      39457.2 
  363800    298.51242   -1467.8358    495.80153    369.79741   -25.363354      39457.2 
  363900    307.80703   -1496.5244    511.82237    398.90953    71.077046      39457.2 
  364000    306.47608   -1499.6516    449.29123     327.2685   -587.75805      39457.2 
  364100    299.27263   -1502.5776    495.17167    337.84293   -508.21145      39457.2 
  364200    294.89083   -1510.7091    497.09473    311.93805   -760.98099      39457.2 
  364300    291.53409   -1520.7535    485.99818    275.70837   -268.54868      39457.2 
  364400    303.70477   -1511.0738    490.61304    344.71089    -638.7886      39457.2 
  364500    295.58313   -1523.8794    480.91508    285.70001   -386.12105      39457.2 
  364600     297.3196   -1492.6747    500.38129    344.17649    106.93794      39457.2 
  364700    317.38251   -1502.3344    473.15608    397.47556    137.91028      39457.2 
  364800     296.6297   -1506.1002     486.5279    313.79642   -183.33703      39457.2 
  364900    308.75636   -1503.9142    483.94499    367.90966    109.73732      39457.2 
  365000    302.90846   -1540.1761    490.58875    312.00484   -161.53627      39457.2 
  365100    301.58889   -1470.1995    480.82866     366.2898    182.14293      39457.2 
  365200    301.50086   -1513.3827    492.66277    334.54499   -147.26444      39457.2 
  365300     296.6934   -1546.2186    479.62241    267.05888    8.6968275      39457.2 
  365400    317.39296   -1531.1744    493.87514    389.40168   -312.54525      39457.2 
  365500    290.52004   -1553.5138    482.45118    234.84279    221.32033      39457.2 
  365600    284.43931    -1530.371    480.56259    228.76374    218.30993      39457.2 
  365700     291.5855   -1516.4698    482.37288    276.59785    209.23539      39457.2 
  365800    309.70355   -1506.1064    487.82137    373.85151    238.21843      39457.2 
  365900    299.26332   -1500.1952    472.18234    317.19417    33.764292      39457.2 
  366000    295.75264   -1501.4739    491.76032    319.71274   -363.39831      39457.2 
  366100    303.44321   -1460.2464    467.76683    371.51628    -154.9812      39457.2 
  366200     296.1151   -1515.9125    484.54147    299.68455   -533.28324      39457.2 
  366300     297.9828   -1531.0508    478.58353    286.98374    62.490103      39457.2 
  366400    296.62146    -1509.623    458.91162    282.62036   -158.88105      39457.2 
  366500    308.76323   -1482.5324    518.86954    424.24688   -312.82338      39457.2 
  366600     294.1513   -1536.8358     468.6975    254.08988    105.15075      39457.2 
  366700    299.27596   -1486.1446    485.67132     344.7906     578.4502      39457.2 
  366800    294.79059   -1486.8701    494.56902    332.80078    92.602305      39457.2 
  366900    302.27096   -1515.3491    501.17987    344.55732   -275.42192      39457.2 
  367000    299.16614   -1483.3506    497.63485    359.05451    310.44704      39457.2 
  367100    300.35631    -1515.768    474.56472    308.91684    313.14084      39457.2 
  367200    298.61159   -1513.6507    486.59544    315.22218    990.27338      39457.2 
  367300    297.24731   -1484.6905    484.46722    335.92174    532.09958      39457.2 
  367400    292.66812   -1514.0722    459.48178    260.97083    368.63694      39457.2 
  367500    303.65265   -1493.1187    495.43677    367.25544   -399.86347      39457.2 
  367600     297.0955   -1465.2323    473.43233    343.66256   -84.780597      39457.2 
  367700    299.97059   -1469.2585    478.30811     357.4359   -120.81121      39457.2 
  367800    301.55206   -1472.6584    514.65829    397.49498   -355.51604      39457.2 
  367900    290.83642   -1526.6378    489.31924    270.00911   -62.457015      39457.2 
  368000    295.20675   -1495.6561    476.21999    307.53641    275.74695      39457.2 
  368100    299.96458   -1502.9354    509.83051    355.25439    617.53955      39457.2 
  368200    296.28165   -1498.4457    505.52803    338.88656    214.81979      39457.2 
  368300     293.1796   -1496.7711    485.67541    306.76464    329.83755      39457.2 
  368400    303.31982   -1493.3953    520.61386    390.65986    276.42727      39457.2 
  368500    290.01485   -1502.2012    508.77835    310.21178    17.871218      39457.2 
  368600    311.68563    -1561.271    465.26429    305.03934    147.86254      39457.2 
  368700    299.29194   -1528.0267    484.21638    301.52544   -115.29531      39457.2 
  368800    295.23804   -1474.0963    486.00288    339.01978    1031.8138      39457.2 
  368900    298.13811   -1477.9578    496.99418     359.1855    985.42142      39457.2 
  369000    305.53256    -1500.596    501.53139    374.32308    1191.5801      39457.2 
  369100    296.07311   -1461.7239    503.61601    372.75896    481.03481      39457.2 
  369200    302.38843   -1459.8036    484.04843    383.49944    265.47705      39457.2 
  369300    300.85537   -1458.8432    497.46919    390.98943    167.89296      39457.2 
  369400    294.76769   -1510.8379    490.45054    304.61159   -12.088253      39457.2 
  369500    308.45096   -1517.6097    480.70275    349.59911   -500.08062      39457.2 
  369600    301.96288   -1472.9649    477.80872    362.18554   -862.14534      39457.2 
  369700    298.09524   -1511.7991     465.7796    293.93695   -857.75236      39457.2 
  369800    304.27275    -1500.717    481.38069    348.38841   -649.75069      39457.2 
  369900    290.64132    -1517.416    497.83112    286.86576    112.70187      39457.2 
  370000     316.1969   -1531.7892    496.54988    386.08518    15.616972      39457.2 
  370100    291.46049   -1536.9448    495.54429    268.73237   -29.639288      39457.2 
  370200    298.82363   -1500.3745    512.18118    355.03734     269.4873      39457.2 
  370300    306.31366    -1462.727    496.62264    410.79439   -698.99775      39457.2 
  370400    306.25514   -1503.1748    491.15617    364.61711   -309.45861      39457.2 
  370500    291.21583   -1521.6739    483.04418    270.40339   -440.72305      39457.2 
  370600    289.84324   -1487.4431    505.90328    321.32345    564.51821      39457.2 
  370700    308.04012   -1480.0227    448.08801    352.72466    -25.53744      39457.2 
  370800    306.08522   -1488.1514    502.70197    390.42243   -188.29615      39457.2 
  370900    306.18804   -1457.7083    511.43834    430.06418   -474.56212      39457.2 
  371000    297.20007   -1504.9719    493.78847     324.7492   -418.61006      39457.2 
  371100    303.88438   -1464.7538    493.52056    394.74576    240.29233      39457.2 
  371200    307.82725   -1517.0086    500.37439    367.06823     354.8524      39457.2 
  371300    294.36483   -1491.6104    487.76887    319.34644    394.49704      39457.2 
  371400    301.34851   -1502.7796    489.90401    341.70454    234.46208      39457.2 
  371500    306.05278   -1474.9016    506.71166    407.53614    413.72357      39457.2 
  371600    301.35868   -1515.8103    491.30664    330.12214    425.71648      39457.2 
  371700    295.46324   -1545.6698     492.7536    275.20925    23.621107      39457.2 
  371800    297.07945   -1533.8316    488.03152    289.59032    313.79048      39457.2 
  371900    305.39699   -1536.3898    493.75824    330.14675    277.88213      39457.2 
  372000    299.38327   -1553.9294    451.22299    243.03985   -506.74306      39457.2 
  372100     296.8801   -1548.1017    487.41229    273.80493   -791.77292      39457.2 
  372200    305.85241   -1507.4328    491.12728    358.51987   -253.22111      39457.2 
  372300    291.08784   -1514.6028    501.45726    295.31219   -347.96338      39457.2 
  372400    300.20634   -1544.7777    474.50774    279.17601   -560.57092      39457.2 
  372500    305.48554   -1522.2402    472.69325    323.62936   -228.43257      39457.2 
  372600    309.19953   -1543.8807    477.00095    322.99116   -160.65765      39457.2 
  372700    297.53121   -1505.3539    489.14642    321.21366   -122.91677      39457.2 
  372800    293.46272   -1547.4255    469.17398    240.88145   -111.92509      39457.2 
  372900    290.82289   -1534.3848    485.55955    258.44154   -257.88589      39457.2 
  373000    297.95945   -1517.1382    451.54814    273.75607    330.71831      39457.2 
  373100    302.81379   -1515.6255    482.83765    328.37882   -332.01203      39457.2 
  373200    308.01824   -1516.2053    498.37007    366.72571   -203.42171      39457.2 
  373300    300.69939   -1553.0166    458.03752    256.68318   -453.24471      39457.2 
  373400    296.73257   -1559.3778    447.83722    222.29057    59.686236      39457.2 
  373500    305.43002   -1597.8765    503.10396     278.1542   -186.39775      39457.2 
  373600    293.02197   -1607.8755    474.29577    183.57207    162.38949      39457.2 
  373700    296.69885   -1588.0094    473.31332    218.98349   -125.32262      39457.2 
  373800    300.40499   -1586.1195    500.34441    264.56381    100.43384      39457.2 
  373900    302.04093   -1572.7147     449.8053     234.7832    287.13048      39457.2 
  374000    313.50733    -1598.554    501.28633    311.96707    171.17189      39457.2 
  374100    288.38136    -1601.398    459.47659    154.37049    311.26798      39457.2 
  374200      293.162   -1586.6627    501.90867    233.02721    754.93998      39457.2 
  374300    300.54124   -1571.5688    484.53852    263.92108   -76.934212      39457.2 
  374400     293.9938   -1583.6797    467.62123    205.46173   -115.00888      39457.2 
  374500    295.00142   -1579.7387    473.70343    220.01422   -423.52916      39457.2 
  374600    297.57564   -1545.5458     491.1168    283.19187   -486.57986      39457.2 
  374700     296.5503   -1549.0364    482.16206    266.13756   -291.00475      39457.2 
  374800    298.78355   -1567.5575    479.06748    254.56046    391.62538      39457.2 
  374900    302.53789   -1613.7525    476.10493    222.27891    369.26261      39457.2 
  375000    296.18235   -1578.0624    464.55497    217.85044    399.68568      39457.2 
  375100    308.12778   -1578.7075    481.89424    288.24008    390.82727      39457.2 
  375200    306.10765   -1562.7734    487.45229    300.65157    141.01171      39457.2 
  375300    290.19256    -1531.407    490.41599     263.4424    634.44168      39457.2 
  375400    291.59775   -1626.9127    475.67999    159.51715    152.87299      39457.2 
  375500    304.97218   -1562.4099    505.45599    313.91484     912.0559      39457.2 
  375600    292.11522   -1576.0253    499.73574    236.78633    360.38938      39457.2 
  375700    298.64612   -1546.4564    488.39881    284.37506   -0.4771333      39457.2 
  375800    285.95577   -1562.3637    461.15529    184.18043    52.591441      39457.2 
  375900    309.90655   -1528.5279    494.32882    358.84993    179.18397      39457.2 
  376000    306.13816   -1568.3135    498.39029    306.18663   -29.315422      39457.2 
  376100    289.56581   -1596.2648    486.16067    191.51198   -229.95784      39457.2 
  376200    306.56035   -1585.4543    482.70091     275.2543   -109.16182      39457.2 
  376300      292.192   -1567.3417    468.89702    214.97637   -170.51135      39457.2 
  376400     295.6752   -1545.7658    509.77295    293.08537    280.65519      39457.2 
  376500    304.04128   -1550.1011     496.2703    312.85348    198.42516      39457.2 
  376600    305.51571    -1571.929    484.04708    285.43004    239.98273      39457.2 
  376700    302.40878   -1544.9466    471.01671    285.41618   -305.82001      39457.2 
  376800    296.16663   -1540.0411    485.10723    276.35335   -655.10095      39457.2 
  376900    294.42783   -1568.4229    483.00892    238.05727   -1100.0743      39457.2 
  377000    287.46092   -1578.3772    479.06466    192.84202   -494.72629      39457.2 
  377100    300.68753    -1578.954    463.70856    236.36346   -791.57643      39457.2 
  377200     303.1715   -1568.6751    511.40186     305.5013   -473.61076      39457.2 
  377300    305.27697   -1533.1796    478.83173    317.89089   -408.15941      39457.2 
  377400     305.9659   -1532.1372    490.81421     334.0126   -510.59363      39457.2 
  377500    311.87071   -1582.4155    465.68735    285.14989     301.8411      39457.2 
  377600    297.49783   -1531.7992    503.81932    309.29123   -174.45794      39457.2 
  377700    296.43676   -1527.6875    479.75892    284.57292   -516.67786      39457.2 
  377800    299.17251   -1524.0664    490.19794    310.93033   -737.97385      39457.2 
  377900    302.19906   -1463.1977    510.80218    406.00783   -516.63306      39457.2 
  378000    303.36404   -1490.1579    465.46532    338.94749    450.71921      39457.2 
  378100    300.73111    -1498.267     500.1742    353.71208   -54.863776      39457.2 
  378200    302.77606    -1469.969    538.05506    429.08303    418.26647      39457.2 
  378300    295.23173   -1477.3481    474.94021    324.67689   -182.41723      39457.2 
  378400    290.90433   -1480.2726    493.53768    320.89797    -544.1175      39457.2 
  378500     304.1969    -1506.819    487.92236    348.48717   -3.9666577      39457.2 
  378600    301.32162   -1487.4277    485.82719    352.85872    130.84545      39457.2 
  378700    297.08546   -1494.1947    527.26843    368.49121   -77.700325      39457.2 
  378800    294.56054   -1506.6679     474.8738    292.27369   -478.92366      39457.2 
  378900    300.18549   -1461.2201    499.57685    387.70899   -425.09765      39457.2 
  379000    306.43926   -1419.1818    494.37524    452.65677   -639.52092      39457.2 
  379100    307.88882   -1460.3483    492.90987    416.54079    93.852907      39457.2 
  379200    293.13471   -1479.6978    497.92971    335.89048    190.90443      39457.2 
  379300    307.85206   -1514.8913    489.88517    358.80786    239.42153      39457.2 
  379400    306.26904   -1506.9101    489.28999    359.07805    326.48312      39457.2 
  379500    306.23452      -1507.4    486.12591    355.26895   -124.30912      39457.2 
  379600     299.9657   -1478.6495    495.51388    365.22864   -406.41959      39457.2 
  379700    294.96583   -1469.2657    499.17555    355.79941   -218.90824      39457.2 
  379800    296.73675   -1436.7818    485.55352    382.62173   -184.48621      39457.2 
  379900    292.45021   -1483.7574    511.99381    342.81807    107.91518      39457.2 
  380000    307.32902   -1468.9947    492.72996    405.19812    627.27555      39457.2 
  380100    297.12755   -1485.2345    486.33511    336.70725    179.02466      39457.2 
  380200    300.91143   -1488.5927     511.0134    375.03604    146.40578      39457.2 
  380300    291.96585   -1493.7174    479.69734    298.38442    209.37093      39457.2 
  380400     300.6608   -1492.4154    510.47742    369.55088   -201.82391      39457.2 
  380500    299.61946   -1483.5513    458.62719    321.88383   -295.44138      39457.2 
  380600    296.58081   -1491.5687    487.77279    329.35307   -974.23477      39457.2 
  380700    305.15787   -1485.7096    471.20756    357.20137   -1025.1772      39457.2 
  380800    297.41581   -1504.5904    505.05294     337.3649   -692.82461      39457.2 
  380900     295.6022   -1521.4808    462.12914    269.39841   -866.48129      39457.2 
  381000    298.71337   -1513.8711    492.51777    321.38164   -664.70851      39457.2 
  381100    302.62155   -1500.8188    481.96663    341.45028   -763.39329      39457.2 
  381200    291.45725   -1544.2548    497.21359    263.07708   -97.433847      39457.2 
  381300    290.96968    -1557.315    474.19719    224.80874    303.84108      39457.2 
  381400    292.66684   -1527.9681    496.41092    283.99832    642.28095      39457.2 
  381500    298.96766   -1582.0999    493.27437    255.05247    431.96694      39457.2 
  381600    303.51136   -1599.5627    487.93762    252.67712   -20.766825      39457.2 
  381700    296.71758   -1574.9616    497.39714    256.19933     357.8605      39457.2 
  381800    290.83348   -1536.5299    487.75206    258.53652   -2.8271056      39457.2 
  381900    295.48428   -1515.3718    482.48789     295.3361   -486.05389      39457.2 
  382000    304.47849   -1535.2162    478.72306    312.15639   -53.258196      39457.2 
  382100    291.84713   -1583.1291    477.77704    206.51877     19.42127      39457.2 
  382200     300.5045   -1555.4147    483.17528    278.54681   -146.94173      39457.2 
  382300    297.47915   -1522.1333    483.24989    298.30371   -417.18729      39457.2 
  382400      305.231   -1533.5904    473.87566    312.31739    21.812713      39457.2 
  382500    308.26818   -1540.8059    516.93371    361.81227    138.62922      39457.2 
  382600    291.19105    -1555.713    502.96918    256.17788   -93.157525      39457.2 
  382700    302.53045   -1535.3807    484.52456    309.03686   -116.24661      39457.2 
  382800    307.77001   -1500.7133     472.9955    355.72737   -163.99733      39457.2 
  382900     303.7466   -1517.3495    487.51169    335.52188    -8.211626      39457.2 
  383000    299.00677   -1490.4297    476.81508    330.43923    18.929655      39457.2 
  383100    310.83178   -1511.8212    508.86296    394.24977   0.98653968      39457.2 
  383200    299.73026   -1516.1151     504.3395    335.53042    -271.6477      39457.2 
  383300    300.78585   -1529.7178    486.17495    308.50802   -747.44639      39457.2 
  383400    297.23684   -1574.4576    465.74282    227.38309   -383.05223      39457.2 
  383500    292.34588   -1505.2874    486.00624    294.83157   -423.74024      39457.2 
  383600    300.94975   -1579.3186    456.44793    229.91698   -400.24694      39457.2 
  383700    290.26919   -1541.9084    516.48993    279.35939    95.990514      39457.2 
  383800    296.84915   -1511.7726    499.85865     322.4413    124.60176      39457.2 
  383900    298.15759   -1512.3436    469.85943    297.75253    202.68507      39457.2 
  384000    298.12234   -1481.4357     516.2678     374.9104     274.8071      39457.2 
  384100    307.57664   -1513.8814      472.314    341.00852   -288.66774      39457.2 
  384200    305.22151   -1516.2901    493.01961    348.71903   -250.97951      39457.2 
  384300    301.80553   -1523.0495    497.78395     331.3689   -408.63735      39457.2 
  384400    301.04946   -1531.8633    467.76097    289.13353    28.069795      39457.2 
  384500    299.29388   -1530.7666     479.6031    294.18091   -392.96302      39457.2 
  384600    307.14771   -1531.7367    478.41453    327.32563    63.009363      39457.2 
  384700    300.19952   -1528.5931    501.41582    322.23805   -494.52158      39457.2 
  384800    291.66575   -1503.6451    500.17939    307.58983    -255.3711      39457.2 
  384900    305.55771   -1547.1075    500.95452    327.34776   -363.02625      39457.2 
  385000    299.51033   -1533.6863    474.61756    287.24868   -239.07606      39457.2 
  385100    307.03419   -1547.9623      489.253    321.42826    561.19233      39457.2 
  385200    296.43781   -1522.6526    486.96661    296.82028    272.86015      39457.2 
  385300    302.29379   -1509.2373    513.55307    363.14498    512.70606      39457.2 
  385400    294.81472   -1529.4833    490.46333    286.19032    83.816786      39457.2 
  385500    306.36117   -1475.0626    519.02719    421.07692   -213.16286      39457.2 
  385600    300.23106   -1490.0101    484.92542    344.47239   -562.30536      39457.2 
  385700    309.12535   -1524.3816    446.37014    311.52597    -320.8324      39457.2 
  385800    288.93414   -1528.1245    513.60022    284.25245   -805.76215      39457.2 
  385900    303.32851   -1501.2624    497.37741    359.59533   -356.83908      39457.2 
  386000    299.40762   -1533.3922    492.42525     304.8887   -184.43106      39457.2 
  386100    299.17171    -1547.647    467.87784     265.0261   -26.203309      39457.2 
  386200    296.15556   -1511.2892    496.83714    316.78536   -264.28402      39457.2 
  386300    295.57717   -1530.8498    479.33631    277.12413   -217.25349      39457.2 
  386400    306.50324   -1548.5303    485.87887    315.09951    249.06357      39457.2 
  386500    296.40188   -1543.3361    491.10573     280.1143    317.09215      39457.2 
  386600    307.27752   -1562.2145    471.38907    290.40594    487.69656      39457.2 
  386700    293.60618   -1556.6805    483.92421    247.02155    340.32909      39457.2 
  386800    305.63957   -1516.1114    486.89151    344.64881    174.89954      39457.2 
  386900    292.76327     -1544.33    490.71035    262.36926   -366.48055      39457.2 
  387000    301.28589   -1563.3539    487.80623    278.75093   -83.747757      39457.2 
  387100     300.6598   -1515.7626    485.16355    320.88522   -253.37403      39457.2 
  387200    293.31537   -1487.4977    488.79498     319.7679   -992.80372      39457.2 
  387300    301.45259   -1503.6369    479.88644    331.29748   -368.81108      39457.2 
  387400    304.43837   -1520.7772    506.41031     354.1023  -0.52137554      39457.2 
  387500    305.59002   -1498.6776    485.40971    360.37805    164.10857      39457.2 
  387600    290.09886   -1547.3632    486.52443    243.17346    158.92252      39457.2 
  387700    292.11235   -1490.3045    498.98772    321.74618    44.045682      39457.2 
  387800    291.50451   -1453.9144    503.88413    360.30046    561.06563      39457.2 
  387900    298.31209   -1512.0807    514.89768    343.74818     363.7094      39457.2 
  388000    302.71352   -1507.5886    479.81729    332.94453     830.1063      39457.2 
  388100    308.22497    -1538.322    519.22884    366.39709    357.65886      39457.2 
  388200     302.3396   -1557.5732    473.17865    274.64053    412.55785      39457.2 
  388300    295.23977   -1544.1511    496.06761    279.03739    287.55371      39457.2 
  388400    298.85306    -1538.163    492.69237    297.89232    558.52714      39457.2 
  388500    303.78552   -1561.8892    503.83295    307.47838   -14.521791      39457.2 
  388600    295.02023   -1578.4205    469.62202    217.33561    23.955602      39457.2 
  388700    305.21977   -1533.3187    478.16022    316.82314    331.89169      39457.2 
  388800    299.43493   -1530.3595    497.26285    312.88173  -0.31876804      39457.2 
  388900    311.46443   -1537.3389    489.67284    352.38571    185.81339      39457.2 
  389000    296.37709   -1490.1724    498.81578    340.87666   -29.299611      39457.2 
  389100    307.26897    -1509.612    501.18803    372.76898    69.282322      39457.2 
  389200    296.97497   -1513.9303     471.8857    292.87615    500.50194      39457.2 
  389300      303.849   -1555.8828    507.79711    317.73425    562.50792      39457.2 
  389400     296.8006   -1560.6486      458.795    232.28334    966.22636      39457.2 
  389500    296.05973   -1584.8418    502.51821     248.4831    516.71822      39457.2 
  389600    294.04676   -1565.3594     491.1636    247.56249    827.55879      39457.2 
  389700    293.84498   -1572.9855    499.70856     247.5744    937.05436      39457.2 
  389800     309.6224   -1581.6403    490.69005    300.82146    673.50458      39457.2 
  389900    301.04222   -1537.8899    514.98059      330.294    227.39222      39457.2 
  390000    300.81214   -1527.1069    517.20455    342.26675   -51.969582      39457.2 
  390100    300.26793   -1541.7927    460.24505    268.17517   -65.358801      39457.2 
  390200    303.86754   -1508.6304    495.21552    352.48845    289.26691      39457.2 
  390300    302.67657   -1540.4887    493.59857     313.6597    93.539906      39457.2 
  390400     295.3593   -1536.1497    501.76579    293.27436     687.1889      39457.2 
  390500    309.03532   -1536.3479    493.16361    345.94854    210.89641      39457.2 
  390600    292.38045    -1492.419    481.30009    303.14918   -139.65805      39457.2 
  390700    309.72296   -1525.3505     486.2396    353.11287    -121.8591      39457.2 
  390800    290.84878   -1515.9749    488.63447    280.04272    240.30664      39457.2 
  390900    302.59987   -1518.8883    494.20564    335.52233    201.45469      39457.2 
  391000    297.59831    -1503.335    486.24748    320.63527   -94.945714      39457.2 
  391100    306.87634   -1555.2741    482.15142    306.30536   -258.73651      39457.2 
  391200    302.54142   -1567.5269     492.2276    284.64302   -436.38582      39457.2 
  391300    301.71203   -1560.5594    497.62768    293.28238   -5.0507481      39457.2 
  391400    308.53875   -1530.3209    469.21448     325.7943   -40.527841      39457.2 
  391500    305.64214   -1528.7344    472.78534    317.93119   -443.28375      39457.2 
  391600    300.40218   -1527.2487    490.96015    314.03772   -648.11951      39457.2 
  391700    287.43449    -1558.567    463.81336    197.28208    76.721265      39457.2 
  391800    308.81908   -1542.4042    505.69765    351.45425   -240.47444      39457.2 
  391900     312.4085   -1550.7803    496.84884    350.36401    163.49459      39457.2 
  392000    300.78258   -1525.5725    470.85693    297.32067    317.84814      39457.2 
  392100    298.22758   -1516.6772    509.97674    333.85091    549.67374      39457.2 
  392200    299.40959   -1532.7884    495.70958    308.78572   -400.58249      39457.2 
  392300     297.9311   -1554.3302     484.8968     269.7852     -31.0882      39457.2 
  392400    299.08155   -1562.4161    514.90709    296.88096    167.65443      39457.2 
  392500    313.70872    -1526.698    510.30167    393.74371   -50.503524      39457.2 
  392600    295.77113   -1480.4573    515.11282    364.16493   -143.77702      39457.2 
  392700    295.47164   -1507.0966      497.957    319.02357     -517.427      39457.2 
  392800    287.86382   -1488.0456    519.19337    325.11338    -472.1755      39457.2 
  392900    303.61194   -1453.9168    512.19572    423.03327   -627.21179      39457.2 
  393000    295.72914   -1454.7203    507.09485    381.69525   -730.98699      39457.2 
  393100    307.29629   -1433.9531    509.68018     457.0428   -18.183584      39457.2 
  393200    314.79768   -1477.5419    501.26012    438.75315   -67.848804      39457.2 
  393300    308.65761   -1466.0599     507.3725    428.74756    178.19419      39457.2 
  393400     299.9733   -1470.4338    466.41566    344.38033   -270.36473      39457.2 
  393500    301.53796   -1468.1312    523.07148    410.37199   -314.59348      39457.2 
  393600    303.06417   -1474.3599    466.26417    354.19636   -622.63686      39457.2 
  393700    302.77069   -1468.4968    508.87943    401.35549   -238.03694      39457.2 
  393800     299.8588   -1483.0518    484.62215    349.45409   -270.50461      39457.2 
  393900    305.89097   -1524.9968    488.73295    338.73492   -100.64792      39457.2 
  394000    304.00479    -1496.113    506.15766    376.56491    5.1818003      39457.2 
  394100    300.93133   -1530.4884    484.02906    306.24548     -520.598      39457.2 
  394200     300.0555   -1459.0813    501.28578    390.97237   -696.40967      39457.2 
  394300    309.45785   -1494.6651    489.99172    386.35873   -277.57238      39457.2 
  394400    296.72474   -1529.8573    499.73183     303.6705   -170.89975      39457.2 
  394500    289.67515   -1566.1773    486.69181    222.62216   -160.62374      39457.2 
  394600    296.78888   -1509.0093     526.7718    351.84679    786.44933      39457.2 
  394700    300.60322   -1547.2797    522.79551    326.74575    596.93235      39457.2 
  394800    297.81843   -1482.0452     509.0992    365.76616    387.62323      39457.2 
  394900     306.1219   -1507.5116    526.24124    394.76645    179.42114      39457.2 
  395000    299.35432   -1501.9936    498.58671    342.20922    162.90351      39457.2 
  395100    294.72537   -1530.6363    515.02072    309.19309    245.58901      39457.2 
  395200    310.09464   -1505.5798    494.13096    382.44569    -272.4662      39457.2 
  395300    299.53038   -1536.2614    495.47011    305.61617   -463.15177      39457.2 
  395400    301.02212   -1505.4328    487.68548     335.3656   -331.98188      39457.2 
  395500    300.51473   -1526.9773    509.66099    333.51593     150.8928      39457.2 
  395600    296.86326   -1490.4443    502.11712    346.09141    524.22404      39457.2 
  395700     306.2172   -1520.6471     494.6355    350.45353    319.82313      39457.2 
  395800    304.68942   -1501.0776    506.62319     375.1433    67.259251      39457.2 
  395900    299.86536   -1486.9579    514.39215    375.34748   -401.14339      39457.2 
  396000     296.2315   -1515.2404    496.48554    312.82399   -407.72672      39457.2 
  396100    297.71112   -1513.6872    497.12569     321.6683   0.36394302      39457.2 
  396200    299.17004   -1481.2283     511.9852    375.54462   -158.64952      39457.2 
  396300     309.0734   -1472.0093    519.18573    436.48038   -113.61548      39457.2 
  396400    305.29068   -1494.1463    495.02912    373.18319   -3.1901502      39457.2 
  396500    298.46739   -1474.7236    511.37185    378.27756    143.85019      39457.2 
  396600    295.87305   -1512.9563    487.86185    304.87318    792.01201      39457.2 
  396700    299.33795   -1551.0653    486.96323    281.44043    692.04702      39457.2 
  396800     303.2678   -1530.1462    500.56963    333.63084    -391.6469      39457.2 
  396900    293.53553   -1513.8265    506.49535    312.12918   -808.47283      39457.2 
  397000      296.999   -1486.1402    476.50927     325.3979   -563.57607      39457.2 
  397100    301.04123   -1480.4658    505.05116    377.78422    36.316949      39457.2 
  397200    303.99338   -1533.6582    518.62543    351.43616   -141.29835      39457.2 
  397300    293.11051   -1523.4062    472.15609    266.29968    14.137732      39457.2 
  397400    303.54754   -1549.0112    506.91784    322.37148   -123.31073      39457.2 
  397500    294.83554   -1518.8129    503.59092     310.0819    241.02071      39457.2 
  397600    302.77709   -1532.7101    491.72517    320.01668    172.15578      39457.2 
  397700    303.54478   -1497.0402    518.34325    385.75552    41.060857      39457.2 
  397800    288.97002   -1528.7542    484.18498    254.36875   -24.379673      39457.2 
  397900    297.06136   -1537.7126    494.03823    291.63478    -25.79535      39457.2 
  398000    303.60791   -1508.3809     482.8689    339.22423   -2.4323748      39457.2 
  398100    297.59167   -1528.1056    504.40305    313.99036    213.56776      39457.2 
  398200    310.84789    -1548.746    493.06612    341.60054    185.05736      39457.2 
  398300     301.2259    -1570.645    487.81579     271.1997    333.28217      39457.2 
  398400    301.42728   -1520.8968    516.51117    350.54859   -306.24003      39457.2 
  398500    295.30134   -1532.7151    498.68376    293.36639    21.389908      39457.2 
  398600     302.1688   -1547.6944    477.22447    287.79738    -99.74203      39457.2 
  398700    289.80561   -1531.3227    510.93699    282.30834   -116.40561      39457.2 
  398800    302.47027   -1546.1014    512.82574    326.34682   -559.20092      39457.2 
  398900    302.64518    -1550.745     501.7608    311.42452   -116.91142      39457.2 
  399000    293.63389   -1551.1738    495.62652    264.35511     357.7776      39457.2 
  399100    304.02236   -1564.0625    468.81847    271.35523   -268.81412      39457.2 
  399200    290.63666   -1529.7484    482.06996    258.75116    398.37701      39457.2 
  399300    311.40284   -1547.9895    490.26435     342.0498    454.60764      39457.2 
  399400    292.27416   -1569.6401     522.0056    266.15583     414.8865      39457.2 
  399500    285.75423    -1530.549    499.28381    253.21767    518.11425      39457.2 
  399600    290.51401   -1552.7357    497.59455    250.73718    584.71475      39457.2 
  399700    293.98894   -1563.0237    506.94797    265.42265   -165.51501      39457.2 
  399800     293.1416   -1552.3596    489.33721    254.66717   -375.58495      39457.2 
  399900    296.11864   -1521.9024    483.31699    292.48609   -231.60995      39457.2 
  400000    296.65974   -1567.1229    509.90224    276.28311   -30.785425      39457.2 
  400100    290.86721   -1540.9555    505.26051    271.77098    44.574474      39457.2 
  400200    297.13365   -1530.9785    515.42032    320.07588   -353.23413      39457.2 
  400300    308.12988   -1528.0816    499.92813    356.90928    33.554753      39457.2 
  400400    299.98866   -1502.8435    496.99255    342.61657    139.35946      39457.2 
  400500    301.66044   -1501.0174    502.14952     357.1144    102.58508      39457.2 
  400600    296.67227   -1515.6084    498.79525    316.74695    462.26169      39457.2 
  400700    306.15417   -1532.6975    491.90929    335.39365    241.08636      39457.2 
  400800    298.83287   -1531.9144    514.38118    325.73893    124.52348      39457.2 
  400900    310.90186   -1559.2058     503.5642    341.88143    319.19044      39457.2 
  401000    291.56532   -1533.5746    485.11844    262.14788   -233.71632      39457.2 
  401100    287.51537   -1528.1381    518.84335    283.10456    229.14328      39457.2 
  401200     301.3218   -1502.1289    510.12655    362.45768    186.36504      39457.2 
  401300    294.58863   -1515.7658    486.19587     294.6241    150.20407      39457.2 
  401400    296.87769   -1522.0889    508.38603    320.78064    157.99791      39457.2 
  401500     305.1123   -1545.6285    500.50189    326.37199   -137.12557      39457.2 
  401600    299.75134   -1494.3934    498.63303    351.64039   -125.22194      39457.2 
  401700    296.78093   -1464.6785     500.4219    369.79196   -356.71557      39457.2 
  401800    302.39011   -1532.0713    473.12303    300.31386   -945.97691      39457.2 
  401900    312.43643   -1584.0702    492.41562    312.76637   -377.43189      39457.2 
  402000    291.08305   -1552.2139    471.38724    227.60957   -333.08569      39457.2 
  402100    300.20339    -1573.081    501.99341    278.34509   -149.65402      39457.2 
  402200     295.4377   -1575.3612    500.11925    252.76871   -258.27357      39457.2 
  402300    292.40581   -1608.6653    481.63259    187.34938   -66.930056      39457.2 
  402400    309.54054   -1516.9724    491.92569    366.35702    112.79011      39457.2 
  402500    301.32072   -1531.2137    478.01663    301.25807    -88.12736      39457.2 
  402600    296.34977   -1524.1737    488.52558    296.46237    599.55526      39457.2 
  402700    302.34183   -1545.9377    480.57603    293.68343   -393.96787      39457.2 
  402800    307.25604   -1543.5191    481.03166    318.64735    404.09832      39457.2 
  402900     309.4494   -1573.1459    496.75041    314.59866    334.50866      39457.2 
  403000    309.73339   -1552.8637    487.76624    327.17324    284.69244      39457.2 
  403100    302.72639   -1513.7317     490.1221    337.16411    556.15243      39457.2 
  403200    306.74799   -1518.1845    485.97423    346.64076    105.16533      39457.2 
  403300    302.95642   -1504.8993    517.61915    374.52763     698.9456      39457.2 
  403400    294.38852    -1501.328    496.54331     318.5099    94.078518      39457.2 
  403500    301.68038   -1503.4945    491.90365    344.48108   -331.11243      39457.2 
  403600      307.858   -1551.2903    487.78975     320.3401   -34.461538      39457.2 
  403700    301.27039   -1550.6767    510.34378    313.89607    517.60447      39457.2 
  403800    298.07036   -1535.6418    508.56446    312.76731    389.89138      39457.2 
  403900     313.8986    -1540.386    469.83519    340.44277    661.43905      39457.2 
  404000    308.06614   -1517.1329    489.90378    357.54715    487.03559      39457.2 
  404100    303.29666   -1584.3193    525.06339    304.08121    803.58974      39457.2 
  404200    293.14042   -1533.6978    477.23263    261.21912    386.42633      39457.2 
  404300     295.8797   -1523.8851    501.29449     307.4068    675.10748      39457.2 
  404400    313.87297   -1530.2552    477.92424    358.54737   -98.626745      39457.2 
  404500    303.58887    -1540.366    504.12224    328.40687    -261.7971      39457.2 
  404600    293.17987   -1521.6658    497.11497    293.31071    -598.3844      39457.2 
  404700    299.80287   -1564.8036    487.58083    270.40959   -228.13756      39457.2 
  404800    306.49963   -1533.4181    533.14831    377.46493   -206.86543      39457.2 
  404900     307.6676   -1547.9816    500.09838    335.10155    69.983188      39457.2 
  405000    291.13174   -1566.2775    501.21138    243.58899    391.06252      39457.2 
  405100    297.54647    -1566.833    514.16027    284.81694   -408.60668      39457.2 
  405200    293.81125   -1514.2216    479.39024     285.8683    219.89835      39457.2 
  405300    301.44269   -1539.7093     502.7136    318.00773    370.31954      39457.2 
  405400    296.45441   -1489.6959     508.5083     351.3932    340.13623      39457.2 
  405500    308.52383   -1498.5819    519.16024    407.41199   -23.775765      39457.2 
  405600    295.10178   -1525.7421    481.18213     281.9407    262.04992      39457.2 
  405700    296.94735   -1536.4087    510.42479     308.8127   -341.34175      39457.2 
  405800    300.02197   -1485.0931    506.94522    370.46939   -362.30922      39457.2 
  405900    302.65171   -1538.8836    486.73848    308.29289    420.08752      39457.2 
  406000    307.16844   -1539.4978    508.28703    349.53024    385.14062      39457.2 
  406100    298.09618   -1510.0345    509.25244    339.17865    7.1581493      39457.2 
  406200     299.1985   -1532.3901    494.83939    307.36495    150.64953      39457.2 
  406300     309.2126   -1524.3925    510.46869    376.00585    111.35571      39457.2 
  406400    304.88646   -1508.8144    482.49598    344.16495    329.07582      39457.2 
  406500    289.74795   -1500.5983    482.51624    284.35281    412.51062      39457.2 
  406600    293.51262   -1479.1976    489.13831    329.29802   -1.2881347      39457.2 
  406700    299.58843    -1472.599    506.72515     380.7946   -295.19213      39457.2 
  406800    302.64838   -1461.3886    486.89704    385.93151   -553.36307      39457.2 
  406900    297.98878   -1453.3761    513.06644    399.16825   -303.94998      39457.2 
  407000    307.30065   -1494.2214    487.47625    374.59024    173.32799      39457.2 
  407100    290.97783   -1523.4643    499.87273    284.37167    207.71523      39457.2 
  407200     297.7794   -1506.8802    477.95461    309.61119   -287.30144      39457.2 
  407300    292.06151   -1502.8077    482.97645    293.00323    217.26089      39457.2 
  407400    297.57794   -1520.6394     493.7906    310.78241    20.821661      39457.2 
  407500    301.66138   -1488.2487    500.50106    368.23881    199.41332      39457.2 
  407600    301.37562   -1486.3055    489.60416    358.00065    522.01028      39457.2 
  407700    318.94078   -1487.5188    512.18575     458.3254    584.97822      39457.2 
  407800    306.12351   -1516.3061    510.99899    370.73691     655.8725      39457.2 
  407900     291.0477   -1506.1177    510.46254    312.62222    198.53015      39457.2 
  408000    306.65408   -1494.9946    491.04813    374.48251    292.62905      39457.2 
  408100    292.99909   -1469.0959    520.45769    368.41076   -267.88334      39457.2 
  408200    293.42446   -1484.5551    475.65903    310.06496   -209.51144      39457.2 
  408300    300.48519   -1518.8393    489.68806    321.54823   -527.14104      39457.2 
  408400    305.59398   -1482.1963    497.07937    388.54679   -362.51426      39457.2 
  408500    301.94326   -1480.8151    485.27535    361.71379   -1242.0868      39457.2 
  408600    313.95952   -1507.9006    482.65536     386.0222   -685.51783      39457.2 
  408700     303.7945   -1523.8325    507.90571    349.64816    -283.4724      39457.2 
  408800    306.25976   -1458.2487    479.87287    398.28064    146.39447      39457.2 
  408900    295.74473    -1506.095    514.58018    337.87595    264.52729      39457.2 
  409000    302.03535   -1490.1048    522.96002    390.52274    731.85798      39457.2 
  409100    299.21409    -1511.735    480.14155    313.39234    492.13654      39457.2 
  409200    299.14674   -1477.8773    503.45431    370.26004    291.01442      39457.2 
  409300    303.60388   -1502.6951    510.52479    372.54777   -96.786177      39457.2 
  409400    297.64899   -1486.1013    485.52526    337.37444    10.309523      39457.2 
  409500    300.53497   -1476.6797    524.86611    399.10963    617.29883      39457.2 
  409600    296.67997   -1471.2196    527.08614    389.46127   -22.348915      39457.2 
  409700    291.55719   -1479.0442    502.85486    334.37814   -417.17885      39457.2 
  409800    301.01979   -1450.4779    531.09891    433.72348   -491.18481      39457.2 
  409900    293.96603   -1430.1421    509.70128    400.95462   -54.044326      39457.2 
  410000    289.64948   -1450.2187    520.50048    372.27403   -141.92859      39457.2 
  410100    301.40498   -1521.6527    504.44252    337.62378   -87.413637      39457.2 
  410200    293.56869   -1543.7161    500.94864    276.84183   -205.35982      39457.2 
  410300    299.57071   -1510.1433    488.80991    325.25535     317.8952      39457.2 
  410400    281.16626   -1517.7765    518.05281    264.13591    225.29702      39457.2 
  410500    302.31844   -1534.7652    488.83414    313.00895    595.58009      39457.2 
  410600    300.14969   -1484.8791    466.86514    331.17737   -281.42473      39457.2 
  410700    289.42639   -1492.8706    476.98221    285.10099    -287.8209      39457.2 
  410800    305.06291   -1504.8615    494.24874    360.66386   -148.55846      39457.2 
  410900    291.61464   -1528.6312     503.8738    286.06831    139.19348      39457.2 
  411000    293.13442   -1500.1294    511.87032    329.39817    584.47449      39457.2 
  411100    297.40854   -1522.1763    501.31206    316.00542    553.88191      39457.2 
  411200     294.3831   -1517.0577    473.99547    280.20794    442.27905      39457.2 
  411300    299.80238   -1572.7346    494.28439    269.17991    96.467299      39457.2 
  411400    290.74539   -1577.9186    487.91441    216.91427    207.71687      39457.2 
  411500    304.83757   -1537.4224     473.8066    306.64779   -206.28197      39457.2 
  411600    298.44097   -1507.2864    498.26971    332.49382    64.700436      39457.2 
  411700    300.41761   -1543.9694    481.72137    288.14764   -197.60942      39457.2 
  411800    313.92905   -1522.6965    486.61046    375.04441      236.102      39457.2 
  411900    290.98883   -1523.5267    486.43096    270.91694   -238.16405      39457.2 
  412000    304.69289   -1533.9462    507.61749     343.2846    374.84368      39457.2 
  412100     309.0914   -1532.5873     485.0506    341.84815    36.647697      39457.2 
  412200    308.01089   -1507.0764    496.97207    374.42358    80.258899      39457.2 
  412300    305.43026   -1500.9008    480.44201    352.46903   -103.75067      39457.2 
  412400    296.88632   -1494.3642    478.61954     318.7776    368.33414      39457.2 
  412500     299.8443    -1566.368    459.87735    241.32789    340.65073      39457.2 
  412600    298.02605   -1522.4439    491.46596    308.66743    264.56853      39457.2 
  412700    299.97317   -1528.7235    483.78567    303.46001    278.40893      39457.2 
  412800    309.23392   -1526.5099    468.36281     331.8784   -58.600893      39457.2 
  412900    286.57424   -1514.8108     444.7481    218.10616   -59.174197      39457.2 
  413000    302.94836   -1495.4099    489.39844    355.76012   -91.234553      39457.2 
  413100    297.80268   -1507.1503    472.27401    303.76513    332.77562      39457.2 
  413200    292.37337   -1520.2151    522.22778    316.24899    344.68171      39457.2 
  413300    301.68236   -1503.4194    513.94453    366.60592    568.24385      39457.2 
  413400    308.48215   -1523.8566    507.47734    370.26701    559.43074      39457.2 
  413500    294.24712   -1507.6865    512.09336    327.06584       401.51      39457.2 
  413600    296.21233   -1518.8989    486.80984    299.40364    547.61094      39457.2 
  413700       304.48   -1513.8894    465.48858    320.25554    -277.6022      39457.2 
  413800    292.94231   -1516.9928    488.26499    288.06584    266.53647      39457.2 
  413900    293.75263   -1515.4387    498.39098    303.38845   -314.00717      39457.2 
  414000     302.0673   -1564.2316    471.25312    264.83266    256.42727      39457.2 
  414100    294.14529   -1515.6073    469.68849    276.28243   -275.79743      39457.2 
  414200    308.43673   -1561.5706    501.61609    326.48752   -287.65284      39457.2 
  414300    298.71689   -1554.0816    501.53271    290.20186    -526.2204      39457.2 
  414400    297.38403   -1558.7102    471.63817    249.68751   -820.54399      39457.2 
  414500    299.81598   -1565.2587    498.71296    281.14557   -198.57923      39457.2 
  414600    307.29876   -1556.0133    514.58607    339.89967   -183.43204      39457.2 
  414700    295.31339   -1544.3032    467.84778    250.99644   -182.04487      39457.2 
  414800    306.86263   -1492.1925    510.30576    397.47964    101.22856      39457.2 
  414900    293.69047   -1502.1444    477.27809    295.29044   -21.546583      39457.2 
  415000    297.16137   -1517.9768    518.01891    335.80078   -146.56808      39457.2 
  415100     298.0558   -1507.3873    483.52782    315.91972   -281.50169      39457.2 
  415200    299.74547   -1556.1649    478.15326    269.36271   -51.229343      39457.2 
  415300    292.35415   -1553.7717    489.96742    250.34562   -86.133994      39457.2 
  415400     283.0022   -1532.9533     502.2989    241.45793   -2.3525885      39457.2 
  415500    293.47406   -1575.0119    473.40302    217.57515    29.420075      39457.2 
  415600    294.42429   -1573.5825    488.16791     238.0407    17.609038      39457.2 
  415700    310.98389   -1491.8489    491.25789    397.30068    171.87942      39457.2 
  415800    302.51667   -1497.1899    504.06567    366.70686     718.0696      39457.2 
  415900     290.3701    -1494.352    484.54255    295.42197    2.5436529      39457.2 
  416000    298.36168   -1548.4667    505.17087    297.85825   -300.55984      39457.2 
  416100    301.02882   -1491.9215    479.60872     340.8303   -309.78138      39457.2 
  416200    306.80643   -1495.9296    483.92183    367.10604   -108.76833      39457.2 
  416300    302.56099   -1542.0724    500.70224    318.66013   -454.28527      39457.2 
  416400    290.51087   -1547.0442     484.0834    242.90344   -758.33311      39457.2 
  416500    304.87475   -1493.0688    490.78891    368.15084   -686.56378      39457.2 
  416600    296.31822   -1542.9082    490.38785    279.44832   -796.45134      39457.2 
  416700    297.97752   -1525.2931    477.27822    291.41244    56.416867      39457.2 
  416800     294.3058   -1538.2428    492.69349    277.37334    -482.1923      39457.2 
  416900    299.44608   -1513.5045    494.76686     327.2909     154.0351      39457.2 
  417000    309.30746   -1535.0738    491.64383    346.92608    221.16079      39457.2 
  417100    305.24498   -1527.0078    486.84184    331.92897    502.62499      39457.2 
  417200    293.78285   -1489.6006    495.88342    326.85487    211.65975      39457.2 
  417300    306.43278   -1462.6743    489.44666     404.2066    -75.73031      39457.2 
  417400    311.22651   -1502.0024    474.14328    371.12327    488.93969      39457.2 
  417500    305.17444   -1466.6351    499.53733    404.68008    16.026791      39457.2 
  417600    300.14482   -1500.8268    494.32911    342.67171   -83.144187      39457.2 
  417700    293.74266   -1469.8672     453.5021    304.02625   -359.25819      39457.2 
  417800      307.446   -1492.6633    490.44398    379.76935   -355.60928      39457.2 
  417900    301.58519   -1539.8424     468.7606     284.5622    256.99144      39457.2 
  418000    309.29499   -1506.7063    511.36524     394.9589    746.33871      39457.2 
  418100      302.307    -1487.862    511.19495    382.22146    858.63688      39457.2 
  418200    298.23832   -1525.1917    491.86992    307.27779    809.88977      39457.2 
  418300    293.93008   -1506.8331     507.3167    321.71746    245.43182      39457.2 
  418400     299.7875   -1505.2698    523.80915     366.1026    618.64677      39457.2 
  418500    293.84895   -1462.3263     503.0414    361.58424    159.77486      39457.2 
  418600    307.31282   -1440.9768    489.70563    430.11886   -241.33597      39457.2 
  418700    304.52823    -1499.544    498.49756    367.82669     518.2724      39457.2 
  418800    296.16174   -1452.9998    484.62281    362.88831   -268.20121      39457.2 
  418900    291.93114   -1478.6107    490.16446    323.80217   -634.00294      39457.2 
  419000    305.46727   -1477.7217    482.76513     378.1376   -14.058128      39457.2 
  419100    300.52122   -1486.4019    492.99881    357.45835    99.772048      39457.2 
  419200     302.2749   -1473.6912    514.01982    399.07292    194.01278      39457.2 
  419300    316.51365   -1497.8894    515.67215    440.53106    943.91784      39457.2 
  419400    295.96583   -1475.6812    480.76787    335.47128    566.64509      39457.2 
  419500    303.75025   -1502.2231    501.31614    364.46914    387.92209      39457.2 
  419600    304.51596   -1515.7022    468.58575    321.70152    599.02221      39457.2 
  419700    299.68422   -1493.3634    464.87203    318.60768    619.14027      39457.2 
  419800    305.48238    -1501.325    472.03877    343.87587   -156.44135      39457.2 
  419900    304.72397   -1501.7832    488.95546    356.92528    404.14755      39457.2 
  420000    293.70644   -1478.4265    506.14293     347.9449    42.038921      39457.2 
  420100    304.14944    -1511.539    507.81569    363.44718    366.85576      39457.2 
  420200    308.65598   -1495.7222     498.8705    390.57598    435.51461      39457.2 
  420300    305.94727    -1544.041    483.31455    314.52542    522.98767      39457.2 
  420400    293.49614   -1585.6914     490.4958     224.0876    365.25381      39457.2 
  420500     298.0129   -1559.5673    468.30558    248.32458    -65.60065      39457.2 
  420600     291.8624   -1546.0446    489.08908     254.9839   -207.83162      39457.2 
  420700    313.44159   -1543.3668    488.69335    354.26578    53.424191      39457.2 
  420800    300.26509    -1517.801    495.68523    327.59426    389.70537      39457.2 
  420900    310.14714   -1544.6878    484.99948    334.44216    366.16537      39457.2 
  421000    300.29098   -1550.0103    488.99692    288.81305      519.272      39457.2 
  421100    296.80461   -1515.8812    487.88056    306.15431    253.80843      39457.2 
  421200     299.7463   -1503.4878    506.07447    349.96478     401.7188      39457.2 
  421300    295.43661   -1508.8716    501.10358    320.23775    372.00002      39457.2 
  421400    284.58096   -1510.4064    469.09817    237.90067    471.07317      39457.2 
  421500      300.439   -1537.6506    490.23853    303.07971    -111.2578      39457.2 
  421600    303.68005    -1478.312    517.36041    404.10891    98.464656      39457.2 
  421700    293.61571   -1453.0397    496.86102    363.64202   -145.41853      39457.2 
  421800    307.66204   -1409.0305    498.34003    472.26929    160.37493      39457.2 
  421900     298.5149   -1424.0593    527.10685    444.89037   -31.406699      39457.2 
  422000    293.91186   -1454.2933    508.69373    375.55233    215.70774      39457.2 
  422100    308.02882   -1479.1387    489.15632     394.6261   -120.87354      39457.2 
  422200    292.10919   -1504.2973    478.89171    287.64325    -422.6554      39457.2 
  422300    297.73037   -1505.2155    504.42796    337.52881    16.881414      39457.2 
  422400    297.66252   -1524.6867    478.52973    291.85438    112.46469      39457.2 
  422500    306.25822   -1502.6688    485.57006    359.55086    402.47909      39457.2 
  422600    293.05042   -1468.6398    494.64192    343.28175   -17.036619      39457.2 
  422700    303.30777   -1463.9363    495.72221      395.173   -328.41524      39457.2 
  422800    295.36672   -1496.1183    469.03783    300.61115   -650.68946      39457.2 
  422900    289.59493   -1486.8041    501.40562    316.34853    285.47939      39457.2 
  423000    300.52349   -1517.2806    491.36029    324.95132   -293.33171      39457.2 
  423100    299.01091   -1483.1029    471.59964    332.56921     61.79963      39457.2 
  423200    299.02787   -1466.5432    503.87097     381.4765     -507.035      39457.2 
  423300    307.22038   -1498.3452    480.74702    363.37634   -269.59954      39457.2 
  423400    303.92086   -1525.6276    517.19343    357.70875   -901.34005      39457.2 
  423500    301.40526   -1512.3449     477.5525    320.04276   -70.725266      39457.2 
  423600    295.09303   -1481.4308    482.75579    327.78632    -774.8347      39457.2 
  423700    299.41189   -1524.8915    484.59449    305.57783    -602.1469      39457.2 
  423800    305.27456   -1486.1446    486.65093    372.73423   -361.69618      39457.2 
  423900    302.32412   -1469.5516    518.38957    407.80347   -37.446061      39457.2 
  424000    312.62569   -1468.7179    469.65555    406.20934    324.28829      39457.2 
  424100    309.48289   -1514.3324     485.8739    362.68618    66.115816      39457.2 
  424200    310.56085   -1467.4701    493.60007    422.12012    237.63348      39457.2 
  424300    309.68127   -1455.0772    490.25714    427.21628    557.81604      39457.2 
  424400    311.21457   -1504.7693    485.49643    379.65578      192.907      39457.2 
  424500    300.89995   -1489.9645    480.22658    342.82584    202.35007      39457.2 
  424600    289.73327   -1430.2439    522.08118    394.20614    114.31964      39457.2 
  424700    311.07902   -1479.7954     476.1859    394.70984    550.58239      39457.2 
  424800    299.36427   -1484.6549    479.82561     340.8315    -63.31303      39457.2 
  424900    300.21178   -1473.2317     513.3239    389.56256     385.0674      39457.2 
  425000    293.09914   -1497.1264    483.52691    303.89917    101.24248      39457.2 
  425100    299.87571   -1497.3117    497.10774    347.75586   -27.909091      39457.2 
  425200    299.65284   -1490.1399    492.20231    349.02037   -150.18844      39457.2 
  425300       290.36   -1491.8321    464.84832    278.20227    174.13473      39457.2 
  425400    289.80099   -1496.6303    476.63631    282.67927    280.38907      39457.2 
  425500    308.77785   -1522.3228    508.60399    374.25662     570.8572      39457.2 
  425600    303.23558   -1508.6092    479.73155    334.18493    181.56652      39457.2 
  425700    303.96261   -1490.5258    471.71639    347.52121    -424.6078      39457.2 
  425800    310.65586   -1497.7704    503.70881    402.35558   -750.66052      39457.2 
  425900    300.51115   -1463.5908    473.28356    360.50885   -548.42498      39457.2 
  426000    306.46906    -1474.584    487.37851    390.39187   -344.85542      39457.2 
  426100    289.44362   -1477.1609    511.95421     335.8602   -365.53568      39457.2 
  426200    302.81448   -1477.3235    489.71946    373.56568    -115.0071      39457.2 
  426300    288.69481   -1487.0421    501.53405    312.19293    118.54307      39457.2 
  426400    302.14783   -1532.9172    491.13809    316.39399    454.98878      39457.2 
  426500      292.656   -1519.2863    496.92542    293.14582     82.48021      39457.2 
  426600    298.89215   -1483.6225    515.64297    375.55909    65.276039      39457.2 
  426700    296.47495   -1529.8392    492.60983    295.44377    -819.7614      39457.2 
  426800    305.54088    -1529.056    484.15663    328.52569   -407.85456      39457.2 
  426900    298.49817   -1514.2425    499.91037    327.43553   -721.21152      39457.2 
  427000    293.55984   -1522.2464    482.27847    279.60165   -717.08518      39457.2 
  427100    303.93619   -1505.1827    479.49224    340.52138    25.974126      39457.2 
  427200    296.25428   -1495.4325    492.91888    329.16764   -314.52399      39457.2 
  427300     303.5469   -1495.7963    467.40553    336.07127    227.10431      39457.2 
  427400    303.56348   -1533.5028    517.48634    348.52003    709.47657      39457.2 
  427500    297.99891     -1537.17    459.86448    262.21794    556.69094      39457.2 
  427600    296.45423   -1527.5173    512.25284    317.31556    63.592041      39457.2 
  427700    292.50835   -1547.6918    499.99911    267.15039   -461.05937      39457.2 
  427800    310.57843   -1542.8974    460.39245     313.5642   -403.79153      39457.2 
  427900    296.29384   -1530.8755    480.18152    281.16504    -186.5882      39457.2 
  428000    309.72893    -1548.216    490.48702    334.52163   -385.32151      39457.2 
  428100     297.1335    -1562.475    497.02629    270.18472   -338.74127      39457.2 
  428200    303.61017   -1513.2465    479.31026    330.81019   -217.92055      39457.2 
  428300    299.24882   -1534.3298    510.76607    321.57807   -252.85421      39457.2 
  428400    294.11142   -1531.9935    480.82104    270.87647    261.57897      39457.2 
  428500    302.41513   -1504.8756    504.09822    358.59722   -365.32411      39457.2 
  428600    302.31012    -1504.105    505.55546    360.35303    -519.2793      39457.2 
  428700    292.52528   -1538.1586    501.55279    278.31333   -448.55812      39457.2 
  428800    308.52245   -1515.7349    509.36068    380.45323   -553.61603      39457.2 
  428900    301.96409   -1536.5808    517.26424    338.03059   -1041.4646      39457.2 
  429000    306.02956   -1487.0336    496.18527    384.77336   -761.24397      39457.2 
  429100    308.76529   -1495.8771    513.09362    405.13546   -300.58702      39457.2 
  429200    307.11621   -1504.6779    499.48782    375.31619    -153.3603      39457.2 
  429300     297.7864   -1464.0342     527.4105    401.94455    9.2572637      39457.2 
  429400    304.92788    -1468.173    496.04706     398.5437     360.6763      39457.2 
  429500    304.38724   -1523.9286    502.72238    347.03315    496.59428      39457.2 
  429600    300.77008    -1519.863    481.01796      313.135   -360.49362      39457.2 
  429700    311.03433   -1499.2667    514.07568    412.92739    320.74548      39457.2 
  429800    310.52981    -1473.234    522.82143    445.43808   -408.62014      39457.2 
  429900    311.68922   -1492.5638    516.94931    425.44772    68.789098      39457.2 
  430000    311.62892   -1549.2149    507.64979    359.22604   -225.26336      39457.2 
  430100    296.30962   -1499.8142    506.33757    338.45337    18.886973      39457.2 
  430200    297.56207   -1517.2622     504.8219    325.11951   -748.58486      39457.2 
  430300    303.39883   -1491.0944    508.05135     380.7534   -532.52209      39457.2 
  430400    309.47976   -1502.1255    503.88332    392.88837   -324.33875      39457.2 
  430500    311.05979   -1533.1356    489.08487    354.18216   -82.514822      39457.2 
  430600    301.52075   -1523.3879    493.72656    325.69302    72.310233      39457.2 
  430700    303.33451   -1533.6508    471.22422    301.08073    627.60652      39457.2 
  430800    307.23638   -1526.6303    513.44226     367.8584    496.78811      39457.2 
  430900    290.74873   -1525.8037    507.38746    288.51719    82.146842      39457.2 
  431000    299.25003   -1584.5942    496.42908    256.98221     534.0468      39457.2 
  431100    301.34708   -1590.4667    481.20134    245.30828   -603.67477      39457.2 
  431200    294.50751   -1517.2166    513.56385    320.17662   -896.30723      39457.2 
  431300    297.00636   -1580.1734    478.04715    232.93557   -763.29205      39457.2 
  431400    294.62245   -1505.0928     497.6507    316.90391   -872.22448      39457.2 
  431500    290.81774   -1546.8428    505.75349    266.15438   -402.90125      39457.2 
  431600    307.90776    -1552.914    507.37408     338.5244   -909.34585      39457.2 
  431700    294.69101   -1552.9234    495.35854    267.08935   -564.39953      39457.2 
  431800    304.77061   -1529.6599    488.66138    328.96412   -487.14908      39457.2 
  431900    294.39134   -1541.5241    479.17832    260.96143   -315.13279      39457.2 
  432000    304.30762   -1532.1862    521.29504    356.99028    -213.5735      39457.2 
  432100    288.36886   -1472.3389    488.73089    312.62779   -594.11282      39457.2 
  432200    302.09055   -1532.1762    491.83723    317.57668   -372.13886      39457.2 
  432300    307.27692   -1523.5501    503.71085    361.38945   -350.23445      39457.2 
  432400    294.63132   -1495.6777    489.10885    317.81705   -356.38148      39457.2 
  432500    300.45707   -1504.2891    494.28831    340.57225   -521.86143      39457.2 
  432600    295.05456   -1482.4604    509.49606    353.32404   -223.49662      39457.2 
  432700    294.41342   -1492.7463    496.88001     327.5401   -82.457687      39457.2 
  432800    301.97283   -1516.0901    512.93526    354.23164    106.17045      39457.2 
  432900    301.64807   -1553.4949    497.53318    299.96493    172.57717      39457.2 
  433000    305.10684   -1512.5981    489.35654    348.23246   -438.02033      39457.2 
  433100     299.5759   -1512.7914    499.05061    332.87132   -4.9862856      39457.2 
  433200    296.23314   -1508.8095    508.33656    331.11329    235.63072      39457.2 
  433300    302.62086   -1508.2036    519.29827    371.39407    254.44946      39457.2 
  433400     307.0727   -1510.5978    494.83976    364.55261    315.36635      39457.2 
  433500    297.31038   -1500.3427    505.34093     341.4267    224.24365      39457.2 
  433600    294.30275   -1501.6882    519.57169    340.79248   -128.00299      39457.2 
  433700     295.8341   -1474.5949    506.68305     361.8807   -139.60653      39457.2 
  433800    290.36733   -1518.2469    519.16051    306.13264   -108.12231      39457.2 
  433900     297.4064    -1511.351    526.51415    352.02323    391.72872      39457.2 
  434000    292.18838   -1513.7846    501.63949    301.25963   -161.00375      39457.2 
  434100       294.54   -1500.3754    483.41102      307.011   -698.22246      39457.2 
  434200    299.63187   -1523.5514    524.80387    348.11615   -255.30017      39457.2 
  434300    298.32165   -1486.0119    474.86411    329.82645   -44.269282      39457.2 
  434400     299.0484   -1518.1173    515.91725    342.04088    410.84345      39457.2 
  434500    301.25623   -1506.0542    498.43775    346.54888    380.13079      39457.2 
  434600    297.18879   -1517.5654    511.59429    329.91082    50.308863      39457.2 
  434700     297.1201    -1481.974      490.311    343.91011   -426.83219      39457.2 
  434800     298.7583   -1495.0553    490.73451     338.6161   -473.47586      39457.2 
  434900    299.29611   -1543.9628    505.05241    306.44401    234.57231      39457.2 
  435000    306.10642   -1555.6877     519.9855    340.26503    336.13221      39457.2 
  435100    301.84064   -1553.9919    485.21212    288.01251    538.28146      39457.2 
  435200    304.87772    -1542.111    504.80082    333.13395     792.0615      39457.2 
  435300    291.23914   -1465.3655    537.75768    381.53004    117.53331      39457.2 
  435400    303.93656   -1495.6867    511.26861    381.79545    497.94577      39457.2 
  435500    308.57819   -1508.4904    510.78615    389.37367    431.25969      39457.2 
  435600    310.22949   -1528.5988    489.73299    355.63478    268.37298      39457.2 
  435700    290.39387   -1545.2888    472.98764    233.03719    57.833815      39457.2 
  435800    304.60515   -1536.5501     494.6086     327.2774   -473.59293      39457.2 
  435900    299.97277   -1450.4229    501.86879    399.84191 -0.060739701      39457.2 
  436000    298.63452   -1481.0372    495.72447    357.06783    29.578559      39457.2 
  436100    306.39381   -1488.3884    504.43448    393.30514   -11.664486      39457.2 
  436200    305.55011   -1473.1572    504.16741    404.47675   -5.0042961      39457.2 
  436300    300.28968   -1464.6605    502.54575    387.70588    199.15129      39457.2 
  436400     312.3397   -1502.2971    491.53447    393.22351    223.48652      39457.2 
  436500    297.72996   -1519.9584    520.84152    339.19762    170.06303      39457.2 
  436600    300.86137   -1509.4921    505.43429    348.33254    436.53929      39457.2 
  436700    295.42836   -1534.8366    502.62574    295.75783    89.480508      39457.2 
  436800    299.70023   -1527.9187    486.74772    305.99999    206.26246      39457.2 
  436900    310.91854   -1514.1357    492.86163    376.32394    391.19478      39457.2 
  437000    299.17625    -1525.837    498.67789    317.65653     763.0769      39457.2 
  437100    301.88908   -1525.4237    505.61539    337.20175    299.66985      39457.2 
  437200     294.2043   -1507.5565    499.47975    314.38972    130.63071      39457.2 
  437300    290.89591   -1527.5387    483.02136    263.07769    -89.90205      39457.2 
  437400    307.56159   -1538.2472    484.33848    328.59962   -531.22586      39457.2 
  437500    297.83788   -1467.1182    498.62198    370.30339   -913.75903      39457.2 
  437600    300.57976    -1516.178    474.18034    309.12689   -1031.6346      39457.2 
  437700    292.29875   -1510.9639    476.94282    279.87972   -101.38719      39457.2 
  437800    301.52118   -1531.3688    530.94697    354.93444    -801.4509      39457.2 
  437900    293.78537   -1499.9971    487.11221    307.69844   -503.94504      39457.2 
  438000    298.14995    -1445.532    511.94472    406.61514   -826.96026      39457.2 
  438100    296.30084   -1490.9197    492.21494     333.1858   -604.25353      39457.2 
  438200    297.66706   -1497.1071    493.90193    334.82654     -648.694      39457.2 
  438300    298.40418   -1518.9583    485.32172    307.70856   -92.358184      39457.2 
  438400    298.66307   -1505.7723    503.02473    339.76127    433.69391      39457.2 
  438500    297.06261   -1516.3573    499.43613    318.39356    66.508601      39457.2 
  438600    300.09494   -1486.5168    492.64834    355.07675   -58.392416      39457.2 
  438700    300.56016   -1468.3965    495.82786    378.46777    73.643597      39457.2 
  438800    308.40957   -1488.2175    485.88721    383.98968   -378.95854      39457.2 
  438900    302.89298   -1502.4676    511.92726    370.98223    166.40163      39457.2 
  439000    294.61162   -1441.9849    532.88915    415.20168    213.52018      39457.2 
  439100    301.40108   -1466.4124    509.03348    397.43746   -529.49021      39457.2 
  439200    308.38073   -1476.1292    473.65392    383.71503   -263.73195      39457.2 
  439300    292.99852   -1534.4544    486.62224    269.21426   -683.49941      39457.2 
  439400    302.50099   -1515.3904    526.19243    370.56259    72.788467      39457.2 
  439500     294.6025   -1474.4964    489.86591    339.62584     150.5033      39457.2 
  439600    300.09116   -1522.8083    507.24337    333.36327    159.30313      39457.2 
  439700    289.03849   -1545.5603    485.04698    238.73249    246.34555      39457.2 
  439800    294.15627   -1526.1855    498.20235    294.26734    605.08361      39457.2 
  439900    302.05786   -1554.8348    497.77574    300.70956    526.21504      39457.2 
  440000    307.57131   -1531.3478    504.08838    355.29254     817.3442      39457.2 
  440100    300.40382    -1515.836    508.19838    342.69608    737.67576      39457.2 
  440200    309.80567   -1544.2028    503.25961    351.65243    602.95284      39457.2 
  440300    305.50179   -1587.3027    494.10714    280.05375   -136.98919      39457.2 
  440400    303.62729   -1575.2414    474.73288    264.31484    70.014385      39457.2 
  440500    302.63736   -1611.6293    477.10984    225.85416    4.9039764      39457.2 
  440600    298.19781   -1576.7793    495.70515    259.34334   0.81379919      39457.2 
  440700    297.78149   -1588.2316    491.60544    241.91995    139.46847      39457.2 
  440800    294.31998   -1561.4173    482.95052    244.51963    68.989857      39457.2 
  440900    303.75911   -1550.7356    505.66077    320.34112    248.09999      39457.2 
  441000     296.8394   -1500.5478    517.80441    351.56802    851.64044      39457.2 
  441100    297.12782   -1541.0743    508.16011    302.69363    255.99881      39457.2 
  441200    306.71541    -1529.471    497.15902    346.39264    481.68032      39457.2 
  441300    296.18135   -1534.8893    484.07116    280.53521   -184.03841      39457.2 
  441400    299.58632   -1522.1574    504.12274    328.62424    -412.8124      39457.2 
  441500    287.47645   -1518.3614     516.2631    290.12609   -8.9519059      39457.2 
  441600    295.66429   -1555.1643    490.96642    264.83134    -126.3785      39457.2 
  441700    297.58365   -1512.7687    483.19905    308.08714   -932.56585      39457.2 
  441800    308.23742   -1497.6875    492.59767    380.45638   -183.96513      39457.2 
  441900      295.553   -1527.9825    482.27155    282.81792   -948.54906      39457.2 
  442000     306.2122   -1516.0753    512.00736    372.37476    70.445342      39457.2 
  442100    307.01978   -1518.3319     479.6141    341.35502   -292.57691      39457.2 
  442200    306.57078   -1504.4648    501.50454     375.0943    127.53685      39457.2 
  442300    298.26273   -1497.4286    489.72842    333.00912    337.28642      39457.2 
  442400    300.91849   -1514.5594    529.76631    367.85404    568.24004      39457.2 
  442500    298.07696   -1507.8658     478.0749    310.08337   -7.9781816      39457.2 
  442600    298.38888   -1526.9759    479.60533    293.90579    245.90021      39457.2 
  442700    303.71736   -1486.4338    504.35573    383.15021   -224.19113      39457.2 
  442800    303.59219   -1508.5265    496.95007    353.08917    407.62774      39457.2 
  442900    302.08185   -1516.4275    504.93644    346.38544    115.05292      39457.2 
  443000    302.92446   -1506.8542    495.54454    350.35448    470.84007      39457.2 
  443100    300.22076   -1519.2424    490.81925    321.08765   -147.18039      39457.2 
  443200    294.96444   -1513.2232    480.91515    293.57528    66.595381      39457.2 
  443300    297.87577   -1536.0459    496.65958    299.58359   -435.30113      39457.2 
  443400    284.81647   -1533.7331    471.95707    218.49148   -449.96772      39457.2 
  443500    306.06028   -1464.9449    474.58556    385.40046   -144.74027      39457.2 
  443600    300.80726   -1452.6488    520.33044    419.82883      -744.94      39457.2 
  443700    291.86615   -1500.0856    480.82188    292.69254   -286.76686      39457.2 
  443800    300.85392   -1535.9731    497.77976    314.16359   -193.20018      39457.2 
  443900    303.05357   -1513.1717    495.89329    344.96602    225.64972      39457.2 
  444000    298.85473   -1505.6052    500.34959    338.11483    210.06202      39457.2 
  444100    294.03271     -1572.34    515.89856    265.25375    114.99765      39457.2 
  444200    311.85129   -1523.1678    525.90605      404.529    354.92424      39457.2 
  444300    300.24832   -1449.1952    502.11892    402.55847   -409.81341      39457.2 
  444400    291.81445   -1491.1748    485.65284    306.20197   -238.40931      39457.2 
  444500    306.28278   -1509.1515    490.82507    358.43351    421.29047      39457.2 
  444600    305.87387     -1534.55    519.84509    360.21698    200.11763      39457.2 
  444700    299.91487   -1532.1683    510.18314    326.15058    262.57758      39457.2 
  444800    292.04043   -1491.7912    495.58259    316.53113   -260.70011      39457.2 
  444900    306.09274   -1542.4907    504.93956    338.35452   -123.12498      39457.2 
  445000    303.64154   -1580.6324     498.8936    283.14861   -25.992135      39457.2 
  445100    303.89706    -1566.034    485.36803       285.37    -46.29645      39457.2 
  445200    298.84421   -1552.2746    514.97691     306.0254   -20.145134      39457.2 
  445300     304.4494   -1539.5924    492.60092    321.52728    414.00086      39457.2 
  445400    306.87577   -1534.0644     509.8738    355.23488    -39.86945      39457.2 
  445500    300.41592   -1530.2411     507.1605    327.30748   -543.23511      39457.2 
  445600    293.86061   -1488.4346    517.25119    349.73808   -282.19372      39457.2 
  445700    296.80301   -1488.0985    512.29498    358.34424   -71.011176      39457.2 
  445800    292.93002   -1511.0157    516.85803     322.5808   -253.38358      39457.2 
  445900    290.02197   -1508.6852    476.64125    271.62266   -982.92266      39457.2 
  446000    290.61011   -1583.5983    493.67251    216.38459   -920.74351      39457.2 
  446100    292.11167    -1556.796    478.62463    234.88853   -779.90349      39457.2 
  446200    304.20163   -1548.4591    489.99584    308.94177   -157.82552      39457.2 
  446300    309.93425   -1548.3233    483.22203    328.07225    341.68131      39457.2 
  446400    305.28057   -1579.9464    480.55422    272.86273    203.37293      39457.2 
  446500    295.59417   -1529.4813    487.40383    286.63649    342.39184      39457.2 
  446600    304.17837   -1515.4918    497.84573    349.65447    211.78131      39457.2 
  446700    296.23187   -1561.2942     491.0651    261.35136     583.1902      39457.2 
  446800    303.61634   -1534.5959      482.538    312.71626    181.19495      39457.2 
  446900    302.00387   -1578.7405    513.44285    292.22838    274.92272      39457.2 
  447000    301.47685   -1539.5151    491.90648    307.54838    57.807402      39457.2 
  447100    302.53286   -1566.1291    474.48722    268.26194    8.8511401      39457.2 
  447200    308.34655   -1555.1271    494.44781    325.35743   -633.74028      39457.2 
  447300    306.67892   -1526.0775    464.97255    317.43573   -259.26967      39457.2 
  447400      294.905   -1573.5693    481.93161    233.97842   -329.66235      39457.2 
  447500    308.40014    -1566.267    511.18352    331.19417    398.44302      39457.2 
  447600    303.06846   -1572.1293    484.78107    274.96313    170.83669      39457.2 
  447700    298.98536   -1539.7634    495.82309    300.01725     195.8933      39457.2 
  447800    293.27594   -1585.5122    494.47387    227.25511   -296.42244      39457.2 
  447900    292.20915   -1572.3111    495.29597      236.483   -88.918329      39457.2 
  448000    293.94513   -1575.0418    483.26364     229.5233   -356.91636      39457.2 
  448100     299.6857   -1562.1473    517.36809    302.32647     276.6007      39457.2 
  448200    301.10335   -1592.0091    471.37181    232.84077   -105.08436      39457.2 
  448300    303.14549    -1612.986    510.36695     260.0386    501.66975      39457.2 
  448400    286.93196   -1566.4161    506.25157    229.61234    305.60393      39457.2 
  448500    291.50838   -1571.9483    522.15823    260.55805    494.03149      39457.2 
  448600     301.4328   -1556.1096      512.077    310.92639    322.70005      39457.2 
  448700    294.97763   -1544.2144    503.66787     285.3961    565.20489      39457.2 
  448800    306.52214   -1519.0387    515.23146    374.02866    250.30667      39457.2 
  448900    300.17991   -1559.7569    505.59663    295.16692    394.55585      39457.2 
  449000    295.47656   -1539.7667    513.93645    302.35506    508.31748      39457.2 
  449100    294.36189   -1524.1499    492.22855    291.25347      460.862      39457.2 
  449200    295.25782   -1515.0812    515.67562    327.79648    958.80336      39457.2 
  449300    310.69539   -1543.9383    491.32342       343.98    1079.2528      39457.2 
  449400    312.02857   -1519.6605     505.9226    388.84967    155.60976      39457.2 
  449500    309.77127   -1545.1694    507.69728    354.96884    394.81678      39457.2 
  449600    309.89435   -1561.9174    502.55682    333.63355    372.90477      39457.2 
  449700    298.09676   -1529.4448    508.24314    318.76161   -298.22212      39457.2 
  449800    302.38395   -1554.1173    496.05245    301.16964   -590.30416      39457.2 
  449900    300.49505   -1488.7846    518.30072    380.25989   -711.94863      39457.2 
  450000    305.63761   -1546.1061    480.01229      307.766   -222.72929      39457.2 
  450100    293.22945    -1500.412    514.19769    331.87018    -44.35109      39457.2 
  450200    302.32111   -1507.5812     520.7205    372.09127    177.26107      39457.2 
  450300    307.82668    -1504.139    510.75626    390.31718   -27.609253      39457.2 
  450400    303.72523   -1552.6975    480.63019    293.19624   -196.65701      39457.2 
  450500    315.95463   -1517.2264    486.38554    389.39466   -329.73768      39457.2 
  450600    302.01673   -1534.6118    523.68367    346.65562   -137.58663      39457.2 
  450700    310.99479   -1511.3295    485.01564    371.62687   -305.05429      39457.2 
  450800    304.55969   -1477.8879    500.52853    391.65516    -223.3998      39457.2 
  450900    298.42996    -1479.207     531.6584    393.91243   -26.466404      39457.2 
  451000    306.87584   -1520.0079    502.28159    361.69944    37.851321      39457.2 
  451100    294.34832   -1458.7696    533.35152    397.69572    96.066134      39457.2 
  451200    287.76521   -1513.4815    476.62683    256.66768     245.5685      39457.2 
  451300     306.0173    -1491.491    501.21937    385.29497    45.841428      39457.2 
  451400    310.50216   -1498.8902    502.38707    399.22314   -179.29637      39457.2 
  451500    304.97123   -1503.3652    512.99663    380.49591    504.98103      39457.2 
  451600    297.89212   -1499.5734    491.77332    331.24333   -60.212621      39457.2 
  451700    287.75792   -1488.4823    492.03638    297.04363    74.507686      39457.2 
  451800    301.87991   -1532.7826    505.73541    329.92161     714.8297      39457.2 
  451900    300.42352   -1543.7722     490.3712    297.02119    380.42686      39457.2 
  452000    293.90807   -1552.6219    515.45498    283.96799    563.75521      39457.2 
  452100    300.04142   -1544.8189    508.82045     312.7062    787.25018      39457.2 
  452200     300.0221   -1542.0125    504.68175     311.2871    72.356089      39457.2 
  452300    296.83235    -1499.184     493.2704    328.36609    265.56215      39457.2 
  452400    296.58109   -1534.4883     465.8986     264.5605    166.59191      39457.2 
  452500    294.34871   -1541.0165    493.05476    275.15387    331.68464      39457.2 
  452600    294.56139    -1530.128    501.02077    294.96434    1001.9788      39457.2 
  452700    311.10224   -1567.9991    475.13052    305.55512    588.72947      39457.2 
  452800    307.46284    -1515.179    496.69836    363.58381   -165.06635      39457.2 
  452900    289.62419   -1506.7515    500.40249    295.52954   -336.00044      39457.2 
  453000    306.97329     -1545.15    486.63932    321.35311   -227.67269      39457.2 
  453100    300.52689    -1542.632    496.50591    304.76078    179.26868      39457.2 
  453200     303.1154   -1549.5069    500.72136    313.73687    440.80025      39457.2 
  453300    302.05973   -1532.4654    485.89451    311.20622    359.20499      39457.2 
  453400    299.55127   -1557.5532    512.16363    301.11181    286.81732      39457.2 
  453500     304.5314   -1548.0731    509.50283    330.31707    421.89658      39457.2 
  453600    300.15029    -1536.827    485.55342     297.9204    473.62338      39457.2 
  453700     301.6826   -1508.5242    514.39379    361.95141    261.13268      39457.2 
  453800     300.8046   -1493.6311    499.43492    357.93903   -211.43624      39457.2 
  453900     294.7521   -1513.3437    493.72919    305.31435   -216.94771      39457.2 
  454000    294.18944   -1489.0373    502.01225    335.37457   -538.32191      39457.2 
  454100    297.10707   -1493.9583    526.06197    367.61821   -381.09143      39457.2 
  454200    296.50206   -1484.3208    504.38937    352.86357    276.43148      39457.2 
  454300    295.42896   -1539.0332    512.20109    301.13921     205.3945      39457.2 
  454400    290.97551   -1541.2552    507.86022    274.55783    457.45117      39457.2 
  454500    308.89628   -1545.2086     501.4844    344.78364    21.629014      39457.2 
  454600    290.92809   -1527.9866    510.39021    290.14326    339.99428      39457.2 
  454700    307.49377   -1546.0139    493.42729    329.61682   -149.99993      39457.2 
  454800    300.31848   -1503.4544    516.92416    363.41981   -312.31088      39457.2 
  454900    288.95266   -1494.4508    487.25506    291.66426   -319.98209      39457.2 
  455000    299.32887   -1482.5482    516.33526    379.28875    607.99684      39457.2 
  455100    297.43367   -1473.7111     504.5302    367.80175    362.31161      39457.2 
  455200    303.88207   -1468.1326    512.93771    410.77374    578.39652      39457.2 
  455300    298.39947   -1497.9003    492.01074    335.43448    182.91329      39457.2 
  455400    301.84868   -1498.6188    503.98827    362.19791   -451.16561      39457.2 
  455500    292.76258   -1499.8813    482.89747    299.00197   -215.68767      39457.2 
  455600    292.61125    -1564.676     506.1855    256.81507    83.356445      39457.2 
  455700    302.59216   -1525.5107    501.86746    336.52721    319.65899      39457.2 
  455800    298.76263   -1497.2462    506.65853    352.36877    134.97054      39457.2 
  455900    306.16715   -1511.4942    474.93586    339.68186    800.52996      39457.2 
  456000    291.56512   -1508.1559    497.25314    299.70036    258.96077      39457.2 
  456100    305.83016   -1532.4107    490.81176    333.12651    121.00494      39457.2 
  456200    301.38225   -1522.9764      483.843    315.59834   -26.931142      39457.2 
  456300    288.56442   -1520.8925    506.98121    283.20347   -26.550697      39457.2 
  456400     309.2676   -1554.7521    496.06584    331.49059    216.50348      39457.2 
  456500    293.23531   -1536.8207    451.72347    233.01357   -800.94789      39457.2 
  456600    301.23979   -1518.4882    500.09506    335.69825   -305.26898      39457.2 
  456700    286.29696   -1562.9212     465.6321    189.63333    88.028694      39457.2 
  456800    292.38409   -1565.4271    492.80419     241.6616   -1.7984719      39457.2 
  456900    289.16066   -1547.2155    472.29338    224.87281    98.384047      39457.2 
  457000     300.6561   -1522.4947    501.34073    330.31365    116.02937      39457.2 
  457100    305.04282   -1537.4563    503.97252     337.7025   -78.726582      39457.2 
  457200    304.63247   -1497.9687    472.44552    343.81854    113.31714      39457.2 
  457300    291.12928    -1509.004    483.68099      283.321    352.63514      39457.2 
  457400    303.59791   -1546.2351    500.25326    318.70943    484.70903      39457.2 
  457500    293.07773   -1514.6896    506.98487    309.69773    683.92092      39457.2 
  457600    299.41402   -1503.1734    505.01314    347.72415    797.84078      39457.2 
  457700    301.42686   -1515.5577    471.97959    311.35412    437.08472      39457.2 
  457800     296.2767   -1497.0504    456.39326    291.12487   -123.89603      39457.2 
  457900    311.00402   -1454.8017    491.22651    434.40701    205.23257      39457.2 
  458000    303.14921    -1505.003    521.41345    379.08482    18.337816      39457.2 
  458100    309.17323   -1474.6414    487.38309    402.49442    346.41892      39457.2 
  458200     303.5831   -1456.6967    497.46475    405.39283       789.81      39457.2 
  458300    286.51237   -1451.4743    522.26371    358.68014    254.86346      39457.2 
  458400    296.67645   -1467.5278    490.89873    356.94984   -202.36536      39457.2 
  458500    298.96534   -1494.0704    494.88864    344.68586    247.38452      39457.2 
  458600     290.6727   -1496.2901    501.72639    312.02794   -116.14202      39457.2 
  458700    294.25476   -1513.1515    507.30621    316.84796    -5.807327      39457.2 
  458800    298.15991   -1464.8216    512.38379    387.80931    275.07738      39457.2 
  458900    293.55053   -1441.9895    508.22163     385.7598    283.26762      39457.2 
  459000    294.48468   -1489.2495    526.11473    360.59199    505.56231      39457.2 
  459100    310.11361   -1446.2029    481.00115    428.77805    215.97203      39457.2 
  459200    301.52532   -1477.1087    522.79715     401.0633    241.05023      39457.2 
  459300    291.91042   -1445.2498    508.71585    375.62136    230.12419      39457.2 
  459400    300.31176   -1497.1673    524.05816    376.81066    664.19527      39457.2 
  459500    306.51775   -1498.1322    498.12724    377.81119    971.25385      39457.2 
  459600    303.07239   -1486.4082    510.47197    386.39281    401.22285      39457.2 
  459700    303.40502   -1503.1085    448.47968    309.19543    119.90712      39457.2 
  459800    290.74949   -1477.7342    502.67864    331.88134   -175.06122      39457.2 
  459900      306.371   -1506.9808    491.02582    361.20152   -292.34431      39457.2 
  460000    303.82276   -1508.2022    500.69308    358.19289    655.04452      39457.2 
  460100    309.63817    -1462.197    510.45045    440.09611   -281.34618      39457.2 
  460200    296.43815   -1490.4469    503.63097    345.69181    6.7500025      39457.2 
  460300    284.20294   -1493.3566    523.16118    307.31432    -275.4691      39457.2 
  460400    307.82153   -1519.5228    516.15103    380.30491     268.4237      39457.2 
  460500    295.80446   -1517.8267    507.90806    319.74058   -239.95781      39457.2 
  460600    302.83339   -1529.3782    497.47487     329.3514   -139.30796      39457.2 
  460700    289.31769   -1483.7895    517.03029    333.74164   -250.34953      39457.2 
  460800    297.42679   -1500.0363    509.74938    346.66479   -198.36213      39457.2 
  460900     302.4735   -1530.6718    460.73911    289.70427    40.084556      39457.2 
  461000    287.37796   -1511.1545    493.01641    273.64357    91.943834      39457.2 
  461100    307.10429    -1506.982    473.10999    346.58067    49.178994      39457.2 
  461200    296.41409    -1492.782    516.57301    356.19062   -92.521149      39457.2 
  461300    301.10206   -1528.9108    491.90071    316.46221    468.87393      39457.2 
  461400    317.88205      -1544.5    493.50719    377.90659     307.5718      39457.2 
  461500    305.93363   -1525.8875     500.8648    350.16785    335.92825      39457.2 
  461600    298.34763   -1513.2675    479.40366    307.22709    149.18852      39457.2 
  461700    298.38566   -1549.0865    504.05496    296.23035   -147.95895      39457.2 
  461800    305.07376   -1532.4043    525.21375    364.13474    120.14621      39457.2 
  461900    308.47801   -1513.8488    484.48279    357.26163   -138.78051      39457.2 
  462000     305.4816   -1553.1444    504.55244    324.56669   -422.10591      39457.2 
  462100    296.16023   -1547.2445    500.00084    284.01477   -887.48124      39457.2 
  462200     311.6002   -1583.4272    490.37596    307.61079   -694.73588      39457.2 
  462300    288.50348   -1565.8084    470.81396     201.8464   -945.92284      39457.2 
  462400     297.9042   -1533.4778    504.91035    310.53027   -617.47208      39457.2 
  462500    305.42913   -1519.1654    498.37992    352.13724   -317.25072      39457.2 
  462600    301.94077   -1540.6759    455.86005    272.42652   -4.3980461      39457.2 
  462700    299.57123   -1499.7651    527.24744    374.07342    480.01544      39457.2 
  462800    294.81222   -1504.8071    524.61054    345.00252    554.35035      39457.2 
  462900    294.01575     -1502.25    499.71492    319.08379     -21.3568      39457.2 
  463000    307.60283    -1521.843    498.94092    359.79161    320.56949      39457.2 
  463100    297.75347   -1513.5784    503.88454    328.72634     254.6951      39457.2 
  463200    304.51916   -1476.5536    510.59852    402.87731   -236.07352      39457.2 
  463300    296.36464    -1451.971    481.67547     361.8818   -441.14332      39457.2 
  463400    293.12062   -1489.4795    527.93626      356.052   -611.39959      39457.2 
  463500    309.82745   -1494.0113    474.46696    373.14915   -95.908319      39457.2 
  463600    293.10679   -1494.7357    515.24663    338.04398   -990.95355      39457.2 
  463700    299.99449   -1506.1098    509.61162    351.99552    -496.6668      39457.2 
  463800    312.50927   -1531.0994    492.37956    366.02862   -545.72298      39457.2 
  463900    291.40334   -1481.6516    501.77724    330.00156    33.531724      39457.2 
  464000     298.7414   -1518.1457    487.84606    312.56138    149.81332      39457.2 
  464100     292.6648   -1558.5746    489.70216    246.67388    328.83967      39457.2 
  464200    295.51537   -1515.6029    482.61394    295.37083    420.97222      39457.2 
  464300    297.27676   -1563.3988     492.1312    265.00975    596.32993      39457.2 
  464400    293.82711   -1531.0808    497.23609    286.92623    340.20195      39457.2 
  464500    296.58726   -1524.6767    510.93851    319.43982    537.01356      39457.2 
  464600    303.19274   -1566.0044    498.15637    295.02197    358.45727      39457.2 
  464700    290.39759   -1512.8846    485.03837    277.50875   -110.70488      39457.2 
  464800    298.28049   -1508.0056     480.2151     312.9986   -178.50023      39457.2 
  464900    296.34442   -1509.7819    498.08083     320.3853    379.61365      39457.2 
  465000    307.48065    -1496.715    482.09735    367.52677    36.945127      39457.2 
  465100    295.15583   -1502.0125    511.98476    336.71591    351.34084      39457.2 
  465200    305.41611   -1489.7391    492.67872    375.80381   -485.60292      39457.2 
  465300     295.7559   -1478.9131    497.76275    348.29063   -597.95752      39457.2 
  465400    292.22451    -1493.996    494.73145    314.30259   -357.88197      39457.2 
  465500    301.82883   -1503.1484    500.00168    353.59243    -59.03618      39457.2 
  465600    294.21063   -1515.1185    532.13643    339.51277    -64.07395      39457.2 
  465700    299.69948    -1507.437      481.157    320.88763    124.53955      39457.2 
  465800    297.10531   -1492.2586    483.98067    327.22871    19.850535      39457.2 
  465900    306.62571    -1451.033    494.86306     422.1315    9.5756774      39457.2 
  466000    302.38279   -1511.6218     506.0107     353.6182    914.50003      39457.2 
  466100    289.07574   -1475.2668    498.66831    322.81478   -443.30558      39457.2 
  466200    297.33225   -1484.4973    480.51366    332.54318    40.426503      39457.2 
  466300    291.95245   -1458.8478    510.53311     364.0296    189.81536      39457.2 
  466400    289.19746   -1438.9272    486.84823     347.8814   -151.13525      39457.2 
  466500    301.37041   -1487.5141    525.30992    392.47441  -0.76381748      39457.2 
  466600    297.90776    -1493.438    468.99764    314.67331   -868.10849      39457.2 
  466700    305.60151   -1456.7838    509.47341    426.38721   -690.26457      39457.2 
  466800    292.95659   -1463.6536    497.48056    350.68486    319.44125      39457.2 
  466900    298.99279   -1499.6836    499.14641    343.45387   0.93409729      39457.2 
  467000    303.54333   -1496.7379    503.02321    370.73123   -11.323339      39457.2 
  467100    295.06736   -1472.0981    488.53416    342.78199   -241.99615      39457.2 
  467200     300.5033   -1465.6044     496.0638    381.24023     -533.174      39457.2 
  467300    300.61395   -1457.9446    479.99468    373.32828   -141.57552      39457.2 
  467400     302.0719   -1470.7897    495.81445    382.85657   -1033.7971      39457.2 
  467500    292.70255   -1450.8866    509.37411    374.20346    -141.4225      39457.2 
  467600    294.41201   -1462.5523    494.58823    355.43608   -88.466448      39457.2 
  467700      306.202   -1456.5596    515.37129    435.20847    531.50186      39457.2 
  467800    301.74576   -1508.2098    485.81068    333.96662    333.47684      39457.2 
  467900    293.83206   -1508.0962    513.22626     325.9233     800.2138      39457.2 
  468000    310.38526   -1461.7479    517.06719    450.52013    799.93433      39457.2 
  468100    294.96521   -1522.8252    505.72301    308.78455    654.74102      39457.2 
  468200    297.93083   -1520.0903    498.77921    317.90632    593.99425      39457.2 
  468300    298.11264   -1504.7264    493.24093    328.54923   -191.27811      39457.2 
  468400    300.03436    -1465.491    506.77231    389.95423   -345.45222      39457.2 
  468500    299.43051   -1459.8495    484.63479    370.74387   -566.46046      39457.2 
  468600    299.40158   -1498.7671    502.64176    349.70316   -533.79664      39457.2 
  468700    298.71735   -1457.1568     491.0986    376.69466   -129.83041      39457.2 
  468800    303.70755   -1455.1846    517.61219    427.61171   -498.02674      39457.2 
  468900    301.88454   -1480.7024     481.5739    357.86106   -928.06082      39457.2 
  469000    290.89292   -1515.7017      482.626    274.50595   -45.629209      39457.2 
  469100    308.72367   -1497.2843    507.86074    398.30832    394.23397      39457.2 
  469200    299.94207   -1527.0141    484.45017    305.69419    62.820209      39457.2 
  469300     290.9131   -1456.9894    477.77659    328.45952   -88.904775      39457.2 
  469400    298.43564   -1458.4884    503.44757    386.44579   -370.49238      39457.2 
  469500    291.03881   -1457.5076    490.20725    340.93704   -563.81461      39457.2 
  469600    293.09575   -1468.4496    496.07232    345.10618   -329.95936      39457.2 
  469700    298.22892    -1496.535    504.49838    348.52073   -365.99089      39457.2 
  469800    297.38096   -1491.7888    520.73714    365.69407   -115.97362      39457.2 
  469900    294.62009   -1466.5531    469.43655    327.21886   -372.24685      39457.2 
  470000    305.38407    -1497.998    521.77338    396.49554    92.000824      39457.2 
  470100    298.65387   -1475.4379    510.47276    377.50234   -89.331045      39457.2 
  470200    310.87579   -1428.0271    506.79608    476.17478      36.2461      39457.2 
  470300    300.44866   -1453.3088    503.13274    400.35922    45.511553      39457.2 
  470400    300.20914   -1424.0987    509.13964    434.49948   -438.85076      39457.2 
  470500    298.03963   -1434.1263    519.38136    424.96155    238.32022      39457.2 
  470600     299.7411    -1400.506    497.13712    443.98581    609.23266      39457.2 
  470700    300.39712   -1419.2597    535.80011    466.84397    346.49397      39457.2 
  470800    295.91629   -1444.4797     505.1579    390.84015    637.76215      39457.2 
  470900     302.9885   -1423.2417    518.83655    457.54685     524.9114      39457.2 
  471000    310.83584   -1461.5168    530.50847    466.21797    2.8040106      39457.2 
  471100    302.61932   -1451.3727    471.14471    380.06446   -48.158825      39457.2 
  471200    294.16901   -1456.3309    507.26887    373.24572   -140.99083      39457.2 
  471300    296.23091   -1462.3037    492.59987    361.87235   -272.85474      39457.2 
  471400    304.03914   -1492.2455    491.79749    366.22668   -217.16649      39457.2 
  471500    298.62786   -1489.7712    491.79919     344.3786    342.86949      39457.2 
  471600    305.44969   -1482.1945    470.84693     361.6676    119.73931      39457.2 
  471700     301.8857    -1491.889    492.28267    357.38851    390.30495      39457.2 
  471800    307.47229   -1522.7027     477.5625    336.96663    45.212146      39457.2 
  471900    309.39902   -1489.3918    475.54724    376.92305    232.29768      39457.2 
  472000    293.24447   -1473.6514    496.90511    341.40568    109.69139      39457.2 
  472100    297.34894   -1513.3928      508.587    331.79595    530.54164      39457.2 
  472200    300.54604   -1512.2544    471.91183    310.63034   -95.851216      39457.2 
  472300    303.36671   -1443.6693    486.08258    406.06532    116.25054      39457.2 
  472400    295.52867   -1462.8534    509.91222    375.47842    -391.8361      39457.2 
  472500    298.91405   -1460.1008     487.4425    370.97877   -421.75186      39457.2 
  472600    297.63216   -1444.2689    475.12055    368.72655   -257.96348      39457.2 
  472700    289.91961   -1478.8775    494.97789    319.30686   -395.15447      39457.2 
  472800    287.73896   -1448.6852    528.69406     373.4132    12.823813      39457.2 
  472900    302.51851   -1483.2298    500.39339     377.0029    133.10766      39457.2 
  473000    292.88979   -1486.8065    493.18267    322.93383   -365.94287      39457.2 
  473100    295.59394   -1456.1081    520.27751    392.88238   -337.70109      39457.2 
  473200    311.17241   -1473.8524    513.79493     438.6817   -452.79394      39457.2 
  473300    291.95911   -1443.4452     489.0733    358.00223    -1099.101      39457.2 
  473400    299.72918   -1481.2069    516.90361    382.99777    -1251.448      39457.2 
  473500    289.35921   -1484.5434    497.16645    313.31052   -845.17852      39457.2 
  473600    296.27727   -1463.3176    489.90496     358.3719   -671.37913      39457.2 
  473700    298.61787    -1501.715    495.17448    335.76522   -170.23382      39457.2 
  473800    305.84786   -1492.5512    514.38271     396.6365   -102.19579      39457.2 
  473900    293.22636   -1514.6795    499.02315    302.41414   -53.611482      39457.2 
  474000    295.56957   -1459.6676    498.03974    366.97552    437.68464      39457.2 
  474100    308.70986   -1457.7308    491.47274    421.41175    81.867955      39457.2 
  474200    293.58896   -1486.2059    503.50383    336.99836    211.40963      39457.2 
  474300    299.19552   -1491.9843    483.66114    336.57914    218.69077      39457.2 
  474400     303.3957   -1492.0982    513.87143    385.55557    244.08423      39457.2 
  474500    306.37261   -1532.3653    490.36901    335.16741    537.44398      39457.2 
  474600    284.68455   -1516.2329    504.78605    268.22776   -223.20918      39457.2 
  474700    306.07126   -1503.1926    496.71465    369.33121    -563.7773      39457.2 
  474800    303.27319   -1478.7856    492.71043    377.15643   -1063.1754      39457.2 
  474900    303.05364   -1469.7543    499.11933    391.60985     -318.612      39457.2 
  475000    304.38116   -1442.1336    503.10812    429.18662    274.77193      39457.2 
  475100    315.91889   -1484.4296    506.72621    442.37148    156.29589      39457.2 
  475200    299.90382   -1474.1393    496.67487    370.62174    823.36887      39457.2 
  475300    284.64897   -1492.1539    486.31632    273.67703    582.27656      39457.2 
  475400    299.37412   -1525.5692    491.35241    311.48836    279.60683      39457.2 
  475500    307.79118   -1523.9257    468.88919    328.50379    518.29502      39457.2 
  475600    292.00263   -1499.0049    518.55492    332.11982    579.70555      39457.2 
  475700    303.91344   -1453.4255    499.32203    412.00611    218.66663      39457.2 
  475800    291.34335   -1490.8506    499.95847    318.71412    244.32377      39457.2 
  475900      290.752    -1487.224    495.09337    314.81747    762.02097      39457.2 
  476000    293.66836   -1446.1469    505.63159    379.54201    607.56196      39457.2 
  476100     304.2099   -1451.7875    528.29923    443.95393    860.24985      39457.2 
  476200    291.81822   -1452.4694    501.74488    361.01636    163.31162      39457.2 
  476300    301.08624   -1458.4093    504.57815    399.57005    -140.1723      39457.2 
  476400    296.05231   -1532.1591    507.61963    306.23392    27.728436      39457.2 
  476500    294.32873   -1527.0233    479.79559      275.798   -73.313748      39457.2 
  476600    298.03155   -1489.1465    511.37104    361.89471   -130.77251      39457.2 
  476700     293.8978   -1510.8067    490.18216    300.46415    -87.57217      39457.2 
  476800    299.87223   -1457.8646    515.23026    405.30985    53.920432      39457.2 
  476900     302.4393   -1505.8165    504.00757    357.67439    642.54686      39457.2 
  477000    302.54648   -1525.2418    521.59609    356.31935    604.75451      39457.2 
  477100    308.37516   -1490.6033    490.24932    385.81134    1074.0672      39457.2 
  477200    294.20775   -1509.0996    475.15311     288.5354    317.19618      39457.2 
  477300    298.47243   -1507.5785    527.14947    361.22296    202.20105      39457.2 
  477400    300.84829   -1485.6278     494.2795    360.98327   -246.10303      39457.2 
  477500    297.75738   -1506.4177    497.51034    329.53037    -115.3471      39457.2 
  477600    301.51046   -1507.4458    495.50044     343.3627   -50.844194      39457.2 
  477700    305.92954    -1504.544    461.28418    331.91233    372.35921      39457.2 
  477800    307.20624   -1478.5337     528.3276    430.70485    191.97626      39457.2 
  477900    293.66142   -1505.5341    485.23064    299.72265    804.82006      39457.2 
  478000    281.15975   -1513.6177    481.03762    231.25035   -522.85364      39457.2 
  478100    301.41083   -1502.4936    482.66839    335.03499   -692.66921      39457.2 
  478200    304.50611    -1488.747    486.65535     366.6821   -758.31139      39457.2 
  478300    294.33072   -1459.1225    499.79464     363.7068   -756.00041      39457.2 
  478400    303.33217   -1491.0168    509.40101    381.88096   -931.22681      39457.2 
  478500    303.93764   -1501.3281    476.81937    341.70971   -34.320913      39457.2 
  478600    297.26397    -1457.875    493.68808    372.03296    75.895346      39457.2 
  478700    288.93117   -1447.9297    526.73273    377.56639   -30.675971      39457.2 
  478800    304.94979    -1474.527     507.5724    403.81344   -686.56882      39457.2 
  478900    310.69792    -1452.303    480.88214    425.18541    213.78131      39457.2 
  479000    306.42763   -1466.0978    484.01626     395.3295    241.38738      39457.2 
  479100    302.94518   -1479.2192     515.2105    397.74851    525.26996      39457.2 
  479200    296.68186   -1454.8992    505.11025    383.81429    743.58104      39457.2 
  479300    298.62881    -1466.506    485.84351     361.6924    1269.5563      39457.2 
  479400    301.97228   -1461.6683    529.90402    425.61973    1137.3819      39457.2 
  479500    295.97067   -1494.7901    480.48794    316.10426     289.5973      39457.2 
  479600    290.36245   -1523.6147    490.20315    271.78556   -550.62967      39457.2 
  479700    290.25586   -1474.6391    503.03411    333.11296   -92.162024      39457.2 
  479800    304.84163   -1471.3704    510.96831    409.87974    -266.9424      39457.2 
  479900    301.52181   -1469.3043    501.12359     387.1784   -721.01709      39457.2 
  480000    308.37027   -1460.8452     503.3766    428.67478   -331.86016      39457.2 
  480100    306.16506   -1440.8943     533.6521    468.98861     -31.6619      39457.2 
  480200      296.141   -1484.0105    525.38278    372.54433   -408.31667      39457.2 
  480300    309.99413    -1479.373    494.11454     408.1842   -165.89507      39457.2 
  480400    290.93495   -1511.3786    501.54213    297.93407   -346.79797      39457.2 
  480500    307.83118   -1518.9168    490.02024    354.82355    362.40749      39457.2 
  480600    302.86656   -1536.9868    514.92582    339.34284     903.2111      39457.2 
  480700    304.42011    -1527.867    467.41054    307.93066     339.4959      39457.2 
  480800    301.03893   -1513.0655    474.18701    314.31005    60.483411      39457.2 
  480900    295.51368   -1492.0272    509.14634    345.47131   -178.43565      39457.2 
  481000    293.15096   -1531.6975    493.89205    279.92609   -539.70547      39457.2 
  481100    295.45089   -1466.6768    477.15009    338.54327   -98.092497      39457.2 
  481200    300.01614   -1489.9805    507.96168    366.57224   -49.577551      39457.2 
  481300     288.8817   -1488.4798    503.13835    313.19958   -393.11603      39457.2 
  481400     306.8375   -1497.5308     479.6666    361.38927    -403.3494      39457.2 
  481500    297.00954    -1526.183    478.47495     287.3681   -556.07675      39457.2 
  481600    314.38237   -1472.6977    508.16555    448.63596   -254.96932      39457.2 
  481700      287.993    -1497.958      477.156    273.74427   -386.00299      39457.2 
  481800    297.16884   -1481.4621    474.56197    328.89206    494.54566      39457.2 
  481900    294.29862   -1480.9844    494.89669    336.80273     507.1597      39457.2 
  482000    304.85496   -1495.0791    491.37217    366.63489    349.85212      39457.2 
  482100    314.39441   -1490.7752    496.22484    418.67185    692.95834      39457.2 
  482200    308.57858   -1473.7416     503.5663    416.90442    789.75992      39457.2 
  482300    302.67027   -1457.5047    492.47051    395.48731    603.72783      39457.2 
  482400    300.69933   -1434.3131    508.91523    426.26411    414.03967      39457.2 
  482500    301.09786   -1497.3018    486.41103    342.56263    52.585453      39457.2 
  482600    308.78176   -1404.7208    480.60956    463.88178    697.30428      39457.2 
  482700    297.06225   -1420.3186    512.12698     427.1215     -222.829      39457.2 
  482800    303.82378   -1466.0766    499.38086    399.01087     -367.736      39457.2 
  482900    292.92068   -1447.2436    521.50786    390.96075    -470.3365      39457.2 
  483000    296.92307   -1479.0717    485.39391    341.00969   -500.46828      39457.2 
  483100    308.19432   -1473.4887    509.83305    421.69681   -619.54737      39457.2 
  483200    292.96813   -1460.7354    488.30301    344.47735   -992.79745      39457.2 
  483300    303.62455   -1443.4465    504.87958    426.24416    -637.3788      39457.2 
  483400    301.46619    -1452.799    493.92858    396.23866   -538.39084      39457.2 
  483500    305.13902   -1443.5109    510.97539    439.08312   -485.05415      39457.2 
  483600     288.6005   -1460.5753    487.75012    324.45185    178.05281      39457.2 
  483700    303.29017   -1470.7451    491.08254    383.64539   -543.20448      39457.2 
  483800     299.8417   -1503.1454    470.90334    315.56479   -113.90183      39457.2 
  483900    307.94893   -1466.4014    498.35994    416.20795    65.340104      39457.2 
  484000    296.42027   -1468.8737    515.23805    378.79166   -350.59008      39457.2 
  484100    305.31842   -1435.2226     517.6348    454.83725     214.5199      39457.2 
  484200     291.1426   -1439.6276    489.14212    358.21846   -171.33179      39457.2 
  484300    305.95588   -1438.7956     496.4432    432.93808    132.81315      39457.2 
  484400    301.75401   -1452.6381    536.86066    440.62537    99.179828      39457.2 
  484500    295.65389   -1473.8447     485.1942    340.33197    213.97799      39457.2 
  484600    298.97727   -1454.1801    503.51008    393.25115    362.41211      39457.2 
  484700    302.38808   -1445.9947    489.06724    402.32562   -48.503431      39457.2 
  484800    303.32779   -1466.3097    501.11681    398.28423   -689.23102      39457.2 
  484900     298.3642   -1456.4148    490.98148    375.73212   -371.50238      39457.2 
  485000    299.75729   -1463.1512     472.3435    356.61975   -450.57513      39457.2 
  485100     282.1728   -1486.5105    504.72348    286.59708   -465.18916      39457.2 
  485200    306.13178   -1475.1013    475.09864    376.07855   -455.39967      39457.2 
  485300     301.0963   -1448.2677    508.64586    413.82453   -425.37998      39457.2 
  485400    302.69266   -1490.7096    511.16649    381.07906     185.6893      39457.2 
  485500    304.53321   -1472.6141    517.13046    413.41185    453.07652      39457.2 
  485600    293.27217    -1506.567    492.64273    304.35218    199.30271      39457.2 
  485700     296.7969   -1456.1763    491.22534    369.16942    473.41625      39457.2 
  485800    297.92583   -1502.6243    523.25713    359.82773    732.65763      39457.2 
  485900      289.905    -1478.041    490.92132     316.0212    323.05921      39457.2 
  486000    304.99394   -1487.8619     489.2553    372.35997   -437.76803      39457.2 
  486100    301.75216   -1481.3411    477.97208    353.02549    28.157726      39457.2 
  486200    296.53002   -1514.0665    486.64404    305.49826    36.896745      39457.2 
  486300    301.39828   -1524.1457    479.99632    310.65441   -74.976116      39457.2 
  486400    287.98071   -1540.4856    465.51918     219.5246   -250.16578      39457.2 
  486500    300.21383   -1512.2887    482.57521    319.76612   -83.961212      39457.2 
  486600    294.33923   -1504.3738    482.42231    301.12147   -164.01814      39457.2 
  486700    293.50411   -1499.2773    505.99245    326.03421   -431.44607      39457.2 
  486800    295.42036   -1512.6933    487.12068    302.36004   -230.18898      39457.2 
  486900    311.38669   -1522.9329    484.85682    361.62628    -480.1263      39457.2 
  487000    300.77467   -1523.9215    467.83514    295.91429   -551.93383      39457.2 
  487100    295.46176   -1525.6613    469.79286    272.25034   -785.18836      39457.2 
  487200    306.76272   -1510.9562    480.23713    348.19826   -203.48478      39457.2 
  487300    312.99058   -1523.7834    489.97077    373.09932   -430.51635      39457.2 
  487400    304.17327   -1508.0736     477.3767     336.5807    268.09055      39457.2 
  487500    301.04328   -1518.8564    490.34779    324.69948    147.43653      39457.2 
  487600    307.66539   -1518.4907    477.86423    342.34835    587.24806      39457.2 
  487700     295.6486   -1536.8869    494.82615    286.89788    609.86862      39457.2 
  487800    301.70581   -1554.3111    474.02296    275.89805    493.37788      39457.2 
  487900    299.32771   -1532.0229    504.31493    317.78857    -136.3482      39457.2 
  488000    305.22513   -1525.3815    476.36712    322.99138    383.75512      39457.2 
  488100    299.85121   -1507.6723    487.06822    327.24558    807.53495      39457.2 
  488200    295.27572   -1563.0191    471.58258    235.84596    391.63178      39457.2 
  488300    299.78763   -1499.0388    484.35298    332.87803   -223.60735      39457.2 
  488400    297.70139   -1514.2608    480.23506    304.16036   -58.265757      39457.2 
  488500     302.6462   -1596.5386    471.16036    235.03505   -60.630934      39457.2 
  488600    302.57737   -1540.1211    456.68058    276.66338   -231.70475      39457.2 
  488700    304.31425   -1591.3769     472.7731     249.3075    -390.6614      39457.2 
  488800    299.21049   -1592.6379    484.64551    236.97722    317.70361      39457.2 
  488900    299.44927   -1594.1462    474.46031    226.35699    177.04043      39457.2 
  489000    305.69579   -1537.7174    492.73191    329.13596   -9.4406987      39457.2 
  489100    295.30813   -1521.3614    475.73246    281.79926    459.29142      39457.2 
  489200     302.2264   -1475.8188    492.00607    374.71353    42.708224      39457.2 
  489300    293.70502    -1474.073    489.02582    335.17497     426.0081      39457.2 
  489400    310.91914   -1523.4967    493.00611    367.11007    1038.1213      39457.2 
  489500    289.23549   -1532.1834    457.80794    225.75583    229.07562      39457.2 
  489600    300.04533   -1522.3158    481.63216    308.03857    80.209861      39457.2 
  489700    305.97115   -1547.2439    475.98879    304.10402   -429.12095      39457.2 
  489800    294.69928   -1525.1343    479.72517    279.28229    -210.8392      39457.2 
  489900    290.37125   -1521.2114    470.58577    254.61097   -189.80725      39457.2 
  490000    307.51467    -1473.866    527.61549    436.04686    486.03492      39457.2 
  490100    302.71879   -1492.2654    461.07707    329.55124   -15.815666      39457.2 
  490200    312.60747   -1503.3294     466.6548    368.51525    7.5978944      39457.2 
  490300    296.80902   -1441.9679    515.40159    407.60855   -458.59143      39457.2 
  490400    297.84627    -1454.562    479.79562    364.07097    296.54579      39457.2 
  490500    296.34768   -1490.7239    512.81275    354.18993    244.89528      39457.2 
  490600    304.02513   -1487.1105    468.84412    348.34526    405.38923      39457.2 
  490700    296.32786   -1467.3426    486.08416    350.75351    693.96772      39457.2 
  490800    295.47401   -1526.4348    488.72837    290.46737    69.879174      39457.2 
  490900    296.77094   -1470.0576    503.82932    367.77535    350.49093      39457.2 
  491000    305.38951   -1464.3363    509.79019    418.19854    181.16304      39457.2 
  491100    295.83042    -1447.756    498.77693    380.79688    219.82326      39457.2 
  491200    307.64342   -1501.8308    514.44433    395.48966   -414.10912      39457.2 
  491300    296.18994   -1515.4783    445.97202     261.8857   -22.918627      39457.2 
  491400     309.8676   -1532.3344    475.33493    335.87443   -378.67401      39457.2 
  491500      298.343   -1489.3447    480.71189    332.43734   -641.02309      39457.2 
  491600     308.0293   -1468.7108    476.61832    392.51821    258.31029      39457.2 
  491700    305.48647   -1473.4913    481.61472    381.30393   -300.64406      39457.2 
  491800    299.37064   -1487.1596    492.36043    350.89025    138.47687      39457.2 
  491900    314.37382   -1444.9434    516.37981    484.56607    139.27228      39457.2 
  492000    292.83873   -1465.3808    481.20181    332.14909   -160.55831      39457.2 
  492100    305.82028   -1468.9522     460.4136    366.14237    20.923853      39457.2 
  492200    307.40609   -1462.9805    467.37908    386.20786    323.06157      39457.2 
  492300    309.82603   -1455.9686    498.80539    435.52381    273.91949      39457.2 
  492400    296.17664   -1453.3292    483.66931    361.67239    397.36782      39457.2 
  492500    304.68401   -1492.1312     498.6935    376.13565   -534.05763      39457.2 
  492600    303.51509   -1481.7494    479.12674     361.6963   -84.765674      39457.2 
  492700    302.09392    -1475.575    479.57908    361.93482    40.071911      39457.2 
  492800    298.64664   -1482.7906    478.43489    338.07933   -222.83263      39457.2 
  492900    306.29447   -1492.9404    481.36657     365.2387    161.06873      39457.2 
  493000    302.70182   -1487.8429    476.48255    349.30295   -359.91256      39457.2 
  493100    301.26885   -1464.7125    500.00431    389.51386    52.069167      39457.2 
  493200    300.47703   -1477.8326    482.48085    355.31097    28.990842      39457.2 
  493300    300.93081   -1495.7337    500.94074    357.90952    248.23363      39457.2 
  493400    305.67451   -1466.2762    490.13337    397.88293   -155.87876      39457.2 
  493500    292.77951   -1492.8696    494.93251    318.12482     239.6473      39457.2 
  493600    301.70068   -1463.2418    495.43183    388.35315    147.22858      39457.2 
  493700    308.55714   -1484.7066    487.77396    390.05076    71.736221      39457.2 
  493800    299.43302   -1470.5125    474.55158    350.00897   -354.39792      39457.2 
  493900    320.13376   -1474.8603    484.11575    448.27643    -727.7107      39457.2 
  494000    298.79824   -1446.1159    509.30524    406.30578    -202.4275      39457.2 
  494100    303.56128   -1448.1242    495.40412    411.80654    177.32335      39457.2 
  494200     304.2968    -1509.379    444.84354    303.29737    101.40985      39457.2 
  494300    296.18806   -1482.6545    508.53017    357.25922    459.67459      39457.2 
  494400    299.68126   -1460.2663     510.5374    397.35676    846.91871      39457.2 
  494500    296.25546   -1450.5986    485.78383    366.87181      553.404      39457.2 
  494600    299.32067   -1463.9018    489.17459    370.73763    146.50538      39457.2 
  494700    296.30058   -1455.9626    484.10153    360.02827    314.23234      39457.2 
  494800    314.57884   -1489.3044    471.73257    396.47947    380.00863      39457.2 
  494900    290.21442   -1479.3329    474.20216    299.40091   -178.27264      39457.2 
  495000      314.403   -1486.7522    490.18262    416.69124    -327.0763      39457.2 
  495100    312.37661   -1455.0322    481.49954    430.61944   -452.81247      39457.2 
  495200    300.62974   -1485.0117    467.55034    333.88782   -858.42174      39457.2 
  495300    298.39994   -1459.8574    482.41063    363.87934   -680.27936      39457.2 
  495400    298.50876   -1481.5814    481.61532    341.84918   -298.11873      39457.2 
  495500    302.91306   -1485.0115    474.88999    351.49134    7.5825431      39457.2 
  495600    298.19475   -1506.6548    471.89008      305.639    -420.7577      39457.2 
  495700    294.59792   -1439.2415    452.28112    337.27536   -517.80146      39457.2 
  495800     285.7357   -1482.2277    499.40602    301.57784   -622.28207      39457.2 
  495900    305.74467   -1482.1537    480.53216    372.71955   -520.62385      39457.2 
  496000    291.64972   -1524.4859    489.13486    275.63244   -286.25166      39457.2 
  496100    302.68294   -1530.8782    463.68602    293.38629    78.218996      39457.2 
  496200    303.79188   -1485.1116    453.29464     333.7462   -275.20573      39457.2 
  496300    283.32841   -1476.8961    475.74994    272.43244    -295.9576      39457.2 
  496400    301.15806     -1499.16    464.27741    318.84147   -103.40619      39457.2 
  496500    297.53062   -1461.7075    475.84797    351.55894   -196.85911      39457.2 
  496600    296.72093   -1543.9732    451.78075    241.58641    540.26626      39457.2 
  496700    303.73056   -1496.6251    479.45305    348.11547    377.79677      39457.2 
  496800    296.83736    -1497.392    508.63401    345.54415    305.59406      39457.2 
  496900    292.52864   -1482.4518    463.41759    295.90001    347.38595      39457.2 
  497000     307.0325   -1500.4817    465.36165    345.00995    328.12232      39457.2 
  497100    301.77876   -1498.3308    469.94806    328.13132    431.33277      39457.2 
  497200    301.37632   -1547.8236    472.32004    279.20151    425.14827      39457.2 
  497300    309.83238   -1510.5281    460.24198    342.42952    726.40226      39457.2 
  497400    305.08546   -1520.4424    478.95881    329.89433    372.71182      39457.2 
  497500     304.6293   -1500.5839    466.99514    335.73868    97.981246      39457.2 
  497600    298.95332   -1506.0168    471.29154    309.08833   -336.02347      39457.2 
  497700    292.18576    -1513.591    456.61079    256.41277   -660.10235      39457.2 
  497800    294.02922   -1542.1628    478.41906     257.9357   -477.38555      39457.2 
  497900    288.61847   -1501.8245    490.50339    286.03667   -291.03941      39457.2 
  498000    308.07191   -1495.7047    484.06517    373.16269   -161.85725      39457.2 
  498100    297.76814   -1533.0633    487.40067    292.82346   -233.94142      39457.2 
  498200    303.92604   -1519.3092    455.03251    301.88956    395.38706      39457.2 
  498300    303.42425   -1496.3154    482.40332     349.9986    206.29383      39457.2 
  498400    291.02274   -1516.7986    493.33075    284.69731      478.811      39457.2 
  498500    297.08005   -1477.9398    477.74246    335.19577    347.86857      39457.2 
  498600    298.78358   -1486.3687    479.85948    336.54131     155.7748      39457.2 
  498700    308.49302   -1458.3659    491.53804    419.86719    427.29603      39457.2 
  498800    295.82735   -1469.9396    462.08693    321.90954    492.91517      39457.2 
  498900    314.35748   -1445.1336    473.83772    441.76032    414.34877      39457.2 
  499000    311.05426   -1469.9923     481.7272    409.94295    304.01697      39457.2 
  499100    289.22377   -1494.2877    472.80963    278.60054    182.03713      39457.2 
  499200    296.62926   -1519.1792    469.54658    283.73419   -119.29169      39457.2 
  499300    305.43449   -1492.5414    483.12852    363.53394    -181.0796      39457.2 
  499400    303.86378   -1443.0141    484.86073    407.73306   -75.164303      39457.2 
  499500    297.45905   -1474.3238    486.13037    348.90331   -333.79618      39457.2 
  499600    310.26518   -1544.7986    482.15543    332.01788   -331.32539      39457.2 
  499700      301.565   -1517.4307    494.36672    332.48929   -362.20726      39457.2 
  499800    292.56905   -1450.2346    499.72739     364.6087   -145.13181      39457.2 
  499900    309.39705   -1481.0902    484.11275    393.78128   -678.94396      39457.2 
  500000    303.07202   -1492.1362    468.95706    339.14826   -1308.2014      39457.2 
  500100    299.94539   -1477.1436    478.53421    349.66359   -937.93412      39457.2 
  500200    301.64457    -1480.928    506.81935    381.80226   -395.98085      39457.2 
  500300    302.65661   -1499.4817    451.11789    312.09625    66.366222      39457.2 
  500400    314.83769   -1495.8095    496.80445     416.2097     303.1166      39457.2 
  500500    292.85073   -1454.1858    480.28952    342.48578    66.952275      39457.2 
  500600    299.09231   -1532.9411    465.42355    276.92079    421.06365      39457.2 
  500700    294.91563    -1517.547    471.02635    279.14324    467.17968      39457.2 
  500800    309.33145   -1521.1974    473.46716     342.7337    792.61845      39457.2 
  500900    292.92614   -1536.2978    463.85957    244.28274    492.51704      39457.2 
  501000    294.85139   -1523.1087    468.28614    270.55263    697.94405      39457.2 
  501100    301.54007   -1505.8529     469.7049    319.29312    592.51875      39457.2 
  501200    305.56493   -1533.5728    461.62225    301.58258    568.61708      39457.2 
  501300    294.42085   -1522.6149    446.03375    246.85874    497.50475      39457.2 
  501400    295.48592   -1539.2517    511.19093    300.16664     590.3128      39457.2 
  501500    301.21295   -1521.7286    424.47744    256.71964    562.57513      39457.2 
  501600    301.83467   -1528.0725    484.85615    313.54909    449.05714      39457.2 
  501700    297.91004   -1556.5182    497.72902    280.33482    370.69636      39457.2 
  501800    297.86648   -1510.8866    468.81852    296.86005    666.12761      39457.2 
  501900    310.91493   -1485.9474    506.15642    417.79071    535.87269      39457.2 
  502000    297.32185   -1507.1273    481.22312    310.57577   -47.439858      39457.2 
  502100    298.93554   -1482.1207    467.76609    329.37909   -148.47373      39457.2 
  502200     293.2941   -1461.9982    484.00209    340.37889   -525.00272      39457.2 
  502300    305.52425   -1523.7886    455.16189    304.72359   -267.78164      39457.2 
  502400    303.03298    -1551.446     488.2124     298.9183   -170.82148      39457.2 
  502500    295.83859   -1546.0919    454.27495    237.99573   -172.07798      39457.2 
  502600     296.0294    -1509.177    470.25738    291.75078   -261.57417      39457.2 
  502700    311.31709    -1501.963       478.52    375.94649    -319.5169      39457.2 
  502800    298.70831   -1523.8333    469.21892    288.09784    -471.3641      39457.2 
  502900     288.9867   -1484.0695    467.25819    282.20174   -341.27727      39457.2 
  503000    295.97069     -1475.76    470.83512    325.48163    622.51333      39457.2 
  503100    298.19772   -1501.3453    474.93639    314.00813     146.5226      39457.2 
  503200    292.99098   -1505.0758    487.74366    299.68031     96.52439      39457.2 
  503300    305.09614    -1504.217    484.14926    351.35816    420.68812      39457.2 
  503400    301.94231   -1536.0803    455.96587    277.13483   -161.13038      39457.2 
  503500    306.30753   -1496.6504    482.27086    362.49161   -284.11017      39457.2 
  503600    292.54006   -1528.7903    462.91118    249.10651    -17.94529      39457.2 
  503700    301.89283    -1568.342    452.92914    241.61403   -525.88163      39457.2 
  503800    299.56167   -1549.3806    453.03043    250.19794   -909.82003      39457.2 
  503900    302.42711   -1523.5156    447.43473    283.34761   -436.89394      39457.2 
  504000    294.97902   -1582.0802    453.62752    197.49614   -1078.3637      39457.2 
  504100    309.79077   -1547.4512    456.52851    301.60593   -564.53753      39457.2 
  504200     293.4363   -1516.2267    458.02108    260.80859   -925.30539      39457.2 
  504300    299.70601   -1549.9057    457.08302    254.37423   -1060.2028      39457.2 
  504400    305.26895   -1513.0045    445.24561    304.44385   -722.68791      39457.2 
  504500    284.29183   -1485.7713    478.58822    270.72624   -516.59434      39457.2 
  504600    313.09418   -1465.5735    482.84749    424.65158    -246.5318      39457.2 
  504700    302.31992   -1467.7092     472.2575    363.49495   -82.124434      39457.2 
  504800    300.57205    -1447.351    491.42752    395.16641    127.16797      39457.2 
  504900    307.14974   -1470.6647    456.53794    366.53023    235.36325      39457.2 
  505000    297.68633   -1480.6028    465.60557    323.12112    493.75536      39457.2 
  505100    308.84198   -1433.2527    464.36476    419.37577   -61.346844      39457.2 
  505200    310.61965   -1398.1197    487.01883    485.15362   -318.80417      39457.2 
  505300    298.79359   -1485.4211    489.60725    347.28172    164.95969      39457.2 
  505400    293.39493   -1497.9721    477.33283    298.18897   -490.47192      39457.2 
  505500     299.3078   -1467.6881    481.97215    359.69106   -630.10088      39457.2 
  505600     295.3822    -1430.238    468.21829    365.74149   -507.16161      39457.2 
  505700    305.02867   -1439.5002    514.60985     446.2323   -536.02197      39457.2 
  505800    306.75699   -1465.3229    467.38423    380.95285   -176.69084      39457.2 
  505900    307.45793   -1444.6213    497.62729    435.04829     34.17609      39457.2 
  506000    286.30025   -1450.4505    464.41057    300.89729    3.1492025      39457.2 
  506100    306.02207   -1449.0216    476.35761    402.92409    173.03366      39457.2 
  506200    305.17432   -1467.9252     474.9699    378.82212    57.467929      39457.2 
  506300    299.97186   -1454.6026    498.97983    392.76925    169.26019      39457.2 
  506400    313.58376   -1450.4162    479.33785    438.49995    87.352632      39457.2 
  506500    298.21939   -1452.6296    484.42723    372.31214    13.541909      39457.2 
  506600    307.89103   -1482.5829    471.97766    373.38394    264.84175      39457.2 
  506700    291.05631    -1483.449    466.87485    291.74188    481.15783      39457.2 
  506800    296.68921   -1440.4649    496.17044    389.34184    194.11435      39457.2 
  506900    301.85315   -1418.0535    496.05602      434.851    235.29463      39457.2 
  507000    294.90574   -1480.1382    494.67469    340.15594   -149.42019      39457.2 
  507100    313.80938    -1457.894    500.57785    453.27632    287.85778      39457.2 
  507200    300.63905   -1436.4254    459.35521    374.32085    493.25388      39457.2 
  507300    299.99331   -1472.7917    463.11587    338.81259    147.06241      39457.2 
  507400    285.34823   -1462.6432    524.80015    344.81478    944.14824      39457.2 
  507500    295.20602   -1482.4735    455.89995    300.39564    717.45977      39457.2 
  507600    299.42237   -1474.7754    493.74959    364.89618    892.50818      39457.2 
  507700    304.16205   -1447.8545    469.28867     388.6613    632.42359      39457.2 
  507800    307.43339   -1492.5314    486.70773    376.10834   -32.834184      39457.2 
  507900    287.12251    -1492.828     461.6556    259.46089   -16.097252      39457.2 
  508000    308.45356   -1485.9865    463.90505    364.43628   -49.489272      39457.2 
  508100    297.38842   -1431.3766    469.86042    375.26307   -344.12236      39457.2 
  508200    297.93959   -1457.2612    470.52527    352.52089    42.525248      39457.2 
  508300    298.13678   -1455.2009    484.76283     369.7051    352.04686      39457.2 
  508400    300.24783   -1478.1832    468.36987    339.81913    93.608555      39457.2 
  508500     307.1567   -1481.0042    488.01897      387.703    21.773573      39457.2 
  508600     301.1171   -1500.9176    472.39423    325.01654   -167.12758      39457.2 
  508700    293.73205   -1454.3147    475.29407    341.32297   -608.50319      39457.2 
  508800    293.95725   -1445.9783     502.6374    378.01503   -249.21479      39457.2 
  508900    296.81666   -1468.0894    475.25215    341.37192   -138.60629      39457.2 
  509000    306.38364   -1452.1991    472.17971    397.19393    192.83759      39457.2 
  509100    310.52971   -1491.1215    464.58116    369.30983    361.86647      39457.2 
  509200    288.37151   -1485.7976    453.78879    264.23888    538.64846      39457.2 
  509300    307.09971   -1452.1367    470.95949    399.25487   -257.29859      39457.2 
  509400    302.77323   -1416.7773    473.75724     417.9642    160.42596      39457.2 
  509500    308.64044   -1411.4187    473.92095    449.86002    -452.5409      39457.2 
  509600    300.79012   -1445.3628    492.21609    398.92338   -302.92301      39457.2 
  509700    307.14902   -1485.1217    462.23167    357.76373   -147.71164      39457.2 
  509800    306.34458   -1470.0722    471.49353    378.45907    61.775604      39457.2 
  509900    287.39392   -1454.4919    494.42967    331.79108   -328.83585      39457.2 
  510000     307.2452   -1468.0385    498.27939      411.327    306.34664      39457.2 
  510100    289.96101   -1474.1539    459.52456    288.76323   -25.864877      39457.2 
  510200    299.73802   -1453.6161    492.85108    386.57577    44.408468      39457.2 
  510300    296.10867   -1480.2809    481.19964    331.94547    314.32848      39457.2 
  510400    308.19213   -1529.6779    471.07373    326.73844   -155.36309      39457.2 
  510500    303.61741   -1509.7511     458.8355    313.86336    263.51479      39457.2 
  510600    290.03877   -1513.4273    494.74759    285.06245   -133.48753      39457.2 
  510700    316.47129   -1501.3921    482.98973    404.15562    234.26094      39457.2 
  510800    290.51899   -1537.0043    466.38685    235.28328   -55.965929      39457.2 
  510900    289.46043   -1540.2791    498.88785    259.75123   -378.00844      39457.2 
  511000     295.8747   -1480.7126    469.28101    318.54339   -7.9610873      39457.2 
  511100      299.381   -1487.9298      526.259    384.06517   -128.39308      39457.2 
  511200    299.83613   -1512.0804    469.73641    305.43791   -394.40313      39457.2 
  511300    305.88533   -1512.2493    455.41392    318.13801   -326.38675      39457.2 
  511400    295.59198   -1540.9461    445.79348    233.55153   -410.64017      39457.2 
  511500    302.59704   -1567.3155    474.74993    267.62678    -252.6789      39457.2 
  511600    302.74132   -1511.0192    467.83992    317.66159    323.80222      39457.2 
  511700    291.75718   -1552.8251    474.66253    233.30395    284.52667      39457.2 
  511800     292.4575   -1533.6524    486.04673    267.00875    303.14769      39457.2 
  511900    291.25234   -1542.1091     483.8049    250.89299    474.99822      39457.2 
  512000    295.58217   -1483.2722     493.7924    339.18026    700.82012      39457.2 
  512100    304.28868   -1530.4509    495.39471    332.74016    -99.30458      39457.2 
  512200    305.95013   -1519.8239    484.26504    339.70585   -646.23435      39457.2 
  512300    306.69261   -1525.9178    500.12442    352.80882    -266.2891      39457.2 
  512400     310.4013   -1495.2445    474.73362    374.76209   -389.31874      39457.2 
  512500    303.91288   -1481.6454    501.53789    385.99959   -81.009457      39457.2 
  512600    290.23729   -1518.8255    486.22767    272.03672    -619.1179      39457.2 
  512700    296.33098   -1542.3629    458.54017    248.20327    179.93559      39457.2 
  512800    297.54291   -1496.6195     466.9138    307.76801    86.357757      39457.2 
  512900    298.39788   -1494.0772    481.90842    329.14806   -168.57999      39457.2 
  513000    298.88842   -1508.6104    462.99477    297.90625   -274.52544      39457.2 
  513100    302.26641   -1513.6127     464.8678    309.96125    199.98235      39457.2 
  513200    293.50253   -1527.3939    443.95984    235.87785    -141.5125      39457.2 
  513300    290.40901   -1501.9661    505.02396    308.46421   -153.71001      39457.2 
  513400    292.74717   -1531.4805     478.7314    263.16744    84.839966      39457.2 
  513500    291.53971   -1572.6131    462.14011    200.01599    602.90665      39457.2 
  513600    301.80878    -1498.611    464.83293    322.87092    770.50351      39457.2 
  513700    301.79816   -1480.7671     481.1068    356.94095    562.91876      39457.2 
  513800    298.17949    -1477.078    505.58486    368.84201    383.93484      39457.2 
  513900    308.86303   -1511.8132    486.63759    363.18271    467.63843      39457.2 
  514000    297.17741   -1492.7483     484.3616    327.44408    184.30355      39457.2 
  514100    299.26973     -1489.79    474.03016      329.476    249.57927      39457.2 
  514200    313.29965    -1498.038    461.41463    371.67783    545.50479      39457.2 
  514300    309.39892   -1484.0252    488.73987    395.48188     346.5037      39457.2 
  514400    275.48766   -1490.4048    506.09803    254.02717   -60.724531      39457.2 
  514500    296.18698   -1524.4103    472.07774    279.04612   -303.82127      39457.2 
  514600    309.14997   -1457.7145    486.29456     418.2282    -640.1991      39457.2 
  514700    296.76136   -1476.2309    496.17053    353.90017   -460.61522      39457.2 
  514800    303.19371   -1487.3045    492.59064     368.1605    106.42399      39457.2 
  514900    303.28068   -1487.5044    472.13974    347.90064    156.44898      39457.2 
  515000    304.83907   -1445.8511    506.83855    431.25787   -51.524942      39457.2 
  515100    302.05981   -1476.2633    498.16925    379.68342     268.1683      39457.2 
  515200    295.57682   -1485.5175    483.05048    326.16893    154.52788      39457.2 
  515300    300.26145   -1508.7392    497.02944    337.98392    56.580134      39457.2 
  515400    293.59025   -1489.0812    491.45665     322.0817   -773.09984      39457.2 
  515500    294.43526   -1484.7273    473.73569    312.51299    -1081.118      39457.2 
  515600     299.5536   -1525.6688    484.11227    304.95538   -725.01947      39457.2 
  515700    301.00485   -1576.2179    478.15901    254.97644   -217.99203      39457.2 
  515800    308.09765   -1534.2413    486.07422    336.75086   -526.95234      39457.2 
  515900    309.69271    -1511.079    477.39208    358.40088   -166.85476      39457.2 
  516000    294.12641   -1537.0477     478.9651    264.03367   -285.52894      39457.2 
  516100    300.06061   -1529.8038    478.47723    297.46431   -68.461059      39457.2 
  516200    295.03161   -1531.0952     480.5309    275.62094   -567.99013      39457.2 
  516300    304.62426   -1534.2479    467.44588    302.50276   -523.93064      39457.2 
  516400    302.01014   -1538.3135    493.81836    313.05901   -314.43819      39457.2 
  516500    302.26756   -1569.4617    485.02632     274.2759   -560.62429      39457.2 
  516600    301.65806   -1524.4599    466.46242    297.97406   -340.02101      39457.2 
  516700    311.28521   -1534.7842    463.55907    328.02101    586.56619      39457.2 
  516800     306.0941   -1481.9625    476.01001     369.9593    431.16062      39457.2 
  516900    292.95983   -1525.0808    479.59239    271.38404    287.19746      39457.2 
  517000    302.59855   -1495.7395    484.39576    348.85531    483.83511      39457.2 
  517100    306.18264     -1501.41    489.77848    364.67829    521.14323      39457.2 
  517200    298.94407   -1465.7417    479.17083    357.20118   -5.4520107      39457.2 
  517300    299.67315   -1473.3446    504.90616    378.61081    443.90835      39457.2 
  517400    302.12036    -1486.989    490.83474    361.89529    148.56288      39457.2 
  517500    293.59624   -1482.7606    477.59376    314.56637   -458.43667      39457.2 
  517600    304.91271   -1473.4935    501.61825    398.72612   -231.71859      39457.2 
  517700    303.01806   -1441.3863    484.89703    405.59559    239.31634      39457.2 
  517800    286.16592   -1479.0613    480.91353    288.18568    28.375311      39457.2 
  517900    294.28266   -1492.2847    479.86294    310.39694    175.98489      39457.2 
  518000    307.00284   -1485.1682    480.22233    375.05081    308.75735      39457.2 
  518100    292.47955   -1520.9608    477.15622    270.90902      422.171      39457.2 
  518200    294.56258    -1492.792    495.22641    326.51139     322.8295      39457.2 
  518300    306.69714   -1494.3813    506.94658    391.18777     562.9472      39457.2 
  518400    297.47313   -1465.9494     471.6067    342.81734   -132.43039      39457.2 
  518500    296.43623   -1509.6809    503.58413    326.40232   -279.89895      39457.2 
  518600    302.00569   -1479.2654    494.76954     373.0383   -590.34559      39457.2 
  518700    305.44495   -1466.7895    478.26086    384.46515   -363.05806      39457.2 
  518800    308.48534   -1459.2325    486.74431    414.17241   -684.98196      39457.2 
  518900    310.62949   -1493.5544    476.31524    379.05953   -324.71243      39457.2 
  519000    299.84412   -1449.6847    488.98847    387.12155   -166.29514      39457.2 
  519100    289.53153    -1440.376    502.60257    363.68864   -320.14331      39457.2 
  519200    301.35673   -1432.0972    488.88663    411.40646   -709.42566      39457.2 
  519300    298.71786   -1411.4188    507.45287    438.78923   -406.46384      39457.2 
  519400    297.15353   -1440.4419    493.85924    389.14077   -137.78071      39457.2 
  519500    292.76939   -1469.2815    482.03426    328.76916   -32.108749      39457.2 
  519600     309.5943   -1458.8481     524.6471    457.44438   -25.657098      39457.2 
  519700    306.95889   -1484.5354    458.16848    353.43223    371.99674      39457.2 
  519800    299.76859   -1464.2034    498.90144    382.17637    335.00395      39457.2 
  519900     293.5802   -1470.8776    484.49474    333.27819    515.13496      39457.2 
  520000    301.93041   -1454.5942    488.66282    391.26436    79.529738      39457.2 
  520100    293.48142   -1454.1492    488.98041    354.04825    595.05751      39457.2 
  520200    299.70903   -1447.1607    485.88531    385.93515    472.24019      39457.2 
  520300    293.37941   -1512.7825    465.04747    271.02343    304.56785      39457.2 
  520400    294.17946   -1499.0028    499.55856    322.91051    475.45533      39457.2 
  520500    310.89674   -1465.1216    513.03418    445.41259     517.6797      39457.2 
  520600    305.93513   -1463.3009    507.26394    419.16025    292.46495      39457.2 
  520700    303.48306   -1490.9027    479.26331    352.53563    273.17316      39457.2 
  520800    302.21612   -1489.4135    476.19325    345.25983    598.85785      39457.2 
  520900    301.91316   -1491.6568    482.18279    347.64424    429.44222      39457.2 
  521000    294.97184   -1505.7499    462.08345     282.2501     797.1145      39457.2 
  521100    301.95687    -1475.391    497.58992    379.51365    518.55827      39457.2 
  521200    289.51776   -1537.3134    504.58243     268.6692    348.64401      39457.2 
  521300    291.69184   -1511.5282    476.03009    275.67469    420.92737      39457.2 
  521400     300.3197    -1535.147    466.17873    280.98729   -282.00275      39457.2 
  521500    295.79819   -1534.5612    487.94191     283.0118     15.15014      39457.2 
  521600    299.41923   -1514.3121    467.09179    298.68759    70.759357      39457.2 
  521700    294.32308   -1540.9054    472.78425    254.87918   -119.65136      39457.2 
  521800    287.20489   -1550.8669    505.87257    246.00937   -189.37691      39457.2 
  521900    291.72367   -1529.4321      482.249    264.13277   -248.37463      39457.2 
  522000    286.56273   -1501.9631     466.6709    252.82488   -588.40071      39457.2 
  522100    301.59195   -1502.1643    478.74384    332.25388   -496.84905      39457.2 
  522200    293.10768   -1503.6512    472.41057    286.29644   -365.93822      39457.2 
  522300    293.21955   -1472.4894    485.44836    330.99887   -90.998935      39457.2 
  522400    286.95992   -1470.6271    480.09248    299.36791    -301.2993      39457.2 
  522500    294.98851   -1490.6742    471.16137     306.4787   -86.595391      39457.2 
  522600    299.45835   -1559.1239    474.29628    261.25606   -448.42472      39457.2 
  522700    306.32624   -1548.7402    462.61872    290.83387   -193.69955      39457.2 
  522800    289.42103   -1538.0513    484.44193    247.35598    473.05663      39457.2 
  522900    301.53414   -1544.0275    471.43155    282.81855    89.005891      39457.2 
  523000    294.82599   -1550.8765    429.67808    204.06252   0.14343426      39457.2 
  523100    302.27058   -1523.1965    485.30456     320.8329    870.91001      39457.2 
  523200    302.24521   -1508.4615    472.54096    322.69026    525.57211      39457.2 
  523300    297.16047   -1498.0887    474.50836    312.17425    449.21336      39457.2 
  523400    291.98691   -1532.5206    450.76765    230.74615    292.37507      39457.2 
  523500    297.15656    -1518.292    462.98792     280.4329    92.121997      39457.2 
  523600    293.60198   -1485.6938    461.38507    295.45026    161.20975      39457.2 
  523700    297.80636   -1492.4035    462.31641    308.57083    253.12641      39457.2 
  523800     297.8736   -1503.7206    472.78134    308.02095    550.44051      39457.2 
  523900    296.62378   -1529.1172    469.20192    273.42683    217.84375      39457.2 
  524000     305.6216   -1556.4011    463.81102    281.19778    512.02906      39457.2 
  524100    315.43116   -1553.3776    471.78319    336.28805    474.51447      39457.2 
  524200    299.17498   -1537.0923    465.23803    272.95561    20.316735      39457.2 
  524300    308.90811   -1511.9671    470.35471    346.94861   -38.504663      39457.2 
  524400     298.0303   -1532.4645    477.45518    284.65521    2.1973395      39457.2 
  524500    304.48319   -1501.9102    463.27784    330.03832    358.02375      39457.2 
  524600    288.69275   -1526.3829    473.87659    245.18538   -505.51903      39457.2 
  524700    297.15161   -1497.4563    489.89452    328.15303   -124.26145      39457.2 
  524800    287.69814   -1486.8006    491.05102    297.47128    619.57908      39457.2 
  524900     298.2557    -1507.166    465.26813    298.77983    -209.9778      39457.2 
  525000    302.22867    -1474.313    519.47683    403.70029   -390.34054      39457.2 
  525100    302.70664   -1454.1932    482.06639    388.55819   -1412.2083      39457.2 
  525200     299.9865   -1462.3607    466.90398    353.00106   -349.74312      39457.2 
  525300    313.53374   -1471.5813    471.03011    408.80224   -618.97209      39457.2 
  525400    304.54202   -1486.3408    446.63328    329.22756   -344.40488      39457.2 
  525500    293.78037   -1509.1814    449.27745    260.65684     299.6676      39457.2 
  525600    298.00955   -1529.1347    513.49236    323.92892    395.27442      39457.2 
  525700    306.05552    -1474.456    471.46717    372.74955    660.55469      39457.2 
  525800    298.92158   -1459.0388    475.51276     360.1449    399.52726      39457.2 
  525900    294.49051   -1458.5204    504.25533    369.48791    105.42813      39457.2 
  526000    291.42737   -1508.2767    491.22885    292.93613    552.86741      39457.2 
  526100    298.35425   -1515.7667    484.78363    310.13764   -211.20998      39457.2 
  526200    292.73752   -1482.2646    495.51405    329.12261    41.864634      39457.2 
  526300    309.46718   -1471.2956    458.93375    378.71221    87.286016      39457.2 
  526400    299.05618   -1499.3082    498.72369    343.69145   -224.89315      39457.2 
  526500    297.32022   -1453.3421    466.50892    349.63947    36.564801      39457.2 
  526600    305.27222   -1437.6376    490.58898    425.16883   -537.96115      39457.2 
  526700    299.59514   -1438.9831    475.32341     383.0389   -55.996384      39457.2 
  526800    294.77384   -1448.8406    476.73608    352.92199   -279.15513      39457.2 
  526900    296.45727   -1424.8856     489.4225    397.13053   -581.96414      39457.2 
  527000     303.1825   -1493.8314    474.16672    343.15939   -523.49582      39457.2 
  527100     307.1922   -1501.3778    472.16194    351.63195   -471.83107      39457.2 
  527200    298.05254   -1505.2377    487.80107     322.3279     182.0616      39457.2 
  527300    301.75884   -1484.7649    499.13748    370.79713    580.11894      39457.2 
  527400    297.89954   -1470.5273    488.44689    356.99635    643.33584      39457.2 
  527500    294.69839   -1483.5126       480.93    322.10477    504.41176      39457.2 
  527600    292.36931   -1495.8389    456.11104    274.49023    502.77393      39457.2 
  527700     299.3384   -1446.6015    478.06317    377.00623    857.07658      39457.2 
  527800    303.75842   -1415.4281    480.16707    430.15177    509.55138      39457.2 
  527900    303.80658   -1437.5545    489.81291    417.88762    351.23181      39457.2 
  528000    299.34091   -1428.4581    470.25227    387.34999    -169.8701      39457.2 
  528100    298.56995   -1427.8647    493.85033    408.07594   -65.180439      39457.2 
  528200    311.48335   -1463.4592    448.06237    384.74006   -323.89662      39457.2 
  528300    297.26957   -1477.1939    483.54387    342.59499   -414.23928      39457.2 
  528400    302.17129   -1463.7277    454.48905    349.03996    -484.9051      39457.2 
  528500    298.83843   -1449.9087    480.66277     374.0512    113.30688      39457.2 
  528600    306.89196   -1447.6191    475.63164    407.51081   -365.71377      39457.2 
  528700    294.67805   -1455.7675    441.85399    310.68244     67.39521      39457.2 
  528800    304.91029   -1441.0262    461.26188    390.82623    191.70979      39457.2 
  528900     288.9345   -1448.9052    469.36913    319.24225   -9.3060331      39457.2 
  529000    295.94206   -1473.4618    468.17299    324.98897     503.9367      39457.2 
  529100    300.68501   -1449.5789    486.16634     388.1851    355.03629      39457.2 
  529200    292.24812   -1452.0937    446.69259    308.27221    427.32539      39457.2 
  529300    292.69859   -1429.7562    484.56491    370.50691    366.65648      39457.2 
  529400    292.32968   -1413.3456    490.73495    391.42921    493.15641      39457.2 
  529500     304.6955   -1413.0656    480.24239     436.8018    45.247874      39457.2 
  529600    305.47381   -1442.5035    500.44551    431.06565    213.10069      39457.2 
  529700      298.531   -1424.8077    460.71089    377.81843    12.968071      39457.2 
  529800     303.7178   -1438.6014    463.89456     390.5234   -20.555366      39457.2 
  529900    300.42172   -1427.1231    457.98608    381.27712     336.4331      39457.2 
  530000    292.05744   -1398.0117    460.96931    375.77376   -305.80186      39457.2 
  530100    297.09084   -1427.9847    439.85331    347.31025   -77.506636      39457.2 
  530200    301.42734   -1449.2413    444.06557    349.75874    256.12191      39457.2 
  530300    308.26013   -1437.4054    459.77707    408.01992    120.07098      39457.2 
  530400     300.2467   -1428.3286     466.6261    387.92488    551.91889      39457.2 
  530500    299.53579   -1465.5905    464.58348    345.42479    440.48934      39457.2 
  530600    306.92015   -1411.1451    476.40012    444.87998     168.7775      39457.2 
  530700    302.81733   -1407.1634    458.19189    412.21109    141.71652      39457.2 
  530800    301.30946   -1397.3687    479.36953    436.40537   -19.114497      39457.2 
  530900    294.43462   -1359.3027    517.52903      481.728    180.73248      39457.2 
  531000    291.41072   -1427.7879    462.37614    344.49734   -115.10809      39457.2 
  531100    297.55336   -1386.7239    471.04067    421.83748   -460.11956      39457.2 
  531200    299.79345   -1372.0036    468.12611     443.7125   -232.31634      39457.2 
  531300    309.71804   -1422.4282    501.73831    471.51178   -218.45102      39457.2 
  531400    286.56448   -1428.9236    459.54838    318.74975   -214.23066      39457.2 
  531500    311.13776   -1425.5491    491.25897    464.29327    418.54633      39457.2 
  531600    309.69054   -1451.7231      453.152    393.50697    136.75191      39457.2 
  531700    308.53717   -1447.7682    486.53533    425.66072    203.43795      39457.2 
  531800    296.86215   -1402.2317    476.64641    408.82838    175.27745      39457.2 
  531900    308.51741   -1433.1194    470.38119    424.06654    279.21978      39457.2 
  532000     299.6735   -1446.2649     465.4676    366.25359   -268.61092      39457.2 
  532100    295.28653   -1381.5138    484.96572    430.78304   -313.47089      39457.2 
  532200     283.9821   -1415.6226    467.22318    328.11756   -371.53322      39457.2 
  532300    291.59889   -1412.9609    471.47506    369.26905   -313.38208      39457.2 
  532400    301.43279   -1419.9491    464.67695    399.68683    20.108369      39457.2 
  532500    304.29472   -1434.8857    447.66595    380.60378   -2.5981105      39457.2 
  532600    307.03242   -1402.2703    471.65114    449.51047    237.00576      39457.2 
  532700    305.31534   -1391.8274    480.59738    461.18123    137.51795      39457.2 
  532800    310.57083   -1425.0136    445.76712    416.78856     5.124291      39457.2 
  532900    300.61895   -1385.7601    494.41361    459.95418    83.531118      39457.2 
  533000    304.54232   -1438.8178    461.67911    391.79777   -46.174194      39457.2 
  533100    296.97478   -1471.9727     452.0672    315.01443   -312.13794      39457.2 
  533200    299.85234    -1430.951    473.16177    390.06547   -534.30022      39457.2 
  533300    291.86805   -1412.7285    464.74523    363.98161   -470.39905      39457.2 
  533400    307.29197   -1431.7461    477.96763     427.5178   -767.63836      39457.2 
  533500    307.95804   -1431.5403     445.5574    398.30745   -766.13012      39457.2 
  533600    305.54719   -1413.7344    472.94441    432.66343    116.29533      39457.2 
  533700    296.53511   -1415.3689    461.19422    378.76888   -221.94913      39457.2 
  533800    305.02676   -1434.9988    487.85984    423.97509   -5.9486872      39457.2 
  533900    301.19893   -1456.0877    462.91585    360.73584    390.38216      39457.2 
  534000    292.90198   -1426.0511    454.05868    344.62005    206.53023      39457.2 
  534100    300.01571   -1420.5536    466.73984     394.7753   -337.02693      39457.2 
  534200    301.55973   -1427.2788    478.01776    406.26849    155.60594      39457.2 
  534300    297.49515   -1458.0166    469.25296    348.49534   -239.09696      39457.2 
  534400    291.90695   -1394.5212    457.21692    374.83545   -297.41613      39457.2 
  534500    302.02887   -1434.1434    478.05401    401.54896    13.472245      39457.2 
  534600    317.01496    -1444.605    466.84662    447.24335   -148.69189      39457.2 
  534700    304.96385   -1420.6121    457.62138    407.84059   -703.27027      39457.2 
  534800    296.27693   -1403.0677    475.85572    404.57102   -243.87746      39457.2 
  534900    293.16515   -1416.3872    471.34056     372.7488   -104.73363      39457.2 
  535000    293.16791    -1383.882    480.97634    414.90218    279.66492      39457.2 
  535100    299.27631   -1417.4791    437.28254    365.06892    149.63144      39457.2 
  535200    304.67301   -1426.1115    453.15697    396.56939    727.82713      39457.2 
  535300    297.99662   -1422.7817     473.1901    389.92151    506.03976      39457.2 
  535400    294.67107   -1411.7707     493.3081    406.10201    658.45723      39457.2 
  535500    297.98127   -1424.5044    469.07001    384.00972    954.65456      39457.2 
  535600    297.02359   -1394.8107    473.23886     413.5675    165.81092      39457.2 
  535700    305.93265   -1445.1089     488.7764    418.85363   -342.62926      39457.2 
  535800    313.34341   -1435.4052    481.39744    454.49018   -154.50612      39457.2 
  535900    297.92526    -1450.493    442.85731    331.55672   -330.88939      39457.2 
  536000    311.12214   -1411.5256    456.45496    443.44248   -35.694666      39457.2 
  536100    296.44437   -1436.7045    459.28186    355.11311    -552.7326      39457.2 
  536200    288.27139   -1401.3301    474.93759    369.40517   -581.06259      39457.2 
  536300     310.8183   -1442.1056    485.76112    440.80288   -123.51372      39457.2 
  536400    295.03808   -1419.2081    478.29943    385.30567   -417.32857      39457.2 
  536500    296.34193   -1502.0539    460.82814     290.8495    -83.58344      39457.2 
  536600    296.96164   -1472.2567    466.95594    329.56013    377.19563      39457.2 
  536700    303.51072    -1481.922    451.85744    334.23479    351.42146      39457.2 
  536800     293.1748   -1449.6079     465.4423    333.67317    188.04772      39457.2 
  536900    314.94157   -1447.5459    469.07643    437.21227    542.88041      39457.2 
  537000    300.67143   -1423.0391    485.78564     414.2831    534.75598      39457.2 
  537100    298.79279   -1423.9386     430.2035    349.35688    98.897924      39457.2 
  537200    301.36711   -1436.7467    457.74206    375.65904   -419.91947      39457.2 
  537300    295.44273   -1434.0824    466.62894    360.57975    206.06273      39457.2 
  537400    307.74563   -1443.0839    447.94945    388.20113    88.701851      39457.2 
  537500    293.39433   -1423.0119    449.61774    345.43141    211.31595      39457.2 
  537600    288.38641   -1426.5706    466.23046    335.97452    497.20907      39457.2 
  537700    305.88802   -1397.8887    456.49878    433.59554    360.56847      39457.2 
  537800    299.86637   -1411.3649    442.07779    378.63066    192.57686      39457.2 
  537900    300.63862   -1423.7398    465.72464    393.37401    119.33455      39457.2 
  538000    303.78921    -1380.291    466.59509    451.85529    133.68652      39457.2 
  538100    298.60395   -1428.9656    462.70988    375.98745    11.795696      39457.2 
  538200    297.56415   -1440.8321    475.33814     372.0752    39.429172      39457.2 
  538300    298.71114   -1453.8307    479.59461    368.48893    563.80045      39457.2 
  538400    302.09296   -1422.3715    461.21053    396.76541    399.88121      39457.2 
  538500    305.56149   -1422.6673    479.17398    430.02433    171.76073      39457.2 
  538600    301.90749   -1426.7895     471.2593    401.56254     200.5537      39457.2 
  538700    309.22602   -1416.6496    465.90757    439.24802    617.68949      39457.2 
  538800    286.26133   -1396.5189      481.304    371.54738    169.71981      39457.2 
  538900    304.43822   -1434.6067    486.12798    419.98985    179.01094      39457.2 
  539000    295.00063   -1428.1169    461.67209    359.60114   -172.80662      39457.2 
  539100    300.94185   -1402.4789    467.08392    417.35713    81.468845      39457.2 
  539200    297.50565   -1420.1453    488.50097    405.66188    429.80036      39457.2 
  539300    294.97826   -1409.6339    470.34898    386.66051    284.58278      39457.2 
  539400    301.88523   -1420.3844    473.47769    410.08596    42.750086      39457.2 
  539500    288.40227    -1446.263    457.81914    307.94213    135.61852      39457.2 
  539600    309.90291   -1421.7924    458.99609    430.23632    -6.133666      39457.2 
  539700    292.03969   -1453.5451    463.61338    322.80465   -153.75175      39457.2 
  539800    305.37775   -1440.6985    465.47023    397.46349    473.49932      39457.2 
  539900    290.97752   -1494.4978    475.30911    288.77314   -163.85642      39457.2 
  540000    295.26724   -1456.1548    449.91248    321.00209   -65.356194      39457.2 
  540100    303.82882   -1450.6941     468.2178    383.25291   -365.89808      39457.2 
  540200    295.28488   -1408.4523    455.07753      373.949    274.77205      39457.2 
  540300     301.6358   -1455.9618    474.73731    374.64702   -304.50658      39457.2 
  540400     289.9325   -1445.2104    469.45945     327.5135      168.651      39457.2 
  540500    296.38087   -1457.0074    493.09463    368.33746    352.50902      39457.2 
  540600    295.62378   -1396.3881    472.67776    405.13671    520.60896      39457.2 
  540700    304.52388   -1412.3361    475.25212    431.76958   -296.36515      39457.2 
  540800    304.04015   -1449.1116    487.11116    404.67879    264.43976      39457.2 
  540900    297.18516   -1461.7215    459.94313    334.08717    301.03606      39457.2 
  541000    294.41182   -1497.9481    454.48269    279.93386   -129.93137      39457.2 
  541100    299.52627   -1480.7916     475.0252    340.62262    687.45731      39457.2 
  541200    297.54862   -1469.4793    513.59707    381.61712    378.90704      39457.2 
  541300    284.56319   -1484.9411    456.29428    250.48225   -452.90052      39457.2 
  541400     303.9351   -1487.2942    459.85419    338.76702    152.52474      39457.2 
  541500    315.87763   -1478.2364    439.80503    381.45807   -72.620758      39457.2 
  541600    301.50997   -1454.3695    483.16051    384.09686    399.84229      39457.2 
  541700    303.89669   -1444.6496    449.76219    371.14696   -110.59465      39457.2 
  541800    300.01483    -1478.836    468.37194     338.1211   -93.901174      39457.2 
  541900    308.09867   -1457.3801    455.92437    383.46674    80.078999      39457.2 
  542000    303.36121   -1443.3778    473.07154    393.32103   -161.39181      39457.2 
  542100    305.91593   -1454.7292    472.42077    392.80252   -239.04752      39457.2 
  542200    303.56691   -1436.0879    458.27179    386.73578   -445.90327      39457.2 
  542300    300.82556   -1417.0742    486.46658     421.6218   -402.78677      39457.2 
  542400    298.80247   -1451.4804    486.00458    377.65971   -252.72362      39457.2 
  542500    302.81276    -1471.785    469.64089    359.01788    198.29016      39457.2 
  542600    310.10329   -1478.3894    471.00103    386.54498   -100.21127      39457.2 
  542700    313.45443   -1458.9564    465.00606    415.04659    146.76677      39457.2 
  542800    296.07236   -1475.3793    453.73349    309.21763    135.12097      39457.2 
  542900    306.95265   -1471.3953    466.86289    375.23865    120.95172      39457.2 
  543000    296.94563   -1457.2073    474.59245    352.17398     386.0962      39457.2 
  543100    297.84113   -1427.8623     478.9226    389.87456   -108.10948      39457.2 
  543200    303.58572   -1431.1687    467.49081    400.95864    391.12131      39457.2 
  543300    302.62828    -1460.358    480.42396    380.39873     507.6819      39457.2 
  543400    298.63021   -1454.1068    473.76721    362.02158    903.82083      39457.2 
  543500    299.13859   -1451.8097    485.66104    378.49772    284.74637      39457.2 
  543600    294.08439   -1477.5826    466.30824    310.65304   -57.507175      39457.2 
  543700    293.86237      -1443.8    470.20867    347.33812   -123.33373      39457.2 
  543800    298.51312    -1428.179    479.22621    392.88208   -482.10121      39457.2 
  543900    297.72811     -1409.67    456.66461     385.3008   -282.63899      39457.2 
  544000    310.21964   -1460.2619    487.69942    421.89383   -909.02012      39457.2 
  544100    301.37309   -1421.4095    467.13822    400.41927   -551.73764      39457.2 
  544200    298.55298   -1426.5456    450.56008    366.02855   -477.50557      39457.2 
  544300    304.91612   -1442.0572    481.03316     409.5927   -185.13671      39457.2 
  544400    299.75428   -1453.8865    466.45728    359.98476   -911.84444      39457.2 
  544500    301.54592   -1459.6502    460.88001    356.69723   -617.16262      39457.2 
  544600    306.11431   -1434.9017    444.27374    385.37468    -315.6178      39457.2 
  544700     293.7698   -1453.6919    440.79252    307.61393   -758.26304      39457.2 
  544800    292.14014    -1467.318    446.68715    292.55702   -224.04402      39457.2 
  544900    310.20907   -1479.5616     442.7102     357.5575   -861.79647      39457.2 
  545000    292.74373   -1451.1329    457.89725    322.66547   -735.09158      39457.2 
  545100    304.26252   -1485.1227    471.87691    354.43294   -157.56457      39457.2 
  545200    299.93502    -1475.699    454.77383    327.30118    406.08817      39457.2 
  545300    297.03062   -1443.0818    469.72847    361.81757    219.93054      39457.2 
  545400     300.1389   -1459.6512    473.88111    363.37275   -107.30808      39457.2 
  545500    297.78105   -1459.4068    464.34943    343.48683   -530.56703      39457.2 
  545600    303.76297   -1467.9488    449.77262    347.25702     325.8801      39457.2 
  545700     292.9627   -1489.2054    477.98493    305.66492    273.58077      39457.2 
  545800    299.39025   -1492.1002    436.84577    290.52317    214.36218      39457.2 
  545900    309.98783   -1445.9276     463.4252    410.91192     117.4525      39457.2 
  546000     306.3913   -1397.7899    477.26974    456.72757    745.63208      39457.2 
  546100    296.03655   -1472.3264    453.53146    311.90755    -259.6346      39457.2 
  546200    296.21778   -1488.7494     438.6426    281.41036    27.402895      39457.2 
  546300     293.2352   -1456.0105    461.89291    323.99267    87.154926      39457.2 
  546400    296.28405   -1438.3231    475.30199    368.79394   -658.39925      39457.2 
  546500    285.33047    -1453.002    440.28543    269.86145    -972.0954      39457.2 
  546600    311.00978   -1483.1895    428.35865    343.17729   -442.08909      39457.2 
  546700    293.04872   -1474.0419    461.57579    304.80589    327.49169      39457.2 
  546800    293.79674   -1467.4773    446.04774     299.2049   -168.01581      39457.2 
  546900    294.63958   -1476.5437    446.54424    294.42357    230.92224      39457.2 
  547000    292.69444   -1460.9047    443.14825    297.92309   -349.25034      39457.2 
  547100    297.56029   -1431.7566    440.24408    346.03929   -706.28649      39457.2 
  547200    292.61904   -1455.0747    481.27883    341.54473   -592.35736      39457.2 
  547300    295.67664   -1439.4971    452.20866    341.79627   -293.73808      39457.2 
  547400    308.53562   -1440.5046    457.91905    404.30103   -87.175196      39457.2 
  547500    297.01401   -1444.2745    443.15116    333.97295    172.20289      39457.2 
  547600    308.03035   -1461.9047    434.70045    357.41113    7.6991564      39457.2 
  547700    306.75777   -1484.2139    469.85752    364.53864    478.40477      39457.2 
  547800      298.707   -1442.9466    468.81856    368.57832    358.59986      39457.2 
  547900    304.31561    -1470.249    446.39952    344.06793   -262.64059      39457.2 
  548000    307.55171   -1452.3364    477.29155    407.41899    385.33773      39457.2 
  548100    293.41998   -1449.8372    453.50268    322.60637    1011.3448      39457.2 
  548200    289.90355   -1496.9038    461.21626    267.44674    831.46037      39457.2 
  548300    302.89459   -1523.3133    486.62706    324.84358    1118.3418      39457.2 
  548400    292.16855   -1513.2706    459.37931    259.42437     822.9269      39457.2 
  548500    304.71922   -1519.0704    445.56154    296.22274    1281.2149      39457.2 
  548600    296.16412   -1529.7186    462.79896    264.35634    674.46198      39457.2 
  548700    304.52539   -1500.5924     463.9849    332.25292    620.40482      39457.2 
  548800    296.97672   -1524.7898    460.90378    271.04258    190.41808      39457.2 
  548900    310.09276   -1510.1598    473.51922    357.24548   -180.03518      39457.2 
  549000    303.49888   -1490.3368    444.30313    318.21246   -114.69078      39457.2 
  549100    290.32925   -1470.4269    453.99528    288.61619   -344.64741      39457.2 
  549200    291.38337   -1431.0489    468.71805    347.45537    46.382157      39457.2 
  549300     291.2649   -1436.9884    446.11504    318.38032   -121.54639      39457.2 
  549400    301.20243   -1453.4932    474.34032    374.77061    -47.24141      39457.2 
  549500    294.98433   -1465.2688     468.0172    328.72117    159.06911      39457.2 
  549600    292.78119   -1441.8778    486.76668    360.95834   -182.95305      39457.2 
  549700    298.19647   -1437.3754    467.44638    370.48243   -259.57881      39457.2 
  549800    299.06148   -1469.1554    434.60666    309.75098   -198.06082      39457.2 
  549900    309.04711   -1471.3801    472.81166    390.61729   -635.83103      39457.2 
  550000    293.50542   -1456.7758     503.5128    366.06194   -141.11934      39457.2 
  550100    290.69453   -1445.9017    452.77336    313.56142   -569.11003      39457.2 
  550200    300.33023   -1500.5666    457.81334    307.24962   -219.72016      39457.2 
  550300    293.68822   -1457.9635      459.302    321.48514   -291.80738      39457.2 
  550400    294.61951   -1493.1728    456.19584    287.35584    517.95303      39457.2 
  550500    308.19853   -1477.4225    480.91657    388.86545    715.05895      39457.2 
  550600    303.40746   -1453.4506    475.56976    385.95439    414.12624      39457.2 
  550700    316.51307   -1448.8191    479.44811    453.37472    463.47648      39457.2 
  550800    301.41447   -1476.0448    448.01626    326.84805    109.72493      39457.2 
  550900    293.35806   -1444.2371    449.90857    324.33404   -594.39483      39457.2 
  551000    298.35798   -1467.2932    492.01212    365.85639    63.066312      39457.2 
  551100    301.60612   -1464.3143    461.47841    352.90213    159.02703      39457.2 
  551200    294.63619    -1415.384     478.6783     387.7021    560.25635      39457.2 
  551300    300.10604   -1418.2707    468.08384    398.80821    419.56441      39457.2 
  551400    298.89399   -1394.2249    501.40571    450.72768    466.74075      39457.2 
  551500     287.1108    -1399.621    482.79312    373.75288   -10.261033      39457.2 
  551600    300.81766   -1414.1993    484.27803    422.27263   -257.84261      39457.2 
  551700    303.03566   -1439.2685    460.94739    383.84286   -257.99816      39457.2 
  551800    298.15688   -1465.5148    468.14416    342.86291    245.50403      39457.2 
  551900    304.19533   -1431.8591    475.36876    410.88643    432.75983      39457.2 
  552000    305.91155    -1454.966    482.27907    402.40426    110.05231      39457.2 
  552100    296.75024   -1441.7444    481.53008    373.69629   -367.34954      39457.2 
  552200    296.29822   -1472.4302    478.72619    338.17478   -313.86804      39457.2 
  552300    303.31528   -1446.2584    455.83952    373.00201   -754.13499      39457.2 
  552400    305.84279   -1448.0916    474.38748    401.07802   -267.07714      39457.2 
  552500    315.24835    -1453.638    447.86168    411.28442   -70.012139      39457.2 
  552600    290.40742   -1465.3952    467.12494    307.12898   -105.99703      39457.2 
  552700    300.68197   -1430.3743    485.98358    407.19319    149.95279      39457.2 
  552800    304.74363   -1457.3713    464.38278    376.85282    276.85246      39457.2 
  552900    298.09758   -1442.1161    461.10738    358.95826   -306.56634      39457.2 
  553000     313.0658   -1440.4295     473.8469     440.6674    392.55451      39457.2 
  553100    305.87468   -1478.2086    452.01884    348.73576    351.97143      39457.2 
  553200    299.79126   -1447.9537     474.3049    373.93137    367.43782      39457.2 
  553300    295.52507   -1440.9713    471.09429    358.52633    14.125485      39457.2 
  553400    288.96312   -1462.4112    486.20593    322.70174   -368.94543      39457.2 
  553500    299.22828   -1415.4774    480.07973    409.65186   -180.26897      39457.2 
  553600    305.99871   -1425.9359    475.13211    424.67929   -51.171642      39457.2 
  553700    302.33529   -1449.4912    471.87264    381.39717    314.32211      39457.2 
  553800    292.78633   -1453.7785    465.44469    327.75881   -400.88421      39457.2 
  553900    301.48132   -1454.3334    481.03058    381.87427   -277.91988      39457.2 
  554000      294.802   -1469.7245    490.10138    345.53003   -352.21891      39457.2 
  554100    312.77087   -1475.7917    476.34185    406.47449   -42.387251      39457.2 
  554200    304.71579   -1499.0171    455.36461    326.06375    242.55722      39457.2 
  554300    292.88087   -1513.6557    455.55953    258.42132    586.41166      39457.2 
  554400    302.81912   -1467.0168    490.70496    384.87877    398.68744      39457.2 
  554500    298.42484   -1503.8515    411.76925    249.35578    209.54539      39457.2 
  554600    301.64001   -1472.6085    491.78793    375.06984   -94.765687      39457.2 
  554700    297.74953   -1496.9213    457.99801    299.47919    275.64787      39457.2 
  554800    303.16872   -1452.3699    474.34525    384.73737    87.235648      39457.2 
  554900    299.60477   -1454.8923    478.90028    370.74981    147.11321      39457.2 
  555000     295.3534   -1462.2402    472.07414    337.46569   -410.24417      39457.2 
  555100    295.37316   -1428.3869    467.58474    366.91842   -139.64993      39457.2 
  555200    307.04053    -1414.694    483.25986    448.73191   -110.03324      39457.2 
  555300    298.54802   -1437.7657    477.52095    381.74696    79.903591      39457.2 
  555400    301.16049   -1464.5516    467.06871    356.25209    80.372204      39457.2 
  555500    304.66815   -1459.7886    468.98701    378.70046    98.849809      39457.2 
  555600    305.12158   -1430.2022    485.44225    426.78029    359.59704      39457.2 
  555700    293.31216   -1443.1248    472.06687    347.39827     381.9822      39457.2 
  555800    305.29918   -1429.5894    498.13376      440.883    355.87713      39457.2 
  555900    306.15496   -1454.3918    475.45119    397.24479    308.45792      39457.2 
  556000    305.43706   -1480.7386     474.7878     367.0076    621.37586      39457.2 
  556100    300.38708    -1487.235    459.58865     322.6121    48.833965      39457.2 
  556200    308.20105   -1447.0613    484.87531    423.19669    51.736919      39457.2 
  556300    297.31636    -1452.096    474.29713    358.65644    -38.26092      39457.2 
  556400    294.85561   -1429.9489    481.58419    377.02936    203.53255      39457.2 
  556500    291.85943   -1448.0806    480.00727    343.85278    434.02642      39457.2 
  556600    310.88716   -1469.6353    464.55686     392.3785    410.50316      39457.2 
  556700    304.18262   -1450.1395     472.8185    389.99856    244.32957      39457.2 
  556800    296.70499   -1427.5119    493.14374    399.33903    599.17884      39457.2 
  556900    300.02188   -1419.7595    474.69199    403.54935   -108.87953      39457.2 
  557000    296.05149   -1422.0339    472.48236    381.21811    71.842824      39457.2 
  557100    301.93052   -1391.2367    483.19466    449.15425   -12.305562      39457.2 
  557200    304.44635   -1409.9574    459.41305    417.96078    36.238624      39457.2 
  557300    298.63061   -1388.5729    482.97781     436.7679    48.498403      39457.2 
  557400    302.98845   -1399.7485    474.07354    436.27675    578.68971      39457.2 
  557500    303.72585   -1420.7495    477.21068    421.72761    13.737341      39457.2 
  557600    297.25203   -1424.1481    472.61373    384.63182    106.99713      39457.2 
  557700     293.4075   -1431.8519    480.53089    367.56371    341.12449      39457.2 
  557800    294.93304   -1468.6635    451.11392    308.19261     298.6402      39457.2 
  557900    302.84184   -1438.0512     493.7483    416.98978    219.04752      39457.2 
  558000    302.95447   -1408.1863    484.72443    438.33709   -71.293487      39457.2 
  558100    297.18865   -1438.9975    456.20461    353.08832    440.47159      39457.2 
  558200    301.45462   -1423.6109    493.71863    425.16477    22.844542      39457.2 
  558300    289.41295   -1404.4771    491.04015    387.49205     535.1961      39457.2 
  558400    302.20888   -1391.4048    487.48128    454.52405    308.13282      39457.2 
  558500    294.10645   -1419.5771    481.04869     383.4982    712.60834      39457.2 
  558600    307.78677    -1439.872    470.97198    414.62051    412.56542      39457.2 
  558700    314.45906   -1404.0578    478.75022    488.20523    678.56219      39457.2 
  558800    295.75105   -1401.3974    462.15435    390.17613    142.93226      39457.2 
  558900    316.12485   -1431.0711    458.43404    448.36358   -453.82353      39457.2 
  559000    303.98021   -1393.5738    493.04419    465.88015   -265.49907      39457.2 
  559100    298.71522   -1408.1875    474.33426    408.89005     140.3249      39457.2 
  559200    297.19299   -1417.4212    477.49307    395.97269    750.44879      39457.2 
  559300     303.4181   -1435.2791    463.15961    391.76355      799.515      39457.2 
  559400    297.59458    -1403.003    479.95788    414.66085    743.06706      39457.2 
  559500    306.77651   -1407.8611    477.12744    448.24561    417.68394      39457.2 
  559600    295.43739   -1397.5072    464.67746    395.17948   -129.57545      39457.2 
  559700    296.94364    -1433.853     483.5723    384.49927   -146.28387      39457.2 
  559800    302.89659   -1418.3874    464.49433    407.64571   -544.53848      39457.2 
  559900    305.08099   -1430.7863    479.35715    419.92861   -741.83657      39457.2 
  560000    295.38296   -1425.0597    487.24029    389.94522   -54.748519      39457.2 
  560100    306.66752   -1474.2359    478.75819    383.01168    349.80846      39457.2 
  560200    297.27145    -1451.434    453.91929     338.7388    181.41207      39457.2 
  560300    293.03474   -1445.3316    462.98612    334.86367    673.80841      39457.2 
  560400    303.43157   -1409.6499    479.72363    434.01726    210.61768      39457.2 
  560500     291.8706   -1432.3396    478.78614    358.42289   -73.192293      39457.2 
  560600     298.6703   -1486.2666    446.10132    302.37611     386.2175      39457.2 
  560700      296.882   -1458.5368     475.7385    351.70457    101.40883      39457.2 
  560800     305.7325   -1489.4892    448.28616    333.08338      406.068      39457.2 
  560900    307.02745   -1488.6829    472.47802    363.90239    186.14617      39457.2 
  561000    308.70549   -1488.1996    451.64296    351.09354    157.23611      39457.2 
  561100    297.60507   -1459.4824    471.83819    350.10892   -43.850301      39457.2 
  561200     294.9071   -1444.9143     484.2241    364.93538   -166.18744      39457.2 
  561300    294.64663   -1412.9915    461.40531    372.86859   -378.38385      39457.2 
  561400    297.71045   -1447.7077    482.89217    373.41124    18.478233      39457.2 
  561500    303.51833   -1460.1937     464.4822    368.62204   -135.85403      39457.2 
  561600    301.98939   -1487.8838     458.4561    328.03323    427.04253      39457.2 
  561700    309.44986   -1539.4968    483.85248    335.35187    565.49106      39457.2 
  561800    289.92072   -1475.6324    476.74934    304.32844   -101.41032      39457.2 
  561900    291.17615   -1451.8031    452.48345    309.53508    533.44459      39457.2 
  562000    297.98034   -1471.8838    471.08023    338.63636    365.56272      39457.2 
  562100    300.30847   -1461.2609    453.60315    342.24729   -278.29237      39457.2 
  562200    308.57442   -1450.6718    458.52407    394.91329   -73.816512      39457.2 
  562300    306.35586    -1438.069    464.57631    403.59578   -433.11699      39457.2 
  562400    307.46999   -1437.8065    457.87277    402.16283   -574.04159      39457.2 
  562500    292.15323   -1408.2411    454.10329    359.10892   -127.56213      39457.2 
  562600    303.48549    -1431.547    482.34922    414.98816    -262.5992      39457.2 
  562700     301.1239   -1455.9957    471.93505    369.50985    255.89231      39457.2 
  562800     301.2047   -1424.8279     460.0447     389.1505   -24.400092      39457.2 
  562900    306.40717   -1431.6456    480.08509    425.75855    101.66384      39457.2 
  563000    296.28056   -1411.8818    469.69625    389.61379   -278.75379      39457.2 
  563100    307.08981   -1433.2309    470.46437    417.62105    197.92612      39457.2 
  563200    299.96523   -1420.6862    459.63844    387.31443    973.91004      39457.2 
  563300    305.78025   -1467.8667    477.33889    383.97322    777.04288      39457.2 
  563400    297.74215   -1427.9123    481.63982    392.09683    839.62957      39457.2 
  563500    301.46395   -1440.9959    471.68622    385.78932     594.2775      39457.2 
  563600    292.65956   -1444.4397    464.94755     336.0306    414.43574      39457.2 
  563700    300.78987   -1492.0369    470.62227    330.65433    444.53368      39457.2 
  563800    297.97352   -1450.8513    476.80903    365.36707    908.37051      39457.2 
  563900    306.33141   -1505.3372    466.34832    337.98967    505.37275      39457.2 
  564000    294.86415   -1475.2873    481.88438    332.02955    146.89728      39457.2 
  564100    301.31584   -1413.2342    483.49145    424.69052   -279.63956      39457.2 
  564200    296.40797   -1412.6243    496.17447    415.92222    445.32389      39457.2 
  564300    306.62984   -1410.7267    469.27667    436.86998    203.04526      39457.2 
  564400    302.04757   -1420.0045    475.77318    413.49109    33.685724      39457.2 
  564500    299.85623   -1406.9065    474.98233    415.94803    200.86034      39457.2 
  564600    307.64571   -1427.0473    479.22215    435.06126    433.46094      39457.2 
  564700    297.78883   -1441.6709    463.57236    360.48056    478.52621      39457.2 
  564800    301.00569   -1432.7236    490.53818    410.85365    401.48876      39457.2 
  564900    301.00047   -1393.2253    472.53305    432.32334    428.47612      39457.2 
  565000     306.0736   -1385.8656    467.13015    457.08421    77.123935      39457.2 
  565100    297.46555   -1398.6966    485.47001    423.89935   0.78051453      39457.2 
  565200    294.82043   -1393.1131     488.0516    420.17445    -34.17772      39457.2 
  565300    306.13336   -1455.4096    459.59379     380.2725    262.44006      39457.2 
  565400    305.62524   -1432.0094    469.83422    411.62913   -140.59572      39457.2 
  565500    307.95634    -1434.692    472.82054    422.41126    351.10028      39457.2 
  565600    310.42168   -1434.8579    479.50501    440.01173    -411.2722      39457.2 
  565700    287.42086   -1434.0007    493.54606    351.51987   -487.15516      39457.2 
  565800    296.38626   -1413.3245    458.01924    376.96922   -100.70311      39457.2 
  565900    306.64033   -1413.4083    458.91373    423.87261    78.957719      39457.2 
  566000    309.97718   -1413.1717    489.95599    470.15079     -155.725      39457.2 
  566100    298.80068   -1474.0592    471.30597    340.37418   -181.26648      39457.2 
  566200    290.60519   -1393.6415    481.70238    394.34914   -6.5350979      39457.2 
  566300    296.31853   -1423.0956    458.36446    367.23894   -16.401517      39457.2 
  566400    300.15555   -1461.8835    473.65992    360.99411    181.77011      39457.2 
  566500    294.81374   -1508.9436    452.35412    268.61643    85.976252      39457.2 
  566600    309.82257   -1489.9825    487.74706    390.43611    179.63936      39457.2 
  566700    294.73971   -1520.9136     454.8092    258.76879    61.621063      39457.2 
  566800     306.9814   -1466.3387     495.1498    408.71137    121.62529      39457.2 
  566900     292.8904   -1461.8545    436.43198    291.13791   -290.54919      39457.2 
  567000    299.59328   -1461.7909    466.71179    351.61109   -140.86878      39457.2 
  567100    304.77573   -1465.5939    470.50177    374.89354   -374.13903      39457.2 
  567200    310.79507   -1443.2956     471.6788    425.42621   -515.05228      39457.2 
  567300    304.04974   -1486.5225    470.57765    350.77749    211.09211      39457.2 
  567400    304.19307   -1482.7529    492.51006    377.12373    100.59698      39457.2 
  567500    297.38335   -1482.5888    472.26635    326.43399    123.89927      39457.2 
  567600    293.60991   -1477.4891    455.44054    297.74605   -16.465542      39457.2 
  567700    300.01703   -1477.5888    454.90612    325.91237   -170.11235      39457.2 
  567800    284.26473   -1474.4346    484.16017    287.51304   -550.09724      39457.2 
  567900    304.04097   -1426.7603    475.00411    414.92666   -794.53236      39457.2 
  568000    299.77159    -1405.278    465.77883    407.99251   -1140.4006      39457.2 
  568100    294.58291   -1440.2668    476.66116    360.56269   -709.45761      39457.2 
  568200    309.71489   -1433.0341    475.49706     434.6505    -631.3512      39457.2 
  568300    307.34317   -1427.5922    458.42077    412.35504   -682.34712      39457.2 
  568400    296.29287    -1487.938    463.96221    307.87895    114.80485      39457.2 
  568500    301.54747   -1446.6473    511.38111    420.20827   -316.70603      39457.2 
  568600    306.06103   -1449.5804    455.97154    382.15429    63.094833      39457.2 
  568700    302.15094    -1478.938    488.44252    367.69163   -241.10668      39457.2 
  568800    296.62943   -1463.1663    465.31184    335.51309    370.95802      39457.2 
  568900    293.18501   -1447.4026    479.16778    349.64982   -69.306089      39457.2 
  569000    307.23831    -1437.006    473.59351    417.64257    46.371154      39457.2 
  569100    301.32734    -1435.713    464.88365    383.65563    155.22219      39457.2 
  569200    299.00095   -1450.5169    479.05553    372.56636   -545.42547      39457.2 
  569300     301.2808   -1470.7914    468.32827    351.81264   -451.73508      39457.2 
  569400    311.13296   -1446.8906    462.45796    414.12917   -404.05218      39457.2 
  569500    302.10545   -1432.4132    485.52224    411.09169    142.39711      39457.2 
  569600    296.45639   -1465.6517    457.56186    324.49985   -181.74783      39457.2 
  569700    302.59746    -1442.448     474.8849    392.63107   -567.64886      39457.2 
  569800    308.87852   -1465.5816    462.44759    385.29393   -520.90179      39457.2 
  569900    301.39034   -1461.7216    457.18996    350.23652   -383.07261      39457.2 
  570000    301.81247   -1470.2716    498.53918    384.93318   -432.50685      39457.2 
  570100    299.60456   -1439.4047    460.94151    368.27775   -324.33384      39457.2 
  570200     301.0835   -1444.1091    492.69072    401.97051    -478.3866      39457.2 
  570300    290.01834   -1462.1953    449.75532    291.21029   -474.65912      39457.2 
  570400    297.57065   -1446.2347    467.14095    358.50463   -530.96196      39457.2 
  570500    303.40669   -1469.0652    447.08953    341.85609   -511.16939      39457.2 
  570600    295.29241   -1424.8121     468.3291     370.8746   -636.54032      39457.2 
  570700    298.29026   -1466.7039    488.59573    362.72493   -251.45466      39457.2 
  570800    287.53966   -1454.3427     460.1421    298.30787   -79.231412      39457.2 
  570900    304.72583   -1460.8137    462.43304     371.3807    277.18086      39457.2 
  571000    297.42825   -1472.1882    482.32665    347.09676   -230.94565      39457.2 
  571100    302.67535   -1471.1933    450.07584    339.42683   -448.39759      39457.2 
  571200    298.40085   -1478.3391    466.87987    329.87093    126.18183      39457.2 
  571300    302.92175   -1496.9907    455.93446    320.59571    15.006821      39457.2 
  571400    288.42721   -1491.7488    447.14092    251.89022    188.42198      39457.2 
  571500    301.06348   -1490.1552    478.03264    341.17634    402.81516      39457.2 
  571600    296.44337   -1496.4939    458.14659    294.18386   -11.609875      39457.2 
  571700    310.72721   -1456.7019    480.87226    420.90833     182.7528      39457.2 
  571800    303.13003   -1478.0311    476.39652    360.95353   -204.60528      39457.2 
  571900    284.61007   -1467.1153    491.85305    304.07757   -224.54611      39457.2 
  572000    299.48709   -1476.7484    456.08231    325.54683    92.263643      39457.2 
  572100    299.44912   -1464.8726     482.7665    363.93613   -838.60612      39457.2 
  572200    298.63732   -1435.4837    475.69434     382.6038   -536.80419      39457.2 
  572300    293.28202    -1425.159    445.79558    338.95725   -858.06429      39457.2 
  572400    301.25721    -1430.726     470.5975     394.0412   -1057.8172      39457.2 
  572500    297.53853   -1465.4843    467.15912     339.1288   -963.69375      39457.2 
  572600    305.33134   -1464.2442    473.79749    382.03648   -581.93707      39457.2 
  572700    302.76961   -1498.2011    473.61653    336.38345     3.957142      39457.2 
  572800    295.59713   -1501.3123     439.0716    266.48659   -374.66178      39457.2 
  572900     289.4371   -1473.4383    461.62362    289.22293   -408.01626      39457.2 
  573000    291.89772   -1459.2891     469.8902    322.69937   -264.79355      39457.2 
  573100    286.68214   -1452.1638    494.40021    330.89027    258.97487      39457.2 
  573200    298.77952   -1479.3779    458.13311     321.7875    479.29459      39457.2 
  573300    299.84214   -1451.4362    502.22341    398.59616    652.96954      39457.2 
  573400    301.47988   -1416.8598    483.09514    421.40593   -126.67183      39457.2 
  573500    298.68317   -1402.5725    483.71994    423.74665   -185.94525      39457.2 
  573600     304.1662   -1438.9802    459.57925    387.84485   -662.52377      39457.2 
  573700    305.44828   -1426.5033    470.09341    416.59889   -350.03954      39457.2 
  573800    297.78648   -1415.5472    449.60278    372.62417   -429.45919      39457.2 
  573900     313.4439   -1405.3221    480.99422    484.62174   -162.53062      39457.2 
  574000    305.85543   -1386.6241    510.01579    498.23067   -360.38905      39457.2 
  574100    296.26848   -1416.9096    485.34939    400.18489    132.63096      39457.2 
  574200    298.75534   -1383.5282    496.21978    455.61515    332.42065      39457.2 
  574300    297.00084   -1422.0905    484.51311    397.45971   -228.82453      39457.2 
  574400    293.03187   -1413.1905     485.5088    389.51459   -259.52431      39457.2 
  574500    301.44924   -1456.9178    456.07102    354.18613   -249.60056      39457.2 
  574600    306.88466   -1432.9013     476.5727    423.13683   -151.50909      39457.2 
  574700    304.53306   -1461.9283    480.16524    387.13176    270.58754      39457.2 
  574800    311.86217   -1445.0482    481.02748    437.81893    514.91635      39457.2 
  574900    298.63052   -1411.4886    479.71042    410.58436    98.217516      39457.2 
  575000    302.30705   -1443.7661    490.68728    405.80996   -311.72399      39457.2 
  575100    290.55895   -1460.3006    451.52925    297.30906   -191.11483      39457.2 
  575200    294.16518   -1453.8813    479.15612    347.56543   -131.15315      39457.2 
  575300    302.98109   -1438.2142    477.35909    401.06358   -178.08704      39457.2 
  575400    302.86482   -1443.7525    462.69705    380.34061   -396.53224      39457.2 
  575500    302.67172   -1517.3152    481.68247    324.89532   -329.38638      39457.2 
  575600    296.68426   -1479.1542     475.8367    330.29649    462.19713      39457.2 
  575700    311.28885   -1461.9739     462.0274    399.31605    655.86742      39457.2 
  575800     295.9533   -1461.4313    474.19208    343.08911    677.12536      39457.2 
  575900    301.97829    -1459.919    482.94787    380.43983    882.51075      39457.2 
  576000    296.58688   -1413.0218    486.79827    406.95273    649.35819      39457.2 
  576100    307.85991   -1440.4532    494.50014    437.89617    450.42671      39457.2 
  576200    292.19439    -1442.868    472.74892    343.31271    403.05964      39457.2 
  576300    302.41522   -1448.0183    501.73161    413.08839    500.01741      39457.2 
  576400    288.04499   -1408.6536    467.48633     353.6127     146.0746      39457.2 
  576500    297.32624   -1418.6683    498.13248    415.96396    -219.0817      39457.2 
  576600    295.06743   -1450.2848    453.89945    329.96087   -156.62481      39457.2 
  576700    299.36256   -1483.8786    504.26512    366.03967       570.36      39457.2 
  576800      299.354   -1454.5346    501.97275    393.05285    696.09155      39457.2 
  576900    298.01396   -1456.8878    451.19884    333.90211    19.401617      39457.2 
  577000     300.2935   -1468.0447    483.83097    365.62405    60.313789      39457.2 
  577100    303.66296   -1453.2477    479.03727    390.77327    51.389144      39457.2 
  577200    287.24206   -1472.4903    448.09342     266.7739     573.0646      39457.2 
  577300    301.44302   -1449.5049    477.38877     382.8888    151.97718      39457.2 
  577400    294.45965   -1447.2699    476.09474    352.43911   -690.96439      39457.2 
  577500    299.84415   -1473.5932     482.8169    357.04162   -522.30732      39457.2 
  577600    309.04814   -1467.2711    477.71841    399.63766    -1381.773      39457.2 
  577700    296.00774   -1424.8813    461.41883    367.11049   -969.15774      39457.2 
  577800     295.6975   -1450.2553    463.12017    342.04336    -493.0204      39457.2 
  577900    300.40629   -1440.5141    488.66231    398.49301   -236.13698      39457.2 
  578000    302.82185    -1456.085    463.84191    368.95979   -155.92306      39457.2 
  578100    300.89753   -1445.8443     474.5486    381.25726     304.9553      39457.2 
  578200    303.77077    -1412.582    485.52085    438.40713    374.66654      39457.2 
  578300    296.92556    -1416.982    485.04492    402.76162    108.31881      39457.2 
  578400    294.03066   -1437.1585    495.30613    379.83354    277.60097      39457.2 
  578500    299.11633   -1440.2672    482.46794    386.74709   -27.429304      39457.2 
  578600    303.85975   -1459.1784    497.80807    404.49792    525.55878      39457.2 
  578700    295.58948    -1459.377    445.14257    314.45845    210.21208      39457.2 
  578800    303.41524   -1477.4733    504.31467    390.71156    789.32937      39457.2 
  578900     306.4695    -1510.487    491.67734    358.78957    584.02277      39457.2 
  579000    294.79346   -1490.3661    479.73233    314.48096    143.15539      39457.2 
  579100    295.51325   -1485.0009    453.75064    297.09996   -321.34418      39457.2 
  579200    293.23303   -1462.3833    485.34959    341.06682   -851.03926      39457.2 
  579300    301.66002   -1485.3658    460.67328    331.28788   -227.53804      39457.2 
  579400    289.60263   -1476.6404    475.65853    300.79977   -37.713042      39457.2 
  579500    295.29612    -1500.808    467.56326    294.12945    104.29205      39457.2 
  579600    306.73699   -1478.4402    449.56023    349.92171    18.744983      39457.2 
  579700    303.95589   -1504.8997    442.65535    304.05609    325.81448      39457.2 
  579800    311.85866   -1464.5665    461.95245    399.20987    267.84146      39457.2 
  579900    300.83227   -1447.5902    473.13347    377.80283   -123.33594      39457.2 
  580000    303.40041   -1431.5066     493.9517    426.24865   -151.23239      39457.2 
  580100    297.18268   -1430.8886    483.19411    388.15999   -48.603456      39457.2 
  580200    297.94981   -1435.8295    465.11844    368.59171   -189.71627      39457.2 
  580300    296.97107   -1428.3161    508.25935     414.8465    264.19328      39457.2 
  580400    308.90666   -1475.6771     473.5497    386.42706    228.42015      39457.2 
  580500    306.44798   -1443.3505    469.38371    403.53575   -380.14701      39457.2 
  580600    303.42898    -1462.319    463.55158    365.16453    141.09236      39457.2 
  580700    298.75526   -1468.1901    469.79818    344.53141   -44.856399      39457.2 
  580800    304.91011   -1492.1177    460.40023     338.8722   -125.34397      39457.2 
  580900    295.90039   -1502.8047    467.03052    294.31634   -287.15565      39457.2 
  581000    314.24004   -1492.0072    463.30493    383.82601    505.05406      39457.2 
  581100    303.51836    -1460.224    480.53831    384.64802   -79.736081      39457.2 
  581200    301.72178   -1440.9913     475.9857    391.25243    203.06109      39457.2 
  581300    300.46798   -1468.5087    484.27892    366.39229     1020.857      39457.2 
  581400    294.88763   -1471.6391    470.50541    324.40432    323.44102      39457.2 
  581500    301.25293   -1462.3343    489.22675    381.04292   -114.47705      39457.2 
  581600    292.83848   -1476.8068    471.72504    311.24522   -354.90148      39457.2 
  581700    304.52262   -1481.4458    477.85178     365.2539   -227.39009      39457.2 
  581800    292.76655   -1455.9639    471.95019    331.98991   -903.53204      39457.2 
  581900    293.59976   -1459.9094    497.67032    357.50991   -239.88505      39457.2 
  582000    299.56443   -1482.3021    470.07267     334.3311    118.58488      39457.2 
  582100    291.63197   -1472.3308    474.46486    313.03773    430.14402      39457.2 
  582200    303.82124    -1462.261    500.14959    403.58378    442.77454      39457.2 
  582300    294.12578   -1497.6044    503.54751    328.05656    956.59423      39457.2 
  582400    303.61919   -1493.7734    478.09383     349.1074    787.98477      39457.2 
  582500    301.73246   -1462.5171    488.88005    382.66899    839.47395      39457.2 
  582600    300.68194   -1462.0653     480.6179    370.13641   -136.45182      39457.2 
  582700    304.23173   -1436.1528    487.27312    418.66067   -14.391485      39457.2 
  582800    294.57237   -1434.0786    472.12824     362.1706   -488.91977      39457.2 
  582900    303.39801   -1476.6181    471.57658    358.75121   -56.739652      39457.2 
  583000    295.67121    -1479.126    497.51917    347.45343   -431.23113      39457.2 
  583100    289.98115   -1462.8813    472.86329    313.46514   -42.071646      39457.2 
  583200    305.09212   -1479.5073    485.76408    377.66461    139.92577      39457.2 
  583300    298.68786     -1506.94    450.78033    286.46061    527.43425      39457.2 
  583400    299.09955   -1499.5431    494.40898    339.33672     270.7047      39457.2 
  583500    303.63112   -1434.7949     470.4811    400.52672    237.34541      39457.2 
  583600    291.47588   -1436.1421    475.38027    349.44021   -50.190601      39457.2 
  583700    296.75371   -1451.5944    473.50554    355.83731    119.64891      39457.2 
  583800    294.01582   -1437.8628    461.68043    345.43684   -550.87292      39457.2 
  583900    302.19251   -1392.0006    504.34746    470.72078   -287.38668      39457.2 
  584000    302.98897   -1419.1284    467.31212    410.13783   -533.92448      39457.2 
  584100    305.11744   -1434.4108    494.07681    431.18766   -638.84134      39457.2 
  584200    296.26048   -1455.2084    473.48917     349.9899   -257.91407      39457.2 
  584300     306.9923   -1400.3331    470.90874    450.52491    288.01886      39457.2 
  584400    305.05252   -1472.0253    480.00264    379.20718   -503.89309      39457.2 
  584500    297.81464    -1446.784    479.75705    371.66814   -446.79581      39457.2 
  584600    307.10682   -1414.0198    460.61759    427.06188   -348.55583      39457.2 
  584700    303.22687    -1433.082    523.14029    453.08174   -1046.9635      39457.2 
  584800    312.88112   -1443.2475    442.83636    406.00878   -574.65264      39457.2 
  584900    303.26356   -1406.8845    490.91818      447.222   -790.25676      39457.2 
  585000    300.84521   -1423.0223    478.25059      407.546   -1051.5906      39457.2 
  585100     296.5925   -1425.9016    513.89336    421.19331   -449.93706      39457.2 
  585200    288.68518   -1426.7831    478.10042    348.97496   -189.16791      39457.2 
  585300    304.13891   -1432.1528    485.97676    420.94712   -722.73226      39457.2 
  585400    301.96455   -1447.4342    491.24471    401.15975   -378.63452      39457.2 
  585500    306.91175   -1438.0481    483.41455    424.95366   -631.27975      39457.2 
  585600    288.91943   -1473.7315    489.20117     314.1803   -310.27512      39457.2 
  585700    306.08619   -1445.1012    471.43146    402.20648   -479.11785      39457.2 
  585800    289.93457    -1422.283    469.15173    350.14248   -436.87179      39457.2 
  585900    298.35426   -1448.8642    477.05386    369.31041    -81.59483      39457.2 
  586000    300.22972   -1441.5191    488.87218    396.90409   -103.09172      39457.2 
  586100    299.01592   -1479.8419    470.98152    335.23464   -709.97781      39457.2 
  586200    299.25108   -1422.8734    477.44848    399.72704   -165.05666      39457.2 
  586300    299.67384   -1448.5297    490.79415    389.31678   -270.22113      39457.2 
  586400    305.04404   -1451.6075    511.52273    431.10701    49.687534      39457.2 
  586500    305.90901   -1445.5216    466.58541    396.14365    428.63178      39457.2 
  586600    292.90968   -1459.2018    491.36926    348.81453   -501.97144      39457.2 
  586700     290.8399   -1425.4726    444.85342    326.72406   -416.38051      39457.2 
  586800    295.90417   -1445.4632    473.28273    357.92699   -409.02138      39457.2 
  586900    293.88749   -1418.5397    510.06072    412.56338    85.373265      39457.2 
  587000    303.87538   -1378.4846    484.46613    471.92008    333.31561      39457.2 
  587100    297.80662   -1434.3487    480.21289    384.52322   -276.29932      39457.2 
  587200    297.89841   -1401.0808    479.58715    417.57804   -399.82042      39457.2 
  587300     294.0318   -1454.2881    475.76401    343.16688   -523.47828      39457.2 
  587400    296.45002    -1400.866    498.33512    430.03019   -185.63743      39457.2 
  587500    307.52723   -1418.8054    492.81637     456.3648    -461.1062      39457.2 
  587600     300.0896   -1435.3179    498.99785    412.60119   -180.18768      39457.2 
  587700    301.54182   -1429.4708    519.49925    445.47748    53.587165      39457.2 
  587800    299.92624   -1440.1959    491.44068    399.43165    -52.22645      39457.2 
  587900     295.7544   -1435.2625     476.7224    370.89409    17.083305      39457.2 
  588000    302.76744   -1417.6498    458.77318     402.0816    21.339101      39457.2 
  588100    306.84757   -1429.1304    486.34053    436.50888    -437.5962      39457.2 
  588200    299.41493   -1442.4144    495.60597    399.08009   -63.900371      39457.2 
  588300    301.89026   -1454.8022     476.0424    378.25552    291.53695      39457.2 
  588400    297.87995    -1423.966    509.31763     424.3403    185.59864      39457.2 
  588500    298.75645   -1472.4539    486.49548    356.97025   -148.64839      39457.2 
  588600    299.92138   -1442.3369    489.64057    395.46874     259.4423      39457.2 
  588700    304.42026   -1427.6748    481.09866    421.81167    311.42246      39457.2 
  588800    301.27589   -1437.4825    476.67191     393.4431   -7.5296828      39457.2 
  588900    302.52609   -1431.6562    485.35777      413.575   -466.55457      39457.2 
  589000    298.33906   -1451.9571    493.33039    382.42577   -24.612261      39457.2 
  589100    301.44015   -1447.2793    477.51062    385.22332   -279.32129      39457.2 
  589200     314.2989   -1460.8672    472.92793    424.85361    479.06996      39457.2 
  589300     283.7868   -1485.6604    477.88309    267.86178     380.6586      39457.2 
  589400    309.29282   -1486.7856     480.8901    384.39477    647.18803      39457.2 
  589500    295.17824   -1460.0881    491.08709    357.84333    199.56735      39457.2 
  589600    293.47581   -1434.4322    464.99066    349.75033    89.154544      39457.2 
  589700     301.9716   -1451.7634    496.48706    402.10457    79.449894      39457.2 
  589800    297.63109   -1411.3622    487.53134    414.03924   -82.541281      39457.2 
  589900    299.55399   -1449.1552    485.19246    382.55091   -320.93854      39457.2 
  590000     296.7352   -1459.6484    496.07433    370.26887    54.277427      39457.2 
  590100    285.83954   -1450.9692     459.0704    292.96752    58.770197      39457.2 
  590200    292.34625   -1417.5689     504.8933    401.43875    182.47319      39457.2 
  590300    288.36126   -1468.3925    479.03799    306.84713   -115.03436      39457.2 
  590400    309.05453   -1457.4105    470.95373    402.76233    220.36479      39457.2 
  590500    290.57386   -1412.8226    489.22356    382.54837   -118.29169      39457.2 
  590600    305.33136   -1426.6582    469.96297    415.78803    242.94884      39457.2 
  590700    302.10253   -1454.5992    495.81946    399.18974   -497.13546      39457.2 
  590800    295.77257   -1430.8607     468.0905    366.74574   -177.60868      39457.2 
  590900    303.24259    -1453.623    468.95534    378.42646   -39.093234      39457.2 
  591000    298.35905   -1459.3159    499.69143    381.51784    89.361178      39457.2 
  591100     296.8984   -1449.8764    472.61613     357.3163   -258.99007      39457.2 
  591200    300.40796   -1464.4381    502.58943    388.50361   -571.45024      39457.2 
  591300    305.19313   -1443.4782    476.54872    404.93237   -75.954744      39457.2 
  591400    292.70482   -1463.3079    520.41003    372.82834    -818.3838      39457.2 
  591500    295.75036   -1495.3325    453.14904    287.23262   -218.33877      39457.2 
  591600    300.31175   -1493.3923     464.8165    321.34405   -397.65718      39457.2 
  591700    301.79834   -1490.4354    461.78398    327.95066    -212.3423      39457.2 
  591800    294.89631   -1532.3414    487.42738    280.66302    -125.1324      39457.2 
  591900    289.43841   -1517.8983    464.36843    247.51365   -122.43219      39457.2 
  592000    311.68527    -1514.878    469.25088    355.41731    66.043341      39457.2 
  592100    310.29826   -1467.5431     467.7996    395.06628    101.65101      39457.2 
  592200    302.42173    -1494.867    480.78551    345.32286    107.31566      39457.2 
  592300    310.61813   -1476.3951    479.43816     399.2907   -383.54313      39457.2 
  592400    296.13474   -1457.2855     472.1052    345.96361    129.80726      39457.2 
  592500    304.57366   -1482.6374    488.29365    374.73361   -204.62399      39457.2 
  592600     290.3445   -1473.0989    473.87476     305.8922   -815.48196      39457.2 
  592700    299.47705   -1442.7623    475.17819    378.58365    -171.7857      39457.2 
  592800    296.81619   -1449.5001    476.61807    361.32495   -625.53065      39457.2 
  592900    302.91576   -1471.1517    478.47516    368.94845   -5.5291098      39457.2 
  593000    295.90445   -1530.7493    485.04276    284.40215     133.6065      39457.2 
  593100    301.52766   -1518.7201    471.26063    307.92588    238.34348      39457.2 
  593200    300.30418   -1476.3356    499.72105    373.27123   -480.29357      39457.2 
  593300     297.0017   -1515.5458    473.97233    293.46741   -78.701156      39457.2 
  593400    301.91268   -1453.4287    480.10003    383.78743   -265.68942      39457.2 
  593500    293.85969   -1461.0975    479.22335    339.04329   -495.04432      39457.2 
  593600    292.54306   -1443.2154    471.21778    343.00147   -219.97025      39457.2 
  593700    309.02308   -1474.0223    453.37762    368.43307    175.41496      39457.2 
  593800    305.00835   -1475.2186    522.59403    418.40675    153.39122      39457.2 
  593900    302.00856    -1487.097    456.98994    327.43998    243.56649      39457.2 
  594000    294.59645   -1473.9974    456.15617    306.38795   -320.83447      39457.2 
  594100    303.34959   -1516.2901    488.87569    336.16068   -171.03674      39457.2 
  594200    289.16987   -1510.0595    474.92954    264.70637    167.81667      39457.2 
  594300    299.37314   -1537.2649    482.12963    290.56539     282.2539      39457.2 
  594400    294.71875   -1533.4387    462.94164    254.28183    115.71743      39457.2 
  594500    290.38996   -1483.8623    473.82208     295.2806    149.69107      39457.2 
  594600    289.16976   -1474.3432    438.80927    264.30194    296.63671      39457.2 
  594700    307.24935   -1441.3521    489.94077    429.69342    417.74575      39457.2 
  594800    293.53855   -1465.7279    478.25125     331.9972   -117.16478      39457.2 
  594900    285.55196   -1503.3378    468.43176     248.6676   -446.80718      39457.2 
  595000    307.89961   -1542.5661    437.57426    279.03583   -426.13125      39457.2 
  595100    293.03683   -1493.7222     458.2759    281.77224   -497.65724      39457.2 
  595200    304.92999    -1459.112    467.38754    378.95457   -347.47433      39457.2 
  595300     295.6175   -1448.2937    489.43131    369.95645   -467.18707      39457.2 
  595400    300.12847   -1489.8386    476.53632    335.79362   -24.783277      39457.2 
  595500    310.49193   -1510.4951    481.29152     366.4768   -343.75537      39457.2 
  595600    298.66529    -1521.477    448.23636    269.27822    343.59787      39457.2 
  595700    301.80533   -1481.5274    486.16867    361.27478   -407.04273      39457.2 
  595800    296.24569   -1477.6773    463.37467    317.33999   -420.93294      39457.2 
  595900    300.06303   -1477.1444    463.86726    335.52466    168.77572      39457.2 
  596000      301.451   -1479.9167       461.93    337.05409     150.1889      39457.2 
  596100    294.25284   -1446.6117    473.00691    349.07983   -163.84929      39457.2 
  596200    308.99855   -1456.4754    466.23629    398.72837    126.99453      39457.2 
  596300    307.18326   -1476.2174    456.69474    361.28507    3.0258177      39457.2 
  596400    306.24908   -1456.1375    487.91538    408.38639    148.11595      39457.2 
  596500    300.20563     -1469.91    459.97571     339.5085    475.36611      39457.2 
  596600    298.30509   -1466.8045     426.7987    300.89391    620.88839      39457.2 
  596700    310.25615    -1449.622    477.33078    422.32923     295.0586      39457.2 
  596800    294.36994   -1469.2572    442.65501    296.60884    2.3869536      39457.2 
  596900    310.01573   -1460.1443    499.26606    432.66156    249.31281      39457.2 
  597000    302.93862    -1480.159    484.57085    366.13963    123.55528      39457.2 
  597100    292.97136   -1487.6092    448.54442    277.85951    32.246242      39457.2 
  597200    308.43798   -1499.9264    467.21883    353.74017   -113.36243      39457.2 
  597300    292.80459   -1489.2134    458.23656    285.19784     40.79897      39457.2 
  597400    302.22865   -1464.9222    469.71921    363.33338    492.67249      39457.2 
  597500    291.66996   -1491.6165      446.285    265.74293    368.23811      39457.2 
  597600    302.93219    -1456.995    477.06204    381.76588    124.80748      39457.2 
  597700    301.27256     -1455.94    481.48163     379.7803    327.71795      39457.2 
  597800    305.92812   -1476.1465    472.34725    371.36653    54.485485      39457.2 
  597900     300.5272   -1454.0412    479.53492    376.38195   -91.614129      39457.2 
  598000    304.21861   -1439.9534    475.53534    403.06332   -161.66253      39457.2 
  598100    303.35871   -1460.6233    452.38222      355.375   -85.068466      39457.2 
  598200    295.80495   -1446.2234     459.8291    343.26714    -75.60518      39457.2 
  598300    301.77778   -1407.6452    451.59857    400.46303   -72.071376      39457.2 
  598400    304.01858   -1405.1476    495.53407    456.96873    10.424969      39457.2 
  598500    292.91415   -1426.5035    478.51474    368.67844   -549.04865      39457.2 
  598600    301.00754   -1437.4385    452.08836    367.69724   -157.60029      39457.2 
  598700    307.53567   -1449.0895    487.65539     420.9576    4.5986557      39457.2 
  598800    302.67191   -1464.1186     459.1584    355.56863   -119.19697      39457.2 
  598900    299.52881   -1457.9275    481.70134    370.17432   -248.71512      39457.2 
  599000    298.91752   -1456.1145    488.84534    376.38348   -887.33954      39457.2 
  599100    293.16649   -1418.6173      455.167     354.3511    -502.3176      39457.2 
  599200    308.55286   -1412.0472    478.08129    452.99817   -799.98253      39457.2 
  599300    297.38082   -1416.5707    458.32191    378.49629   -437.71566      39457.2 
  599400    300.86581   -1413.1706     475.6853    414.92503   -293.37211      39457.2 
  599500    288.38387   -1368.8251    487.22994    414.70807    -300.5088      39457.2 
  599600    315.05883   -1400.5989    478.10558    493.71551    41.411527      39457.2 
  599700    310.53212    -1444.366    471.20866    422.70365    347.03168      39457.2 
  599800    291.72939   -1411.4192    478.11273    378.03509    409.24422      39457.2 
  599900    297.64952   -1405.4942    471.26971    403.72838    75.155401      39457.2 
  600000    297.06135   -1401.3013    457.77357    391.78125   -564.02253      39457.2 
  600100     302.6891   -1391.2731    470.57057    439.90364   -459.83054      39457.2 
  600200    292.38488   -1424.5376    449.87432    339.62479   -525.89951      39457.2 
  600300    309.92777   -1363.7006    490.90699    520.35083    -177.1699      39457.2 
  600400    294.14431   -1449.8542    467.60991    339.95251   -379.39031      39457.2 
  600500     301.6291    -1454.605    476.59625    377.83261   -317.54383      39457.2 
  600600    298.48933   -1413.5122    454.57468     382.7904   -288.72982      39457.2 
  600700    300.23305   -1413.5653    477.72387    413.72464    168.01926      39457.2 
  600800    296.94801   -1452.0397    452.99968    335.75957    165.41462      39457.2 
  600900    318.91792   -1444.9147    457.00798    445.64896    52.883053      39457.2 
  601000    293.62584   -1435.1824    498.57591    383.25972    411.58625      39457.2 
  601100    292.84905   -1458.6724    459.97487      317.677    220.72344      39457.2 
  601200    295.73286   -1444.4531    481.30061    366.18488     218.3935      39457.2 
  601300     298.3785   -1484.5036     480.1397    336.86585    355.21102      39457.2 
  601400    306.97032   -1440.6037    489.74049    428.98729   -126.14391      39457.2 
  601500    307.55267   -1457.0955    458.37054    383.74325   -14.024996      39457.2 
  601600    306.35335   -1414.0322    483.81642    446.86144   -128.45216      39457.2 
  601700    299.55287   -1440.2401    486.79704    393.06552   -882.41579      39457.2 
  601800    306.86733   -1442.8118    471.23784    407.81353   -130.74881      39457.2 
  601900    310.91355    -1390.822    500.95539    507.70892   -120.88235      39457.2 
  602000    288.00425   -1421.2567    482.61319    355.95333   -203.22326      39457.2 
  602100    298.82338   -1413.5537    484.21322    413.88902    89.536017      39457.2 
  602200     305.2742   -1415.5697    487.62312    444.27973    111.60601      39457.2 
  602300    297.57723   -1422.4574    482.58892    397.75945   -417.29917      39457.2 
  602400    304.25761    -1424.086    497.39469    440.96542   -856.68672      39457.2 
  602500     302.1328   -1413.8904     468.1132    412.32831   -241.63309      39457.2 
  602600    304.34397   -1388.0757    472.25081    452.21995    356.87139      39457.2 
  602700    290.76194   -1394.9282    473.97274    386.03732    206.75331      39457.2 
  602800    292.82122   -1412.2227    479.46311    383.48977    334.39307      39457.2 
  602900    297.46611   -1436.1375    462.91853    363.90944    377.38129      39457.2 
  603000    304.81517   -1419.7966      476.148    426.51439    133.51481      39457.2 
  603100    309.07049   -1411.4512     476.4542    454.29383    400.25824      39457.2 
  603200     301.5472   -1484.1401    452.22197    323.55513    796.05463      39457.2 
  603300    293.90187   -1454.7447    478.25193    344.61423     157.3896      39457.2 
  603400    292.89769   -1459.3706    464.18553    321.40806    413.29753      39457.2 
  603500    300.83082   -1475.5551    466.55539    343.25336   -306.89317      39457.2 
  603600    296.72134   -1454.0726    485.78165    365.48974    -125.4155      39457.2 
  603700    302.80887   -1444.3466    483.14774    399.94569    540.39092      39457.2 
  603800    300.76763   -1442.3177    488.48352     398.1348    251.50496      39457.2 
  603900    298.84567   -1493.7933    465.70005    315.23647    428.70222      39457.2 
  604000    294.22282    -1483.386    459.05379    298.21747    795.42058      39457.2 
  604100    291.59402   -1450.1362    502.19346    362.79039   -24.564635      39457.2 
  604200     303.2299   -1457.7827    460.87102    366.12539   -283.08082      39457.2 
  604300    293.20571    -1500.237    497.53956    315.28023    27.348747      39457.2 
  604400    306.28134   -1447.5154    491.62893      420.867    348.58172      39457.2 
  604500    291.37484   -1453.8894    480.56664    336.42514   -704.68379      39457.2 
  604600    307.52468   -1498.6288    487.08121    370.79473   -207.14961      39457.2 
  604700    297.26427   -1487.9741    469.34309     317.5902   -445.91826      39457.2 
  604800     297.8793   -1453.8908    492.92758    378.02261   -141.46516      39457.2 
  604900       293.29   -1449.9608    502.88552    371.28135   -511.98314      39457.2 
  605000     310.4242   -1469.5202    460.65099    386.50669   -295.96774      39457.2 
  605100    292.67964   -1491.8019     471.7085    295.51965   -3.5598806      39457.2 
  605200    311.14096   -1487.0891    464.49678    376.00543    402.88406      39457.2 
  605300    317.17379   -1475.9815    478.68532    428.41949     417.7737      39457.2 
  605400    299.74951   -1482.8825    486.82981     351.3398    940.23158      39457.2 
  605500    298.04991   -1506.2473    468.20226     301.7077    410.16277      39457.2 
  605600    300.38287   -1462.4755    503.16327    390.92728    108.90542      39457.2 
  605700    297.81803   -1459.7405    477.02236    355.99226   -96.598896      39457.2 
  605800    295.69961   -1478.5448     484.3969    335.04005    18.210267      39457.2 
  605900    303.57579     -1492.05    490.42447    362.96632    -140.9015      39457.2 
  606000    294.26182   -1418.2367    485.22038    389.70874   -199.79972      39457.2 
  606100     295.8377   -1456.7179    482.21872     355.3095   -298.77967      39457.2 
  606200    298.95083   -1464.1655     474.8367    354.47356    -323.6163      39457.2 
  606300    299.36803   -1422.5685    484.43621    407.54547   -92.503917      39457.2 
  606400    304.44479   -1427.7796    494.34486    435.06336    -162.4843      39457.2 
  606500    295.36508   -1462.7287    504.79186     369.7474   -193.71923      39457.2 
  606600    306.52697    -1483.051    478.31554    373.12215    -149.5433      39457.2 
  606700    297.49411   -1436.9381    473.48652    373.80278   -468.27909      39457.2 
  606800    306.42041   -1431.3135    489.61884      435.684   -322.48999      39457.2 
  606900    314.75741   -1428.9294    506.86269    492.78727    90.131805      39457.2 
  607000    297.86405   -1458.9272    456.42982    336.41989    532.38063      39457.2 
  607100    302.31661   -1438.7132    493.65877    413.87732    145.86912      39457.2 
  607200    307.14103   -1438.0741    488.65424    431.19801   -328.29855      39457.2 
  607300    298.62921   -1523.8199    473.45903    291.99585   -550.15226      39457.2 
  607400    302.41383     -1507.96    466.43169    317.84044   -308.22849      39457.2 
  607500    301.73268   -1440.2387    466.30292     382.3712    274.59798      39457.2 
  607600    304.07269   -1451.0658    490.22817     405.9878   -129.52109      39457.2 
  607700    301.31753   -1470.8991    460.15636    343.69813    236.94722      39457.2 
  607800    298.64334    -1462.476    469.20708    349.15131    -79.58237      39457.2 
  607900    297.27116   -1414.3575    509.95477    431.84938   -141.61559      39457.2 
  608000    296.97569   -1432.2541    491.07784    393.74771   -57.080242      39457.2 
  608100    287.69331   -1411.9948    481.98989    363.19422   -472.28508      39457.2 
  608200    296.52044   -1416.6085    495.01084    411.27997   -684.37726      39457.2 
  608300     293.7338   -1451.6305    502.40976    371.13077   -397.54156      39457.2 
  608400     292.6746    -1472.582    457.78904    300.79737    -786.2828      39457.2 
  608500    301.24255   -1423.8183    483.67445    413.95989   -393.48864      39457.2 
  608600    295.94195   -1432.8652    481.56163    378.97369    59.958663      39457.2 
  608700     302.7506   -1491.1174    472.84958    342.61476   -40.608463      39457.2 
  608800    299.87731   -1464.3679    485.87078    369.46985   -45.634252      39457.2 
  608900    292.16148   -1451.1528    473.75564    335.88668    173.76538      39457.2 
  609000    296.37168   -1510.2863    455.34254    277.26514   -90.663182      39457.2 
  609100    298.55746   -1481.4323    480.71569    341.31756   -125.35441      39457.2 
  609200    305.70491   -1470.2324    476.52103    380.45101   -171.30108      39457.2 
  609300     309.5436   -1478.4469    471.77933    384.74998    34.718785      39457.2 
  609400    296.95765   -1449.4427    486.81923     372.2194   -83.401394      39457.2 
  609500    305.16579   -1475.9567    508.01853    403.80082    5.3220047      39457.2 
  609600    292.07559   -1462.4444    466.16107     316.6144    105.40857      39457.2 
  609700    289.35589   -1484.3611     504.4606    320.77199   -344.01545      39457.2 
  609800    297.97512   -1471.0854    466.90387    335.23497   -670.56937      39457.2 
  609900    303.00861   -1424.8992    496.65234    433.79551   -655.92579      39457.2 
  610000    297.01182   -1453.8106    479.02453    360.30037   -791.27607      39457.2 
  610100    308.32509   -1469.4305    467.16838    383.67815    183.52557      39457.2 
  610200    300.74749   -1471.3017    484.14718    364.72398   -82.539722      39457.2 
  610300    300.83648   -1420.7719    508.44489    439.95146    641.15737      39457.2 
  610400     306.4794   -1435.8922    487.95108    429.70266   -41.664077      39457.2 
  610500    314.80986   -1446.0783    472.51601    441.52742    118.38983      39457.2 
  610600    293.30549   -1421.2052    490.03098    387.25198   -179.54664      39457.2 
  610700    299.75588   -1428.6109    453.30422    372.11441   -213.67821      39457.2 
  610800      293.316   -1461.4248    484.20816    341.25685   -282.63004      39457.2 
  610900    298.34783   -1445.0068    495.64706    391.73214    -136.8976      39457.2 
  611000    299.20457    -1437.348    491.26681     398.8618   -573.41361      39457.2 
  611100    292.00601   -1413.4653    465.45692    364.57657    80.359662      39457.2 
  611200    300.60775   -1389.2282    499.59531    461.61744   -74.865858      39457.2 
  611300    302.12265   -1399.3468    503.89559     462.6087   -196.94768      39457.2 
  611400    298.79309    -1452.848    440.48255    330.72787   -196.66834      39457.2 
  611500    307.23092   -1433.5966    467.08255    414.50783    44.099792      39457.2 
  611600    294.57493   -1391.0048    485.30129    418.42891   -236.07127      39457.2 
  611700    296.30121   -1448.3254    478.10723    361.67403   -41.957136      39457.2 
  611800    303.21247    -1431.036     514.8761    446.79883     -302.812      39457.2 
  611900    298.33958   -1412.9449    465.65117    393.76106    202.80687      39457.2 
  612000    301.63173   -1412.5509    497.52304    440.82532    420.72008      39457.2 
  612100    305.67576   -1399.6759    504.63009    478.98555    611.36678      39457.2 
  612200    292.56167   -1402.3341    490.79496    403.54359    487.92015      39457.2 
  612300    304.57697   -1380.4519    465.42126    454.06152    -87.54395      39457.2 
  612400    305.28108   -1390.3181    490.87787    472.81698   -405.18796      39457.2 
  612500    313.53979   -1367.7507    469.87152    511.50153    101.28582      39457.2 
  612600    301.08642   -1405.6472    474.59285    422.34768    15.974414      39457.2 
  612700    297.72378   -1427.3038    465.54433    376.52722   -40.219909      39457.2 
  612800     305.9709   -1419.4629     481.0424    436.93755   -200.64135      39457.2 
  612900    302.34051    -1440.727    492.47459    410.78684   -316.81949      39457.2 
  613000    293.39835   -1425.3762    466.33637    359.80377     -222.361      39457.2 
  613100    292.82767   -1390.5805    495.85994    421.55785   -248.13802      39457.2 
  613200    294.26823   -1393.8108    495.86511    424.80816   -174.09537      39457.2 
  613300    302.13001   -1380.9829    505.93178    483.04192   -378.55846      39457.2 
  613400    297.90795   -1423.8592    488.03062    403.28601   -517.64171      39457.2 
  613500    298.27973   -1386.4785    473.25761     427.5649   -325.82752      39457.2 
  613600    305.95403   -1419.6984    481.15475    436.73858   -15.637599      39457.2 
  613700    303.66684   -1419.4975    520.30289    465.80654    46.657468      39457.2 
  613800    305.59619    -1418.201    471.26133      426.734   -18.997122      39457.2 
  613900     293.9596   -1433.1286     524.0142     412.2521    56.089983      39457.2 
  614000    305.03046   -1409.9657    472.93857     434.1036    194.95507      39457.2 
  614100    294.22492    -1436.605    496.38189    382.33599   -265.37857      39457.2 
  614200    299.87251   -1447.9006    483.52762    383.57244    355.17901      39457.2 
  614300    299.52347    -1465.036    480.42232     361.7628    241.84322      39457.2 
  614400    299.50192   -1479.2744    465.67266    332.67779   -130.76553      39457.2 
  614500    309.35755   -1488.9146    445.81625    347.48291   -21.154887      39457.2 
  614600    305.17255    -1480.338    489.82957    381.26098   -74.434158      39457.2 
  614700    299.48974   -1458.4164    481.77167    369.58008    913.57288      39457.2 
  614800    294.83922   -1485.2039    490.62125    330.73779    710.18409      39457.2 
  614900    302.20451   -1489.4955    508.34021    377.27258     1035.292      39457.2 
  615000    303.91204   -1436.0494    473.40337    403.45732    674.11296      39457.2 
  615100    295.00801   -1468.4756    476.41171    334.01524    580.93006      39457.2 
  615200    308.99253   -1503.5891    472.63827    357.98959    309.31868      39457.2 
  615300    295.63094   -1518.9717    456.23985    266.14739   -221.57062      39457.2 
  615400    305.18366   -1469.3326    426.32912    328.81583    143.11397      39457.2 
  615500    305.20939   -1489.5485    468.85586    351.24237    150.73624      39457.2 
  615600     308.2796   -1486.0649    483.44681    383.11768    471.45403      39457.2 
  615700    307.68476   -1421.0642    470.00089    431.99863    158.83435      39457.2 
  615800    297.20966    -1445.268     455.2017    345.90944    347.37117      39457.2 
  615900    301.42331   -1488.6846    491.87901    358.11073    812.80653      39457.2 
  616000    293.04632   -1457.7936    444.17964    303.64732    824.13952      39457.2 
  616100    300.26291    -1472.223    468.68465    346.16192    632.92914      39457.2 
  616200    294.83589   -1475.7834    485.33609    334.85816   -387.92812      39457.2 
  616300     307.5967    -1479.812    474.94483    377.79894   -15.616462      39457.2 
  616400    311.51302    -1457.829    456.31427    398.75544    189.47387      39457.2 
  616500    291.80132   -1515.4727    458.70307    254.89521    11.453062      39457.2 
  616600    295.70328   -1494.8978    452.88133    287.18798     87.23621      39457.2 
  616700     301.5104   -1472.3722    478.23673    361.17229    632.63314      39457.2 
  616800    296.13406   -1454.2494    465.87246    342.76393    423.89986      39457.2 
  616900    311.61645   -1456.2212    472.75735    417.27127    396.49315      39457.2 
  617000    300.12201   -1495.8661    453.47564    306.67646   -40.721454      39457.2 
  617100    298.27873   -1484.6156    461.16134    317.32697   -355.37016      39457.2 
  617200     297.5618   -1470.0723     456.8279    324.31427   -935.14755      39457.2 
  617300    274.48869   -1470.1528     454.7688    218.45956   -680.98887      39457.2 
  617400    292.66453   -1472.6878    452.65073    295.50796   -182.11452      39457.2 
  617500    308.85023   -1472.0909    473.72257    389.93247   -196.52966      39457.2 
  617600    297.39617   -1482.8251    458.83416    312.82312    113.16858      39457.2 
  617700    302.18828   -1480.2401     436.7045    314.81928    133.68257      39457.2 
  617800    296.51312   -1444.7561    468.03315    356.12176    479.29024      39457.2 
  617900     289.9877   -1485.5212    469.17093    287.16229    131.77047      39457.2 
  618000    307.03128   -1481.4745     466.9439    365.59395    108.20448      39457.2 
  618100     297.3861   -1463.3398    469.89805     343.3271   -169.23092      39457.2 
  618200    298.07473   -1442.4703     449.1607    346.55462   -689.66161      39457.2 
  618300    291.97773   -1477.6315     478.0265    312.85287   -4.2703619      39457.2 
  618400    289.98335   -1497.7838    453.08069    258.78987   -156.47685      39457.2 
  618500    306.04737    -1526.147    473.12349    322.67826    304.37964      39457.2 
  618600    307.36702   -1480.0001    464.03816     365.6717   -140.32709      39457.2 
  618700    299.88763   -1466.7892    463.54254    344.76675    197.08679      39457.2 
  618800    306.32722   -1493.3231    458.81505    342.45168    398.39173      39457.2 
  618900    294.15473    -1472.141    466.56457    316.66721    74.380311      39457.2 
  619000    303.52377   -1500.7047    480.11394    343.76732    -114.6049      39457.2 
  619100    308.92147   -1424.5521    488.96509    453.03405    184.12083      39457.2 
  619200    287.98879   -1434.2843    464.39926    324.64232    302.12651      39457.2 
  619300    310.12128   -1423.8785    474.70795    444.84366    427.24418      39457.2 
  619400     291.1378   -1468.0481     472.1187    312.75291    37.378754      39457.2 
  619500    306.70454   -1393.7242    483.18463     468.1162   -215.39054      39457.2 
  619600    300.97999   -1398.0489    487.39115    442.26579   -637.51486      39457.2 
  619700    297.19212    -1411.526    477.84289    402.21379   -978.80018      39457.2 
  619800    292.31301    -1427.636    468.93149    355.26047   -524.04504      39457.2 
  619900    299.92412   -1420.5609    478.11192    405.72844   -349.54026      39457.2 
  620000    308.93742   -1440.9602    493.68033    441.41282   -188.93182      39457.2 
  620100    311.24073   -1415.0353    489.33018    473.34112   -323.64024      39457.2 
  620200    303.98781   -1436.7263    467.54945    397.26708   -800.64212      39457.2 
  620300    291.59484   -1456.3629    470.32932     324.7032   -470.20054      39457.2 
  620400    300.14524   -1483.5828    470.26355    335.85212   -66.378099      39457.2 
  620500    307.86354   -1441.8252    473.52049    415.56089   -650.85721      39457.2 
  620600    295.55467   -1482.3258    478.34323     324.5539    -4.495584      39457.2 
  620700    292.51186   -1492.5919    468.53255    290.79948    -387.5975      39457.2 
  620800    308.36639   -1506.5217    473.07503    352.67925   -440.58641      39457.2 
  620900    305.75897   -1478.9074      481.966    377.46399   -252.49091      39457.2 
  621000    304.67968   -1492.2073    473.45784    350.80449   -639.12339      39457.2 
  621100    304.97574   -1483.3638    471.95163    359.47254   -216.46479      39457.2 
  621200     287.6611   -1524.8485    477.65325    245.85913   -181.10317      39457.2 
  621300    306.33336   -1540.6641    476.36134    312.68458     407.3597      39457.2 
  621400    298.47096   -1503.3774    451.62323    289.89119    432.10941      39457.2 
  621500    289.92128   -1510.2969    494.75598    287.67311    871.30518      39457.2 
  621600    304.26051   -1503.3306    492.36872    356.70785    924.43484      39457.2 
  621700    305.78886   -1452.7553    490.08415    411.86857    679.10529      39457.2 
  621800     294.4527    -1467.715    490.56984    346.43784    103.04755      39457.2 
  621900    305.60762   -1472.0381    474.56179    376.24878    358.30166      39457.2 
  622000    299.32334    -1451.592    480.47118    374.35603   -364.67634      39457.2 
  622100    295.42789   -1469.1713    451.88489    310.68014   -704.32642      39457.2 
  622200    302.07083   -1484.9857    506.30221    379.14344   -274.25104      39457.2 
  622300    296.59817   -1470.0657    495.66253    358.82384    292.09617      39457.2 
  622400    302.49727   -1439.6279    500.80265    420.91861   -137.43216      39457.2 
  622500    303.82104   -1514.0721    488.76609    340.38829   -561.34646      39457.2 
  622600    305.72881   -1515.2668    457.16841    316.17143    -290.4562      39457.2 
  622700    298.33117    -1469.717    506.08045    377.38038   -412.88575      39457.2 
  622800    309.75092   -1448.5774     481.9157    425.68778    -145.6119      39457.2 
  622900    292.87438   -1478.5794     496.4188    334.32779    420.17664      39457.2 
  623000    291.19944   -1454.5658    467.89124    322.28489    57.491094      39457.2 
  623100    296.94729    -1486.451    482.28147     330.6268    148.83273      39457.2 
  623200    304.68671    -1451.707    456.99353    374.87204    21.419748      39457.2 
  623300    299.49254   -1466.8648    486.66078    366.03335    135.27738      39457.2 
  623400    309.95085   -1476.3044    478.74238    395.68609    6.1569008      39457.2 
  623500     291.9053    -1470.903    493.19184    334.42115    36.312927      39457.2 
  623600    293.62888   -1476.8377    466.35908    309.40124    360.35519      39457.2 
  623700    306.42735   -1499.3194    496.21888    374.30929    552.27536      39457.2 
  623800    305.82516   -1505.9081    509.00252    377.79728   -95.347436      39457.2 
  623900    310.28689   -1480.0533     473.7061    388.41148   -432.40785      39457.2 
  624000    307.45581   -1532.5235    476.12432    325.63362   -515.27177      39457.2 
  624100    297.46611   -1524.9652    464.73876    276.90208   -155.86389      39457.2 
  624200    300.04756   -1519.4529    497.07488    326.35426   -49.555496      39457.2 
  624300    303.70207    -1500.425    463.87005     328.6045    -82.07561      39457.2 
  624400    305.32249    -1548.851     476.1384     299.7308    30.419995      39457.2 
  624500    303.55804   -1551.7581    505.63085    318.38479    84.408735      39457.2 
  624600    278.16361   -1502.1436    461.15382    209.37278   -378.97997      39457.2 
  624700    304.16495    -1501.904    491.10162    356.43781     7.889712      39457.2 
  624800    297.50012   -1511.1146    489.06112    315.22791   -506.54256      39457.2 
  624900     276.6851   -1490.6271    483.70393    236.79343    170.02962      39457.2 
  625000    303.36708   -1481.8658    504.53743    386.32532    -232.9088      39457.2 
  625100    290.18945   -1456.6967    495.34054    343.06329    -137.6183      39457.2 
  625200    297.38995   -1516.1975    480.49501    301.08366   -115.82889      39457.2 
  625300    294.26846    -1477.606    494.61031    339.75911    228.91605      39457.2 
  625400    292.85852   -1499.5124    493.94075    310.84543    440.16284      39457.2 
  625500    300.77264   -1509.6609      466.589    308.91965   -130.70155      39457.2 
  625600    294.55299   -1514.6072    489.16763     298.5943   -283.52816      39457.2 
  625700    291.90068   -1494.8977     469.7786    286.99237   -345.11754      39457.2 
  625800    310.22596   -1502.6216    463.23589    355.09903   -486.82124      39457.2 
  625900    305.07951   -1510.3946    478.08149    339.03809    -17.58523      39457.2 
  626000    302.65019   -1473.0355     470.2035    357.59923   -137.38954      39457.2 
  626100    291.15121   -1494.5026     490.3733    304.61332   -20.026388      39457.2 
  626200    285.31593   -1502.8122    473.95389    253.65434   -108.78839      39457.2 
  626300    303.44736   -1485.9947    465.05359    343.07348   -44.192794      39457.2 
  626400    305.31489   -1483.7094    476.55621    365.25601    627.86415      39457.2 
  626500    302.56937    -1494.093    485.27711    351.25206    540.22592      39457.2 
  626600    298.09426   -1494.5578    458.81893    304.21319     445.1955      39457.2 
  626700    291.31146   -1461.6414    485.14114    332.96264    717.48302      39457.2 
  626800     305.4701   -1460.9588    485.08837    397.23649    864.64615      39457.2 
  626900    289.66416    -1499.801    496.06878      298.326    262.25549      39457.2 
  627000    318.81489   -1459.9252    476.90797    450.07533    425.10262      39457.2 
  627100    302.74619   -1454.0395    470.32404     377.1473    276.25876      39457.2 
  627200    302.60378   -1486.2164    486.77299     360.7792    98.722199      39457.2 
  627300    306.24557   -1479.8556    483.82164    380.55877    455.92804      39457.2 
  627400    291.30492   -1487.6284    486.63361    308.43875   -75.757269      39457.2 
  627500    299.32349   -1462.2521     469.9178    353.14323   -254.03193      39457.2 
  627600    291.98923   -1505.1928     476.4198    283.73658   -345.00493      39457.2 
  627700    287.81929   -1487.0832    493.17522    299.85746  -0.41155043      39457.2 
  627800    300.05796   -1490.7159    474.05441    332.11748   -313.69405      39457.2 
  627900    299.72359   -1504.4712    459.97951    302.78427   -612.35964      39457.2 
  628000    295.63756    -1514.115    518.58318    333.37718   -853.41676      39457.2 
  628100    309.39018   -1554.5818    469.35057     305.4967   -289.11608      39457.2 
  628200    300.80478   -1532.5457    479.68416    299.27446    84.831553      39457.2 
  628300    300.64646   -1561.2696    458.59474    248.74951    92.285474      39457.2 
  628400    300.69164   -1502.7468    479.71595    328.59659    23.043273      39457.2 
  628500    305.43384   -1519.7353    517.02289    370.23147    -179.4266      39457.2 
  628600    299.45233   -1504.8146    468.32741     309.5695   -222.16048      39457.2 
  628700    294.23154   -1520.7336    488.39952    290.25486   -392.85593      39457.2 
  628800    304.84898   -1520.2558    470.52294    320.58206   -301.96845      39457.2 
  628900     304.8357   -1467.8303    499.35648    401.78146   -143.12052      39457.2 
  629000    292.23549    -1498.549    488.28874    303.35621   -523.31209      39457.2 
  629100    294.64608   -1496.7458    471.95228    299.65873   -552.54654      39457.2 
  629200    291.19646   -1506.7519    478.94205     281.1362   -998.59315      39457.2 
  629300    297.03778   -1477.5478    470.02065    327.67599    107.03884      39457.2 
  629400    300.10538   -1467.6547    527.70488    409.04236   -569.32913      39457.2 
  629500    304.70498   -1487.5606     478.7433    360.85034    168.37046      39457.2 
  629600    289.48879   -1494.9612    501.48955    307.79828    22.079805      39457.2 
  629700    292.34604   -1437.3617    525.53033    402.28208   -456.35461      39457.2 
  629800     300.5144   -1497.7637    500.17946    353.24645    68.492859      39457.2 
  629900    286.91817   -1514.7592    487.16963    262.12521     27.15801      39457.2 
  630000    293.77696   -1548.0239    480.53418    253.05576    320.81028      39457.2 
  630100    303.35128   -1536.2774     461.4752    288.78052    32.570191      39457.2 
  630200    295.05358   -1492.6937    501.19727    334.78759    101.03069      39457.2 
  630300    296.12089   -1520.1976    492.32507     303.2091   -77.641345      39457.2 
  630400    303.59478   -1511.2107    485.13392    338.60047    113.51905      39457.2 
  630500    287.34023   -1483.1963    487.86872    296.28444   -640.09534      39457.2 
  630600    296.50128   -1513.8325    479.53201    298.49099   -262.89601      39457.2 
  630700    292.89669   -1501.5278      478.459    293.51982   -202.32751      39457.2 
  630800    300.08656   -1484.6191    514.84013    379.12856    535.04616      39457.2 
  630900    301.73284   -1448.0757    513.04148    421.27349    681.45256      39457.2 
  631000    301.54224   -1416.4402    493.30697    432.31774    741.01846      39457.2 
  631100     298.4776   -1450.9752    505.81135    396.51137    512.07788      39457.2 
  631200    302.65172   -1465.5104    521.50815    416.43587    212.64825      39457.2 
  631300     291.6892   -1471.0754    488.58542    328.67094    231.23262      39457.2 
  631400    302.69414   -1465.3143    515.79018    411.10465    196.92734      39457.2 
  631500    298.13495    -1486.835    466.99066    320.29061    500.49002      39457.2 
  631600     307.7439   -1460.1749    498.01828    421.17117    362.36406      39457.2 
  631700    298.81531   -1494.5948    472.69422    321.29264   -89.909162      39457.2 
  631800    298.22038    -1498.967    493.06773     334.6197    174.01583      39457.2 
  631900    300.70681   -1518.6597    473.71314    306.74905   -122.92394      39457.2 
  632000    293.32214   -1509.8762     479.2817    287.90652   -13.786228      39457.2 
  632100    292.90459   -1509.7993    499.16572    305.99061   -355.58306      39457.2 
  632200    287.18556    -1555.599    477.30236    212.62008   -118.19922      39457.2 
  632300    292.29022   -1501.1508    492.93987    305.65166   -285.73188      39457.2 
  632400    306.18169    -1502.334    502.32429    376.29579     67.66335      39457.2 
  632500    296.56775   -1511.2301    480.84583    302.70598    33.983341      39457.2 
  632600    289.87152   -1496.1648    493.04024    299.86573   -438.95659      39457.2 
  632700    290.69546   -1533.9955    488.40397    261.10244   -39.078204      39457.2 
  632800    302.98657   -1486.5593    474.55001    349.93399    315.67183      39457.2 
  632900    310.11446   -1495.9355    482.16434    380.21244   -195.81795      39457.2 
  633000    299.57086   -1516.1476     476.6631    307.10492     120.3754      39457.2 
  633100    303.36324    -1446.976    489.83057    406.49101    130.40207      39457.2 
  633200     297.2295   -1487.1784    480.97945      329.866    -46.79472      39457.2 
  633300    304.35985   -1505.6806    493.41445    355.85007    127.76189      39457.2 
  633400    295.68407   -1520.8531    447.67406    255.93909     120.6529      39457.2 
  633500     298.3271   -1533.8327    462.92124     270.0872   -377.72368      39457.2 
  633600    309.62391    -1473.297    499.23034    417.71185   -429.42043      39457.2 
  633700    288.42661   -1499.3331    483.54743    280.70967   -418.49262      39457.2 
  633800    296.53568   -1443.6861     467.7152    356.97524   -492.35345      39457.2 
  633900     297.0116   -1506.1759    475.31876    304.22827    108.52447      39457.2 
  634000    289.90154   -1476.7762    486.10703    312.45616    453.47864      39457.2 
  634100    298.49969   -1483.5637    492.98014    351.19092    80.185648      39457.2 
  634200    305.83664   -1486.3362    491.70248    380.12083   -216.50574      39457.2 
  634300    293.66963   -1464.1273    484.29144    340.22721   -89.632042      39457.2 
  634400    307.84302   -1510.9268    464.48955    337.33607    257.72269      39457.2 
  634500    307.54121   -1524.3719    470.49833    328.54314   -98.953653      39457.2 
  634600    296.29125   -1489.9204    496.40084    338.32786   -317.77965      39457.2 
  634700    290.21101   -1494.2892    481.36854     291.5957    429.88381      39457.2 
  634800    297.85645   -1513.7721    461.05751    286.16852    204.47696      39457.2 
  634900    308.18514   -1512.1917    468.93034    342.04981    123.16497      39457.2 
  635000    312.89158   -1534.3122    476.25439    348.40913     509.9502      39457.2 
  635100    305.74079   -1528.3012    459.42773    305.45017    208.59588      39457.2 
  635200    293.46029   -1505.0797     488.4951    302.53747    365.99588      39457.2 
  635300    305.18359   -1505.7851    456.89241    322.92636    26.076382      39457.2 
  635400    301.66164   -1471.2117    507.02978    391.80567    299.45347      39457.2 
  635500    286.36439   -1501.4255    447.71088    233.51097   -207.17941      39457.2 
  635600    296.56238   -1537.4149    459.15516    254.80642   -294.64341      39457.2 
  635700    312.59611   -1451.1616    462.10195    416.07907   -282.34213      39457.2 
  635800    285.63198   -1508.9665    477.11988    252.08676   -346.19391      39457.2 
  635900    308.35568   -1520.2881    452.03624    317.82592    -36.52197      39457.2 
  636000     298.7304   -1514.9047    468.72304    296.62988    -575.8038      39457.2 
  636100    296.02547   -1525.3602      465.916    271.20855   -209.24453      39457.2 
  636200    294.58854   -1502.7001    460.94127    282.43483   -198.06899      39457.2 
  636300    305.30474   -1477.0433    506.52549    401.84581     582.9345      39457.2 
  636400     307.4215   -1472.7938    481.82295    390.90772    722.45941      39457.2 
  636500     299.7466     -1472.18    467.58391    342.78334     843.6601      39457.2 
  636600    296.05844   -1512.8737    470.42071    288.34792    389.74464      39457.2 
  636700    291.18805   -1462.6086    477.32191    323.62156    719.22883      39457.2 
  636800    301.75083   -1492.0575    468.61082    332.94183    670.41266      39457.2 
  636900    291.83451   -1547.3887    467.71693    232.14232    954.15799      39457.2 
  637000    301.97214   -1525.2608    507.85083    339.97335    736.50069      39457.2 
  637100    308.47159   -1481.0997     450.0823    355.58142    672.55366      39457.2 
  637200    297.35024   -1496.8312    441.43008    281.20654    155.52251      39457.2 
  637300    305.30731   -1483.8421    485.74118    374.27425    74.727036      39457.2 
  637400    296.41244   -1483.0187    465.50626    314.87973     302.6303      39457.2 
  637500    293.26132   -1474.2208    465.02382    309.03068   -153.48547      39457.2 
  637600    298.61749   -1485.3541    484.51206    341.46195   -375.86454      39457.2 
  637700    308.16912   -1516.1558    471.51958    340.60296   -441.69657      39457.2 
  637800    294.79071   -1518.0595    467.95813    275.00103   -323.28119      39457.2 
  637900    300.87411   -1518.6915     476.4853    310.24141   -658.23449      39457.2 
  638000    292.71186   -1474.3382    441.12107    282.54064    106.91722      39457.2 
  638100    302.81064   -1511.7743    457.98677    307.36496    276.65954      39457.2 
  638200    289.86241   -1506.8475    465.49107    261.59292    650.29932      39457.2 
  638300    294.75758   -1517.3678    456.63996    264.22559    1063.6748      39457.2 
  638400    291.13884   -1523.0423    450.25806    235.90277    1051.3298      39457.2 
  638500    302.36715   -1520.3389    470.03184    308.85186    915.61481      39457.2 
  638600    289.49854   -1470.5902    456.68455    287.40807    541.42607      39457.2 
  638700     300.4738   -1475.1355    483.93312    359.44582    331.45453      39457.2 
  638800    302.57514   -1495.0388    466.87424    331.92931    366.00955      39457.2 
  638900    302.34247   -1483.8504    507.01823    382.21579     447.0226      39457.2 
  639000    291.79171   -1478.5677    466.02963    299.08365    71.511959      39457.2 
  639100    302.76026   -1488.7425    483.62929    355.81284    334.98109      39457.2 
  639200    304.09922   -1475.9968    494.86548    385.81335    152.29802      39457.2 
  639300    296.63173   -1487.0017    462.46549     308.8417    163.55978      39457.2 
  639400    294.85112   -1486.0161    503.62156    342.97939   -446.85953      39457.2 
  639500    296.42805   -1453.2765    497.00188    376.18772   -191.05104      39457.2 
  639600    298.68655   -1513.7023    468.67995    297.59204    -359.6158      39457.2 
  639700    313.99805    -1532.682    493.16437    371.92289    66.766928      39457.2 
  639800    289.69827   -1515.8175    471.87118    258.26521    27.047373      39457.2 
  639900    299.12176   -1562.2159      472.553    254.90779    115.10831      39457.2 
  640000    288.40219   -1556.7878    452.43493    192.03269    71.173465      39457.2 
  640100    297.69044   -1498.1906    457.82645    297.77267   -188.27508      39457.2 
  640200    291.69321   -1506.8385    477.77183    282.11226   -154.97878      39457.2 
  640300    309.46864    -1517.534    469.76173    343.30831   -412.67217      39457.2 
  640400    311.20261   -1515.1158    435.19122    318.95032    54.656702      39457.2 
  640500    300.21735    -1544.444    493.29123    298.34275    207.55426      39457.2 
  640600        305.8   -1511.6935    474.32946     337.2258   -329.49084      39457.2 
  640700    296.30442   -1490.3485    468.42169    309.97975   -152.83998      39457.2 
  640800    309.20731   -1515.8197    470.33758    344.42375   -543.86082      39457.2 
  640900    296.14145   -1498.8419    468.41407    300.74621    -237.8432      39457.2 
  641000    302.00965   -1520.8982    464.62089    301.27464   -450.52972      39457.2 
  641100    293.50084   -1492.1442    454.32237    281.48248   -809.16702      39457.2 
  641200    301.12521   -1486.0526     493.2854     360.8092   -369.55122      39457.2 
  641300    301.02149    -1474.694    464.30361    342.71971   -620.28318      39457.2 
  641400     309.7272   -1482.6005    479.63476    389.27712   -504.35148      39457.2 
  641500    306.34955   -1527.4323    468.72505    318.35288    104.48126      39457.2 
  641600    301.40999   -1539.2447    441.26293     256.8747    382.34079      39457.2 
  641700    310.95755   -1485.0244     479.1246    391.87351   -405.89589      39457.2 
  641800    304.72193   -1519.3653    466.83432     317.2129   -242.60753      39457.2 
  641900    307.67239   -1504.9816    483.06734    361.09207   -199.80662      39457.2 
  642000    289.28284   -1539.8296    444.26473    204.77929   -726.18394      39457.2 
  642100    307.01946   -1501.3767    482.09646    360.79115   -501.97124      39457.2 
  642200    299.59553   -1536.8947    459.03989    268.84552   -395.97551      39457.2 
  642300    287.88427   -1543.6306    468.93669     219.3636   -638.90211      39457.2 
  642400    299.64747    -1480.057    480.23199    347.10882    -180.7209      39457.2 
  642500    303.67937   -1503.4784      468.874      330.453    -518.3249      39457.2 
  642600    305.62561   -1521.9945    458.66165    310.47305   -324.40096      39457.2 
  642700    295.59659   -1528.7821    445.02139    244.96411   -214.18849      39457.2 
  642800    299.55913   -1520.1432    480.84401    307.23754   -521.04905      39457.2 
  642900    304.27506   -1502.4639    449.00383    314.27507   -295.87689      39457.2 
  643000     309.0433   -1493.2777    469.40796    365.29892    85.773859      39457.2 
  643100    298.21123   -1517.1641    457.57933    280.89312    309.94516      39457.2 
  643200    283.68906   -1502.6842    480.59887    253.11444    442.88274      39457.2 
  643300     304.2993    -1514.162    465.68722    319.36934    460.20428      39457.2 
  643400    304.44477   -1508.5353    480.95628    340.91903    518.15568      39457.2 
  643500    301.26082    -1476.643    466.30109    343.84405    443.26257      39457.2 
  643600    300.36131   -1482.7437    479.00257    346.40143     396.6649      39457.2 
  643700    296.05959     -1475.83     490.3636    345.33968    616.40899      39457.2 
  643800    303.11561   -1472.8237    476.01904     365.7187    445.45445      39457.2 
  643900    304.87595   -1490.1828    481.16116    361.41452    429.78298      39457.2 
  644000    308.66549   -1510.5578    460.14014    337.05268    476.43416      39457.2 
  644100    301.13188   -1504.7485     475.4514    324.30924     32.56895      39457.2 
  644200    306.89027   -1518.2906     480.8835    342.08357    83.778506      39457.2 
  644300    306.05119   -1482.0176    480.61131    374.31266    130.12047      39457.2 
  644400     293.0434   -1492.2029    436.02393    261.06911    311.86835      39457.2 
  644500    303.41382   -1471.0398     485.3594    378.18338   -255.94366      39457.2 
  644600    297.95127   -1426.2969    457.85084    370.86327   -594.77179      39457.2 
  644700    300.84838   -1459.0114    471.20219    364.52274   -468.34305      39457.2 
  644800    310.38245   -1426.8628    472.04849    440.37393   -325.24245      39457.2 
  644900     295.9151   -1484.4904    460.66349    306.32967   -684.06673      39457.2 
  645000    297.45228   -1469.8164    489.19763    356.44755    186.17259      39457.2 
  645100    301.10973   -1461.7953    501.27255      392.984    801.82902      39457.2 
  645200    315.72896   -1519.2083    471.72094    371.73376    501.46245      39457.2 
  645300    299.82636   -1470.4057    487.39895     364.7312     254.7439      39457.2 
  645400    305.32449   -1449.2704    468.30382    391.48583    155.33501      39457.2 
  645500    299.06022   -1486.1374    473.45492    331.61156   -300.07064      39457.2 
  645600    297.64412   -1479.8147    471.82538    329.93931   -631.43632      39457.2 
  645700    298.50936   -1446.4249    486.02448     381.4175   -250.66333      39457.2 
  645800    305.97273   -1447.2532    451.41289    379.52597   -222.62204      39457.2 
  645900    295.51897   -1488.2633    466.09508    306.20774    327.60622      39457.2 
  646000    301.04814   -1509.1807    465.01004    309.05923    344.87907      39457.2 
  646100    296.90003   -1491.2273    488.14503    331.50162    113.05543      39457.2 
  646200    304.00646   -1467.4728    482.94962    382.00451    126.48266      39457.2 
  646300    306.05759   -1476.8049    465.68345    364.62624    313.02395      39457.2 
  646400    288.70317   -1472.4016    464.05416    289.39113    114.13335      39457.2 
  646500    301.01237   -1528.4586    457.56023    282.17075    562.08595      39457.2 
  646600     301.5867   -1478.3163    484.44411    361.77865   -62.936946      39457.2 
  646700    296.31817   -1463.2532    456.32979    325.04503    413.86169      39457.2 
  646800    297.31218   -1462.8457    503.81562    377.40644    352.46329      39457.2 
  646900    305.66197   -1470.1577    472.37913    376.19078   -260.62577      39457.2 
  647000    291.62987   -1429.4181    473.23313     354.7092   -337.93505      39457.2 
  647100     300.9888   -1460.0779    478.77992     371.6652   -496.07992      39457.2 
  647200    297.05017   -1494.7814    465.55677    306.03415   -393.50858      39457.2 
  647300    301.45852   -1495.5671      445.071    304.57854   -499.97728      39457.2 
  647400    303.50781   -1445.0382    488.38365     407.6317   -213.71215      39457.2 
  647500    296.44439   -1492.4163     464.5668    304.68627   -576.15724      39457.2 
  647600    301.56281   -1455.0611     468.9482     369.4305   -75.787167      39457.2 
  647700    292.83672    -1453.392    473.06547    335.99249    182.51619      39457.2 
  647800    296.73354   -1471.9429    483.80413    345.69681   -289.06857      39457.2 
  647900    302.35012    -1463.098    455.88132     351.8657   -664.56276      39457.2 
  648000    301.53466   -1499.8853    463.89399    319.42556   -885.43747      39457.2 
  648100     285.4825   -1459.8053    486.23668    309.69279   -778.02899      39457.2 
  648200    299.80808   -1457.3558     464.2117    354.51162    35.870696      39457.2 
  648300    302.03183   -1445.4455    480.97111    393.17727   -229.31037      39457.2 
  648400    298.52352   -1474.1284    476.73726    344.49046   -401.29142      39457.2 
  648500    292.09463   -1494.8034    484.35876    302.53869   -53.848526      39457.2 
  648600    296.26611   -1506.1079    475.34321     300.9697    111.20607      39457.2 
  648700    296.38917   -1487.6393    485.14965    329.79788   -146.47406      39457.2 
  648800    309.65584   -1489.0792    462.87612      365.719   -117.26894      39457.2 
  648900    293.71166   -1507.1459    480.99023    294.09628   -497.45485      39457.2 
  649000    294.81981   -1462.3486    488.28208    351.16665   -15.012033      39457.2 
  649100    300.42393   -1477.1779    477.94575    351.19192   -124.81445      39457.2 
  649200    295.23058   -1502.2281    478.73506    303.58657   -625.74687      39457.2 
  649300    302.92934   -1501.0401    492.68667    353.33262    125.02707      39457.2 
  649400    298.10849   -1517.6731    473.87021    296.21315    -84.83294      39457.2 
  649500    304.77063   -1524.9456    486.90202    331.91913   -182.41696      39457.2 
  649600    306.10897   -1471.0359    476.44783    381.39057    281.33723      39457.2 
  649700    301.31109   -1489.6124    504.47056    369.27005    171.75368      39457.2 
  649800    295.63162    -1506.346    471.86248     294.3988   -83.738267      39457.2 
  649900     307.2401   -1510.7584    478.58602    348.89085    248.03072      39457.2 
  650000    297.24731   -1530.6173    466.77775    272.30538    511.03762      39457.2 
  650100    301.29301   -1494.4945    481.16796    341.00406    549.40522      39457.2 
  650200    304.83226   -1509.9776    484.12096    344.38312    160.49942      39457.2 
  650300    295.19955   -1465.5148    458.77436     320.1997    10.081927      39457.2 
  650400    305.14183   -1495.2007    474.37925    350.80986   -25.428706      39457.2 
  650500    303.17923   -1505.4333    489.10264    346.47863    59.913767      39457.2 
  650600    309.64911   -1499.4964    472.51018    364.90554   -42.757778      39457.2 
  650700    299.65787   -1485.1975    472.99887    334.78189   -107.90329      39457.2 
  650800    298.46948    -1490.702     455.0641    306.00077   -330.56212      39457.2 
  650900    293.54598   -1465.8962    518.95431    372.56537   -627.37613      39457.2 
  651000    299.94567   -1512.4271    456.96225    292.80943   -94.102967      39457.2 
  651100    304.35631   -1502.8769    498.62104     363.8445    155.39091      39457.2 
  651200    280.53229   -1509.3791    489.79945    241.43023   -436.26489      39457.2 
  651300    295.97042   -1494.3471    480.54241    316.60053   -192.30788      39457.2 
  651400    284.62625   -1485.4533    479.64042    273.59957   -987.45271      39457.2 
  651500    291.40735   -1474.8805    450.29157    285.30506   -566.72146      39457.2 
  651600    292.25557   -1473.5688    472.43838    312.57641   -312.55086      39457.2 
  651700    306.17473   -1479.1886    472.80395    369.88959   -69.906716      39457.2 
  651800    301.05751   -1513.4075    470.66777    310.53227    83.227848      39457.2 
  651900    294.30488   -1498.9249    492.28108    316.27473   -324.69866      39457.2 
  652000    304.26613   -1436.0097    487.54221    419.22747   -251.73751      39457.2 
  652100     289.1446   -1480.2202    484.47296    303.97556   -6.3225148      39457.2 
  652200    303.36329   -1454.8119    505.86726    414.69204   -351.42241      39457.2 
  652300    298.74133    -1478.329    468.87152    333.40316   -467.73479      39457.2 
  652400    311.77254   -1434.2481    488.21549    455.40418   -399.48012      39457.2 
  652500    301.03847   -1477.0414    501.04454    377.18961   -345.99156      39457.2 
  652600    287.62321   -1497.8737    473.36417    268.37452   -397.14416      39457.2 
  652700    286.43191   -1456.1547    481.53183    312.90622    12.951153      39457.2 
  652800    297.28253   -1488.2708    493.91589    341.94837   -582.12911      39457.2 
  652900    295.89538   -1489.0893    490.88178    331.86041   -376.96538      39457.2 
  653000      302.504   -1505.9833    508.70985    362.50063   -520.35388      39457.2 
  653100    300.52911   -1493.3134    481.54415    339.12756   -164.52018      39457.2 
  653200    300.70742   -1462.0223    472.33594    362.01198    76.538484      39457.2 
  653300    294.43309   -1464.8486    491.76501    350.41124   -395.42829      39457.2 
  653400     299.7158   -1466.4405    485.85627    366.65674    279.90417      39457.2 
  653500    297.61899   -1488.8017    468.98931    318.00328    239.70576      39457.2 
  653600     297.8194   -1480.5755    496.03984    354.18089    95.362357      39457.2 
  653700    299.04435   -1474.0049    479.37796    349.59586    831.31452      39457.2 
  653800    306.55675   -1452.4468    491.81364    417.35827    398.57005      39457.2 
  653900    309.27486   -1468.9356    483.07631    404.35028   -8.0541718      39457.2 
  654000    296.74655   -1494.3193     480.8194    320.39415   -90.619515      39457.2 
  654100    307.20869    -1482.373     512.4642    411.01321   -638.21155      39457.2 
  654200    287.80238   -1495.8797    500.30813    298.11789   -553.29781      39457.2 
  654300    302.39677   -1514.4549    468.77735    313.61451   -580.28658      39457.2 
  654400    298.77929   -1492.7844    490.44716     340.6941   -501.70539      39457.2 
  654500    297.13331   -1529.7656    489.37282    295.23979   -329.04587      39457.2 
  654600    293.53317   -1495.0672    465.52046    289.90291   -661.01083      39457.2 
  654700    306.20672   -1517.7543    480.18067    338.84448   -573.84233      39457.2 
  654800    300.18179   -1474.0974    463.61127    338.84949   -519.31606      39457.2 
  654900    291.89499    -1482.592    490.91158     320.4055   -537.93041      39457.2 
  655000    303.52291   -1465.7377    493.60971    392.22619    74.155878      39457.2 
  655100    293.15899   -1493.4381    473.42005    297.74966    562.86369      39457.2 
  655200    297.40669   -1487.6732     475.3079    324.49613    466.94739      39457.2 
  655300    306.27698   -1464.1299    504.03378    416.63782    38.170331      39457.2 
  655400    292.33649   -1515.8274    457.55913    255.80221    71.354138      39457.2 
  655500    300.61976   -1485.3848    483.53001    349.44955     -104.285      39457.2 
  655600    300.73767   -1518.6425    484.44793    317.63973    331.11532      39457.2 
  655700       301.75   -1482.9765    467.49847    340.90674    129.38219      39457.2 
  655800    296.21298   -1450.5793    475.75305    356.66932    254.77593      39457.2 
  655900    304.47138   -1457.9969    459.51167    370.13239     -449.312      39457.2 
  656000    291.35434   -1427.9553    458.23035    339.93076    6.3922837      39457.2 
  656100    296.02679   -1442.2832    507.50037    395.87581    -189.7683      39457.2 
  656200    291.58389   -1495.4893    460.28902     275.4872   -259.68004      39457.2 
  656300    296.67155   -1490.9357    483.77837    326.39952   -263.64768      39457.2 
  656400    307.24919   -1443.0594    496.21504    434.25969   -60.685955      39457.2 
  656500      292.834   -1459.2381    474.95045    332.01922   -397.32702      39457.2 
  656600    299.11535   -1434.2456    500.81428    411.11063    61.217186      39457.2 
  656700    289.71476   -1435.9408    479.77272    346.11761   -719.18201      39457.2 
  656800    291.89947   -1447.5142    472.94453    337.53646    498.11215      39457.2 
  656900    309.22063   -1482.1452    451.50402    359.32456    319.36938      39457.2 
  657000    292.82365   -1461.2795    482.54142    337.52223    139.78464      39457.2 
  657100    304.23232    -1507.732    474.49609    334.30713    407.92132      39457.2 
  657200    309.66606   -1444.3776     475.5798    423.17019    328.47498      39457.2 
  657300    305.23402   -1436.3316    500.17767    435.89178    190.28058      39457.2 
  657400    301.15132   -1484.4311    473.93025    343.19281    432.99772      39457.2 
  657500    306.72887   -1457.5659    478.50205    399.70124    171.89569      39457.2 
  657600    302.49782   -1496.1199    483.82551    347.45196   -472.05615      39457.2 
  657700    297.55642   -1447.2723    473.66787    363.92998   -296.50618      39457.2 
  657800    297.37113   -1440.6114    478.46465     374.5548   -416.33662      39457.2 
  657900    298.09258    -1452.227    479.51872    367.23617   -526.21437      39457.2 
  658000    306.14456   -1462.5832    484.92351    398.47896   -456.68126      39457.2 
  658100     306.8011   -1478.2181    483.98706    384.85877    171.31834      39457.2 
  658200    295.03534   -1518.1069    473.86136    281.95647    349.16694      39457.2 
  658300    305.97459   -1477.4731    488.27292    386.17447    250.54399      39457.2 
  658400    293.10828   -1468.8643    489.48291     338.1583   -165.56934      39457.2 
  658500    302.21115   -1490.4291     482.5328     350.5614    359.52141      39457.2 
  658600    296.08294   -1476.0101    490.05049    344.95139    127.43641      39457.2 
  658700    300.37396   -1497.5148    493.00484    345.68949    321.38453      39457.2 
  658800    304.54685   -1477.5143    474.06098    365.50351    529.71876      39457.2 
  658900    315.65298   -1503.7254     457.5077    372.66187    338.90047      39457.2 
  659000    300.81544    -1518.511    475.92016    309.59304    146.32557      39457.2 
  659100    294.43192    -1507.566     481.4572    297.38082   -42.435338      39457.2 
  659200    302.42636   -1478.0373    478.60254    359.99033   -322.84454      39457.2 
  659300    303.17953   -1515.0212    466.48158    314.27101   -315.08154      39457.2 
  659400    291.94838   -1491.6577    478.17158    298.83978   -117.20991      39457.2 
  659500     306.6163   -1494.7009    490.69224    374.25051    80.389332      39457.2 
  659600    294.26751   -1502.5024    470.15716    290.40535    -524.1015      39457.2 
  659700    301.52827   -1497.7514    486.97426    344.61099    -486.8417      39457.2 
  659800    298.47527    -1493.341    481.30003    329.62373   -134.89536      39457.2 
  659900    301.49801   -1468.4771    480.65887    367.43386   -457.02257      39457.2 
  660000    301.42377   -1466.0663    468.54342    357.39557    222.23411      39457.2 
  660100    301.04208   -1484.7142    482.64851    351.13704   -434.55532      39457.2 
  660200    313.11052   -1490.4811    467.31008    384.28003   -136.16909      39457.2 
  660300    295.49541   -1490.0004    479.60006    317.86971   -127.64092      39457.2 
  660400    302.10343   -1492.4157    475.60788    341.16569    379.65962      39457.2 
  660500    291.42219   -1483.4085    472.56631    299.11849    292.64882      39457.2 
  660600    302.47603   -1463.7138    508.19794    404.13249    359.41559      39457.2 
  660700    304.05768   -1432.0693     495.0606    429.74925    831.22995      39457.2 
  660800    294.30549    -1421.408    484.72752    386.24086     489.0098      39457.2 
  660900     294.8453   -1462.2125    483.00112    346.13641     798.6817      39457.2 
  661000    296.76125   -1492.8706    505.87101    346.96047    887.42597      39457.2 
  661100    297.27872    -1477.685    476.78021    335.38135    463.69304      39457.2 
  661200     302.1069   -1456.9049    487.85619    388.94033   -173.27485      39457.2 
  661300     289.7751   -1464.4818     488.7149    326.79003   -213.31734      39457.2 
  661400    299.88688   -1475.8854    470.10747    342.23207    33.087666      39457.2 
  661500    301.60044   -1458.7847    479.93574    376.86359   -71.346294      39457.2 
  661600    302.10761   -1501.1401    466.64995    323.50212   -114.03381      39457.2 
  661700    293.17134   -1495.3067    459.50985    282.02638     386.4604      39457.2 
  661800    302.80961   -1508.3164    471.21287    324.04428   -139.23866      39457.2 
  661900    295.32217   -1508.1713    463.48769    282.80773    -127.6702      39457.2 
  662000    302.01694   -1527.5978    476.69871     306.6857   -289.08086      39457.2 
  662100    293.86174   -1541.6213    453.57791    232.88319   -118.10502      39457.2 
  662200    305.60359   -1526.0255    464.72743    312.40892    522.03451      39457.2 
  662300    303.35236   -1524.3706     481.5479    320.76478   -48.862321      39457.2 
  662400     299.1757   -1542.5287    464.62544    266.90993    60.412127      39457.2 
  662500     309.3117   -1512.9228    485.19987     362.6522   -61.563866      39457.2 
  662600    306.59189   -1548.5781    446.27928    275.85056   -395.44001      39457.2 
  662700    293.93289   -1557.9693    467.32613     230.6033   -330.31506      39457.2 
  662800    306.28644   -1523.2408    463.73608    317.27164   -281.03171      39457.2 
  662900    300.71671   -1505.8265     465.1507    311.06432   -372.03822      39457.2 
  663000    286.56537   -1483.9755    460.07465    264.22808   -440.13127      39457.2 
  663100    300.02887   -1460.8669    475.15926    362.94055   -339.60386      39457.2 
  663200    288.89457   -1476.2404    458.62211    280.98063    12.880295      39457.2 
  663300    306.39379   -1478.4835    459.64789     358.4234    34.428977      39457.2 
  663400    302.64912   -1526.2439    476.50432    310.68686    197.90916      39457.2 
  663500    293.03328   -1489.0571    463.87952    292.02506    496.00518      39457.2 
  663600    294.86354   -1519.2669    462.92016    269.08299    36.471739      39457.2 
  663700    294.73826   -1466.8409    485.86133     343.8871    -154.1797      39457.2 
  663800    291.86996   -1460.3276    464.48658    316.13246   -447.30558      39457.2 
  663900    304.50359   -1466.2127     457.9205    360.47017   -373.32021      39457.2 
  664000    306.17252   -1509.8886    454.23752    320.61319    200.62724      39457.2 
  664100    311.19046    -1500.873    464.91329    362.86057    154.97359      39457.2 
  664200    301.92097   -1515.7289    433.36943    274.79386   -80.769058      39457.2 
  664300    304.24774   -1514.3976     455.3978    308.61254   -48.505875      39457.2 
  664400    299.71363   -1473.4498    482.89382    356.67521    261.53189      39457.2 
  664500    296.53291   -1541.8593    462.01769    253.09207    246.74623      39457.2 
  664600    298.35546   -1488.4223    465.12669    317.83052    232.31082      39457.2 
  664700    296.17129   -1522.7013    461.15337    269.76023   -175.95644      39457.2 
  664800    308.71015    -1513.153    424.67106     299.1892    194.74732      39457.2 
  664900    293.74582   -1531.6681     458.6586    247.39608     36.41643      39457.2 
  665000    301.44934   -1480.4846    434.30056    308.84935    214.81073      39457.2 
  665100    292.60498   -1515.1087    449.09664    249.26529   -143.73614      39457.2 
  665200    296.48396   -1448.9835    469.73976    353.46996   -409.05877      39457.2 
  665300    308.35685   -1502.3712    448.05268    331.76451   -487.53193      39457.2 
  665400     309.4481   -1526.6273    468.17715    332.53811   -250.51231      39457.2 
  665500    299.23993   -1508.4729    460.98891    297.61794   -30.339178      39457.2 
  665600    311.92232   -1498.9348    447.18151    350.35674   -12.675116      39457.2 
  665700    310.79609   -1461.3136    481.20543    416.93934   -461.03113      39457.2 
  665800    292.06311   -1418.9284    454.64834     348.5616    37.764537      39457.2 
  665900    307.05013   -1491.2041    502.99068    391.99584    605.66921      39457.2 
  666000    309.24798   -1463.5107     463.8372    390.41522    1.9734494      39457.2 
  666100    308.59098   -1486.4484    450.11918    350.80618    67.354508      39457.2 
  666200    296.95359   -1460.9559    453.27094    327.13973    222.09099      39457.2 
  666300    310.26898   -1491.8242    494.07094    396.92491   -234.13275      39457.2 
  666400    301.94248   -1464.5666    485.56447    378.24784   -318.30769      39457.2 
  666500    295.71937    -1476.537    444.11609    296.85588   -349.81639      39457.2 
  666600    310.19333   -1459.8602    501.76776    436.24573   -228.90396      39457.2 
  666700    302.10126   -1449.8324    460.78049     368.9118    -561.4713      39457.2 
  666800    295.64467   -1456.7926     480.3725    352.52093   -646.35756      39457.2 
  666900     294.8497   -1448.8845    475.30222    351.78528   -283.56889      39457.2 
  667000     300.1823   -1443.0469    475.92244    382.21346   -472.05892      39457.2 
  667100    299.43092   -1445.3922    484.99522    385.56344   -696.64714      39457.2 
  667200    294.52409   -1439.8711    454.44334    338.47611   -484.84678      39457.2 
  667300    298.31988   -1421.3417    494.17008    413.79462   -393.18225      39457.2 
  667400    301.34702   -1466.0837     452.3266    340.81624   -134.69961      39457.2 
  667500    309.75432   -1483.9402    480.15876    388.58333    212.28023      39457.2 
  667600    305.21284   -1476.8658    458.44955    353.53421   -435.20877      39457.2 
  667700    303.45324   -1446.8604    437.57268    354.75329   -105.46303      39457.2 
  667800    308.08874   -1457.5366    497.47672      424.818    8.6659497      39457.2 
  667900    300.08233   -1481.7062     456.7427    323.92509    3.5850696      39457.2 
  668000    309.60212   -1509.9266    434.23807    315.99209    211.02105      39457.2 
  668100    298.98976   -1479.8899    468.57352    332.66099    193.99772      39457.2 
  668200    304.05515   -1472.5865    491.45502    385.61511    541.31037      39457.2 
  668300    289.80514   -1475.4511    481.14441    308.38523    277.87409      39457.2 
  668400    286.41687   -1449.6327    486.68741    324.51621   -221.47549      39457.2 
  668500    307.15932   -1471.9277     465.5919    374.36426    398.29182      39457.2 
  668600    307.45739   -1475.7652    485.28154    391.55626    -111.5829      39457.2 
  668700    299.00131   -1460.9331    457.55328    340.64949   -617.71693      39457.2 
  668800      295.803   -1478.4518     472.4673    323.66814   -777.54136      39457.2 
  668900    291.79513   -1513.8115    456.73437    254.55996   -616.58143      39457.2 
  669000    306.86292   -1450.6425    470.72598    399.45119   -353.47164      39457.2 
  669100    293.37373   -1444.7284    463.44451    337.44908   -131.09885      39457.2 
  669200    296.27479   -1428.2462    461.04739    364.57464   -347.21506      39457.2 
  669300    296.45672   -1415.8972    503.52149    420.21552   -293.01779      39457.2 
  669400    303.79621   -1437.7604    518.35982    446.18208    18.332534      39457.2 
  669500    295.84859   -1427.2804    461.67349    364.25076    752.11776      39457.2 
  669600    307.73549   -1407.7358    491.88872    467.44285     186.1302      39457.2 
  669700    307.22284   -1390.4583    475.35854    465.88577   -132.28572      39457.2 
  669800    307.71953     -1402.01    472.75897     453.9672     96.06533      39457.2 
  669900    297.26361   -1456.8849    469.36065    348.69399    662.36235      39457.2 
  670000    307.45866   -1447.0423    478.70323    413.70652    518.33943      39457.2 
  670100    302.48796   -1437.4994    488.16318     410.3658   -183.82045      39457.2 
  670200    298.14808   -1474.8217    445.17442    310.54667    9.7400913      39457.2 
  670300    313.54331   -1441.5278     476.6909    444.55955    433.36302      39457.2 
  670400    302.69902   -1469.5691    447.49213    338.57372   -169.98625      39457.2 
  670500    301.08453   -1426.5725    477.07874    403.89976    581.35192      39457.2 
  670600    291.22159   -1468.4867    469.36508    309.93738   -103.79572      39457.2 
  670700    294.83164   -1475.6888    470.57392    320.17145     -23.3162      39457.2 
  670800    303.22725   -1458.5548    456.92212    361.39247    148.07669      39457.2 
  670900    311.11937   -1465.4855    460.49103    393.50628   -288.46874      39457.2 
  671000    309.82421   -1486.2685    441.98147    348.39187    -607.9035      39457.2 
  671100    294.32959   -1454.5783    451.17047    319.62185   -106.46057      39457.2 
  671200    314.35199   -1463.9271    454.34206    403.44652    173.27737      39457.2 
  671300    308.85269   -1441.6965    470.55604    417.17137    280.41361      39457.2 
  671400    299.41007   -1434.7752    480.46213    391.55362   -162.13408      39457.2 
  671500    299.06415   -1451.0459    473.78448    367.05034   -471.44438      39457.2 
  671600    297.70039   -1441.8657    454.28093    350.59678    171.45393      39457.2 
  671700    295.99663   -1454.8473    446.46581    322.14162    148.53056      39457.2 
  671800    305.88407   -1448.3749    505.69373    432.28654    149.11028      39457.2 
  671900    316.62113   -1449.2377    481.15669    455.15048    340.15196      39457.2 
  672000    308.47477   -1454.9816    474.41815     406.0496    10.669478      39457.2 
  672100    289.75524   -1431.7913    489.83413    360.51042   -356.07876      39457.2 
  672200    301.70554   -1469.7595    452.28963    338.71512    -510.5514      39457.2 
  672300    301.35195   -1414.6641    453.90131    393.83273   -370.30516      39457.2 
  672400    302.63883   -1460.2172    466.53189    366.69487   -89.507243      39457.2 
  672500    298.27991   -1435.4446    462.49094    367.83285   -190.86054      39457.2 
  672600    306.86335    -1451.644    467.34267    395.06833   -188.92022      39457.2 
  672700    304.26218   -1410.3604     478.0283    435.34515    207.37319      39457.2 
  672800    301.10402   -1453.1249    462.31798    362.67419    280.25391      39457.2 
  672900     310.5769   -1423.9287    473.50269    445.63623     630.6119      39457.2 
  673000    296.34068    -1462.682    465.13362    334.52125     685.8028      39457.2 
  673100    314.92212   -1459.0992    458.03388    414.52903    55.643652      39457.2 
  673200    301.33803   -1508.5506    447.45863    293.44105   -157.80398      39457.2 
  673300    294.34121   -1497.0242    468.53812    294.59572   -354.65425      39457.2 
  673400    303.21947    -1436.722    467.51153    393.77972    85.416311      39457.2 
  673500    291.43408   -1485.9006    464.49369    288.60725    163.57467      39457.2 
  673600    302.84947   -1488.1856    479.11025    352.25171    231.43518      39457.2 
  673700    297.38786   -1451.7539    454.60261    339.62539   -94.467527      39457.2 
  673800    296.88845   -1423.5843    482.61256    393.56012    60.821757      39457.2 
  673900    297.80029   -1481.8868    454.66602     311.4099   -142.01599      39457.2 
  674000    293.98513   -1490.6744    442.82917    273.63597     212.6984      39457.2 
  674100    303.50336   -1501.2278    489.65359     352.6921    143.69395      39457.2 
  674200    283.14032    -1493.314    461.71364    241.13282     387.7511      39457.2 
  674300    316.31653   -1505.2028    472.45918    389.11867    444.58806      39457.2 
  674400    294.94031   -1465.5829    462.38287    322.57481   -132.42097      39457.2 
  674500    296.64781   -1506.2664    459.21471    286.39849    -102.5403      39457.2 
  674600    296.43764   -1476.9025    483.63249    339.23547    514.23139      39457.2 
  674700    295.56144   -1456.3842    468.55846    340.74112    372.55651      39457.2 
  674800     297.5564   -1452.3475    466.70619    351.89298   -79.376106      39457.2 
  674900    303.76453   -1427.4634    481.88802    419.86492   -364.33597      39457.2 
  675000    297.66055   -1482.4087    463.53057    319.12436   -790.25788      39457.2 
  675100     287.1537   -1447.6633    474.33549    317.44574   -477.85823      39457.2 
  675200    298.01694   -1434.7961     476.5673    381.37565   -633.26667      39457.2 
  675300    300.25192   -1434.1488    479.83618    395.33824   -77.526687      39457.2 
  675400     294.7315   -1486.1655    481.01105    319.68176   -431.55257      39457.2 
  675500    305.52075   -1425.2307    483.79539    431.89925    185.72267      39457.2 
  675600    296.42288   -1412.1991    475.96369    396.20372   -69.152183      39457.2 
  675700    299.77715    -1415.712    483.29921    415.10396   -39.338661      39457.2 
  675800    294.91737   -1493.4768    459.52711    291.72201   -262.73596      39457.2 
  675900    302.62917   -1434.8686    461.61207    387.08021    239.17197      39457.2 
  676000    294.48382   -1466.1072    490.72915    348.34479    627.12598      39457.2 
  676100    296.40957   -1451.4117    505.24158    386.20913    509.02593      39457.2 
  676200    302.18697   -1505.5034    448.33136    301.17696    511.74858      39457.2 
  676300    305.46607   -1440.5698    491.23821    423.75725    364.43311      39457.2 
  676400    298.98352   -1481.9936    476.43648    338.39218    259.62336      39457.2 
  676500     301.5785   -1500.7785     456.3083    311.14372   -182.68175      39457.2 
  676600    306.37187   -1475.2711     480.1237    382.01297   -236.53532      39457.2 
  676700     306.2253   -1465.9926    454.31711    364.82609   -265.54298      39457.2 
  676800    284.75018   -1489.2369    449.86696    240.59971   -683.95047      39457.2 
  676900    299.25688    -1474.984    495.53754    365.73165   -332.66458      39457.2 
  677000    294.19592   -1453.4618    491.33506      360.302   -107.55719      39457.2 
  677100    305.31631   -1509.3323     455.5604    318.64367   -161.56514      39457.2 
  677200    295.67625   -1469.2019    467.07373    326.95482    75.791239      39457.2 
  677300    307.34766   -1479.2438     426.3261    328.62895   -48.180113      39457.2 
  677400    293.47702   -1479.2332    479.46607    319.43014   -139.01404      39457.2 
  677500    304.53769   -1446.7225    452.15737    374.35052   -243.75112      39457.2 
  677600    307.49584   -1453.3805    467.79372    396.62594    384.50171      39457.2 
  677700    307.60614     -1475.06    486.74825    394.39677    535.61483      39457.2 
  677800    310.95831   -1483.1733      485.331    399.93448    739.79761      39457.2 
  677900    298.57352   -1467.6113    467.46275    341.95777    84.589609      39457.2 
  678000    296.31065   -1437.8631    509.66324     403.7347   -199.02455      39457.2 
  678100    291.98642   -1430.2294    465.97511    348.24267   -101.06612      39457.2 
  678200    298.76572   -1460.0707    492.37921    375.27886    318.90116      39457.2 
  678300    293.44946    -1444.532    499.57943    374.12086    167.86436      39457.2 
  678400    293.21745   -1446.1883     453.0922    324.93439    393.14292      39457.2 
  678500    303.23074    -1421.011    496.91513    438.94496    796.48384      39457.2 
  678600    308.46358   -1443.0476    484.05603    427.57119    363.45841      39457.2 
  678700    304.73078   -1469.2933    480.29709    380.78742    502.46792      39457.2 
  678800    300.96414   -1464.4932    468.77632    357.13539    342.22418      39457.2 
  678900    293.32965   -1482.9699    466.08518     301.6501    -124.5839      39457.2 
  679000    296.74334   -1502.3102      453.578    285.14742   -935.26601      39457.2 
  679100    311.02399    -1498.699    471.89221    371.26517   -272.03921      39457.2 
  679200    299.06024    -1495.432    473.53453    322.39678   -446.38612      39457.2 
  679300    291.74325   -1481.0407    471.82674    302.18988   -599.72253      39457.2 
  679400    301.38289   -1502.5342    471.21539    323.41582   -427.00274      39457.2 
  679500    295.83127   -1495.6436    468.09953     302.2357    394.14324      39457.2 
  679600    295.91716   -1507.1638    481.60481    304.60685   -4.7395775      39457.2 
  679700    308.85045   -1488.9809    465.76115     365.0821    388.30282      39457.2 
  679800    300.51666    -1505.321    441.04268    286.56256    235.55685      39457.2 
  679900    295.61285   -1457.1825    463.20731    334.82278     173.1861      39457.2 
  680000     302.4021     -1501.49    474.75706    332.58315     220.2499      39457.2 
  680100     299.7224   -1498.5714     462.4853    311.18457    253.54744      39457.2 
  680200    302.55962   -1465.9151    462.17274     356.2818    250.33995      39457.2 
  680300     307.4194   -1473.7705    478.29437    386.39302    670.04634      39457.2 
  680400    291.68601   -1497.8289    473.94936    287.26705    402.59025      39457.2 
  680500    311.39336   -1470.7898    503.95255    432.89506    414.58888      39457.2 
  680600    303.12859   -1462.8172    479.18866    378.95314    217.12001      39457.2 
  680700    313.56705   -1422.2431    487.20303     474.4631    41.786184      39457.2 
  680800    291.74328   -1472.8879    433.19532    271.71136   -418.86885      39457.2 
  680900    295.93803   -1485.0834    480.66425    325.84053    -118.1995      39457.2 
  681000    295.63899   -1450.9741    459.45602    337.39739   -381.51423      39457.2 
  681100    291.94772   -1449.8092    477.55551     340.0693   -297.43356      39457.2 
  681200    297.67737   -1456.5181    455.58248    337.14248   -156.82996      39457.2 
  681300    291.28503   -1436.9318    472.04453    344.45686    204.57404      39457.2 
  681400    301.43663   -1470.9819    502.29503    386.28935    405.92525      39457.2 
  681500    299.48139   -1472.4846    457.26239    330.96508    176.56458      39457.2 
  681600    293.28535   -1484.0124    462.23506    296.55834   -258.14946      39457.2 
  681700    300.78999   -1495.8136    448.68058    304.93654     -392.972      39457.2 
  681800    304.59457   -1495.9665    449.52867    322.73352   -298.19656      39457.2 
  681900    304.50446    -1463.956    477.13797    381.94825   -11.654511      39457.2 
  682000    295.05891   -1439.3145    463.08476    350.07824   -666.62621      39457.2 
  682100    291.06483   -1449.0927    470.36025    329.62193   -665.56645      39457.2 
  682200    307.93165   -1466.4291    459.22273    376.96533   -168.63448      39457.2 
  682300    292.99602   -1414.0701    468.67838     371.6434   -574.78544      39457.2 
  682400    293.11632   -1421.0987    437.28879    333.76598   -303.75197      39457.2 
  682500    301.17428   -1450.3313    495.22704    398.69265     279.6465      39457.2 
  682600    302.94454   -1440.1296    474.98636    396.61117   -229.07661      39457.2 
  682700    306.82552   -1433.4978    474.07184    419.77359     97.68973      39457.2 
  682800      309.612   -1461.7059    475.53255    405.55165    58.003815      39457.2 
  682900    299.48572   -1479.4439    464.87143    331.63425    479.09885      39457.2 
  683000    290.59572   -1455.8655    466.58416    316.96432   -4.2009061      39457.2 
  683100    306.22947   -1473.3851    451.77044    354.90561    281.75555      39457.2 
  683200    309.61546   -1446.7431    469.88094    414.87843    255.58237      39457.2 
  683300    292.81167   -1455.2501    448.27965    309.23602   -300.38853      39457.2 
  683400    307.45515   -1512.8943    469.11967    338.25516    80.473874      39457.2 
  683500    303.88361   -1486.0001    480.40049    360.37596    -279.3408      39457.2 
  683600     299.8331   -1517.0825    469.51644    300.20217   -241.76112      39457.2 
  683700    295.84253   -1519.0878     442.4902    253.23278   -456.22774      39457.2 
  683800    295.70854   -1490.0505    449.14187    288.31948    135.08921      39457.2 
  683900      304.602    -1511.957    449.20915    306.45688   -92.969058      39457.2 
  684000    300.76997   -1516.0851     434.9552    270.84966   -168.67718      39457.2 
  684100    304.66828   -1486.7887    485.79157     368.5056    132.33869      39457.2 
  684200    296.98693   -1551.4919    463.03702    246.51967   -328.93196      39457.2 
  684300    299.82045    -1507.932    476.76178    316.54122     300.7356      39457.2 
  684400    295.84833   -1446.9977    474.87193    357.73069   -298.90641      39457.2 
  684500    301.90673   -1490.8084    468.10882    334.38973    -141.0988      39457.2 
  684600    297.88489   -1520.2584    465.26487    284.01739     333.3501      39457.2 
  684700    299.25384   -1506.7639    472.56753    310.96808   -66.016226      39457.2 
  684800     300.4944   -1502.7906    446.67568    294.62591   -143.90245      39457.2 
  684900      293.731   -1467.4704    462.37033    315.23891   -292.37753      39457.2 
  685000    300.61313   -1470.1344    473.69443     354.8345   -255.54402      39457.2 
  685100    293.87439   -1462.2705    483.92476    342.63776   -392.80448      39457.2 
  685200    306.20667   -1495.5164    473.84353    354.74499   -53.391071      39457.2 
  685300    286.94864   -1494.4032    470.58107    266.02967   -297.99393      39457.2 
  685400    307.90812   -1469.8782    439.94704     354.1348    174.49257      39457.2 
  685500    304.84552   -1448.7562    473.48867    395.03182   -594.40345      39457.2 
  685600    302.08837   -1439.0529    471.89532    390.74818   -326.39268      39457.2 
  685700    303.03481   -1468.5844    440.79575    334.37153   -187.16529      39457.2 
  685800    304.65827   -1508.0149    454.30715    315.74996   -577.60143      39457.2 
  685900    291.96431   -1502.0165    466.82141    277.20246   -348.86193      39457.2 
  686000    298.62523   -1512.7334    455.51992     285.1253   -740.70009      39457.2 
  686100    298.51426   -1454.2355    477.75339    365.35786      51.6631      39457.2 
  686200    300.43675    -1477.352    484.01028    357.13992   -294.95511      39457.2 
  686300     294.8271    -1485.816    499.34358     338.7935   -35.402923      39457.2 
  686400    291.51384   -1435.4385    454.08462    329.01882    386.02419      39457.2 
  686500    305.21707   -1435.5736    454.90337     391.2993    415.31499      39457.2 
  686600    309.57727   -1501.6327    481.73535    371.67154    689.53694      39457.2 
  686700    298.51374   -1479.0991    437.65785    300.39639    734.43999      39457.2 
  686800    305.43855   -1482.6039    478.12446    368.48561    9.2326009      39457.2 
  686900     288.0743    -1454.762    464.97444    305.12422   -98.601732      39457.2 
  687000    285.10901   -1487.9126    472.30986    265.97983   -586.71713      39457.2 
  687100     306.5632   -1444.9951    461.26362    394.28899   -860.78852      39457.2 
  687200    292.76199   -1503.6823    455.11268     267.4135   -321.13859      39457.2 
  687300    304.80325    -1507.764    453.15499     315.5004   -183.44112      39457.2 
  687400    291.98921   -1505.9411    456.14664    262.71501   -921.80446      39457.2 
  687500    294.06592   -1507.6222     476.2214    290.44359   -525.52601      39457.2 
  687600    303.84472   -1487.2918    473.91263    352.42152   -41.618079      39457.2 
  687700    299.81412   -1499.4157    466.00878    314.27601   -35.794086      39457.2 
  687800    298.56372   -1467.4156    462.10597     336.7526   -47.142643      39457.2 
  687900    300.42181   -1471.1164    465.21436    344.51245     332.8743      39457.2 
  688000    301.45841   -1506.2714    467.33921    316.14194    252.59071      39457.2 
  688100    295.91729   -1475.6097    481.73498    336.29169    537.95654      39457.2 
  688200    295.93431   -1430.0695    497.85766     398.0311    688.88355      39457.2 
  688300    298.93259   -1458.6319     479.9743    365.06279    361.00288      39457.2 
  688400    292.14414   -1438.0079    472.35393     347.5519    446.46958      39457.2 
  688500    298.39578   -1477.3361    471.06084    335.03217    241.33676      39457.2 
  688600    300.19787   -1510.4286     464.4113    303.39064    617.13631      39457.2 
  688700    294.71769   -1486.3192     482.1842    320.63919    72.236374      39457.2 
  688800    292.19189   -1503.9448    474.56394    284.03967    337.20271      39457.2 
  688900    300.08998   -1499.9783    471.93587    320.88048    72.344536      39457.2 
  689000    302.12995   -1486.3718    478.29453    350.01549   -28.505245      39457.2 
  689100     303.8018    -1504.676    461.63356    322.56532    73.283006      39457.2 
  689200    303.49556   -1510.0262    463.34059    317.54564    115.35178      39457.2 
  689300    306.37281   -1506.1206    458.03847    329.08249    211.57765      39457.2 
  689400    302.28995   -1505.1972    452.40173    306.01644    -216.7601      39457.2 
  689500    295.82716   -1493.8901    463.64719    299.51839    122.92754      39457.2 
  689600    300.02705   -1467.4628    440.27749    321.45468   -561.34207      39457.2 
  689700    297.16484   -1481.3001    438.60262    293.07675    18.540159      39457.2 
  689800    305.00508   -1467.6849    474.31703    377.64873    627.97823      39457.2 
  689900    296.94858    -1451.177    490.79498    374.42013    113.08792      39457.2 
  690000    314.56476   -1468.2763    483.79395    429.50563    1032.6457      39457.2 
  690100    297.72048   -1480.3491    480.66493    338.58776    895.06051      39457.2 
  690200    299.45279   -1448.0789    485.11245     383.0923    371.04326      39457.2 
  690300    294.10574   -1422.1968    516.54346    416.37005    691.74043      39457.2 
  690400    294.97845   -1493.7536    442.53426    274.72693   -305.26295      39457.2 
  690500    306.54721   -1493.6829    451.02781    335.29354   -491.98641      39457.2 
  690600    302.68383   -1475.0278    452.07173    337.62635   -777.75753      39457.2 
  690700    296.63528   -1469.3433    481.20201     345.2525   -304.03804      39457.2 
  690800    285.27762   -1491.5177    460.87003    251.69282   -87.535307      39457.2 
  690900    296.33995   -1445.8091    469.90097    356.15822   -382.70707      39457.2 
  691000    309.99735   -1492.7722    451.15973    351.84466   -630.93061      39457.2 
  691100    298.44138   -1429.8733    454.07402    365.71309   -566.97137      39457.2 
  691200    299.11774   -1422.0133    471.91549    394.45486   -503.73995      39457.2 
  691300    297.46909   -1437.2427    464.85844    364.75759   -414.53449      39457.2 
  691400    294.94918   -1421.8898    460.79511    364.72007   -304.82563      39457.2 
  691500    299.02792   -1461.3028    473.46535    356.31147    392.92486      39457.2 
  691600    301.78056   -1480.3004    471.44559    347.66734     167.5749      39457.2 
  691700    306.85773   -1455.0488    452.09151     376.3871    469.12589      39457.2 
  691800    295.08402   -1475.2539    452.48611    303.65304     648.8161      39457.2 
  691900    310.84346   -1521.7679    460.64662    336.13918    570.69135      39457.2 
  692000    306.56049   -1456.2345    461.12827    382.90203    75.393518      39457.2 
  692100    298.42912   -1471.2106    461.12738    331.37408    -61.84202      39457.2 
  692200    282.89146   -1411.6907    490.34281    350.26667   -445.72503      39457.2 
  692300    308.53657   -1446.0602    469.71474    410.54542   -474.11013      39457.2 
  692400    301.77843   -1453.6295    478.98211    381.86523    -219.7453      39457.2 
  692500    292.93526   -1450.6408       462.49    328.61121   -375.12509      39457.2 
  692600    310.75816   -1471.0754    463.35674    389.15839   -192.22414      39457.2 
  692700    296.52371   -1522.4092    489.72591    300.20903   -172.36459      39457.2 
  692800    300.04404    -1484.164    470.49467    335.04712   -482.40729      39457.2 
  692900    312.35673    -1449.089    460.82947    415.80318   -326.34117      39457.2 
  693000    284.48288   -1406.6507    463.96307    336.08049   -716.57589      39457.2 
  693100     306.1066   -1501.4693    466.15212    340.65079    1.2796467      39457.2 
  693200    299.60254   -1477.0141    488.49879    358.21655   -7.6344054      39457.2 
  693300     292.1146   -1463.2753    460.33425    310.13202      239.858      39457.2 
  693400    296.56323   -1438.6094    444.31673    338.77727    251.48908      39457.2 
  693500    294.34555   -1421.6431    474.39323    375.85151   -129.84989      39457.2 
  693600     302.4542    -1427.213    488.46578      420.803    228.24314      39457.2 
  693700    297.91229   -1455.9491     468.8935    352.07851     168.4555      39457.2 
  693800    307.39216   -1457.2314    478.14172      402.657   -463.60936      39457.2 
  693900    302.77149   -1489.8809    494.43487    365.53048    90.984742      39457.2 
  694000    303.70755   -1449.1071    450.89012    366.96711    397.40812      39457.2 
  694100    305.57604   -1448.4991    484.42403    409.50797    430.56121      39457.2 
  694200    296.07023   -1459.4566    471.75896    343.15624   -69.797107      39457.2 
  694300    313.14431   -1402.6704    505.33526    510.26782     596.9799      39457.2 
  694400     292.4559   -1445.3741     475.0916    344.32473     392.9806      39457.2 
  694500    300.00109   -1430.6185    469.10773    387.01255    582.60112      39457.2 
  694600    305.75724   -1400.2081     472.1611    446.35062    318.43001      39457.2 
  694700    298.57884    -1361.205     480.5231    461.44842    180.97218      39457.2 
  694800    308.25627   -1396.8418    472.44016    461.22924    258.90753      39457.2 
  694900    305.01136   -1427.2296    477.09249    420.90777    194.50156      39457.2 
  695000    307.21961   -1442.4306    501.10178    439.64221     564.7191      39457.2 
  695100    301.12652   -1447.0148    490.23021    396.79771    601.13892      39457.2 
  695200    292.69716   -1432.9709    483.78048    366.50135    655.89218      39457.2 
  695300    307.63391   -1422.9267    492.90138    452.80807    218.28475      39457.2 
  695400    297.93496   -1442.1752    475.14234    372.20317   -363.66506      39457.2 
  695500    299.96117   -1435.1435    445.71848    358.91894    95.714989      39457.2 
  695600    306.34655   -1447.0756    456.27217    386.24317    40.898586      39457.2 
  695700    303.39947   -1436.0994    462.44451    390.14437   -85.543696      39457.2 
  695800    307.08406   -1508.3614    460.81225    332.81262   -250.51877      39457.2 
  695900    304.35071   -1469.1189    465.77994    364.73622     294.1786      39457.2 
  696000    307.11017   -1429.8807    479.16406    429.76244    16.735413      39457.2 
  696100    295.94512   -1455.6598    472.39127    347.02298    319.78299      39457.2 
  696200    296.39964   -1425.2756    459.53134    366.59033    338.98952      39457.2 
  696300     300.0462   -1446.1562    457.54783    360.11781    446.68451      39457.2 
  696400    313.42543   -1404.1264    470.29276      475.033    677.31346      39457.2 
  696500    300.04631   -1416.4087    484.68155    416.99953    29.731971      39457.2 
  696600    305.00523   -1419.1957    474.23671    426.05831   -66.768002      39457.2 
  696700     299.2742   -1420.1996    472.13079    397.18708    197.63523      39457.2 
  696800    305.90746   -1450.8911    460.07679    384.25852   -14.081571      39457.2 
  696900    292.76698   -1504.3503    454.38133    266.03658   -206.00441      39457.2 
  697000    298.15409   -1456.9235    471.07815    354.37564    60.791737      39457.2 
  697100    303.17037   -1477.8267    480.35614    365.29888   -56.074095      39457.2 
  697200    307.16967   -1489.0203    452.04154    343.76786    -146.4656      39457.2 
  697300    296.40135   -1469.8232    449.14223    311.66135   -147.77538      39457.2 
  697400    299.02437   -1425.5273     444.4084    363.01402   -245.65748      39457.2 
  697500     290.8686   -1423.3727    479.58135    363.68092   -149.27176      39457.2 
  697600    299.68316   -1460.3862    429.43558    316.14362    308.83441      39457.2 
  697700    299.01036   -1417.9467    474.52195    400.64529    46.216927      39457.2 
  697800     314.4316   -1409.1965    480.86446    485.05734    296.47998      39457.2 
  697900     303.1321   -1381.5477    468.60305    449.65283   -118.54423      39457.2 
  698000    302.11797   -1391.6599    463.69159    430.07059   -182.75096      39457.2 
  698100    301.36962    -1423.693    472.87958    403.86156    49.082125      39457.2 
  698200    295.88749   -1428.9728    481.86533    382.92504    341.92011      39457.2 
  698300     312.2883   -1414.3397    464.50402     453.9195    122.35144      39457.2 
  698400    294.49692   -1407.2703     488.1765    404.68801   -294.34808      39457.2 
  698500    305.96179   -1392.2462    482.90068    465.97152   -191.95652      39457.2 
  698600    307.82404   -1402.9056    468.92095    449.70334   -670.47005      39457.2 
  698700    306.60351     -1402.05    473.63044     449.7821   -492.87958      39457.2 
  698800    302.04434   -1402.2998    480.99531    436.40344   -271.79297      39457.2 
  698900     293.5908   -1455.3247    463.21141    327.59539   -419.02533      39457.2 
  699000    306.24899   -1416.3394    467.07575    427.34444   -53.222668      39457.2 
  699100    308.99037   -1423.2061    455.78333    421.50797    421.07587      39457.2 
  699200    299.62673   -1467.3144    447.20727    326.73348   -361.28815      39457.2 
  699300     309.7354   -1463.9077    475.82095    404.19288    390.66533      39457.2 
  699400    297.85895   -1450.4228    453.83266    342.30419    19.208311      39457.2 
  699500    287.48007   -1441.2681    476.12506    327.09758    59.311658      39457.2 
  699600    307.38721   -1433.4452    467.54037    415.81963    534.05913      39457.2 
  699700    288.89716   -1427.5847    471.00159    342.02739    317.44984      39457.2 
  699800    298.96267   -1402.7475    481.61779    422.72587    384.59129      39457.2 
  699900    301.14728   -1430.3136    504.03454    427.39646    725.76977      39457.2 
  700000    284.74001   -1453.7121     461.9114    288.12312    219.86532      39457.2 
  700100    315.93007   -1499.0204    468.42485    389.52953    451.23224      39457.2 
  700200    302.34339   -1491.1315    454.33206    322.25274    299.35904      39457.2 
  700300    291.21104    -1461.929    464.62029    311.70289    411.51798      39457.2 
  700400    294.32057   -1444.8205    475.99606    354.16469    499.16381      39457.2 
  700500    304.39858   -1478.6903    475.66274     365.2628     383.9946      39457.2 
  700600    291.54841     -1458.27    474.95511    327.21311    556.27007      39457.2 
  700700    305.71529   -1496.7387    437.33575     314.8061    536.11293      39457.2 
  700800    299.58172   -1477.3797    450.93972    320.19832   -184.39416      39457.2 
  700900    292.93703   -1501.6531    488.60529    303.72214   -121.97369      39457.2 
  701000    299.70787   -1443.3411    465.51709    369.38132    214.93573      39457.2 
  701100    295.80266   -1459.1027    476.84753    347.39595    88.477034      39457.2 
  701200    299.32327   -1498.3544    458.94819    306.07033   -50.018337      39457.2 
  701300    297.38774    -1488.049    451.29679    300.02401   -138.94432      39457.2 
  701400    302.23404   -1435.8881    484.66927    407.34178     394.0851      39457.2 
  701500    307.72682   -1418.0965    478.41616    443.57067    107.77899      39457.2 
  701600    303.01253   -1442.0846    447.85379     367.8292   -675.93172      39457.2 
  701700    306.33067   -1435.9788    464.85209    405.84853   -55.165299      39457.2 
  701800     307.0406   -1462.7214    452.97171    370.41672   -659.73885      39457.2 
  701900    297.10208   -1436.7143    481.60422    380.38208   -175.84539      39457.2 
  702000    303.54757   -1464.1246    490.24938    390.58983   -303.05713      39457.2 
  702100    297.64445   -1465.7627    459.46732    331.63472   -579.01853      39457.2 
  702200     302.2603   -1476.1631    508.31499     390.8306   -339.84815      39457.2 
  702300    314.60414   -1441.5124    463.53829    436.19088    142.00548      39457.2 
  702400    297.15448   -1477.2768    466.70436     325.1553   -235.84162      39457.2 
  702500    310.56824   -1478.8271    460.07106    377.26733   -305.60029      39457.2 
  702600    293.39643    -1487.095    449.83703    281.57707   -315.93806      39457.2 
  702700    302.31706   -1460.9333    478.55595    376.55642   -104.82615      39457.2 
  702800    311.74611   -1501.0625    457.83717    358.09264    449.65238      39457.2 
  702900    306.29178   -1480.7868    466.08629    362.09992    307.10379      39457.2 
  703000    294.46197   -1459.9857     484.2346    347.87352     393.0457      39457.2 
  703100    305.85056   -1500.0033    457.50514    332.31897    243.23282      39457.2 
  703200    303.78401   -1486.5852    461.26656    340.20912   -454.41163      39457.2 
  703300    295.92026   -1485.4819    471.31181    316.00963   -483.69707      39457.2 
  703400    304.58535   -1458.6818    480.02883    390.47689   -825.62949      39457.2 
  703500    300.10701   -1431.4882      473.935    391.44629   -845.41816      39457.2 
  703600    290.73906    -1448.423      464.568    323.03502    -197.6246      39457.2 
  703700    288.19462   -1451.5868    449.58231    293.44809   -456.72249      39457.2 
  703800    295.80146   -1422.3361    464.79773    372.10743    208.51782      39457.2 
  703900    296.20133   -1419.9915    504.96889    416.42056    115.00913      39457.2 
  704000    293.95259   -1417.6716    488.00805    391.67145    74.167743      39457.2 
  704100    298.89092   -1465.8456    487.36841    365.05588    194.90538      39457.2 
  704200    296.34895   -1504.4685    455.18218    282.82041    449.82412      39457.2 
  704300    294.60871    -1523.143    454.81525    255.95659   -26.020085      39457.2 
  704400    293.81804   -1506.6834    451.60281    265.64959     58.00876      39457.2 
  704500    300.59753   -1483.1645    508.83013       376.87   -226.41988      39457.2 
  704600    305.17741   -1445.6415    478.82076    404.97054   -524.91598      39457.2 
  704700    306.25577   -1491.0339    477.59226    363.19684   -632.92914      39457.2 
  704800     304.9918   -1503.7563    462.02681    329.22746    58.159429      39457.2 
  704900    298.75834   -1498.0577    461.41064    306.29008   -360.93905      39457.2 
  705000    303.78716     -1469.34    463.14464    359.34667   -351.45287      39457.2 
  705100     304.0428   -1446.5613    461.92906    382.05887   -423.13192      39457.2 
  705200    302.91212   -1479.9505    448.13977    329.79791   -475.10602      39457.2 
  705300    295.53533   -1473.4512    463.47895     318.4773    -232.6431      39457.2 
  705400    310.55791   -1520.7332    478.52261    353.76631   -530.18948      39457.2 
  705500    307.94351   -1468.1737    446.53172    362.58309    -243.4618      39457.2 
  705600     293.9414   -1486.2385    485.64845    320.69461   -100.52082      39457.2 
  705700    308.29463   -1475.7828    476.96414    386.98467    443.85988      39457.2 
  705800    296.41034   -1490.4424    482.34519    324.28555    564.14112      39457.2 
  705900    297.77194   -1489.6264    466.29877    315.17553    725.84565      39457.2 
  706000    295.00919   -1505.7665    484.88378     305.2017    457.36766      39457.2 
  706100    287.44436    -1505.769    478.73211    265.04326    530.02489      39457.2 
  706200    304.66793   -1470.9242     486.7566    385.33354    674.61594      39457.2 
  706300    300.48935   -1477.8919    485.09491    357.92117    128.17414      39457.2 
  706400    294.68485   -1471.8342    478.72981    331.52215    54.047674      39457.2 
  706500     290.5685   -1475.7623    497.36777    327.72878      2.35677      39457.2 
  706600    299.15191   -1511.3749    481.96735    315.29866   -205.05872      39457.2 
  706700    297.27163   -1497.4555    445.57955    284.37837    391.78587      39457.2 
  706800    301.63372   -1464.1979    480.47242    372.13664   -290.90863      39457.2 
  706900     304.0551   -1453.2633    493.57663    407.05975    100.64409      39457.2 
  707000    296.36659   -1492.4535    471.03756    310.77006    19.898464      39457.2 
  707100    300.53618   -1472.3867     448.4947    327.03661    255.84122      39457.2 
  707200    304.77274   -1462.9054     480.7017    387.76852    370.98163      39457.2 
  707300     306.6792   -1464.9881    482.76172    396.31548    88.171793      39457.2 
  707400    305.09438   -1479.2921     476.6949    368.82083   -346.02351      39457.2 
  707500    293.30097   -1526.0304    476.35995    268.73541   -314.09534      39457.2 
  707600    294.12168   -1484.7449    473.79928    311.14941   -520.84529      39457.2 
  707700    303.20914   -1469.9367    448.22162    341.22869   -169.28654      39457.2 
  707800    303.84491    -1467.537    476.58542    374.85004    79.794635      39457.2 
  707900    299.09372   -1463.8563    484.12434    364.71271   -320.32275      39457.2 
  708000    294.34192   -1465.0525    484.25218    342.28469   -204.14288      39457.2 
  708100    298.03218   -1460.4961    480.89594    360.07286   -211.51604      39457.2 
  708200     315.2582   -1463.6803    461.96434    415.38903    148.87663      39457.2 
  708300    311.73423   -1465.3274    463.54134    399.47848    248.49835      39457.2 
  708400    295.84086   -1473.7138    494.39155    350.50063    442.99598      39457.2 
  708500    308.07635    -1505.989    454.54611    333.37932    513.74685      39457.2 
  708600    308.61887   -1501.0535    475.21981    361.42708   -252.21821      39457.2 
  708700    299.63368   -1464.9604    496.84321    378.75464     39.09369      39457.2 
  708800    300.07303   -1482.8476    451.04206    317.04123    50.207505      39457.2 
  708900    299.19126   -1459.4622    502.27306    387.69398   -295.50266      39457.2 
  709000    298.36308   -1502.9977    476.46905    314.63179    37.454907      39457.2 
  709100    292.29982   -1463.6252    456.26505     306.5455    -177.3692      39457.2 
  709200    302.43686   -1425.8749    500.88448    434.48186   -434.45135      39457.2 
  709300    300.57446   -1471.1531    468.41941    348.36703   -848.88233      39457.2 
  709400    316.77719   -1471.0331    491.50135    444.40126   -254.32707      39457.2 
  709500    298.67151   -1497.2597    479.24295    324.53007   -473.49652      39457.2 
  709600    296.77194   -1496.6855    487.92485    325.24745    59.479969      39457.2 
  709700    296.28554   -1487.9223    509.96372     353.8632    473.57667      39457.2 
  709800    290.62464   -1494.4981    469.14745    281.02503    203.95105      39457.2 
  709900    301.25993   -1502.9934    469.23446      320.423    350.15331      39457.2 
  710000    305.25511   -1466.6677     455.5362    361.00904   -185.89748      39457.2 
  710100    286.17121   -1523.7321     458.0509    220.67604   -389.36307      39457.2 
  710200    308.76037   -1546.6783    475.72459    316.94313    35.359521      39457.2 
  710300      295.082   -1534.0162    472.16419     264.5598   -119.08044      39457.2 
  710400     300.7276   -1527.1711    506.86064    331.47859    328.92666      39457.2 
  710500    302.46523   -1468.9682    477.20792    367.83954    361.82687      39457.2 
  710600    302.97678    -1513.436    479.87119    328.33447     638.2819      39457.2 
  710700    299.36329     -1492.03     471.0934    324.71981   -25.600694      39457.2 
  710800    291.98564   -1461.4231    471.71739    322.78771   -191.52059      39457.2 
  710900    302.01413   -1530.5028    462.18719    289.25649    186.89607      39457.2 
  711000    305.44683   -1490.5869    464.76966    347.18509   -112.77053      39457.2 
  711100    296.75553   -1452.8765    488.71434    369.77223   -93.959363      39457.2 
  711200    296.17154   -1466.8619    482.90735    347.35469    132.86852      39457.2 
  711300    314.30384   -1473.4581    475.95191    415.30888    74.830403      39457.2 
  711400    303.79705   -1477.5052    472.41211    360.49335   -412.98888      39457.2 
  711500    299.66749   -1465.7006    433.97286    315.29603   -22.840788      39457.2 
  711600    305.23216   -1447.5669    479.84805    404.31848    153.89905      39457.2 
  711700    300.89285   -1444.5487    488.56109    396.54429    206.09537      39457.2 
  711800    302.87471   -1422.0885     489.1031    428.45504   -125.38587      39457.2 
  711900     293.9882   -1396.9227    485.35784    409.93014   -107.30665      39457.2 
  712000    303.49486   -1477.4354    509.09193    395.88457   -104.42047      39457.2 
  712100    292.01381     -1475.49    483.33201    320.46208   -375.97713      39457.2 
  712200    306.37684   -1441.8864    467.30002    402.59634   -499.82908      39457.2 
  712300    296.60384   -1441.4169    489.93358    381.76919    79.270266      39457.2 
  712400    300.24245   -1449.6053    472.26673    372.26972   -232.72752      39457.2 
  712500    305.16882   -1449.2039    474.08941    396.63814     171.9494      39457.2 
  712600    305.25569   -1448.2848    479.15424    403.01255    152.72911      39457.2 
  712700    302.91848   -1445.3023    485.68135    402.01622   -75.793253      39457.2 
  712800    294.32446   -1438.8091    470.44698    354.64448    366.81071      39457.2 
  712900    300.67379   -1470.0019     476.5454    358.09065    463.65371      39457.2 
  713000    306.61774   -1442.7399    478.41274    413.93848    568.51481      39457.2 
  713100      292.131   -1488.7343    482.26075    306.67329    363.34421      39457.2 
  713200    316.15359   -1469.9333    472.61639    423.81301    228.08776      39457.2 
  713300    295.58103   -1467.1645    481.12454    342.61492    153.10718      39457.2 
  713400     294.4823   -1455.2591    473.96878    342.42577    21.247131      39457.2 
  713500    285.54671   -1476.0887    486.12326    293.58461   -49.767797      39457.2 
  713600    293.91113   -1445.7925     505.6974    381.05358   -165.26372      39457.2 
  713700     300.2818   -1456.1926    474.29243    367.88501    65.928073      39457.2 
  713800    298.48491    -1473.563      478.824    346.96908    45.783031      39457.2 
  713900    313.18699   -1482.0368    490.75425    416.51222   -492.55982      39457.2 
  714000     298.3449   -1512.2267    450.27944    279.13144   -294.48458      39457.2 
  714100    295.24004   -1458.6823    457.02392    325.46382   -237.21749      39457.2 
  714200    308.43732   -1438.5314    477.42811    425.34141   -9.8807394      39457.2 
  714300     292.5185   -1469.0554    485.51222    331.34547    168.27116      39457.2 
  714400     297.3078   -1494.1773    479.13689     321.3764    256.62216      39457.2 
  714500    294.16871   -1448.3659    471.47447    345.41502    74.355108      39457.2 
  714600    294.21583   -1459.5715    474.81938    337.76611   -117.66908      39457.2 
  714700    298.84457   -1481.7532    474.18748    335.75899    92.110347      39457.2 
  714800    299.22611   -1463.5813    481.99113    363.44962      132.115      39457.2 
  714900    298.83771   -1448.9555      488.013    382.35146    214.55537      39457.2 
  715000    306.50006     -1456.23    452.65241    374.15903    610.21551      39457.2 
  715100    307.39186   -1448.8525    482.12216    415.01496    669.41076      39457.2 
  715200    292.91276   -1426.9205    478.81205    368.55247    372.16351      39457.2 
  715300     322.5571   -1418.6571    501.22413    532.48109    241.97517      39457.2 
  715400    292.76926   -1458.2078    461.30468    319.11276     519.6745      39457.2 
  715500    287.02116   -1492.8312    499.13128    296.47789   -138.05183      39457.2 
  715600    305.20594   -1466.4445    471.90459    377.37956   -267.21832      39457.2 
  715700    306.32494   -1474.4432    469.52179     372.0281   -449.57382      39457.2 
  715800    300.68243   -1467.1669    463.23066     347.6498   -715.56615      39457.2 
  715900    309.20997   -1495.3365    472.19281    366.77421   -385.79822      39457.2 
  716000    301.67055   -1465.1111    486.70727    377.62388    17.726333      39457.2 
  716100    292.21359   -1503.1901    484.38961    294.71759    502.28548      39457.2 
  716200    305.31895   -1517.8195    466.92731    321.53531    624.36923      39457.2 
  716300    300.77657     -1517.43    460.44215    295.02134    830.82135      39457.2 
  716400    304.95043   -1479.3427    459.40615    350.83445    877.00096      39457.2 
  716500    285.72428   -1469.4576    470.82933    285.71994    1044.0088      39457.2 
  716600    305.70589   -1464.6291    492.82249    402.36017    1263.4046      39457.2 
  716700    298.94762   -1471.7079    477.38878    349.46881    498.41587      39457.2 
  716800     295.7785   -1481.5622    493.94327    341.92362    251.01411      39457.2 
  716900     306.9331   -1537.9703    441.66872    283.38163   -71.277355      39457.2 
  717000    290.86208   -1472.0503    506.92936    342.32199   -141.16059      39457.2 
  717100    292.03513   -1491.6271     451.2936    272.38235   -37.747981      39457.2 
  717200    295.37885   -1482.8003    487.38394    332.32976    311.55086      39457.2 
  717300    300.50369    -1479.371    507.82087    379.23249   -192.59743      39457.2 
  717400    309.48904   -1519.8081    472.24264    343.60685     278.9774      39457.2 
  717500    305.56783   -1481.0472    464.31279    356.81183    67.238926      39457.2 
  717600    299.60653   -1485.9184    481.20039     342.0318    102.51283      39457.2 
  717700    290.09089   -1469.2531    483.55417    318.27749    254.59084      39457.2 
  717800    290.29577   -1560.8233    457.45229    201.52635    232.14932      39457.2 
  717900    296.56829   -1513.0097    476.05465    296.13769    446.81606      39457.2 
  718000    307.71145   -1468.3485    465.74113    380.57455    14.949705      39457.2 
  718100    301.34155   -1473.3473    504.94316    386.14472    582.41498      39457.2 
  718200    298.03247   -1463.5192    491.62788    367.78295     386.0381      39457.2 
  718300    293.37687   -1477.2516    470.48946    311.98492   -79.418525      39457.2 
  718400    293.87856   -1521.6664    488.79968    288.13553     367.5601      39457.2 
  718500    303.03228   -1479.8907    508.94151    391.19955    676.78135      39457.2 
  718600    306.33577   -1493.2477    482.35968    366.11014     758.7419      39457.2 
  718700    299.35014    -1485.491    488.77938    348.88569    668.08681      39457.2 
  718800     293.4596   -1487.4223    482.39033    314.08702    783.91181      39457.2 
  718900    299.26354   -1481.7268    494.41229    357.89347    965.77492      39457.2 
  719000    301.15878   -1510.6835    478.83033     321.8741    73.604912      39457.2 
  719100    308.01783   -1494.0582     489.4285    379.92941     408.8877      39457.2 
  719200    307.27396   -1462.6235    504.34347    422.93532    854.90109      39457.2 
  719300    295.73217   -1423.2751    475.64154    381.70069    253.25742      39457.2 
  719400    288.88803   -1433.6386    491.99526    356.92612    355.99392      39457.2 
  719500    298.80588   -1411.7146     516.2824    447.71865   -2.7187328      39457.2 
  719600    311.95126   -1450.6924    456.92533    408.47307   -278.29678      39457.2 
  719700    295.82917   -1444.1684    463.81725    349.41919   -297.32547      39457.2 
  719800    297.34924   -1427.0401    504.46051    414.02351   -765.20185      39457.2 
  719900    301.46909   -1421.4467    487.19068    420.86612   -191.74148      39457.2 
  720000    292.03797    -1453.313    492.71028     352.1259   -579.03389      39457.2 
  720100    292.57062    -1427.701    488.29919    375.72115   -204.93806      39457.2 
  720200    303.63305   -1438.8508    471.23298    397.23142   -28.632021      39457.2 
  720300    296.61256   -1433.5235    472.70497    372.47318   -106.06996      39457.2 
  720400    297.92019   -1431.5965     484.5609      392.134   -244.50851      39457.2 
  720500    295.07191   -1461.8631     481.4096    345.91296   -589.19443      39457.2 
  720600    298.20174   -1446.5914    461.46373    355.30746   -217.13772      39457.2 
  720700    297.08362   -1445.8496    489.27989    378.83949   -638.40623      39457.2 
  720800    281.96097   -1470.4158    478.66674    275.68284   -208.55308      39457.2 
  720900    302.72941   -1449.6937    488.40339    399.49697   -441.55861      39457.2 
  721000    299.98102   -1475.7578    491.60793    364.28329    28.544718      39457.2 
  721100    307.13886   -1452.0924    471.07859    399.59431    -427.3321      39457.2 
  721200    298.37614   -1435.5539    455.91048    361.57573   -235.00103      39457.2 
  721300    308.30882   -1459.6783    500.51614    426.70496    -214.3637      39457.2 
  721400    297.99589   -1438.2389    482.23111     383.5021    38.120638      39457.2 
  721500    290.76106   -1440.0659    481.12418    348.04715    227.06113      39457.2 
  721600    307.38594   -1392.3482    486.23833    475.60881    121.03426      39457.2 
  721700    300.38701   -1378.9546    487.09395    458.39747    339.93313      39457.2 
  721800    285.95364   -1399.1126    494.48569    380.75226    183.36897      39457.2 
  721900    302.86488   -1453.9764    487.43248    394.85234    102.90803      39457.2 
  722000    305.80386   -1441.9727    462.25908    394.89358   -56.023668      39457.2 
  722100    305.13528   -1438.8805     480.0286    412.74993   -118.80554      39457.2 
  722200    293.15976   -1487.9884    450.80028    280.58303   -286.57891      39457.2 
  722300    296.98783   -1450.1669     468.4532     353.2649    331.78191      39457.2 
  722400    301.66377   -1454.2409    469.04284    370.79917    395.13501      39457.2 
  722500    311.75043   -1446.6208    461.67848    416.39508    305.83858      39457.2 
  722600    299.53596   -1476.3041    476.94844    347.07693   -4.7949974      39457.2 
  722700    292.28602   -1433.7842     493.3184    373.37787   -226.99309      39457.2 
  722800    309.45505   -1453.6581     478.2887    415.65011    557.01865      39457.2 
  722900     302.8585   -1438.2451     500.0201    423.14263    380.79235      39457.2 
  723000      308.269   -1467.2069    475.78094     394.2622     170.4177      39457.2 
  723100     300.6883   -1399.5002    490.39148    442.50367   -228.17253      39457.2 
  723200    305.03682   -1462.4155     474.0664    382.81013   -435.96947      39457.2 
  723300    298.49198   -1454.8693    471.13089    358.00138   -287.84165      39457.2 
  723400     292.1776   -1457.6673    472.42496    328.11397   -685.28885      39457.2 
  723500    305.85458   -1449.6426    452.97691     378.1695   -405.02169      39457.2 
  723600    298.87678     -1435.04    463.57771    372.00725   -393.68479      39457.2 
  723700    303.27721   -1446.4614    465.24299    382.03129   -322.69688      39457.2 
  723800     292.0207   -1410.8311    479.33501    381.15493    297.35374      39457.2 
  723900    289.58747   -1466.8866    470.85334    305.68029   -152.73204      39457.2 
  724000    296.65392   -1439.3621    483.66237    377.77789    263.40343      39457.2 
  724100     290.6078   -1470.8684    471.56318    306.99477    225.24796      39457.2 
  724200    297.21965   -1489.5898    441.09396    287.52483    26.990935      39457.2 
  724300    296.58316   -1525.3233    477.49716    285.33347     248.2908      39457.2 
  724400    307.99475   -1454.2952    484.94952    415.10964    279.04348      39457.2 
  724500    301.68043   -1505.9271    448.77426    298.91926    257.59384      39457.2 
  724600    297.16633   -1504.3155     467.0228    298.48828    511.30428      39457.2 
  724700     302.8764   -1534.5715     464.2289    291.10543    510.56976      39457.2 
  724800    303.45051   -1488.2162    476.69662    352.50913    480.98714      39457.2 
  724900    310.22166   -1478.6545     475.3447    391.15563    754.77089      39457.2 
  725000    295.30633   -1474.2304    472.93221    326.12195    745.11987      39457.2 
  725100    302.27879   -1512.1185    496.05857     342.7018    623.39081      39457.2 
  725200    301.97175   -1459.6255    486.36354    384.11958    658.44558      39457.2 
  725300    303.88965   -1501.0263    464.08296    329.05936    408.69731      39457.2 
  725400    299.84062   -1478.0478    446.01654     315.7708    749.58459      39457.2 
  725500    304.04208   -1475.9962    486.54209    377.23378    82.753011      39457.2 
  725600    297.30076   -1480.7743    466.36038    321.97123   -8.8585394      39457.2 
  725700    296.77878   -1511.9388    478.45217    300.55222    -77.79704      39457.2 
  725800    307.52154   -1518.0598    463.20563    327.47406    170.81245      39457.2 
  725900     294.1557   -1507.6325     479.4884    294.10384     30.55901      39457.2 
  726000    301.68924    -1512.486     460.2382    303.86387    247.23379      39457.2 
  726100      295.829    -1507.739    498.48753    320.51811    482.07693      39457.2 
  726200    302.49607   -1505.6139    481.32298    335.44754    218.92945      39457.2 
  726300    295.60736   -1467.5927    480.01736    341.19795     114.0064      39457.2 
  726400    305.27007   -1464.7788    450.82486    358.25388    331.35399      39457.2 
  726500    297.99038   -1528.7781    468.22816    278.93517   -272.32802      39457.2 
  726600    296.50804   -1504.8667    488.78397    316.73917    149.50167      39457.2 
  726700    299.68746   -1508.4017     454.3703    293.08217    262.75321      39457.2 
  726800     295.4743   -1489.5355    470.22547     308.8651   -103.92483      39457.2 
  726900    298.98091   -1476.3031    465.63346    333.26793    191.49347      39457.2 
  727000    307.75659   -1522.1597     462.5003    323.72544   -265.21751      39457.2 
  727100    306.61691   -1500.3087    479.51589    357.46908   -206.87364      39457.2 
  727200    294.51603   -1500.4377    473.58368    297.01365   -43.553656      39457.2 
  727300    310.72754    -1541.586    475.52301    330.67641   -436.31954      39457.2 
  727400    291.92248   -1487.5394    459.49513    284.16526   -782.73423      39457.2 
  727500    302.51801   -1556.9652    458.71392    261.58585   -435.64876      39457.2 
  727600     306.9577   -1517.3782     473.5942    336.00974   -175.67405      39457.2 
  727700     289.3963   -1509.8478    468.17871    259.18509    182.36679      39457.2 
  727800    302.53865   -1533.5124    460.03942    286.45688    276.52953      39457.2 
  727900     298.7501   -1503.5361    489.04909     328.4131    158.14107      39457.2 
  728000    305.83803   -1526.2236     469.0843    317.62145    35.050115      39457.2 
  728100    296.06453   -1517.9622    469.04202    281.90809    416.26597      39457.2 
  728200    303.20316   -1559.3457     471.8617     275.4329    272.82793      39457.2 
  728300    305.61478   -1532.8036    449.99206    290.94566    425.16926      39457.2 
  728400    286.47724    -1515.539    475.16754    247.36139   -303.19606      39457.2 
  728500    305.47165    -1493.456    477.50918    357.16706    302.56295      39457.2 
  728600    295.71368   -1506.2799    461.25816    284.22947   -327.71382      39457.2 
  728700     293.3492   -1428.3335    486.74865    377.03781   -447.08656      39457.2 
  728800    302.18737   -1484.6895    474.01542    347.67674    67.668994      39457.2 
  728900    298.96693   -1469.5064    498.82213    373.19047    -168.1929      39457.2 
  729000    306.82926   -1465.9504    459.94384    373.20989     63.85867      39457.2 
  729100     291.7463   -1461.4794    487.53546    337.47361   -478.92516      39457.2 
  729200    300.31507    -1444.993     477.5438    382.48552   -647.19986      39457.2 
  729300    305.69659   -1461.9142    480.98606    393.19688   -288.47934      39457.2 
  729400     306.1797   -1471.2592    469.64686    374.68427   -177.44928      39457.2 
  729500    301.26389   -1452.3417    472.66835    374.52635   -349.42358      39457.2 
  729600    298.12923   -1444.4143    484.55013    380.24505   -786.06618      39457.2 
  729700    305.56474   -1458.1697    484.90446    400.26707   -510.99347      39457.2 
  729800    294.23026   -1486.7675    483.86981    319.68541   -600.18288      39457.2 
  729900    298.99084   -1467.8581    493.47208    369.59621   -990.26825      39457.2 
  730000    306.18222   -1459.5643    471.97954     388.7231   -276.10523      39457.2 
  730100    293.42676   -1510.2446      469.859    278.58575   -562.67386      39457.2 
  730200    307.22425   -1468.8691    469.37343    381.49628   -161.88576      39457.2 
  730300    298.82396   -1462.8006    506.39202    386.82356     8.823948      39457.2 
  730400    300.30947   -1504.1327    447.84596    293.62281    45.964146      39457.2 
  730500    304.77715   -1525.7049     460.1161    304.40328    198.17177      39457.2 
  730600    292.93484   -1476.5989    493.72685    333.88807     140.3604      39457.2 
  730700    315.66318   -1476.6054    480.99593    423.31592    780.55291      39457.2 
  730800    292.14989   -1465.7575    489.31892    336.79309    79.567332      39457.2 
  730900    293.17145   -1498.1897    471.59292    291.22698    219.63596      39457.2 
  731000     305.6623   -1496.2752    481.23861    358.93428    39.781167      39457.2 
  731100    305.75289   -1534.1737    461.90015    302.10446     161.8455      39457.2 
  731200    292.47756   -1548.6813    471.42391    237.44721   -33.440521      39457.2 
  731300    298.11143   -1534.1576    466.73377    272.60541   -123.33881      39457.2 
  731400    298.39658   -1512.7102    478.51082    307.11165    253.49492      39457.2 
  731500    301.11994    -1524.037     473.9149    303.43063    103.39625      39457.2 
  731600    303.20089   -1514.2062    476.77649    325.47691    260.07129      39457.2 
  731700     310.4781   -1501.8218    472.75495    366.55137    122.32974      39457.2 
  731800    303.43238   -1499.4386    494.08389    358.59249    118.06169      39457.2 
  731900    308.74291   -1475.9578    501.62642    413.48706     20.38545      39457.2 
  732000    296.48997   -1432.2501    475.79303    376.28361   -460.83438      39457.2 
  732100    306.32283   -1506.7796    472.69885    342.85916   -253.05897      39457.2 
  732200    299.87813   -1488.6422    479.44166    338.77009    438.43427      39457.2 
  732300    303.14367   -1459.3043    501.10582    404.45098    427.16829      39457.2 
  732400    303.40223   -1444.0763     496.0126    415.74802    585.93485      39457.2 
  732500    295.27309   -1502.2488    499.29285    324.31474    162.87799      39457.2 
  732600    300.95435   -1496.0074    501.44707    358.24805     297.7557      39457.2 
  732700    294.00683   -1463.6809    475.77495    333.67283    262.50281      39457.2 
  732800    296.77666   -1440.0947    468.81898    362.75368   -347.49821      39457.2 
  732900    298.51889   -1490.4253    471.32825     322.7638   -398.65837      39457.2 
  733000    292.35663   -1503.8987    477.40928    287.67161    230.12613      39457.2 
  733100    301.75616   -1487.3796    500.94815    369.98108   -884.55212      39457.2 
  733200    300.79527   -1490.1327     477.4018    339.36233   -463.67775      39457.2 
  733300    306.19164   -1472.8104    463.49769    367.03762   -338.73352      39457.2 
  733400    297.51649   -1469.5436    482.76545    350.57684   -183.21807      39457.2 
  733500    302.69813   -1473.1632    506.63853    394.12201    218.13476      39457.2 
  733600     287.7829   -1501.4281    493.94068    286.11447    97.889737      39457.2 
  733700    298.20305   -1467.4384    478.37598    351.37866    210.04852      39457.2 
  733800    299.50182    -1487.961    481.13112    339.44921    541.35862      39457.2 
  733900    302.06588   -1455.2051    502.37205    404.97168    242.94918      39457.2 
  734000    292.91793   -1475.2182    465.28553    306.75143   -82.527728      39457.2 
  734100    296.08682   -1423.6703    486.71337     393.9715   -863.80743      39457.2 
  734200    292.68632   -1475.4964    486.26072    326.40737   -590.63803      39457.2 
  734300    304.99247   -1446.1972    451.10844    375.87113   -395.19508      39457.2 
  734400    293.64623   -1428.0713    486.44312    378.32971   -427.63767      39457.2 
  734500     306.9669   -1449.8231    446.45531    376.46731   -512.58091      39457.2 
  734600    312.97637   -1416.8969    493.51861     483.4698    458.89523      39457.2 
  734700    290.89876   -1413.0896    466.37227    360.89048    301.59441      39457.2 
  734800    299.98499   -1433.7123     521.9747     436.7134     342.6228      39457.2 
  734900    298.97851   -1423.7718    461.06884     381.2238      48.5937      39457.2 
  735000    293.66712   -1425.0294    475.74075    370.76311    -250.7898      39457.2 
  735100    296.72301   -1418.3697    489.83637    405.25485    84.054335      39457.2 
  735200    309.16577   -1405.5092    474.47066    458.68059    416.37756      39457.2 
  735300    298.19357    -1425.686    524.15483    438.86729    13.078953      39457.2 
  735400    304.38959   -1445.9895     454.8287    377.08913   -625.79074      39457.2 
  735500    302.90428   -1449.1279    493.51239    405.95791    -863.9893      39457.2 
  735600    296.68836    -1459.789     482.7041     356.5475    -328.5851      39457.2 
  735700    296.47198   -1473.3696    463.27571    322.56587   -213.97781      39457.2 
  735800    295.70727   -1463.7565    494.06866    359.53452   -99.638457      39457.2 
  735900    290.78418   -1439.8239    491.74136     359.0103   -178.22232      39457.2 
  736000    305.56841   -1442.2496    478.94647    410.24563    -706.2696      39457.2 
  736100    293.01055   -1399.5047    484.81025    402.40601   -1406.3418      39457.2 
  736200    303.51978   -1448.0008    461.40202    377.74135   -196.40014      39457.2 
  736300    291.12653   -1438.0682    484.49416    355.05762   -216.92637      39457.2 
  736400     295.6182   -1442.2293     477.3756    363.96837   -369.89957      39457.2 
  736500    301.63985   -1449.7979    484.53214    390.62395    318.10824      39457.2 
  736600    308.35906   -1430.0766    485.21678    441.23318    175.21662      39457.2 
  736700    303.56625   -1444.6301    492.20217    412.12103    30.274887      39457.2 
  736800    289.74704   -1421.0222    485.29576    366.70436   -40.220144      39457.2 
  736900    299.35399    -1437.201    485.42595    393.83952   -88.728605      39457.2 
  737000    306.00719   -1449.5506    497.95629    423.92683   -326.36623      39457.2 
  737100    303.53738   -1408.5464    486.60324    442.47601    226.57207      39457.2 
  737200    303.60039   -1440.7464     505.1818    429.13787   -94.797266      39457.2 
  737300    307.98288   -1404.4626    487.84205    467.78145    146.51734      39457.2 
  737400    291.33182   -1423.2067    523.74919    410.09693    339.44513      39457.2 
  737500    316.03343   -1410.3996        508.4    518.59012    548.03041      39457.2 
  737600    293.98862   -1409.8098     457.2591    368.94623    583.73439      39457.2 
  737700    296.55184    -1454.315    495.52242    374.22622    537.16964      39457.2 
  737800    294.14624   -1423.6758    491.55374     390.0834    330.33128      39457.2 
  737900    295.34193   -1431.8988    483.90667      379.588    321.15827      39457.2 
  738000    289.88898   -1449.3249    489.99188    343.73583    84.041145      39457.2 
  738100    305.28141   -1448.5711    464.23962    387.92723   -183.39156      39457.2 
  738200    292.67956   -1464.7004    468.86106    319.77326   -158.88072      39457.2 
  738300    300.01327   -1426.4253    512.79344    434.94628    75.102651      39457.2 
  738400    300.49423   -1428.1465    476.37314     398.9667    53.281251      39457.2 
  738500    307.93161   -1426.2678    499.47967    457.38339   -225.24654      39457.2 
  738600    302.92283   -1452.4585    485.90665    395.10491     129.6018      39457.2 
  738700    315.45045   -1477.7702    463.22735    403.42634    82.634372      39457.2 
  738800     299.4106   -1456.8047     487.3407     376.4051   -587.58998      39457.2 
  738900    299.63668   -1461.6157    492.53608    377.80574   -258.24509      39457.2 
  739000    304.07259   -1464.9713    504.07223     405.9259     21.20888      39457.2 
  739100    299.31331   -1471.6879    509.79789    383.54174    524.78725      39457.2 
  739200    295.40519    -1458.803     492.4289    361.49045    503.56806      39457.2 
  739300    286.29458   -1474.4431    477.73642    290.20503    39.391735      39457.2 
  739400    299.62617   -1479.3944    496.54639    363.99009    31.236736      39457.2 
  739500    302.96492   -1493.9091    465.58723    333.52411   -358.45952      39457.2 
  739600    298.67888   -1463.4397    474.94825    354.08853   -237.48921      39457.2 
  739700    294.17193   -1480.8791    478.39022    319.83201   -127.42304      39457.2 
  739800    301.52551   -1447.5255    484.29192    392.14219    318.29582      39457.2 
  739900     300.4251    -1464.514    474.96276    360.87806    417.47835      39457.2 
  740000    294.39842   -1481.5562    477.84575    319.62852   -189.46093      39457.2 
  740100    303.51452   -1484.1883    470.73404    350.86216    373.10975      39457.2 
  740200    302.85827   -1468.4196     463.2442    356.19114   -139.82814      39457.2 
  740300     300.7096   -1483.8015    472.40661    340.31333    95.025761      39457.2 
  740400    288.01132   -1481.1605    471.85051    285.31866    227.08653      39457.2 
  740500    309.18897   -1526.5537    476.64375    339.91347     197.5642      39457.2 
  740600    310.40849   -1509.2313    490.13203    376.20604    394.06706      39457.2 
  740700    290.77431   -1492.1538    467.10824    282.00292    62.965859      39457.2 
  740800    302.70524   -1471.8778     472.6136     361.4145    164.35887      39457.2 
  740900    306.28468   -1459.6689    491.44775    408.54729    137.11951      39457.2 
  741000    312.54135   -1449.6485    488.67511    443.91918     188.7461      39457.2 
  741100    299.92545   -1446.3949    489.49535     391.2838   -525.22824      39457.2 
  741200    292.48485   -1479.8747     476.2976    311.16029   -212.10505      39457.2 
  741300    297.57479   -1513.1249    465.59494    290.08701   -135.66206      39457.2 
  741400    297.06475   -1490.4934    486.15436    330.98527   -128.71583      39457.2 
  741500    301.69935   -1510.1151    478.70437    324.74646    176.98843      39457.2 
  741600    310.43346   -1494.1438     489.7642    391.03788    31.705185      39457.2 
  741700    304.37793   -1508.8532    480.23825    339.58252   -11.108471      39457.2 
  741800    297.47229   -1489.3184    486.53949    334.37738   -579.08254      39457.2 
  741900    290.90799   -1470.5979    469.37201    306.42342   -286.47846      39457.2 
  742000    306.19752   -1458.7044    460.58988     378.2622    -617.9538      39457.2 
  742100     300.0238   -1519.3754    470.74687    299.99697   -198.32952      39457.2 
  742200    295.74515   -1492.5672     458.6381     295.4635    18.706886      39457.2 
  742300    298.66083   -1468.7636    476.07811    349.81335    303.63724      39457.2 
  742400    295.39227   -1485.7828    477.75088    319.77454    334.22955      39457.2 
  742500    288.23791   -1481.6302    489.48978     303.5067    714.74128      39457.2 
  742600    296.03541   -1469.2206    483.40325    344.88003    532.44457      39457.2 
  742700      293.832   -1483.9791    472.24058    309.05434   -262.83291      39457.2 
  742800    306.24437   -1490.7869    467.77108    353.57152    20.768159      39457.2 
  742900    311.88716   -1423.4224    482.62067     461.1502   -488.97099      39457.2 
  743000    296.43343   -1453.7954    465.85071    344.54186   -508.31793      39457.2 
  743100    302.55428   -1437.2847    500.66736    423.38277   -279.86342      39457.2 
  743200    300.42704   -1446.0953    487.98491    392.32761    -167.5491      39457.2 
  743300    310.92079   -1402.4824    465.77923    460.90493   -293.20685      39457.2 
  743400    297.46362    -1400.137    488.48603    425.46624    151.46354      39457.2 
  743500    298.91002   -1450.0793    493.31838    386.85802    -109.6048      39457.2 
  743600    296.32665   -1426.6826    493.18618    398.51012   -68.938518      39457.2 
  743700    294.20487   -1442.3089    483.67213    363.83224   -84.813148      39457.2 
  743800    291.83797   -1443.4515    499.96406    368.34218   -517.79763      39457.2 
  743900    300.96276   -1406.7054    458.25072    404.39148   -288.32979      39457.2 
  744000    302.95234   -1431.5241    480.95147    411.21683   -96.235569      39457.2 
  744100    291.25356   -1430.6863    486.84097    365.35731    20.502539      39457.2 
  744200    300.20161   -1470.3009    482.27923      361.403   -138.05566      39457.2 
  744300    303.58563   -1444.4231    464.87922    385.09216    179.65762      39457.2 
  744400     304.8371   -1501.2763    487.11499    356.10023    378.74815      39457.2 
  744500     299.5918   -1508.4397    464.63617    302.88005    192.73323      39457.2 
  744600    296.07834    -1484.406    494.21234    340.69671    658.43403      39457.2 
  744700    294.15451   -1475.0699    481.18705    328.35978    291.43374      39457.2 
  744800     300.2362   -1485.7735    465.39424    329.20094    146.32242      39457.2 
  744900     300.7199    -1515.857    479.95363    315.85111    396.14408      39457.2 
  745000    296.39753    -1508.321    464.65105     288.6552   -277.08407      39457.2 
  745100    297.29191    -1480.308    466.72111    322.75852   -351.67946      39457.2 
  745200    302.22258   -1547.0767    475.61915    287.05153   -767.08272      39457.2 
  745300    296.89046   -1525.0323    470.00136    279.50998   -539.10876      39457.2 
  745400    299.73079   -1523.2778    462.69283    286.72335   -459.64284      39457.2 
  745500    311.82088   -1473.8506    519.95557    447.75898   -478.45801      39457.2 
  745600    307.25702    -1463.335    489.22594    407.03016   -529.42945      39457.2 
  745700    296.67103    -1495.535    464.31185    302.33136   -92.293637      39457.2 
  745800    307.23185   -1499.5088    498.52557    380.04286   -207.23451      39457.2 
  745900    302.73308   -1485.1106    464.53562    340.22886   -143.87031      39457.2 
  746000    306.22546   -1471.8509    480.89976    385.55114    256.61782      39457.2 
  746100    304.90288   -1492.8819    476.41249    354.08783     7.407506      39457.2 
  746200    292.38226   -1489.1282    458.56486    283.71295   -116.00847      39457.2 
  746300    301.44445   -1485.2363    464.72055    334.49561   -168.58679      39457.2 
  746400    299.47472   -1487.1881    494.41418    353.38338    199.38682      39457.2 
  746500    306.10083   -1493.4824    453.94705    336.40675   -258.63302      39457.2 
  746600    303.19491   -1485.6997    470.15019    347.33025   -148.92333      39457.2 
  746700    293.67307   -1464.5398    456.96823      312.507   -529.18624      39457.2 
  746800    306.46419   -1458.5807    474.57966    393.57435    2.8837094      39457.2 
  746900    307.49525   -1476.7755    474.01975    379.45434   -105.34886      39457.2 
  747000    308.92984   -1449.1172    462.35745    401.89885    69.237216      39457.2 
  747100    305.09849    -1415.485    498.48051      454.432    279.72428      39457.2 
  747200    293.37576   -1471.8216    477.03074    323.95122    202.99842      39457.2 
  747300    299.19805   -1472.8002    473.51843    345.63187    264.85407      39457.2 
  747400    300.73358   -1455.2852    465.33901    361.86973    182.20689      39457.2 
  747500    304.76433   -1458.3169    451.91666    363.53423   -127.62757      39457.2 
  747600    304.97621   -1407.8286    482.20375    445.26203   -231.73271      39457.2 
  747700    298.76821   -1449.8266    465.20484    358.35971    -32.73006      39457.2 
  747800     298.6501   -1433.4008    478.51803    387.56776    -85.70081      39457.2 
  747900    310.27883   -1428.4795    492.30453    458.54744    455.51501      39457.2 
  748000    294.71134   -1421.9367    482.15722    384.96615     300.5404      39457.2 
  748100    301.73859   -1441.5799    474.76928    389.52293    99.276382      39457.2 
  748200    308.69912   -1426.6164    483.78061    444.78579    277.73291      39457.2 
  748300    308.90239   -1398.7959    483.35966    473.09898     294.8361      39457.2 
  748400    299.78605   -1447.7046    453.44414    353.29624   -361.25144      39457.2 
  748500    293.77294   -1421.3122    487.17947    386.39468   -339.15705      39457.2 
  748600    309.92312   -1448.6599    474.94628    419.40989   -259.49521      39457.2 
  748700    308.06684   -1424.1548    488.46048    449.08508   -399.01262      39457.2 
  748800    295.21578   -1472.0838    462.18348     317.1128   -453.38918      39457.2 
  748900    304.97077   -1458.8134    466.42246    378.47139    -300.6518      39457.2 
  749000    283.56614   -1411.9647    487.47386    350.15641   -763.65322      39457.2 
  749100    290.38083   -1430.5192    461.83999    336.60044   -40.062262      39457.2 
  749200     306.8593   -1387.7244    505.67643    497.30349    223.24456      39457.2 
  749300      298.723   -1441.4485    468.09235    369.42212    184.19743      39457.2 
  749400    292.84037   -1413.1239    465.53723    368.74884    143.47234      39457.2 
  749500    295.69847    -1440.152      469.777    358.80779     133.3774      39457.2 
  749600    297.24507   -1430.9153    461.24348    366.46306    6.9162951      39457.2 
  749700     302.6449   -1418.4975    465.22634    407.13628   -82.043084      39457.2 
  749800     297.1753   -1412.4571     511.9471    435.31125   -89.920336      39457.2 
  749900    301.08916   -1424.9251    475.56783    404.05703    272.52773      39457.2 
  750000    303.75997   -1467.2747    503.10945    401.25454    267.67696      39457.2 
  750100    303.92448   -1465.7091    482.51095    382.96109    183.29241      39457.2 
  750200    293.70996   -1434.9893     489.1302     374.3853   -115.86376      39457.2 
  750300    303.27449   -1434.5961    488.67258    417.31403   -235.51133      39457.2 
  750400    295.05841   -1476.1911    438.07995    288.19459   -543.74602      39457.2 
  750500    301.41643     -1455.92    499.60642    398.57178   -294.41605      39457.2 
  750600    304.58492     -1476.01    466.89417    360.01217   -31.038557      39457.2 
  750700    304.02791   -1488.3701    487.87454    366.12855    207.56074      39457.2 
  750800    294.39498   -1474.8133    470.07691    318.58715   -214.77088      39457.2 
  750900    293.61095   -1488.4002    443.35209    274.75115    158.45492      39457.2 
  751000    302.18233   -1464.1186    482.68545    376.89501   -396.10106      39457.2 
  751100    303.18592   -1461.5591    469.32691    370.60716   -69.535792      39457.2 
  751200    290.12473    -1490.402    477.23708    290.96357   -137.69632      39457.2 
  751300    291.16524   -1510.8449    486.11385    284.07459    -445.6265      39457.2 
  751400    308.61706    -1461.856    447.23647    372.63312   -606.23531      39457.2 
  751500    299.61542   -1477.4612     470.5303    339.85882   -825.80812      39457.2 
  751600    303.14329   -1442.8874      480.227    399.98735   -549.63688      39457.2 
  751700    298.82013   -1443.7438    475.49032    374.96136   -367.66668      39457.2 
  751800    302.74202   -1438.8898    493.17992    415.13417   -264.02215      39457.2 
  751900    295.37701   -1447.8338     467.1303    347.03437   -737.86755      39457.2 
  752000    291.60982   -1463.1186    468.38355    316.06906   -168.88203      39457.2 
  752100    290.66495   -1471.8891    456.33029    290.99802    121.60196      39457.2 
  752200    303.51879   -1451.2714    498.43272    411.49696    71.444503      39457.2 
  752300    306.22113   -1409.7837    481.84153    448.54066    243.45669      39457.2 
  752400    294.84805   -1435.3377    459.86195    349.88434    97.627104      39457.2 
  752500    296.35799   -1410.6873    473.27174    394.73179    679.44688      39457.2 
  752600    302.49316   -1454.4922    483.99044    389.22359    236.47325      39457.2 
  752700    305.99864   -1444.2076    490.89917    422.17431    654.75332      39457.2 
  752800    299.94746   -1392.8424    459.34718    414.78709    25.953195      39457.2 
  752900     304.0209   -1427.3419    502.56868    441.81943     293.1237      39457.2 
  753000    291.85102   -1403.7747    469.36801    377.48165    418.24918      39457.2 
  753100    297.56464   -1450.0586    492.93706    380.44985    263.13997      39457.2 
  753200    294.64357   -1463.0187    479.18529    340.60758   -381.88768      39457.2 
  753300    305.91501    -1395.427    481.13845    460.81831    160.81866      39457.2 
  753400    297.06698   -1436.6905    465.15979    363.80362    -799.7701      39457.2 
  753500    296.75922   -1428.3904    455.69939    361.25995   -649.86612      39457.2 
  753600    297.08911   -1445.7232    439.94952    329.66017   -244.98116      39457.2 
  753700    307.81006   -1434.7846    468.28264    417.12324   -524.37833      39457.2 
  753800    284.16366   -1487.2884    468.39862    258.44338   -193.80109      39457.2 
  753900    291.55753   -1464.3891    480.09318    326.27314   -99.917926      39457.2 
  754000    288.52009   -1448.2681    479.87395    328.52138    7.8289021      39457.2 
  754100     296.2001   -1428.9448    485.47504    387.96795    21.597284      39457.2 
  754200    294.10707   -1441.2371    489.79471    370.58697    566.06273      39457.2 
  754300    303.25756   -1433.3155    447.90126    377.74716    529.00486      39457.2 
  754400    300.01355   -1485.0906     494.3415    357.83026    597.93233      39457.2 
  754500     296.0421   -1483.5313    455.01559     302.2118    252.51802      39457.2 
  754600    298.27538   -1486.9647    478.63798    332.43952    376.66909      39457.2 
  754700    293.35881    -1467.795    485.48245    336.35331    295.60108      39457.2 
  754800    300.27234   -1443.2137    469.94453    376.47351    -86.02202      39457.2 
  754900    292.05203   -1483.7841    470.30036    299.30814    53.425664      39457.2 
  755000    281.10034   -1493.4373    459.15485    229.28093   -52.815499      39457.2 
  755100    297.77086   -1488.8004    465.74785    315.44581   -397.45494      39457.2 
  755200    298.36112   -1493.4441    450.11942    297.82697   -87.264859      39457.2 
  755300     294.4442   -1487.9486    484.32686    319.92305    131.07706      39457.2 
  755400    305.34986   -1487.7019    459.30903    344.17352    555.10309      39457.2 
  755500    309.50921   -1427.7283     470.9863     434.5209    205.22772      39457.2 
  755600    302.41956   -1445.9411    458.55602     372.0095   -37.031754      39457.2 
  755700    308.69616    -1433.454    460.39678    414.55098    214.95536      39457.2 
  755800      286.775   -1432.3216    481.15013    337.89983    129.11335      39457.2 
  755900    301.69261   -1443.1504    482.23993    395.21633    448.46258      39457.2 
  756000    301.26523   -1427.2318    487.99678    414.97076    354.87447      39457.2 
  756100    292.27689   -1403.4329    487.00047    397.37021    309.37558      39457.2 
  756200    300.35379   -1429.1333    490.92363    411.89916   -55.831394      39457.2 
  756300    296.47898   -1460.9739    454.00102    325.71839    125.29184      39457.2 
  756400    303.16304   -1450.1137    462.33512    374.95794   -214.58213      39457.2 
  756500    295.98444   -1479.8448    456.03707    306.66061   -313.99778      39457.2 
  756600    302.95505   -1478.8371    479.51153    362.47605    30.900789      39457.2 
  756700    308.46096   -1458.6741    471.71359     399.5905    42.778791      39457.2 
  756800    308.01288   -1475.6789    491.77723    400.63522    33.556542      39457.2 
  756900    297.16516   -1471.9058    467.81815    331.68806    182.21912      39457.2 
  757000    302.35543   -1475.8413    478.63642    361.90144    637.76506      39457.2 
  757100    295.86464   -1493.4912    475.43865    311.87719    272.82765      39457.2 
  757200    301.83746   -1518.7695    474.53484    312.54328    298.53941      39457.2 
  757300    305.35413   -1504.2635    447.90204     316.2241    79.365884      39457.2 
  757400    300.10344   -1547.2375    496.91571    298.66162   -47.543106      39457.2 
  757500    301.09305   -1536.2002    481.89637    299.12797   -137.60582      39457.2 
  757600    296.72104    -1493.722    479.00952    319.06688    327.32274      39457.2 
  757700    298.61681   -1480.8238    467.28252    328.75964    46.443857      39457.2 
  757800     286.9225   -1526.5763    461.30204    224.46003     318.8893      39457.2 
  757900    300.85059   -1521.1495    485.61765    316.81009    731.47174      39457.2 
  758000    304.71179   -1501.6012    495.28703    363.38407    624.62336      39457.2 
  758100    307.02619   -1489.5846    481.39754    371.91451    297.06922      39457.2 
  758200    295.20104   -1476.4696     476.9225    327.39975    364.09622      39457.2 
  758300    300.09374   -1481.9424    488.61668    355.61411   -338.25665      39457.2 
  758400    297.77036   -1473.4495    460.59022    325.63681   -633.00064      39457.2 
  758500    303.94247   -1483.8813    471.19456    353.55339   -288.29742      39457.2 
  758600    308.37989   -1496.2056    450.19948    340.18046   -458.48307      39457.2 
  758700    309.58643   -1554.5789    459.73743    296.76858    78.123444      39457.2 
  758800    295.00558   -1478.5337    480.87366    328.40817    230.43979      39457.2 
  758900    292.01673   -1531.2469    468.28664    249.67289    265.54092      39457.2 
  759000    310.73041   -1496.4915    463.89177    364.15253    288.31142      39457.2 
  759100    298.05243   -1488.6555    473.89987    325.00838    104.54297      39457.2 
  759200    297.17346   -1490.0276    474.85522    320.64056   -331.25599      39457.2 
  759300    300.51829   -1465.7395    481.96206    367.07073   -175.41842      39457.2 
  759400     294.3758   -1503.0481    451.74551    271.93478   -239.24311      39457.2 
  759500    300.02418    -1519.038    500.10049    329.68964   -297.50458      39457.2 
  759600    288.49062   -1488.1466    457.34144     265.9779   -194.54825      39457.2 
  759700    299.87491   -1453.6748    496.09296    390.37436   -79.175226      39457.2 
  759800    293.36328   -1435.8637    473.42975    356.25205    152.42953      39457.2 
  759900    299.07466   -1438.9754    470.35408    375.73763   -375.07313      39457.2 
  760000     307.2691   -1467.5377    472.50097    386.15686    312.82856      39457.2 
  760100    290.51351   -1477.9462    496.54959    324.47953    313.74562      39457.2 
  760200    294.33048   -1502.4326     480.1341    300.73513   -65.968209      39457.2 
  760300    298.44524   -1479.3718    455.88018     318.0381   -95.206068      39457.2 
  760400    298.03753   -1527.0404    467.59214    280.24883   -686.12033      39457.2 
  760500    290.96104   -1496.4305    472.42545    283.88276   -483.96416      39457.2 
  760600    308.16864   -1493.5115    488.99996    380.72552   -521.71293      39457.2 
  760700     300.4959   -1416.4157    466.34218    400.67407   -361.53119      39457.2 
  760800    294.04089   -1434.6236    495.59954    382.70784   -87.622962      39457.2 
  760900    288.70025   -1421.7006    495.58597     371.6108    375.94252      39457.2 
  761000    303.86969   -1408.9068    484.00354     441.0097     512.8262      39457.2 
  761100    310.32314   -1427.5212    491.96869    459.36908   -136.46559      39457.2 
  761200    307.22934   -1460.2874    442.14662    362.87396   -456.42232      39457.2 
  761300    304.76055   -1473.6013    484.48902    380.80513   -294.46159      39457.2 
  761400    289.37539    -1450.432    490.80243    341.13057   -672.81877      39457.2 
  761500    305.75397   -1449.4545    485.09682    410.02525   -1048.3992      39457.2 
  761600    296.81528   -1406.5102     495.0047    422.69743    -575.5257      39457.2 
  761700    296.56802   -1391.5022    489.84601     431.4353   -395.03841      39457.2 
  761800     297.9299   -1400.8424    464.59965    402.97046    47.708695      39457.2 
  761900    294.92098   -1434.9439    510.26606    401.01011   -68.566714      39457.2 
  762000    295.44736   -1429.5892    450.67749     349.1423    397.29515      39457.2 
  762100    310.12513   -1433.2401    486.11486    446.90631   -585.04059      39457.2 
  762200    302.04297   -1442.8689    478.27797    393.11081    27.237795      39457.2 
  762300    291.71875   -1401.9174    488.90054    398.27683   -740.45632      39457.2 
  762400    294.46737   -1434.7564    487.58634    376.47894   -370.18512      39457.2 
  762500    300.98037   -1453.8996    482.65407    381.67974   -376.09752      39457.2 
  762600    295.11663   -1438.4346    472.17845    360.31126    -108.4028      39457.2 
  762700    298.20565   -1436.1526    487.71455    392.01467    -419.2958      39457.2 
  762800    297.55313   -1456.6098    491.64559    372.55539   -488.01701      39457.2 
  762900     300.5938   -1466.3918    507.44011    392.23596    141.46394      39457.2 
  763000    305.07553   -1419.3187    493.88607    445.90064   -191.96268      39457.2 
  763100    303.30931   -1489.2815     485.0969    359.20944   -316.91466      39457.2 
  763200    288.18404   -1454.1267     479.9429    321.22121   -98.872672      39457.2 
  763300    303.95178   -1474.4987    479.30601    371.08929    -227.5983      39457.2 
  763400    297.99516   -1492.8624    465.98115    312.62537   -509.18992      39457.2 
  763500    306.24285    -1429.352    486.46508    433.69356    321.19358      39457.2 
  763600    309.67743   -1490.1659    489.00803     390.8613    219.64678      39457.2 
  763700    300.83988   -1474.0566    460.08145    338.31863    228.57958      39457.2 
  763800    305.55816    -1483.982    508.90947    398.43021    471.34892      39457.2 
  763900     307.1889   -1454.7158    464.52533    390.64259     616.5861      39457.2 
  764000    292.12246   -1459.2031    498.31352    352.21881    483.15964      39457.2 
  764100    297.16975   -1494.2905     455.0607    296.56652    206.11276      39457.2 
  764200    308.91676   -1473.9242    472.14717    386.82278    579.46716      39457.2 
  764300    294.61494   -1449.9871    477.72088    352.04606    91.456676      39457.2 
  764400    314.40907   -1460.1456      463.658    416.80057    484.83873      39457.2 
  764500    300.76177   -1503.8239    461.82487    309.94367   -138.53944      39457.2 
  764600    299.07847   -1471.5654    470.68616    343.49686   -396.18298      39457.2 
  764700    300.05457   -1479.8201    461.44943    330.39307   -234.23237      39457.2 
  764800    307.50856   -1489.2495    496.41951    389.43992    374.53208      39457.2 
  764900    292.86488   -1484.7528    467.86101    299.55387   -15.722675      39457.2 
  765000    298.47027   -1507.3994    474.62074    308.86357    617.11593      39457.2 
  765100    303.07863   -1473.8439    490.95903    379.47229    361.22866      39457.2 
  765200    292.89394   -1438.3213    480.66052    358.91553     -82.6277      39457.2 
  765300    301.68092   -1467.2454    472.00295    360.83184   -91.619157      39457.2 
  765400    290.32683   -1449.2316    499.19254    354.99794      63.6765      39457.2 
  765500    291.76352   -1467.6802    503.00494    346.81972   -88.665137      39457.2 
  765600    312.74389   -1481.3931    479.85712     404.2671   -136.34787      39457.2 
  765700    302.44156   -1462.9784    475.57316     372.0882    267.86761      39457.2 
  765800    299.45878   -1489.1823    468.49272    325.39605    150.14951      39457.2 
  765900    298.12744   -1462.8333    465.15531    342.42322   -313.71709      39457.2 
  766000    294.35519   -1471.6948    504.03811    355.48802   -535.70699      39457.2 
  766100    299.91582   -1415.6308    498.48909    430.99835   -116.11411      39457.2 
  766200     292.6507   -1456.4247    484.97702    344.03522   -359.39109      39457.2 
  766300    301.59964     -1510.44    482.44807    327.71698    54.441596      39457.2 
  766400    293.01292   -1498.0374    472.14256    291.21628    218.35775      39457.2 
  766500    293.71898   -1509.1054     480.1782    291.35772   -369.59588      39457.2 
  766600    293.45026   -1459.9192    466.47194    325.62974   -285.65118      39457.2 
  766700    303.17631   -1435.1476    489.74389    417.39243   -297.30938      39457.2 
  766800    286.54333   -1438.0337    494.29392    344.29011    228.37706      39457.2 
  766900    306.88205   -1427.6407    499.14504    450.95801    272.55369      39457.2 
  767000    297.03338   -1447.4288    463.09918    350.85373    264.93706      39457.2 
  767100    300.17828   -1458.7378    486.05159     376.6336    153.23577      39457.2 
  767200    298.12873   -1467.9613    482.25154    354.39725    43.517602      39457.2 
  767300    298.77677   -1519.6767    473.86943    297.21273    268.22333      39457.2 
  767400    297.76446   -1489.6687    480.17381    328.97474    302.27356      39457.2 
  767500    297.37461    -1457.546    469.26743    348.43857   -209.99608      39457.2 
  767600    313.31796   -1498.7722    450.56614    360.17749   -44.146288      39457.2 
  767700    290.84266   -1469.1478     497.3591    335.56702    -144.7079      39457.2 
  767800    295.47532   -1476.8842    494.40211    345.69769     80.31827      39457.2 
  767900    300.92134   -1472.1243      481.228    361.76368    660.71639      39457.2 
  768000    306.13145   -1491.0683    469.61711    354.62855    184.95952      39457.2 
  768100    304.56069   -1495.1798     470.1858      344.025    335.12158      39457.2 
  768200    305.78388   -1530.6092    480.29998    324.20813    562.19532      39457.2 
  768300    298.85835   -1486.7145    481.14242    337.81464    234.92732      39457.2 
  768400    296.69274   -1509.2577    475.33579    299.73019    45.990771      39457.2 
  768500    296.80392   -1519.1338    496.08603    311.10409    58.356507      39457.2 
  768600    299.92533   -1527.0732    467.62616    288.73579   -63.671876      39457.2 
  768700    299.03866    -1508.303    474.35249    310.24666      81.2287      39457.2 
  768800    305.15531   -1478.8322    502.75315    395.61284    228.99687      39457.2 
  768900    302.01537   -1465.5752    477.97517    369.97762   -41.508785      39457.2 
  769000    311.44484   -1481.6169    496.85441    415.20123   -40.370569      39457.2 
  769100    302.49009   -1439.8326    485.24526    405.12423    227.22953      39457.2 
  769200    306.69606   -1474.1912    488.75511     393.1816   -156.94017      39457.2 
  769300    290.29434   -1458.0717    484.05718    330.87642    867.32974      39457.2 
  769400    300.81491   -1497.9673    495.37591    349.59011    833.75725      39457.2 
  769500    308.31235   -1467.3324    522.75185    441.30243    953.52961      39457.2 
  769600    293.88206    -1481.837    506.41097     345.5919    316.92115      39457.2 
  769700     304.8966   -1477.9936     458.6145    351.14987    245.03047      39457.2 
  769800    295.87847    -1463.086    483.33418    350.24011   -377.51927      39457.2 
  769900    298.90324    -1475.336     465.9266    334.17909    191.19195      39457.2 
  770000    299.19304   -1465.0656    475.22033    355.04593    37.045988      39457.2 
  770100     291.7551   -1451.4665     503.5731    363.56375   -66.675469      39457.2 
  770200    309.15094   -1475.9307      478.588    392.30979    -368.3124      39457.2 
  770300    310.55278   -1440.6432     489.6215    444.93218   -287.40796      39457.2 
  770400     302.9406   -1443.7417    499.43124    417.42624     396.6365      39457.2 
  770500    303.17712     -1450.89    470.48277    382.39261    9.5869288      39457.2 
  770600    304.36037   -1457.0163    488.56967    399.67195    343.78753      39457.2 
  770700    313.69136   -1463.6409    515.99132    462.41242    796.35256      39457.2 
  770800    303.91145   -1468.9545    479.92163    377.06784    333.65252      39457.2 
  770900    303.45027   -1407.4271    496.68601    453.28654   -159.22622      39457.2 
  771000    291.53671   -1438.7875    494.21724     365.9052   -354.21247      39457.2 
  771100    302.80691   -1507.4737    472.16917    325.83117   -252.12355      39457.2 
  771200    307.08435   -1490.8694     525.1382    414.63185   -84.912847      39457.2 
  771300    297.56463   -1505.0561    504.61636    337.13162   -413.93718      39457.2 
  771400    308.23326   -1494.2893    490.31957    381.55776   -310.33093      39457.2 
  771500    296.65709   -1528.4267    469.38574    274.45092    -563.6789      39457.2 
  771600    304.93448   -1491.6598    470.46659    349.50611    117.43184      39457.2 
  771700    304.35162   -1495.7245    497.00905    369.36383    -240.8798      39457.2 
  771800    300.95747   -1550.9295     482.3247    284.21755   -333.39575      39457.2 
  771900    293.73784   -1542.5207    478.54682    256.39575    468.99377      39457.2 
  772000    296.77739   -1533.0213    471.21799    272.22931   -128.40545      39457.2 
  772100    303.88034   -1503.5461    492.37407    354.78882   -192.10772      39457.2 
  772200    301.13985   -1507.5823    499.06885    345.12871    26.171134      39457.2 
  772300    308.48396   -1503.7649    495.50742    378.39689    192.05125      39457.2 
  772400    299.32555   -1501.4602    497.31699    341.34353    413.73428      39457.2 
  772500    297.38418   -1506.6736    484.20963    314.29619    591.28985      39457.2 
  772600    301.10375   -1498.0814     489.5129     344.9114     234.3821      39457.2 
  772700    312.02344    -1496.553    482.74808    388.75971    103.13325      39457.2 
  772800    303.74493   -1457.0606    487.64069    395.93221   -40.332308      39457.2 
  772900    302.78309   -1505.2228    493.90268    349.70852   -252.74595      39457.2 
  773000    293.06637   -1508.5534    487.25179    296.04975    91.181985      39457.2 
  773100    294.38741   -1481.9819    481.48658    322.79424   -286.93796      39457.2 
  773200    304.77839   -1436.0422    494.38547    428.34093   -374.49551      39457.2 
  773300    298.53205   -1490.3379    509.99706    361.57913    78.922102      39457.2 
  773400       297.08   -1463.8128    474.45361    346.03366   -170.45841      39457.2 
  773500    288.53289   -1478.6751    474.09806    292.39605   -533.20923      39457.2 
  773600    304.49612   -1477.6684    485.50178    376.56221   -437.32416      39457.2 
  773700    295.58572   -1497.6603     495.0013      326.017   -104.97321      39457.2 
  773800    294.86053   -1512.6743    493.08727     305.8292    158.98586      39457.2 
  773900    306.11312   -1508.2068    484.82635    352.61692     143.2287      39457.2 
  774000    293.23825   -1462.8883    477.80222    333.03784   -391.16309      39457.2 
  774100    306.33555   -1484.4286    502.58927    395.15775   -370.19244      39457.2 
  774200    315.73738   -1524.7506    447.77443    342.28278   -59.669407      39457.2 
  774300    296.82492   -1480.8674    459.00016    312.37904    40.314384      39457.2 
  774400    300.25873   -1552.5666    465.75907    262.87393   -415.80901      39457.2 
  774500    301.15113   -1573.2944    476.64298    257.04141   -454.00835      39457.2 
  774600    308.19344   -1552.2037    461.27461    294.41936   -410.51766      39457.2 
  774700    307.93751   -1539.4085    467.91863    312.70818   -121.07277      39457.2 
  774800    305.68231   -1569.8926    472.39854    276.56673    178.64362      39457.2 
  774900    299.42464   -1544.8333    447.08552    248.18438    138.18209      39457.2 
  775000    297.13576   -1558.0292    473.54125    251.15557   -159.91005      39457.2 
  775100     288.2301   -1552.5758    469.83023    212.86641   -286.80937      39457.2 
  775200    299.09313   -1560.7379     478.6046    262.30877    644.24359      39457.2 
  775300    314.10056   -1570.2155    474.69954    316.38536    645.37904      39457.2 
  775400    299.44711   -1563.1575    450.63074    233.50644    528.72874      39457.2 
  775500    310.20233   -1508.5606    500.07342     385.8914    792.67498      39457.2 
  775600    301.75188   -1519.7817    456.92496    293.53654   -13.681917      39457.2 
  775700    307.16544   -1541.3292    495.13629    334.53462   -165.54123      39457.2 
  775800    292.47697   -1560.1963    462.87305    217.37877   -62.645783      39457.2 
  775900    303.92094   -1560.4387    479.52597    285.23055   -363.13184      39457.2 
  776000     296.7303   -1562.9448    470.74242    241.61854   -237.13566      39457.2 
  776100    301.65807    -1569.073    494.41281    281.31143    -613.3032      39457.2 
  776200    301.28886   -1570.2997     484.0962    268.10843   -1078.1595      39457.2 
  776300    307.60866   -1559.8909    447.95969    270.78868   -367.90992      39457.2 
  776400    298.19349    -1553.046    463.17314    250.52527   -595.03375      39457.2 
  776500    303.81956   -1553.4205     487.9272    300.19429   -78.228186      39457.2 
  776600    308.79331   -1549.7487    479.32634    317.62254    -262.7543      39457.2 
  776700    301.38462   -1546.0498    470.52712    279.21973   -423.19549      39457.2 
  776800    296.12252   -1507.0856    481.98514    305.98846   -375.46667      39457.2 
  776900    292.15693   -1518.6132    482.21515    276.86532   -647.29838      39457.2 
  777000    308.05079   -1520.5335    487.14668    351.32042   -239.58661      39457.2 
  777100    293.65371   -1519.5174    478.52302    278.99706   -173.01441      39457.2 
  777200    299.53387   -1512.1073    497.46889    331.78478   -360.87548      39457.2 
  777300    301.71045   -1509.0748    451.40866    298.54087    329.99731      39457.2 
  777400    298.66867    -1534.268    488.81217    297.07827    96.311498      39457.2 
  777500    290.26077   -1506.5318    482.85847     281.0667   -14.183748      39457.2 
  777600    299.07904   -1466.9703    496.79122    374.19961    445.74454      39457.2 
  777700    289.80181   -1503.7185    507.28685    306.24533    146.10433      39457.2 
  777800    294.69474   -1502.4688    501.26218    323.46434    289.83503      39457.2 
  777900    298.87842   -1489.7742    502.19846    355.90114    -430.8432      39457.2 
  778000    297.00119   -1494.5099    462.58968    303.11838   -423.29271      39457.2 
  778100    290.89897   -1496.6224    465.16774    276.15414   -402.94298      39457.2 
  778200     296.4463   -1514.5003    483.80928    301.85331   -237.49829      39457.2 
  778300    305.02294   -1505.1662    505.65443    371.58511   -23.290051      39457.2 
  778400    296.99889   -1513.5981    523.13443    344.56466   -73.603902      39457.2 
  778500    300.74745    -1517.829    490.17368    324.22298    172.44727      39457.2 
  778600    305.85567   -1483.2377    482.93229    374.53467    -477.0049      39457.2 
  778700    302.07603   -1520.6677    471.14531    308.32793    291.54605      39457.2 
  778800    302.78788   -1553.7675    487.09053    294.37315    196.07367      39457.2 
  778900    303.94999   -1515.2021    470.93147     322.0033    364.93956      39457.2 
  779000    308.93621   -1500.4544    496.19189    384.42476    670.80184      39457.2 
  779100    289.87954   -1497.1636    505.40322    311.26599    139.80095      39457.2 
  779200    311.63601   -1502.1311    514.53745    413.22936    880.90184      39457.2 
  779300    302.44015    -1514.038    493.14364    338.59273   -9.1847248      39457.2 
  779400    300.69433   -1535.5787    506.91718    322.97802   -405.49792      39457.2 
  779500    301.01694   -1541.8936    487.13696    298.33306   -478.33752      39457.2 
  779600    296.64746   -1542.9093    495.24405    285.78336   -675.80862      39457.2 
  779700    295.00101   -1560.4662    476.64287    242.22441   -250.61435      39457.2 
  779800    293.32767   -1557.9271    482.34981    242.94859   -210.90249      39457.2 
  779900    303.05055   -1548.4517    501.42738    315.20657   -576.40009      39457.2 
  780000    305.18872   -1548.7621    504.90982    327.98983    261.52749      39457.2 
  780100    303.05045   -1549.4413    473.34191    286.13102    160.85771      39457.2 
  780200    297.70096   -1543.9047     469.1497    263.42919    82.091238      39457.2 
  780300    308.72083   -1541.1392    495.49485    342.07477    425.78236      39457.2 
  780400     303.7877   -1550.5372    507.26535    322.27255   -144.03081      39457.2 
  780500    295.23569   -1540.4568    476.15771    262.80347   -265.22457      39457.2 
  780600    301.97911   -1504.2774    521.83679    374.97406   -123.26245      39457.2 
  780700    294.10335   -1554.9601    489.94579    256.99836   -380.80461      39457.2 
  780800    291.61398   -1529.8075    506.52973    287.54505    174.33222      39457.2 
  780900    298.75193   -1506.3883    517.50534    354.02539    499.75533      39457.2 
  781000    307.37255   -1520.8611    501.19217    361.98964    439.56148      39457.2 
  781100    295.80989   -1442.7349    479.08115    366.02996   -212.18939      39457.2 
  781200    298.25102   -1508.8807    497.10316    328.87918    -550.9818      39457.2 
  781300    295.40782   -1512.0149    481.01372    296.87517   -1246.3568      39457.2 
  781400    296.63514   -1523.1749    473.40711    283.62539   -436.77352      39457.2 
  781500    296.04919   -1516.4804    497.14707      311.426   -629.60201      39457.2 
  781600    306.14681   -1496.4564    495.34532    375.03766   -396.61487      39457.2 
  781700    296.97932   -1472.3927    509.99392    372.54159    -582.9056      39457.2 
  781800     298.1928   -1488.6174    493.83068    345.60831    62.410983      39457.2 
  781900    296.77438   -1484.8726    514.27288     363.4194   -511.46573      39457.2 
  782000    296.03275   -1486.4668    506.39018    350.60883   -126.33228      39457.2 
  782100     295.4625   -1519.2585    485.51359    294.37719   -235.68351      39457.2 
  782200    296.14472   -1511.9841    505.70404    324.90872   -61.057436      39457.2 
  782300    300.89566    -1496.031    505.44631    361.95978   -191.06671      39457.2 
  782400    307.00852   -1464.1646    514.87315    430.73076    426.11895      39457.2 
  782500    293.75384   -1458.5227     520.5325    382.45135   -221.93577      39457.2 
  782600    306.59945   -1516.3301    492.84726    354.70059     56.72324      39457.2 
  782700     303.7541   -1523.4869    480.75315    322.65966    -99.02751      39457.2 
  782800    292.03918   -1518.8081    504.73227    298.65829   -265.59688      39457.2 
  782900    294.56251   -1518.0925    523.16961    329.15367    240.83424      39457.2 
  783000     292.6644   -1540.4348    482.10156    257.21122   -175.02393      39457.2 
  783100    293.46445   -1491.4309    512.01196    339.72187   -254.31417      39457.2 
  783200    302.09632   -1516.7094    475.71206    316.94424   -323.83672      39457.2 
  783300     297.9997    -1520.349    502.92295    322.10094   -204.76546      39457.2 
  783400    302.18418   -1521.8469    479.67422    316.16385   -73.573574      39457.2 
  783500    290.90073   -1539.1266    496.48899    264.97905   -530.37751      39457.2 
  783600    296.09774   -1471.5806    515.34497    374.74199   -237.83195      39457.2 
  783700    291.22268   -1468.4712    522.89355    363.48618   -408.13705      39457.2 
  783800    298.10155   -1535.2666    511.95138    316.66962    37.652735      39457.2 
  783900    290.98007    -1508.581    471.25807    270.65041   -341.96661      39457.2 
  784000    298.74004   -1527.1594    502.75685    318.45231   -629.05611      39457.2 
  784100    302.33131   -1515.7873    463.07475    306.28536   -309.45321      39457.2 
  784200    297.46962    -1512.696    511.82257    336.27079    -731.5546      39457.2 
  784300    303.45218   -1517.6719    492.88433    339.24866   -912.44453      39457.2 
  784400    297.29281   -1523.7924    487.99735    300.55448   -633.82881      39457.2 
  784500    301.26706   -1503.9371    510.77713    361.05404   -581.01478      39457.2 
  784600    298.10916   -1552.0077    507.50244    295.51381   -390.66104      39457.2 
  784700    301.21302   -1516.0336    488.78384    326.72132   -640.71058      39457.2 
  784800    301.77124   -1491.7931    500.44077    365.12796   -374.02701      39457.2 
  784900    298.38712    -1486.907    533.68128    388.04276    105.50323      39457.2 
  785000    295.72688   -1502.9035    507.35863    333.76563   -348.36249      39457.2 
  785100    298.85415   -1496.3214    514.43043    361.47686   -240.41575      39457.2 
  785200    295.33719   -1565.0699    484.33694    246.82586   -414.90988      39457.2 
  785300    306.98954   -1522.6987    496.46455    353.70276   -125.64491      39457.2 
  785400    301.07309   -1507.4973    500.02706    345.87184   -182.36624      39457.2 
  785500    311.24032    -1510.422    495.64968     384.2721   -305.72799      39457.2 
  785600    293.47327   -1539.0059    505.20009    285.37458   -493.53209      39457.2 
  785700    292.38281   -1493.7567    513.19329    333.71532   -107.98875      39457.2 
  785800    297.05333     -1521.67    480.31075    293.91373   -146.87101      39457.2 
  785900    307.45509   -1546.2755    484.71782    320.47189    351.83627      39457.2 
  786000    309.67183   -1567.2138    478.08882    302.86898   -144.87977      39457.2 
  786100    303.85817   -1533.8511    491.22724    323.23729    863.01471      39457.2 
  786200    299.25332   -1502.9959    496.57795    338.74415    249.01308      39457.2 
  786300    306.60858   -1521.8905    519.81974    376.15365   -205.28075      39457.2 
  786400    305.87682   -1532.2883    492.96882    335.61561   -106.28058      39457.2 
  786500    302.11573   -1549.3175    471.31063    280.02196   -606.46954      39457.2 
  786600    307.26592   -1545.3783    511.54121     347.3421   -775.65629      39457.2 
  786700    301.34628   -1486.9548    481.37908    348.99432   -850.66147      39457.2 
  786800    304.82199   -1495.8726    501.14171    375.46272   -840.66142      39457.2 
  786900    299.20114   -1516.5212    503.99044    332.39679   -224.05928      39457.2 
  787000    295.63889   -1466.8865    493.71037    355.73892   -15.363771      39457.2 
  787100     308.7176   -1521.5398    510.67316    376.83796    263.52145      39457.2 
  787200    296.19417    -1519.496     522.2934    334.20845    527.90593      39457.2 
  787300    293.68498   -1506.3331    499.66999    313.46891    774.18701      39457.2 
  787400     298.6285   -1487.2438    507.16783    362.27752    517.01312      39457.2 
  787500    302.36941   -1500.2135    517.51413    376.46979    879.88227      39457.2 
  787600     293.2154   -1508.8844    511.76494    320.90178    96.931477      39457.2 
  787700    292.57935   -1475.9807    498.14085    337.32231   -329.12826      39457.2 
  787800    298.59256    -1468.983     482.9047    356.11367   -342.36527      39457.2 
  787900    303.21854   -1473.8717    492.98877    382.10312   -231.42635      39457.2 
  788000    303.90626   -1506.5317    517.99678    377.54248    82.652553      39457.2 
  788100    297.84439   -1494.2668    485.02194    329.58401   -828.97445      39457.2 
  788200    298.98684   -1458.5021    504.20166    389.66377    -1182.048      39457.2 
  788300    301.86153   -1495.2018    471.01411    332.69848   -848.76207      39457.2 
  788400    311.48013   -1486.8669    484.90542    398.16091   -652.35297      39457.2 
  788500    298.99337   -1525.9608    496.28368    314.31646   -811.35051      39457.2 
  788600     300.8421   -1515.9294    494.22995    330.60433   -466.98978      39457.2 
  788700    298.63527   -1532.7966    497.53762    307.12496   -62.072615      39457.2 
  788800    297.87751   -1498.6527    494.97682    335.30183   -38.527514      39457.2 
  788900    303.26212   -1482.5972    502.00655    382.59126   -116.32311      39457.2 
  789000    293.83859    -1453.887    529.62082    396.55633    18.047621      39457.2 
  789100    304.67422   -1495.1925    499.83758    374.17444    553.10466      39457.2 
  789200    292.90345   -1502.4234    522.76061    336.95619      391.341      39457.2 
  789300     299.0106   -1510.7026    483.35275    316.72118    -111.1821      39457.2 
  789400    298.78081   -1518.6445    512.89359    337.28725    399.10987      39457.2 
  789500    302.86805   -1481.7609    490.97292    370.62253   -51.704481      39457.2 
  789600    299.19404   -1509.1426    493.33518    329.08819   -295.50637      39457.2 
  789700    304.38284   -1502.9374    521.27946    386.56164   -415.58518      39457.2 
  789800    299.80439   -1532.8482    465.95291    280.74393    412.44322      39457.2 
  789900    294.56038   -1509.2014    501.61342    316.47905    525.36809      39457.2 
  790000    301.53057    -1522.809    473.61823    306.20775   -52.944999      39457.2 
  790100     310.8039   -1523.7851    484.35895    357.65655    103.29398      39457.2 
  790200    307.12127    -1510.941    500.54355    370.13155   -441.42715      39457.2 
  790300    301.33392   -1511.4801    492.66124    335.69566   -742.87352      39457.2 
  790400    289.36387   -1550.9191    488.35547    238.14477   -762.63256      39457.2 
  790500    296.05821   -1532.7933    479.83518    277.84178   -700.42011      39457.2 
  790600     294.7039   -1526.4155    482.91185    281.20845   -464.11347      39457.2 
  790700    302.35584   -1527.7341    467.74702    299.12099    -698.0901      39457.2 
  790800    301.57325   -1535.7221    495.28694    315.15514   -383.49805      39457.2 
  790900    295.33104   -1540.2159    499.95158    287.26687     137.8748      39457.2 
  791000     290.6135   -1551.8137    483.02413    237.53601   -145.97942      39457.2 
  791100    294.21305   -1535.9218    496.64398    283.22795   -290.16479      39457.2 
  791200    302.76621   -1562.3743      481.365    279.94346   -279.72609      39457.2 
  791300    303.13848   -1573.0309    494.00484     283.6001    294.66508      39457.2 
  791400      302.401   -1495.5813    495.86803    359.59787    562.53629      39457.2 
  791500    310.96993   -1546.8448    486.48183    337.46602    317.15893      39457.2 
  791600    293.78249   -1578.4478    485.50885    227.63145    305.42807      39457.2 
  791700    290.21445   -1552.0614    487.62739    240.09779    548.53566      39457.2 
  791800    308.25664   -1537.9189     493.0858    340.79947    141.19849      39457.2 
  791900    300.15895   -1554.7987    483.47771    277.91197    510.30042      39457.2 
  792000    302.10961   -1575.1809    481.41684    264.23722    303.10162      39457.2 
  792100    303.05724    -1595.078    480.00897    247.19189    447.24985      39457.2 
  792200    300.77343   -1605.2956    484.31107    231.01056    310.43268      39457.2 
  792300    289.66807   -1581.7248    489.45187    209.80287    286.04029      39457.2 
  792400    305.79539   -1539.1906    497.36091     332.7394    202.77499      39457.2 
  792500    292.55131   -1528.5208     492.2545    278.76981   -116.53186      39457.2 
  792600     313.2349   -1552.8842    498.78985    353.91577    416.68051      39457.2 
  792700    306.87941   -1599.9409     470.3423    249.84327   -175.39214      39457.2 
  792800    299.87317   -1566.2098    483.08021    264.81871   -324.34495      39457.2 
  792900    312.28498   -1572.9906    444.94216    275.69176   -258.60799      39457.2 
  793000    294.82697   -1553.2027    458.54494    230.60759   -314.35356      39457.2 
  793100    302.22582   -1522.4493    478.17042    314.24479   -133.06988      39457.2 
  793200    303.35673   -1505.3269     522.1994    380.47969   -570.66104      39457.2 
  793300    302.53934   -1505.1157    491.35947     346.1767    -158.5993      39457.2 
  793400    303.67288   -1539.1637    509.04043    334.90499   -83.619124      39457.2 
  793500    291.72319   -1531.8922    468.98096    248.40249   -298.80118      39457.2 
  793600    305.99961   -1546.1088    493.93186    323.31016   -2.3111065      39457.2 
  793700    289.53644   -1497.7669    489.35988    293.07711    195.34208      39457.2 
  793800    295.50357    -1514.156    498.95895    313.10969    214.32298      39457.2 
  793900    305.45402   -1544.8555    484.22101    312.40011    604.57509      39457.2 
  794000    296.56293   -1555.7015    471.20506    248.57216    319.88424      39457.2 
  794100    297.53331    -1557.324    477.21121     257.3177    54.840131      39457.2 
  794200    294.50741   -1508.5435    466.13298    281.41842     317.4588      39457.2 
  794300    309.12586   -1509.7301    505.24853    385.05814    462.85554      39457.2 
  794400     293.6108    -1524.602    491.54761    286.74422    583.92716      39457.2 
  794500    295.27308   -1529.8289    497.92195    295.36371    134.19581      39457.2 
  794600    299.07047   -1538.8209    487.83932    293.35863    541.52797      39457.2 
  794700    304.18981   -1551.7306    478.67752    294.29882    307.17869      39457.2 
  794800    292.54808   -1527.9413    495.38577    282.46616    281.59175      39457.2 
  794900    307.54263    -1547.909     480.8449    315.35895    400.02295      39457.2 
  795000      298.591   -1540.3664    465.70776    267.52627    35.959105      39457.2 
  795100    301.04886   -1504.7251    493.97262    342.48065    90.748204      39457.2 
  795200    294.77205   -1500.3401     501.6142    326.29265    310.25355      39457.2 
  795300    304.65518   -1533.7587      490.732    326.41709   -180.67984      39457.2 
  795400    294.58295   -1503.5654    502.96625    323.56932   -133.43032      39457.2 
  795500    293.81678   -1495.9295    490.33342    315.12843   -146.34323      39457.2 
  795600    299.17646    -1490.883    488.98011    342.91374   -50.291463      39457.2 
  795700    305.98629   -1516.6333    470.71625    329.51013   -207.32637      39457.2 
  795800    292.21497   -1556.0867    495.70365    253.14123   -474.09329      39457.2 
  795900     300.2429   -1535.8262    452.56736    266.35148   -500.11818      39457.2 
  796000     296.6756   -1534.1396     480.2571    279.69259    284.72116      39457.2 
  796100    295.71864   -1518.3963    499.33681    310.21398      224.898      39457.2 
  796200    307.07002   -1499.0335    473.54692    354.81205     511.3165      39457.2 
  796300    293.30039   -1545.1272    477.45178    250.72784    590.29557      39457.2 
  796400    293.42923   -1545.9077    499.04787    272.12257     19.82209      39457.2 
  796500    301.41876   -1551.6161    472.87642    276.15619     434.7778      39457.2 
  796600    304.14542   -1528.2934    486.08287    324.94188    92.845351      39457.2 
  796700    308.90599   -1536.8869    485.56186    337.22636    336.95892      39457.2 
  796800    291.09589   -1558.2906     495.1132    245.31657   -118.55652      39457.2 
  796900    296.30245   -1497.7671    499.23357     333.3642   -233.30709      39457.2 
  797000    300.22609   -1478.3176    499.21177    370.42886   -198.51772      39457.2 
  797100    313.17674   -1490.0595    476.03509    393.72435    5.4728297      39457.2 
  797200    304.06852   -1505.7834     490.4525    351.47575   -22.196953      39457.2 
  797300    300.01221   -1517.2233    496.18887    327.53888   -149.22175      39457.2 
  797400    296.64486   -1531.8193    473.68058    275.29824   -197.36955      39457.2 
  797500     301.9506   -1518.1399    479.96206     319.1087   -511.70209      39457.2 
  797600    296.28514   -1503.6171      478.963    307.16589   -554.57402      39457.2 
  797700    304.26574   -1523.6817    463.84738     307.8589    104.32452      39457.2 
  797800    291.36038   -1542.5063    459.38137     226.5579    364.58915      39457.2 
  797900     308.7509   -1513.9993    502.70363    376.55856    687.10584      39457.2 
  798000    292.69106    -1539.605     490.0277    266.08705    482.30245      39457.2 
  798100    300.12485   -1539.1488    477.36702    287.29784    1334.1399      39457.2 
  798200     309.5892   -1556.7617    488.35987    323.22073    515.86921      39457.2 
  798300    305.95207   -1542.2869    464.16233    297.14879    103.04593      39457.2 
  798400    305.21234   -1555.2906    502.30325    318.96093     -878.938      39457.2 
  798500    298.53812   -1571.3428    485.31724     255.9217   -466.77351      39457.2 
  798600    294.21536     -1551.06    487.46482    258.92093   -292.59356      39457.2 
  798700    301.04822   -1571.4517    491.59773    273.37632   -193.19958      39457.2 
  798800    298.97322   -1547.0413    493.29546    290.15717   -421.29944      39457.2 
  798900    299.78887   -1541.9946    502.27378    307.84858    9.6399663      39457.2 
  799000     310.6793   -1544.8696    478.10075    329.75369   -291.90852      39457.2 
  799100    290.32759   -1518.1658    495.40416    282.27881    69.844768      39457.2 
  799200    295.86427   -1538.1023     497.4545    289.28034    304.49993      39457.2 
  799300    300.83197   -1530.0507    511.23595    333.44348    131.21477      39457.2 
  799400    300.14396    -1532.067    515.76757    332.86621    67.892369      39457.2 
  799500    297.48107   -1530.2223    492.27548    299.24894   -401.62875      39457.2 
  799600    297.97464   -1491.7324    469.11163    316.79362    168.98746      39457.2 
  799700    290.41984   -1515.7179    511.50648    301.24362   -231.61884      39457.2 
  799800    302.06289   -1557.9569    513.21307     313.0474    110.39789      39457.2 
  799900    302.77729    -1515.738    474.58843    319.85302    -42.34086      39457.2 
  800000    300.89467   -1524.4845    478.19794    306.25344     135.2766      39457.2 
  800100      311.128   -1518.1372    469.86908    350.27135    80.996936      39457.2 
  800200    292.97429   -1488.6915    484.00721     312.2532    161.29713      39457.2 
  800300    291.80616   -1474.6691    484.90896    321.92647    561.69696      39457.2 
  800400    288.88679   -1503.1306     509.6912     305.1245   -340.23127      39457.2 
  800500      297.788   -1531.8345    457.89148    264.63241   -232.03021      39457.2 
  800600    300.56582   -1533.3778    474.34572    292.02978   -631.01764      39457.2 
  800700    306.79064   -1535.5101    460.07947    303.61216   -263.47068      39457.2 
  800800    302.31088   -1530.6694    466.83692     295.0735   -263.49615      39457.2 
  800900    300.35593   -1488.9436    518.46675    379.64153   -357.06103      39457.2 
  801000    293.96179   -1492.3431    477.08346     306.1167   -182.87041      39457.2 
  801100    296.63012   -1492.6592    477.17194    317.88335    -187.0482      39457.2 
  801200     293.8997   -1452.2599    505.97442    374.81175   -656.69072      39457.2 
  801300    288.46182   -1503.0623    476.07239    269.66377   -427.87586      39457.2 
  801400    283.16244   -1488.3623    479.03015    263.50044    111.27574      39457.2 
  801500    300.06763    -1511.264    521.79738    359.35586   -36.773788      39457.2 
  801600    300.43948   -1485.8029    456.83285    321.52388   -119.33767      39457.2 
  801700    312.53113   -1486.9956    528.31542    446.16647   -306.86854      39457.2 
  801800    295.93828   -1499.8784    479.82335    310.20576    99.217662      39457.2 
  801900    290.40246   -1485.8424    494.69812    314.23264      225.943      39457.2 
  802000    292.43563   -1506.6396    482.25705    290.13358    733.36823      39457.2 
  802100    297.25049    -1501.113    484.92188    319.96814    170.63311      39457.2 
  802200    301.08663   -1535.6762    485.04641    302.77318    447.04338      39457.2 
  802300    303.77972   -1526.2593    476.76197    316.01116    117.02416      39457.2 
  802400     305.8119   -1495.7556    478.46703    357.35473   -244.64714      39457.2 
  802500    301.06115   -1506.4556    492.38706    339.21989    77.195508      39457.2 
  802600    299.02651   -1509.0726    504.86997    339.93993    54.140412      39457.2 
  802700    308.07023   -1496.8397    502.27242    390.22734    568.38964      39457.2 
  802800    300.32205   -1548.6021    466.60839    267.97239    699.83429      39457.2 
  802900    302.04336   -1525.5851    487.99461    320.11302    866.06136      39457.2 
  803000    292.09292   -1517.3308    470.77014    266.41501    316.63757      39457.2 
  803100    296.10745   -1512.9553    498.56087    316.62674    176.22066      39457.2 
  803200     304.9628   -1526.8171    477.67918    321.68865   -364.21126      39457.2 
  803300    306.76676   -1462.6225    493.17708    409.49011   -48.396142      39457.2 
  803400    309.47946    -1524.592    471.56952    338.10674   -346.44875      39457.2 
  803500    291.71738   -1478.0142    477.07155    310.34499   -311.90129      39457.2 
  803600    295.67351   -1461.4698    489.94873    357.54957    -195.5938      39457.2 
  803700    294.56788   -1462.9897    494.65485     355.7659   -617.66736      39457.2 
  803800    284.39247   -1497.3467    469.39056    250.40552    352.75521      39457.2 
  803900    291.17457   -1514.2383    492.55605    287.16535    739.67795      39457.2 
  804000      286.658   -1511.4221    507.93946    285.06271    543.46648      39457.2 
  804100    299.64358   -1516.8484    476.05319    306.12116    218.54619      39457.2 
  804200    297.08477   -1507.3973    463.18321    291.20022    302.74583      39457.2 
  804300    298.85091   -1541.4292    463.34389    265.26796     39.73714      39457.2 
  804400    300.36407   -1520.6993     471.0271    300.48276    309.13365      39457.2 
  804500    306.11273   -1494.3343     509.2706    390.93189     733.7181      39457.2 
  804600    291.23206   -1508.2105    488.88492     289.7805     642.4366      39457.2 
  804700    303.02975   -1492.7917    473.37171    342.71739    575.36418      39457.2 
  804800     302.8876   -1546.9088    491.53282    306.12236    512.67281      39457.2 
  804900    299.55491   -1524.8877    461.88688    283.51693    94.946998      39457.2 
  805000    302.70043   -1512.1932    481.55985    330.02375    227.12074      39457.2 
  805100    301.05698   -1474.7269    476.05412    354.59687   -451.14179      39457.2 
  805200    288.78258   -1467.1593    493.79203    324.72818   -455.04295      39457.2 
  805300    295.42456   -1443.9529     487.9437    371.94236   -516.55803      39457.2 
  805400    297.41647   -1452.0397    495.31072    380.17636   -1078.3535      39457.2 
  805500    291.14565   -1474.2804    479.64978    314.08701   -328.79977      39457.2 
  805600    294.24357    -1501.227    514.17082    335.58677    -100.7573      39457.2 
  805700    307.54017   -1484.9955    492.64173    390.05821    249.49387      39457.2 
  805800    296.29341   -1495.1549    461.94003    298.64223   -214.83235      39457.2 
  805900    292.91421   -1505.0405    494.33433    305.96126    217.51962      39457.2 
  806000    303.70917   -1523.1548    463.86743    305.90409    129.29493      39457.2 
  806100    291.78243   -1495.6573    482.41714    298.33984    152.42043      39457.2 
  806200    289.75227   -1499.3371    500.58196    303.69913    13.977734      39457.2 
  806300      305.736   -1498.4041     478.3765    354.27454    16.630857      39457.2 
  806400    303.83604   -1535.1399    492.83327    323.45511     -379.498      39457.2 
  806500    297.14398   -1533.9944    489.63122    291.31726   -688.94097      39457.2 
  806600    290.90606   -1535.7843    474.83966    246.69594   -564.05439      39457.2 
  806700    310.54032   -1514.1117    478.30245    360.08857    -584.7249      39457.2 
  806800    288.88677   -1498.1918     478.5719    278.94392    -696.4933      39457.2 
  806900    304.52636   -1495.6615    484.88224     358.0855   -496.49334      39457.2 
  807000    307.38476   -1523.1116    471.44725    330.04904   -549.08148      39457.2 
  807100    301.02946   -1533.9073    473.79956    293.03821   -33.578718      39457.2 
  807200    305.83319    -1523.359    482.34075    333.72081     272.2778      39457.2 
  807300    313.45285   -1477.1477     488.5726    420.41473    401.03091      39457.2 
  807400    300.50834   -1517.6086    510.87344    344.06833    679.46463      39457.2 
  807500    308.31513   -1535.8079    468.41828    318.50583     391.3502      39457.2 
  807600    301.41791   -1508.7036    490.83972    337.02816    618.76057      39457.2 
  807700    292.53293   -1523.0043    467.04548    258.99469    589.95075      39457.2 
  807800    305.04109   -1524.6753    505.31876    351.82189    287.32036      39457.2 
  807900    307.55072    -1495.826    464.15614    350.78955    394.31657      39457.2 
  808000    293.87093   -1466.9718    488.27625    342.27233   -33.318792      39457.2 
  808100    304.34722   -1525.0878    466.50517    309.47688   -74.731881      39457.2 
  808200    303.31829   -1530.7414    465.98831    298.68133    333.94407      39457.2 
  808300    307.12577   -1526.8551    485.61748    339.31163    20.905714      39457.2 
  808400    310.42499   -1502.1114     464.5834    357.85148   -338.46348      39457.2 
  808500    289.76124   -1513.1866    479.48334    268.79131   -42.592992      39457.2 
  808600    303.45291   -1528.1273    475.29839    311.21059    537.79408      39457.2 
  808700    286.48937   -1554.7226    482.26606    215.33086    198.24552      39457.2 
  808800    298.27167   -1546.3542      490.686    285.08129    216.85901      39457.2 
  808900    287.62126   -1575.0018      468.034    185.90752   -183.33674      39457.2 
  809000    297.68747   -1546.9303    479.02409    270.21724   -220.45638      39457.2 
  809100    292.96701    -1556.011    481.02194    241.91572   -368.20962      39457.2 
  809200     293.1557   -1567.6614    477.08209    227.17358   -224.99114      39457.2 
  809300    300.93303   -1495.3462     513.2535    370.61979    266.42763      39457.2 
  809400    295.71599   -1541.6271    463.38639    251.02086   -399.37663      39457.2 
  809500    303.03965   -1574.9928    455.76358    242.95271   -364.17806      39457.2 
  809600     295.2697   -1539.5186    450.17131     237.9082   -184.56366      39457.2 
  809700    294.65208   -1507.1214    475.82571    293.18361   -660.79323      39457.2 
  809800    304.93225    -1498.259    468.75364    341.18384   -49.988986      39457.2 
  809900    309.45534   -1537.5438    470.52546    324.00246    286.67473      39457.2 
  810000    305.28581   -1513.0609    484.60022    343.81781    305.33833      39457.2 
  810100    307.70638   -1511.4705    495.08463    366.77321    611.12286      39457.2 
  810200    292.12362   -1491.8529    464.91067     286.1714    444.93485      39457.2 
  810300    298.32321   -1499.4404     487.0378     328.5786    5.9854459      39457.2 
  810400    295.33822   -1518.6312    481.82541    290.75771   -257.89389      39457.2 
  810500    297.78416   -1481.4109    489.07154    346.21871   -326.73939      39457.2 
  810600    301.82747   -1498.9923     481.6717    339.41241   -785.65792      39457.2 
  810700    310.42945   -1520.0262     484.0073    359.38065   -981.00151      39457.2 
  810800    306.70257   -1523.2467    474.59944    329.99968   -635.55291      39457.2 
  810900    291.27825   -1525.2214    493.74354    277.83582   -348.99473      39457.2 
  811000    302.34868   -1529.4501    470.83775    300.46352    96.390479      39457.2 
  811100     305.0771   -1521.5385    472.53996    322.34179    331.21981      39457.2 
  811200    304.85005   -1531.7259     499.1127    337.70659    1164.4482      39457.2 
  811300    292.67369   -1515.5301    467.12309    267.17919    807.37869      39457.2 
  811400    298.47103   -1541.3934    511.43712    311.68931     439.1361      39457.2 
  811500    299.49114    -1515.793    472.02262    302.46074    267.07023      39457.2 
  811600     309.3488   -1503.9146    478.83698    365.46432    357.16354      39457.2 
  811700    304.12039   -1531.0464    496.83083    332.82434    54.056695      39457.2 
  811800    291.81202   -1525.0943    472.05813    258.67687    22.774125      39457.2 
  811900    297.17134   -1543.6101    472.25991    264.45328     1108.289      39457.2 
  812000    301.48494   -1545.6531    482.89006    292.43032    229.96091      39457.2 
  812100    316.36084   -1524.9108    472.03418    369.18483    51.977869      39457.2 
  812200    302.78489   -1556.2983    481.95125    286.68967    38.416341      39457.2 
  812300    299.17155     -1562.33    473.47356    255.93813   -395.66792      39457.2 
  812400    294.70823   -1572.4409    490.51406     242.8048    187.99064      39457.2 
  812500    290.46085   -1553.5092    475.09297    227.22321    366.34349      39457.2 
  812600    305.67087   -1554.9692    481.36008    300.40021    225.74378      39457.2 
  812700    303.08263    -1536.187    479.63291    305.82102   -62.737661      39457.2 
  812800    289.74456   -1543.3973    442.56639    201.58869    185.91339      39457.2 
  812900    292.80844   -1523.8141    490.77878    283.15665   -75.002424      39457.2 
  813000    298.51696   -1524.4973    499.01562    316.37041   -144.64438      39457.2 
  813100    292.12414   -1502.2297    450.64466    261.53097   -232.36126      39457.2 
  813200    303.23739   -1524.4218    491.74199    330.39094     -65.6252      39457.2 
  813300    294.46881   -1536.9758    466.99852    253.67817    282.79338      39457.2 
  813400    294.74075    -1541.856    468.10129    251.12311    309.19947      39457.2 
  813500    294.54832   -1501.9288    515.29887    337.38295    71.043211      39457.2 
  813600    298.57859   -1509.8289    475.09186    307.39209    759.56104      39457.2 
  813700    293.98894   -1547.7542    474.66963     248.4138    681.17144      39457.2 
  813800    303.85123   -1524.4081    484.36025    325.78211   -28.513478      39457.2 
  813900    294.68421   -1514.6314    492.53709    302.52934   -188.19412      39457.2 
  814000    299.89818   -1495.4738     490.3958    342.98277    253.08626      39457.2 
  814100    299.36288   -1521.6121    488.75448    312.79699    248.51811      39457.2 
  814200    308.58192   -1508.0017    466.28106    345.37412   -147.45211      39457.2 
  814300    303.59502   -1482.3114    482.34931    364.71625   -274.33962      39457.2 
  814400    295.12714   -1506.7494    482.95501    302.82028     13.67515      39457.2 
  814500    297.72119   -1504.1359    476.74593    310.88505   -345.58738      39457.2 
  814600    306.44781    -1483.796    516.07952    409.78526    327.62028      39457.2 
  814700    302.73117   -1524.5509    464.54341    300.78778     535.8652      39457.2 
  814800    300.10826   -1524.1439    459.23767     284.0989     422.5133      39457.2 
  814900    295.30951    -1531.672    456.35201    252.11442    879.25266      39457.2 
  815000    303.33103   -1535.5495    494.79104    322.73319    1013.6032      39457.2 
  815100    299.09971   -1532.1946     477.3572    289.63425    662.86808      39457.2 
  815200     296.4358   -1562.0934     493.5212      263.925     430.9091      39457.2 
  815300    305.64677   -1563.0648    460.64559    271.48182    540.35855      39457.2 
  815400    300.56634   -1584.4714    470.09922    236.69205    898.21926      39457.2 
  815500    313.28567   -1523.2329    475.05086    360.05633    795.45346      39457.2 
  815600    302.60088   -1534.7774    482.80793    308.24012    849.65208      39457.2 
  815700     307.7216   -1558.9841    486.12828    310.37169    823.14234      39457.2 
  815800    294.64555   -1576.6924    494.18878    241.94629    307.74758      39457.2 
  815900    306.34888   -1528.4207    494.36824    343.00461     239.8187      39457.2 
  816000    300.19654   -1592.6643    477.82519     234.5628   -223.91807      39457.2 
  816100    293.45969   -1551.6962      469.583    237.00619    14.225857      39457.2 
  816200     300.2435   -1548.3959    496.67437    297.89147    514.39915      39457.2 
  816300    303.03856   -1537.7166    477.34587    301.80625    347.46561      39457.2 
  816400    311.13703   -1569.2761    476.07373    305.37775    8.1206778      39457.2 
  816500    296.76118   -1548.3267    477.68553    263.31864   -591.39355      39457.2 
  816600    293.94271   -1548.9034    469.83337    242.22061   -979.28269      39457.2 
  816700    296.59632   -1519.0818    482.79192    296.92883   -854.08564      39457.2 
  816800    293.68666   -1521.4913    498.42698    297.07524   -545.65364      39457.2 
  816900    297.59498    -1500.876    481.03108    317.86287    -667.1153      39457.2 
  817000     303.8019   -1502.0019    486.01822    349.62458   -351.19048      39457.2 
  817100    291.91299   -1548.8426    479.95819    243.28244   -472.29371      39457.2 
  817200    298.99186   -1519.2153    488.48732    313.25888   -556.76985      39457.2 
  817300    292.23558   -1478.1188    488.36384    323.86191   -812.55133      39457.2 
  817400    307.22057   -1479.1052    477.53161    379.40182   -354.77053      39457.2 
  817500    301.17446   -1469.5028    472.60874    356.90367   -717.24744      39457.2 
  817600    296.36668   -1495.1022    501.96291     339.0472   -278.50303      39457.2 
  817700    296.33927   -1502.1625      494.487    324.38781   -289.35256      39457.2 
  817800     295.6209   -1508.2671    479.83164    300.39869   -103.94445      39457.2 
  817900     296.1619   -1493.4532     483.8751    321.68781    38.872379      39457.2 
  818000     305.8612   -1480.1955     477.1868    371.85622    229.00826      39457.2 
  818100    290.87082   -1490.9238    496.14584    312.70431   -247.00993      39457.2 
  818200    296.10093   -1475.5766    490.77744    346.19274   -260.40287      39457.2 
  818300    301.47981   -1533.8676     480.7305    302.03323   -72.641515      39457.2 
  818400    304.71679   -1518.0418    473.38946    325.06837   -812.17588      39457.2 
  818500    305.12385   -1517.2521    455.71468     310.0131    -546.6268      39457.2 
  818600    300.88164   -1506.7526    508.13699    353.86585   -523.37786      39457.2 
  818700    296.72409   -1487.6448    490.44275    336.59102    24.102085      39457.2 
  818800    306.56442    -1514.725     516.2673    379.56826     66.12339      39457.2 
  818900    298.86772   -1523.8461    470.53076     290.1135     293.9969      39457.2 
  819000    301.62643   -1538.5537    463.52532    280.80094    381.61847      39457.2 
  819100     313.1346   -1507.3089    490.29135    390.54181    367.90643      39457.2 
  819200      300.695   -1487.7789    479.11641    342.98008   -128.24027      39457.2 
  819300    294.84675   -1474.4937     512.4037    363.26433    526.89155      39457.2 
  819400    297.85176   -1540.2667    481.48255     280.0778    338.82526      39457.2 
  819500     311.6556   -1508.9703    490.06476    382.00559    33.750021      39457.2 
  819600    310.82653   -1509.4338    459.86939    347.62002    170.40338      39457.2 
  819700    296.70215   -1544.6335    468.36584    257.42673   -16.263458      39457.2 
  819800    296.22809   -1536.8573    474.54117    269.24743   -313.26356      39457.2 
  819900     305.6875   -1528.7025    483.05806    328.43966    52.696408      39457.2 
  820000    290.37053   -1501.0246    485.04604    289.25484    283.76225      39457.2 
  820100    301.35068   -1538.4093     479.9286    296.10919    56.701314      39457.2 
  820200    287.83028   -1558.9104    483.00203     217.9064    144.23476      39457.2 
  820300    306.19351    -1552.955    465.45683    288.86052    784.10825      39457.2 
  820400    309.45423   -1563.8764    474.80359    301.94294   -178.78009      39457.2 
  820500    293.57449   -1586.4373    465.05054     198.2486   -84.627439      39457.2 
  820600     297.7557   -1559.4644    462.76108    241.72689     204.3268      39457.2 
  820700    299.73341   -1557.0647    485.82349    276.07894   -247.79681      39457.2 
  820800    305.78846   -1527.2572    485.37538    332.65617   -485.58177      39457.2 
  820900    294.84615   -1461.5077    495.10057    358.94445   -760.86894      39457.2 
  821000    303.70917   -1496.1048    497.20811    366.29466   -637.47231      39457.2 
  821100    308.56559   -1492.1137    505.72002    400.62768   -111.19121      39457.2 
  821200    291.70271   -1498.6945    494.86806    307.39522   -508.91082      39457.2 
  821300    301.16864   -1464.5011    475.43767    364.70814   -435.95168      39457.2 
  821400     300.4112   -1458.8704    522.54258    414.03902   -231.18959      39457.2 
  821500    303.61353   -1501.0075    476.58921    340.34321    328.16162      39457.2 
  821600    290.18612   -1481.8087    535.20805    357.80382    683.05516      39457.2 
  821700    298.03883   -1487.6738    473.49078    325.51987    741.97424      39457.2 
  821800    294.31337   -1499.4345     505.8038    329.32597    898.01026      39457.2 
  821900    300.77068    -1516.982    499.15961     334.1603    575.03635      39457.2 
  822000    297.64795    -1498.957    488.93939    327.92828    -28.69709      39457.2 
  822100    292.68782   -1470.1954    501.40074    346.85505    346.75173      39457.2 
  822200    292.90171   -1503.3077    508.41721     321.7207   -164.06629      39457.2 
  822300    295.10959   -1495.2465    472.65478    303.94407    578.55557      39457.2 
  822400    316.69467   -1506.4365    494.25528    411.38085   -259.78706      39457.2 
  822500    297.52319   -1483.0854    475.60653     329.9062   -295.86906      39457.2 
  822600     303.8335   -1501.6735    514.90368    378.98049   -16.779478      39457.2 
  822700    302.38297   -1526.4743    484.71313    317.46889   -542.25552      39457.2 
  822800    297.94156   -1554.6605    483.68603    268.29124    226.12651      39457.2 
  822900    298.46975   -1506.9762    492.55046    327.21417    122.39327      39457.2 
  823000    294.49102   -1476.2504    466.67672    314.18163   -316.66551      39457.2 
  823100    299.92693    -1459.201    501.08739    390.07647   -347.79583      39457.2 
  823200    297.20676   -1513.9906    508.06737    330.03947   -862.86886      39457.2 
  823300    308.52777   -1503.9405    472.19623    355.10708   -286.37781      39457.2 
  823400    303.57487    -1507.219    503.22382    360.59255    44.100989      39457.2 
  823500    308.89776   -1508.0576    509.59068    390.04752   -12.948812      39457.2 
  823600    291.55206   -1486.5709    504.69502    328.66851    250.90277      39457.2 
  823700    301.86857   -1526.1632    497.59395    328.34851    210.24013      39457.2 
  823800    288.57958   -1497.0849    490.87647    290.97457    216.12868      39457.2 
  823900    292.58027   -1460.2201    519.26645     374.2127    311.64715      39457.2 
  824000    307.94487   -1461.2923    488.84019    411.77901    0.8427727      39457.2 
  824100    309.78976   -1446.7449    507.54644    453.32558    182.37793      39457.2 
  824200    298.11633   -1482.8551    533.67695    390.87311   -304.61644      39457.2 
  824300    299.74435   -1508.7367    514.40407     353.0367   -513.27636      39457.2 
  824400    300.58382   -1510.0066    476.65119    317.78729    -310.4395      39457.2 
  824500    298.23125   -1557.4383    487.34667    270.47625    304.83052      39457.2 
  824600     301.9737   -1494.7741    522.97704    385.59335   -373.38649      39457.2 
  824700    297.02566   -1526.1477    502.33864    311.33955    83.533042      39457.2 
  824800    297.01135   -1520.3551    469.99082    284.71998     -316.635      39457.2 
  824900    305.60311    -1520.934    487.92569     340.6965   -540.95881      39457.2 
  825000    303.43951   -1537.1188    506.66637    333.52678    163.58094      39457.2 
  825100    296.40485   -1506.1448    503.14002    329.35325    314.13026      39457.2 
  825200    299.34678   -1480.0196    501.85291    367.41552    151.66773      39457.2 
  825300     308.6758   -1488.7641    529.31027    428.06285    694.34211      39457.2 
  825400    307.90627   -1494.0921    497.98348    387.94897    317.39756      39457.2 
  825500    295.20709   -1529.9758    476.87273    273.87095   -401.45655      39457.2 
  825600    293.33455   -1519.8724    494.28147    292.96593    152.65171      39457.2 
  825700     299.0829    -1532.321    501.40057    313.47564    292.32614      39457.2 
  825800    296.67655   -1505.8072    500.65041     328.4225    392.80612      39457.2 
  825900    305.21787   -1484.4373    513.51142    401.04723    319.51388      39457.2 
  826000    305.44947   -1502.3031    480.91036    351.62147    603.58249      39457.2 
  826100    293.87972   -1517.9695    508.19763    311.23554    428.97536      39457.2 
  826200    300.82643   -1503.9381    498.56529    346.86052    83.482706      39457.2 
  826300    300.00267   -1525.3032    473.41555    296.64283    238.28007      39457.2 
  826400    302.16452   -1499.7517    505.16785     363.6643   -140.35739      39457.2 
  826500    300.93419   -1495.8064    485.99069    342.90199    501.61026      39457.2 
  826600    291.17711   -1517.5237    485.41612    276.75148    438.92459      39457.2 
  826700    287.09149   -1512.5273    507.91155    285.87819   -16.956786      39457.2 
  826800    310.23782   -1513.3064    467.97292    349.20459    327.73203      39457.2 
  826900    297.42107   -1497.4548    478.20575    317.67702    -919.0347      39457.2 
  827000    293.46696   -1519.2217    458.97295    258.90331   -996.51594      39457.2 
  827100    299.77312   -1554.1561     490.7912    284.13368   -830.89861      39457.2 
  827200    294.67048   -1534.2151    449.40659    239.75345   -588.80594      39457.2 
  827300     294.1775   -1574.7785    466.37447    213.94193   -574.77509      39457.2 
  827400    305.66424   -1525.6827     444.7671    293.06394    -461.1803      39457.2 
  827500    304.95966   -1516.1484    470.10888    324.77287   -613.44148      39457.2 
  827600    304.58914   -1545.1255    489.25149    313.27295   -48.731256      39457.2 
  827700    307.38667    -1509.476    478.51273    350.75879    293.91382      39457.2 
  827800     302.7296   -1501.5861      501.566    360.76811    63.548514      39457.2 
  827900    292.50499   -1503.2202    486.29541    297.90313    173.48716      39457.2 
  828000    297.95443   -1536.3956    495.00542    297.93333   -140.63593      39457.2 
  828100    310.68479     -1532.38    468.13509    332.30229    200.79969      39457.2 
  828200    304.99519   -1544.8376    473.10831    299.24292   -86.670667      39457.2 
  828300    308.43646   -1518.2885    472.55669    340.70908   -80.193379      39457.2 
  828400    305.45056   -1509.0228     483.7881    347.78436    182.90583      39457.2 
  828500    301.31536    -1540.651    454.21291    267.99306   -131.12902      39457.2 
  828600    297.14039   -1533.3983    486.33668    288.60277    353.80633      39457.2 
  828700    306.34374   -1519.9932    515.57358    372.61437    705.09112      39457.2 
  828800    301.34953    -1493.719    502.33457    363.20025    353.52069      39457.2 
  828900    297.19065   -1508.3161     506.1453    333.71944   -13.915907      39457.2 
  829000    302.78885   -1497.7921    512.12694    375.38938    139.15569      39457.2 
  829100    293.95034   -1490.0806    467.73241    298.97672    47.169179      39457.2 
  829200    308.62033   -1489.5427    471.32011    369.04474    -29.78967      39457.2 
  829300    295.40936   -1505.8064    504.59024    326.66709   -293.74525      39457.2 
  829400    303.36301   -1499.8515    453.39797    317.18187   -663.82373      39457.2 
  829500    287.16281   -1457.0763    495.91276    329.65097   -575.16627      39457.2 
  829600    294.45855   -1465.3657    477.13122    335.37489   -73.051333      39457.2 
  829700    286.69224   -1492.7777    480.05557    275.97712    214.45085      39457.2 
  829800    309.55012   -1506.9405    489.88146    374.38777    15.253841      39457.2 
  829900     297.8689   -1488.7309    475.51284    325.72097    477.15584      39457.2 
  830000    298.90706   -1481.1961    488.62412    351.03362     353.6239      39457.2 
  830100    296.49884   -1495.7748    456.40133     293.4071    93.720392      39457.2 
  830200    293.48058   -1499.2427    496.99691     316.9675   -297.88288      39457.2 
  830300    302.33754   -1509.3722    508.20448    357.85809   -257.96611      39457.2 
  830400    296.05684    -1525.863    475.10644    280.03713    212.74225      39457.2 
  830500     309.9532   -1530.4601    472.88164    335.68023    732.68498      39457.2 
  830600    302.84413   -1533.1688    480.23152    308.36567    522.88084      39457.2 
  830700    301.14039   -1475.5584    501.76661     379.8528     89.43135      39457.2 
  830800    300.87707   -1537.8515      474.985    289.59448   -263.51362      39457.2 
  830900    295.50034   -1543.2321    481.67987    266.73999    12.766974      39457.2 
  831000    299.73539   -1504.2518    492.67181     335.7491   -57.953985      39457.2 
  831100    307.49317   -1516.2412    471.57035    337.52991   -56.334699      39457.2 
  831200    300.88171   -1523.2361    479.19459    308.44033   -68.203616      39457.2 
  831300    294.66731   -1511.8365    481.45185    294.16306    -391.8566      39457.2 
  831400    295.24345    -1544.063    475.70559    258.78009   -447.12564      39457.2 
  831500     298.5831   -1484.0552    487.52413    345.61832   -291.06214      39457.2 
  831600    287.03772   -1531.5498    501.42698    260.12939   -286.38421      39457.2 
  831700    308.07655   -1509.5862    498.23292    373.46974    27.715748      39457.2 
  831800    301.48551   -1505.3006    483.22135    333.11662    375.75992      39457.2 
  831900    289.05035   -1516.0192    478.61777    261.89773    347.32615      39457.2 
  832000    295.34173   -1478.9913    502.24256    350.83057    452.26594      39457.2 
  832100    295.68428   -1462.0015    490.95372    358.07125   -370.49298      39457.2 
  832200    308.52547   -1500.0944    486.43948     373.1861    -211.1675      39457.2 
  832300    294.50599   -1484.5879    499.60987    338.84454    309.67867      39457.2 
  832400    299.82654   -1515.2449    506.72028    339.21416   -101.39883      39457.2 
  832500    300.22053   -1506.0146    475.30791    318.80305   -172.22453      39457.2 
  832600    289.47819   -1482.3303    495.81202    314.70403   -246.29723      39457.2 
  832700    297.52957   -1487.1765    511.44999    361.68724    336.73915      39457.2 
  832800    294.34183   -1536.1854    484.88107    271.78029    265.96975      39457.2 
  832900    303.34212   -1559.8311    505.11922     308.8296     471.3603      39457.2 
  833000    296.97618    -1496.255    464.16263    302.83385    1087.6604      39457.2 
  833100    306.31461   -1509.4328    497.82931    365.29956    931.12795      39457.2 
  833200    290.70698   -1510.6909    495.69116      291.746    813.34078      39457.2 
  833300    298.24606   -1517.3103    471.84342    295.16752     216.8703      39457.2 
  833400    299.65289   -1565.8912    477.84501    258.91203    302.08928      39457.2 
  833500    307.73279   -1545.2303    497.97003    336.01756    589.55564      39457.2 
  833600    310.91832   -1513.9784    467.62076    351.23938   -278.88749      39457.2 
  833700    304.43025   -1501.9366    486.76939    353.26549    -63.18209      39457.2 
  833800    290.14335   -1506.3647    501.11859    298.96607    -349.7152      39457.2 
  833900    306.67708   -1516.6632    521.80212    383.67129   -703.87422      39457.2 
  834000    305.43838   -1509.8409    497.00411     360.1275   -352.37016      39457.2 
  834100    304.12464   -1496.9653    469.57305    339.66677   -402.37543      39457.2 
  834200    302.76907   -1515.9158     489.9692      335.019    -962.0643      39457.2 
  834300    295.16541   -1516.3822    487.91754    298.32205   -295.29959      39457.2 
  834400    306.92206   -1517.4378    475.25008    337.44585    376.01349      39457.2 
  834500    293.84762   -1509.3777    486.50285     297.9883    194.11922      39457.2 
  834600    288.17276   -1519.0161      493.419    269.75716   -136.18875      39457.2 
  834700    295.82548   -1533.0936    475.80144     272.4616   -260.10517      39457.2 
  834800    296.28912   -1550.5707    493.80799    275.07517   -884.07549      39457.2 
  834900    303.64147   -1533.3654    441.69641    273.21814   -262.39601      39457.2 
  835000    302.17315   -1513.3273    497.43807    342.39767    60.286481      39457.2 
  835100    316.80859    -1538.576     487.7803    373.27846    59.427913      39457.2 
  835200    300.73958   -1521.4756    499.19735    329.56467    149.41271      39457.2 
  835300    295.03483   -1520.1833    465.67961     271.6961    13.924401      39457.2 
  835400    294.36988    -1536.415    494.18385    280.97958   -141.55664      39457.2 
  835500    305.82758   -1501.8369    515.32679    388.20368   -80.867219      39457.2 
  835600    310.40076    -1542.869    511.67187    364.07346    671.59659      39457.2 
  835700    300.22995   -1537.0621     492.2744     304.7644    285.79107      39457.2 
  835800    302.74251   -1552.8693    470.98227    278.95919    35.979818      39457.2 
  835900     291.4537   -1545.5373    492.16304    256.72806   -205.97549      39457.2 
  836000     292.5508   -1541.9761    503.20142    276.25921    259.23149      39457.2 
  836100    303.57324   -1559.5532    493.25368    298.28089    -133.6026      39457.2 
  836200    301.30959   -1555.2134    493.61566    292.80738    36.162665      39457.2 
  836300    297.03963   -1535.3142    500.77262    300.66981   -316.62375      39457.2 
  836400    294.35258   -1582.9146    485.23673    225.45512    46.210395      39457.2 
  836500    289.02943   -1543.6047     500.2492    255.84957    45.494594      39457.2 
  836600    298.68627   -1572.9159    486.39849    256.09578    283.32097      39457.2 
  836700    298.55156   -1561.0734    469.38401    250.31823    595.73174      39457.2 
  836800    307.24802   -1572.3696    499.00807    307.73726    385.58021      39457.2 
  836900    291.63128   -1545.9713    494.72887    259.65814    554.96986      39457.2 
  837000    308.81548    -1563.154    489.74621    314.73681     328.4891      39457.2 
  837100    298.79889   -1558.7963    514.82653    299.14965    295.55539      39457.2 
  837200    294.66436   -1539.9059    489.76528     274.3938    525.33048      39457.2 
  837300    310.78245   -1548.0644    498.56254    347.48444    582.89681      39457.2 
  837400    301.85334   -1558.6563    473.11286    271.30592    493.74318      39457.2 
  837500    299.21851   -1499.4071     500.0316    345.63013    468.18493      39457.2 
  837600    306.69575   -1516.4524    470.29222     332.4561   -39.751295      39457.2 
  837700    302.36675   -1582.6057    491.62444    268.17588   -161.99139      39457.2 
  837800    294.66038   -1531.4484    477.19159    270.25967   -120.57205      39457.2 
  837900    304.02283   -1544.3496    470.96932    293.22106    466.44588      39457.2 
  838000    295.70019   -1568.1534    482.22441    243.26157    156.81294      39457.2 
  838100    304.61888   -1578.4973    489.13965    279.92293     17.33474      39457.2 
  838200    302.52951   -1576.2221    469.05775    252.72444   -135.50157      39457.2 
  838300    303.45859   -1549.9326    493.92284     308.0553   -189.99541      39457.2 
  838400    292.45001   -1550.2144    477.70638    242.07277    15.958675      39457.2 
  838500    303.96937   -1591.9196    460.26836    234.70973   -327.05804      39457.2 
  838600    296.77484   -1569.4863    481.30437    245.83926   -368.69053      39457.2 
  838700    294.43712   -1554.5021    491.02963    260.04054   -103.45366      39457.2 
  838800    302.09136   -1532.9143    485.19658    310.20152    600.30928      39457.2 
  838900    305.63329   -1516.6061    500.10332    357.33769    593.22491      39457.2 
  839000    300.11338   -1500.6075    513.46512    361.88567    308.91055      39457.2 
  839100    301.59302   -1498.5162    502.85118    360.01415    369.82336      39457.2 
  839200    300.03583   -1526.6687    479.54911    301.55994    177.72493      39457.2 
  839300    300.22467   -1462.4067    492.64842    379.77011   -33.530194      39457.2 
  839400    291.86535   -1495.1903    494.56056    311.32298   -266.04725      39457.2 
  839500    296.27676   -1533.7003    453.55122    251.63319   -187.40286      39457.2 
  839600    309.08415   -1507.3806    474.62571    356.59741    38.418239      39457.2 
  839700    306.06465   -1495.6263    485.71359    365.86674    238.99721      39457.2 
  839800    291.28274   -1537.3997    529.98734    301.92145    335.99436      39457.2 
  839900    304.81495   -1555.1535    512.84292    327.85137    658.92651      39457.2 
  840000    299.53026   -1532.1626    497.35234    311.59673    -34.60899      39457.2 
  840100    291.13278   -1507.2941    492.31914    293.68479    -259.3935      39457.2 
  840200    300.28727    -1516.918     490.5013    323.39309   -364.96112      39457.2 
  840300    300.43051   -1481.0152    511.52024    380.95868   -930.36107      39457.2 
  840400    312.84124   -1504.4709    493.37382    395.14352    35.275926      39457.2 
  840500    290.85295   -1524.0424    485.72371    269.08321   -65.364784      39457.2 
  840600    289.16342   -1545.9486    499.65167    253.51039   -178.43534      39457.2 
  840700    295.67768   -1533.6646    478.89907    274.32386    348.94375      39457.2 
  840800     304.8838   -1496.1164    519.50433    393.85938     218.3228      39457.2 
  840900    310.74498   -1471.8691    493.58382    418.53251    255.05487      39457.2 
  841000    292.65191   -1524.3297    473.91366    265.07228    334.31369      39457.2 
  841100    303.95839   -1506.4391    521.40667    381.27924    231.52463      39457.2 
  841200      300.916   -1486.0695    472.06014    338.62654    30.506037      39457.2 
  841300    305.13905   -1516.3385    501.83331    357.11366    79.117311      39457.2 
  841400    301.45128   -1457.2014    511.63952     409.4802   -72.977596      39457.2 
  841500    296.88151   -1511.2136    498.43692    321.72397   -321.10043      39457.2 
  841600    305.49217   -1492.7491    511.28846    391.74543    45.600109      39457.2 
  841700     305.5618    -1474.906    515.90953    414.52262    194.89001      39457.2 
  841800    297.26008   -1508.9892    504.93118    332.14429    223.79235      39457.2 
  841900    304.68154   -1551.8401    478.21165    295.93381    44.278457      39457.2 
  842000    288.77437   -1535.8716    491.32148     253.5084    170.29148      39457.2 
  842100    306.30307   -1499.6898    484.59766    361.75901    368.82546      39457.2 
  842200     294.2792   -1566.7778    512.58132    268.60663    271.63604      39457.2 
  842300    301.52992    -1539.067    488.55909    304.88766    392.65692      39457.2 
  842400    302.41455   -1497.5664    529.90318    391.70876    303.27291      39457.2 
  842500    298.66639   -1544.1354    472.78627    271.17466    352.22598      39457.2 
  842600    300.59026   -1587.3999    471.83331    235.60514     255.4425      39457.2 
  842700    293.86346    -1526.272     489.9024    284.56471   -539.77879      39457.2 
  842800    306.68258   -1499.1585    497.76861    377.16721    408.41496      39457.2 
  842900    306.23187   -1542.6803    504.08408    337.93488    413.38346      39457.2 
  843000    291.87823   -1540.1718    521.06189    292.90069    289.09017      39457.2 
  843100    299.40367   -1530.8111    500.02118    315.04808   -169.08033      39457.2 
  843200    303.21663   -1541.2135    468.05499    289.81886   -490.79481      39457.2 
  843300    310.74847   -1564.7227    483.30901    315.41983   -279.00674      39457.2 
  843400    298.64924   -1534.6431    496.37094    304.17451   -1156.8569      39457.2 
  843500    312.64883   -1541.9832    491.36105    354.75357   -602.83721      39457.2 
  843600     303.7525   -1566.1891    464.50056    263.69763    21.639379      39457.2 
  843700     308.9027   -1546.2236      468.041    310.35401    162.74362      39457.2 
  843800    308.06626   -1509.2088    485.55826    361.12625   -19.544301      39457.2 
  843900     303.3633   -1531.5611    473.68191    305.75751   -105.71632      39457.2 
  844000    292.74513   -1504.8227    483.86854     294.9532    75.576865      39457.2 
  844100    289.63317   -1541.7512    497.41741    257.58519   -55.598264      39457.2 
  844200    302.54173   -1504.3295    497.02506    352.63923    545.84463      39457.2 
  844300    308.67876    -1510.912    510.33341    386.95142    322.76716      39457.2 
  844400    294.84888   -1477.0105    508.87967    357.23301    388.08201      39457.2 
  844500    305.76765   -1487.2086    508.56546    395.80131   -59.570315      39457.2 
  844600     294.8207   -1500.4543    494.43244    319.21537   -145.69859      39457.2 
  844700    304.81334   -1481.0416    510.50953    399.62265     134.8427      39457.2 
  844800    304.07851   -1494.8602    512.37961    384.37101   -202.24954      39457.2 
  844900    309.69358   -1485.9183    514.41473    420.58817   -41.698844      39457.2 
  845000    298.90051   -1475.0786    503.38787    371.88546   -70.462261      39457.2 
  845100    305.59467   -1530.4502    498.73529    341.95195     761.0977      39457.2 
  845200    304.86317   -1516.9373    493.97782    347.41919    618.27974      39457.2 
  845300    305.19738    -1505.686    490.99171    357.18677    513.88057      39457.2 
  845400    303.83529   -1510.1979    490.91206    346.47246    946.27098      39457.2 
  845500    292.51708   -1533.6169    501.67797     282.9433    613.45881      39457.2 
  845600    301.22818   -1491.8419    496.92056    359.11783   -160.42866      39457.2 
  845700    292.00292   -1505.7373    461.15731    267.99107    14.348922      39457.2 
  845800     295.4173   -1522.1881    455.56755    261.29844   -531.90007      39457.2 
  845900    298.54529   -1479.5429    482.01649    344.45307   -257.46807      39457.2 
  846000    302.29149   -1524.2923    491.64649    326.17302   -354.93433      39457.2 
  846100    293.81908   -1504.4184    503.96502    320.28149   -154.01409      39457.2 
  846200    295.88543   -1555.1097    472.89429     247.8078    67.013741      39457.2 
  846300    294.90052   -1543.4753     509.4875    291.60821    217.98537      39457.2 
  846400    283.86923   -1569.3748    493.20565    199.84053    754.47196      39457.2 
  846500    292.49223   -1576.0849    474.36596    213.05164    668.07311      39457.2 
  846600    295.14117   -1521.2852    503.19737    308.58992    819.62858      39457.2 
  846700    297.08447   -1561.5109     482.3089      256.211    312.42376      39457.2 
  846800    287.10292   -1518.8618    509.54267    281.22613    180.38574      39457.2 
  846900    296.35773   -1498.0425    489.59262    323.69639   -266.99158      39457.2 
  847000    299.19037   -1534.4764    482.22517     292.6279   -17.362144      39457.2 
  847100    317.80922   -1509.6816    498.40323    417.29366    429.07136      39457.2 
  847200    289.57172   -1511.8305    500.40772     290.2199   -525.91021      39457.2 
  847300    292.95458   -1514.4915    484.37346    286.73087   -381.38264      39457.2 
  847400    307.10561   -1503.5752    497.73731    374.62075   -467.08827      39457.2 
  847500    295.44019   -1505.2637    483.56536    306.32354   -421.98891      39457.2 
  847600    290.51271   -1498.0737    504.58917      312.388    -658.7301      39457.2 
  847700    284.62961    -1510.359      500.748    269.81666   -564.48132      39457.2 
  847800    298.72681   -1489.5224    463.02357    316.29663   -766.20832      39457.2 
  847900    297.51365   -1472.7924    472.21904    336.76881   -243.80321      39457.2 
  848000     309.7249   -1494.1285    501.79398    399.89791    57.482105      39457.2 
  848100    288.52642   -1478.3638    491.99082    310.57106   -75.709402      39457.2 
  848200    300.29092   -1447.8274    508.76969    410.76847   -191.93027      39457.2 
  848300    292.68795   -1475.8942    472.51418    312.27036   -626.56902      39457.2 
  848400    301.33744   -1471.4405    475.89798    358.98779   -548.22194      39457.2 
  848500    304.44148   -1465.7439    468.45132    371.19063    194.78553      39457.2 
  848600    306.82634   -1446.5577    481.49311    414.13868   -662.24825      39457.2 
  848700      301.236   -1444.9658    479.54391    388.65248   -303.80101      39457.2 
  848800    296.28474   -1459.1977    484.27588     356.8963     26.43953      39457.2 
  848900    297.50956   -1448.7905    501.45725    389.99051   -104.48438      39457.2 
  849000    307.79308   -1451.8611    493.32097    425.00871   -146.10015      39457.2 
  849100    301.92837   -1417.4933    514.48589    454.17921   -259.62912      39457.2 
  849200    300.18229   -1466.8636    486.66012    369.13442   -144.96282      39457.2 
  849300    295.99363   -1510.2234    486.91586    307.20201   -294.76411      39457.2 
  849400    314.14569   -1518.7956    458.05943    351.36804   -9.0758046      39457.2 
  849500    301.06317   -1529.1926    483.23867    307.34352   -50.967142      39457.2 
  849600    300.32609   -1496.4508    479.08412    332.61763    659.21297      39457.2 
  849700    299.96294   -1494.9265    470.63572    324.06112     948.4061      39457.2 
  849800    311.76918   -1475.0944    496.59087    422.91809    374.75098      39457.2 
  849900    301.42458   -1501.3703     483.2145    336.76625    709.73104      39457.2 
  850000    307.27779   -1499.9022    502.66633    383.99673    1244.3935      39457.2 
  850100    303.11625   -1497.5106    487.75618    352.77179    169.09981      39457.2 
  850200    291.92541   -1506.8249    487.70005    293.09784   -238.86773      39457.2 
  850300    300.94189   -1542.3684    479.31273    289.69664   -372.30739      39457.2 
  850400    301.24725   -1530.6971    476.13597    299.56379   -422.06383      39457.2 
  850500    287.48025   -1500.4195    476.54304    268.36493   -38.403938      39457.2 
  850600     302.0048   -1510.3845     478.4744    325.62007   -65.858754      39457.2 
  850700    291.29124   -1553.1045    492.53164    248.79919    2.1280522      39457.2 
  850800    304.24865   -1555.4546     475.2583    287.42011   -9.0188061      39457.2 
  850900    304.29027   -1553.4028    506.42755     320.8282    356.21677      39457.2 
  851000    297.48078   -1527.4316     456.9728    266.73561    260.10753      39457.2 
  851100    296.97596    -1507.335    480.45729    308.04748   -156.32724      39457.2 
  851200    295.00308   -1572.9921     482.6575    235.72236   -298.82213      39457.2 
  851300    295.15835   -1575.1479    443.74513    195.35222   -455.19053      39457.2 
  851400    298.85709    -1576.716    477.03313    243.69811   -343.13639      39457.2 
  851500    294.98066   -1539.3241    469.47031    256.10246    12.332186      39457.2 
  851600    295.73295   -1553.1187    478.74523    254.96431    124.09114      39457.2 
  851700    297.45474   -1533.5442    476.14532    279.67848    110.25135      39457.2 
  851800    306.59895   -1502.8827    507.38941     382.6879    467.96617      39457.2 
  851900    296.46836    -1528.762     509.9087    313.79022    124.65505      39457.2 
  852000    309.07103   -1555.5747    468.64609    302.36466    194.55083      39457.2 
  852100    288.26698   -1553.7397    457.33211    199.37027   -246.83039      39457.2 
  852200    291.27881   -1501.7212    487.43536    295.03028   -56.723821      39457.2 
  852300    297.09047   -1509.3929    491.24033    317.28735    10.955625      39457.2 
  852400    314.77215   -1501.0908    479.32172    393.15117   -32.006966      39457.2 
  852500    308.32321   -1517.3167    473.53735    342.15247    147.53307      39457.2 
  852600    307.20514   -1492.5519    513.76957    402.12366   -100.78125      39457.2 
  852700    305.26027   -1491.3031    499.50746    380.36808   -293.74513      39457.2 
  852800    298.80376    -1481.752    479.99482     341.3841   -457.95814      39457.2 
  852900    299.39124   -1503.6357    485.98619    328.13252    140.77391      39457.2 
  853000    300.06964   -1541.4022    502.95786    310.38713   -135.50171      39457.2 
  853100    307.07621   -1551.1355     473.5948     302.7858    466.14982      39457.2 
  853200    307.21371    -1547.222    486.00321    319.72574    1123.8974      39457.2 
  853300    295.43687   -1491.6882    479.01785    315.33655    760.06119      39457.2 
  853400    305.98063   -1551.8718    442.44998    265.97994    54.083403      39457.2 
  853500    300.42014   -1507.7423    499.08734    341.75204    56.096142      39457.2 
  853600    296.27026   -1535.7728    461.46272      257.443   -160.46705      39457.2 
  853700    300.65054   -1494.3386    480.67163    337.77578    -417.1193      39457.2 
  853800     304.2672   -1521.9105    484.94425    330.73356   -667.04966      39457.2 
  853900    301.42952   -1504.8963    470.23516    320.28315   -86.233974      39457.2 
  854000    291.51894   -1538.9749    465.59937    237.02008    339.44419      39457.2 
  854100    292.97818   -1516.0331    493.78698    294.70878    468.65623      39457.2 
  854200    293.30898   -1510.9851    456.88457    264.34137    84.930677      39457.2 
  854300    298.94871   -1551.9663    467.40422    259.23071    268.43969      39457.2 
  854400    290.82609   -1555.9255    481.81918    233.17487     114.5592      39457.2 
  854500    301.10985   -1578.3776    492.90813    268.03787    364.37621      39457.2 
  854600    304.91573    -1564.533    456.28629    262.36822    188.38568      39457.2 
  854700    299.09887   -1551.6341    464.84437    257.67814   -225.89621      39457.2 
  854800    296.59343    -1546.637     463.2062    249.77497     -506.187      39457.2 
  854900    295.79748   -1542.7922    487.44798     274.2836   -770.08361      39457.2 
  855000    304.01076   -1543.0925    480.39458    303.84919    -246.2962      39457.2 
  855100    306.32033   -1546.5431    487.45966    317.84534    75.268922      39457.2 
  855200    304.15043   -1528.6511    471.26954    309.79336    91.030856      39457.2 
  855300     307.8508   -1537.7231    487.58036    333.66549    582.96633      39457.2 
  855400      306.235   -1509.7692    488.89424    355.67026    386.44637      39457.2 
  855500    304.58445   -1459.3449    485.34369    395.12468   -194.03742      39457.2 
  855600    292.84536   -1445.5595    488.96636    359.76483    301.66654      39457.2 
  855700    310.45622   -1439.0003     500.3192     456.8387   -289.10538      39457.2 
  855800    303.32816   -1425.2937    517.49544    455.68047    60.948956      39457.2 
  855900    293.12298   -1462.1456     477.2423    332.70257   -317.63318      39457.2 
  856000    304.63323   -1453.1659    506.19398    422.37321    321.94538      39457.2 
  856100    291.85066   -1465.8162    510.49889    356.56937    -7.707067      39457.2 
  856200    296.98694   -1491.9748    496.32987    339.32959   -25.298966      39457.2 
  856300    298.90988   -1461.4021    513.96926    396.18549    1056.4278      39457.2 
  856400    292.79102   -1478.7787    499.23228    336.56726   -100.42603      39457.2 
  856500    305.32229   -1460.4567    516.66051    428.64628   -407.72996      39457.2 
  856600     303.0317   -1424.5931    517.29992    454.85298    38.436277      39457.2 
  856700    294.42541   -1424.7047    495.04213    393.79776    -63.62714      39457.2 
  856800    308.70884   -1417.4614    496.00052    466.20437   -398.51687      39457.2 
  856900    306.26333   -1450.9137    504.46461    430.22338    85.563995      39457.2 
  857000    310.90625   -1425.5041    509.88421    481.92281    241.73564      39457.2 
  857100    298.78688   -1433.0101    499.53031    409.58565    362.90037      39457.2 
  857200    303.07679   -1493.0313    496.65158    365.96914    445.50039      39457.2 
  857300     297.8777   -1458.9022    504.03088     384.1073   -346.85628      39457.2 
  857400    303.23176   -1419.1125    505.45005    449.38294    180.47476      39457.2 
  857500    295.10523   -1434.1886    483.52112    375.84874   -16.411235      39457.2 
  857600    299.69623   -1459.4236    478.80278    366.53215   -7.2914053      39457.2 
  857700    295.54772    -1431.262    513.70863    410.95178   -356.11641      39457.2 
  857800    298.35276    -1480.919    500.34319    360.53826    391.29926      39457.2 
  857900    299.12823   -1464.6218     481.4589    361.43691   -319.74545      39457.2 
  858000    305.28705   -1480.3099    483.02823    375.00246    -62.24772      39457.2 
  858100    292.85729   -1495.9734    500.49862    320.93672    141.78417      39457.2 
  858200    298.87627    -1492.729    473.81072    324.54898   -127.15091      39457.2 
  858300    301.83227   -1513.0702    472.52383    316.20828   -608.69714      39457.2 
  858400    294.72829   -1497.3153     494.9545    322.46101   -470.27948      39457.2 
  858500    293.19091   -1507.1662    488.92538    299.67039    3.6374131      39457.2 
  858600    290.99852   -1460.9603    464.98692    312.08285   -464.78762      39457.2 
  858700    307.68439   -1456.2413    470.69148    397.51049   -207.98376      39457.2 
  858800     288.6955   -1502.9283    499.18256    293.95828   -139.23407      39457.2 
  858900    299.89213   -1481.1692    475.82389    342.68822   -52.198049      39457.2 
  859000    306.21699   -1507.3642    497.00394      366.104   -217.82766      39457.2 
  859100    296.80766   -1458.4845    466.10022    341.78444   -492.63682      39457.2 
  859200    282.26608   -1490.4717    489.23561    267.56732   -474.57513      39457.2 
  859300    302.47731   -1512.3582    470.79732    318.09325    -493.9552      39457.2 
  859400    301.12809   -1478.9038    477.58887    352.27441   -361.35195      39457.2 
  859500    299.56371   -1443.2298    486.45893     389.7864   -89.905043      39457.2 
  859600    308.50714   -1458.6642    482.04576    410.14017   -195.52832      39457.2 
  859700    303.74244   -1496.9844    481.42422     349.7808   -295.37764      39457.2 
  859800    303.23545   -1501.9802    488.51995    349.60178    185.69353      39457.2 
  859900    292.99655   -1513.3412    494.37664    298.07301    25.392887      39457.2 
  860000    290.97348   -1464.8396    477.31253    320.41661    296.78302      39457.2 
  860100    306.04857   -1497.3969    486.36323    364.67349    55.873973      39457.2 
  860200    300.13355   -1467.4411    484.05865    365.73627    223.34796      39457.2 
  860300      305.046   -1496.7371    492.51923    366.98263    241.25996      39457.2 
  860400    295.91843   -1471.9422     480.3633    338.59269    555.20947      39457.2 
  860500    293.86249   -1480.3235    494.54006    335.14656    377.06323      39457.2 
  860600    299.36862   -1479.2831    471.95394    338.35125    573.17974      39457.2 
  860700      296.272   -1509.5221    513.94487     336.1836    562.07368      39457.2 
  860800    307.13476   -1460.6068    495.16696    415.14982    702.66655      39457.2 
  860900    292.70124   -1509.9362    486.32333    292.09725    206.84108      39457.2 
  861000    303.61306   -1483.2631    510.42231    391.91864    544.39617      39457.2 
  861100    297.44225   -1537.6774    489.18266    288.52648   -302.29127      39457.2 
  861200    307.76927   -1517.6923     485.3661    351.11559    48.143813      39457.2 
  861300    295.80958   -1493.9018    476.49228     312.2728    34.201054      39457.2 
  861400    311.97455   -1444.4217    479.50507    437.42819    242.75428      39457.2 
  861500    299.82463   -1472.8805    450.33091    325.18062   -112.88675      39457.2 
  861600    305.87531   -1485.4378    483.40789    372.89841    398.48732      39457.2 
  861700    302.08164   -1510.3518    490.43451    337.95829     557.9057      39457.2 
  861800     295.9224   -1524.7182    461.28418    266.75544    418.20177      39457.2 
  861900    303.21751   -1551.8238    492.19974    303.35734    434.86969      39457.2 
  862000    294.23075   -1513.5754    487.03265    296.04259    775.10435      39457.2 
  862100    296.63662   -1525.3589    462.17599    270.21702    63.497047      39457.2 
  862200     294.5313   -1525.3679    469.71728    268.28566   -288.52519      39457.2 
  862300    295.22455   -1529.2037    482.70011    280.54889   -561.03896      39457.2 
  862400    311.25154   -1490.1694    470.07811    379.00356   -275.53617      39457.2 
  862500    303.63025   -1489.2656    476.81599    352.38708   -466.06553      39457.2 
  862600     295.3488   -1478.9179    495.34935    344.04242   -404.73338      39457.2 
  862700    286.00409   -1468.3489    494.48495    311.74208   -111.10802      39457.2 
  862800    303.26899   -1493.2499    484.62483    354.58772    353.53712      39457.2 
  862900    302.63706   -1514.3737    465.37763    311.37617   -378.53988      39457.2 
  863000    303.08958   -1501.3656    483.45783    344.49856   -154.59597      39457.2 
  863100    296.06368   -1475.8742    500.09601    355.04629    108.75865      39457.2 
  863200    302.50657    -1510.816    491.66525    340.63493    299.86552      39457.2 
  863300     296.0475   -1508.9185    465.27969    287.11291    477.57559      39457.2 
  863400    294.43223   -1528.7697    480.04128    274.76259    613.16179      39457.2 
  863500    305.80839   -1515.4777    498.31193    357.46178    638.56268      39457.2 
  863600    307.04776   -1508.1222    481.50662    353.58298    486.66072      39457.2 
  863700    312.28278   -1510.8885    456.29835    349.14019   -90.885688      39457.2 
  863800    285.55693   -1457.9366    522.37953    348.03888    8.0106411      39457.2 
  863900    288.35559   -1467.1314    457.80436    286.84909   -481.70956      39457.2 
  864000    310.92997   -1489.0437    497.98756    406.59322    6.6236678      39457.2 
  864100    297.22679   -1499.7854    451.01128    287.27862   -139.46503      39457.2 
  864200    303.82342   -1498.2138    475.70734    343.19853    432.41535      39457.2 
  864300    304.99919   -1507.3596    492.49213    356.12262    908.03969      39457.2 
  864400    304.76203   -1464.7601     478.8085    383.97249     702.6884      39457.2 
  864500    289.82371   -1512.1356    501.05154    291.69139    184.59085      39457.2 
  864600    295.18193   -1489.1601     456.0481    293.74892    554.27007      39457.2 
  864700    307.28186   -1488.2903    494.65322    387.61381    388.07467      39457.2 
  864800    292.85063   -1473.3942    467.79879     310.7862     622.9804      39457.2 
  864900    308.20625    -1484.968    477.70426     378.1423    455.79213      39457.2 
  865000    304.43718   -1529.9809    460.00829     298.4913   -794.03362      39457.2 
  865100    302.95767   -1537.1616    458.91072    283.56257   -109.07042      39457.2 
  865200    302.70715   -1526.8652    444.46164     278.2837   -419.66157      39457.2 
  865300    292.58662   -1548.0308    479.01195    246.17602   -22.643594      39457.2 
  865400    302.18367   -1532.0932    474.44885    300.68987   -712.23451      39457.2 
  865500    304.90117   -1538.2549    461.24437    293.53897   -223.55921      39457.2 
  865600    299.78962   -1538.7653    477.39422    286.20174    366.69974      39457.2 
  865700    302.90924    -1524.804    467.32433      304.116    518.55707      39457.2 
  865800    299.61102   -1507.2566    469.74557    309.25893   -153.08631      39457.2 
  865900    295.16742   -1510.9716    445.23946    261.06353   -158.16954      39457.2 
  866000    307.80247   -1523.1509    464.92309    325.36329     305.7945      39457.2 
  866100    294.94652   -1523.1447    486.79896    289.45709    33.327005      39457.2 
  866200     298.2213   -1493.1629    486.24236    333.60257    188.11016      39457.2 
  866300    294.84338   -1482.1735     468.4133    311.57893    27.617577      39457.2 
  866400    304.45225   -1447.4888    486.43265    407.47548    228.22882      39457.2 
  866500    302.51088   -1510.7399    446.72732    295.79241   -99.457226      39457.2 
  866600    294.75329   -1487.6195    461.58259    298.89731    257.83119      39457.2 
  866700    302.04313   -1479.1176    479.80386    358.38874    283.44016      39457.2 
  866800    292.66124   -1470.3586    492.76046    337.93214   -100.18565      39457.2 
  866900    294.38157   -1490.9412    445.54498    277.86703   -584.14354      39457.2 
  867000     296.0814   -1480.5905    477.73468    328.04834   -292.05055      39457.2 
  867100    307.16206   -1509.8637    456.47631    327.32502   -341.27816      39457.2 
  867200    300.44474   -1479.3533    466.99039    338.15475   -537.61146      39457.2 
  867300     304.8496   -1463.8183    486.68623    393.18568   -558.47711      39457.2 
  867400    305.27768   -1474.8092    465.69167    363.12445   -85.132833      39457.2 
  867500    309.95863   -1479.8275    467.24801    380.70359    271.13316      39457.2 
  867600    298.29691   -1454.2202    470.80767    357.45042   -163.39993      39457.2 
  867700    295.22035   -1503.0604      475.888    299.86128   -328.53435      39457.2 
  867800    304.45468   -1453.4809    489.37104     404.4327     228.4477      39457.2 
  867900    302.77711   -1461.4139    479.06074    378.64861    733.61469      39457.2 
  868000    303.76004   -1515.8781    493.08739    342.62939    286.81441      39457.2 
  868100     305.5477   -1529.2817    449.98409    294.15813    199.11632      39457.2 
  868200    305.80003    -1486.076    489.65437    378.16836   -437.49482      39457.2 
  868300    304.13752   -1520.7918    466.08811     312.4132   -478.37936      39457.2 
  868400    294.10782   -1562.9387     477.6369    236.73092   -83.987411      39457.2 
  868500    300.35644    -1452.168    469.86907    367.82172   -63.630294      39457.2 
  868600    309.71421   -1491.9788    493.04102    393.24665    -172.9635      39457.2 
  868700    296.61793   -1504.0415    468.80678    298.08113   -277.24761      39457.2 
  868800     289.7858   -1491.5097     451.8582    262.95354   -75.563877      39457.2 
  868900    299.16159    -1517.067    470.60658    298.28936   -146.54412      39457.2 
  869000    295.39526   -1528.5955    475.00773    274.23208    514.47316      39457.2 
  869100    293.23258   -1478.5613    501.70719    341.24438    411.97277      39457.2 
  869200    290.97432    -1535.424    482.48205    255.00554    322.83948      39457.2 
  869300    307.46554   -1498.4679    463.30012    346.90876    408.72834      39457.2 
  869400    296.64034   -1515.3044    472.76777    290.87996    657.71043      39457.2 
  869500    297.99806   -1511.8494    488.16661    315.83687     617.1209      39457.2 
  869600    314.29088   -1495.2068    491.58273    409.13282    535.25896      39457.2 
  869700    302.84513   -1492.0639    470.65532    339.89888    23.127234      39457.2 
  869800    286.78941   -1481.9473    508.53586     315.7246   -113.91021      39457.2 
  869900    296.68276   -1457.6762    494.62018    370.55128   -435.66801      39457.2 
  870000    299.16915   -1434.0549    481.33914      392.068   -210.34549      39457.2 
  870100    318.55136   -1497.3027    487.70296    422.30824   -830.04113      39457.2 
  870200    288.64656   -1466.6594    482.59634    313.42103   -124.90294      39457.2 
  870300      308.929   -1484.5999    482.03616    386.09114    194.86116      39457.2 
  870400    290.60253   -1482.4653    467.56155    291.37252   -89.840459      39457.2 
  870500    302.84839   -1514.3324    476.83344    323.82315    40.200118      39457.2 
  870600     301.3964   -1453.1354    463.32605    364.98598    250.68597      39457.2 
  870700    303.81217   -1475.8054    502.42711    392.27607    294.39999      39457.2 
  870800    291.19501   -1494.4525     506.5134     321.0004    385.86955      39457.2 
  870900    301.84307   -1507.6771    504.48661    353.61272     392.0928      39457.2 
  871000    309.24812   -1546.2086    456.52593    300.40667    435.91396      39457.2 
  871100    304.19233    -1481.787    475.79031    361.36651   -672.29485      39457.2 
  871200    311.22319   -1516.0509    459.99352    342.91003    193.11711      39457.2 
  871300    296.52196   -1500.4497    460.43647    292.87122    593.38173      39457.2 
  871400    297.25117   -1497.6977    465.48174    303.94637    799.79002      39457.2 
  871500    315.62976   -1505.5998      501.407    414.58233    655.33394      39457.2 
  871600    301.10005   -1488.5118    463.92125     328.8727    91.474319      39457.2 
  871700    300.66343     -1522.98    484.06345    312.58403   -750.54414      39457.2 
  871800    297.19426   -1497.8465    479.00817    317.06817   -330.11421      39457.2 
  871900    308.95785    -1525.087    480.03713    343.73465   -355.12653      39457.2 
  872000    310.78622   -1518.5245    467.70127    346.17994    111.90237      39457.2 
  872100    302.48059   -1503.6122    486.88875    342.94541   -178.92212      39457.2 
  872200    309.73576   -1539.1625    489.77096    342.88975    113.38178      39457.2 
  872300    309.06367   -1473.7245    475.72503    391.26072    293.01155      39457.2 
  872400    288.89532   -1488.6331    487.73543    297.70457    100.45599      39457.2 
  872500    310.04055   -1510.1756    482.80219    366.27788    386.52283      39457.2 
  872600    300.25165    -1522.075    475.21243    302.78706    142.62397      39457.2 
  872700    291.82852    -1499.249    467.21736    279.75554    156.47423      39457.2 
  872800    311.36612   -1507.2973    472.37575    364.68829   -197.72218      39457.2 
  872900    293.94529   -1463.0045    484.41116    342.70889   -32.982136      39457.2 
  873000    290.70967   -1449.0589    491.67768    349.37668    248.25824      39457.2 
  873100    297.50304   -1441.8107    493.08976    388.57353   -242.45794      39457.2 
  873200    292.10848    -1475.245     481.2924      319.093   -87.159903      39457.2 
  873300    296.94841   -1478.9397    466.28225    322.14394   -139.15259      39457.2 
  873400    301.92166   -1490.7207    474.65138    341.08708   -246.55261      39457.2 
  873500    294.70612   -1493.8564    490.51251     321.3783    -434.6885      39457.2 
  873600    297.71989   -1503.8981    466.12657    300.49768    191.59335      39457.2 
  873700     301.0884   -1519.5105    478.45946    312.35983    825.68966      39457.2 
  873800    297.15088   -1517.2857    489.03007    307.45591   -31.976839      39457.2 
  873900    298.32083   -1473.9911    473.89417    340.87356    274.20424      39457.2 
  874000    302.46558   -1505.5259    489.15829    343.23381    268.61124      39457.2 
  874100    310.24681   -1467.5237    493.10351    420.15836    777.91808      39457.2 
  874200    277.95709   -1465.0115    478.21263    262.63531    189.78689      39457.2 
  874300    306.46276   -1502.7699    492.62443    367.42345    688.64092      39457.2 
  874400    300.84282   -1501.8785    486.77552    337.20405    582.57119      39457.2 
  874500    296.17917   -1544.3039    473.49465    260.53437    11.152078      39457.2 
  874600    298.37703   -1507.1451    479.70997    313.78802    788.03541      39457.2 
  874700     291.7369   -1518.3012    479.49357    272.56767    690.04948      39457.2 
  874800    301.42276   -1519.4204    499.09338    334.58681    532.16169      39457.2 
  874900    295.29665    -1500.448     473.2168    300.14545   -46.164643      39457.2 
  875000    304.10696   -1484.8814    468.65032    350.74846    185.48464      39457.2 
  875100    291.00128   -1462.9678    464.95111    310.05192     357.8171      39457.2 
  875200    290.59583   -1479.9295    495.07848    321.39508    76.176799      39457.2 
  875300    301.94781   -1514.3172    476.14798    319.10478   -521.89218      39457.2 
  875400    308.25471    -1504.488    476.66256    357.79843   -205.36533      39457.2 
  875500    305.03547   -1512.3449    476.14412    334.95246    -570.9791      39457.2 
  875600    306.18698   -1504.8955    466.09615    337.52995   -340.60117      39457.2 
  875700    288.40909   -1495.9939    471.75337    272.17607    -422.8489      39457.2 
  875800    307.04702   -1501.5565    483.13382    361.77257   -478.43235      39457.2 
  875900    290.34557    -1499.024    476.62461    282.72187   -340.77288      39457.2 
  876000    292.78369   -1506.6086     470.8296    280.30169   -339.57751      39457.2 
  876100    305.39357   -1480.7176    492.24281     384.2881     13.32288      39457.2 
  876200    304.63623    -1485.594    468.58909    352.35375    80.048586      39457.2 
  876300    306.06004   -1493.4346    475.68473    358.00887    560.39311      39457.2 
  876400    298.68612   -1465.2726    495.03946    372.37939    629.45019      39457.2 
  876500    304.03367    -1511.583    471.13288    326.19994    485.34309      39457.2 
  876600    294.09829   -1531.0697    475.21477    266.13499    717.98582      39457.2 
  876700    302.41906   -1500.5111    480.63625    339.51739    1095.3323      39457.2 
  876800    295.59679   -1481.8282    480.61214    327.50966    553.28719      39457.2 
  876900    295.42881     -1537.95    454.24449    244.26521    940.55599      39457.2 
  877000    303.04532   -1541.1161    495.77545    316.86665    894.12818      39457.2 
  877100    296.27046   -1522.8424    472.62426     281.5358    429.09235      39457.2 
  877200    289.45744   -1544.6446    481.67474    238.15913    183.90085      39457.2 
  877300    310.59296    -1497.876    486.11119    384.36971    779.77779      39457.2 
  877400    301.48719   -1471.5743    497.88409    381.51331    529.17029      39457.2 
  877500    296.83337    -1450.076    520.17299    404.38123    428.06146      39457.2 
  877600    301.42428   -1469.5062    482.85669    368.27115    715.06998      39457.2 
  877700    299.83697   -1455.9906    511.53371    403.32877     847.7095      39457.2 
  877800    299.89215   -1459.7334    488.79485    377.09511    304.00923      39457.2 
  877900    298.75517   -1462.8063    509.80244    389.91897    771.25092      39457.2 
  878000    294.55891   -1456.0192    476.72245    344.76373    -301.3944      39457.2 
  878100    299.86648   -1429.2687    473.95492    392.60452   -186.20223      39457.2 
  878200    294.24782   -1445.3757    476.33366    353.62003    67.359525      39457.2 
  878300    292.02225   -1440.0494    467.37358    339.98221    174.44306      39457.2 
  878400    304.68344   -1466.2226    499.09522    402.44345    766.80199      39457.2 
  878500     301.7423   -1462.6531    470.83365    364.53082    735.94638      39457.2 
  878600    295.29841   -1449.0967    469.86766    348.15543    599.04423      39457.2 
  878700    304.06604   -1467.4245    513.09375    412.46484   -53.824099      39457.2 
  878800    305.77773   -1457.1138    492.73745    410.11342    77.598595      39457.2 
  878900    299.49652   -1468.8436    501.81192    379.22355   -206.19936      39457.2 
  879000    306.69056   -1465.0132     472.6463    386.22601   -462.16992      39457.2 
  879100    297.70028   -1434.7607    473.54562    376.96605   -156.91929      39457.2 
  879200    306.84884   -1460.3322    473.84939    392.82157   -6.1996757      39457.2 
  879300    300.01043   -1511.8912    475.70811    312.38231   -188.05292      39457.2 
  879400    306.47963   -1495.6954    476.05087    358.00029    602.20234      39457.2 
  879500    295.42744   -1513.2488    479.81425    294.52999    355.01294      39457.2 
  879600    301.13619   -1515.9796    466.13827    303.78442    429.78957      39457.2 
  879700    301.87065   -1534.4568    467.45473    289.92505    222.93534      39457.2 
  879800    309.91567   -1526.1325    449.73106    316.68863     145.1618      39457.2 
  879900    298.48543   -1503.3545    451.74655    290.10239    170.02683      39457.2 
  880000    293.98977   -1477.5272    472.24101    316.21592     1156.534      39457.2 
  880100    291.70165   -1449.8403    477.91281    339.28939    654.58149      39457.2 
  880200    309.03839    -1525.348    479.00315    342.80173    551.01916      39457.2 
  880300    290.40886   -1549.8958     477.6907    233.20059    963.26622      39457.2 
  880400    302.84352   -1538.1732    473.81366    296.94074     359.5699      39457.2 
  880500    301.14844   -1482.8392    488.15802    358.99957   -123.94129      39457.2 
  880600    294.63871   -1475.2703     486.2256    335.37448   -270.80046      39457.2 
  880700    290.80432   -1478.7198    452.19094    280.65448   -356.89964      39457.2 
  880800    302.83019   -1478.2474    486.96208    369.95501    447.07636      39457.2 
  880900    301.76425   -1491.6087    522.02906    386.86929    538.05302      39457.2 
  881000    300.43668   -1447.9024    454.45584    357.03478    505.07085      39457.2 
  881100    302.64714   -1450.4155    494.14035    404.14241    31.747788      39457.2 
  881200    300.88577   -1460.1932    484.98022    377.28706   -458.60395      39457.2 
  881300    292.83563   -1437.0517    487.91124    367.17372    68.502904      39457.2 
  881400    306.62357   -1447.0457    466.74231     397.9884    816.85685      39457.2 
  881500    303.93882   -1456.2578    495.20223     405.1681    616.84115      39457.2 
  881600    302.53226   -1449.1928    472.60844    383.31675    3.3210505      39457.2 
  881700    295.21428   -1474.5625    497.75177    350.19562    791.10937      39457.2 
  881800    305.06957   -1470.3169    488.38134    389.37093    207.46569      39457.2 
  881900    303.37106   -1450.1112    480.84539    394.40577    85.162656      39457.2 
  882000    300.74373   -1487.4187    456.66611    321.10898    -150.6669      39457.2 
  882100    283.38155   -1486.5397    505.85919    293.13701   -974.85945      39457.2 
  882200    298.79813   -1454.7009    473.65061    362.06564    -770.7876      39457.2 
  882300    306.91535   -1460.0742    483.56048    403.08965    -587.3146      39457.2 
  882400     309.6491   -1438.3472    495.26357    448.80817     -638.788      39457.2 
  882500    295.69335   -1477.1095    472.26474    324.31502   -630.72039      39457.2 
  882600    304.27215   -1450.8388    469.58829     386.4715   -215.69574      39457.2 
  882700    294.15067   -1459.0773    487.27126    350.41935   -575.64023      39457.2 
  882800     306.3237   -1464.3255    482.35186    394.97024   -901.92851      39457.2 
  882900    301.97397   -1459.7475    497.90604    395.55015    -347.5325      39457.2 
  883000    314.59444   -1455.4826    485.32781    443.96655   -306.17105      39457.2 
  883100    298.01901   -1475.5317    467.17588    331.25798   -267.81373      39457.2 
  883200    304.97777   -1445.0398    494.16479    420.01886   -188.34721      39457.2 
  883300    299.95018    -1465.348    497.35993    380.30646   -295.50218      39457.2 
  883400    296.05395   -1491.9296    485.09292    323.94401   -910.67071      39457.2 
  883500    293.98135   -1489.0481    454.39251    286.80866    -688.7651      39457.2 
  883600    291.59315   -1511.9465    479.85391    278.63653   -464.67297      39457.2 
  883700    311.21777   -1489.5237    475.78794    385.20732   -244.78847      39457.2 
  883800    300.45826   -1502.5496    465.70894    313.73769   -32.050263      39457.2 
  883900    308.62046   -1533.0249    506.28836    360.53141    16.177404      39457.2 
  884000     308.9468   -1484.1643    485.83539    390.40596    196.62601      39457.2 
  884100    310.66253   -1502.7612    467.30479     360.9908   -625.13996      39457.2 
  884200    292.81828   -1468.5513    464.27062    311.95553   -510.91305      39457.2 
  884300    289.46606   -1507.2018    484.64747    278.61345   -490.24369      39457.2 
  884400    293.03714   -1492.1342    463.43989    288.52572   -546.74505      39457.2 
  884500    303.75297   -1454.9816    470.57906    380.98572    33.000827      39457.2 
  884600    303.74246   -1510.2041    496.15678    351.29375   -310.89638      39457.2 
  884700    293.76121   -1567.5592    460.35149    213.26696    220.52869      39457.2 
  884800    287.40441   -1538.1884    462.39417    216.10632   -318.84271      39457.2 
  884900    295.82677    -1522.394    506.04117    313.40672    142.56433      39457.2 
  885000    301.32159   -1514.6084     491.4746    331.32525    148.07477      39457.2 
  885100    295.44484    -1482.969     500.5166    345.59032    213.16639      39457.2 
  885200    300.75063   -1478.5838    449.69626    323.00505   -45.866115      39457.2 
  885300    300.83414   -1533.6651    458.03827    276.64117    741.61873      39457.2 
  885400    305.12247   -1500.6003    496.85913    367.80311    757.01642      39457.2 
  885500    303.73476   -1488.5948    474.19041    350.90207    879.37839      39457.2 
  885600    313.86067    -1506.349    488.95313     393.4271    1086.5464      39457.2 
  885700    298.82386   -1532.5574    448.93792    259.61215    428.90459      39457.2 
  885800    296.27792    -1529.463     484.6711    286.99552    108.00894      39457.2 
  885900    300.60019   -1519.5626    458.09189    289.74567    500.77022      39457.2 
  886000    297.39985   -1507.0458    479.31933    309.10412    187.71477      39457.2 
  886100    292.55507   -1467.7319    480.23784      327.559    513.38119      39457.2 
  886200    307.18566   -1461.7342     495.6173    414.70154    677.03597      39457.2 
  886300     298.6816   -1492.5706    472.30091    322.32246    303.69562      39457.2 
  886400    294.47798   -1485.5138    503.89353    342.07637    465.77794      39457.2 
  886500    290.47887   -1489.6351    483.32462     299.4099   -39.950964      39457.2 
  886600    300.41384   -1491.3605    465.49296    324.51111    -597.8228      39457.2 
  886700    299.86654   -1504.2684    467.30908     310.9592   -82.319088      39457.2 
  886800    301.27445   -1551.2533    478.27297     281.2669    178.94863      39457.2 
  886900    310.52312   -1475.4901    483.02824    403.35868    209.30649      39457.2 
  887000    294.96213   -1520.4446    470.83448    276.26276    213.71481      39457.2 
  887100    307.22023   -1510.8765    456.41572    326.51302     421.7104      39457.2 
  887200    300.54814   -1549.2122    474.39582      276.166    221.47475      39457.2 
  887300    287.39755   -1539.3424    486.28441    238.81168    115.45512      39457.2 
  887400    291.04941   -1482.4417    468.76954    294.61285   -155.44149      39457.2 
  887500    302.00561   -1478.3567    488.57931    367.75637   -335.69445      39457.2 
  887600     311.5204   -1492.3241    476.00369    383.98299   -11.482335      39457.2 
  887700    295.65952   -1486.0417    500.71147    343.67753   -658.29392      39457.2 
  887800    302.91741   -1520.5354    452.62433    293.72137   -240.17392      39457.2 
  887900    298.47315    -1504.445    476.53092    313.74112   -134.16188      39457.2 
  888000    307.88795   -1477.0186    476.99438    383.95108   -171.90474      39457.2 
  888100    300.77293   -1464.5458    478.93045    366.37747    98.908715      39457.2 
  888200    293.94798   -1496.9139    464.75401    289.15435   -273.75389      39457.2 
  888300    295.39176   -1528.5563    457.94438     257.1922   -838.41076      39457.2 
  888400    307.13519   -1509.0881    491.31496    362.81845   -351.95673      39457.2 
  888500    288.04386   -1488.5468    502.50472    308.73278    93.824875      39457.2 
  888600    292.12071   -1512.8247    491.57285    291.84874    19.559987      39457.2 
  888700    300.42364   -1534.7054    497.27877    312.99613     409.5624      39457.2 
  888800    297.40835   -1503.5474    470.70141    304.02285    662.87732      39457.2 
  888900    301.20577   -1514.9201    501.86165    340.88004    895.96209      39457.2 
  889000    292.88717   -1527.5978    467.49568    256.44374    519.22847      39457.2 
  889100     301.3361   -1521.0065    494.55098    328.06885    797.79602      39457.2 
  889200    304.67827   -1501.8205    495.35879    363.08584     628.2112      39457.2 
  889300    299.55598    -1494.877    461.10443    312.74998    298.61257      39457.2 
  889400    299.93215   -1548.4677     492.3546    292.10032     422.5093      39457.2 
  889500     302.4666    -1527.621    492.20628    324.19128     550.5461      39457.2 
  889600    299.37859   -1483.0754     472.1974    334.84723    131.59319      39457.2 
  889700      305.806   -1539.3939    454.16662    289.38953    165.00767      39457.2 
  889800     306.9066   -1537.0376    481.21378    323.74021    143.07775      39457.2 
  889900    310.18076   -1544.8189    468.27881    317.74153    79.007879      39457.2 
  890000    304.08646   -1505.8303    476.53939    337.59643   -283.88254      39457.2 
  890100    307.85172   -1527.8247    486.53552    342.52329   -17.767958      39457.2 
  890200    295.52459   -1514.9612    477.90292    291.34295   -290.09763      39457.2 
  890300    295.34096   -1534.6682    508.06856    300.97619   -800.38104      39457.2 
  890400    296.75745   -1503.4243    491.08747    321.60621    -363.2906      39457.2 
  890500    302.69697   -1510.2137    538.95401    389.38179    -72.81709      39457.2 
  890600    295.68013   -1548.8127    462.81217    243.09984    -454.1591      39457.2 
  890700    312.14696   -1501.5357    471.88991    373.47396   -404.66749      39457.2 
  890800    305.25229   -1493.5458    494.32394    372.90601    -414.9446      39457.2 
  890900    305.89435    -1498.616    504.70979    381.10777   -237.22818      39457.2 
  891000    284.93771   -1521.5876    472.05413    231.27905    107.28501      39457.2 
  891100    297.63323    -1529.559    493.87594    302.19666    766.51334      39457.2 
  891200    290.15872   -1546.3918    499.32578    257.21526    477.41311      39457.2 
  891300    288.54427   -1481.2445    479.35046    295.13023    849.12379      39457.2 
  891400    301.66803   -1514.5524    504.29079    345.75476    445.86836      39457.2 
  891500    294.91133   -1523.3888    484.96176    287.21751   -307.68787      39457.2 
  891600    294.32656   -1486.7723    505.74858    341.99233   -508.66424      39457.2 
  891700    310.48505   -1519.1386    471.66476    348.17552    193.06239      39457.2 
  891800    288.95749   -1530.3996    496.93474    265.41681    369.13584      39457.2 
  891900    291.26381   -1513.6242    491.11492    286.73945   -58.242014      39457.2 
  892000    313.84146   -1536.0168    521.19158    395.91145    60.564296      39457.2 
  892100    297.73434   -1548.7027    473.64236    263.27386    167.28305      39457.2 
  892200    295.71083   -1478.0511    510.22432    361.41157   -563.17362      39457.2 
  892300    294.04219   -1510.8778     470.1064    280.96636   -1148.5012      39457.2 
  892400    293.86622   -1503.4617    491.70247    309.18757   -54.116444      39457.2 
  892500    293.31299   -1501.9042     522.7428    339.29854    551.96248      39457.2 
  892600    303.97766   -1493.0223    489.34396    362.71993    416.13929      39457.2 
  892700    299.81602   -1523.1201    501.63088    326.20221    508.21381      39457.2 
  892800     293.8771   -1524.4239    497.58999    294.16172    413.73934      39457.2 
  892900    298.64956   -1488.8409    506.81258    360.41984    709.88134      39457.2 
  893000    293.62015   -1525.4757    513.65505    308.01999     458.7051      39457.2 
  893100    299.94081   -1523.6366    489.81075    314.42652    518.22026      39457.2 
  893200    300.60481   -1514.9082    510.83741     347.1663    8.7583264      39457.2 
  893300     294.7471   -1492.5375    499.89561     332.2645   -122.34475      39457.2 
  893400    291.72582   -1471.8515    497.13152     336.6055   -287.43015      39457.2 
  893500    304.07547   -1534.8586    488.55193    320.53126    384.68786      39457.2 
  893600    298.53656   -1505.5851    514.46525    350.82037     613.7437      39457.2 
  893700     297.6764   -1517.7055    484.78032    305.14858     859.2618      39457.2 
  893800    309.12333   -1522.5982    494.63306     361.5632    146.55009      39457.2 
  893900     302.5604   -1495.7677    491.52633    355.78623    47.025611      39457.2 
  894000    306.66202   -1524.2139    483.92087    338.17167 -0.075731021      39457.2 
  894100    307.27729   -1470.4419    493.82663    404.61507   -318.87413      39457.2 
  894200    314.36627   -1445.4703    479.48998    447.11537   -424.89361      39457.2 
  894300    296.01303   -1469.2472    513.41599    374.76557   -450.22322      39457.2 
  894400       288.23    -1506.271    479.29989    268.64044    361.95425      39457.2 
  894500    298.53686   -1515.7528    501.18184    327.37059    174.27985      39457.2 
  894600    291.63335   -1518.5107    506.00719    298.40634    150.18416      39457.2 
  894700    293.89484   -1512.5546    472.78243    281.30317    174.60327      39457.2 
  894800    298.27197   -1510.2437    472.94514    303.45235   -120.48711      39457.2 
  894900    301.15375   -1511.4336    467.16153    309.43261    -13.86809      39457.2 
  895000     291.0208   -1495.6004    505.14509    317.70115    -44.98918      39457.2 
  895100    303.46738   -1526.7151    495.29971    332.68915    143.16543      39457.2 
  895200    296.88543   -1505.1108    493.98354      323.391    330.04451      39457.2 
  895300    294.55366   -1458.0292     477.0428    343.05042    283.12719      39457.2 
  895400    302.27044   -1473.4556    503.64639    388.91506    254.03613      39457.2 
  895500    308.81104   -1490.0994    454.81906    352.84432  -0.20810029      39457.2 
  895600    293.61216   -1462.3112    488.62193    346.11546   -424.31886      39457.2 
  895700    297.62718   -1465.9384    524.63994    396.55408   -139.88845      39457.2 
  895800    301.12504   -1463.1183     512.6075    403.06482    -459.7553      39457.2 
  895900    300.94571   -1454.0865    494.82681    393.50982   -173.24733      39457.2 
  896000    310.60962   -1447.6407    478.87787    427.44655   -291.00557      39457.2 
  896100    305.93115   -1459.6726    502.79245    418.29917   -364.96073      39457.2 
  896200    300.07947   -1493.3294    482.61958     338.1659    208.58885      39457.2 
  896300    294.51565   -1503.3111    524.78972    345.34459    93.565775      39457.2 
  896400    293.70077   -1487.3071    510.24158     343.1375    219.24733      39457.2 
  896500     303.0432   -1487.3027    459.43203    334.32714   -93.467381      39457.2 
  896600    313.89048   -1504.0163    481.98293     388.9237    173.99737      39457.2 
  896700    295.48845   -1503.2108    476.50345    301.53144    133.01531      39457.2 
  896800    303.89992   -1528.4105    493.13911     330.7774   -1.8137124      39457.2 
  896900    302.38789   -1487.4253    495.88711    367.71404    200.58075      39457.2 
  897000    293.93134   -1494.6204    480.17609    306.79519   -38.899116      39457.2 
  897100    307.33424   -1478.2648    469.49382    372.71533    390.98085      39457.2 
  897200    305.67696   -1470.3975    505.48979    409.12898     338.0632      39457.2 
  897300    300.48546   -1517.1715    463.79628     297.3254     746.6407      39457.2 
  897400     303.5021   -1514.4287     497.8102    347.64213    595.15362      39457.2 
  897500    302.46593   -1516.6086    471.39149    314.38583    313.28951      39457.2 
  897600    306.88275   -1481.2406    486.95938     385.1756   -233.92606      39457.2 
  897700    301.39717   -1504.5599    487.18251    337.42139   -1096.8328      39457.2 
  897800    300.85222   -1448.5604    506.30767    410.09648   -1037.6106      39457.2 
  897900    307.28544   -1517.6993    487.62668    351.19436   -385.99322      39457.2 
  898000    301.79833   -1548.8088    453.51189    261.30515   -65.040272      39457.2 
  898100    299.18754   -1553.9696    499.58872    290.48555   -170.52571      39457.2 
  898200    304.77738   -1497.3547    468.29738    340.93575    551.42397      39457.2 
  898300    296.53023   -1488.4244    513.76072    358.25799    140.99643      39457.2 
  898400    291.88974    -1483.559    498.29664        326.8    510.26139      39457.2 
  898500     308.1473   -1474.6324    498.06971     408.5784    106.03225      39457.2 
  898600    294.28935   -1498.2859    467.18131    291.74414   -247.30158      39457.2 
  898700    296.30795   -1486.8183    488.73375    333.83795    890.80621      39457.2 
  898800    305.14788   -1482.5523    490.56035    379.66656    513.37471      39457.2 
  898900    308.64014   -1474.7103    499.76826     412.4144    95.694967      39457.2 
  899000    289.23609   -1451.8685    476.24765    324.51316   -707.36981      39457.2 
  899100    299.03082   -1463.6688     483.7115    364.20462   -354.59352      39457.2 
  899200    294.93794   -1460.6496    497.43207    362.54662   -310.36702      39457.2 
  899300    305.88094   -1503.2117     465.4973    337.23922   -348.12194      39457.2 
  899400    297.31496   -1476.6076    478.49764    338.33908   -54.419992      39457.2 
  899500    302.55609   -1494.5571    476.67061    342.12172   -92.716558      39457.2 
  899600    293.85438   -1507.9719    479.83368    292.75533   -114.82121      39457.2 
  899700    293.98224   -1514.9485     472.7878    279.30761    353.00969      39457.2 
  899800    300.98999   -1442.9565    507.23587    417.24795    199.98327      39457.2 
  899900    299.11182   -1473.5302    478.35152    349.34733    186.49015      39457.2 
  900000    303.03064   -1433.0475    503.53971    432.63353    245.00252      39457.2 
  900100    289.31501   -1474.1795    480.70852    307.01776    -650.2664      39457.2 
  900200    304.51175   -1482.7811    485.95822    371.97616   -319.65404      39457.2 
  900300    293.42115   -1470.6811    470.61162    318.87659   -360.53285      39457.2 
  900400    296.25926   -1496.8528    494.09796    328.94872   -353.25735      39457.2 
  900500    296.30826   -1497.7373    469.91082    304.09737   -398.19721      39457.2 
  900600     302.7528   -1535.3337    488.70196    314.26069   -467.61302      39457.2 
  900700     300.0137   -1492.2899    479.32362    335.61379    -95.62376      39457.2 
  900800    299.45478   -1521.8406    474.30312    298.53019    372.26851      39457.2 
  900900    305.97058   -1524.0663    478.37077    329.66111   -165.74441      39457.2 
  901000    298.35877   -1532.4406    500.26663    308.96707   -62.911436      39457.2 
  901100    294.58549   -1538.1247    501.44962    287.50485     154.3603      39457.2 
  901200    292.40337   -1511.2155    500.28151     303.4371   -84.427682      39457.2 
  901300    299.71771   -1462.6993    484.07622    368.62652    301.43718      39457.2 
  901400    297.42752   -1507.5156    495.61853    325.05793   -263.42592      39457.2 
  901500    285.35295   -1489.8332    473.52174    266.36761   -646.41071      39457.2 
  901600    304.51355   -1538.6163    474.78522    304.97609   -480.07019      39457.2 
  901700    291.01775   -1490.4745    491.60998    309.27819   -836.94408      39457.2 
  901800    307.75189   -1491.6556    490.68381     382.3919   -77.467699      39457.2 
  901900    299.01363   -1530.7955    500.90729    314.19641   -55.727827      39457.2 
  902000    295.03541   -1541.7141    494.43258    278.92082   -119.56397      39457.2 
  902100    306.26699   -1552.2764    498.53209    322.94461    87.055672      39457.2 
  902200    307.22867   -1502.7397    488.63869    366.91081    632.18972      39457.2 
  902300    305.08163   -1551.3025    477.34925    297.40741   -3.3013542      39457.2 
  902400    289.33343   -1573.0276    478.91378    206.45777    37.932769      39457.2 
  902500    299.85348   -1538.0648    476.50287    286.29796    178.40924      39457.2 
  902600    300.46713   -1531.7634    472.18411      291.039    60.514664      39457.2 
  902700    306.54216   -1538.8794    501.95165    340.99813   -167.39605      39457.2 
  902800    295.01226   -1535.4895    461.61983    252.22862    48.938272      39457.2 
  902900    294.59091   -1497.7988    506.63006    333.03551    267.30868      39457.2 
  903000    306.51375   -1472.4371    513.42278    418.78383    587.54058      39457.2 
  903100    295.32152   -1480.4066    516.25978    363.34158   -47.661418      39457.2 
  903200    295.61465   -1492.6955    460.73552    296.84608    4.5309853      39457.2 
  903300     302.2924   -1531.1683    481.78401    309.43865   -297.87542      39457.2 
  903400    304.81563   -1507.8316    486.23261    348.56599    557.45628      39457.2 
  903500    293.95023     -1495.79    502.80345    328.33779    399.91599      39457.2 
  903600    298.16372   -1471.5316    501.47902    370.21174    32.495088      39457.2 
  903700    291.35092   -1480.7263    509.16017    338.07422    69.238759      39457.2 
  903800    308.69793   -1482.1647    483.12671    388.57823    140.04639      39457.2 
  903900    289.72142   -1494.3056    486.84835    294.85841    288.65986      39457.2 
  904000    297.11296   -1479.5033    499.44406    355.48183    262.41178      39457.2 
  904100    301.96929   -1460.0804    485.67191    382.96207   -224.36705      39457.2 
  904200    300.40342   -1436.7773    518.06747    431.62203    255.59679      39457.2 
  904300    301.43617   -1426.4639    500.38081    428.89103    292.37315      39457.2 
  904400    299.50052    -1460.565    511.08961     396.7979    97.586211      39457.2 
  904500     303.6563   -1471.3453     463.7481    357.35656    -118.1545      39457.2 
  904600    299.10037   -1481.3992    495.95573    359.03115    48.303027      39457.2 
  904700    300.27271   -1487.2779    485.90454    348.37096    237.83699      39457.2 
  904800    299.19435   -1508.7822    488.17551    324.29031    114.43168      39457.2 
  904900    296.33541   -1515.7958    502.25362    318.50372   -273.15497      39457.2 
  905000     296.2904   -1507.5026     489.4546     313.7956   -375.58037      39457.2 
  905100    303.59872   -1489.1356    491.47312    367.03248     296.2236      39457.2 
  905200    303.15319    -1461.531    486.81297    387.97423    197.91973      39457.2 
  905300    298.04004   -1500.7546    493.59304    332.54682   -15.789471      39457.2 
  905400    311.82469   -1479.0425    476.01266    398.64135   -123.13162      39457.2 
  905500    301.04386   -1514.5092    487.37918    326.08069    235.22471      39457.2 
  905600     301.0474   -1529.7318    482.10853    305.60332    248.29975      39457.2 
  905700    303.98247   -1564.5197     479.9666    281.86679     130.6403      39457.2 
  905800    301.99732   -1490.4778    510.06764    377.08637   -101.56523      39457.2 
  905900    302.32086   -1487.5989    492.55755    363.90954    105.49648      39457.2 
  906000    292.43974   -1492.8592    493.93567    315.61115    -282.2584      39457.2 
  906100    293.65178   -1500.5382    476.28397    295.72857   -401.04196      39457.2 
  906200    302.37771   -1498.4794    496.19956    356.92655   -173.95631      39457.2 
  906300    296.78112   -1454.0451    519.70086     399.7052    116.79132      39457.2 
  906400    301.92617   -1442.8331    505.57328    419.91688    488.95602      39457.2 
  906500    295.13222   -1429.6548     501.2532     398.2359   -30.175871      39457.2 
  906600    302.06418   -1477.0327    525.62831    406.39271    636.42006      39457.2 
  906700    301.03806    -1497.703    465.90155    321.38313   -175.68432      39457.2 
  906800    295.05076   -1490.1939    494.92648     331.0039    376.20326      39457.2 
  906900    308.92582   -1547.5075    511.32069    352.45383     339.5295      39457.2 
  907000    298.83692   -1489.8462    455.97285    309.41705   -367.05672      39457.2 
  907100    308.55487   -1470.4596    516.01494    432.52845   -401.02935      39457.2 
  907200    301.51374    -1493.358    484.51112    346.47596   -88.575113      39457.2 
  907300    303.50401   -1456.3576    510.07498    417.98662   -405.52265      39457.2 
  907400    303.57168   -1476.0396    500.48179    389.01555   -347.31273      39457.2 
  907500    290.48603   -1461.9768    476.73753    320.51333   -60.867718      39457.2 
  907600    313.95052   -1558.4434     482.1528    334.93632   -227.45541      39457.2 
  907700    302.79835   -1506.5096     509.2442    363.83179   -246.51188      39457.2 
  907800    295.63449   -1491.8662    497.35351    334.38251    195.29689      39457.2 
  907900    303.43804   -1453.8241    498.02553    408.17408    29.813526      39457.2 
  908000    304.82425   -1449.6021    493.05574    413.65737    4.5858836      39457.2 
  908100    310.83788    -1491.207    497.44335    403.47177    302.53085      39457.2 
  908200    299.65804    -1483.393    482.21609    345.80443   -124.17528      39457.2 
  908300    306.66786   -1468.7892    512.10781    421.80953    87.938685      39457.2 
  908400    308.17844   -1486.2305    472.06741    371.11795    25.164044      39457.2 
  908500    300.46204   -1479.1154    475.92511    347.40512    174.71822      39457.2 
  908600    301.91577   -1500.9022    494.76296    350.99073     12.59896      39457.2 
  908700    296.74307   -1502.0141    492.96064    324.82487   -98.617129      39457.2 
  908800    293.49932   -1491.7515    491.16077    318.70682    129.88925      39457.2 
  908900     305.6636   -1533.6525    474.82325    315.14741   -43.728963      39457.2 
  909000    293.62739   -1486.8327    471.69189    304.73235    6.9227208      39457.2 
  909100      306.933   -1481.3728    499.39848    397.70842    115.14177      39457.2 
  909200    290.03466   -1490.0194    466.94948    280.65377    -310.0024      39457.2 
  909300    303.32351   -1517.1193     481.2794    327.61793   -810.73139      39457.2 
  909400    290.25345   -1517.8175    492.68181    279.57143   -154.99524      39457.2 
  909500    298.39895   -1522.7717    486.81371     305.3636   -177.50718      39457.2 
  909600    306.84725   -1504.8017    478.35192    352.84751   -14.602085      39457.2 
  909700    299.79361   -1516.9729    498.85317    329.47104    87.179828      39457.2 
  909800    297.37366   -1545.0488    462.14322    253.80728    -438.2029      39457.2 
  909900    301.71043   -1547.8755     456.9592    265.29066   -59.129076      39457.2 
  910000    297.65109   -1480.8281    494.54737    351.67923    -65.99393      39457.2 
  910100    296.25473   -1511.1231    491.86068    312.42077   -63.600709      39457.2 
  910200    302.58347   -1521.9065    504.00177    342.22655    43.396908      39457.2 
  910300    302.06428   -1508.8947    457.54233     306.4452   -247.65983      39457.2 
  910400    286.81226   -1497.9022    485.44265    276.77921    61.509338      39457.2 
  910500    308.73591   -1521.2544    488.37839    354.91096    -115.8586      39457.2 
  910600    297.08322   -1555.0948    465.63814    245.95065    197.53584      39457.2 
  910700    297.23138   -1534.4974    474.83075    276.40667    391.12826      39457.2 
  910800    309.95958   -1517.0872    492.46685    368.66703    126.56318      39457.2 
  910900     289.3103   -1482.9102    501.24102    318.79845    283.67778      39457.2 
  911000    295.16166   -1505.6891    462.05902    283.13976    109.22856      39457.2 
  911100    299.41652   -1480.0599    466.68006    332.51584     626.0512      39457.2 
  911200    297.64896   -1495.8444    496.32378    338.42974    229.09452      39457.2 
  911300     306.3945   -1439.6779    486.55646    424.14071   -617.85439      39457.2 
  911400     292.4748   -1444.7707    466.34295    336.26449   -74.330833      39457.2 
  911500    299.08269   -1434.4903    496.09741     406.0022   -431.68779      39457.2 
  911600     303.9383   -1445.1757    509.92044     430.9661   -12.871557      39457.2 
  911700    299.33303   -1434.5796     486.2592    397.19997   -483.90002      39457.2 
  911800    298.86964   -1457.4709    485.37271    371.33922   -414.14822      39457.2 
  911900    310.11614   -1438.6913    510.23687    465.53668   -523.80212      39457.2 
  912000    293.87135   -1464.3447    501.83648    358.46155   -263.07738      39457.2 
  912100    301.65304    -1474.997    478.05721    359.00916   -3.4492186      39457.2 
  912200     301.5228   -1481.2619    489.78555    363.88718   -47.173246      39457.2 
  912300    292.22536   -1478.1535    486.21006    321.62751   -152.92224      39457.2 
  912400    309.26951   -1481.7695    485.60211    394.01812    -55.45848      39457.2 
  912500    299.10811   -1494.9203    516.36873    365.95782    198.21732      39457.2 
  912600    287.81373   -1487.5377    492.41509    298.61782    458.51556      39457.2 
  912700     294.2322   -1521.2304    499.50393     300.8654   -158.18373      39457.2 
  912800    297.17538   -1465.7695    497.78074    367.83282    186.67922      39457.2 
  912900    309.22109   -1483.2192    456.50664    363.25531    -362.2412      39457.2 
  913000    303.55697   -1501.2361     467.8609    331.13206   -216.89713      39457.2 
  913100    304.45975   -1516.8724    465.51537    317.20832   -714.64054      39457.2 
  913200    304.81537   -1498.3307    494.43961    366.27275   -498.24867      39457.2 
  913300    297.60355   -1489.8113    462.74279    310.67778   -917.81908      39457.2 
  913400      294.649    -1469.249    486.16569    341.38204   -630.47542      39457.2 
  913500    289.70951   -1467.8185     493.6063    328.04987   -395.84239      39457.2 
  913600    297.58859   -1464.5364    483.92327     357.0659   -322.88447      39457.2 
  913700    307.93944   -1438.4929    502.75051    448.46435   -591.22517      39457.2 
  913800    306.42417   -1478.2076    469.23022    368.41818    40.078281      39457.2 
  913900    303.06412   -1488.0913    490.90765     365.1082   -194.38069      39457.2 
  914000    297.24779   -1446.3751    467.29489    357.06691   -36.482883      39457.2 
  914100    297.57999   -1501.9459    466.82662    302.52107     334.5411      39457.2 
  914200    299.51463   -1462.6707    508.18326    391.84925    141.51983      39457.2 
  914300    303.11502   -1470.0529    454.46408    346.93189    187.44031      39457.2 
  914400    295.29043   -1473.5276    495.51885    349.33985   -126.76226      39457.2 
  914500    291.62308   -1464.6636    483.37992    329.58003   -151.04566      39457.2 
  914600    298.17779   -1447.1415    491.00649    384.19255    250.76934      39457.2 
  914700     306.0375   -1437.2009    478.12067    416.57717     59.66846      39457.2 
  914800    285.54794   -1434.2117    467.74074    317.08466   -272.95166      39457.2 
  914900    295.56009   -1458.7836    480.81481    350.59205   -656.02434      39457.2 
  915000    313.16997   -1437.9542    459.82153    429.58562    -176.7753      39457.2 
  915100    299.02771   -1464.2403    461.28459    341.19222   -113.12756      39457.2 
  915200    302.42022   -1489.2398    503.51488    373.67263    300.39729      39457.2 
  915300    290.87272   -1488.6572    478.58816    297.42169    839.13744      39457.2 
  915400    308.59594   -1482.8717    491.54274    395.82883    709.30016      39457.2 
  915500    301.43336   -1465.9966    495.18769     384.1526    150.93156      39457.2 
  915600    306.89222   -1469.2915    471.06369    381.27164    161.41769      39457.2 
  915700    301.57305   -1450.2491    490.29641    395.63671    303.75912      39457.2 
  915800    299.39318   -1438.2461    478.56043     386.1051    428.86047      39457.2 
  915900    292.50278   -1460.8496    459.62503    313.59341    63.158671      39457.2 
  916000    309.90832   -1491.7666    469.77323    371.06357    204.46592      39457.2 
  916100     290.5822    -1494.593    483.61672    295.20855   -360.85613      39457.2 
  916200    296.51796   -1443.0705    511.64633     401.4423    290.96125      39457.2 
  916300    312.00145   -1484.2539    481.68229    399.89411   -380.37986      39457.2 
  916400     296.8321   -1477.9584    457.47303    313.79325   -223.82272      39457.2 
  916500    302.71387   -1429.8188    501.65775    432.55642   -205.79806      39457.2 
  916600     294.0738   -1456.2745     484.0542    349.65952    189.40787      39457.2 
  916700    309.67792   -1486.9608    506.00337    411.06382    410.93073      39457.2 
  916800     289.7909   -1443.8102    485.00747    343.82519    16.821269      39457.2 
  916900    302.14719   -1441.9092    475.93503    392.19608    100.30854      39457.2 
  917000    303.23414   -1440.2537    470.07499    392.87739    228.54965      39457.2 
  917100    287.59207   -1430.5531    496.24103      358.432   -487.46947      39457.2 
  917200    289.55184   -1415.3695    492.38742    378.57131   -468.94853      39457.2 
  917300    290.06609   -1469.2712    490.88568    325.47942   -35.425689      39457.2 
  917400     299.6251   -1433.2312    483.67906    397.28108   -18.960426      39457.2 
  917500    302.89351   -1490.4018    462.46214    333.58531   -246.45223      39457.2 
  917600    304.55883   -1492.2805    485.72316    362.45331    102.69689      39457.2 
  917700    301.31095    -1474.577     482.1392    361.97352    166.93284      39457.2 
  917800    295.88019   -1441.8437    451.35553    339.51146     397.8909      39457.2 
  917900    303.25712   -1446.7131    495.07932    411.52566   -229.34491      39457.2 
  918000    288.45557   -1492.6039    465.45653    269.47816   -206.38372      39457.2 
  918100    300.33324   -1500.0351    462.18846    312.16971    130.04294      39457.2 
  918200    288.39642   -1485.2766      475.973    287.05602   -366.54637      39457.2 
  918300    304.89121    -1470.146    449.31922    349.67798   -108.12277      39457.2 
  918400    302.50213   -1441.9266    472.37198    390.21107    23.947934      39457.2 
  918500    294.93103   -1475.8166    465.01852    314.93506    -59.84529      39457.2 
  918600    301.55232   -1426.8107    482.76371    411.44925    205.19632      39457.2 
  918700    299.53203   -1412.1367    494.98911    429.26727   -136.20847      39457.2 
  918800    297.63647   -1410.2505    465.40149    393.04522   -841.11906      39457.2 
  918900    308.99165   -1471.6702    458.86677    376.13307   -165.71462      39457.2 
  919000    294.61817   -1506.0201    472.60577    290.91251     -424.195      39457.2 
  919100    297.05735   -1479.7795     448.4124    303.92397   -2.6928545      39457.2 
  919200    299.62067   -1481.2733    487.98382    353.52386   -141.67999      39457.2 
  919300    304.92132   -1474.8574    500.45461    396.23731   -301.10733      39457.2 
  919400    293.84428   -1484.4348    437.75986    274.17323   -449.00026      39457.2 
  919500    283.20726   -1477.8331    512.88233    308.08327   -106.89024      39457.2 
  919600    287.33222   -1486.6041    458.59939    263.57135   -53.841079      39457.2 
  919700    299.38012    -1485.511    474.84855    335.06962    438.49096      39457.2 
  919800    297.16779    -1486.719    496.27069    345.33924    157.05558      39457.2 
  919900    309.53051   -1543.2357     494.8945    343.01753    792.12626      39457.2 
  920000    294.27745   -1487.8537    495.86614    330.80772    778.29576      39457.2 
  920100     289.4293   -1504.7499    474.15107    270.40362    576.83654      39457.2 
  920200    299.29455   -1510.2065    475.61358     310.7545    938.69683      39457.2 
  920300    289.13129   -1476.3756     489.4839    312.77128    441.26422      39457.2 
  920400    299.00397   -1507.2429     465.4208    302.21919     1118.219      39457.2 
  920500    295.53777   -1517.7185    461.55227    272.29424    786.66061      39457.2 
  920600    287.35379   -1522.0521    462.58303    232.20387    164.40614      39457.2 
  920700    290.09718   -1459.8749    478.33186    322.46162    202.94393      39457.2 
  920800    288.30883   -1470.7301    466.66027    291.89614   -349.56275      39457.2 
  920900    310.37099   -1465.1092    460.54917    390.57672   -360.25854      39457.2 
  921000    305.87595   -1472.1222    468.25946    371.06849   -45.923478      39457.2 
  921100    297.93347   -1507.7098    467.64624    299.16568   -504.87909      39457.2 
  921200    295.25057   -1499.3527     477.1284    304.94515   -779.54822      39457.2 
  921300    298.79325   -1469.1718    475.76235    349.68456   -590.42175      39457.2 
  921400    300.93037   -1496.7788    448.52742    304.44911   -355.85327      39457.2 
  921500    307.44833   -1516.4191     462.5685    328.14854   -279.68337      39457.2 
  921600    306.61052   -1522.1806     476.1922    332.24477   -202.88899      39457.2 
  921700     300.6957   -1504.8663    457.76225    304.54164   -125.80128      39457.2 
  921800    309.96168   -1500.5523    461.63857    354.38306    138.85192      39457.2 
  921900    311.41805   -1450.6556     492.1323    441.32005     85.25351      39457.2 
  922000    305.90728   -1532.3455    485.81863    328.54515    412.62066      39457.2 
  922100    285.94027   -1530.2374    503.53449    258.61616    483.51297      39457.2 
  922200    305.99173   -1514.8656    487.25943    347.84551     764.5715      39457.2 
  922300    299.25658   -1505.6639    469.02959    308.54249    1158.8086      39457.2 
  922400    307.02246    -1516.574    478.90987    342.42071    484.14119      39457.2 
  922500     295.5074   -1482.9541    472.21004    317.57991    164.77469      39457.2 
  922600    300.97722   -1518.9028    470.27558     304.2839   -161.40041      39457.2 
  922700    294.63237   -1510.5488    468.98997    282.83176    185.06456      39457.2 
  922800    299.02942   -1530.5328    460.16781    273.79059    550.68465      39457.2 
  922900     298.0043   -1499.4413    495.71227    335.81865    216.12612      39457.2 
  923000    291.43536   -1503.6091    431.00707    237.41779    469.26882      39457.2 
  923100    298.11333    -1486.091    499.85498    353.80179    348.23045      39457.2 
  923200    314.22627   -1492.4344    455.15459    375.18662     281.5431      39457.2 
  923300    299.64427   -1481.9405    479.07567    344.05459     325.3874      39457.2 
  923400    290.22324   -1482.2041    478.80935    301.17656   -139.97799      39457.2 
  923500    297.48982   -1452.2521    500.61511    385.59803    117.83751      39457.2 
  923600    306.38698   -1470.7205    504.02128    410.52912    370.28801      39457.2 
  923700    288.35364   -1444.6567    477.62749    329.13813    261.43377      39457.2 
  923800    311.26859   -1488.1922    478.67015    389.64945    215.56716      39457.2 
  923900    302.19866   -1516.3983    486.49355    328.49685    439.53935      39457.2 
  924000    300.16349   -1491.3228    470.02978    327.96037    552.78005      39457.2 
  924100    307.61082   -1521.1678     463.6129    325.17468    903.35096      39457.2 
  924200    295.32734   -1534.4302    485.91236    278.99673    737.26073      39457.2 
  924300    302.52414   -1501.0365    468.17533    327.00347    259.34704      39457.2 
  924400    297.86155    -1527.675    483.01414    294.24515    122.98715      39457.2 
  924500    313.42736   -1487.8269    452.25309    373.30145   -11.600178      39457.2 
  924600    301.46673     -1513.17    450.19857    292.14007    -678.2996      39457.2 
  924700    293.91416   -1482.9079    478.17172    316.42608    -526.8514      39457.2 
  924800    298.19628   -1517.1393    470.34693     293.6182   -318.89802      39457.2 
  924900    299.68465   -1495.7818    467.75043    319.06957    5.6450106      39457.2 
  925000    299.86605   -1497.8615    440.37216      290.427   -527.46193      39457.2 
  925100    299.60451   -1516.0898    492.08629    322.73724   -21.318015      39457.2 
  925200    301.60655   -1467.9592    468.51287    356.29363    283.18044      39457.2 
  925300     287.4167   -1483.8018    461.99263    270.14657   -110.93201      39457.2 
  925400    293.83737   -1478.8841    479.63615    321.56912   -162.67249      39457.2 
  925500    290.20022   -1508.5146    469.74215    265.69544   -426.97433      39457.2 
  925600    302.86029   -1534.2084    470.69163    297.85887   -627.43925      39457.2 
  925700    297.85272   -1524.2822    467.75314    282.33727   -256.92659      39457.2 
  925800    304.58728   -1491.2244    478.63632    356.55046    100.96158      39457.2 
  925900    306.25755   -1471.3423    483.18256    388.48679    145.25043      39457.2 
  926000    290.03277   -1480.6555    490.27322    313.33285    498.35293      39457.2 
  926100    299.81736   -1503.1074    497.19559    341.78564    734.00533      39457.2 
  926200    285.85978   -1471.8693    466.70025    279.78827    724.10345      39457.2 
  926300    293.93131   -1471.6089    509.01984    358.65033    206.57437      39457.2 
  926400    301.91785   -1434.8613    516.98641     439.2644    507.86981      39457.2 
  926500    296.40953   -1490.5009    473.16271    315.04094     233.1981      39457.2 
  926600    299.82325   -1460.5342    491.08855    378.27833   -169.34989      39457.2 
  926700    290.81381   -1431.8111     491.7782    367.19304   -937.54587      39457.2 
  926800    299.87367   -1482.7814    459.89915    325.06834    -384.4046      39457.2 
  926900    295.61703   -1449.1557    485.15796    364.81902   -987.74404      39457.2 
  927000    303.04732   -1454.1769    463.59662    371.63608   -277.65397      39457.2 
  927100    295.74033   -1450.3359    489.83294    368.86805   -289.41277      39457.2 
  927200    296.58979   -1463.0125    508.89763    379.07449    543.32995      39457.2 
  927300    292.57585   -1435.5908    478.02165     357.5773    42.551636      39457.2 
  927400    301.19503   -1484.8248    472.43918    341.50459     122.3091      39457.2 
  927500    300.29132   -1512.3183    494.68181    332.19149    492.27861      39457.2 
  927600    293.08117   -1474.7644    476.94645        319.6    254.48155      39457.2 
  927700    299.66049    -1464.578    495.92382    378.33819     291.0764      39457.2 
  927800    296.97525   -1477.0474    495.73369    353.60826    285.69412      39457.2 
  927900    298.02463    -1446.908    466.57688    359.30793    389.05106      39457.2 
  928000    303.94794   -1516.5267     492.2755    342.01354    230.00931      39457.2 
  928100     311.0771   -1527.4462     481.7141    352.57867    277.31527      39457.2 
  928200    301.08549   -1518.1111    477.37011    312.65682    215.56533      39457.2 
  928300     303.2421   -1477.9433    464.65463    349.80319     195.5915      39457.2 
  928400     300.5068   -1502.3741    493.24996    341.67245   -53.245814      39457.2 
  928500    310.14139   -1501.8567    475.09943    367.34739    592.47041      39457.2 
  928600    296.10159    -1494.466    489.31869    325.84758    67.135902      39457.2 
  928700    303.05261   -1463.6384    481.04779    379.64949    248.55473      39457.2 
  928800    296.23912   -1462.0074    474.48644    344.09207    142.01276      39457.2 
  928900    302.71594   -1471.1499    515.81666    405.39353   -50.486268      39457.2 
  929000     302.5726   -1471.1152    464.49677    353.46404   -508.52076      39457.2 
  929100    311.20594   -1469.7222    474.45329    403.62091     55.79753      39457.2 
  929200    304.11253    -1476.148    489.31265    380.16922   -306.83054      39457.2 
  929300    297.13936   -1476.8084     469.4695    328.32083   -220.54406      39457.2 
  929400    297.14789   -1499.7129    498.33429    334.31937    288.79239      39457.2 
  929500    301.70309   -1480.4062    487.34357    363.11132    500.52747      39457.2 
  929600      304.121   -1457.7848    500.09134    409.34914    356.82444      39457.2 
  929700    308.28834   -1494.4368    490.28375    381.62206    526.35342      39457.2 
  929800    292.04369    -1478.773    491.73697    325.71832    78.922114      39457.2 
  929900    296.71599   -1423.7937    488.98438    398.94727   -181.01365      39457.2 
  930000    299.69199   -1474.9137    487.29725    359.51755   -301.77866      39457.2 
  930100    293.04392   -1472.7576    466.38291    310.87576   -437.70084      39457.2 
  930200     301.4573   -1486.3515    474.61639    343.33398   -686.48369      39457.2 
  930300    294.29746   -1480.9188    476.48689    318.45325   -375.03497      39457.2 
  930400    298.07658   -1509.1479     470.2936    301.01824   -264.20679      39457.2 
  930500    306.73489   -1508.2029    495.15256    365.74188    199.56561      39457.2 
  930600    294.42601   -1539.1374    457.62561    241.95127    436.61832      39457.2 
  930700    303.95269   -1515.3286    496.38133    347.33881    729.54126      39457.2 
  930800    304.38532   -1465.0627    470.20966    373.37769    325.33682      39457.2 
  930900    308.95477   -1500.7228     508.5565    396.60443    389.93446      39457.2 
  931000    293.39753   -1517.2749    463.94223     265.5073   -347.52457      39457.2 
  931100    287.21176   -1493.6503    511.48456    308.86881   -631.52455      39457.2 
  931200     305.8468   -1491.8971    486.59012    369.49318   -647.14022      39457.2 
  931300    302.38004   -1473.2178    476.16147    362.16055   -318.23941      39457.2 
  931400    290.19498   -1476.9929    479.68041    307.13177   -462.51637      39457.2 
  931500    304.79227   -1498.7305    509.09929    380.42879    -22.47191      39457.2 
  931600    298.83573   -1493.6545     485.2688    334.89937    731.27661      39457.2 
  931700    293.54522   -1476.7571    497.04989    339.79658    597.01361      39457.2 
  931800    289.82277   -1472.1693    512.74249    343.34439    499.41155      39457.2 
  931900    301.57909   -1475.5154    481.01577    361.11689     241.0284      39457.2 
  932000    297.88875   -1501.4059    463.85622    301.47856    477.23225      39457.2 
  932100    295.58888   -1471.7879    495.97657    352.87892    171.83682      39457.2 
  932200    295.18452   -1458.0524    490.69394    359.51418    455.89181      39457.2 
  932300     306.8413   -1529.8556    477.76811    327.18305    276.82201      39457.2 
  932400    306.76456   -1473.1831    477.94657    383.68901   -250.42912      39457.2 
  932500    296.32737   -1451.8152    460.27615    340.47072   -78.074642      39457.2 
  932600    304.65231   -1503.4053    504.11199    370.13755   -36.387712      39457.2 
  932700    292.70493   -1459.2832    484.70942    341.15287    35.263537      39457.2 
  932800    299.03747   -1450.7586    490.26301    383.69623   -539.88001      39457.2 
  932900    298.65977   -1507.7758    466.84392     301.5622   -806.70351      39457.2 
  933000    297.41953   -1505.5514     463.2984     294.6661    -719.9629      39457.2 
  933100    294.44295   -1502.5491    474.02422     295.0143    -451.1497      39457.2 
  933200    299.00136   -1527.4251    470.12561    286.72998   -226.20369      39457.2 
  933300     313.7412   -1510.8296    474.02844    373.48485    181.01702      39457.2 
  933400    304.15601   -1553.8749    472.01199    285.33704    434.10318      39457.2 
  933500    292.45978   -1530.7619    477.29742    261.16023    771.37302      39457.2 
  933600    300.14386    -1531.317    440.32166    258.16983    254.60434      39457.2 
  933700    296.67487   -1526.9539    482.43883    289.05674    62.079877      39457.2 
  933800    299.69768   -1577.3386    472.11902    241.93993   -174.50068      39457.2 
  933900    293.18574   -1589.6783    488.23398     216.4436   -226.12777      39457.2 
  934000    287.75971   -1543.8053    459.65641    209.34869   -232.27759      39457.2 
  934100    306.74129   -1556.7645    496.16021    318.21665    41.521747      39457.2 
  934200    296.17467   -1531.2029     467.7547    267.87515   -198.27719      39457.2 
  934300    305.21959   -1546.4506     450.2164    275.74669   -503.27563      39457.2 
  934400    305.24917     -1552.64    469.24521    288.71895   -532.70512      39457.2 
  934500     291.3522   -1499.9782    487.87082    297.53874   -735.06788      39457.2 
  934600    304.80191   -1507.1955    470.96185    333.86966   -144.89266      39457.2 
  934700    299.83136   -1508.8368    470.88404    309.80766   -498.68341      39457.2 
  934800    311.49692   -1526.7578    479.66421    353.10428   -209.10962      39457.2 
  934900    313.35089   -1515.7138    468.48775    361.30546   -448.00643      39457.2 
  935000    292.80436   -1507.0155    488.10691    297.26505   -130.27749      39457.2 
  935100    305.43004   -1489.0194    491.20878     375.1162    207.56422      39457.2 
  935200     302.0045   -1470.4931      479.326    366.36173   -11.577627      39457.2 
  935300    282.38876    -1456.013    493.73721    307.07911   -201.92699      39457.2 
  935400    304.57865   -1547.4196    455.26751    276.94767    -481.4293      39457.2 
  935500    307.11187   -1527.1588     460.6106    313.93856     96.27983      39457.2 
  935600    296.59647   -1505.6759    468.42624    295.96976    10.715168      39457.2 
  935700    294.49967   -1499.8343    492.97068    316.93052    25.233533      39457.2 
  935800     304.2489    -1498.611    489.94782    358.95436   -308.51367      39457.2 
  935900     296.8156   -1497.6024    476.53829     313.1403   -437.82303      39457.2 
  936000     290.2452   -1468.9782    475.77663    311.46849    128.24304      39457.2 
  936100     312.6595   -1492.2138    489.36952    402.57944    145.14535      39457.2 
  936200     301.5133   -1502.1641    484.97368    338.13044    333.07583      39457.2 
  936300    297.88084   -1507.3258     457.8366    289.50349    226.12049      39457.2 
  936400    306.72305   -1461.8214    496.83575    413.75337    116.10267      39457.2 
  936500    300.66237   -1524.1526     459.5471    286.89036   -185.01381      39457.2 
  936600    299.92401   -1507.7225    473.55299    314.00742    86.034141      39457.2 
  936700     305.9319   -1483.2347    462.63469    354.58269   -193.72234      39457.2 
  936800    292.49695   -1493.7901    481.36567    302.36742   -169.02826      39457.2 
  936900    302.77409   -1457.3991    507.16423    410.75329    62.445192      39457.2 
  937000    299.89323   -1450.7442      499.824    397.11831   -205.05532      39457.2 
  937100    296.85496   -1425.3872    481.78006    390.77421   -376.36451      39457.2 
  937200    301.48606   -1487.8555    480.66881    348.01169   -146.19823      39457.2 
  937300    296.89387   -1499.4033    479.35166    314.50455       178.75      39457.2 
  937400      299.728   -1488.1301      469.432    328.59776    285.93338      39457.2 
  937500    301.91788   -1504.4356    505.21481    357.91867    545.94261      39457.2 
  937600    288.42309   -1469.6554    480.04908     306.8732   -85.899317      39457.2 
  937700    307.80869   -1435.0481    484.89233    433.46324     266.7617      39457.2 
  937800    297.19919   -1479.3455    470.21461    326.79777   -374.83881      39457.2 
  937900    291.84659   -1480.2224    479.41303    311.05901   -128.43514      39457.2 
  938000    300.93778   -1453.5255    490.67322    389.88153    339.11979      39457.2 
  938100     308.6705   -1461.9235    511.38743    436.95683   -181.87798      39457.2 
  938200      289.283   -1453.2105    500.09651    347.23091   -530.66071      39457.2 
  938300    301.23403   -1420.2511    511.49052    445.30496    62.549066      39457.2 
  938400    300.35365   -1422.6421    502.30648    429.77248    -281.8069      39457.2 
  938500    298.03218   -1453.3745    513.30384    399.60235   -210.10472      39457.2 
  938600    289.91587   -1459.3575    485.45563    329.28785   -434.29795      39457.2 
  938700    301.09737   -1425.6007    505.29336    433.14385   -213.51306      39457.2 
  938800    302.99087   -1427.2779    488.97947    423.66422      -220.39      39457.2 
  938900    296.66366   -1478.4999    473.25283    328.27434    7.8348182      39457.2 
  939000    286.94763   -1457.6362    495.47212    327.68318    64.449962      39457.2 
  939100    297.86435   -1453.0265    485.65894    371.55109   -376.36417      39457.2 
  939200    307.18344    -1494.653    481.36173     367.5172    225.34279      39457.2 
  939300    297.54579   -1428.3911    526.30998    435.40559   -242.24005      39457.2 
  939400    294.19338    -1452.228    492.08924    362.27866   -939.07192      39457.2 
  939500    301.55132   -1453.3807    499.12616    401.23718    -301.5141      39457.2 
  939600     306.7065   -1466.6706    495.01781    407.01183   -83.311617      39457.2 
  939700    302.90696   -1444.1576    489.25806    406.68587    239.43189      39457.2 
  939800    297.38691   -1460.2941    482.47199    358.95037    270.57695      39457.2 
  939900    294.52358   -1467.6107     499.4446    355.73554    445.68304      39457.2 
  940000    300.91906   -1506.6636    470.95362    316.93967    145.66008      39457.2 
  940100    298.01166   -1462.8854    478.66315    355.35849    386.25935      39457.2 
  940200    303.15159   -1451.2229    509.54467     421.0068     46.93389      39457.2 
  940300    297.36228   -1456.3622     485.3161    365.61566     317.9209      39457.2 
  940400    313.37206   -1492.4171    479.82484    396.03449    270.49724      39457.2 
  940500    302.22637   -1491.5827    495.23035    362.17374   -147.39679      39457.2 
  940600    292.64338   -1482.2657    490.08477    323.26908     204.6416      39457.2 
  940700    294.20264   -1482.9172    489.49454    329.03635    297.69091      39457.2 
  940800    293.41036   -1486.1682    500.65232    333.38169   -43.311035      39457.2 
  940900    297.09609   -1485.2908    512.41437    362.58881   -322.23565      39457.2 
  941000    305.84904   -1514.3786    477.82691    338.25859   -463.61032      39457.2 
  941100    305.99579   -1530.1504    488.38414    333.70362    56.035209      39457.2 
  941200     294.8639   -1506.0924     477.3436    296.68262     77.11098      39457.2 
  941300    301.45222   -1530.6426    475.35771    299.76134   -14.097231      39457.2 
  941400    306.48734   -1483.8202    500.09847    393.95775    576.62515      39457.2 
  941500    294.74381   -1457.5927    532.92522    400.22411     148.2306      39457.2 
  941600    302.74943   -1457.5367    465.74935    369.08992    683.74937      39457.2 
  941700    301.90265   -1428.0359    499.45496    428.49012    906.97297      39457.2 
  941800    301.85066   -1453.9236    489.64189    392.55557    463.96428      39457.2 
  941900    299.42405   -1474.2774    506.14274    377.79491    696.85469      39457.2 
  942000    302.01481   -1475.6998     515.7029    397.57826    292.28372      39457.2 
  942100    302.38122   -1522.3521    498.21266    335.08273   -107.15333      39457.2 
  942200    302.90283   -1501.2632    484.87277    345.17641    417.73018      39457.2 
  942300    295.01265   -1498.4727    508.71725    336.34462   -70.979697      39457.2 
  942400    299.59027    -1532.817    462.44175    276.30142   -246.63964      39457.2 
  942500    295.14707   -1544.9203    486.44999    268.23397    -423.7948      39457.2 
  942600     304.7224   -1538.8732    501.46196    332.33473   -26.234168      39457.2 
  942700    301.81363   -1577.3797    482.94098    262.23215    -613.5235      39457.2 
  942800    287.41319   -1524.5128    465.91661     233.3438    -540.0262      39457.2 
  942900    302.83799   -1514.5336    482.14675    328.88861   -819.09069      39457.2 
  943000    300.45432   -1531.9928    453.86759    272.43548   -520.76888      39457.2 
  943100    309.12563   -1514.4061    483.39202     358.5246   -293.10754      39457.2 
  943200    302.73492      -1554.9    480.87807    286.79016   -165.17764      39457.2 
  943300    301.19404   -1524.1051     475.9554    305.73608    113.79891      39457.2 
  943400    289.90343   -1483.8276    518.10197    337.40814   -122.41837      39457.2 
  943500    299.55681   -1499.6347    511.75283    358.64439    180.89831      39457.2 
  943600    290.77691   -1512.9408     469.8713    263.99064    148.01913      39457.2 
  943700    296.81523   -1496.3719     502.1927    340.02359    611.16982      39457.2 
  943800    306.63436   -1485.2836    473.42171    366.47846   -115.33338      39457.2 
  943900    317.83016    -1538.593     472.6037    362.67683   -256.85265      39457.2 
  944000    298.92888    -1551.144    485.12763     277.6874    139.26867      39457.2 
  944100    299.99014   -1538.5349    470.61475    280.55396    256.05949      39457.2 
  944200    301.93129   -1513.2597    500.41475    344.35484    501.91823      39457.2 
  944300    305.97417   -1545.0225    451.73929     282.0895    626.39415      39457.2 
  944400    305.68456   -1551.0466    499.06331    322.08761    76.974384      39457.2 
  944500    297.01432   -1480.9333    502.72689    356.89121   -58.914016      39457.2 
  944600    289.67858   -1496.6457    485.23961    290.71695   -248.69852      39457.2 
  944700    307.10948   -1515.4588    482.14441    347.16156    76.800006      39457.2 
  944800    296.83712    -1502.151    491.37942    323.52957   -302.02144      39457.2 
  944900    290.69489   -1519.8274    474.20602    261.07009   -112.87654      39457.2 
  945000    301.50015   -1519.4781    483.48374    319.26738  -0.54128381      39457.2 
  945100    303.50341   -1490.8302    474.23573    347.67203   -384.07214      39457.2 
  945200    306.38157   -1466.5274    476.05919    386.73581   -119.28874      39457.2 
  945300    304.09131   -1485.5852    487.52978    368.85376    536.38221      39457.2 
  945400    300.44785   -1527.0195    477.33894      300.851     517.1545      39457.2 
  945500    303.39566   -1555.1262    489.62163    298.27764     819.2295      39457.2 
  945600    295.00521    -1504.998    474.09099    295.15954    647.21018      39457.2 
  945700    303.12717   -1484.4758    520.40265    398.50208    877.25796      39457.2 
  945800    297.88253   -1520.4945    457.75138    276.25715    484.32822      39457.2 
  945900    305.63369   -1491.1454    493.75401    376.45083   0.16189975      39457.2 
  946000    297.33098   -1501.5184    460.84116    295.84386    272.35196      39457.2 
  946100    293.05036   -1511.1568    491.84997    297.97261   -155.95915      39457.2 
  946200    292.47948   -1536.6166    482.40778    260.50448    308.52014      39457.2 
  946300    301.25483   -1524.4969    475.00489      304.667    411.06644      39457.2 
  946400    310.99563   -1557.1032    455.80208    296.64332    323.62829      39457.2 
  946500    295.02669   -1477.4703    507.85257    356.54539    848.96437      39457.2 
  946600    296.13483    -1504.279    469.55668    296.42196    712.58346      39457.2 
  946700    303.69012   -1483.5593    461.24721    342.79375     730.7069      39457.2 
  946800    293.26515   -1493.2069    486.86351    311.90152    397.15573      39457.2 
  946900    300.86801   -1492.7599    481.50066      341.161     22.80161      39457.2 
  947000    300.40974   -1493.4705    472.26175    329.15155   -49.720459      39457.2 
  947100    305.60047   -1470.7965    490.51854    393.41496   -794.98604      39457.2 
  947200     312.6508   -1510.3681    477.50728    372.52374   -480.97628      39457.2 
  947300    294.41802   -1478.5346    472.38424    317.27679   -686.45633      39457.2 
  947400    299.81347   -1463.6406    508.03099    392.07038   -259.86713      39457.2 
  947500    307.70842   -1467.6991    498.21308    413.68223    164.52169      39457.2 
  947600    305.37622   -1508.0694    464.93558    329.55106   -245.63564      39457.2 
  947700    291.60026   -1459.2049     492.5179    344.07415   -230.39369      39457.2 
  947800    304.67676   -1457.5553     502.4655    414.45101   -717.17921      39457.2 
  947900    291.08062   -1450.7497     469.8611     327.5367    111.88829      39457.2 
  948000    304.23834    -1443.648    526.61446    450.53651   -85.182325      39457.2 
  948100    307.49326   -1469.5181     484.7957    397.47872    96.203466      39457.2 
  948200    293.82489   -1429.7998    509.05871    400.01991    219.42448      39457.2 
  948300    296.52281   -1448.3718    511.52584    396.04231     705.5811      39457.2 
  948400    301.16848   -1472.5927    473.80032    354.97842    746.97252      39457.2 
  948500    300.54445   -1468.6544    499.55572    381.86713    184.22524      39457.2 
  948600    294.60627   -1453.5861    482.59676    353.28397      74.5153      39457.2 
  948700    305.88915   -1435.6082     497.3674    436.74974   -117.78023      39457.2 
  948800    296.79447   -1477.2209    513.72018    370.60872   -651.22201      39457.2 
  948900    298.32539   -1469.6421    504.51105    375.85999   -453.93392      39457.2 
  949000    301.38993   -1431.8724    502.58991    425.48377   -613.82722      39457.2 
  949100    305.47934   -1459.8363      480.956    394.26814    -349.4064      39457.2 
  949200    296.52288   -1483.2803    474.37489    323.98323     314.0117      39457.2 
  949300    304.40743    -1500.802     483.5244    351.05255   -33.360084      39457.2 
  949400    289.03977   -1437.3709    499.42456    361.30523    439.33784      39457.2 
  949500    291.35808   -1428.5429    514.97863    396.10826   -282.30321      39457.2 
  949600    301.40631   -1446.2458    499.46308    408.05723   -6.1572128      39457.2 
  949700    300.27488    -1459.307    501.77381    392.22092    17.225836      39457.2 
  949800    298.45032   -1440.5524    506.35947     407.3596    -69.58015      39457.2 
  949900    308.98704   -1462.9057     467.6874    393.69751   -471.17067      39457.2 
  950000    300.17203   -1488.0964    485.46507    346.66039    -489.5583      39457.2 
  950100    304.00202   -1507.8047    472.04593    330.74899   -91.010085      39457.2 
  950200     299.0899   -1471.8653     482.8272    355.38942   -401.56435      39457.2 
  950300    296.78233   -1503.8193    495.40923    325.64474   -76.962739      39457.2 
  950400     290.9512   -1492.1566    486.45071    302.13762   -520.23658      39457.2 
  950500    293.93926   -1456.7501    496.53738     361.0623   -91.671623      39457.2 
  950600    304.44062   -1504.4789    493.00269    357.00306   -703.13594      39457.2 
  950700    300.25487   -1447.6962    475.53187    377.49979   -1095.6208      39457.2 
  950800    307.32567   -1466.5006    497.63789    412.58508   -558.35296      39457.2 
  950900    300.93681   -1486.8243    490.87064    356.77582    -256.3612      39457.2 
  951000    302.54043   -1490.4918    498.68876    368.13479   -535.93526      39457.2 
  951100    302.87963   -1486.6177     489.7415    364.58636    -301.2562      39457.2 
  951200    300.62801   -1497.2117    479.92406    334.05378   -1034.9077      39457.2 
  951300    308.63366   -1447.5807    477.26333    417.00995   -1052.5112      39457.2 
  951400    292.70125   -1501.2424    489.90372    304.37148   -1045.4201      39457.2 
  951500    305.94232   -1525.1753    502.58593    352.64023   -306.67493      39457.2 
  951600     296.8562    -1528.153    467.48829    273.72221   -58.025034      39457.2 
  951700    285.14344   -1508.2081    490.68877    264.21798   -165.10641      39457.2 
  951800    302.56804   -1492.8442    498.22365    365.44143   -87.904221      39457.2 
  951900    294.12664   -1509.7675    487.04176    299.39166   -71.711072      39457.2 
  952000    304.56731   -1535.3042    465.33064    299.07524    388.36529      39457.2 
  952100    284.92186   -1509.9391    484.74032    255.54249    45.924548      39457.2 
  952200    302.98966   -1511.8749    469.06665    319.14897    -85.60965      39457.2 
  952300    308.54337   -1536.0668    470.51247    321.36709    217.85953      39457.2 
  952400    292.14065    -1502.683    500.94726    311.45443   -30.178348      39457.2 
  952500    293.03439   -1532.1899    464.82771    249.84543   -458.28548      39457.2 
  952600     304.7714   -1493.9601    479.74812    355.75423   -139.73543      39457.2 
  952700    298.58652   -1481.8233    466.33982     326.6813    76.772632      39457.2 
  952800    298.04999   -1482.6537    521.62276    378.72207   -209.82916      39457.2 
  952900    301.20109   -1472.3657    502.02351     383.5753     106.8482      39457.2 
  953000    306.07789   -1505.0666     494.9474    365.71974    257.20623      39457.2 
  953100    303.42251   -1493.6342    490.79015    361.05881   -609.09192      39457.2 
  953200     305.9807   -1506.5571    488.39228    357.23729   -70.839467      39457.2 
  953300    308.53921   -1533.6278    526.14746    379.42244    232.13223      39457.2 
  953400    305.91244   -1462.3947      504.029    416.72957    475.41589      39457.2 
  953500    291.55717   -1513.1667    488.76597    286.16665   -212.85326      39457.2 
  953600    287.96221   -1499.4909    497.16392    292.08094    90.577355      39457.2 
  953700    293.45794   -1504.4657    509.96013    324.60597     557.8702      39457.2 
  953800    307.96475   -1512.0508    497.94503    370.21475    721.81795      39457.2 
  953900    286.33331   -1483.1575    511.51419     315.4425    105.66681      39457.2 
  954000    304.35196   -1536.3621    505.09895     336.8176    52.705144      39457.2 
  954100    291.79458   -1532.0825    498.14178    277.69383   -445.46386      39457.2 
  954200    291.24685   -1533.2021    501.47547    277.44583    189.67529      39457.2 
  954300    299.00353   -1481.5874    497.70209    360.15401     91.33126      39457.2 
  954400    313.14847    -1486.245    484.10834      405.485    3.5036553      39457.2 
  954500    304.40232   -1503.1418    477.98186    343.14725   -299.25769      39457.2 
  954600    284.83279   -1496.4216    496.41979    280.33912   -893.17652      39457.2 
  954700     291.8507   -1499.9768    489.05401    300.96409   -544.49322      39457.2 
  954800    292.74185   -1480.0734    483.37226    319.19145   -345.33411      39457.2 
  954900    302.71512   -1480.6361    496.92799    377.01498    203.87369      39457.2 
  955000    299.62281   -1510.9258    483.49533    319.39248   -83.853594      39457.2 
  955100    308.52299   -1463.5531     509.6569    432.93359    213.86128      39457.2 
  955200    304.22731   -1494.8618    496.80071    369.45935    95.124907      39457.2 
  955300    308.71045   -1533.0661    480.44725    335.05363    255.79268      39457.2 
  955400     296.6446    -1466.179    488.90331    356.16005    526.97341      39457.2 
  955500    306.54248   -1493.3483    494.26375    378.84274    431.29023      39457.2 
  955600    310.01666   -1514.5879     486.4496    365.40564    403.03549      39457.2 
  955700    295.35329   -1484.5448    475.28296    318.36939    535.92628      39457.2 
  955800    295.95619   -1473.2798    509.07002    366.13146    590.91944      39457.2 
  955900     302.7542   -1517.2832     513.7481    357.36367    597.46634      39457.2 
  956000    304.34224   -1500.6333    508.75465    376.15843    -123.2414      39457.2 
  956100    299.84374   -1538.0828     491.4193    301.15257    348.11848      39457.2 
  956200    310.64644   -1498.7155    500.13834    397.79771    369.26371      39457.2 
  956300    298.87722   -1485.7224    480.44947     338.1986    45.149695      39457.2 
  956400    306.98039   -1474.8517    508.51369    413.55775    149.26341      39457.2 
  956500    286.63766   -1493.9226     498.0331    292.56445    33.415522      39457.2 
  956600     296.6928   -1459.3234    488.71318     363.0422   -16.279963      39457.2 
  956700    292.46951    -1473.543    497.33942    338.46487    50.325455      39457.2 
  956800    297.99886   -1436.3393    497.43371    400.61763   -95.344581      39457.2 
  956900    294.62315   -1487.7803    487.48214      324.051   -471.62458      39457.2 
  957000    307.48269   -1460.4273    497.12476    418.85105   -210.56102      39457.2 
  957100    305.93916   -1484.4303    507.64833    398.43339   -451.17901      39457.2 
  957200    288.73622   -1480.5647    491.04546     308.3678   -147.10437      39457.2 
  957300    296.91947   -1527.4739     466.4513    273.64872   -308.71245      39457.2 
  957400    292.07352   -1479.1788    492.92745    326.63713   -146.62685      39457.2 
  957500    300.25307   -1470.2599    505.61028    385.00642   -195.63295      39457.2 
  957600    311.64912   -1518.5409    476.89585    359.23697   -56.403109      39457.2 
  957700    299.00051   -1514.8051    505.19277     334.4134    58.929697      39457.2 
  957800    304.20003   -1450.5101     494.3625    411.25022    320.98058      39457.2 
  957900    293.73236   -1478.4669    499.45824    341.33636    223.70084      39457.2 
  958000    302.65589   -1519.1728    486.19102    327.47505    659.62263      39457.2 
  958100     311.6699   -1478.6037    488.36886    410.74056   -122.06638      39457.2 
  958200    315.91681     -1423.45    513.20281    509.81831   -118.57141      39457.2 
  958300    296.53286   -1449.3569    491.00423    374.58076   -76.431867      39457.2 
  958400    311.35544   -1488.6597    468.34884    379.25103   -191.52728      39457.2 
  958500    304.84134   -1488.7253    480.30947    361.86479    256.43724      39457.2 
  958600    306.09093   -1515.3288    498.54503    359.11377    4.1285536      39457.2 
  958700    304.98689   -1513.6607    481.53365    338.80777     420.4936      39457.2 
  958800    292.90923   -1496.6071    485.50766    305.54558    386.90526      39457.2 
  958900    290.10044   -1503.8704    479.52806    279.67697    16.685947      39457.2 
  959000    310.61267   -1544.4983    486.77567    338.50049   -182.28031      39457.2 
  959100     295.6107   -1516.6381    480.80732    292.95751    4.0207018      39457.2 
  959200    305.76138   -1548.7124    487.21676    312.92059    191.47738      39457.2 
  959300    296.31388    -1557.361    487.53167    262.11985   -151.63076      39457.2 
  959400    297.75055   -1495.5065    493.94966    336.85014      139.646      39457.2 
  959500    314.07798   -1495.2361    479.85244     396.4162   -63.947604      39457.2 
  959600    309.87793   -1432.4499    486.15745    446.62789   -137.61162      39457.2 
  959700    303.91362   -1491.9703    482.97854    357.11861   -261.54302      39457.2 
  959800    303.73378    -1517.526    472.95086    320.72687   -200.38369      39457.2 
  959900    295.51437   -1481.5341    483.71416    330.53534   -87.987728      39457.2 
  960000    302.03308   -1529.8025    494.81827    322.67306    264.67721      39457.2 
  960100    296.26075   -1513.2718    464.22121    282.65974    526.65276      39457.2 
  960200    308.96724   -1490.3227    474.86369     373.3677    37.208966      39457.2 
  960300    302.51368   -1501.6708    490.56859    348.71542    80.606176      39457.2 
  960400    295.70148   -1476.9175    474.76088    327.03973    29.545546      39457.2 
  960500     299.6579   -1471.7627    488.36983    363.58789    546.06172      39457.2 
  960600     295.1921   -1458.1978    508.41653    377.12543    536.11704      39457.2 
  960700    290.71633   -1475.7867    478.75305    309.75413     519.3497      39457.2 
  960800    313.86037   -1542.1844    482.99771    351.63496     484.9825      39457.2 
  960900    296.24794   -1484.4602    492.26065    339.45316    649.64781      39457.2 
  961000    300.27309   -1500.9745     472.7851    321.55662    357.80194      39457.2 
  961100    309.53305   -1481.5357     484.4399    394.27437    107.47657      39457.2 
  961200    301.68375   -1523.8671    503.87804    336.09795   -117.70513      39457.2 
  961300    308.04023   -1507.2251    472.03485     349.4695    359.81712      39457.2 
  961400    297.42775   -1534.6753    463.31175    265.59247    233.15696      39457.2 
  961500    296.68742   -1504.6591    480.62903     309.5981    268.82989      39457.2 
  961600    297.30992   -1517.7514    500.05562    318.73062    938.13394      39457.2 
  961700    287.90209   -1528.3064    497.03062    262.86178    523.25893      39457.2 
  961800    295.33351   -1486.2763    496.68241    337.94841    136.62134      39457.2 
  961900    295.96916   -1453.8282    512.13732    388.70869    69.485295      39457.2 
  962000    289.32151   -1467.4623    486.06489    319.12059   -422.50939      39457.2 
  962100    303.84618   -1446.8264    465.62412    384.60495   -600.71716      39457.2 
  962200    294.14821    -1449.367    502.39933     375.2466   -180.79701      39457.2 
  962300    306.00334   -1419.8921    500.81951    456.43124      66.7881      39457.2 
  962400    296.98002   -1418.9802    482.63716    398.60044   -134.21177      39457.2 
  962500    305.35077   -1434.2129    507.57141    445.92899    202.02227      39457.2 
  962600     295.7982   -1415.9377    517.28877    430.98216    95.023519      39457.2 
  962700    305.11506   -1439.6157    490.21933    422.11459     69.74261      39457.2 
  962800     298.4908   -1448.9725    511.22984    403.99182   -703.23159      39457.2 
  962900    295.18148   -1496.3197    503.15677    333.69598    84.663794      39457.2 
  963000    290.87604   -1456.5484    504.85141     355.8087    90.013269      39457.2 
  963100     298.0412   -1505.0788    498.01611    332.65084    81.021393      39457.2 
  963200    295.64226   -1474.2306    506.15452    360.85406    186.30766      39457.2 
  963300    297.64183   -1480.3142     482.2924    339.89654    264.45824      39457.2 
  963400    297.43363   -1476.0491    486.67325    347.60667   -267.20469      39457.2 
  963500    304.35803   -1479.0945    476.34037    365.35395   -289.13336      39457.2 
  963600    293.88774    -1522.053    500.90509    299.89558   -320.74751      39457.2 
  963700    306.34712   -1524.2843    506.36434    359.12918    282.98838      39457.2 
  963800    300.13996   -1524.6683    492.66822    317.14754     118.4407      39457.2 
  963900    300.72193   -1488.5382    481.43105    344.65637    144.74113      39457.2 
  964000    296.43111   -1496.6178    477.09329    312.95161    112.45847      39457.2 
  964100    293.01071   -1487.7366    506.38657    335.75112    13.644552      39457.2 
  964200    294.72271   -1514.4127    479.40275    289.78677    171.43274      39457.2 
  964300    303.06367   -1503.7799    487.01585    345.52578    207.10627      39457.2 
  964400    309.47695   -1480.6541    493.13214    403.59605    115.50101      39457.2 
  964500    303.08829   -1491.8475    474.25097    344.80399   -197.07704      39457.2 
  964600     301.5002   -1469.9877     508.9155     394.1898    424.65956      39457.2 
  964700    307.33325   -1485.0674    473.36375    369.77818    292.00911      39457.2 
  964800    307.20635   -1465.3655    476.66388    392.20985   -58.218901      39457.2 
  964900     299.8065   -1527.2532    494.02855    314.42403    102.85279      39457.2 
  965000    294.03781   -1478.1128    508.78439    352.38963    698.14504      39457.2 
  965100    299.42329   -1471.3699    520.08383    394.64008    596.84077      39457.2 
  965200     301.9358   -1470.0476    502.66705    389.83949    306.63193      39457.2 
  965300    295.18787   -1470.3392    472.24941     328.7979    129.67425      39457.2 
  965400    305.83634   -1563.0111    507.68093    319.42298    291.29239      39457.2 
  965500    299.33555    -1502.745     482.0752    324.86197    568.06887      39457.2 
  965600    289.32417   -1513.8534     479.2706     265.9472    307.87386      39457.2 
  965700    284.65198   -1490.4681    515.73432    304.79437    275.31001      39457.2 
  965800    295.87495   -1511.3268    480.61873    299.26802    -133.5694      39457.2 
  965900    304.81458   -1508.5809    483.27882    344.85817    258.60717      39457.2 
  966000    298.52311   -1515.7033    502.27133    328.44777    81.882818      39457.2 
  966100    303.19136   -1509.8883    491.48497     344.4605    -410.0069      39457.2 
  966200    295.44661   -1534.5277    515.26605    308.78908    234.97343      39457.2 
  966300    288.34535   -1519.9506     498.4586    274.63805     708.8751      39457.2 
  966400    307.70583   -1534.0817    485.92129    334.99628    572.31804      39457.2 
  966500    303.79542    -1512.859    517.78762    370.50774    989.74969      39457.2 
  966600    294.33398   -1489.6809    504.17605    337.54451    274.17009      39457.2 
  966700    288.96263   -1515.0331    500.79975    284.67149    298.08659      39457.2 
  966800     285.7552   -1563.4038     487.4716    208.55503    110.96617      39457.2 
  966900    284.54765   -1536.5736    500.03812    242.52378    102.50915      39457.2 
  967000    298.86591   -1506.8306    491.36671    327.95683    279.11494      39457.2 
  967100    294.61801    -1523.829    507.02875    307.52587     233.4078      39457.2 
  967200    297.75575   -1479.3296    491.47401    350.57483   -71.360604      39457.2 
  967300     292.1324   -1466.9594    473.85161     320.0453   -580.09852      39457.2 
  967400    291.80183   -1495.1304    518.29673    334.83354   -151.30126      39457.2 
  967500    294.81711   -1466.1267    455.58738    314.68175   -1.9034851      39457.2 
  967600    305.03553   -1484.2358    536.78986    423.70755   -101.95251      39457.2 
  967700    291.97759   -1472.9261    511.90794    351.43905   -351.15292      39457.2 
  967800    289.23442   -1462.3924    496.28013     334.0143    0.7392834      39457.2 
  967900      317.381   -1499.3241    504.32078    431.64378   -294.59227      39457.2 
  968000    300.77184   -1475.8458    513.96868    390.11077    -504.2523      39457.2 
  968100     300.3086    -1474.994    516.36522    391.27691   -629.08676      39457.2 
  968200    304.06175   -1468.6918    513.81289    411.89741   -507.31944      39457.2 
  968300     295.1235   -1480.4963    508.91121    355.01324   -574.90468      39457.2 
  968400    294.44393   -1493.4198    492.83026    322.95407   -29.729576      39457.2 
  968500    294.07109   -1508.9097    495.31642    308.27438    287.45104      39457.2 
  968600    294.89038   -1500.5327    491.78306    316.80072    213.75469      39457.2 
  968700    305.98319   -1524.9129    489.05645    339.55684    442.68269      39457.2 
  968800    306.19048   -1487.7257    473.53673    362.15606    106.42811      39457.2 
  968900    297.88106   -1496.7259    495.25228    337.52006    249.29153      39457.2 
  969000    303.00699   -1464.9104     493.7876    390.91222    292.45372      39457.2 
  969100    298.11101   -1538.6507    472.51214    273.88874   -235.80106      39457.2 
  969200     306.3992   -1520.2475     473.4212      330.457   -59.587318      39457.2 
  969300    304.21793   -1539.8634    483.87308    311.48798   -28.869136      39457.2 
  969400    305.23629   -1505.9207    488.40261    354.53785   -501.56169      39457.2 
  969500    303.45987   -1503.6858    477.36672    337.75169   -479.19857      39457.2 
  969600    288.89241   -1479.2878    501.71448    321.01587   -978.09634      39457.2 
  969700    295.93664   -1531.9646    507.54385    305.83264   -286.05035      39457.2 
  969800    307.99595   -1510.1227    478.60687    352.94489    76.249877      39457.2 
  969900    292.33031   -1509.4471    498.74359    303.33924   -172.53122      39457.2 
  970000    298.13549   -1522.7026    508.70989    326.14461   -379.60773      39457.2 
  970100    294.94082   -1510.7861    483.46986    298.46093   -217.53704      39457.2 
  970200    299.36607   -1529.6912    485.10546    301.08319    -193.1125      39457.2 
  970300    296.39906   -1503.1845    474.56041    303.70798   -115.02675      39457.2 
  970400    304.32586   -1490.0881    510.29937    388.17471   -351.10111      39457.2 
  970500    298.41883   -1520.2131    521.75798    342.95586   -119.46294      39457.2 
  970600    302.64959   -1530.7055     487.0017     316.7248    -28.64029      39457.2 
  970700     294.5793   -1555.0459    492.19042    261.29666   -78.145011      39457.2 
  970800    310.01661   -1567.2491    474.29369    300.58839   -133.92885      39457.2 
  970900    291.00033   -1569.2745    482.74406    221.53393    5.0559112      39457.2 
  971000    305.22366   -1528.1586    484.44292    328.28348    580.58087      39457.2 
  971100     297.6983   -1564.8758    460.06778    233.36411    97.034952      39457.2 
  971200    292.58631   -1534.2327     487.4971    268.45792   -27.837119      39457.2 
  971300    303.68002   -1598.2369     509.2027    276.02612   -573.40063      39457.2 
  971400    297.34635   -1628.5123    471.14684    179.22471   -229.28251      39457.2 
  971500    289.68743   -1544.9715    467.72054    224.91186   -449.12381      39457.2 
  971600    309.26619   -1558.7077    448.97515      280.438   -159.09239      39457.2 
  971700     294.7818     -1524.34    453.48122    254.20355   -403.99543      39457.2 
  971800    305.90231   -1584.7197    487.96602    278.29598    266.28952      39457.2 
  971900    289.93853   -1536.4697    482.95688    249.77875    150.94338      39457.2 
  972000    290.91841   -1526.0898     487.7029    269.30927   -233.41581      39457.2 
  972100    301.18104   -1584.4084     497.7203    267.13921    2.8630529      39457.2 
  972200    306.98937   -1558.7703    464.69167    285.85746    330.59644      39457.2 
  972300     308.5446   -1479.3656    459.92665    367.48799   -341.59986      39457.2 
  972400    299.89956   -1491.9072     499.5598    355.71959     141.1477      39457.2 
  972500    313.75815    -1506.472    479.92863    383.81882    220.43381      39457.2 
  972600     296.5852   -1506.4129    502.14388    328.89969   -362.88198      39457.2 
  972700    284.51743   -1552.0894    470.37456    197.20858   -386.23729      39457.2 
  972800    288.41494   -1542.5164    474.22738     228.1539   -482.73733      39457.2 
  972900    297.40548   -1556.8015    461.24965    241.30407   -85.413852      39457.2 
  973000    308.80791    -1532.824    481.51756    336.80417   -297.14642      39457.2 
  973100     295.9646   -1518.9779    468.22124    279.62245   -86.322714      39457.2 
  973200    303.69948    -1559.991    473.29524    278.45212    83.105832      39457.2 
  973300    300.35895   -1589.0871    437.16656    198.21142    264.52776      39457.2 
  973400    299.79517   -1506.8624     508.8669     349.6022    54.884751      39457.2 
  973500    295.23235   -1514.5897    500.05745    312.55529    240.96566      39457.2 
  973600    299.88304    -1530.098    473.09077    290.98552    14.543721      39457.2 
  973700    310.68635    -1544.032    480.06215    332.58437    129.84231      39457.2 
  973800    308.87013   -1537.2052    467.32097    318.50596   -72.477842      39457.2 
  973900    310.20892   -1607.6546    484.12125    270.87483    580.12083      39457.2 
  974000    295.48636   -1564.9592    499.29464    262.56483   -210.33386      39457.2 
  974100     305.8538   -1543.2245    481.87267    313.47979    665.14362      39457.2 
  974200    304.76088   -1484.2669    483.94919    369.60121   -188.30458      39457.2 
  974300    307.63731   -1535.6901    461.02536    308.18389    223.96055      39457.2 
  974400    294.36922   -1549.3544    485.50447    259.35787    437.85571      39457.2 
  974500    292.84183   -1575.1883    471.05142    212.20519   -311.12549      39457.2 
  974600     292.9964   -1520.5838    472.93554    269.38857   -512.29776      39457.2 
  974700    314.13541   -1504.1761    479.16934    387.05124   -614.82753      39457.2 
  974800    297.64613   -1472.0016    481.28309    347.21918   -1307.6793      39457.2 
  974900    290.73461   -1455.3697    508.63159     360.1319   -1174.5759      39457.2 
  975000    306.64577   -1478.4492    486.44608    386.38849   -1620.1567      39457.2 
  975100    297.24502   -1511.5294     486.6168    311.22206   -1144.8355      39457.2 
  975200    290.68205   -1485.9878    501.13456    321.78043    -1149.088      39457.2 
  975300    303.70565   -1504.3939    504.28871    365.07041   -599.33894      39457.2 
  975400     301.1811   -1488.1857    501.57701    367.21892   -181.88639      39457.2 
  975500    294.82101   -1486.5484    494.43927    333.12945    215.06624      39457.2 
  975600    289.83134   -1530.6173    502.68756    274.88001    53.967267      39457.2 
  975700    303.24108   -1503.1033    507.54954    367.53354    527.98653      39457.2 
  975800    289.71994    -1492.067    496.65804    306.89994    288.83584      39457.2 
  975900    309.66121   -1567.2743    484.41795     309.0899    549.18443      39457.2 
  976000    293.80302   -1580.7787    478.47266    218.35665    250.19991      39457.2 
  976100    300.49702   -1507.3069    481.15316    324.59881     237.6104      39457.2 
  976200    304.69416   -1571.1053    467.02596    265.53966    441.93546      39457.2 
  976300     300.4204   -1583.3792    495.34213    262.37109    113.58589      39457.2 
  976400    295.28266   -1546.7555    490.43444    270.99271    238.02557      39457.2 
  976500    297.12642   -1533.2508    480.37648    282.72719   -179.48456      39457.2 
  976600      300.758   -1501.4882    473.45224    323.88982   -400.47851      39457.2 
  976700    296.66546   -1450.7352    517.33052    400.12483   -475.19666      39457.2 
  976800    300.59564   -1438.6848    498.30484    410.81593   -538.47964      39457.2 
  976900    300.93052      -1487.3    495.50758     360.9088   -556.97314      39457.2 
  977000    302.84619   -1440.2925     498.5978    419.61756    341.46987      39457.2 
  977100    306.42538   -1508.7629     492.6225    361.26056   -100.42892      39457.2 
  977200     299.0843   -1474.1642    485.19405    355.43213   -241.18351      39457.2 
  977300     296.8478   -1505.2836    468.38944    297.45498   -250.19755      39457.2 
  977400    293.09561   -1510.1865    499.57384    306.87009   -165.66869      39457.2 
  977500    309.82778   -1490.3017     517.6817    420.07497    240.97883      39457.2 
  977600    292.95423   -1505.5064    507.40584    318.74675    91.566926      39457.2 
  977700    296.51886   -1490.4545    503.28473    345.70073   -112.82152      39457.2 
  977800    310.04043    -1498.994    478.29785     372.9547    77.959852      39457.2 
  977900    294.93958   -1509.2647    515.10966    331.61657    574.81291      39457.2 
  978000    303.48483   -1467.5116    492.31167    388.98309    383.06777      39457.2 
  978100    302.14786   -1477.7926    500.95582    381.33644    390.77645      39457.2 
  978200    311.71598   -1490.4264    486.14077    396.89685    512.11957      39457.2 
  978300    297.32391   -1495.9209    488.86226    329.43071    471.98046      39457.2 
  978400     294.8321   -1485.2764    492.86389    332.87596    771.52892      39457.2 
  978500    297.93675   -1513.6009    476.96958     302.6127     219.6826      39457.2 
  978600    289.60333   -1505.1329    496.66714    293.31905    769.74186      39457.2 
  978700    305.45434   -1505.1515    485.26582    353.15036    643.55997      39457.2 
  978800    288.53773   -1466.4176    499.39361     329.9709    465.67514      39457.2 
  978900    298.28352   -1493.6946    477.44715    324.55536    53.369686      39457.2 
  979000    295.40465   -1477.9469    491.04841    340.96359     -530.654      39457.2 
  979100    298.70892   -1437.8326    499.98241    404.86481   -937.06718      39457.2 
  979200    301.15414   -1482.2226    500.33784    371.82163   -984.38271      39457.2 
  979300    300.97508   -1500.2246    477.20778     329.8847   -403.80997      39457.2 
  979400    295.13864   -1476.7455    491.46224    341.38314   -328.60133      39457.2 
  979500    301.13212   -1489.1402    504.28679    368.75403    179.71477      39457.2 
  979600    302.22706   -1545.0637    496.85959    310.32517    585.83364      39457.2 
  979700    304.23693    -1549.758    487.82947    305.63518    239.46843      39457.2 
  979800    298.38853   -1489.3107    462.45106    314.41519    393.92148      39457.2 
  979900    292.55647   -1476.4306    528.82932    367.45805    344.13846      39457.2 
  980000    305.27137   -1472.4465    493.40715    393.17427    657.15729      39457.2 
  980100    295.22148   -1458.9375     500.9704    369.07162     10.61915      39457.2 
  980200     304.5566   -1482.7755     520.5491    406.77424   -130.81137      39457.2 
  980300     308.3107   -1489.0305    509.58806    406.43318    32.943159      39457.2 
  980400    300.03057   -1489.7302    519.95654    378.88224   -17.149147      39457.2 
  980500    292.47328   -1471.0509     496.0949    339.72938   -83.766917      39457.2 
  980600    295.46461   -1483.8304     496.9819     341.2831   -61.719816      39457.2 
  980700    293.43008   -1501.5403    513.50404    330.94998   -170.30468      39457.2 
  980800    306.32118   -1491.7525    505.77528    390.95537   -249.09419      39457.2 
  980900    293.65503   -1509.9434    480.44331    290.49728    -110.5759      39457.2 
  981000     302.2493   -1461.6793    502.07562    399.02554   -348.47611      39457.2 
  981100    300.70315    -1467.777     505.4674    389.36956    -274.4823      39457.2 
  981200    303.21281   -1446.2301    529.14836    445.87845    -5.617349      39457.2 
  981300    294.66184   -1489.8792    476.62299    311.26687    586.67831      39457.2 
  981400    292.29394   -1467.0823    537.72533     384.5223    530.58113      39457.2 
  981500    294.82036   -1487.6129    519.22677    356.84953    572.81087      39457.2 
  981600    297.00616   -1491.4975    499.54853    343.11196    346.46163      39457.2 
  981700    311.75429   -1504.0606    497.63962     394.9337    420.21077      39457.2 
  981800    305.21385   -1454.4661    476.58789    394.07679    40.901381      39457.2 
  981900    300.86286   -1491.3943    494.06099    355.06375   -200.55046      39457.2 
  982000    305.14364   -1470.5339     494.5441     395.6496   -365.72655      39457.2 
  982100    297.84899   -1468.2544    499.12405    369.71919    146.68682      39457.2 
  982200    285.79765   -1481.0157    494.86917    298.53152   -114.44031      39457.2 
  982300     294.0138   -1469.0673    479.45577    331.99863   -22.204673      39457.2 
  982400    291.89528    -1454.461     497.1145    354.74079   -1015.6348      39457.2 
  982500    312.12271   -1473.1274     446.3217    376.20508   -585.53111      39457.2 
  982600    306.02763   -1482.0258    520.67993    414.26718   -358.43672      39457.2 
  982700    307.47569   -1462.6456    491.66469    411.14123   -87.027321      39457.2 
  982800    305.38051   -1487.8097    486.73253    371.62697    -167.5922      39457.2 
  982900    298.54229   -1459.3305     502.7859    385.42134   -257.32154      39457.2 
  983000    295.64696   -1455.3672     509.9298    383.51389   -169.48153      39457.2 
  983100    288.91621   -1465.0324    501.39303    335.05679   -426.89321      39457.2 
  983200     294.6934   -1471.2873    517.21667    370.59441   -545.10887      39457.2 
  983300    292.04891   -1452.3789    522.67988     383.0788   -474.02896      39457.2 
  983400    296.37007   -1459.6836    501.31431    373.83243   -598.77149      39457.2 
  983500    301.71937   -1498.7625     493.1577    350.64238   -411.20284      39457.2 
  983600    288.44245   -1546.1463    495.24359    245.66388   -517.08221      39457.2 
  983700    309.25604   -1496.7896    509.33013    402.66547   -308.33073      39457.2 
  983800    306.04532   -1456.7712    514.86618     433.7876   -289.84962      39457.2 
  983900    286.85126   -1454.3076    507.26848    342.37497   -597.20864      39457.2 
  984000    292.53486   -1498.8413    510.61872    326.73968   -718.02437      39457.2 
  984100    303.37796   -1494.9389    518.46014    387.22382   -150.58224      39457.2 
  984200     303.4954   -1489.6449    510.66217    385.24776   -187.22582      39457.2 
  984300    305.84616   -1446.5883    500.81709    429.02606   -165.92522      39457.2 
  984400    301.91436   -1430.2914    511.13627    437.96854    -58.68625      39457.2 
  984500    299.92718   -1494.9553    511.66816    364.90404    112.26544      39457.2 
  984600    297.86357   -1487.8202    482.42359    333.51848    476.53877      39457.2 
  984700    305.25498   -1538.8931    512.82593    346.07272   -133.42394      39457.2 
  984800    291.07483   -1530.4887    529.20514    307.11567    180.16751      39457.2 
  984900    299.20468   -1560.5409    478.20052    262.60305    487.84092      39457.2 
  985000    302.64804   -1523.0595    488.38812    325.75016    89.466914      39457.2 
  985100    299.21409   -1536.9544    479.14901    287.18039    555.33832      39457.2 
  985200    308.92505   -1491.5367    494.66344    391.76381   -355.01405      39457.2 
  985300    291.78786   -1489.3987    503.72912    325.93484   -312.73247      39457.2 
  985400    297.99049   -1470.0372    490.32777    359.77616   -501.19483      39457.2 
  985500    298.09326   -1517.1448    504.85983    327.66261   -619.08488      39457.2 
  985600    300.19886   -1508.7783     516.0447    356.67875   -758.63417      39457.2 
  985700    310.74868   -1539.4962    490.04479    347.38301   -18.528035      39457.2 
  985800    304.59323   -1534.0952    488.22931    323.29945    -200.6404      39457.2 
  985900    285.54463   -1563.9326    494.75772    214.36584    -200.4515      39457.2 
  986000    300.89475   -1558.6373     501.7322    295.63535    230.45782      39457.2 
  986100    294.31808   -1528.9355    510.18217    304.22452    71.896557      39457.2 
  986200    306.00645   -1534.9654     490.5575    331.10993   -338.17805      39457.2 
  986300    311.94383   -1526.5977    499.25828    374.86729   -323.57371      39457.2 
  986400     297.8819   -1569.7445    478.89698    248.14992   -575.50334      39457.2 
  986500     297.5777   -1533.9333    494.02059    297.71734   -986.52711      39457.2 
  986600    293.65265   -1549.3087      490.523    261.20103   -634.67099      39457.2 
  986700    290.93845   -1538.8377    516.97426    285.92278   -586.12677      39457.2 
  986800    307.15383   -1522.4198    501.29315    359.54873    101.92159      39457.2 
  986900    294.93809   -1523.8319    491.29618    293.22914     42.99294      39457.2 
  987000    296.25552   -1524.0948    495.51798    303.10999    585.77744      39457.2 
  987100    298.89829   -1535.1131    476.94808    285.40113    204.20085      39457.2 
  987200     300.2775   -1545.5038    499.02458    303.28667    175.68918      39457.2 
  987300    301.44225   -1542.4847    481.45306     293.9698    284.40534      39457.2 
  987400    292.71135   -1570.2486    509.98682    255.49378    156.12891      39457.2 
  987500    299.17167   -1575.7029    502.01702    271.10917    252.03794      39457.2 
  987600    303.33853   -1540.3548    489.05467    312.22518   -170.28684      39457.2 
  987700    305.46138   -1543.2504    507.68425    337.50153   -29.253103      39457.2 
  987800    297.89015   -1555.3123    500.91033    284.63262   -103.61481      39457.2 
  987900    292.62339   -1527.6532    494.39736    282.10429   -209.41213      39457.2 
  988000    293.40349   -1505.4661     478.8126    292.21329   -403.65423      39457.2 
  988100    311.24204     -1538.88    505.28837    365.46053   -714.09802      39457.2 
  988200    297.01258   -1519.4401    491.22574    306.87546   -256.88969      39457.2 
  988300    302.82387   -1491.0744    486.64775    356.78528    9.2948341      39457.2 
  988400    298.60879   -1491.0508    493.44291    344.65704   -129.80149      39457.2 
  988500    301.98577   -1492.0781    530.26854    395.63506    104.00032      39457.2 
  988600      306.821   -1521.5175    481.35084    339.01259     200.3075      39457.2 
  988700    303.98297   -1507.4215    487.25846    346.25912    184.97805      39457.2 
  988800    301.71901   -1511.7205    510.85075    355.37575    363.82941      39457.2 
  988900    304.53795   -1488.4054    519.46877     399.9802    273.67224      39457.2 
  989000    297.07611   -1504.8914    494.27641    324.76041   -422.37593      39457.2 
  989100    308.77065   -1493.0155    496.48307    391.41063    -199.4468      39457.2 
  989200    308.16417   -1527.7326     481.3346    338.81892   -738.94198      39457.2 
  989300    292.80245   -1517.3178    509.74726    308.59452   -994.61398      39457.2 
  989400    290.91508   -1483.0268    513.30227    337.95668   -310.82298      39457.2 
  989500    293.45674   -1524.0945    495.25506    290.26668   -679.79364      39457.2 
  989600    303.92872   -1453.7168    483.55156    396.01305   -486.99674      39457.2 
  989700    304.12183   -1537.2469    517.75284    347.55226   -553.27244      39457.2 
  989800    294.80563   -1524.9727    503.85316    304.04989   -286.55503      39457.2 
  989900    303.24939   -1502.3336    504.65127    365.44235   -66.662543      39457.2 
  990000    302.75368   -1452.4001    530.09471    438.59104   -301.30365      39457.2 
  990100    300.06635   -1483.7309    496.93451    362.02027     663.1068      39457.2 
  990200    297.86752   -1493.2264     499.9702    345.67659    571.23213      39457.2 
  990300    287.63026   -1480.6224    529.78385    342.07711    287.83691      39457.2 
  990400    308.86441   -1509.2993    502.75063    381.81589    1018.7248      39457.2 
  990500    307.84838   -1478.7038    500.44245    405.53609    420.23314      39457.2 
  990600    304.19873   -1496.6717      491.897    362.61738   -345.56418      39457.2 
  990700    307.11684   -1491.9925    495.81091    384.32751   -44.647077      39457.2 
  990800    306.03589   -1475.3614    525.24514    425.53395   -44.156164      39457.2 
  990900    305.55079   -1483.0872    506.09675    396.47911    117.81344      39457.2 
  991000    296.36661    -1509.327     500.2002    323.05936     242.6552      39457.2 
  991100    304.91976     -1501.77    511.03127    379.89432    62.072089      39457.2 
  991200     290.4428   -1505.7132    507.92921    307.77423    69.403422      39457.2 
  991300    312.24136    -1511.679    507.33454     399.1997    31.886986      39457.2 
  991400    295.42597   -1527.5856     494.5325    294.90483   -141.98616      39457.2 
  991500    298.97689   -1486.0456    497.17227    355.04615   -534.60446      39457.2 
  991600     297.5009   -1490.7897    488.21624     334.7114   -930.61478      39457.2 
  991700    310.10775    -1497.397    505.20352     401.7599   -1093.2077      39457.2 
  991800    298.77269   -1540.1866    501.68451    304.49955   -669.78595      39457.2 
  991900    289.08218   -1504.3535    504.61669    299.70537   -812.96416      39457.2 
  992000    294.22186   -1480.2694    529.53437    371.81034   -180.10475      39457.2 
  992100     294.4052   -1520.5582    512.34694    315.15826   -277.29503      39457.2 
  992200    312.14604   -1483.4934    496.82967    416.45195    262.21268      39457.2 
  992300    306.06703    -1500.295    535.19104    410.68614     522.9289      39457.2 
  992400    311.54138   -1504.4608    501.85202    397.78888    451.89811      39457.2 
  992500    301.21236   -1514.5064    512.64013    352.10182    125.80248      39457.2 
  992600    300.32189   -1532.7132    501.64181    318.89397    436.44396      39457.2 
  992700     301.0464    -1561.555    512.59222    304.25929    339.46428      39457.2 
  992800    295.86955    -1584.343    505.34741    250.95625    363.53124      39457.2 
  992900    306.91364   -1545.5403    485.67544    319.73086    872.14213      39457.2 
  993000    304.08392   -1523.3958    501.17089    344.65104    967.86778      39457.2 
  993100     304.4262   -1548.8608     504.9933    324.54698    319.34384      39457.2 
  993200    308.92598   -1536.5509    493.38334     345.4737    405.94193      39457.2 
  993300    289.95376   -1510.2528    504.88054     297.9877   -498.34321      39457.2 
  993400    304.98695   -1525.8744    514.18811     359.2488    127.65832      39457.2 
  993500    307.48245   -1515.7482    484.96017    351.36449   -184.65179      39457.2 
  993600    294.76083   -1533.3526    519.23798    310.85345   -484.11425      39457.2 
  993700    306.20718   -1542.9825    503.07367    336.51127   -529.11355      39457.2 
  993800    301.25531   -1505.7831    500.97254     349.3506   -266.73865      39457.2 
  993900    303.36969   -1538.6467    505.13816     330.1569   -322.90645      39457.2 
  994000    287.45252   -1503.6976    475.73231    264.15151   -346.14445      39457.2 
  994100    300.21779   -1495.3061    504.75315    358.94444   -293.57807      39457.2 
  994200    292.89484   -1491.1645    488.32681    313.74268   -103.55219      39457.2 
  994300    296.72785   -1511.4861    485.74569    308.06957   -170.40295      39457.2 
  994400    287.62809   -1528.7233     497.5457     261.7284   -328.78587      39457.2 
  994500    288.43104   -1483.7022    503.13644    315.94954    290.07361      39457.2 
  994600    305.69838    -1509.564    490.53556    355.10458    65.268746      39457.2 
  994700    298.16955    -1486.945     520.2613    373.60682   -92.652591      39457.2 
  994800    304.86914   -1499.3563    521.56791    392.61713    70.826963      39457.2 
  994900    302.40713   -1521.5279    468.24884    306.05963    397.89255      39457.2 
  995000    304.50409    -1551.926    512.93696    329.77556    107.09445      39457.2 
  995100    298.88581   -1514.9923    492.72937    321.24715    373.00716      39457.2 
  995200    289.41095   -1499.3006    483.27496    284.89446    194.77996      39457.2 
  995300    296.91098   -1506.8052     487.3307    315.15862    87.947755      39457.2 
  995400    308.08316   -1518.8375     485.4334    351.44865   -313.82418      39457.2 
  995500    290.28353   -1515.9791    514.16793    303.03118    329.50039      39457.2 
  995600    293.20316   -1541.7609    483.58861    259.79399    -17.22596      39457.2 
  995700    284.86712    -1496.647    511.68203    295.53032   -288.33686      39457.2 
  995800    294.67978   -1527.1805    488.92369    286.34697   -301.43266      39457.2 
  995900    307.41753   -1450.3817    519.32911    450.80811    384.86637      39457.2 
  996000    296.83012   -1458.5011    498.97238    374.74091     501.8843      39457.2 
  996100    306.23118   -1481.6149     538.7129      433.626    573.85724      39457.2 
  996200    296.66491   -1491.7206     492.9994    334.80583    297.47129      39457.2 
  996300    300.72138   -1483.0264    498.29028      367.025    207.02126      39457.2 
  996400    302.11978   -1455.7451    495.47821    397.78011   -224.27869      39457.2 
  996500    301.09986   -1492.0728      506.435    367.82459   -8.3020743      39457.2 
  996600    305.44564   -1512.9534    517.32234    377.36585    114.95229      39457.2 
  996700    290.57313   -1527.6232    516.16716    294.68806   -220.11501      39457.2 
  996800    320.42452   -1585.3417    483.10731     338.0935    13.475611      39457.2 
  996900    302.49116   -1553.8304    475.42898    281.31492    381.89847      39457.2 
  997000    301.16584   -1498.1254    519.13149    374.76507    57.359324      39457.2 
  997100    289.31818   -1467.2952    488.33511    321.54295    91.212834      39457.2 
  997200    310.43442   -1484.0662    481.65172    393.00735    70.115066      39457.2 
  997300    306.88227   -1519.3398    496.32594    356.44085   -252.22937      39457.2 
  997400    292.32867   -1497.0322    488.86846    305.87166   -122.63984      39457.2 
  997500     306.0843   -1526.0495    502.53754    352.35579    -215.7219      39457.2 
  997600    303.08432   -1531.3298    499.54838    330.60124   -148.66597      39457.2 
  997700    299.38495   -1550.5818    478.27011    273.44212   -211.08961      39457.2 
  997800    303.17085   -1523.8646    500.75533    339.66238   -174.08605      39457.2 
  997900    304.89318   -1508.2252    503.76945    366.05784   -210.08395      39457.2 
  998000    308.25794   -1529.4368    474.90426    331.10586     431.3529      39457.2 
  998100    288.35833   -1483.7824     520.7274    333.13344    778.37275      39457.2 
  998200    299.97828   -1521.0078    531.74779    359.16081    -51.58626      39457.2 
  998300    299.47672    -1496.851    490.25096    339.56623   -505.71728      39457.2 
  998400    293.49461   -1460.1598    498.80251    357.91901   -757.03175      39457.2 
  998500    300.49567   -1475.8328    497.12527    372.03899   -451.60184      39457.2 
  998600    295.18155      -1460.6    515.27236     381.5316   -79.987791      39457.2 
  998700    302.48532   -1481.3917     494.8241    373.12254   -200.94905      39457.2 
  998800     294.9966    -1477.105    501.26914    350.19201    234.76969      39457.2 
  998900    302.86629   -1501.3579    527.27043    387.31516    366.39614      39457.2 
  999000    301.42981   -1532.7212    483.48543    305.70972    554.66046      39457.2 
  999100    306.82652   -1483.4583    483.52127     379.2671    864.45763      39457.2 
  999200    303.42731   -1518.2351    495.88008    341.56945    623.25736      39457.2 
  999300    291.18663   -1487.8038    499.32225    320.42026    312.46459      39457.2 
  999400    299.14959   -1526.1925    526.79843    345.30176    339.22907      39457.2 
  999500    289.13681   -1474.1735    500.32317    325.83743     458.1016      39457.2 
  999600    289.13736   -1474.3719    522.93696    348.25534    41.117786      39457.2 
  999700    301.90721   -1510.2057      516.022    362.90778     77.52436      39457.2 
  999800    290.00459    -1485.118    476.24499    294.71546   -385.32402      39457.2 
  999900    298.73323   -1455.7117    529.39474    416.50729   -152.89647      39457.2 
 1000000    295.48948   -1488.9448    504.04207    343.34065   -78.901619      39457.2 
 1000100    309.77517   -1528.9147    491.76074    355.30444   -418.33679      39457.2 
 1000200    289.01828   -1513.3589    496.47586    282.27188    -964.0627      39457.2 
 1000300    291.60981   -1518.5634    497.29273    289.53334    -743.0986      39457.2 
 1000400    298.32442   -1511.6779    522.55363    351.86235   -274.89314      39457.2 
 1000500    300.73117   -1506.5069    531.03394     376.3322   -78.793726      39457.2 
 1000600    298.27816   -1523.3928    506.94669    324.33262    637.75765      39457.2 
 1000700    295.36162   -1523.8337     498.0798    301.91483    406.53515      39457.2 
 1000800    302.32494   -1512.0166    498.25403    345.20661    331.15251      39457.2 
 1000900    296.03666   -1478.8062     509.9986    361.89542    387.47583      39457.2 
 1001000    300.30694   -1478.2551      522.902    394.54509   -131.07283      39457.2 
 1001100    294.96508   -1537.8655    501.39162    289.41234    360.88106      39457.2 
 1001200    301.40719   -1524.6452    544.81242    375.01112    52.012809      39457.2 
 1001300    309.13921   -1547.5679     498.5909    340.62278   -170.84287      39457.2 
 1001400    289.09853   -1516.0149    502.86976    286.37056   -26.968735      39457.2 
 1001500    292.61724   -1537.9823    470.13973    247.48997   -661.86046      39457.2 
 1001600    300.71106   -1507.1306    506.13053    350.71467   -350.36716      39457.2 
 1001700    312.10832   -1520.7503    494.01823    376.21409   -301.71997      39457.2 
 1001800    309.98522   -1551.6172    487.03544     328.8209   -276.37993      39457.2 
 1001900     300.7065   -1531.6693    485.05201    305.07696   -336.03246      39457.2 
 1002000    302.33838    -1512.747    504.69709    350.97975   -208.38786      39457.2 
 1002100    288.99421   -1497.2666    499.30841    301.08858   -114.49508      39457.2 
 1002200    295.54726   -1479.3069     523.9857    373.18198   -572.80606      39457.2 
 1002300    293.66105   -1474.6893    494.00764    339.34288   -134.11758      39457.2 
 1002400    299.77057   -1475.9814    491.39223    362.89796   -245.73165      39457.2 
 1002500    309.20369   -1490.9094    530.53168    429.51185    118.45013      39457.2 
 1002600    300.87698   -1497.8112    473.23788    327.88728   -41.410566      39457.2 
 1002700     303.6184   -1474.9424    518.95772     408.7987    650.32717      39457.2 
 1002800    309.86453   -1472.9094     520.4835    440.43418    233.37711      39457.2 
 1002900    292.57401   -1472.2825    506.81307    349.66876    300.34721      39457.2 
 1003000    298.26871   -1481.4877    484.86316    344.11161   -54.365925      39457.2 
 1003100    306.20812   -1488.1533    524.19265    412.46373   -274.40185      39457.2 
 1003200    300.75057   -1498.7397    485.98231    339.13491    339.02179      39457.2 
 1003300    296.51314   -1521.6172    495.51939      306.747    242.01327      39457.2 
 1003400     300.4358   -1523.9521    491.92608     318.4514    78.135934      39457.2 
 1003500    302.58967   -1510.0567    490.57972    340.68223    218.01514      39457.2 
 1003600    305.49055   -1479.0858    509.06627    403.17933   -404.93878      39457.2 
 1003700    294.74103   -1495.6252    462.70662    291.96048   -401.90723      39457.2 
 1003800    299.43383   -1486.5791     502.8013    362.19568   -487.54925      39457.2 
 1003900    307.19035   -1450.1072    501.88928    432.62164   -186.11473      39457.2 
 1004000      303.654   -1479.7307    488.18079    373.39356   -416.47238      39457.2 
 1004100     309.2499   -1510.0465    475.52223    355.57307    31.313759      39457.2 
 1004200    298.19042   -1532.6803    481.68778    289.39181   -379.86695      39457.2 
 1004300    294.87346   -1531.6377    492.97124    286.80792    542.94161      39457.2 
 1004400    295.40015   -1547.6108    486.93099    267.16209    270.88082      39457.2 
 1004500    306.63249   -1521.8567    508.90516    365.38041    313.60572      39457.2 
 1004600     299.8951   -1527.1577    466.20904    287.09824   -66.495087      39457.2 
 1004700    307.59758   -1471.7571    505.39227     416.3052   -131.07012      39457.2 
 1004800    294.55268   -1518.5675    480.88808    286.35303   -95.075278      39457.2 
 1004900    297.65348   -1487.5385    496.39452     346.8267   -411.20614      39457.2 
 1005000    296.03911    -1506.397    501.40117    325.71822   -7.4138612      39457.2 
 1005100    296.60052    -1487.238    495.61894    341.61851   -83.232948      39457.2 
 1005200    302.24529   -1514.3152    484.22009    328.51609    376.66852      39457.2 
 1005300     287.9449   -1516.7311    497.22194    274.82094    284.97313      39457.2 
 1005383    297.32663   -1516.8109    476.28523    295.97582   -470.25419      39457.2 
Loop time of 601.479 on 32 procs for 1000000 steps with 1509 atoms

Performance: 143.646 ns/day, 0.167 hours/ns, 1662.569 timesteps/s
100.0% CPU use with 32 MPI tasks x no OpenMP threads

MPI task timing breakdown:
Section |  min time  |  avg time  |  max time  |%varavg| %total
---------------------------------------------------------------
Pair    | 214.18     | 264.79     | 312.41     | 160.2 | 44.02
Bond    | 1.2986     | 1.5185     | 1.7333     |   9.1 |  0.25
Neigh   | 39.366     | 39.434     | 39.494     |   0.6 |  6.56
Comm    | 236.31     | 283.6      | 333.99     | 154.0 | 47.15
Output  | 0.39103    | 0.41047    | 0.93776    |  14.8 |  0.07
Modify  | 8.0943     | 8.6009     | 9.3344     |  11.2 |  1.43
Other   |            | 3.125      |            |       |  0.52

Nlocal:        47.1562 ave          79 max          14 min
Histogram: 2 2 1 4 6 7 3 4 1 2
Nghost:        1936.66 ave        2072 max        1814 min
Histogram: 11 4 1 0 0 0 0 0 11 5
Neighs:        5128.75 ave       10246 max         928 min
Histogram: 2 3 3 7 7 2 3 2 1 2

Total # of neighbors = 164120
Ave neighs/atom = 108.76077
Ave special neighs/atom = 2.0159046
Neighbor list builds = 49765
Dangerous builds = 0

# Output the system volume
variable v equal vol
print 'The system volume is $v'
The system volume is 39457.1999017272

# Outputs
variable A equal xhi-xlo
variable B equal yhi-ylo
variable C equal zhi-zlo
variable D equal xy
variable E equal xz
variable F equal yz
print 'Lattice vectors'
Lattice vectors
print '$A 0 0'
34.0441180170456 0 0
print '$D $B 0'
0 34.0441180170456 0
print '$E $F $C'
0 0 34.0441180170456
Total wall time: 0:10:05
