LAMMPS (29 Sep 2021 - Update 1)
# Test LAMMPS input file for single DeFDe

# Initialize simulation

clear

units real
atom_style full
boundary p p p
dielectric 1
special_bonds dreiding

bond_style harmonic
angle_style harmonic
dihedral_style harmonic
improper_style umbrella
pair_style hybrid/overlay hbond/dreiding/lj 4 9.0 11.0 90 lj/cut 8.50000

# Read data file
read_data frag5.dat
Reading data file ...
  triclinic box = (0.0000000 0.0000000 0.0000000) to (15.000000 15.000000 15.000000) with tilt (0.0000000 0.0000000 0.0000000)
  2 by 4 by 4 MPI processor grid
  reading atoms ...
  1514 atoms
  scanning bonds ...
  4 = max bonds/atom
  scanning angles ...
  6 = max angles/atom
  scanning dihedrals ...
  12 = max dihedrals/atom
  scanning impropers ...
  1 = max impropers/atom
  reading bonds ...
  1013 bonds
  reading angles ...
  522 angles
  reading dihedrals ...
  27 dihedrals
  reading impropers ...
  1 impropers
Finding 1-2 1-3 1-4 neighbors ...
  special bond factors lj:    0        0        1       
  special bond factors coul:  0        0        1       
     4 = max # of 1-2 neighbors
     6 = max # of 1-3 neighbors
    10 = max # of special neighbors
  special bonds CPU = 0.002 seconds
  read_data CPU = 0.017 seconds

# Dreiding potential information

bond_coeff 1 350 1.43
bond_coeff 2 700 1.22
bond_coeff 3 350 1.53
bond_coeff 4 350 1.09
bond_coeff 5 350 1.42
bond_coeff 6 350 0.99
bond_coeff 7 350 0.98

angle_coeff 1 50 120
angle_coeff 2 50 109.471
angle_coeff 3 50 104.51

dihedral_coeff 1 0.0833333333333333 -1 6
dihedral_coeff 2 0.111111111111111 -1 3
dihedral_coeff 3 0.333333333333333 -1 3

improper_coeff 1 40 0

pair_coeff 1 1 lj/cut 0.0951 3.8983
pair_coeff 1 2 lj/cut 0.0951 3.8983
pair_coeff 1 3 lj/cut 0.0953995283007206 3.64309650983885
pair_coeff 1 4 lj/cut 0.0953995283007206 3.64309650983885
pair_coeff 1 5 lj/cut 0.0380199947396104 3.52917391183829
pair_coeff 1 6 lj/cut 0.00308382878902186 3.52806914614779
pair_coeff 2 2 lj/cut 0.0951 3.8983
pair_coeff 2 3 lj/cut 0.0953995283007206 3.64309650983885
pair_coeff 2 4 lj/cut 0.0953995283007206 3.64309650983885
pair_coeff 2 5 lj/cut 0.0380199947396104 3.52917391183829
pair_coeff 2 6 lj/cut 0.00308382878902186 3.52806914614779
pair_coeff 3 3 lj/cut 0.0957 3.4046
pair_coeff 3 4 lj/cut 0.0957 3.4046
pair_coeff 3 5 lj/cut 0.0381397430510485 3.29813538230316
pair_coeff 3 6 lj/cut 0.0030935416596516 3.29710294046152
pair_coeff 4 4 lj/cut 0.0957 3.4046
pair_coeff 4 5 lj/cut 0.0381397430510485 3.29813538230316
pair_coeff 4 6 lj/cut 0.0030935416596516 3.29710294046152
pair_coeff 5 5 lj/cut 0.0152 3.195
pair_coeff 5 6 lj/cut 0.0012328828005938 3.19399984345648
pair_coeff 6 6 lj/cut 1e-04 3.193
pair_coeff 3 3 hbond/dreiding/lj 6 j 9.50 2.75 4 9.0 11.0 90
pair_coeff 3 4 hbond/dreiding/lj 6 i 9.50 2.75 4 9.0 11.0 90

neighbor 2 bin
neigh_modify every 2 one 10000

# Gemoetric relaxation
fix 1 all box/relax iso 1.0 vmax 0.001
minimize 1.0e-4 1.0e-6 10000 10000
WARNING: Using 'neigh_modify every 1 delay 0 check yes' setting during minimization (../min.cpp:188)
Neighbor list info ...
  update every 1 steps, delay 0 steps, check yes
  max neighbors/atom: 10000, page size: 100000
  master list distance cutoff = 13
  ghost atom cutoff = 13
  binsize = 6.5, bins = 3 3 3
  3 neighbor lists, perpetual/occasional/extra = 3 0 0
  (1) pair hbond/dreiding/lj, perpetual, skip from (3)
      attributes: full, newton on
      pair build: skip
      stencil: none
      bin: none
  (2) pair lj/cut, perpetual, half/full from (3)
      attributes: half, newton on
      pair build: halffull/newton
      stencil: none
      bin: none
  (3) neighbor class addition, perpetual
      attributes: full, newton on
      pair build: full/bin
      stencil: full/bin/3d
      bin: standard
Per MPI rank memory allocation (min/avg/max) = 15.41 | 15.78 | 16.33 Mbytes
Step Temp E_pair E_mol TotEng Press Volume 
       0            0 1.294941e+20    260.18861 1.294941e+20 1.0523503e+22         3375 
    5297            0   -970.21571    28.265857   -941.94986    81.619911     37926.35 
Loop time of 4.73722 on 32 procs for 5297 steps with 1514 atoms

100.0% CPU use with 32 MPI tasks x no OpenMP threads

Minimization stats:
  Stopping criterion = energy tolerance
  Energy initial, next-to-last, final = 
    1.29494103704757e+20  -941.352274762512  -941.445959038044
  Force two-norm initial, final = 4.5606251e+22 96.960991
  Force max component initial, final = 3.0703256e+22 59.725264
  Final line search alpha, max atom move = 1.1409632e-05 0.00068144332
  Iterations, force evaluations = 5297 5308

MPI task timing breakdown:
Section |  min time  |  avg time  |  max time  |%varavg| %total
---------------------------------------------------------------
Pair    | 1.6628     | 2.591      | 3.9926     |  31.3 | 54.69
Bond    | 0.0074637  | 0.011153   | 0.022849   |   2.7 |  0.24
Neigh   | 0.091046   | 0.091293   | 0.091465   |   0.0 |  1.93
Comm    | 0.29614    | 1.6993     | 2.6278     |  38.7 | 35.87
Output  | 0          | 0          | 0          |   0.0 |  0.00
Modify  | 0          | 0          | 0          |   0.0 |  0.00
Other   |            | 0.3445     |            |       |  7.27

Nlocal:        47.3125 ave          62 max          30 min
Histogram: 1 2 2 4 3 6 6 3 2 3
Nghost:        1911.31 ave        1951 max        1879 min
Histogram: 6 4 3 3 1 4 1 4 3 3
Neighs:        4784.75 ave        7076 max        2696 min
Histogram: 2 1 3 6 7 4 3 3 2 1

Total # of neighbors = 153112
Ave neighs/atom = 101.13078
Ave special neighs/atom = 2.0277411
Neighbor list builds = 91
Dangerous builds = 0

# MD simulation
velocity all create 300.0 12345 rot yes dist gaussian
timestep 1.0
fix 2 all nvt temp 300.0 300.0 1

# Compute interaction energy
group WAT molecule <> 2 501
1500 atoms in group WAT
group MOL molecule 1
14 atoms in group MOL

compute w WAT group/group MOL pair yes
fix 3 all ave/time 10 5 100 c_w file outa

# Outputs
thermo 100 # Output thermodynamic data every nth step
#dump mf1 all xyz 10000 mol_*.xyz

# Run
run 1000000
Neighbor list info ...
  update every 2 steps, delay 10 steps, check yes
  max neighbors/atom: 10000, page size: 100000
  master list distance cutoff = 13
  ghost atom cutoff = 13
  binsize = 6.5, bins = 6 6 6
  4 neighbor lists, perpetual/occasional/extra = 3 1 0
  (1) pair hbond/dreiding/lj, perpetual, skip from (4)
      attributes: full, newton on
      pair build: skip
      stencil: none
      bin: none
  (2) pair lj/cut, perpetual, half/full from (4)
      attributes: half, newton on
      pair build: halffull/newton
      stencil: none
      bin: none
  (3) compute group/group, occasional, copy from (2)
      attributes: half, newton on
      pair build: copy
      stencil: none
      bin: none
  (4) neighbor class addition, perpetual
      attributes: full, newton on
      pair build: full/bin
      stencil: full/bin/3d
      bin: standard
Per MPI rank memory allocation (min/avg/max) = 14.25 | 14.29 | 14.80 Mbytes
Step Temp E_pair E_mol TotEng Press Volume 
    5297          300   -970.21571    28.265857    411.03983    1712.3658     37926.35 
    5300    272.54468   -954.37777    469.59139    744.38075    865.31592     37926.35 
    5400    294.20262   -1102.4699    132.54504    356.91883    459.01742     37926.35 
    5500    304.23269   -1038.0918    198.36084    532.34801      889.395     37926.35 
    5600    303.27105   -1082.4484    199.17465    484.46824     866.1972     37926.35 
    5700    293.28942   -1067.7455    182.49434     437.4741    1004.2814     37926.35 
    5800    299.41889   -1058.5033    196.93502    488.80067    1312.9968     37926.35 
    5900    307.33278   -1048.9265    196.40822    533.54194     560.6367     37926.35 
    6000    302.40114   -1055.2042    192.02067    500.63525    602.80132     37926.35 
    6100     302.2365   -1064.4435     196.6261    495.25879    631.17491     37926.35 
    6200    301.31041   -1096.1097    205.20126    467.99117    794.33575     37926.35 
    6300     296.7416   -1080.8729    196.33796    453.75946    724.26235     37926.35 
    6400    304.40595   -1115.2267    214.47027    472.10396    834.13008     37926.35 
    6500    292.36007   -1032.9056    197.37832    483.00656    697.25645     37926.35 
    6600    298.80112   -1082.2607    198.22928    463.55142     727.4083     37926.35 
    6700    293.46149   -1082.5201    216.57935    457.56043    846.07164     37926.35 
    6800    296.56918   -1089.5282    204.09456    452.08312     577.9226     37926.35 
    6900    303.69499   -1052.8453    219.83287    536.64157    711.26805     37926.35 
    7000    309.86173   -1065.7835    209.36122    541.04342     867.7438     37926.35 
    7100    303.73107   -1054.6931    208.18857    523.31211    368.01523     37926.35 
    7200    299.65085   -1021.3576    212.83409    542.89149   -271.72036     37926.35 
    7300    293.18384    -1070.847    213.85499    465.25699     74.89772     37926.35 
    7400    302.21768   -1087.5323    213.88351    489.34253    145.23655     37926.35 
    7500    302.14522   -1108.9828    221.50329    475.18503   -171.19237     37926.35 
    7600     296.1792   -1109.9608    238.70549    464.50266   -69.788754     37926.35 
    7700    296.48038    -1081.406    221.02329    476.73356    101.75641     37926.35 
    7800    309.55675    -1127.533    228.25661    496.81388    190.25484     37926.35 
    7900    299.21238   -1123.1542    220.55784    446.84119   -129.16038     37926.35 
    8000    293.54073   -1134.0502    215.88355    405.69196    192.48787     37926.35 
    8100     299.9058   -1118.5211     229.7224    463.76618    434.50077     37926.35 
    8200    306.83512   -1117.5847    217.04939    483.28054    331.79407     37926.35 
    8300    299.58759   -1106.0484    216.42032    461.50161    620.04659     37926.35 
    8400    292.40652   -1141.4578    238.60823    415.89374   -27.283879     37926.35 
    8500    305.37016   -1107.3438    238.55199    508.41705    390.01984     37926.35 
    8600    300.18138   -1141.0681     229.8906    442.63026    484.27956     37926.35 
    8700    294.82003   -1159.8949    223.94433    393.67764    607.71193     37926.35 
    8800    290.15987    -1122.679    228.78921    414.72123    91.256797     37926.35 
    8900    312.95297   -1134.6577     230.5241    507.27352    174.00291     37926.35 
    9000    301.12438   -1126.4669    242.44856    474.04225    55.730369     37926.35 
    9100    291.97016   -1122.3061    241.54244     436.0117    486.47996     37926.35 
    9200    302.21653   -1195.0566    233.62542    401.55496    134.01096     37926.35 
    9300    305.13254   -1202.3572    235.97082    409.75087    191.28969     37926.35 
    9400    293.55778   -1166.3144    234.52019    392.14126    566.96211     37926.35 
    9500    301.27447   -1148.8561    252.12649    462.00791    349.45787     37926.35 
    9600    304.93236   -1159.5272    237.95744    453.66475    480.59583     37926.35 
    9700    301.24581   -1134.5431    261.74397    485.80911    572.61652     37926.35 
    9800    296.01817   -1111.7103    239.01134    462.33281    227.85936     37926.35 
    9900    314.39466   -1094.9899    244.97112    567.89029    619.66502     37926.35 
   10000    301.81744   -1100.0604    256.99032    518.11621    547.21949     37926.35 
   10100    297.04817   -1127.6692    251.34078    463.34862    233.62373     37926.35 
   10200    290.56297   -1104.9624    262.61176    468.07837    808.13126     37926.35 
   10300      305.648   -1130.9644    248.58746      496.085    261.99306     37926.35 
   10400    298.11694   -1128.7518    262.76396    478.50925     204.8333     37926.35 
   10500    300.03733   -1117.5279    252.13471    487.76482    145.74894     37926.35 
   10600    308.52635   -1062.3171    259.68756    588.81366     577.7687     37926.35 
   10700    308.51619   -1126.3423    244.70037     509.7555     128.5987     37926.35 
   10800    303.46145    -1101.131    248.30751    515.77726   -27.655194     37926.35 
   10900      290.349   -1130.6367    255.75774    434.58508    454.36021     37926.35 
   11000    302.23396   -1090.1474    252.19122    525.10858    272.83938     37926.35 
   11100    293.14818   -1107.3062    262.19143    476.97343    798.51942     37926.35 
   11200    304.01851   -1131.4784    250.57295    490.20752    655.44037     37926.35 
   11300     304.5564   -1095.8357     250.8997    528.60295    863.88401     37926.35 
   11400    313.09138    -1101.205    257.15001    567.97636    803.39536     37926.35 
   11500     298.0174   -1169.7181    251.96938     426.2995    718.85848     37926.35 
   11600    294.40753   -1136.9968    274.02867    464.79968    477.29742     37926.35 
   11700    311.29553   -1123.1673    258.66748    539.43234    520.23097     37926.35 
   11800    298.55187   -1112.0565    287.61267    522.01482    259.17733     37926.35 
   11900    298.58249   -1135.8815     266.4998    477.21507   -3.8477917     37926.35 
   12000    313.29546   -1172.1576    286.10295    526.89704     489.2223     37926.35 
   12100    299.43282   -1137.2259     275.9845    489.19031    313.87325     37926.35 
   12200     300.1588   -1130.8068    275.85707     498.7561     374.2414     37926.35 
   12300    295.98245   -1133.1257    269.92357    471.66855    3.2000623     37926.35 
   12400    295.84798    -1175.385    265.81314    424.69241     80.90961     37926.35 
   12500    296.02923   -1158.2779    275.75674    452.56046    192.02847     37926.35 
   12600    302.01236   -1154.1292    272.04425    479.98038    574.63861     37926.35 
   12700    293.49579   -1180.8341    276.74651    419.56829    451.32739     37926.35 
   12800    297.89827    -1199.188    272.01463    416.33759    302.26064     37926.35 
   12900    294.33685    -1141.328    283.97304    470.09407     545.8122     37926.35 
   13000    298.77345   -1166.0648    276.63294    458.02614    284.04601     37926.35 
   13100    295.89473   -1148.5833    274.72436    460.61613    261.00179     37926.35 
   13200    300.05369   -1147.0623    280.79887     486.9684    244.18469     37926.35 
   13300    301.28747    -1139.594    276.57867    495.78081    180.75423     37926.35 
   13400    295.28772   -1151.8643    296.44326    476.31643    727.97003     37926.35 
   13500    295.91481    -1169.436     286.2216    451.35122   -172.41586     37926.35 
   13600    300.14477   -1110.0782    298.20524    541.76961    219.29168     37926.35 
   13700    302.15104   -1109.5294    282.83287    535.99422    157.61042     37926.35 
   13800    302.07221   -1126.5513    284.86074    520.64468    183.59482     37926.35 
   13900    305.31109   -1163.6713    296.55136    509.82258    260.11667     37926.35 
   14000     295.3875   -1139.2648    283.56732    476.48998   -27.432837     37926.35 
   14100    305.39488   -1165.1813    299.49343    511.63256    14.731038     37926.35 
   14200    302.88679   -1162.6026    297.51986    500.92623    339.36486     37926.35 
   14300    302.34122   -1173.5147    282.60116      472.635    611.79152     37926.35 
   14400    300.66782   -1190.0183    277.47324    443.45645    451.09023     37926.35 
   14500    304.63442     -1171.03    293.25826    496.11901    769.21286     37926.35 
   14600    298.13118   -1165.7764    291.59271    470.37766    659.17069     37926.35 
   14700     309.3401   -1129.9803    289.89074    555.02365    272.13353     37926.35 
   14800    310.69485   -1174.3734    293.37113    520.22082     406.3428     37926.35 
   14900    290.65607   -1172.4996    291.97654    430.32582   -115.83234     37926.35 
   15000    303.44797   -1156.4286    303.18623     515.2975    142.58279     37926.35 
   15100    300.28507   -1162.9507     289.3022    480.62687    525.70947     37926.35 
   15200    305.59647   -1147.4183    293.77984    524.59111    -35.68183     37926.35 
   15300    305.89481   -1169.8321    297.99501    507.73792    141.36592     37926.35 
   15400    300.85494     -1166.25    309.79589     500.3913   -64.685242     37926.35 
   15500    288.86813   -1160.4957    294.56764    436.85727    649.30955     37926.35 
   15600    294.94953    -1182.584     292.4301    440.05832    625.52033     37926.35 
   15700    303.15716   -1153.5282    304.91665    518.61682    718.08254     37926.35 
   15800    308.65116   -1152.0266    303.91143    543.89097    743.90035     37926.35 
   15900     301.0739   -1131.3981     306.2814    532.71622    135.65421     37926.35 
   16000    303.95682   -1160.2392    305.20854    515.80417    86.593823     37926.35 
   16100    292.42452   -1218.4087    307.88971    408.30555   -147.62296     37926.35 
   16200    309.99273   -1175.7808    290.62842    512.90421     135.2101     37926.35 
   16300    290.19383   -1278.4387    301.24614    331.57164   -345.89496     37926.35 
   16400    306.89961   -1223.3798    304.95107    465.67801    -84.03084     37926.35 
   16500    289.78657   -1220.0773    299.15988    386.01001     -88.2309     37926.35 
   16600    293.99919   -1210.5753    311.38697    426.73787    23.477809     37926.35 
   16700     293.8801    -1192.649    290.76339    423.50357    318.49423     37926.35 
   16800    292.23886   -1205.5017    308.51314    420.99866    818.48268     37926.35 
   16900    295.21162   -1231.1197    310.52996    410.80448    13.100383     37926.35 
   17000    298.68443   -1180.5089    289.88678    456.43437    49.076912     37926.35 
   17100    295.81562   -1184.5348    317.93926    467.52275    220.55727     37926.35 
   17200    302.98979   -1176.3018    303.57388     493.7456    154.55204     37926.35 
   17300    311.32374   -1159.0949    309.14965    554.11416     455.3037     37926.35 
   17400    306.84277   -1204.4493    299.54606    478.94713    66.156313     37926.35 
   17500    304.64551   -1229.5134     312.7441    457.17145     314.7576     37926.35 
   17600    299.96355   -1192.6377    293.24954    453.43716    112.22774     37926.35 
   17700    297.51697   -1188.4414    323.32856    476.67847    277.91427     37926.35 
   17800    313.15733   -1246.7155    316.53851    482.15179   -7.3469616     37926.35 
   17900    290.93673   -1242.8476    290.74704    360.01409    326.38314     37926.35 
   18000    303.65917   -1209.3796    330.89955    491.01232    -147.5452     37926.35 
   18100    299.43906   -1216.1881    317.29722      451.569   -105.38247     37926.35 
   18200    295.24176   -1181.1914    301.37171    451.71046   -396.38946     37926.35 
   18300    312.37395   -1210.2518    333.76184    532.30585   -40.247681     37926.35 
   18400    292.18061   -1182.2315      308.954    444.44696   -88.065606     37926.35 
   18500    297.34274   -1164.7987    332.70198    508.90878   -201.56243     37926.35 
   18600    297.19451   -1181.2919    319.09512    478.14027   -93.926503     37926.35 
   18700    293.29601   -1202.3084    316.86152    437.30799    625.60122     37926.35 
   18800    299.48481   -1236.8969    319.77527    433.54457     358.0699     37926.35 
   18900    298.08736   -1240.4732    330.81549    434.70603    354.92145     37926.35 
   19000    298.84287   -1235.1112    316.70876    429.36866    590.90619     37926.35 
   19100    302.01311   -1201.0324     319.6553    480.69164    176.74925     37926.35 
   19200    294.04248   -1202.1404    334.24708    458.22822     305.8559     37926.35 
   19300    303.25789   -1189.1881    334.78365    513.27819    271.82269     37926.35 
   19400    287.79911   -1238.4373    323.46154    382.98837    126.52446     37926.35 
   19500    291.31886   -1225.7961    325.35689    413.39877     299.9473     37926.35 
   19600    295.23782   -1244.6698    324.55155    411.39415     138.9347     37926.35 
   19700    297.33751   -1216.5979    328.05199    452.43605    88.720068     37926.35 
   19800    294.99106   -1221.8517    310.13213    418.67999    268.27629     37926.35 
   19900    304.00963   -1208.9512      328.418    490.53978    185.31309     37926.35 
   20000    296.07173   -1240.4632    333.93022    428.74034   -445.73897     37926.35 
   20100    308.59995   -1234.5353    327.55212    484.79195   -423.64351     37926.35 
   20200    303.23251   -1228.4759    354.60949    493.70179   -93.152524     37926.35 
   20300     301.6513   -1178.3886     340.3248    522.37318    325.27884     37926.35 
   20400    303.95192   -1215.1766    333.94135    489.57744    606.93813     37926.35 
   20500    299.90796   -1178.2401    357.05733    531.39181    567.22388     37926.35 
   20600    298.89387   -1190.1081    330.15946    488.05246    697.99335     37926.35 
   20700    300.72126   -1202.5154    361.46277    515.18996    347.97796     37926.35 
   20800    301.60032   -1214.3624     355.0988    500.94349    235.41055     37926.35 
   20900    296.77375   -1189.2859     352.9004    502.05389    466.65096     37926.35 
   21000     306.2771   -1223.4528    340.52917    498.37559    227.71812     37926.35 
   21100     297.5653   -1178.0124    353.21949    517.21636    322.96911     37926.35 
   21200    305.91519   -1267.9367    343.56691    455.29714    664.09385     37926.35 
   21300    305.35372   -1252.0233    324.43701    449.54851    829.23372     37926.35 
   21400      307.442   -1246.2512    341.32313    481.62483    637.43442     37926.35 
   21500    304.76296   -1220.2523    347.04727    501.26544    122.66778     37926.35 
   21600    310.63939   -1229.4891    336.70077    508.18466    298.24656     37926.35 
   21700    306.69256   -1234.9161    349.36653    497.62332     236.8762     37926.35 
   21800    303.78767   -1195.2686     349.5575    524.36089    649.60947     37926.35 
   21900     296.2047   -1237.9486    343.73081     441.6552   -46.628657     37926.35 
   22000    302.10614   -1247.9911    343.17639     457.6736    415.89387     37926.35 
   22100    308.38835   -1231.6966    342.85245    501.97665     447.2343     37926.35 
   22200     304.8873   -1226.2396    352.22492    501.01654    363.55168     37926.35 
   22300    307.15205   -1255.9871    317.78546    447.04352    55.561152     37926.35 
   22400    315.19264   -1237.6422    350.98463     534.8504    84.557925     37926.35 
   22500    296.54183   -1236.4537    342.38669     443.3264    54.628156     37926.35 
   22600    292.02983   -1241.0605    355.37988    431.36389   -602.09498     37926.35 
   22700    297.71506   -1243.6647    344.92347    443.94338   -669.62349     37926.35 
   22800    307.27298   -1244.0413    349.43598    491.18529   -300.08411     37926.35 
   22900    298.40679   -1246.3207    335.20998    434.69369   -372.34822     37926.35 
   23000    298.61208   -1210.7512    346.70553    482.68451   -172.15651     37926.35 
   23100    296.57015   -1245.4517    333.88354    425.95299   -441.02823     37926.35 
   23200    293.76398   -1223.1326    351.03029    452.76314   -631.38163     37926.35 
   23300    307.26011   -1215.1177    343.05516    513.66997   -71.616214     37926.35 
   23400    310.82515   -1234.0192    344.35596    512.14749    59.598507     37926.35 
   23500    299.14176   -1259.6005    354.41157    443.93016   -428.02458     37926.35 
   23600     309.9716   -1243.6854    351.51588    505.79179    341.53484     37926.35 
   23700    299.61193   -1230.5163    350.84004    471.56327    131.31824     37926.35 
   23800    292.63493   -1248.1489    356.35888    427.98346    569.19979     37926.35 
   23900    301.97897   -1241.3096    347.60248    468.20764    205.09824     37926.35 
   24000     313.4813   -1255.1101    345.06117    503.74092   -88.549205     37926.35 
   24100    298.62412   -1236.9502    353.92164    463.75593    51.286354     37926.35 
   24200    304.43956   -1263.9909    356.58621    465.60729    417.98281     37926.35 
   24300    295.00215    -1288.416    359.93068    401.96418   -279.58986     37926.35 
   24400    300.55821   -1312.1604    332.71182    376.05861    528.30867     37926.35 
   24500    299.81608   -1237.7934    369.95776    484.32461    846.14644     37926.35 
   24600    297.72508   -1250.3401    357.61429    450.00407    448.91432     37926.35 
   24700    300.74701   -1252.4187    361.87651    465.81644    401.65519     37926.35 
   24800    305.47723   -1258.2633    350.02526    469.45374    366.28308     37926.35 
   24900    294.64586   -1289.7358    354.48063    393.58749    142.31467     37926.35 
   25000    305.05427   -1260.9788    335.67357      450.479    331.05715     37926.35 
   25100    300.78603    -1248.236    343.75314    452.05183    553.93411     37926.35 
   25200    290.96419   -1258.1399    354.53419    408.63276    318.19328     37926.35 
   25300    300.64495   -1240.0872    352.50923     468.3204    347.66093     37926.35 
   25400    307.43851   -1231.6547    356.69397    511.57638    333.08255     37926.35 
   25500    301.52832   -1211.2133     350.6141    499.28314    360.31062     37926.35 
   25600    301.30527   -1246.4961    359.06877     471.4491    375.76908     37926.35 
   25700    287.40771    -1200.296    357.22113    453.12399     952.5825     37926.35 
   25800     296.5655   -1204.6671    381.33803    514.17118    583.24645     37926.35 
   25900    298.75768   -1239.6412    354.13245    461.87817    224.92635     37926.35 
   26000    306.92954   -1240.3416    349.25058    493.15063    713.66678     37926.35 
   26100    308.14289   -1247.7687    357.76756    499.71268    735.07056     37926.35 
   26200    291.48741   -1260.3046    355.27442    409.56799    65.019761     37926.35 
   26300    299.51021    -1256.916    344.09682    437.96155    231.68719     37926.35 
   26400    309.74608   -1258.6229    347.80592    486.12716     579.2354     37926.35 
   26500    297.71676    -1273.755    340.39499    409.33238    245.45302     37926.35 
   26600    304.97529   -1298.9802    327.69798    404.14581    239.00004     37926.35 
   26700    290.51328   -1267.8839    339.71342    382.03439   -124.61824     37926.35 
   26800    296.43881   -1266.0618    358.44999    429.31701    122.19381     37926.35 
   26900    313.99746   -1270.9163    348.87363     494.0751    253.37755     37926.35 
   27000     304.1637   -1266.1256    355.48527    461.12744    578.65374     37926.35 
   27100    295.04594   -1282.2066    372.53464    420.97509    739.52817     37926.35 
   27200    304.93742   -1231.9797    354.52254    497.80005    806.47211     37926.35 
   27300     302.9669   -1273.8944    357.62625    450.10212    340.74427     37926.35 
   27400    299.55317   -1266.1051    339.54232    424.41174    790.36665     37926.35 
   27500    295.58118    -1243.379     333.8703    423.55225   -249.34627     37926.35 
   27600    297.67568   -1205.8561    374.74583    511.39683   -430.77506     37926.35 
   27700    301.08856   -1248.7017    337.20684    446.40416    -328.7564     37926.35 
   27800     296.9291   -1209.8895    370.72588     499.9764    391.78364     37926.35 
   27900    300.46579   -1250.3925    346.14841    450.84629   -141.70014     37926.35 
   28000    297.71636   -1210.7378    359.33128    491.28398    256.97267     37926.35 
   28100    289.11739   -1268.8474    377.31406    412.37618    267.90012     37926.35 
   28200    295.83815   -1271.0368    364.49685    427.67996    -104.7362     37926.35 
   28300    294.99289   -1225.9394    346.49131    450.95967    432.53718     37926.35 
   28400    291.92235   -1248.6197    362.19021     430.1303    70.194901     37926.35 
   28500    291.79382   -1273.8008    340.78258    382.96184      404.192     37926.35 
   28600    299.19878   -1305.5193    355.99181    399.84866    644.15993     37926.35 
   28700    306.26396   -1263.1969    362.78806    480.83112    320.67012     37926.35 
   28800    291.30495   -1270.6717    376.00331    419.10696    359.53041     37926.35 
   28900    301.97615   -1242.6967      355.266     474.4714    1063.2798     37926.35 
   29000    293.89841   -1238.4569    354.55569    441.57058     218.1995     37926.35 
   29100    296.05993    -1229.229    353.44725    459.43831    444.43917     37926.35 
   29200    308.79783    -1242.286    361.98022    512.36184    365.25275     37926.35 
   29300    305.90454   -1238.3352    340.60942    481.89317    119.16709     37926.35 
   29400    304.86007   -1267.3702    342.42022    449.95841   -19.535596     37926.35 
   29500    292.03781   -1218.4026    338.85178    437.52967    167.11818     37926.35 
   29600    306.22578   -1221.7232    360.50048    519.84503   -41.136512     37926.35 
   29700    304.83106   -1206.8188    364.40744    532.36624    51.177881     37926.35 
   29800    296.76227   -1222.5702    372.80298    488.62038    199.17411     37926.35 
   29900       294.44   -1261.8563    376.14282    442.20082   -184.00448     37926.35 
   30000    295.14662   -1208.9529    366.60906     488.7573    390.63268     37926.35 
   30100    303.79033   -1231.9378    375.09457    513.24068    854.82389     37926.35 
   30200     294.7009   -1236.1217    353.85876    446.82802    516.52202     37926.35 
   30300    303.04715   -1275.7217    352.46998    443.48048    277.79258     37926.35 
   30400    295.55004   -1296.7053     346.9384    383.15366    307.48492     37926.35 
   30500    289.10056    -1303.758    368.74449    368.82002     587.7623     37926.35 
   30600     303.7932   -1290.4124    377.19248    456.87701    951.37961     37926.35 
   30700    297.83255   -1243.8882    354.07419    453.40054    888.94561     37926.35 
   30800     299.4656   -1192.7487    355.53966    513.37045    875.40284     37926.35 
   30900    296.42419   -1222.4951    359.13194    473.49972     524.6926     37926.35 
   31000    293.78544   -1213.4696    383.04204    494.53468     657.7071     37926.35 
   31100    308.78015   -1276.5931    376.38931    492.38411    314.09464     37926.35 
   31200    300.83918   -1252.4124    363.58502    467.94699    195.02274     37926.35 
   31300    305.47208   -1232.2496    397.30986    542.72885    283.80271     37926.35 
   31400      306.338   -1243.0313    365.20152    503.74409    457.20162     37926.35 
   31500    307.24114   -1280.0631    371.40172    476.98561    222.80114     37926.35 
   31600    304.10503   -1241.9097    375.28926    504.88272   -57.349401     37926.35 
   31700     306.8561   -1258.0469    372.79817    498.66176   -450.76193     37926.35 
   31800    306.98051   -1170.3571    380.82136    594.93584     233.4127     37926.35 
   31900    292.78565   -1266.9589     359.3972    412.89153     218.0819     37926.35 
   32000    290.11675   -1289.5769    377.43905    396.27873    118.41783     37926.35 
   32100    308.78097   -1226.1392    381.89673    548.34908    288.74302     37926.35 
   32200    289.72375   -1240.1074    372.89323    439.42998    113.84051     37926.35 
   32300    301.10086   -1265.3164    377.63663    470.27478    95.588913     37926.35 
   32400      309.117   -1250.4874    374.06762    517.68723   -10.574057     37926.35 
   32500    295.00173   -1237.5718    373.66449    466.54039    14.767138     37926.35 
   32600    295.76762   -1304.2126    366.20803    395.89725    -289.3802     37926.35 
   32700    292.38564    -1271.961    384.84789    431.53612   -216.49135     37926.35 
   32800    298.94819   -1286.1633    364.93703    427.01981   -607.98156     37926.35 
   32900     307.1245   -1293.8219    376.95999    468.25905   -251.86634     37926.35 
   33000    304.76749   -1275.9716    369.31379    467.83306   -13.329859     37926.35 
   33100    305.27541   -1283.3911    369.74702    463.13751   -468.36175     37926.35 
   33200    308.68225   -1295.8343    367.20401    463.51604   0.75405948     37926.35 
   33300    304.48569   -1271.1166    378.37518    480.47851    9.5539664     37926.35 
   33400    296.11313   -1287.6431    369.14569    416.96264   -213.76026     37926.35 
   33500    302.29028   -1310.6497    361.97983    414.64889    -332.5529     37926.35 
   33600    302.90347   -1313.0573    363.17088    416.19782   -25.195911     37926.35 
   33700    300.34347   -1314.9638    371.64472    411.21963   -221.69752     37926.35 
   33800    310.77472   -1279.2839    384.78956    507.08892    272.36654     37926.35 
   33900    299.72517   -1324.5837    380.21234    407.37883    516.32672     37926.35 
   34000    295.24515   -1315.7628    373.59948    389.38212    56.982582     37926.35 
   34100    309.66799   -1271.1445    393.62147    519.06894   -431.20392     37926.35 
   34200    289.55944   -1232.8237    388.68041    461.75986   -182.06063     37926.35 
   34300    299.71203   -1289.3474    374.13487    436.47843   -460.13418     37926.35 
   34400    299.08172   -1293.9411    404.52871    459.43591    309.64985     37926.35 
   34500    299.84756   -1276.7168    380.31628    455.90167   -298.06165     37926.35 
   34600     294.3512   -1272.7753    391.45875    446.19722    129.22819     37926.35 
   34700    290.88531    -1283.803     374.3709    402.45065    32.840323     37926.35 
   34800    307.88679   -1282.3325    397.63697    503.86327   -4.0595692     37926.35 
   34900     291.0305   -1317.6517     401.4073    396.29317    77.930327     37926.35 
   35000    301.03199   -1285.1844    402.40339    474.86285    101.63958     37926.35 
   35100    300.97067   -1288.9512    401.30926    469.72548    430.18459     37926.35 
   35200    308.34117   -1311.4591     367.3633    446.51222    463.81052     37926.35 
   35300    298.04772   -1294.3901     373.1425    422.93739    631.16393     37926.35 
   35400     306.1689   -1345.6836     385.0611    420.18871    182.36485     37926.35 
   35500    294.04983   -1342.2328    376.47888    360.40071     531.0611     37926.35 
   35600    293.67487   -1321.3301    387.87071    391.00423    193.31009     37926.35 
   35700    299.55298   -1273.9934    365.88368    442.86395    138.57371     37926.35 
   35800     295.0001   -1331.6462     365.7054    364.49953    572.30726     37926.35 
   35900    292.69667   -1309.3791    386.96251    397.63531    435.78536     37926.35 
   36000    297.32865   -1343.3496    376.83366    374.42603    419.87326     37926.35 
   36100    294.40649   -1283.4253    387.91728    432.25512    427.46625     37926.35 
   36200    300.75566   -1313.9564    387.82868    430.26997    219.43159     37926.35 
   36300    301.72601   -1308.4753    414.01826     466.3169    44.536362     37926.35 
   36400    295.74273   -1297.3056    391.99168    428.47558   -328.62526     37926.35 
   36500    304.52969   -1308.0919    419.52713    484.85367   -802.17062     37926.35 
   36600    306.80287   -1316.1077    381.44881    449.01151   -113.14478     37926.35 
   36700    301.62589   -1326.8761    392.08403    425.53038     246.8043     37926.35 
   36800     288.8113   -1335.0622    412.28874    379.75562   -85.100808     37926.35 
   36900    295.31779   -1365.7541    416.52584    382.64479    353.89409     37926.35 
   37000    294.20267   -1378.8967    414.71332    362.66056   -411.31693     37926.35 
   37100    297.34416   -1404.0448    402.61253    339.57965   -245.08167     37926.35 
   37200    291.02403   -1364.9438    394.93281    342.49733    398.31247     37926.35 
   37300    303.93911   -1332.9584    396.62071    434.41725    409.97206     37926.35 
   37400    304.06076   -1337.2077    405.38477    439.48062    409.70003     37926.35 
   37500    302.27202   -1327.8685    416.39695    451.76483    298.24497     37926.35 
   37600     303.4489   -1301.1532    415.45723    482.84813   -86.169911     37926.35 
   37700    297.47021   -1240.0622    425.26145    526.77964   -105.76283     37926.35 
   37800    299.44356   -1288.0609    416.81473    479.23404    514.23764     37926.35 
   37900    304.68906   -1294.3504    403.10407    482.89082    127.94042     37926.35 
   38000     302.9082   -1274.5653    395.82415    487.36447    127.60425     37926.35 
   38100    288.74991   -1309.6487    405.26855    397.87202   -195.94379     37926.35 
   38200    301.62742   -1335.0589    415.74896    441.01934    278.46513     37926.35 
   38300    308.67553      -1307.3    419.90647    504.72255    95.963014     37926.35 
   38400    299.89048   -1344.5003    420.76806    428.76353   -56.463189     37926.35 
   38500    297.62328   -1342.2232     423.5443    423.59181    88.348106     37926.35 
   38600    299.29342   -1380.3308    412.40167    381.87386    272.60106     37926.35 
   38700    304.58609   -1351.6466    406.54791     428.5741    252.61681     37926.35 
   38800    298.92955   -1365.1061    408.19427    391.25011    54.398774     37926.35 
   38900    291.33149   -1396.7549    399.09526    316.23536    179.94794     37926.35 
   39000    297.40506   -1389.6562    389.18085     340.8112    170.98525     37926.35 
   39100    299.12399   -1379.7282    399.95946    369.27022   -279.25134     37926.35 
   39200    301.99466    -1370.634    412.68997    404.04153    104.19028     37926.35 
   39300    287.76575   -1360.1339    381.46134    319.14111    206.54414     37926.35 
   39400    296.63637   -1364.8877    404.89003    377.82215     193.9462     37926.35 
   39500    304.09388   -1354.9735    395.08025    411.55963    -94.08001     37926.35 
   39600    294.80306   -1374.7626    403.38342     358.1725     -152.096     37926.35 
   39700    307.41145   -1361.3556    400.85797    425.91747    166.41439     37926.35 
   39800    304.46873   -1368.5938    412.46891    417.01866    288.35716     37926.35 
   39900    295.59214   -1369.0839    428.33909    392.36556    495.22356     37926.35 
   40000    298.99864   -1316.4111    427.09238    459.15491     431.6498     37926.35 
   40100    307.79595   -1338.9316    395.80991     445.0275    214.01177     37926.35 
   40200    293.27883   -1320.3124    426.91916    429.28424    138.67418     37926.35 
   40300    305.64988   -1347.1008    400.52347    431.89314    406.33894     37926.35 
   40400    303.25003   -1326.7115    418.81521    459.75094    78.930819     37926.35 
   40500    301.49954   -1310.3412    417.17493    466.58629   -224.51007     37926.35 
   40600    294.98869   -1330.4835    401.54461    401.44994   -89.537425     37926.35 
   40700    316.56558   -1326.9539    399.02526    499.77123   -77.776646     37926.35 
   40800    306.34459   -1337.3976    401.71209    445.91806    154.53103     37926.35 
   40900    298.53417   -1319.4186    422.66706    449.62732   -150.86595     37926.35 
   41000    305.74723    -1347.582    410.50377    441.83124    319.40744     37926.35 
   41100    300.14194   -1358.3591    424.76584     420.0365    401.28823     37926.35 
   41200    306.58912   -1347.1829    425.69081     461.2143    225.63812     37926.35 
   41300    293.27323   -1373.4472    414.63442    363.83935   -396.74597     37926.35 
   41400     301.7458   -1363.3931    405.71931    403.18932    32.855109     37926.35 
   41500    304.05462   -1342.9036    429.84801    458.22024    -143.9983     37926.35 
   41600    293.05169   -1335.2369    432.94478    419.36098    54.907491     37926.35 
   41700    306.01985   -1377.8957    416.81347    419.05677    312.31217     37926.35 
   41800    287.92625   -1319.5139    414.21278     393.2364   -424.27613     37926.35 
   41900    306.90073   -1325.4961    412.77646    471.39206    165.14685     37926.35 
   42000    297.61719   -1382.8658    425.15303    384.53056    47.244909     37926.35 
   42100    299.87596   -1355.4421    409.17009    406.15829     357.9355     37926.35 
   42200    285.29383   -1389.5479    430.94792    328.06538    472.22492     37926.35 
   42300    297.93075   -1347.7975    402.98395    398.84385    542.39787     37926.35 
   42400     291.8108   -1417.8944    393.66737    291.82965    201.21476     37926.35 
   42500    299.26452   -1379.0386    403.95557    374.58967    50.466117     37926.35 
   42600    305.33744   -1367.0191    399.35596    409.39816    97.881341     37926.35 
   42700    303.83679   -1377.9045    407.29683    399.68582   -167.19383     37926.35 
   42800     298.3293   -1335.3431    408.88939    419.00116   -423.34073     37926.35 
   42900    301.71748   -1366.9099    398.74828    392.57384    228.25659     37926.35 
   43000    297.71937   -1406.9309    392.71678       328.49    19.668779     37926.35 
   43100    299.99236   -1386.6895    387.99555    354.26129     539.2959     37926.35 
   43200    299.16396   -1364.2491    412.86249    397.83255    552.62435     37926.35 
   43300    300.87277    -1404.884    416.02734    368.06918    225.24725     37926.35 
   43400     301.7353   -1384.0859    419.93323    396.66319    851.43797     37926.35 
   43500    290.95759   -1367.1801    429.76664     374.7953    636.43526     37926.35 
   43600    303.62235   -1363.4762      416.596     422.4461   -6.4820564     37926.35 
   43700    296.66795   -1346.8281    440.00124    431.13535    -450.0505     37926.35 
   43800    291.23999    -1366.025    399.44567    346.90304    179.21235     37926.35 
   43900    291.74522     -1371.54    436.34947    380.57041    357.84528     37926.35 
   44000    309.87634   -1366.6685    421.59193    452.45512    496.36642     37926.35 
   44100    299.65211   -1373.9784    406.24721    383.68953    476.98163     37926.35 
   44200     296.9454   -1331.1961    417.26824    425.28571     424.0851     37926.35 
   44300    295.38336   -1324.2204    394.59425    402.54263    582.59046     37926.35 
   44400     295.4663   -1348.1525    424.37452    408.76485    273.65123     37926.35 
   44500    299.23899   -1348.3931    394.87928    396.04373   -137.66383     37926.35 
   44600    304.47702   -1345.1588    418.04131    446.06337   -257.02104     37926.35 
   44700    306.42647   -1354.0341     431.8631    459.80185    158.35244     37926.35 
   44800    297.68462   -1344.7427    409.19246    406.99713   -278.38879     37926.35 
   44900    298.79573   -1357.9023    415.26988    404.92601   -251.82431     37926.35 
   45000    299.94232   -1368.7669    400.61382    384.57643   -114.44019     37926.35 
   45100    303.07278   -1376.1205     413.5963    404.32362   -134.77073     37926.35 
   45200     303.6956   -1356.0184    392.04029    405.67857    60.323219     37926.35 
   45300    291.95895   -1303.5917    405.69496    418.82806   -223.60287     37926.35 
   45400    305.08899   -1347.9543    435.96289    463.94941   -242.25744     37926.35 
   45500    311.80076   -1293.8692    435.30113    547.64267   -243.27531     37926.35 
   45600    294.77467   -1308.2548    434.30888    455.47773   -19.879735     37926.35 
   45700    300.07965   -1334.4389    441.08088    459.99092   -141.47731     37926.35 
   45800    306.56595   -1325.9385    438.13884    494.80222    407.06918     37926.35 
   45900    308.96159   -1338.8473    447.92044    502.47923     397.9601     37926.35 
   46000    303.38105   -1380.9166    418.32799    405.64948   -291.75456     37926.35 
   46100    295.51198   -1347.7842    432.89933    417.86395   -601.45059     37926.35 
   46200    307.83408   -1291.5405    456.46114    553.24178    165.04265     37926.35 
   46300    307.49567   -1295.8262     454.4258    545.39445   -280.54805     37926.35 
   46400    300.44913   -1303.8537    422.61338    473.77493   -296.43268     37926.35 
   46500    303.07968   -1308.9441    412.34637    470.28116   -89.302753     37926.35 
   46600     300.0585   -1358.3236    448.59912    443.52906    466.24185     37926.35 
   46700    304.91514   -1375.7404     431.7842    431.20054    73.653602     37926.35 
   46800     293.7954   -1315.7747    426.03738    435.26978    448.24553     37926.35 
   46900    305.19051   -1379.7361    439.53949    436.20209    102.50894     37926.35 
   47000    293.16509   -1294.6758    437.33471    464.82334    -42.86789     37926.35 
   47100    303.14491   -1314.5868    438.12194     490.7083    69.391475     37926.35 
   47200    296.65893   -1350.1399    415.46595    403.24761    218.41758     37926.35 
   47300    292.87137   -1328.0007     428.0345    420.87358   -162.43543     37926.35 
   47400    296.58553   -1327.9067     424.0862    433.77006     420.4855     37926.35 
   47500    309.97066    -1294.208    435.20366    538.95269    210.70769     37926.35 
   47600    296.88638   -1299.6374    430.58107    469.89102    321.81953     37926.35 
   47700    301.81619   -1370.4819    430.01841    420.71709    352.66726     37926.35 
   47800    304.48543   -1367.0031    443.41742    449.63319    313.62734     37926.35 
   47900    304.73847   -1359.6946    432.98443    447.64987   -328.77858     37926.35 
   48000     299.6197   -1357.6136    445.41457    439.07546   -341.12243     37926.35 
   48100    302.58463   -1369.9478    419.72196    414.42047    121.11869     37926.35 
   48200    305.61803   -1343.5107    415.96754    450.78365   -179.67088     37926.35 
   48300    294.71588   -1337.3071    432.68511     424.5365   -72.515493     37926.35 
   48400    298.66845   -1365.6149    428.48571    409.85527   -283.77743     37926.35 
   48500    300.72854   -1327.0791    449.53313    478.72941    62.762721     37926.35 
   48600    304.98022   -1369.2454    445.41093    451.61584    268.65684     37926.35 
   48700    303.77827   -1361.5318    420.46057    428.95833    212.56994     37926.35 
   48800    293.91531   -1347.8188    406.66414    384.39331    219.87539     37926.35 
   48900    301.62152   -1376.0652    399.19262    383.43006   -154.10459     37926.35 
   49000    308.36149   -1333.1329    428.69315    486.26002   -150.67005     37926.35 
   49100    307.77858   -1376.6398    429.83258    441.26357    -411.2085     37926.35 
   49200    299.26124   -1347.8124    451.71406    453.55963   -502.24207     37926.35 
   49300    293.77929   -1317.4427    457.81065     465.3025   -320.79133     37926.35 
   49400    308.56867   -1346.3396    442.48996     487.7844    353.75821     37926.35 
   49500    306.46538   -1341.7998    447.17752    487.52599    32.548097     37926.35 
   49600    310.03564   -1355.6837    450.97857    493.54492    355.46307     37926.35 
   49700    310.61236   -1365.1058    426.57809    462.32335    293.71799     37926.35 
   49800    296.36234   -1339.9264    469.86367    466.52125    295.08356     37926.35 
   49900    302.68036   -1374.2712    419.40623    410.21301    73.672202     37926.35 
   50000    291.01188    -1372.018    407.66519    348.10073   -26.949673     37926.35 
   50100     294.9344   -1368.2638     432.2508    394.13101    268.98681     37926.35 
   50200    297.98663   -1319.6918    433.25938    457.47706    565.53057     37926.35 
   50300     300.6264   -1356.2256    442.06442    441.65356    97.393496     37926.35 
   50400    310.38702    -1339.165    431.97462    492.64441   -652.57147     37926.35 
   50500    308.97975   -1357.6674    446.36671    482.18741   -183.66332     37926.35 
   50600    298.40974   -1381.3652    456.24221    420.69472    -391.0266     37926.35 
   50700    306.18105   -1360.9809    424.23961     444.1247    325.35988     37926.35 
   50800    294.89886   -1418.7919    445.42251    356.61436    419.65864     37926.35 
   50900    299.26432   -1391.8149    425.50961    383.36648    580.70838     37926.35 
   51000     286.7506   -1395.5243    449.63118    347.34225     528.7723     37926.35 
   51100    306.81206   -1391.2712    433.11501    425.55561    770.65229     37926.35 
   51200    297.20492   -1379.9659    456.77235    417.19038     987.4366     37926.35 
   51300    295.24588   -1390.5466    443.37503     384.3772    954.29297     37926.35 
   51400    305.65567   -1372.7012    444.66568    450.46105    106.67453     37926.35 
   51500    289.19839   -1392.2523    447.97548    359.99801    85.962499     37926.35 
   51600    304.52017    -1405.347    408.96864    376.99712    64.438879     37926.35 
   51700    296.62186   -1385.5333    425.32591    377.54698   -355.57643     37926.35 
   51800    307.11363   -1399.0159    430.03164    416.08768     204.3004     37926.35 
   51900    300.68439    -1415.319    426.42467    367.18196     20.75465     37926.35 
   52000    295.53916   -1394.1476    425.94037    364.66423   -191.77468     37926.35 
   52100     306.1526   -1349.2227    447.50986    479.02487   -165.96067     37926.35 
   52200    288.70602   -1365.5647    440.56411    377.05361   -133.59272     37926.35 
   52300    301.57426   -1363.5891    438.25519    434.75566     67.39633     37926.35 
   52400    300.76766   -1344.7239    454.64459    466.37244   -56.474893     37926.35 
   52500    309.27526   -1405.9329     447.7754    436.66332     -54.6254     37926.35 
   52600    299.34659   -1425.3196    444.88397    369.60723    30.065927     37926.35 
   52700    306.84192   -1374.5141    426.11982    435.45219    301.73435     37926.35 
   52800    308.25011   -1394.4446    409.83858    405.59142    398.45399     37926.35 
   52900    289.24947   -1379.9968    427.61668    352.12501    726.27197     37926.35 
   53000    302.64297    -1392.825    441.66196    413.74634     583.3153     37926.35 
   53100    295.70569   -1359.0306    457.92493    432.51682    135.99868     37926.35 
   53200       299.26   -1398.5982    432.41354     383.4676    205.13003     37926.35 
   53300     293.8883   -1376.3358    431.55315    380.64346    529.76469     37926.35 
   53400    297.49492   -1362.9179    431.64479    410.41878    35.580688     37926.35 
   53500    293.42824   -1368.1455    437.99523    393.20095   -363.04963     37926.35 
   53600    289.78347   -1359.9179    409.69021    356.68584    12.875939     37926.35 
   53700    300.42694   -1350.4727     439.1807     443.6232    445.60286     37926.35 
   53800    299.28231   -1384.4882    434.07285    399.33759    266.01576     37926.35 
   53900    301.73063   -1367.2817    447.64416    441.15725    149.73961     37926.35 
   54000    291.26258   -1349.1753    440.44602    404.85498   -185.58249     37926.35 
   54100    299.40394   -1352.1693    467.23276    465.36496     165.0054     37926.35 
   54200    299.98349   -1377.4077    453.86682    429.37434    265.61703     37926.35 
   54300     306.7485    -1355.974    448.21554    475.66671   -92.910035     37926.35 
   54400    304.04362   -1353.6064    444.53518    462.15505    363.56742     37926.35 
   54500    283.82408   -1407.1937    438.64169    311.48483    198.55561     37926.35 
   54600    292.10792   -1396.3889    431.48569    352.49344   -420.05151     37926.35 
   54700    301.14075   -1382.2803    423.16003    399.01419   -389.47789     37926.35 
   54800    292.78544   -1406.9025    455.96988    369.51969   -103.76615     37926.35 
   54900    296.08562   -1401.1886    418.58633    352.73373    53.029972     37926.35 
   55000    304.84454   -1430.2769     430.6898    375.25134    714.36576     37926.35 
   55100    300.11458   -1450.9474    428.32069     330.8797      393.494     37926.35 
   55200     306.4882   -1414.3177    432.27376    400.20734   -16.631493     37926.35 
   55300    300.95672   -1393.8407    433.30202    396.76579    225.00433     37926.35 
   55400    299.42317   -1429.5931    430.30198    351.09706     323.1166     37926.35 
   55500     309.2273   -1453.8454    435.69235    376.45142    341.00604     37926.35 
   55600    298.91756   -1447.5996    427.01977    327.52812   -239.92619     37926.35 
   55700    294.42943   -1389.8973    423.30241    361.27169    91.715359     37926.35 
   55800    296.67334   -1376.4967    445.78991    407.27977    188.64055     37926.35 
   55900     288.2476   -1398.3029    467.87188    369.55579    -238.9722     37926.35 
   56000      297.813    -1426.437    429.80794    346.49734   -27.810987     37926.35 
   56100    303.00738   -1360.5585    452.51985    458.51416    268.39323     37926.35 
   56200    303.82053   -1355.7509    473.02962    487.49882    3.5375436     37926.35 
   56300    299.63282   -1383.9562     441.2267    408.60423   -273.69045     37926.35 
   56400    293.86941   -1378.2723    444.60584    391.67441   -325.69372     37926.35 
   56500    311.21508   -1395.5393     432.0139    440.04392   -180.67414     37926.35 
   56600    293.14902   -1368.7016    426.60589    379.99633    -248.1021     37926.35 
   56700    296.36136   -1397.3818      437.685    376.88277     -249.203     37926.35 
   56800    293.99002    -1380.916    419.65271    364.62159   -35.977452     37926.35 
   56900    291.67292   -1393.5134    437.23321     359.1547   -97.798952     37926.35 
   57000    303.93979    -1374.199    431.15922    427.71818    283.23643     37926.35 
   57100    305.03175   -1428.0558    459.72998    407.35685   -75.943279     37926.35 
   57200    304.80885   -1407.7587    460.54159    427.46032    579.88681     37926.35 
   57300    309.06693    -1408.443    437.50208    422.94031    316.15691     37926.35 
   57400    307.85825   -1413.6472    454.77687    429.55979    705.79723     37926.35 
   57500    286.14691   -1443.0104    431.32866    278.83098   -155.12891     37926.35 
   57600    304.16678   -1428.9195    412.52776    355.38996    109.34652     37926.35 
   57700    304.01924   -1438.3138    427.52246    360.32493    127.19085     37926.35 
   57800    309.23723    -1453.587    428.31697    369.37923   -114.23649     37926.35 
   57900     289.2489   -1462.6366    442.78762    284.65358   -25.844882     37926.35 
   58000    291.55492   -1437.7732    442.31109    319.44054   -484.81151     37926.35 
   58100    305.62167    -1405.801     427.4702     400.0124   -471.77407     37926.35 
   58200    291.36004   -1405.2235    445.57917    354.37938   -211.38418     37926.35 
   58300    309.27066   -1447.1293    433.05867    380.72945   -142.86433     37926.35 
   58400    307.62967    -1393.906    436.78521    430.27841    113.19633     37926.35 
   58500     294.7165   -1392.7216    428.28215    364.72176      127.164     37926.35 
   58600    291.37588   -1418.0923     451.1974    347.20029   -160.68903     37926.35 
   58700    302.58708   -1406.6794    470.50105    428.47897   -105.51605     37926.35 
   58800    301.82979   -1420.3678    454.11018    394.98437   -361.62607     37926.35 
   58900    303.57362   -1403.1321    458.65106    424.62559   -405.58814     37926.35 
   59000    297.26129   -1374.8396    445.75032     411.5489    71.694625     37926.35 
   59100    296.92311   -1384.3631    446.81887    401.56879   -193.11043     37926.35 
   59200    298.38779    -1403.258     449.0722     391.5328   -85.803848     37926.35 
   59300    299.92621   -1360.9241    467.08682    458.81961   -205.31501     37926.35 
   59400    302.67788    -1359.821    450.07239    455.31821    109.67144     37926.35 
   59500    288.43808    -1381.991    475.65203    394.50691    84.160673     37926.35 
   59600     289.8728   -1403.5441     458.2059    361.97815   -43.072363     37926.35 
   59700    297.12055   -1391.5514    453.72129    402.17334    286.06413     37926.35 
   59800    301.27499   -1395.5041    444.54913    407.78487   -60.279608     37926.35 
   59900     298.7953   -1392.4026    459.09403    414.24794    603.77544     37926.35 
   60000    301.38853   -1362.1838    451.08743    448.15558      45.2853     37926.35 
   60100    311.97918    -1390.089     444.7333    461.65967    211.28132     37926.35 
   60200    305.14627   -1380.2541    436.60215    432.54723    144.84404     37926.35 
   60300    289.07645   -1326.3056    462.19464     439.6139   -315.29886     37926.35 
   60400    300.09807   -1351.0629     441.1301     443.4992   -359.11922     37926.35 
   60500    293.76527   -1402.9575    452.60784    374.52158   -446.78511     37926.35 
   60600    296.17675   -1399.0496    441.95646    378.65383   -830.95233     37926.35 
   60700    296.89787   -1410.5654    442.16366    370.59743   -941.24053     37926.35 
   60800    290.58187   -1400.4872     447.9016    357.92866   -944.79607     37926.35 
   60900    293.97387   -1426.1039    433.24032    332.94848   -457.44132     37926.35 
   61000    314.29353   -1398.4199    421.68672    440.71986   -336.07035     37926.35 
   61100    293.10847   -1395.0372    434.36039    361.23233    68.347763     37926.35 
   61200    303.16072   -1379.9995    443.16371    430.40861   -465.52574     37926.35 
   61300    298.99654     -1437.45    472.27404    383.28819    440.57624     37926.35 
   61400    308.13686   -1408.8843    445.36474    426.16712    217.91488     37926.35 
   61500    295.40509   -1363.6074    466.40446    435.06382    107.98415     37926.35 
   61600    297.28239   -1415.7908    444.62377    369.56633   -688.70137     37926.35 
   61700     289.3596   -1372.9121      453.888    385.97774   -395.68726     37926.35 
   61800    303.36324   -1403.1727    456.82253    421.80759   -79.496844     37926.35 
   61900    300.81245   -1367.3937    452.07605    441.33616     48.93694     37926.35 
   62000    301.00072   -1395.7334    446.36239    408.13189   -394.52341     37926.35 
   62100     301.6777   -1386.6572    456.83123    430.73007   -719.52597     37926.35 
   62200    298.73663   -1388.5743    462.51095     421.2286    52.124496     37926.35 
   62300    294.89823   -1422.2519    463.80994    371.53892    44.463914     37926.35 
   62400    306.95943   -1407.6796    455.52902    432.22593   -344.34174     37926.35 
   62500    306.52834   -1359.3244    476.76538    499.87331    17.710425     37926.35 
   62600    293.42278   -1409.6493    423.84101    337.51837   -580.38701     37926.35 
   62700    299.07333   -1388.1304    452.16855    412.84859   -366.78664     37926.35 
   62800    297.49138   -1373.5495    458.55696     426.6833   -273.15138     37926.35 
   62900    296.29528   -1403.2892    455.87534    388.86764   -323.97442     37926.35 
   63000    292.98373    -1373.813    460.74524    408.27881   -678.28343     37926.35 
   63100    305.58606   -1389.8588    442.17684    430.50062    25.887122     37926.35 
   63200    293.57637   -1371.6082    433.44279    385.85394   -347.20119     37926.35 
   63300    293.49268   -1396.3251    468.47898    395.79579   -957.71719     37926.35 
   63400    294.21795   -1407.6673    441.56982    360.81534   -106.67787     37926.35 
   63500    301.51888   -1415.9283    441.64267    385.55411   -259.81743     37926.35 
   63600    296.86465   -1374.8453    450.09137    414.09547    97.907305     37926.35 
   63700     293.0685   -1424.2407      444.964    342.45215    356.00167     37926.35 
   63800    300.55104   -1381.6709    481.13424    454.93819    704.27765     37926.35 
   63900    295.94536   -1417.7911    455.06804     371.9803    639.20187     37926.35 
   64000    299.87562   -1464.4089    447.58564    335.60547   -145.27771     37926.35 
   64100    293.08553   -1459.2391    449.25207    311.81862   -180.46472     37926.35 
   64200    311.16685   -1447.1606     449.0789    405.27011    381.88656     37926.35 
   64300    306.55686   -1420.1857    462.25876    424.63395    184.65453     37926.35 
   64400    290.91501   -1390.4539    464.08116    385.64394   -258.07145     37926.35 
   64500    295.28426   -1355.4297    438.75396    415.04611   -129.37093     37926.35 
   64600    302.73636   -1378.2294    451.31979    438.42094    3.9736609     37926.35 
   64700     295.7052   -1397.5863    456.49706    392.53104   -172.91771     37926.35 
   64800    307.42452   -1404.6295     453.1453    434.98978    51.840407     37926.35 
   64900    291.61982   -1415.3629    451.02405    350.85648    122.57698     37926.35 
   65000    296.74896   -1401.0765    451.47188      388.723    352.57313     37926.35 
   65100    304.79709   -1416.4644    420.66408    378.82407    300.54534     37926.35 
   65200    297.86037   -1398.3017    444.56166    389.60003    593.42507     37926.35 
   65300    298.04486   -1419.6919     420.9272     345.4074    535.65956     37926.35 
   65400    307.49097    -1442.981     434.8405    378.63315    406.99944     37926.35 
   65500    295.93554    -1429.827    448.96968    353.80181    65.906923     37926.35 
   65600    293.74517    -1410.736     439.6762    353.72076    613.41006     37926.35 
   65700    290.68708   -1412.7335    434.06341    332.31865   -2.6057348     37926.35 
   65800    300.92807   -1466.2332    439.20158     330.1436    245.74892     37926.35 
   65900    294.49345   -1434.3683    434.75852    328.54558    276.43295     37926.35 
   66000    305.32887   -1442.6542    439.44296    373.81148   -60.274619     37926.35 
   66100    293.83918   -1420.0566    457.28894    362.43693    211.46927     37926.35 
   66200    304.97662   -1420.3208    457.36019    412.47348     112.5106     37926.35 
   66300    308.20708   -1386.9903    435.09771    438.11077   -198.96237     37926.35 
   66400    299.23394   -1405.8322    471.70085    415.40343   -46.603002     37926.35 
   66500     307.3103   -1387.4629      465.917      464.413    350.84094     37926.35 
   66600    313.11378   -1377.1701    451.82579    486.78804    15.554004     37926.35 
   66700     289.1665   -1359.8408    461.26306    405.55324    364.77335     37926.35 
   66800    302.29665   -1353.0362    457.04183    467.35316    307.31757     37926.35 
   66900    301.28813   -1393.1042    463.74409    429.43895   -424.11184     37926.35 
   67000    297.19192   -1389.2941    436.96491    387.99611   -87.807874     37926.35 
   67100    301.19896   -1408.7239    448.92376    398.59676   -67.689108     37926.35 
   67200    301.72709   -1406.4883    446.08836    400.37887   -570.05815     37926.35 
   67300    294.79153   -1377.1199    463.58032    415.96006   -337.25889     37926.35 
   67400     300.1762   -1410.0627     464.8788    408.60043   -101.32999     37926.35 
   67500    302.79979   -1421.9406     436.1841    379.86013   -652.37911     37926.35 
   67600    295.72779   -1411.4744    458.68297    380.93074    -741.7959     37926.35 
   67700    296.66559   -1438.3474    450.80518    350.40936    -815.7139     37926.35 
   67800    308.32351   -1442.8568    445.89714    393.56877   -253.89424     37926.35 
   67900    298.39668   -1428.1366    462.56388    380.18604   -278.45116     37926.35 
   68000    299.47577    -1419.613    462.07628    393.08868    44.183302     37926.35 
   68100    311.00685   -1462.0651     442.1992    382.76435   -160.26495     37926.35 
   68200    308.70739   -1444.3486    470.91812    418.82923    145.66734     37926.35 
   68300    295.90489   -1466.1115    466.08051    334.48986    30.510967     37926.35 
   68400    291.38794   -1469.6511    468.47621    312.97465    161.38196     37926.35 
   68500    295.32397   -1402.0293    470.57206     400.4437   -349.06755     37926.35 
   68600    292.94827   -1416.3468    412.57713    317.41691   -370.26189     37926.35 
   68700    309.78239    -1372.544    446.15397    470.71786   -174.31184     37926.35 
   68800    306.53919   -1386.0052    449.89069    446.36672    151.63833     37926.35 
   68900    292.90117   -1408.7482    457.57216    369.79822    120.37781     37926.35 
   69000    298.41362   -1398.9554    446.79643    393.67625    855.30268     37926.35 
   69100    294.43279   -1365.5867    490.48812    452.78319    291.91936     37926.35 
   69200    304.03473   -1368.6839    442.47405    444.97637     432.9466     37926.35 
   69300    296.13983    -1354.301    459.18413    440.46356    910.00235     37926.35 
   69400    308.10064    -1409.585    490.78092    470.71927   -166.43419     37926.35 
   69500    291.33152   -1392.8579    460.14056    381.17781    77.359591     37926.35 
   69600    300.81999    -1426.507    439.11003     369.2908   -344.25047     37926.35 
   69700    303.69418   -1404.4495    466.92967    432.13045    12.290683     37926.35 
   69800    291.93978   -1426.0171    455.55487    346.17611    176.22204     37926.35 
   69900    301.76724    -1408.002    464.17812    417.13597   -480.58636     37926.35 
   70000    303.90836   -1378.6213    462.94047    454.93536     212.0447     37926.35 
   70100    302.45176   -1421.2712    439.10679    381.88266   -466.90542     37926.35 
   70200    295.62294   -1388.5049    483.83724    428.58168   -390.53848     37926.35 
   70300    301.63887   -1381.0375    440.57789     419.9213   -81.418823     37926.35 
   70400    297.10739   -1386.2289    458.30199    412.01722   -359.94249     37926.35 
   70500    302.91556   -1393.7878    438.72754    411.07856    25.817325     37926.35 
   70600    298.71767    -1379.326    462.50896    430.38934   -321.01151     37926.35 
   70700     288.4984    -1414.669    453.49731    339.94619   -90.498914     37926.35 
   70800    293.16068   -1373.4329    454.34779    403.05949    49.236679     37926.35 
   70900    297.72641   -1423.1071     475.6453     395.2741   -409.21924     37926.35 
   71000    294.74814   -1365.9865    468.05679    431.37427   -8.0245512     37926.35 
   71100    301.12432   -1378.3753    460.34275    440.02775   -210.45561     37926.35 
   71200    290.95473   -1421.1785    455.23333    346.25063   -731.66271     37926.35 
   71300    296.92593   -1429.4252    466.19567    375.89617   -425.05896     37926.35 
   71400    306.58424   -1423.1975    462.11004    421.59697   -192.85595     37926.35 
   71500    297.11102   -1411.8849    479.32587    407.40146   -190.16232     37926.35 
   71600    308.93707   -1393.4278    446.20948    446.07724    90.615558     37926.35 
   71700    300.65359   -1364.5928    447.96019     439.3048    43.690351     37926.35 
   71800     306.2259   -1404.3152    453.83281    430.58592   -55.758192     37926.35 
   71900    306.17831   -1368.0298    455.03411    467.85794   -218.66978     37926.35 
   72000    300.02015    -1387.456    433.24351    398.86809    477.53773     37926.35 
   72100     294.1168   -1420.9109    475.52039    381.06619    241.67342     37926.35 
   72200    300.86618   -1414.2432    445.53944     388.1924    555.65514     37926.35 
   72300    301.85788   -1437.6273    437.40597    361.14735    55.194025     37926.35 
   72400    294.60402   -1389.3595    424.96163    364.25616   -24.453922     37926.35 
   72500    290.18553   -1375.8916    475.05909    407.89426     391.3461     37926.35 
   72600    295.44725   -1433.1258    478.60081    377.93202    257.55686     37926.35 
   72700    300.67135   -1499.9662    443.01508    299.06629   -78.550005     37926.35 
   72800    300.30852   -1420.4662    463.93132    397.84624   -413.23294     37926.35 
   72900     304.3029   -1400.4611    439.00842    410.94295   -301.79216     37926.35 
   73000    304.12287   -1402.1752    442.74313    412.15164   -650.05984     37926.35 
   73100    293.16986   -1395.4654    447.87156    374.59211   -587.03467     37926.35 
   73200    290.81205   -1396.9418    446.42432    361.03481   -439.61217     37926.35 
   73300    302.23002   -1397.9965     453.9763    419.02676    67.577834     37926.35 
   73400    293.88263    -1402.036     466.4034    389.76795    231.28651     37926.35 
   73500    306.10822   -1375.0577    474.03299    479.51282     496.2514     37926.35 
   73600    296.30006   -1375.9901    463.19447     423.5075    214.05841     37926.35 
   73700    303.38096   -1372.7605    455.31705    450.79423    -123.7619     37926.35 
   73800    312.11131   -1393.4542     439.6825    453.83956   -205.50034     37926.35 
   73900    299.47682   -1404.7359    475.37965    421.27394   -617.78747     37926.35 
   74000     306.7109    -1407.923    454.50869    429.84131   -401.16515     37926.35 
   74100     301.8178   -1390.9695    455.23814    425.45654   -370.92361     37926.35 
   74200    299.94922   -1411.4679    459.48551    400.77827   -207.71665     37926.35 
   74300    301.36407   -1405.9304    456.29208    409.50328   -233.22509     37926.35 
   74400    301.54186   -1412.5761    471.72281    419.09014   -236.56754     37926.35 
   74500    302.59117    -1429.934    459.98768    394.72939    228.51908     37926.35 
   74600     307.4241   -1404.2591     447.2864    429.49942   -58.793216     37926.35 
   74700    290.94168    -1429.967    451.92641    334.09643    299.46667     37926.35 
   74800    303.06615   -1414.2503    465.79278    418.36035    -56.15871     37926.35 
   74900    299.76324   -1398.8361    470.93297    424.01874    296.41883     37926.35 
   75000    309.77142   -1388.7698    471.11879    479.40747    316.88203     37926.35 
   75100    294.05163   -1419.6926    470.32437    376.79454   -35.679568     37926.35 
   75200    301.95708   -1403.4606    475.80355    434.15898   -22.330565     37926.35 
   75300    309.53668   -1423.0098    450.00919    422.99916   -222.10725     37926.35 
   75400    290.30283   -1404.8955    498.19914    402.55941    646.55889     37926.35 
   75500    305.51924   -1388.4105    474.09468    463.56546    635.32104     37926.35 
   75600    309.36905   -1416.3188    470.50741     449.4324    351.36624     37926.35 
   75700    300.51982    -1368.274    475.98033    463.04035   -403.03335     37926.35 
   75800    304.23601   -1422.9783    450.30057    399.41618    515.65202     37926.35 
   75900    296.06135   -1420.0168    457.23271    372.44242    906.82528     37926.35 
   76000    299.16496    -1418.566    479.67373    410.33138    1172.3673     37926.35 
   76100    302.49893   -1354.6819    457.49369    467.07158     400.8387     37926.35 
   76200    298.57659   -1380.6849    446.55413    412.43944     54.95463     37926.35 
   76300    298.64451   -1328.5967    470.41108    488.69089   -301.13275     37926.35 
   76400    300.43532   -1374.9426    469.30665      449.317    302.25469     37926.35 
   76500    302.27444   -1403.3167    481.44358    441.37426    560.34687     37926.35 
   76600    295.81206   -1435.0389    440.15496    339.21823    428.03896     37926.35 
   76700    297.80138   -1417.5007    456.86329     382.4366    306.03624     37926.35 
   76800    290.19435   -1453.5653    482.65456     337.8558    131.67678     37926.35 
   76900    298.42181     -1359.38    472.59704    459.08911    176.82863     37926.35 
   77000    292.18514   -1387.9846    480.53192    410.29222    253.59985     37926.35 
   77100    303.32398   -1429.4501    460.67705    399.20766    522.47653     37926.35 
   77200    295.50463   -1389.6934    440.86053    383.88286   -225.56052     37926.35 
   77300    293.15352   -1353.5558    463.87091    432.42737     67.94076     37926.35 
   77400     288.9807   -1371.6526    462.11215    393.75258   -99.700498     37926.35 
   77500    300.50141   -1416.0047    445.01157    384.25787    143.09101     37926.35 
   77600    295.68735   -1376.4246     460.6122    417.72743    588.23317     37926.35 
   77700    303.53412    -1436.503    467.78028    400.20567    497.78206     37926.35 
   77800    301.98841   -1404.7689    459.68188    416.87029    923.21816     37926.35 
   77900    291.85592   -1400.9711    468.63639    383.92548    195.15897     37926.35 
   78000    297.39573   -1444.8092    458.89548    355.33076    26.909617     37926.35 
   78100    298.40583   -1425.3762    459.07587    379.49975    101.66707     37926.35 
   78200    299.18506   -1421.9031    465.15301    392.56425    285.09622     37926.35 
   78300    300.00898    -1408.803    460.70224    404.92938    554.85486     37926.35 
   78400    292.62085   -1412.0155    475.50638    383.20086    289.89362     37926.35 
   78500    290.29611   -1393.5754    490.68607    406.33611    418.14345     37926.35 
   78600    303.19904   -1379.8481    460.15381    447.72293    261.66237     37926.35 
   78700    304.47565    -1393.181    447.36481    427.35853   -609.79328     37926.35 
   78800    295.79738   -1452.5424    450.95182     332.4454   -271.11104     37926.35 
   78900    305.20794   -1446.0369    446.11537    376.55578   -216.65753     37926.35 
   79000      301.427   -1426.6196    447.53473    380.34051   -215.37482     37926.35 
   79100    297.86925   -1448.1629    468.56502    363.78224    468.20706     37926.35 
   79200    289.70016   -1442.8539    467.50245     331.1863    240.79938     37926.35 
   79300    299.39469   -1456.1623    467.23811    361.33554    184.64773     37926.35 
   79400    307.76408   -1480.5448    453.30788    360.76846    202.70767     37926.35 
   79500    295.06882   -1441.7582    427.74656     316.7386    296.85855     37926.35 
   79600    296.78824   -1425.1877    469.48298    382.80002    222.70223     37926.35 
   79700    311.06191   -1450.0101    459.51349    412.38193    54.150053     37926.35 
   79800    299.47466   -1425.4458    454.42338    379.59796     629.3955     37926.35 
   79900    302.75401   -1453.1501    457.81609    370.07613     446.3598     37926.35 
   80000    303.65084   -1461.2924    451.00279    359.16521   -385.90087     37926.35 
   80100    303.00353   -1460.4419    474.96596    381.05958    480.90145     37926.35 
   80200    308.61608   -1479.6538    465.26096    377.45511    765.47257     37926.35 
   80300    286.35676   -1461.0083    453.48307    283.93396    287.80746     37926.35 
   80400    300.13593    -1484.189    449.07081    318.48453    112.68116     37926.35 
   80500    297.27948   -1470.4757    432.24908    302.49356   -216.05038     37926.35 
   80600    296.75187    -1475.147     450.3764     313.5701   -209.39049     37926.35 
   80700    298.25992   -1502.9232    436.19597    278.41479    404.45113     37926.35 
   80800    301.78576   -1462.1125    471.13997    370.07086    202.73173     37926.35 
   80900    292.53724   -1470.8534    462.72981    311.20924    407.98801     37926.35 
   81000    297.40443   -1412.4982    470.17111    398.95666    570.17284     37926.35 
   81100     316.3005   -1458.4858    456.47793    424.49648    23.491853     37926.35 
   81200    311.76445    -1462.039    458.43194    402.43986   -220.26311     37926.35 
   81300    302.45412   -1460.7372    461.34076    364.66121   -56.740372     37926.35 
   81400    293.19347   -1455.9155    477.69507    344.07198    371.30994     37926.35 
   81500     300.9698   -1448.2768    457.34695    366.43359    620.89122     37926.35 
   81600    298.69952   -1439.4932    455.20974    362.84107    759.20265     37926.35 
   81700    292.12057   -1428.0762    442.55931    331.93678   -43.019888     37926.35 
   81800    300.73827   -1442.1683    477.22576    391.37669   -240.43264     37926.35 
   81900    307.52159   -1422.9448    486.17064    450.13759    114.14952     37926.35 
   82000    303.02136   -1431.6692    464.76229    399.70905    310.26946     37926.35 
   82100    292.55791   -1447.6255     462.0919    333.89249     143.6175     37926.35 
   82200    301.56343   -1461.5692    465.52717     363.9987    43.865977     37926.35 
   82300    298.01881   -1469.5097    452.47941    327.02435   -386.38364     37926.35 
   82400     301.9381   -1457.0136    443.69715    348.41399    -453.3473     37926.35 
   82500    305.64335   -1466.3085    451.62327    363.75582   -233.13288     37926.35 
   82600    304.93607   -1494.1173    461.63098    342.76483    16.802391     37926.35 
   82700    289.71892   -1506.0343     469.9712    270.55931    56.403529     37926.35 
   82800    314.53935   -1457.3867    445.97161     407.1465    562.76514     37926.35 
   82900    297.55376   -1451.7734    474.15774    364.34159    325.43871     37926.35 
   83000    299.12798   -1485.9332    467.02547    330.14919    410.57492     37926.35 
   83100    302.38394   -1429.4479    465.46725    399.76056    523.99205     37926.35 
   83200    304.19403   -1445.8433    451.29746    377.35876    92.096347     37926.35 
   83300    297.29115   -1486.7642    443.27851    297.28717   -125.37032     37926.35 
   83400    314.48031   -1479.0425    450.39564    389.64855   -460.37919     37926.35 
   83500    291.44883   -1456.4047    453.72691    311.74645   -442.22897     37926.35 
   83600    302.76006   -1499.9984    478.09385    343.53289    521.43506     37926.35 
   83700    301.48575   -1451.7421    489.76947     397.7177   -221.84054     37926.35 
   83800    310.19485   -1470.9627    458.68519    386.69054    307.74199     37926.35 
   83900    298.16926   -1478.6456    468.34985    334.43737   -630.13106     37926.35 
   84000    296.53957   -1473.1744    467.66573    331.87459   -193.44796     37926.35 
   84100    300.35445   -1488.3163    445.65143    311.92333   -663.05991     37926.35 
   84200    306.06804    -1457.028    467.21516    390.54346   -334.89257     37926.35 
   84300    309.02031   -1464.2498    440.92747    370.34865   -414.02213     37926.35 
   84400    307.05713   -1452.3944    459.84357    392.26632    189.35388     37926.35 
   84500     301.7299   -1433.8239    465.03508    392.00265   -433.03093     37926.35 
   84600    288.87421   -1426.0561    465.38706    342.14375   -650.49582     37926.35 
   84700    303.24182   -1437.9923    475.37733    404.99518   -299.88849     37926.35 
   84800    289.78039   -1471.5263     475.4827    310.85603   -145.62848     37926.35 
   84900    300.43866   -1428.5579    477.57062     403.9808    104.26909     37926.35 
   85000    302.04923   -1424.2685    475.77541    413.73859    412.02057     37926.35 
   85100    306.51702   -1438.8919    499.69377     443.1831   -93.332008     37926.35 
   85200    296.09608   -1413.6592    471.06482    392.78874   -256.22898     37926.35 
   85300    301.85035   -1487.7779    455.43404    328.99084     -11.4235     37926.35 
   85400    300.99981   -1457.2011    483.03455     383.3322   -600.94627     37926.35 
   85500    297.04998   -1414.7377    473.43753    398.38505    -512.3669     37926.35 
   85600     293.3987   -1425.1415     449.5745    347.65107    -445.1864     37926.35 
   85700    307.67603   -1425.5096    454.86226    416.96096    -267.8859     37926.35 
   85800    315.16071   -1429.5423    485.43759    477.25929   -597.96957     37926.35 
   85900    293.26039   -1426.1106    477.13476    373.61843   -177.11942     37926.35 
   86000    307.46768   -1450.4791    446.27103     382.4606   -219.70698     37926.35 
   86100    291.23964   -1451.3188    476.53535    338.69734   -34.077433     37926.35 
   86200     289.7756   -1469.2337    470.25607    307.90036    10.892563     37926.35 
   86300    307.11274   -1434.1199    444.43853    395.38651    412.48083     37926.35 
   86400    295.45878   -1419.3826    464.34141    377.46771    261.24395     37926.35 
   86500    291.24436   -1428.1206    475.74966    361.13107   -30.230571     37926.35 
   86600    296.82189   -1466.8528    463.37662    335.18036     801.6267     37926.35 
   86700    295.00512   -1460.1139     456.3775    326.72653      568.678     37926.35 
   86800     307.7397   -1424.0552    480.82344    444.66368     73.79154     37926.35 
   86900    301.85494   -1430.3048    464.91105    395.96163    -488.3635     37926.35 
   87000    281.10695    -1422.575    480.44737    325.65507   -618.83612     37926.35 
   87100    305.28162    -1449.345    465.09274    392.55731   -474.91508     37926.35 
   87200    302.72745   -1488.7887    448.10625    324.60796   -658.02775     37926.35 
   87300    297.77708    -1463.596    474.25998    353.62834   -186.75133     37926.35 
   87400    298.93776   -1413.1491    499.46605    434.51601   -347.05558     37926.35 
   87500    305.59127   -1470.8038    465.07115    372.47351   -298.45629     37926.35 
   87600    310.29449   -1453.5798    470.43999    416.27763    315.66659     37926.35 
   87700    297.13199   -1490.3348    456.94672    306.66699   -132.27337     37926.35 
   87800    306.41353   -1477.0796    461.42425    366.25914    493.37089     37926.35 
   87900    299.94006    -1510.317    492.12814    334.53046    482.76215     37926.35 
   88000    296.69095   -1504.4143    458.66628    292.31796    228.16638     37926.35 
   88100    299.93557   -1503.4025     464.3171    313.61371   -39.876095     37926.35 
   88200    303.76228   -1484.0614     460.1142    346.01021    205.98348     37926.35 
   88300    304.21411   -1515.5385    467.75233    324.20898   -254.23453     37926.35 
   88400    298.92741   -1527.3467    482.05453    302.86015   -259.84033     37926.35 
   88500    303.11181   -1485.4994    477.38129    358.90569   -258.84607     37926.35 
   88600    305.29015   -1481.9573    476.88658    371.77735    136.72884     37926.35 
   88700    306.07628   -1515.8786    465.58405    330.09893    654.06488     37926.35 
   88800    309.86267   -1482.2195    450.55207    365.80253     707.7445     37926.35 
   88900    309.35604   -1504.7135    520.18929    410.66082    90.698804     37926.35 
   89000    295.98431   -1502.1609    477.13177    309.84991   -56.413982     37926.35 
   89100    297.77478    -1507.725    471.15534    306.38436    66.583783     37926.35 
   89200    296.26098   -1500.6272    475.90768    311.40732     405.4453     37926.35 
   89300    301.98971   -1487.8512    478.67039    352.78242    427.50174     37926.35 
   89400    291.35488    -1508.083     468.7064     274.6239    612.71496     37926.35 
   89500    301.98657   -1481.4166     486.4274     366.9598    157.84608     37926.35 
   89600    302.31038   -1470.4306    470.02846    363.00727    122.80152     37926.35 
   89700     305.4304   -1491.2294    476.01485    362.26602   -583.34419     37926.35 
   89800    296.62911    -1487.538    478.19266    328.44178   -727.23381     37926.35 
   89900      293.958   -1510.5522    457.18014     272.3684   -887.14093     37926.35 
   90000    302.03375   -1463.6792    480.21357    378.69619   -222.46605     37926.35 
   90100    304.18766   -1467.0814    505.90097    410.69544   -450.54353     37926.35 
   90200    302.61063   -1451.2658    486.92584     400.4236   -327.11191     37926.35 
   90300    311.37168   -1461.7735    466.00427    408.50634   -29.575846     37926.35 
   90400     307.2146   -1443.4147    488.30613    430.41875   -424.78774     37926.35 
   90500     303.9962   -1432.2607    486.55642    425.30813     232.8835     37926.35 
   90600    312.66312   -1455.9072    487.21976    441.41243    437.24467     37926.35 
   90700    303.63008   -1473.1459    476.29634    372.51165    405.68137     37926.35 
   90800    295.00568   -1445.4432    483.06797     368.0902    403.51948     37926.35 
   90900     307.2931   -1439.5784    487.00266    433.30563   -81.119546     37926.35 
   91000    304.54835     -1415.93    469.01253    426.58516   -46.564775     37926.35 
   91100    290.37276   -1419.9828    475.40172    364.99009   -132.61216     37926.35 
   91200    308.63227   -1414.5701    466.67083    444.02165    48.635602     37926.35 
   91300    291.32987   -1445.8989    476.37781     344.3666   -732.95748     37926.35 
   91400    297.59812     -1443.31    470.16239    369.00971   -359.57972     37926.35 
   91500    302.88538   -1483.4083    469.82659    352.42097   -441.44475     37926.35 
   91600    302.45909    -1485.584    454.60608    333.10222   -425.70057     37926.35 
   91700    307.85793   -1477.3653    467.40645    378.46981   -155.48619     37926.35 
   91800    293.76811   -1468.4099    513.83828    370.31251    -271.3811     37926.35 
   91900    290.43442   -1428.2243    509.13407      390.759   -49.773286     37926.35 
   92000    310.47204   -1447.8527    466.06284    418.42834    519.70737     37926.35 
   92100    299.46407   -1411.3281    474.86481     414.1094    60.285228     37926.35 
   92200    295.51572   -1440.0709    488.32529    381.02014    147.14136     37926.35 
   92300    304.78801   -1437.5806      472.818    409.82081   -26.134987     37926.35 
   92400    291.03916   -1426.1995    468.78017    355.15721   -552.37288     37926.35 
   92500    306.91772   -1432.7104    498.05315     449.5311   -248.70509     37926.35 
   92600    301.32809   -1442.7286     484.4468    400.69754   -67.284487     37926.35 
   92700    307.91229    -1423.683    497.93673    462.92761    60.628055     37926.35 
   92800    311.03186   -1453.3823    494.75948     444.1202   -246.88673     37926.35 
   92900    297.92454   -1481.3759    471.40284     333.6564    149.03381     37926.35 
   93000     298.2819   -1430.5525    491.60947    406.29806   -814.05811     37926.35 
   93100    299.57309   -1402.2612    540.24704    489.05011   -198.49138     37926.35 
   93200    314.11889    -1434.498    464.21193    446.37935    200.09126     37926.35 
   93300    299.38373   -1431.0339    501.66696    420.84335   -236.30248     37926.35 
   93400    306.67087   -1438.6178    495.34439    439.80169     438.3618     37926.35 
   93500    298.80739   -1444.3606    497.01029    400.26072   -45.428623     37926.35 
   93600    302.72881   -1450.7815    475.43859    389.95361    160.30099     37926.35 
   93700    300.69415   -1473.9463    489.06504    371.23898    740.46055     37926.35 
   93800    302.79318    -1484.331    487.25723    368.51309    304.19772     37926.35 
   93900    297.00125   -1463.8424    485.17028    360.79328   -122.49619     37926.35 
   94000    299.01768   -1429.4614     481.1309    400.22899   -130.16816     37926.35 
   94100    285.73589   -1418.1049    500.45268    371.00682    276.17907     37926.35 
   94200    309.90227   -1472.6848    497.19758    422.16137    609.35252     37926.35 
   94300    301.09837   -1454.9112     471.6877    374.71979    431.96982     37926.35 
   94400    293.23808   -1452.7828    446.43854    316.14937    430.69838     37926.35 
   94500    299.60974   -1473.5225    479.55054    357.25771    72.388539     37926.35 
   94600    297.85293   -1449.1825     491.4229    385.54682   -97.395138     37926.35 
   94700    301.33184   -1450.6912    454.89098    363.19603    9.2021976     37926.35 
   94800    295.34642   -1403.0534    495.50262    424.45138   -24.307921     37926.35 
   94900    297.31035   -1426.0402    491.19703     406.0163   -237.18498     37926.35 
   95000    296.21373    -1489.939    475.80747    321.78222    662.18664     37926.35 
   95100    300.67268   -1459.5424    476.18514    372.66616    324.38399     37926.35 
   95200    296.71948   -1501.2487    484.86494    321.81086     421.7286     37926.35 
   95300    309.75918    -1455.415    472.88426    414.47249    974.55697     37926.35 
   95400    284.42596   -1483.8723    492.44332    291.32231    168.60083     37926.35 
   95500    301.98104   -1488.0626    521.07159    394.93306    529.14733     37926.35 
   95600    308.10448   -1479.6241    491.16054    401.07707    862.94169     37926.35 
   95700    302.96853   -1461.3273       475.64    380.69039   -73.016287     37926.35 
   95800    294.40963   -1456.3831    480.96489    352.35907    317.44024     37926.35 
   95900    291.76792     -1464.44     468.5183    319.94158    249.65816     37926.35 
   96000    295.38623    -1495.094    473.00711    310.09488    248.87428     37926.35 
   96100    304.21158   -1474.6828    508.83459    406.13555    62.058084     37926.35 
   96200    299.58537   -1481.2601    478.36852     348.2281   -217.33533     37926.35 
   96300    306.58001   -1547.7621    482.34647    317.24965     75.73759     37926.35 
   96400     290.7259   -1519.4349    478.17537    269.90432   -599.48084     37926.35 
   96500    291.95194   -1510.4972    465.95722    272.15322   -265.62839     37926.35 
   96600    299.15256   -1490.4361    506.40238    365.13405   -324.72161     37926.35 
   96700    302.12402    -1490.729    458.60848     330.4484   -252.85803     37926.35 
   96800    298.73569   -1501.5014    484.78038    330.56663   -445.02281     37926.35 
   96900    307.32426   -1501.5751    471.76521    356.21192   -571.75583     37926.35 
   97000     308.3975   -1470.3344    464.72446     385.2522   -582.54767     37926.35 
   97100    297.27015   -1538.7548     465.0474    266.97069   -499.27616     37926.35 
   97200    292.32103   -1495.0959    483.61547    306.87734   -247.96872     37926.35 
   97300    295.95273   -1496.4587    480.90126    319.17923   -136.30836     37926.35 
   97400    298.90337   -1518.8807    486.91352    316.07671    89.928435     37926.35 
   97500    305.84613   -1455.2881    481.91836    405.98578    577.95902     37926.35 
   97600     305.6373   -1498.7642    502.67064    382.32021    57.014299     37926.35 
   97700    305.66404   -1490.7732    460.66476    348.42586    61.074579     37926.35 
   97800    288.03703   -1518.0706    451.13983    232.10636   -743.73093     37926.35 
   97900     306.5716   -1533.9155    500.53076     349.2427   -483.75254     37926.35 
   98000    296.37928     -1554.13     473.1993    255.72972   -111.96379     37926.35 
   98100    287.25835   -1535.5816    493.25339    253.19702   -539.20959     37926.35 
   98200    303.88227   -1513.0621    466.30473    323.74128   -76.499678     37926.35 
   98300    294.70179   -1509.0902    477.31849    297.32323   -473.28188     37926.35 
   98400    306.62437   -1498.9763     478.7375    362.62656   -708.74571     37926.35 
   98500    304.66707   -1545.3973    467.59415    296.23483   -1042.0394     37926.35 
   98600    304.61006   -1514.3647     483.4475    342.86374   -770.27628     37926.35 
   98700    305.73381     -1497.12    468.94176    350.67077   -249.41924     37926.35 
   98800    306.54128   -1524.4381    472.71002    330.76256   -8.8436979     37926.35 
   98900    306.06976   -1504.4873    481.38255    357.25936    72.382422     37926.35 
   99000    292.58818   -1491.2804    486.97935    315.26163   -476.59387     37926.35 
   99100    302.31516   -1524.6127    482.01579    320.83402    76.393896     37926.35 
   99200    288.81092    -1539.517    476.05263    239.06297   -5.3191184     37926.35 
   99300     300.7991   -1522.8627    472.77605    306.50691   -66.211062     37926.35 
   99400    295.23847   -1510.0706    486.30996     307.7547    137.22619     37926.35 
   99500    295.18609      -1500.9    466.42227    296.80139    229.03638     37926.35 
   99600    298.86919    -1503.112      505.057     349.8348   -17.202403     37926.35 
   99700    294.74423   -1517.6097    485.05075    296.72736   -155.54189     37926.35 
   99800    304.42671   -1547.6142    462.07763    287.41743    767.46941     37926.35 
   99900    307.89725   -1506.9195    484.81536    366.50187    280.73909     37926.35 
  100000    300.48422   -1505.4213    493.56351    343.31572    299.77592     37926.35 
  100100    301.69355   -1535.3907    492.52593    317.76272    742.63263     37926.35 
  100200    296.91723   -1532.5516    481.00061    287.53555    554.42844     37926.35 
  100300    303.37709    -1520.776    480.98207    328.42634    319.81992     37926.35 
  100400    291.85167   -1529.5012     490.9752    277.71499   -234.92401     37926.35 
  100500    305.32227   -1531.7522    479.97424    325.21501   -151.13208     37926.35 
  100600    283.82854   -1512.0272    504.02256    272.05229   -293.40216     37926.35 
  100700    300.89129   -1465.9394    509.41215    400.48216   -12.900407     37926.35 
  100800    294.10306   -1494.1288    488.80545    321.07138    -102.3505     37926.35 
  100900    305.81377   -1497.3642    477.20621    359.05155    210.00005     37926.35 
  101000    302.59039    -1447.528    492.96603    410.11028    312.08478     37926.35 
  101100    308.43887   -1482.3244    509.55183    418.27609    272.66461     37926.35 
  101200    298.55697   -1478.7749    491.81222    359.51897    324.48171     37926.35 
  101300    289.32135   -1447.7552    498.21658    355.29074    135.86264     37926.35 
  101400    299.58417   -1478.9297    485.23008    357.41468   -395.20306     37926.35 
  101500    300.10412   -1444.6916    496.64481     405.4125   -316.23006     37926.35 
  101600    298.62638   -1490.0889    490.97377    347.67957    308.61763     37926.35 
  101700     304.7907   -1470.6343    494.53219    398.49341   -18.171033     37926.35 
  101800    302.01908   -1491.4967    495.90801    366.50701   -48.643407     37926.35 
  101900    312.42713   -1482.4644    510.37786    436.94903    760.46466     37926.35 
  102000    290.11477   -1518.9919    465.80094    255.21668    537.13425     37926.35 
  102100    300.76728    -1471.811    487.07339    371.71246    804.90144     37926.35 
  102200    309.69927   -1483.2822     513.1687    426.61956     181.1197     37926.35 
  102300    298.91152   -1481.9751    454.32937    320.43489    361.83456     37926.35 
  102400    293.74389   -1481.4051    495.51566    338.88536    226.59145     37926.35 
  102500    297.27206   -1534.9371    510.08351    315.83318    251.91101     37926.35 
  102600    301.80103    -1516.259    491.85158    336.70482     408.0283     37926.35 
  102700    285.47365   -1563.9527    465.50095     189.0246    160.28583     37926.35 
  102800    292.31422   -1591.2892    484.40873    211.44662   -261.32614     37926.35 
  102900    299.25979   -1562.9451    468.95181    255.65801    5.7810508     37926.35 
  103000    303.03228   -1532.1123    483.28365    317.83652   -169.42562     37926.35 
  103100    299.86976   -1539.4031    508.19343    321.19262    203.64334     37926.35 
  103200     297.6044    -1524.751    479.22813    296.66274   -260.85508     37926.35 
  103300    301.20118   -1562.0022    467.13005    263.53478   -455.29854     37926.35 
  103400    303.52985   -1490.6276    513.54969    391.83123    146.56144     37926.35 
  103500     290.5151   -1551.0474    479.62256    238.78824   -634.85323     37926.35 
  103600    294.02987   -1511.0261    468.44827    283.48681   -404.34006     37926.35 
  103700    304.02742   -1485.7235    488.65576    374.08546   -329.08019     37926.35 
  103800    305.62124   -1499.6093    484.57691    363.30889     23.21242     37926.35 
  103900    302.25174   -1521.3446    470.45983    312.26022    42.783681     37926.35 
  104000    289.55988   -1525.9768    498.66944    278.59778    184.61014     37926.35 
  104100    288.58318   -1494.4612    474.69887    281.73791   -96.657723     37926.35 
  104200    297.09562   -1503.7388    461.94105    298.09333    263.91822     37926.35 
  104300    300.50371   -1495.2573    486.80805    346.81214    172.53971     37926.35 
  104400    295.79443   -1499.1576    483.08437    317.94947    469.90845     37926.35 
  104500    292.29152   -1474.3871    464.36188     308.1995   -229.96061     37926.35 
  104600    316.20106   -1450.5757    486.56706    462.04724   -891.44866     37926.35 
  104700    287.52366   -1447.1889    470.26438     319.7973   -426.90901     37926.35 
  104800    304.88608   -1486.8536    462.78186    350.95398    15.366134     37926.35 
  104900    306.97665   -1476.4923    495.74082    403.70267   -33.739543     37926.35 
  105000    289.47943    -1420.848    478.37456    363.06881    -354.2118     37926.35 
  105100    304.43233   -1419.8993    501.80174     454.8818   -543.28661     37926.35 
  105200    295.37672   -1498.2139     475.2242    309.14912    278.84588     37926.35 
  105300    305.26596   -1436.3643     452.8422    393.21691   -153.58547     37926.35 
  105400    309.26404    -1440.114    532.43655    487.09275   -197.07119     37926.35 
  105500    292.27722   -1431.5737    495.45277    382.03929    185.55515     37926.35 
  105600    298.89163   -1478.5276    482.53116    351.99447    82.911337     37926.35 
  105700     296.7539    -1475.048    518.54418     381.8461   -114.74031     37926.35 
  105800    303.24164   -1465.2967     469.9697    372.28234   -135.13096     37926.35 
  105900    303.69713   -1407.6638    475.48322    437.48302   -582.78195     37926.35 
  106000      298.797   -1469.3586    494.01512    372.22076    11.427036     37926.35 
  106100    295.22598   -1415.3597    496.01889    412.11825    200.63097     37926.35 
  106200    304.52216    -1476.671    465.28127    361.99479    317.62697     37926.35 
  106300    301.82859     -1480.86    481.47197     361.8485   -3.1526518     37926.35 
  106400     311.4064   -1460.8079    475.81995    419.44421   -76.562427     37926.35 
  106500    295.55836   -1515.8177    445.99819    263.13847    -340.8081     37926.35 
  106600    308.10611    -1520.483    503.58578    372.65072    114.72937     37926.35 
  106700    297.67093   -1499.5913    465.53598     308.4303    169.65595     37926.35 
  106800    297.44221   -1495.9766    482.11051    327.58806    52.133952     37926.35 
  106900    296.30404   -1502.3518    482.42653     316.3958    214.10762     37926.35 
  107000    303.27137   -1528.2624    481.31437    320.79536   -398.33808     37926.35 
  107100    292.34457   -1504.9734    472.64923    286.13981    253.58195     37926.35 
  107200    303.74855   -1502.1666    491.84245    359.57135    591.81272     37926.35 
  107300    293.29391   -1484.2094    495.32379    333.85985    718.53353     37926.35 
  107400    312.39273   -1486.3411    499.44867    421.98802    559.09786     37926.35 
  107500    304.04553   -1463.4739    483.97325    391.73428    299.80458     37926.35 
  107600    303.11327   -1435.2487    494.27542    426.05711   -341.32364     37926.35 
  107700    296.36646   -1477.9735    495.04529     353.6743   -574.75649     37926.35 
  107800    298.56938   -1468.6186    494.01832    371.93742   -760.82387     37926.35 
  107900     310.4371   -1497.3167    471.72574    374.46967   -329.52582     37926.35 
  108000    292.04992   -1479.3111    459.58664    297.41067   -320.55342     37926.35 
  108100    296.25873   -1453.8169    506.31384     388.6136   -596.68892     37926.35 
  108200    307.65608   -1469.8633     447.5426     365.1977   -627.39158     37926.35 
  108300    303.47473    -1470.632    460.36302    358.39166    -22.87479     37926.35 
  108400    299.92941   -1461.4939    481.46443    372.64185   -143.27108     37926.35 
  108500    307.33889   -1453.4961    486.56958     419.1613    196.15384     37926.35 
  108600    294.95047   -1490.6871    497.12729    336.65662   -24.248777     37926.35 
  108700    295.89856   -1477.0072    471.38594    328.87103    -100.2824     37926.35 
  108800    297.74941    -1463.879    475.64496    354.60556    287.48173     37926.35 
  108900    303.43315   -1474.8312     484.0595    377.70141   -90.477477     37926.35 
  109000    304.71242   -1468.9659    457.20609    362.48273   -118.90514     37926.35 
  109100    295.29738   -1447.9677    481.87826    365.69155    144.39669     37926.35 
  109200    316.08688   -1474.5652    481.51709    432.49279    563.50851     37926.35 
  109300    290.14265   -1477.4066    463.31864    294.44545    -49.77383     37926.35 
  109400    296.93129   -1471.6767    475.92171    343.39491   -108.93818     37926.35 
  109500    314.78822   -1509.2505     454.9806    365.41422    -212.3608     37926.35 
  109600    293.07545   -1522.7024    467.16923    266.22705    202.08437     37926.35 
  109700    304.84336   -1516.0818    485.02974    343.78104    86.764793     37926.35 
  109800    303.65422   -1469.9536    480.54041    380.05687   -71.812162     37926.35 
  109900    310.19853   -1440.0296    480.35774     439.3128    52.061309     37926.35 
  110000    300.55487   -1437.0416    487.32557    405.77606    215.53985     37926.35 
  110100    303.28919   -1451.7406    480.22815    396.31138   -155.06188     37926.35 
  110200    305.75845   -1443.9288    469.23714    404.26838   -310.73502     37926.35 
  110300    300.76179   -1426.8729    501.52943    431.08184   -3.5675384     37926.35 
  110400    296.77251   -1499.0295    485.93685    325.34119   -51.919413     37926.35 
  110500    284.69898   -1489.8581    465.87854    260.00302    572.13541     37926.35 
  110600    301.15775   -1488.2016    486.64391    356.65341    1119.7172     37926.35 
  110700    304.56424   -1465.9199       491.96    399.61432    715.09774     37926.35 
  110800    301.42265   -1433.2191    474.30931    400.49597    1098.2239     37926.35 
  110900    293.64002   -1470.5476    486.75142    340.51021    921.09716     37926.35 
  111000    301.64953   -1469.8632    521.57516    412.14095     541.4142     37926.35 
  111100     303.3321   -1493.0521    458.03647     333.0017    643.24757     37926.35 
  111200     293.7137   -1437.4775    500.27861    387.43978     -207.934     37926.35 
  111300    300.45894   -1449.9438    486.39244    391.50814   -199.90105     37926.35 
  111400    297.63775   -1462.2659    472.64179    352.71187   -182.01945     37926.35 
  111500    310.62298    -1472.553    470.24523    398.59123   -528.30636     37926.35 
  111600     293.6552   -1493.2529    472.33344    303.45537    -690.6699     37926.35 
  111700     293.3823   -1486.4312    473.05308    309.76599   -423.86688     37926.35 
  111800    300.55722   -1500.1911    476.39666    331.70826   -412.88772     37926.35 
  111900    296.85197   -1488.4991    493.89926    344.19232    113.11339     37926.35 
  112000    302.56051   -1454.7762    486.08939    395.85063    311.32457     37926.35 
  112100      290.745   -1477.6281    502.40929    336.03119   -21.291677     37926.35 
  112200    296.27157   -1466.5653    485.28504    354.89429    545.59336     37926.35 
  112300    300.67628   -1472.7825    486.48618    369.74335    308.59283     37926.35 
  112400    294.30854   -1469.5855    495.20195    352.93783   -419.91145     37926.35 
  112500    301.39506    -1458.241    460.81516    361.85548   -220.38226     37926.35 
  112600     301.0377   -1461.1304    496.52783    393.06715    467.29899     37926.35 
  112700     299.0495   -1472.4854     472.3377    348.55525    511.56301     37926.35 
  112800    296.56908   -1444.1139    491.60277    385.00517    972.93815     37926.35 
  112900    301.46947   -1502.8492    489.90284    346.67056     874.9896     37926.35 
  113000    297.72238   -1496.8259    465.69276    311.58459    742.73471     37926.35 
  113100    307.20451   -1536.9649    482.18679    330.70369    1098.8867     37926.35 
  113200    291.58346   -1572.4509    471.05941    213.63993    439.13805     37926.35 
  113300    302.83699   -1548.4879    466.58074    283.87728    564.68681     37926.35 
  113400    311.03159   -1503.4902    448.22239    347.47394    119.96225     37926.35 
  113500    293.27116   -1531.5098    496.35904    287.49207    613.62976     37926.35 
  113600    305.75448   -1490.0507     469.8606    358.75204    351.96241     37926.35 
  113700    300.40617   -1478.7031    496.52339    372.64179    445.73058     37926.35 
  113800    297.49087   -1470.3506    492.20897    363.53191   -252.91909     37926.35 
  113900    301.23542     -1482.63    468.96913    344.90049   -220.87776     37926.35 
  114000    309.09635     -1453.72    468.57616    408.87002   -90.557715     37926.35 
  114100    306.74099   -1447.9874    477.15945    412.56335   -635.53131     37926.35 
  114200    289.59094   -1495.0731    479.33434    290.30644     -161.165     37926.35 
  114300    291.06433   -1511.7293    490.24503    291.20587   -182.43926     37926.35 
  114400    298.31682   -1425.9358    484.29305    403.75587   -522.33493     37926.35 
  114500    298.67331   -1451.9885    529.81316      424.831   -816.09894     37926.35 
  114600    308.13369   -1421.2829     487.4592    455.84868   -879.13419     37926.35 
  114700     297.5969   -1427.6727    464.18307    378.66211   -527.94834     37926.35 
  114800    313.16616   -1411.3595    529.54311    530.55225    92.548397     37926.35 
  114900    311.90251   -1424.6107    504.17642    486.23531    544.06163     37926.35 
  115000    302.92486   -1467.5515    481.75704    380.38625   -138.36612     37926.35 
  115100    302.30754    -1470.826     499.0704    391.64103   -125.45545     37926.35 
  115200    289.34787    -1441.776    494.22966    357.40262   -277.07332     37926.35 
  115300    299.46381   -1419.3874    499.69928    430.88331    350.61394     37926.35 
  115400    299.23187   -1426.5357    477.60424    400.59396    76.547461     37926.35 
  115500    291.01662    -1433.896    489.64819    368.22713    337.16915     37926.35 
  115600    295.46458   -1453.8357    472.85206    351.55143   -83.211045     37926.35 
  115700    311.87104   -1422.0609    463.57337    448.04016   -805.69804     37926.35 
  115800     309.5048   -1413.9611     479.5474     461.4423   -245.03389     37926.35 
  115900     294.4728   -1426.3928    486.37237    388.04178   -460.55023     37926.35 
  116000    292.65384   -1471.6237    482.38165    330.61671   -729.58059     37926.35 
  116100    306.97044   -1443.7735    485.72628    426.37891   -584.55883     37926.35 
  116200    304.03694    -1461.649    483.21841    392.76556   -164.12696     37926.35 
  116300    307.28644   -1428.2008     495.9275    453.57802     101.9495     37926.35 
  116400     292.1084   -1415.5396    496.94128    398.80048    169.22463     37926.35 
  116500    304.61047   -1479.7257    493.43361    387.49066    632.43851     37926.35 
  116600    296.24351    -1421.977    493.20014     407.2712    109.37927     37926.35 
  116700    297.53579    -1469.024    479.52831    352.38048    180.72649     37926.35 
  116800    294.59579   -1501.6651    476.84282    303.79463   -240.93446     37926.35 
  116900    299.23394   -1451.6798    461.36158    359.21652   -371.87884     37926.35 
  117000    300.58113   -1445.5479    481.35685    391.41947   -539.38775     37926.35 
  117100    308.63741   -1420.9541    492.40075    463.39071   -278.91448     37926.35 
  117200    301.29523   -1424.8365     467.4404      401.435   -720.11918     37926.35 
  117300     296.8834   -1434.2384    480.96568    385.66118   -60.637941     37926.35 
  117400     302.8693   -1443.7582    499.92503      422.097   -349.81302     37926.35 
  117500    301.55259   -1432.6125    500.04664    427.42598   -397.92256     37926.35 
  117600    290.56743   -1419.7972    489.38764     380.0396   -371.99663     37926.35 
  117700    300.98372   -1413.8888    522.90201    466.43949   -250.98984     37926.35 
  117800    298.92806    -1475.642    497.34567    369.85898   -285.50711     37926.35 
  117900    297.52903   -1482.7304    482.16577    341.28113     169.3018     37926.35 
  118000    315.09086    -1470.082      487.653    438.61994    358.82053     37926.35 
  118100    297.85479   -1453.4149    510.31738    400.21735    566.08037     37926.35 
  118200    305.88424   -1494.6546       475.79    360.66276    203.38948     37926.35 
  118300    298.84121   -1468.7052    489.84367    368.90202    18.122198     37926.35 
  118400    303.62977   -1499.7897    468.48479    338.05488   -151.24036     37926.35 
  118500     301.1027    -1464.469    494.36493    387.85874    275.46345     37926.35 
  118600     299.6176   -1494.5274    461.21684    317.95451   -40.364157     37926.35 
  118700    291.60131   -1493.4668    487.39473    309.03978   -406.47693     37926.35 
  118800    303.21264   -1435.5856    507.93006    439.82309    -657.5448     37926.35 
  118900    300.60894    -1488.681    468.43146    335.48646   -433.41782     37926.35 
  119000    298.53186   -1471.6307     471.4926    346.23033   -555.17041     37926.35 
  119100    286.69955   -1427.7658     478.3087    343.54797   -198.06734     37926.35 
  119200    302.89358   -1493.4435    488.14966    360.74576    202.38436     37926.35 
  119300    294.84436   -1493.6578    472.19929    308.27945   -228.55388     37926.35 
  119400    304.71424   -1523.3652    477.52398    328.40958    455.97317     37926.35 
  119500    310.76686    -1511.605    481.80179    371.74466    92.076172     37926.35 
  119600    308.05427   -1507.2333    470.39585    352.47675    14.810623     37926.35 
  119700    302.53073   -1452.2259    485.98275    398.16006    136.60476     37926.35 
  119800    305.92913   -1468.3339    451.06454    362.46047    551.77511     37926.35 
  119900    302.50941   -1465.5367    484.64336     383.4137    383.99462     37926.35 
  120000    300.66288   -1508.9163    490.12983    337.19274    727.65481     37926.35 
  120100    301.45911   -1486.9619    472.58472    345.19304     505.4529     37926.35 
  120200    297.52261   -1497.1805     507.9249    352.56118    122.73155     37926.35 
  120300    293.47988   -1452.3774    461.25763    332.46435    138.66056     37926.35 
  120400    297.83873    -1523.877    468.51604    287.88147   -166.67426     37926.35 
  120500     316.0944   -1526.7998     466.8386    365.61367   -142.75384     37926.35 
  120600    290.32312   -1462.3449    473.40736    320.40978   -755.44474     37926.35 
  120700    290.03413   -1504.6569    472.86657    276.25368   -524.80542     37926.35 
  120800    303.99158   -1488.6894    486.08903    368.39122   -977.03367     37926.35 
  120900     300.5365   -1515.5625    505.92228     345.7691    -918.8551     37926.35 
  121000    297.35077   -1499.7916    487.33065     328.5808   -199.02884     37926.35 
  121100     300.4378   -1514.5403    471.40598    311.82985   -74.763453     37926.35 
  121200    301.94407   -1534.2481    484.39534    311.90467    360.76152     37926.35 
  121300    291.28454   -1519.9406    472.03002     265.7727    196.65078     37926.35 
  121400    297.57861   -1508.0364    491.92193    325.95483    305.45673     37926.35 
  121500     296.6311   -1522.2811    471.94004    287.45499    359.35647     37926.35 
  121600     306.9124   -1513.7739    475.46918    345.85962    420.01778     37926.35 
  121700    298.02218    -1545.885    460.09206    258.27688    481.73093     37926.35 
  121800    295.39669   -1554.2028    447.16296     225.1891   -465.03823     37926.35 
  121900    303.02022   -1523.1816    499.73802    343.16719   -188.28772     37926.35 
  122000    296.17881   -1482.7267    492.30838    345.33797    21.049628     37926.35 
  122100    300.44379   -1455.1848     495.8196    395.62594    51.913793     37926.35 
  122200       301.85   -1483.3599     513.1803    391.15355    430.78343     37926.35 
  122300     301.8801   -1455.2063     498.3981    404.66067    97.858496     37926.35 
  122400    293.16394   -1503.9837    475.34853    293.52411   -196.46053     37926.35 
  122500    297.28302   -1490.6617    493.48905    343.56358    483.71734     37926.35 
  122600    298.43569   -1427.3117    512.73738     431.3604    691.17739     37926.35 
  122700    292.46694   -1449.3248    519.47658    389.16766    4.2655439     37926.35 
  122800    291.09887   -1464.3773     493.9361    342.40471   -111.07698     37926.35 
  122900    303.12523   -1464.0931     499.4274    402.41869   -424.78008     37926.35 
  123000    304.77452   -1486.1722    480.81902    369.16948    296.32585     37926.35 
  123100    282.75677   -1463.3868    518.68251    330.51907    475.85491     37926.35 
  123200    294.11951   -1478.6115    533.54347    381.40081    234.44202     37926.35 
  123300    298.28099   -1467.5191    526.79857    404.51647    406.91281     37926.35 
  123400    298.14266   -1447.6073    495.03621    392.04211    303.66171     37926.35 
  123500    306.53184   -1435.7364    534.44059    481.15217    348.88723     37926.35 
  123600    291.97892   -1450.3969    498.41071     364.8287    399.88428     37926.35 
  123700    303.85481   -1475.3177    488.02132    383.07833    122.65386     37926.35 
  123800    298.15026   -1499.1424    510.62045    356.12547    4.5114037     37926.35 
  123900    302.87593     -1509.62    486.75701    343.09702    462.71746     37926.35 
  124000    303.04146   -1533.2749    516.28955    349.72115    1007.9571     37926.35 
  124100    294.59185   -1524.7119    474.52495    278.41219    614.20968     37926.35 
  124200    305.63749   -1547.9976    470.42015    300.83708    497.27559     37926.35 
  124300    292.26176   -1577.2066    495.70927    236.59313     303.2411     37926.35 
  124400    297.07776   -1506.2446    501.07938     334.6453   -284.01908     37926.35 
  124500    297.46587   -1501.8336    524.94125     364.6685   -428.36377     37926.35 
  124600    305.38983    -1519.577    493.44442    351.16508   -160.49746     37926.35 
  124700    299.04849   -1561.3336    505.97334    293.33815   -470.11881     37926.35 
  124800    295.59585   -1551.1497    521.58346    303.56084   -424.75337     37926.35 
  124900     297.2788   -1553.8138    499.60983    286.51315     337.6623     37926.35 
  125000    305.14124   -1547.9411    496.63069    324.86614    234.89051     37926.35 
  125100    308.65885    -1565.171    504.71531    331.58506    30.072091     37926.35 
  125200    306.41905   -1552.9122    494.01379      323.041    100.06745     37926.35 
  125300    294.29379   -1550.1625    514.89106    291.98347    553.32033     37926.35 
  125400    302.03384   -1486.8586    483.62737    358.93102    146.70319     37926.35 
  125500    301.59685   -1508.0084     515.1538    367.33683    -93.79577     37926.35 
  125600    301.50126   -1515.2066    486.47428    331.02801   -100.61185     37926.35 
  125700    304.32504   -1505.5153    539.38762     406.3678    184.38196     37926.35 
  125800    311.23197   -1504.8637    520.90133    419.68307    321.00921     37926.35 
  125900    299.07537    -1520.856    503.20309    331.16672   -199.68518     37926.35 
  126000    291.21846   -1511.5691    494.32813    296.14429   -13.136193     37926.35 
  126100    304.48236   -1525.7096    527.51047    375.00588   -108.23591     37926.35 
  126200    301.43612   -1515.8737    491.34857    334.94137   -144.39945     37926.35 
  126300    292.60759   -1506.5255    503.08408    316.20879   -620.44449     37926.35 
  126400    305.76329   -1522.9907     517.4967    373.48795   -211.59661     37926.35 
  126500    298.24545   -1520.5757    466.02518    290.52622   -16.326669     37926.35 
  126600    309.38035   -1548.5425    490.07839     336.8306   -607.13572     37926.35 
  126700    296.87361   -1540.2897    502.45756    301.05764   -410.25655     37926.35 
  126800    307.39021   -1547.1551    519.24221     358.4064    182.80452     37926.35 
  126900    295.31199    -1554.658    497.36886    274.55772    466.40003     37926.35 
  127000    301.78697   -1529.9229    504.76927     335.8952   -581.66046     37926.35 
  127100    295.33362   -1571.8038    472.56225    232.70293   -555.63805     37926.35 
  127200    293.68459   -1547.3362    480.84523    258.01638   -346.60743     37926.35 
  127300    316.08668   -1509.6881    488.23696    404.08893    365.62501     37926.35 
  127400    304.05994   -1539.7498    511.80466    343.35477    579.95694     37926.35 
  127500    303.24111   -1552.0473    504.06222    319.62183     712.4279     37926.35 
  127600    307.02663   -1556.5209    481.44698    309.60563    358.08637     37926.35 
  127700    300.44017   -1541.5277     518.6197    332.06688    198.74614     37926.35 
  127800    312.30158   -1511.6052     485.1201    381.98422    371.31499     37926.35 
  127900    310.70782   -1469.3929    499.17481    431.06348    82.095539     37926.35 
  128000    299.96864   -1504.4027    545.70252    394.14807    865.94031     37926.35 
  128100    295.84461    -1530.817    521.24569    324.67777    532.97518     37926.35 
  128200    302.46142   -1497.0739    523.61134    390.62808    686.58055     37926.35 
  128300    297.05045   -1536.7474    487.61843    290.55837    557.89054     37926.35 
  128400    297.63076   -1537.7306    499.29847    303.87234    716.92459     37926.35 
  128500    294.69408   -1510.0554    510.55429    329.55905    623.91533     37926.35 
  128600     297.4308   -1541.4426    498.96112    298.92121     502.2184     37926.35 
  128700    295.47925   -1551.1755    506.60428    288.03004    133.85171     37926.35 
  128800    287.66233   -1532.5396    511.65988    276.46749   -326.30282     37926.35 
  128900    300.89328   -1493.5289    521.97566    385.46515    144.70144     37926.35 
  129000    305.04139   -1499.7176     481.9309     357.9395   -127.31874     37926.35 
  129100    292.91254   -1530.1426    514.47936    305.36226    -591.0464     37926.35 
  129200     301.7421   -1538.5307    501.29497    323.61084   -744.73066     37926.35 
  129300    296.70903   -1517.8189    506.55667    326.88528   -677.64277     37926.35 
  129400    294.94475   -1512.6604    506.93851    324.46882     64.38346     37926.35 
  129500    306.39583    -1537.495    494.34983    338.68955   -10.206088     37926.35 
  129600    307.27075   -1548.0398     515.2534    352.99415    448.89192     37926.35 
  129700    299.83557    -1507.763    484.34288    328.82796    510.71497     37926.35 
  129800    292.92822   -1492.1048    497.69046    326.68185    624.97559     37926.35 
  129900    306.29241   -1533.5939    493.42777    341.20211    1173.1273     37926.35 
  130000    301.35759   -1527.0592    514.51045    346.56363    792.52692     37926.35 
  130100     299.4063   -1541.0835      473.797     283.0256    755.84518     37926.35 
  130200    297.19339   -1514.4177     480.6803    306.59455    519.23888     37926.35 
  130300    302.97377   -1522.9959    512.75112    356.15647    157.52491     37926.35 
  130400    299.16794   -1522.9053    478.49701    304.82878    338.93805     37926.35 
  130500    306.32204   -1508.1721    501.18215    374.51186    380.39725     37926.35 
  130600     299.0371   -1539.5822    486.94269    296.00751   -154.52237     37926.35 
  130700    301.23075   -1570.6693    475.51073    263.38177     193.0548     37926.35 
  130800    297.73239   -1527.3865    506.73157    322.10787    171.10814     37926.35 
  130900    300.09884   -1545.6638    493.67226    301.44389    210.50958     37926.35 
  131000    300.02844   -1539.1242     483.7114    297.70514    224.61724     37926.35 
  131100    293.15546   -1527.3473    512.57814    307.35185   -190.67846     37926.35 
  131200    296.20611    -1534.247    501.12598    302.75833   -344.02802     37926.35 
  131300    297.85893   -1553.6811    508.62832    298.28073   -27.834777     37926.35 
  131400    296.68251   -1547.2799     498.4731    289.22111    -181.5861     37926.35 
  131500    300.05492   -1524.3897    513.01875    341.86644   -592.97615     37926.35 
  131600    292.92175    -1546.668    498.61884    273.01789   -85.207998     37926.35 
  131700    300.43495   -1551.5741     496.1463    299.52349   -295.05768     37926.35 
  131800    311.13075   -1545.2633    494.89795    352.82366   -138.51509     37926.35 
  131900     304.4584   -1545.4864    490.31226     317.9228      71.0452     37926.35 
  132000    298.19372   -1530.2903    514.09269    328.64581    150.26989     37926.35 
  132100    311.68406   -1511.9864    508.88991    402.58792   -476.28016     37926.35 
  132200    304.94953   -1527.3854    503.49425    351.42071     89.49563     37926.35 
  132300    305.72272    -1480.557    500.71908      398.961    151.08602     37926.35 
  132400    301.41487   -1480.8789    507.58998    386.08176   -79.170706     37926.35 
  132500    306.24278   -1528.4131     499.2266     351.9579   -135.00697     37926.35 
  132600    293.13565   -1479.4197    510.03063    352.64264    88.252449     37926.35 
  132700    307.18928   -1486.4636    501.51585     400.4653    70.795658     37926.35 
  132800    288.40115    -1490.888    510.16607     319.9573   -183.95897     37926.35 
  132900    298.03966   -1503.8639    505.31448    345.59923   -204.22867     37926.35 
  133000    304.13655   -1528.8666    475.38995    318.16874   -1099.1617     37926.35 
  133100    286.42762   -1482.1695    525.17328     334.7825   -695.00052     37926.35 
  133200    295.72322   -1494.2197    487.67414    327.15598   -517.28565     37926.35 
  133300    311.10623   -1519.4791    483.33766    366.93699    -751.6466     37926.35 
  133400    295.93839   -1539.8561    506.65747    301.47337    59.470662     37926.35 
  133500    302.47286   -1559.7137    501.36739    305.79593     269.1887     37926.35 
  133600    301.35159    -1578.334    514.50648    295.25776    965.83787     37926.35 
  133700    308.17246    -1547.494    483.95813    326.31136     459.5726     37926.35 
  133800    299.26985   -1474.2608     503.6483    379.08421    372.72258     37926.35 
  133900    303.70361   -1476.3389    517.40808    410.76197    624.37554     37926.35 
  134000    298.29011    -1455.724    502.08568    391.63978    516.41563     37926.35 
  134100    306.52175   -1478.6784    528.83208    432.55621    320.11289     37926.35 
  134200    315.34303   -1484.6462    482.83936    420.37936    651.88198     37926.35 
  134300    302.37882   -1491.1948    508.73942    381.26267    43.230571     37926.35 
  134400     299.3426   -1471.4137    512.32427    390.93539    213.34972     37926.35 
  134500    301.68182    -1504.028    526.46886     383.0155    114.71153     37926.35 
  134600     301.8022   -1533.3654    501.39624    329.14843     -130.429     37926.35 
  134700    305.23442   -1513.6715    506.79382      369.719    27.159329     37926.35 
  134800    302.08459   -1504.8031    501.52103      359.109   -366.35886     37926.35 
  134900     311.8549    -1539.863    509.88061    376.47251    30.683827     37926.35 
  135000    307.80873   -1509.9695    527.21032     405.4476    102.79163     37926.35 
  135100    304.92707   -1499.7968    502.93238    378.34614    228.10723     37926.35 
  135200    296.74383   -1502.9571    495.75357    331.10092    84.900074     37926.35 
  135300    303.93384   -1503.8502    495.35238    362.23338   -114.54871     37926.35 
  135400    296.19878    -1571.495    508.56366    272.91497     4.588405     37926.35 
  135500    299.84124   -1553.6421    480.54989    279.18143    282.86153     37926.35 
  135600    297.09122    -1538.707     484.5986    285.76276    619.39924     37926.35 
  135700    303.90368   -1537.2222    493.70971    327.08265      693.623     37926.35 
  135800    305.97878   -1556.1188    503.10836    326.94335    777.41971     37926.35 
  135900    299.20664   -1510.1085    462.23013    301.53323   -122.77801     37926.35 
  136000    303.11173   -1525.5225    483.44731     324.9483    -98.72807     37926.35 
  136100    295.54633   -1550.7748    488.82953     270.9585   -151.12109     37926.35 
  136200    309.10111   -1540.1826    487.12762    340.98037    -19.94394     37926.35 
  136300    284.69035    -1498.457    480.66944    266.15611   -107.15945     37926.35 
  136400    305.77645   -1511.1183    507.77962    375.70262   -713.46003     37926.35 
  136500    304.54498    -1519.014     476.7976    331.27096   -726.26092     37926.35 
  136600    294.18664   -1489.4078    487.76422    325.12808   -802.98945     37926.35 
  136700    304.58181    -1484.771    504.79078    393.67323   -677.08275     37926.35 
  136800    299.03963   -1493.4036    493.04789    348.30274   -235.84061     37926.35 
  136900    293.02063   -1532.4192    513.46731    302.56104   -97.833757     37926.35 
  137000    302.75144   -1507.0867    520.81263    379.12454    104.23207     37926.35 
  137100    306.07294   -1486.8454    492.75669    386.28968   -315.07988     37926.35 
  137200    310.64246   -1522.5095    491.37125    369.84856   -295.72385     37926.35 
  137300    301.83248    -1565.847    515.22375    310.63083   -250.16029     37926.35 
  137400    299.21242   -1545.1844    493.07192    297.32524    -202.1979     37926.35 
  137500    295.25389   -1500.8238    499.75908    330.52017    212.02564     37926.35 
  137600    304.54386   -1534.8236    489.91431    328.57303   -279.21829     37926.35 
  137700    288.47799   -1526.1539    507.21544    282.08737   -500.28204     37926.35 
  137800    297.30778   -1499.3068    476.06028    317.60132   -836.92468     37926.35 
  137900    301.41682   -1483.2317    500.30808    376.45586   -767.04722     37926.35 
  138000    295.40185   -1493.6899    490.04246    328.60471   -839.70976     37926.35 
  138100    293.25683    -1510.415    497.33099    309.49421   -731.36965     37926.35 
  138200    305.96099   -1532.2491      479.431    327.05542   -418.62855     37926.35 
  138300    295.77466   -1516.9009    493.42088    310.45351    490.14483     37926.35 
  138400    289.27113    -1553.614     491.9894    242.97829   -799.36107     37926.35 
  138500    302.66847    -1563.613    492.07946     293.4908   -238.14811     37926.35 
  138600    300.38639   -1537.7905    485.82964    302.77146    143.61185     37926.35 
  138700    293.49642   -1505.1531    515.03472    333.54039   -19.199415     37926.35 
  138800    300.32377   -1460.8429    485.43571    379.04267   -427.39218     37926.35 
  138900      301.973   -1503.8866     504.1207    362.12195   -818.88974     37926.35 
  139000     292.9409   -1548.7673    490.89533     263.2814   -688.64252     37926.35 
  139100     283.0465    -1572.479    474.20334    178.25431   -55.009949     37926.35 
  139200     298.8642   -1534.0935    498.44761    312.22136    103.97826     37926.35 
  139300    301.75659   -1523.6267    510.05564    347.34076    474.50421     37926.35 
  139400    295.62212   -1520.1126    505.28119    318.41413     515.6206     37926.35 
  139500    297.80182   -1513.0314    503.59531    333.63983    1134.3462     37926.35 
  139600    296.45678    -1494.846    517.63071    359.79457    837.05874     37926.35 
  139700    304.73597   -1544.7694     497.0848    326.66417    813.16539     37926.35 
  139800    300.47673   -1534.2738    492.28677    313.15268    401.13707     37926.35 
  139900    300.88045   -1536.8754    490.26605    310.35111    438.68039     37926.35 
  140000     306.9791   -1525.8643    497.63828    356.23916    558.84856     37926.35 
  140100    300.87318   -1524.8288    504.49506    336.59395    87.142766     37926.35 
  140200    302.66295   -1507.7184    500.51529    357.79638   -98.670288     37926.35 
  140300     287.5473   -1475.2751    512.97513    334.52842    37.007644     37926.35 
  140400    306.21267   -1520.3881    496.34294    356.96346    607.96337     37926.35 
  140500    300.22206   -1524.5926    496.69505    326.09359    178.75673     37926.35 
  140600    303.79285   -1524.2108    467.68257    313.56703    -532.0314     37926.35 
  140700     305.6586   -1499.9665    521.18754    399.73079   -264.13953     37926.35 
  140800    290.08518   -1514.0517      493.111    287.33352   -549.10835     37926.35 
  140900    299.10098   -1482.9482     517.0141    383.00105   -652.80572     37926.35 
  141000    302.22375   -1568.6973    481.20257    275.52396   -382.51384     37926.35 
  141100    290.49666   -1556.9809    485.89398    239.04299   -426.32255     37926.35 
  141200    301.63834   -1586.3487    482.43493    256.46473   -648.49062     37926.35 
  141300     308.5408   -1561.8773    503.44185    333.07297   -942.44318     37926.35 
  141400     309.2242   -1543.5952    516.24048    367.23583   -718.30881     37926.35 
  141500    289.53491   -1547.8729    489.10013    247.01969   -722.27663     37926.35 
  141600    302.22991   -1511.0636    498.49445    350.47737   -601.75743     37926.35 
  141700    299.36583   -1492.9335    500.16048    357.35662   -586.80413     37926.35 
  141800    300.01185    -1492.943    518.80757    378.90774    23.099455     37926.35 
  141900    309.46199   -1519.9096    519.55827    395.31164   -22.299766     37926.35 
  142000    292.34808    -1506.663    499.05076    310.86753   -590.84386     37926.35 
  142100    294.39683   -1544.8219    504.70266    287.60032   -913.52359     37926.35 
  142200    298.07447   -1533.6332    485.08665    295.75906    22.493318     37926.35 
  142300    290.69587   -1468.7544    534.88321    377.15716    -387.4533     37926.35 
  142400    300.95825   -1447.5435    498.47091    408.23876   -273.41964     37926.35 
  142500    294.07413   -1444.4077    543.71281    425.56932   -277.72512     37926.35 
  142600    291.53504   -1512.8682    510.49842     312.4432   -229.35054     37926.35 
  142700    308.82259   -1495.0099    520.33509    418.10448    93.074943     37926.35 
  142800    294.46988   -1499.1712     494.4876    323.36544    317.42901     37926.35 
  142900    291.47525     -1517.54    492.38803    289.39137    142.34452     37926.35 
  143000    303.81391   -1504.1893    555.21725    421.21819    40.243592     37926.35 
  143100    288.37452   -1500.6329    494.27597    294.20227    174.86113     37926.35 
  143200    292.49265   -1498.2819    517.83819    338.68811   -347.07627     37926.35 
  143300    292.06723   -1523.1202    482.19141    276.28443   -372.13548     37926.35 
  143400    306.47222   -1495.6297    512.36203    398.91148   -176.76446     37926.35 
  143500    307.49008   -1509.4274    510.75286    388.09514   -190.47653     37926.35 
  143600    297.43103    -1468.902    515.68996     388.1917     324.3869     37926.35 
  143700    302.52473   -1529.7673    498.93155    333.54038   -260.54673     37926.35 
  143800    297.34508   -1489.7994    497.00366    348.22033    95.880274     37926.35 
  143900     305.1344   -1453.8674    521.73675    444.01495   0.14017387     37926.35 
  144000    299.74521    -1531.687    530.50515    350.65875   -227.31409     37926.35 
  144100    289.91283   -1496.4793     478.0336    289.05123   -214.43865     37926.35 
  144200    301.04219   -1539.3713     508.1541    326.47271    102.41249     37926.35 
  144300    291.83453   -1544.1807     518.4832    290.46625     379.8474     37926.35 
  144400    294.97549   -1570.6992    498.65722     258.2873    332.77187     37926.35 
  144500    307.42731   -1508.9801    506.70948    384.21597    47.763213     37926.35 
  144600    301.79198   -1537.3157    500.17135    323.92706   -74.201064     37926.35 
  144700    301.85373   -1564.2879    520.90146    317.96346    34.408992     37926.35 
  144800    297.49235   -1540.6298    471.99331    273.04381   -55.858678     37926.35 
  144900    296.23611    -1496.461    491.97976    331.53346    10.678189     37926.35 
  145000    299.89189   -1512.6479    508.62433    348.47852   -79.572184     37926.35 
  145100    289.64678   -1560.4469    503.87533    249.72541   -109.42748     37926.35 
  145200    285.49485   -1542.6659    510.44143     255.3475    322.39035     37926.35 
  145300    300.03776    -1543.257     509.4465    319.34945    289.06389     37926.35 
  145400    299.94765   -1525.4578    499.05227     326.3481     441.4591     37926.35 
  145500    312.74673   -1524.6794    490.30975    376.10736    654.85989     37926.35 
  145600    313.32795   -1551.4215    495.29362    356.97042    375.87252     37926.35 
  145700    301.90534   -1571.1736     506.5714    296.98053   -9.5429729     37926.35 
  145800    299.72801   -1528.4592    499.54963    322.85346   -367.45567     37926.35 
  145900     294.3544   -1560.1078     495.2104    262.63081    99.565222     37926.35 
  146000    298.45667   -1537.0459    515.47184    324.45531   -657.88203     37926.35 
  146100    300.35297   -1533.8089    509.26872    330.04139   -272.39967     37926.35 
  146200    291.46376   -1550.2257    489.37237    253.63825   -4.3367911     37926.35 
  146300     305.2299   -1519.1287    511.76587    369.21353   -326.80857     37926.35 
  146400    303.00361   -1528.9312    504.25334    341.85797    205.44857     37926.35 
  146500    305.20238   -1572.1836    499.77715    304.04575    -191.0833     37926.35 
  146600    298.42438   -1543.5056    526.10824    328.48636    324.46979     37926.35 
  146700    294.32844   -1502.4755    504.22195    329.15761    476.26543     37926.35 
  146800    298.16443   -1526.0425    523.22853    341.89732    492.83649     37926.35 
  146900    303.32455   -1490.0627    509.66304    387.58365     648.0162     37926.35 
  147000    302.17196   -1510.5101    510.73818    363.01326    319.09068     37926.35 
  147100    290.16735   -1569.1533    514.40242     253.8939    251.98806     37926.35 
  147200    296.59916   -1542.5585    497.52419    292.61771    243.45706     37926.35 
  147300    289.65016   -1567.0573    495.89349    235.14847    332.97435     37926.35 
  147400    305.14004   -1524.3113    496.07012    347.92992    13.949791     37926.35 
  147500    294.14307   -1517.6868    500.58412    309.47246   -444.56586     37926.35 
  147600    295.19886   -1574.1086    518.95716    276.18526    -58.87957     37926.35 
  147700    303.01291   -1531.2149    502.19695    337.55983   -78.555057     37926.35 
  147800    295.70336   -1599.5493    461.86341    195.92612   -99.714888     37926.35 
  147900     309.0841   -1538.3916    505.07925    360.64632    -430.9406     37926.35 
  148000    308.32766   -1539.7804    510.74058    361.50729   -228.24449     37926.35 
  148100    299.80109   -1507.4341    529.09872     373.7572   -119.89217     37926.35 
  148200    296.21674   -1527.2958    489.87731    298.50878   -193.37575     37926.35 
  148300     294.4344   -1478.6283    534.52394    383.78469   -388.08374     37926.35 
  148400     298.9417   -1548.2515    477.35098    277.31626   -346.44426     37926.35 
  148500    290.61836   -1547.0385    505.28929    268.92961   -597.11125     37926.35 
  148600    303.39263   -1543.5236    505.62866    330.39536   -161.56945     37926.35 
  148700    298.38289   -1579.1135    496.85503    263.43816   -624.90139     37926.35 
  148800    301.65742   -1539.0547    485.32952    306.73937   -731.83724     37926.35 
  148900    304.11826   -1501.7184    515.30633    385.15086   -314.21785     37926.35 
  149000    305.36517   -1545.2716    477.58141    309.49624   -102.37126     37926.35 
  149100    302.66439   -1553.4674    485.70373    297.24232    9.1615317     37926.35 
  149200    299.22421   -1528.9923    488.07705    308.57562    94.174833     37926.35 
  149300    298.60005   -1559.2686    513.33936    300.74675    522.11804     37926.35 
  149400    303.16317   -1542.9695    479.61202    303.89801    325.47734     37926.35 
  149500    302.40318   -1559.2353    495.69552    300.28821   -236.90788     37926.35 
  149600    299.88636   -1536.7802    488.41972    304.11662    -740.2455     37926.35 
  149700    301.02457   -1562.1725     504.9726    300.41057   -159.15041     37926.35 
  149800    303.13125   -1589.2268    505.27863    283.16331   -130.97725     37926.35 
  149900    301.15227   -1600.3508    495.05603    252.89156   -23.342099     37926.35 
  150000    302.01828    -1575.434    526.53107    313.18916    242.49761     37926.35 
  150100    301.91483    -1586.829    459.56516    234.36165    497.41548     37926.35 
  150200    299.64124   -1563.1642    481.38349    269.59099    299.82612     37926.35 
  150300    304.87617   -1537.2636     526.0312    363.74861    133.95173     37926.35 
  150400    295.75373   -1551.9676    481.66651    263.53813   -130.14201     37926.35 
  150500    302.03213   -1552.6616    500.79563     310.2886   -269.08251     37926.35 
  150600     306.5972   -1528.8889    501.18065    355.03456   -208.39207     37926.35 
  150700     305.6843   -1537.5636    486.98818    328.05029   -761.59308     37926.35 
  150800     301.5937   -1580.7037    499.80156    279.27505   -1249.3493     37926.35 
  150900    292.66151    -1511.975    470.14485    278.06323   -887.41313     37926.35 
  151000    306.53269     -1544.66    523.59776     361.3897   -636.75321     37926.35 
  151100    290.10643   -1565.9116    477.82204    220.28045   -483.08846     37926.35 
  151200    307.99912   -1578.8403    485.55186    295.77697    84.134942     37926.35 
  151300    299.30434   -1548.0169    508.94849    310.78383   -543.78315     37926.35 
  151400    302.80708    -1540.137    502.24238    327.75488   -443.46319     37926.35 
  151500    305.61787   -1586.9911    475.55871     266.8937     30.17129     37926.35 
  151600    296.50149   -1524.9633    476.28605    288.53425   -67.376062     37926.35 
  151700    303.74624   -1528.9804     510.6399     351.5446    456.40647     37926.35 
  151800    295.14099   -1535.4995    497.80049    293.37668    625.58337     37926.35 
  151900    299.86732   -1546.4299    491.97931    297.94075    828.04967     37926.35 
  152000    307.85885   -1530.9566    505.04063     362.5168    1029.6505     37926.35 
  152100    305.59569   -1484.2023    497.46046    391.48423    580.47813     37926.35 
  152200    298.30411   -1475.3042    499.54851    369.58553    1014.3926     37926.35 
  152300    313.44553   -1508.5539    488.99876    394.07346    553.03138     37926.35 
  152400    303.82387    -1507.094    483.55714    346.69835    241.75601     37926.35 
  152500    294.84598    -1523.183    499.44208    306.00431   -442.87397     37926.35 
  152600    300.59624   -1531.5025    518.10829    342.28454   -320.07393     37926.35 
  152700     303.0031   -1515.2303    481.89805    333.20127   -293.15509     37926.35 
  152800    308.07903   -1482.7397    525.07131    431.75747     106.0854     37926.35 
  152900    302.08454   -1505.4281    525.87932     382.8421    51.001183     37926.35 
  153000    308.69647   -1472.9947     501.8837    421.09944    493.62018     37926.35 
  153100    291.14273   -1471.2863    532.82109    374.57845    579.81698     37926.35 
  153200    304.47295   -1480.5313    503.09312    395.72436    262.26921     37926.35 
  153300    307.63733    -1509.253    524.03814    402.21895    434.61832     37926.35 
  153400    300.28983   -1530.8886    494.51861    317.92678   -408.63088     37926.35 
  153500    300.02954   -1535.0389    494.37818    312.46221   -162.69105     37926.35 
  153600    301.44795   -1512.9277    483.38756    329.97972    17.117911     37926.35 
  153700    297.23331   -1565.3796    492.02961    267.16197    6.7517024     37926.35 
  153800    292.98043   -1526.3344    523.24355    318.24079    307.11043     37926.35 
  153900    290.88309   -1486.8272    532.67646    357.72199    389.71922     37926.35 
  154000    298.68563   -1490.8158    542.79827    399.04446     67.78842     37926.35 
  154100    311.80356    -1542.224    497.91717    361.91648    212.95698     37926.35 
  154200    314.80583   -1506.5217    494.93212    408.17386     65.70037     37926.35 
  154300    295.54442   -1453.8448    524.87899    403.92932   -371.16878     37926.35 
  154400     301.8673   -1510.7354    479.81119     330.4869   -355.94027     37926.35 
  154500    314.64379   -1519.9344    521.54434    420.64259   -942.83872     37926.35 
  154600    302.21765   -1525.1261    510.78682    348.65191    54.782251     37926.35 
  154700    309.91985   -1509.7652    512.47073    400.43334    621.58049     37926.35 
  154800    291.59354   -1519.3615     519.7586    315.47398   -0.8558075     37926.35 
  154900    297.24255   -1475.3696    534.23912    399.42323    60.340866     37926.35 
  155000    302.15251   -1458.5125     525.6848    429.86976   -148.96681     37926.35 
  155100    293.83669   -1523.7514    505.38262     306.8246    389.65734     37926.35 
  155200    287.05566   -1495.1544    500.99168    300.44839   -33.703287     37926.35 
  155300    305.27364   -1485.2078    521.52619    413.09203    442.04538     37926.35 
  155400    299.69397   -1463.6984    519.73455    407.64562   -239.89663     37926.35 
  155500    293.57468   -1495.1246    517.33232    346.21943    983.62313     37926.35 
  155600    309.79889   -1530.3562    507.56721    374.39328    901.87241     37926.35 
  155700     298.8159   -1520.8617    534.86715    361.65488    834.55011     37926.35 
  155800    298.25165   -1537.2544    512.71172    320.56198    381.91221     37926.35 
  155900    287.24202   -1561.8401    515.55657    249.16811    554.55834     37926.35 
  156000    292.77531   -1579.7102    503.57774    244.27407    278.64851     37926.35 
  156100    303.46768   -1551.7392     509.4663    326.35594    979.64879     37926.35 
  156200    287.43887   -1547.9122    518.81526    267.24248    674.58642     37926.35 
  156300    292.83202   -1560.0852    533.41785    293.99501   -39.678878     37926.35 
  156400    291.30071   -1535.1044    487.71989    266.37168    70.291766     37926.35 
  156500    304.45532   -1532.2939    519.24499    360.03409    452.24736     37926.35 
  156600    302.21071   -1491.2452    499.31857    371.03333    61.097959     37926.35 
  156700    302.89911   -1556.1279    496.90468    306.84136  -0.80532136     37926.35 
  156800    300.24535    -1505.603    531.82646    380.31964    401.34803     37926.35 
  156900    306.22932   -1503.3394    502.05673    379.80105   -157.59689     37926.35 
  157000    298.40193   -1500.2992    511.13979      356.623    98.842141     37926.35 
  157100    299.13566   -1531.1394    504.99775    322.94992    149.13165     37926.35 
  157200    296.07879   -1489.7876    521.80948    367.32706    32.415417     37926.35 
  157300     302.2889   -1464.4255    505.49502    404.38211    128.02064     37926.35 
  157400    300.20936   -1486.8339    516.44974    383.54968    410.92354     37926.35 
  157500    304.93033   -1480.7787    500.23129    394.67789   -139.66508     37926.35 
  157600    305.48205   -1473.5444    507.74099    411.91019    168.94399     37926.35 
  157700    290.02031   -1562.7818     475.2545    220.45431   -561.03659     37926.35 
  157800    291.79899   -1520.4183    510.72523    306.31038   -236.63073     37926.35 
  157900    300.88688   -1507.7992    497.87008    347.06037   -486.58411     37926.35 
  158000    302.48704   -1477.7431    520.00732    406.47042   -14.519117     37926.35 
  158100    299.91345   -1510.8513    499.69989    341.44794   -152.19197     37926.35 
  158200     302.6424   -1552.8997    473.84594    285.85304    -35.57534     37926.35 
  158300    289.25184   -1495.1526    513.02989    322.39316    111.35787     37926.35 
  158400    303.80882    -1492.572    507.72781     385.3232   -77.777109     37926.35 
  158500    293.36731   -1498.3345     525.2402    349.98213   -74.459196     37926.35 
  158600    303.01462   -1534.9152    502.30711    333.97738    339.84101     37926.35 
  158700    294.20929    -1547.496    493.17907    272.55685    559.92518     37926.35 
  158800    292.33169   -1534.4456    519.71848    303.67872    272.34883     37926.35 
  158900    305.72179   -1557.5389    483.40016      304.656    207.61214     37926.35 
  159000    305.19711   -1495.4198    466.67019    347.67881   -707.45887     37926.35 
  159100    303.65144   -1549.9393    489.56873    309.08701   -335.59213     37926.35 
  159200    306.06674   -1574.2417    504.28919    310.39801   -243.27737     37926.35 
  159300    289.93079   -1524.5823    492.66816    275.66382   -73.946674     37926.35 
  159400    291.06516   -1530.1629    488.76702    271.29796   -128.96377     37926.35 
  159500    298.12858   -1544.5414     503.4428    303.45103   -587.28604     37926.35 
  159600    303.74141   -1561.6196    503.02408     311.2678   -241.19743     37926.35 
  159700    301.64296    -1574.306    499.25472    285.34814   -233.26819     37926.35 
  159800    297.28046   -1584.0782    483.87733    240.52379    431.32511     37926.35 
  159900    309.28209   -1563.9969    500.06979    330.92447    161.97499     37926.35 
  160000    310.00113   -1573.7084    485.20723     309.5933    315.29386     37926.35 
  160100    338.13089   -1558.9691    471.20669    437.19621    555.38481     37926.35 
  160200    299.77016   -1560.1709    495.05244    286.83461    224.19018     37926.35 
  160300    299.93516   -1558.9576    473.93534      267.675    22.190941     37926.35 
  160400    298.22542   -1549.7352    474.00857    269.25976    254.34274     37926.35 
  160500     300.9127    -1587.245    465.14276    235.00364    560.96234     37926.35 
  160600    307.83278   -1626.4883    487.28951    249.11645    617.88668     37926.35 
  160700    304.39355    -1554.397    477.16377    295.57117    227.37601     37926.35 
  160800    296.80927   -1567.6606    502.52378    273.46277   -204.98961     37926.35 
  160900     295.1873     -1548.97     514.5087    296.82332   -50.604428     37926.35 
  161000    294.17491   -1540.9334    459.73607    245.52142   -423.43125     37926.35 
  161100    304.17907   -1536.8301    506.69728    341.70431    -100.0369     37926.35 
  161200    303.52453    -1523.179    493.55101    339.25718    519.02453     37926.35 
  161300    301.21928   -1580.9254     501.9887    279.55185    303.03447     37926.35 
  161400    301.02557   -1530.3508    532.71823    359.98244   -160.16944     37926.35 
  161500    296.61264   -1567.5601    496.82744    266.98012   -193.82642     37926.35 
  161600    293.14821   -1528.7735    508.99648     302.3113   -226.05987     37926.35 
  161700     295.6409   -1542.4645    514.01539    304.88112   -60.369222     37926.35 
  161800    295.96722   -1564.3438    475.96958    246.42774   -151.77796     37926.35 
  161900    296.89253   -1546.6687    527.67861    319.98508    401.78778     37926.35 
  162000    303.32022   -1530.4595    500.73454    338.23874    172.33322     37926.35 
  162100     307.8872   -1537.1817    477.30892    328.68786    21.253685     37926.35 
  162200    302.56142   -1546.9075    497.38206     315.0162    25.266009     37926.35 
  162300     290.9962   -1560.7502    510.57577    262.20841    42.214883     37926.35 
  162400    292.66318   -1550.8681    511.86889    280.90165   -163.54753     37926.35 
  162500    292.02721   -1559.7127    521.67216    278.99215   -143.44862     37926.35 
  162600    297.06022   -1530.5862    499.51194    308.65709   -381.47564     37926.35 
  162700    292.62207   -1540.5504    507.24797    286.41305   -491.18218     37926.35 
  162800    290.63758   -1528.0408    484.13803    266.86272   -469.12621     37926.35 
  162900    297.58237   -1563.7039    520.14488    298.52724   -232.72178     37926.35 
  163000    304.42766   -1546.6674      483.889    310.17986    394.92468     37926.35 
  163100    306.10547    -1576.153    508.09472    312.46683   -162.85527     37926.35 
  163200    300.32922    -1585.868    490.96309    259.56957    195.95526     37926.35 
  163300    294.56896   -1551.6139    491.47751    268.35947   -8.5322152     37926.35 
  163400      301.151   -1522.3471    517.37523    353.20883   -568.23472     37926.35 
  163500    305.20979   -1497.1199    507.12958    386.49533   -621.23708     37926.35 
  163600    297.80993   -1550.8822    504.57372    296.80405   0.42369348     37926.35 
  163700    294.21763   -1564.5077    511.57005     273.9737    259.64717     37926.35 
  163800    298.09378   -1533.8855    510.97981    321.48702    384.62423     37926.35 
  163900    288.42497   -1547.5277    515.72859    268.98763    92.771647     37926.35 
  164000    297.68004   -1557.5615    496.78277    281.74804   -180.81344     37926.35 
  164100    311.41872   -1555.6396    503.35368    352.20177   -592.13004     37926.35 
  164200    301.78633   -1559.7415    480.92504     282.2295   -1004.6922     37926.35 
  164300    295.26277   -1568.2445    496.91193    260.29235   -1070.9777     37926.35 
  164400    302.18075   -1604.3446    497.89604    256.37623   -913.25397     37926.35 
  164500    295.88974   -1583.6922    488.98371    239.74405   -455.39125     37926.35 
  164600    297.37579   -1561.7805    514.97446    294.34859   -691.25532     37926.35 
  164700    296.46339   -1521.5622    509.18145     324.6589   -489.79797     37926.35 
  164800    302.12421   -1542.6158    474.68083    294.63486   -502.68837     37926.35 
  164900    297.02226   -1542.7509    517.46272    314.27205   -542.79812     37926.35 
  165000    294.87154    -1542.611    523.51228    310.76177   -166.47753     37926.35 
  165100    298.40507   -1516.6048    496.27781    325.46959   -334.10887     37926.35 
  165200    298.15853   -1538.1995    524.14618    330.63141   -296.38596     37926.35 
  165300    291.78437   -1513.9629    525.01008     326.9847   -321.27528     37926.35 
  165400    303.72058   -1524.3923    499.64122     345.0183   -357.00487     37926.35 
  165500    306.83939   -1531.8502    521.81135    373.79619    268.38207     37926.35 
  165600    306.12742   -1548.1616    509.97838    342.44088   -35.478565     37926.35 
  165700    302.82378   -1531.3396    502.85155    337.23681   -7.9255847     37926.35 
  165800    295.22582    -1523.176    507.32777    315.61009   -71.552233     37926.35 
  165900    314.61524   -1580.7858    473.18826    311.30637    156.47959     37926.35 
  166000    296.51976   -1557.6746    510.22813    289.84751    30.340715     37926.35 
  166100    311.04296   -1576.8532     504.2312    330.17111   -36.712544     37926.35 
  166200    307.71734   -1553.3607    518.51186    352.94585    -200.2202     37926.35 
  166300    318.89336   -1506.9148    531.45804    462.74135   -94.134111     37926.35 
  166400    288.31828   -1538.6828    514.20537    275.82815   -341.34094     37926.35 
  166500    293.54102   -1534.7717    487.94513     277.0333   -485.12131     37926.35 
  166600    306.95799   -1563.0578    545.45253    366.76472   -76.596967     37926.35 
  166700    301.23966   -1630.8394    469.07557    196.81671    230.11386     37926.35 
  166800    298.44256   -1593.1308    516.67994    269.51479    245.11385     37926.35 
  166900    290.42878   -1604.9185    521.89152    226.79688   -664.56275     37926.35 
  167000    305.68627   -1603.3234     506.0962    281.40738   -30.882568     37926.35 
  167100    301.27401   -1587.3019    493.95509    265.38859   -164.25248     37926.35 
  167200    292.74798   -1569.2088    537.29586    288.37041    76.830902     37926.35 
  167300    306.38339   -1601.1818    504.50364     285.1004    124.09394     37926.35 
  167400    295.54826   -1606.7662    517.80156    243.94779   -42.851123     37926.35 
  167500    291.51275   -1590.5711    501.80183    225.94324   -846.15449     37926.35 
  167600    289.67096   -1615.2958    490.14217    181.25237   -957.91449     37926.35 
  167700    298.96034   -1592.0436    506.59544    262.85272   -560.03623     37926.35 
  167800     293.2503   -1604.3134     502.5903    220.82572   -101.64253     37926.35 
  167900    298.01664   -1608.3256    504.03446    239.75361    559.51399     37926.35 
  168000    295.05492   -1572.2004    518.35242    276.83958    627.75797     37926.35 
  168100    297.59774   -1601.5549     503.2081    243.80881   -150.55543     37926.35 
  168200     295.0869   -1558.4435    498.54999    270.93823    88.337481     37926.35 
  168300    307.00351   -1529.8948    498.69018    353.37072    288.82626     37926.35 
  168400     292.4036   -1527.3939     491.9831    283.31937   -109.16779     37926.35 
  168500    302.94888   -1600.1853    506.45994    272.56366    98.866115     37926.35 
  168600    296.52329   -1576.2459    525.83184    286.89576    7.6626354     37926.35 
  168700    310.88325   -1582.2887     521.6203    341.40437   -408.47446     37926.35 
  168800    293.36529   -1579.9114     490.8315    233.98753   -220.58678     37926.35 
  168900    311.11118    -1582.576    555.64477    376.16949   -170.32732     37926.35 
  169000    303.98943   -1559.6566    488.46649    299.79175   -203.62639     37926.35 
  169100    292.83009   -1534.1919    524.57437    311.03609   -78.467652     37926.35 
  169200    297.37055   -1572.2509    522.76099    291.64101   -250.84232     37926.35 
  169300    306.98125   -1535.2215     508.1353    357.38866   -21.648807     37926.35 
  169400    291.44478    -1588.724    508.23361    233.91558    227.06133     37926.35 
  169500    308.28619   -1575.1793    490.23905    305.41987    291.94977     37926.35 
  169600    304.14497   -1578.3914    532.25635    325.54835    497.21141     37926.35 
  169700    308.10475   -1628.5372    504.91639    265.92103    26.998163     37926.35 
  169800    296.93687   -1575.1525    507.55631    271.57889    109.29359     37926.35 
  169900     295.7232    -1599.486    507.49808    241.71352   -797.41835     37926.35 
  170000    302.93994   -1557.4922    511.68457    320.44109    66.937038     37926.35 
  170100    308.67628   -1502.1042    497.92151    387.93671   -91.191688     37926.35 
  170200    306.91409   -1528.4181    525.39671    381.15062    -294.2751     37926.35 
  170300    307.98303   -1565.9604    496.89374    319.92626    113.70365     37926.35 
  170400    296.84686   -1566.2046    492.27671    264.84126    63.231735     37926.35 
  170500    290.51913   -1540.9702    513.33777    282.59884    478.67213     37926.35 
  170600     300.1743   -1513.6697    536.98369    377.08978    485.16652     37926.35 
  170700    305.54663   -1528.3649    491.91387    341.55372   -269.52092     37926.35 
  170800    302.62138   -1582.3601    512.97011    295.42207    322.84863     37926.35 
  170900     305.6069    -1544.403    513.25406    347.12772    117.28198     37926.35 
  171000    303.55377   -1538.3058    527.01866    357.72988   -369.17313     37926.35 
  171100    292.44908   -1501.0166    524.84962     342.7683   -701.33328     37926.35 
  171200    302.48937   -1537.6259    496.71156     323.3023   -557.48964     37926.35 
  171300    307.34536   -1579.0985    485.86719    292.88571   -291.08568     37926.35 
  171400    293.69453     -1511.26     517.3968      330.689   -218.27384     37926.35 
  171500    301.22662   -1544.9324    523.38757    336.97687   -436.41884     37926.35 
  171600    309.55247     -1523.99    514.96408     387.0451    299.14722     37926.35 
  171700    305.63595   -1540.0554    494.40636    332.75853    395.79202     37926.35 
  171800    302.98379      -1524.7    517.32309    359.06953   -18.017225     37926.35 
  171900    298.44534   -1509.2914    516.10869    352.79554   -184.31723     37926.35 
  172000    303.39865   -1489.7762    523.18068    401.72198   -124.34537     37926.35 
  172100    303.90877   -1525.0293    508.43955    354.02838   -175.48084     37926.35 
  172200    289.04061   -1578.5725    519.46317    244.45387   -152.81353     37926.35 
  172300    295.97201   -1511.8675    538.38931    361.34542    185.83185     37926.35 
  172400    300.98587   -1541.6936    519.69786    335.44015    -248.4803     37926.35 
  172500    307.56743    -1538.054    491.56993     340.6345   -265.15714     37926.35 
  172600     299.0589   -1578.6743    470.95156    241.02264    72.446662     37926.35 
  172700    303.75041   -1561.8979    494.94696    302.95302   -338.11607     37926.35 
  172800    294.79915    -1576.386    482.40717    235.55522    -433.4398     37926.35 
  172900    304.17131   -1555.1969    503.12262    319.72785   -293.12766     37926.35 
  173000     304.4219   -1535.8977    499.64638    336.68094    284.21664     37926.35 
  173100    301.18517   -1569.3617    526.03347    315.00655     287.0088     37926.35 
  173200      297.024   -1567.7491    482.64584    254.46479   -60.840928     37926.35 
  173300    303.51676   -1575.9801    536.40631    329.27635    270.15795     37926.35 
  173400    299.95826   -1575.4054    494.18713    271.58315   -536.22758     37926.35 
  173500    307.13352   -1553.3552    539.95838    371.76482   -616.85757     37926.35 
  173600    300.90784   -1495.6547    531.02199     392.4513   -94.925357     37926.35 
  173700    304.33041   -1493.8339    517.60473    396.29053    -499.4577     37926.35 
  173800    308.44196    -1533.652     500.2997    357.71034    246.67589     37926.35 
  173900    299.13344   -1527.6995    549.24209    370.62409   -229.88912     37926.35 
  174000    302.98449    -1529.823    502.87375    339.50036    562.96529     37926.35 
  174100    302.66549   -1536.9618    541.23299    369.28209     179.5006     37926.35 
  174200    302.40772   -1570.3948    488.64012    282.09372     -632.948     37926.35 
  174300    303.13481   -1576.0314    527.99043    319.08665    -452.5304     37926.35 
  174400     302.3514    -1591.539    513.75848    285.81382   -386.80762     37926.35 
  174500    293.88988   -1581.9484    502.57821    246.06311   -291.28069     37926.35 
  174600    307.86338   -1584.2978    551.86573    356.02123    -689.7358     37926.35 
  174700     300.8329   -1561.6999     482.5878    277.63392   -161.24726     37926.35 
  174800    293.23845   -1551.4011    521.38604    292.48031    -517.0707     37926.35 
  174900    293.25175   -1588.0833    515.29109    249.76306   -532.28108     37926.35 
  175000     298.3208    -1546.077    507.87715    307.21669   -120.07729     37926.35 
  175100    303.88319   -1560.4006    517.26495    327.36708    247.50571     37926.35 
  175200    304.92713   -1573.9366    487.62081    288.89508    297.57821     37926.35 
  175300    295.40424    -1547.709     518.4901    303.04406    736.17702     37926.35 
  175400       295.47   -1555.0131    531.57538    309.12184    466.65202     37926.35 
  175500    308.29174   -1572.6439    495.92011    313.66134    316.27072     37926.35 
  175600    300.66907   -1557.4997    516.80129    315.30875    75.481087     37926.35 
  175700    289.55493   -1586.1893    510.85742    230.55089     492.1623     37926.35 
  175800    295.26436   -1606.2387    534.84583     260.2392    306.84419     37926.35 
  175900     295.0517   -1593.0266    538.57359    276.22003   -277.50613     37926.35 
  176000      288.536   -1576.1264    541.33149    266.49254   -137.52264     37926.35 
  176100    294.73067   -1589.5069    492.40539     232.1237   -595.29405     37926.35 
  176200    294.68478   -1604.0841    486.47253    211.40669   -680.01091     37926.35 
  176300    307.04846   -1585.1418    505.35097    304.98717   -440.63106     37926.35 
  176400     296.3768   -1525.3861    491.57705    302.84012   -150.60337     37926.35 
  176500    299.96571   -1537.0436    495.55802    311.34948   -222.03787     37926.35 
  176600    313.77109   -1542.6889    527.14882    399.55676    389.64425     37926.35 
  176700    302.27705   -1533.1945    507.74426    337.80887     215.2073     37926.35 
  176800    306.28344   -1560.7988    507.56748    328.09648   -15.991841     37926.35 
  176900    293.05724   -1579.8369    501.48874    243.32995    -258.5986     37926.35 
  177000    308.08916   -1580.7124    519.27401    328.03316   -312.78749     37926.35 
  177100    298.11267   -1570.8062    482.98304    256.65474   -692.97332     37926.35 
  177200    302.77629   -1570.7244    506.38842    301.17473   -504.97132     37926.35 
  177300    307.98387   -1614.5564     496.1385     270.5788   -385.30348     37926.35 
  177400    289.86146   -1586.6377    493.86267    214.49021     474.8238     37926.35 
  177500    302.46385   -1586.9074    505.85733     283.0515    313.60858     37926.35 
  177600    302.48208   -1579.0971    507.43665    292.52336    209.74305     37926.35 
  177700     305.5871   -1575.1347    530.28142    333.33401    326.95004     37926.35 
  177800     293.9673   -1546.6564    508.42851    287.55447    99.052211     37926.35 
  177900    310.18114   -1547.2482    518.61101    370.26903    571.54953     37926.35 
  178000    303.42548   -1558.5945    520.07142    329.91541    361.77746     37926.35 
  178100    306.33765   -1567.0668    479.42594    293.93142   -71.376532     37926.35 
  178200     300.5381   -1546.5622    534.91666    343.77092    117.25893     37926.35 
  178300    297.09026   -1541.8882    530.23883    328.21754    211.34508     37926.35 
  178400    315.93977   -1602.0632    524.75091    347.56518    207.90092     37926.35 
  178500    297.47639   -1571.1476    521.47361    291.93427   -114.43856     37926.35 
  178600    291.42302    -1575.969    523.35548    261.69425   -370.11361     37926.35 
  178700    296.59415   -1572.1268    515.52762    281.03021    132.69749     37926.35 
  178800    305.02568   -1587.1262    502.01791      290.547    70.949299     37926.35 
  178900    311.92589   -1599.9961     512.1808    318.95973   -350.11267     37926.35 
  179000    295.98541   -1616.0277    521.78614    240.64249   -211.43145     37926.35 
  179100    295.49489     -1573.87    506.95126    265.75312   -572.38782     37926.35 
  179200    291.05469   -1554.6946    523.06821    281.02026   -287.08271     37926.35 
  179300     301.1136   -1571.9692     526.3717    312.41442   -296.54624     37926.35 
  179400    304.22081   -1527.3827    508.71027    353.35295   0.78884849     37926.35 
  179500    305.61374   -1528.4152    510.57946     360.4717    40.950353     37926.35 
  179600    298.89522   -1562.2501    484.95045    270.70751   -204.66328     37926.35 
  179700    302.94604   -1512.2969    498.94401     352.9233   -311.97656     37926.35 
  179800    312.98935   -1530.6555    520.90388    401.81958   -255.89095     37926.35 
  179900    299.39336   -1533.0163    525.12604    342.36346   -505.59258     37926.35 
  180000    293.92213   -1524.1649    525.34806    326.76183   -175.07381     37926.35 
  180100    295.45383   -1521.2862    503.78393    314.98433    55.742488     37926.35 
  180200    293.03684   -1554.2208    512.94462    280.30985   -258.54441     37926.35 
  180300    292.66509   -1568.1157    485.53819    237.33195    28.783323     37926.35 
  180400    292.28094   -1564.0519    515.95518    270.08023    260.81247     37926.35 
  180500    294.41421   -1551.6639    550.09151    326.22551    104.37055     37926.35 
  180600    313.01415   -1581.6113    494.04121    324.11296      457.116     37926.35 
  180700    302.49792   -1563.0138    485.51642    286.75788    692.13723     37926.35 
  180800    294.22685   -1573.6263    519.87064    273.19731      511.561     37926.35 
  180900    302.20146   -1542.8116        498.8    318.90654    371.69642     37926.35 
  181000    299.15429   -1529.2249    519.83184    339.78251    976.32845     37926.35 
  181100    300.24191   -1550.7188    516.35308    319.71496     768.6347     37926.35 
  181200    300.53384   -1549.0155    521.21536    327.59718    378.83224     37926.35 
  181300    293.13583   -1547.4498    513.51573    288.09844   -250.76299     37926.35 
  181400    303.58357   -1552.4058    511.73547    328.48115   -10.745014     37926.35 
  181500    306.86951   -1496.5528    523.72123    411.13936   -343.57351     37926.35 
  181600    302.58069   -1514.0497    494.19268    344.77151   -177.37498     37926.35 
  181700    304.38123   -1529.2021    512.19514     355.7419    93.686251     37926.35 
  181800    297.39324    -1528.188    521.97905    335.02437   -518.35724     37926.35 
  181900    302.50984   -1545.4535    511.96696    330.82248     286.7383     37926.35 
  182000    308.15509   -1569.7006    509.83353    329.90183    -62.89182     37926.35 
  182100    301.77021   -1533.9235    502.32599    329.37578    45.388974     37926.35 
  182200    306.42626   -1550.6753     530.2668    361.56339   -45.874528     37926.35 
  182300    299.83666   -1525.3485    495.85545    322.75997    20.134148     37926.35 
  182400    291.81336   -1516.7738    504.93905    304.23342   -491.43656     37926.35 
  182500    295.15512   -1538.6505    517.83077    310.31971    -738.8318     37926.35 
  182600    296.67164   -1547.4235    523.11199    313.66739   -764.60066     37926.35 
  182700    292.01185   -1533.7037    519.00334    302.26302   -819.10892     37926.35 
  182800    309.47965   -1556.7573    491.31849    330.30372   -766.40262     37926.35 
  182900    310.67158   -1545.0822    542.27338    398.30931   -603.18794     37926.35 
  183000    292.57244     -1536.64    507.75333    290.60499   -615.80695     37926.35 
  183100    305.22808   -1548.6953    501.86147     329.7343   -867.46411     37926.35 
  183200    299.14036   -1557.2638    501.66861    293.51757   -1211.0893     37926.35 
  183300    304.69413   -1522.7632    525.52617    376.92305   -696.98221     37926.35 
  183400    293.86464   -1547.8824    516.03823    293.47524   -323.23483     37926.35 
  183500    304.86447   -1510.1358     531.0232    395.81571   -358.57774     37926.35 
  183600    291.79092   -1542.2825    491.99782    265.68235   -163.26877     37926.35 
  183700    297.75022   -1488.8608    531.23816    385.22064   -983.01724     37926.35 
  183800      293.406   -1478.7854    526.33921    370.80476   -809.66623     37926.35 
  183900    298.38712   -1513.3672    507.59363    339.94214   -630.30524     37926.35 
  184000    306.67045   -1559.3829    495.40057     319.0908   -615.95476     37926.35 
  184100    289.13046   -1572.9407    499.95192    230.97969   -510.82515     37926.35 
  184200      297.221    -1540.024    508.07646    308.50892   -232.07659     37926.35 
  184300    355.21037   -1530.5127    462.08483    533.55866    362.93409     37926.35 
  184400    268.08615   -1521.0327    479.35849    167.38512   -696.19159     37926.35 
  184500    276.63937   -1516.6342    552.05052    283.05041   -803.46195     37926.35 
  184600     304.0009   -1505.1755    488.51804    354.37618   -161.38145     37926.35 
  184700    306.31113   -1518.7847    522.83505    385.50303   -145.19113     37926.35 
  184800    301.89821   -1522.6692    501.09088    339.97221    78.587718     37926.35 
  184900    310.43154   -1531.5471    502.76788    371.25631    139.16792     37926.35 
  185000    304.41017   -1554.8227    530.04972    348.10646   -233.83464     37926.35 
  185100    299.20678     -1569.76    489.07299    268.72532   -377.54174     37926.35 
  185200    302.01593   -1531.3192     496.8963     327.6585   -136.79478     37926.35 
  185300    308.93126   -1521.5391    486.48643    358.21673     110.5021     37926.35 
  185400    309.74109   -1529.0149    498.75031     366.6571    355.44371     37926.35 
  185500    299.46536   -1515.9496    513.30858    347.93742    764.86418     37926.35 
  185600    301.42988     -1506.55    510.18282    363.07124    933.81101     37926.35 
  185700    289.23129   -1547.1147    496.93024    254.23875    1270.4239     37926.35 
  185800    305.80598   -1568.0163    521.77191    332.93007    742.18688     37926.35 
  185900    292.46669   -1550.2071    481.04463    249.85224    866.14499     37926.35 
  186000    295.18081   -1542.7336     501.0157    289.53739    118.44875     37926.35 
  186100    298.90252   -1524.6825    511.79237    335.14996   -268.82548     37926.35 
  186200    300.04794   -1497.1845    505.35987    361.38126   -297.55322     37926.35 
  186300    302.04814   -1519.2524    505.98438    348.95872    53.291019     37926.35 
  186400    296.26305   -1543.5551     529.0907    321.67182    287.19957     37926.35 
  186500    298.92497   -1506.3648    496.32801    338.10451    302.41668     37926.35 
  186600    302.12892     -1512.22    499.36145    349.73251    288.83906     37926.35 
  186700    292.77322   -1527.2095    482.76117    275.94888    13.662375     37926.35 
  186800     302.9353   -1530.1142    511.10456    347.21819   -1.7671843     37926.35 
  186900    306.86221   -1566.6575    472.03061    289.31107   -736.35904     37926.35 
  187000    296.97596   -1505.1921     485.5131    319.67236   -725.24145     37926.35 
  187100    300.27894   -1494.3397    495.38737    355.29536   -207.00352     37926.35 
  187200    303.79825   -1517.9594    498.83113    350.99145   -481.70497     37926.35 
  187300    302.75548    -1487.685    481.13433    358.86613    138.40042     37926.35 
  187400    303.21296   -1494.6793    516.26741    389.06816   -162.21897     37926.35 
  187500    299.24998   -1515.3877    503.05931    337.27871     101.5113     37926.35 
  187600    305.44111   -1509.0472    508.63697    377.11867    145.39453     37926.35 
  187700    301.03471   -1515.0003    480.91133    323.56717   -263.95807     37926.35 
  187800    299.42804   -1475.3379    514.40353    389.47585   -263.50544     37926.35 
  187900    300.87411   -1503.0069    497.50115    351.42616   -455.92706     37926.35 
  188000    302.80943   -1478.2325    506.04895    393.47655    37.899233     37926.35 
  188100    303.35364   -1452.4542    549.53073      465.191    467.78881     37926.35 
  188200    313.87472   -1469.7934    505.88522    451.65599     698.1659     37926.35 
  188300    303.44725   -1477.0549    541.97292    433.45469    615.01023     37926.35 
  188400    296.49722   -1471.0886    506.69677    372.80046     446.6337     37926.35 
  188500    309.11828   -1484.3483    519.52086    429.28541    268.00277     37926.35 
  188600    298.81833   -1475.7088    529.83345      401.785   -395.98216     37926.35 
  188700    299.00285   -1436.2744    525.73384    437.95197    135.75924     37926.35 
  188800    298.66756   -1460.1867    528.00546     414.7992   -58.771555     37926.35 
  188900    310.83702   -1483.1175    503.14921    421.89601    8.6978269     37926.35 
  189000    283.44056   -1474.3124    512.87286    316.86762   -228.13659     37926.35 
  189100    292.30708   -1487.7206    517.19018    347.76447   -60.265107     37926.35 
  189200    291.85519   -1484.2493    520.82935    352.83693   -482.03356     37926.35 
  189300    321.29256   -1511.6771    493.02127    430.36251   -15.732452     37926.35 
  189400    296.05816    -1478.837    509.29713    365.67222    -905.3959     37926.35 
  189500    297.38116   -1498.7464    522.19343    364.62584   -724.24603     37926.35 
  189600    311.50208   -1487.5912    517.54552    434.81799   -157.98518     37926.35 
  189700    296.23537   -1465.9712    501.80634    371.84651    294.44138     37926.35 
  189800     310.1945   -1480.8257    508.92812    427.06889    229.68581     37926.35 
  189900    293.92756   -1479.8083    524.55925    370.35419   -6.7417621     37926.35 
  190000    300.24418   -1471.6107    512.38643    394.86663   -702.12287     37926.35 
  190100    302.45427   -1457.1093    489.70048    396.64951   -629.65314     37926.35 
  190200    291.46943    -1486.843    512.59795    340.27212   -906.10437     37926.35 
  190300    298.53014   -1480.0811    517.05788    383.33744   -521.22907     37926.35 
  190400     299.3675   -1482.5725     509.3261    376.89071    -90.42864     37926.35 
  190500    297.62314   -1498.0167    525.66651    369.91993    138.37432     37926.35 
  190600    294.09819   -1430.1602    529.07599     425.2885    263.07719     37926.35 
  190700    309.77727   -1493.9486    509.39854    412.53483    75.884166     37926.35 
  190800    286.93873   -1501.9343    538.22993    330.37949   -267.25781     37926.35 
  190900    307.19038    -1531.072     508.1156    362.46166   -193.54995     37926.35 
  191000    299.30805   -1572.0507    500.64754     278.4659   -420.20827     37926.35 
  191100    310.00818   -1588.4365     488.5435    298.23326   -365.94052     37926.35 
  191200    292.72662   -1571.0851    499.80629    248.90819   -329.61021     37926.35 
  191300    302.71976   -1548.6979    507.96014    324.51797     292.3705     37926.35 
  191400    307.50628    -1509.116    513.03225    390.75896   -162.93061     37926.35 
  191500    300.51483   -1522.1908    485.62759    318.74832    323.63691     37926.35 
  191600    306.07605   -1537.6962    515.99175    358.68805   -260.33477     37926.35 
  191700    303.37847   -1589.1379    508.34135    287.42996    339.64229     37926.35 
  191800    293.57484    -1531.347    515.86813    308.53354   -52.343243     37926.35 
  191900    308.63579   -1530.6926    502.94205    364.18626   -16.867852     37926.35 
  192000    305.03119   -1555.4236     519.2286    339.48517    187.56514     37926.35 
  192100    313.45491   -1488.4626    510.03201     435.2403    238.20259     37926.35 
  192200    302.09157   -1539.0166    503.63001    327.03597   -3.0800938     37926.35 
  192300    299.80699   -1501.3266    525.55103    376.34361   -14.139302     37926.35 
  192400    302.37373   -1523.7997    500.25466    340.15005      555.926     37926.35 
  192500    299.57976   -1531.6544    525.75877    345.19883    273.62225     37926.35 
  192600    297.05244   -1568.9187    514.37666    285.15426    121.23954     37926.35 
  192700    302.85314   -1560.0177     511.0194     316.8589    149.76123     37926.35 
  192800    294.56301   -1556.0268    483.68196    256.12422   -275.37686     37926.35 
  192900    299.09277    -1528.844    513.35424    333.40831    106.83938     37926.35 
  193000    296.04874   -1507.2438    521.59278    349.51864   -584.63678     37926.35 
  193100    307.40605   -1557.2119    494.56909    323.74786   -645.52618     37926.35 
  193200    299.26786   -1518.3307    503.30515    334.66216   -431.70908     37926.35 
  193300    298.65443   -1539.0329      517.117    325.00537   -751.27157     37926.35 
  193400    301.11724   -1545.0553    499.43879    312.41184   -329.48329     37926.35 
  193500    294.04991   -1542.0069    517.15522     301.3033   -292.91801     37926.35 
  193600    295.45574   -1551.1444    522.79849    304.14928   -622.07751     37926.35 
  193700    307.21991   -1563.3545     487.8518    310.04853   -815.32098     37926.35 
  193800    295.30169   -1594.0197    495.41609     233.1968     -883.568     37926.35 
  193900    298.15704   -1540.4574    494.11785    298.33841    -173.5688     37926.35 
  194000    303.81297   -1558.9594    523.00371    334.23034    37.016021     37926.35 
  194100    304.62493   -1554.6258    496.39968    315.62187   -56.602866     37926.35 
  194200    301.72856   -1542.1112    506.18755    324.86176   -20.178839     37926.35 
  194300    305.45901   -1551.6261    521.45836    347.44184    211.17722     37926.35 
  194400    296.48232   -1565.6579    512.22062    283.68782    253.99125     37926.35 
  194500    297.30792   -1556.1862    522.54842     307.2107   -575.20367     37926.35 
  194600    301.68307   -1470.5989     498.4313    388.41265   -588.02204     37926.35 
  194700    311.44283   -1531.8089     504.0054    376.79297   -263.92635     37926.35 
  194800    299.17051   -1505.3548    483.83453    327.72844   -289.09554     37926.35 
  194900    294.51022   -1517.8928    498.77687    309.11504   -336.54414     37926.35 
  195000    303.04539   -1492.5522    501.81459    375.98666    414.01096     37926.35 
  195100    300.76779   -1488.8065    527.55491    395.20083    485.54827     37926.35 
  195200     301.8584   -1525.2007    504.25642    340.42677    282.92219     37926.35 
  195300    313.47009   -1502.0119    493.29732    405.02472   -202.97304     37926.35 
  195400     294.4011    -1497.574    494.41193     324.5768   -349.23102     37926.35 
  195500    288.95813   -1515.2709    532.81272    320.73306   -428.43348     37926.35 
  195600    300.49376   -1509.6199     507.5535    353.15009   -436.84075     37926.35 
  195700    304.84059   -1519.3215    519.27697    374.77605   -506.98151     37926.35 
  195800    307.60752    -1509.264    496.45019    374.48547   -225.04596     37926.35 
  195900    300.47202   -1508.8023    507.56383    353.87996   -135.75346     37926.35 
  196000    291.10198   -1485.9012    527.86756    354.82627   -95.858706     37926.35 
  196100    299.17379   -1466.7102    510.38634    392.93968    504.40626     37926.35 
  196200    303.55039   -1476.1628    514.05152    406.89058     336.4127     37926.35 
  196300     308.4387   -1483.8841    523.90886    431.07266    524.75955     37926.35 
  196400     305.4487   -1517.4655    491.03657     351.1342    355.59834     37926.35 
  196500    300.87742   -1489.9787    504.39767    371.36575   -49.966382     37926.35 
  196600    302.50373   -1499.1901    510.40495    375.49626    135.01107     37926.35 
  196700    290.29222   -1563.4716    476.94882    222.68512   -113.51441     37926.35 
  196800    290.10541   -1565.9243    517.24158    259.68273    155.16996     37926.35 
  196900    305.14267   -1534.9867    495.94827     337.1445   -372.51472     37926.35 
  197000    296.18433    -1534.722    516.02127    317.08038   -45.951709     37926.35 
  197100    287.40557    -1494.934    498.81731    300.07254   -428.61343     37926.35 
  197200    290.60869   -1521.5562    495.40771     284.4867    -106.9403     37926.35 
  197300    308.47323   -1530.2158    474.46356    335.45139   -175.57845     37926.35 
  197400     288.2406   -1563.4881    519.32844    255.79553    397.55431     37926.35 
  197500    304.94567   -1545.7157    517.22186    346.80063    572.11001     37926.35 
  197600     297.5376    -1503.998    518.39386    356.28017    395.22847     37926.35 
  197700    307.49973    -1481.827    489.30946    394.29573    45.414121     37926.35 
  197800    292.00869   -1500.1247    509.98163    326.80607    505.25058     37926.35 
  197900    292.63148   -1508.4557    519.65864    330.96084    390.54461     37926.35 
  198000    304.95559   -1493.3891    495.02803    376.97819    775.47096     37926.35 
  198100    298.94819   -1495.5913    490.55108    343.20584    280.16027     37926.35 
  198200    314.32696   -1544.4559    492.52321    365.67113   -293.05919     37926.35 
  198300    297.66613   -1501.7923    501.78375    342.45549     176.3704     37926.35 
  198400    299.30628    -1509.109    513.43307    354.18505   -263.56646     37926.35 
  198500    301.31334   -1530.0488    497.19145    326.05546   -448.45734     37926.35 
  198600    296.57721   -1510.4889    523.70182    350.76599   -1139.6571     37926.35 
  198700    300.44103   -1508.2783    508.67257    355.37294   -795.65056     37926.35 
  198800    298.70866   -1525.1093    486.70168    308.75812   -575.74269     37926.35 
  198900    301.48315    -1534.751    515.79352    340.72115     -406.938     37926.35 
  199000    294.04198   -1514.9057    477.16283    288.37633   -192.13058     37926.35 
  199100     298.8109   -1478.9777     522.1905    390.83973   -117.81749     37926.35 
  199200    294.39273   -1518.9697    517.96002    326.69144    121.14297     37926.35 
  199300    310.76707   -1502.6456    495.58107    394.48432    356.98435     37926.35 
  199400    302.35402   -1484.4944    518.60328    397.71514    422.16696     37926.35 
  199500    296.79336   -1483.4081    517.67084    372.79063     626.4358     37926.35 
  199600    293.96474   -1487.0944    505.69276    344.36923    253.02953     37926.35 
  199700    296.11716   -1498.3938    526.23773    363.32214     106.0889     37926.35 
  199800    305.40628   -1492.4515    508.07804    392.99837    68.180856     37926.35 
  199900    303.85594   -1467.1456    538.08949    441.32376    177.16764     37926.35 
  200000    293.46248   -1498.0917    491.76081    317.17485   -121.37941     37926.35 
  200100    299.62034   -1513.6681    517.75998    355.36929   -32.589308     37926.35 
  200200     292.3029   -1507.7991    499.25758    309.73453    242.94745     37926.35 
  200300    311.61974    -1508.254    497.66397    394.80427    464.23267     37926.35 
  200400    298.33178   -1509.1488    506.16514    342.48246    581.60063     37926.35 
  200500    301.75137   -1531.3682    494.46831    323.98846    -294.4814     37926.35 
  200600    304.07056   -1529.6885    499.56362    341.22288    73.580958     37926.35 
  200700    304.69962    -1545.396     498.2065    326.99535    310.15956     37926.35 
  200800    300.10561   -1533.8932    496.26814    315.84094    412.22413     37926.35 
  200900    305.64465   -1534.7527    493.73843     337.4326     345.1812     37926.35 
  201000    316.08822   -1582.6276    496.18161    339.10102    908.13388     37926.35 
  201100    304.55153   -1542.2695    504.00649    335.25388     112.6814     37926.35 
  201200     304.4636   -1522.2608    500.47436    351.33391   -238.48368     37926.35 
  201300    302.65805   -1555.8938     507.1502    316.23384   -2.6903593     37926.35 
  201400    288.78388   -1564.9004    514.33733    251.84233   -129.48699     37926.35 
  201500    288.51077   -1554.6932    488.48252    234.96295    94.879524     37926.35 
  201600    301.41523   -1560.2499    502.73784    301.86029    87.871027     37926.35 
  201700    303.35714   -1532.2007     507.4734    343.40298    604.17834     37926.35 
  201800    302.41097   -1530.7395    488.67149    321.79505    164.16537     37926.35 
  201900    303.43952   -1505.6236    519.81211    382.69034    85.298442     37926.35 
  202000     303.9955   -1526.0613    505.51744    350.46543    525.62028     37926.35 
  202100    308.14116   -1507.3049    477.78872    360.18992    52.281101     37926.35 
  202200    295.15343   -1507.3859    512.72498    336.47092    381.52485     37926.35 
  202300    297.64251   -1531.0988    518.17491    329.43358    169.04664     37926.35 
  202400     302.4955   -1544.3821    503.88529    323.74745   -171.99842     37926.35 
  202500    297.50622   -1530.3755    493.88645    305.25379   -212.89055     37926.35 
  202600     295.6673   -1509.7551    502.59451    326.28875   -194.66423     37926.35 
  202700    295.66918   -1483.5048    517.83322    367.78627   -550.22089     37926.35 
  202800     301.6513   -1491.1474     491.3508    360.64032   -754.55811     37926.35 
  202900    301.85243   -1512.8434     490.7767    339.27742   -710.17641     37926.35 
  203000    297.78599   -1498.1195    501.00134    345.88646   -696.14188     37926.35 
  203100    302.17797   -1492.8189    496.07106     366.0644    -839.3498     37926.35 
  203200    306.21681     -1477.74    501.43217    404.71947   -495.97257     37926.35 
  203300    311.96422   -1515.5652    494.10166     385.4844   -97.156924     37926.35 
  203400    295.59723   -1494.1328    509.78528    348.78579   -317.19173     37926.35 
  203500    299.71173   -1517.6008    519.75511    353.84392   -699.00804     37926.35 
  203600     297.9067   -1513.2299    473.46766    303.78675   -576.00153     37926.35 
  203700     287.6067   -1503.8123    532.10061    325.38468   -496.83525     37926.35 
  203800    292.94055   -1529.7968     506.2518    297.60676   -356.45585     37926.35 
  203900    296.75678   -1476.2378    517.59552    379.72056   -825.11411     37926.35 
  204000    297.11254   -1474.5338    502.77844    368.21197   -840.00396     37926.35 
  204100    294.32077   -1470.7118    507.59228    364.25704   -687.40054     37926.35 
  204200    294.12563   -1480.4037    525.97315     372.0659   -407.15241     37926.35 
  204300    302.76347    -1468.302    507.65778    404.80862    189.13594     37926.35 
  204400    293.57175   -1483.6806    541.98287    382.30076    718.12608     37926.35 
  204500    311.16456   -1497.7425    528.77468    434.37359    738.44101     37926.35 
  204600    293.59788   -1482.4072    494.31315    336.02233     750.6995     37926.35 
  204700    300.20758    -1557.332    510.07004    306.66395    284.21167     37926.35 
  204800    295.95573   -1531.1347    455.44294    259.05845    647.34565     37926.35 
  204900    302.50811   -1513.3356    492.54653    343.51217    12.337364     37926.35 
  205000    287.05006   -1547.6454    480.03506    226.97554   -179.49493     37926.35 
  205100    300.84789   -1542.3745    495.71614    310.15522    312.26903     37926.35 
  205200     301.7525    -1528.857    494.22045    326.25684    432.58947     37926.35 
  205300    298.04122   -1504.5275    494.95726    334.58546    361.39491     37926.35 
  205400    306.31522   -1491.1419     513.7347    404.06389   -102.50028     37926.35 
  205500    300.20416   -1514.4632    482.23159    321.67884     848.8298     37926.35 
  205600    293.91375   -1530.6585    493.56627    288.44866    373.21512     37926.35 
  205700     290.3842   -1582.8808    483.81479    210.55678   -3.3705743     37926.35 
  205800     297.1518   -1527.0225    471.52808    284.64999    16.635621     37926.35 
  205900    302.75207    -1480.901    489.24503    373.74544    66.181459     37926.35 
  206000     303.2378   -1510.4364    488.47888     345.6345   -85.612667     37926.35 
  206100     291.5035   -1533.3767    471.44727    252.74139   -27.478569     37926.35 
  206200    306.31607   -1479.6834    530.08814    431.87965    175.71145     37926.35 
  206300    307.99361   -1501.5654    478.84979      366.325    -177.4052     37926.35 
  206400     299.4297   -1472.7086    506.34394    384.05303   -656.65326     37926.35 
  206500    295.59719   -1441.4425    507.65281    399.34341   -487.85505     37926.35 
  206600    297.88345   -1491.9012    506.77289    358.31575   -409.57051     37926.35 
  206700    294.87959   -1511.0797    489.06274     307.8798   -331.00688     37926.35 
  206800    300.88342   -1520.0837     503.4322    340.32238   -35.136752     37926.35 
  206900     298.5251   -1469.7227    504.03915    380.65441    157.34447     37926.35 
  207000      312.512   -1518.6581    509.09139    399.85163    254.54828     37926.35 
  207100    302.00928   -1486.5045    501.93288    377.47983     -539.819     37926.35 
  207200    313.77456   -1475.5901     518.6094    458.13171   -415.08769     37926.35 
  207300    285.35332   -1449.0778    532.95057    370.80644    -281.9596     37926.35 
  207400     306.5772   -1479.8288    486.65239    389.47628   -454.03545     37926.35 
  207500    302.41716   -1486.2598    518.61578    396.24694   -562.76165     37926.35 
  207600    298.26836   -1448.5276     516.8512    413.50361   -245.44534     37926.35 
  207700    299.33045   -1511.4336    514.83174    353.36817   -279.37085     37926.35 
  207800    307.72569   -1496.4377    515.14123    406.53577    402.27536     37926.35 
  207900    293.27803   -1522.1008    520.35987    320.93291   -170.79678     37926.35 
  208000    300.70632   -1504.7678    504.24506    355.65236   -534.16279     37926.35 
  208100    293.67343   -1478.1327    531.28808    377.61243    -614.9373     37926.35 
  208200    307.06197   -1503.9752    502.00797    382.87168   -110.90962     37926.35 
  208300    299.37278   -1559.7607    503.44614    293.84636   -669.28464     37926.35 
  208400     288.1844   -1523.7016    487.30268    263.30277   -449.62418     37926.35 
  208500    301.77367   -1509.3954    491.30595    342.89942   -589.88068     37926.35 
  208600    290.34543   -1523.0256    506.88963    293.31193   -448.43764     37926.35 
  208700    299.60056   -1509.4248    522.48079    364.24424    31.540434     37926.35 
  208800    297.94319   -1524.4308    527.26867     346.5514   -62.310047     37926.35 
  208900    305.78726   -1500.3075    490.21034    368.99284   -257.97331     37926.35 
  209000    293.17665   -1506.7335    506.96924     322.4523   -31.499268     37926.35 
  209100     306.5316   -1537.4396    488.22128    333.22865   -118.82621     37926.35 
  209200    307.69667   -1525.3623     502.1426    364.48172    126.61659     37926.35 
  209300    299.99631   -1511.0042    505.19425     347.1631   -275.73701     37926.35 
  209400    297.64844     -1535.76    501.46034    308.08454   -250.04389     37926.35 
  209500    310.13791   -1528.5945    530.49309     400.6099   -797.93134     37926.35 
  209600    302.58599   -1527.2088    520.79137    358.23498   -798.49277     37926.35 
  209700    297.50299   -1502.6609    511.78432    350.85167   -329.85342     37926.35 
  209800    299.46246   -1502.9711    491.35556    338.94983   -230.11325     37926.35 
  209900    300.01134   -1527.7781    509.80862    335.07138    263.65487     37926.35 
  210000    294.73497    -1490.567    514.84091    353.51847    171.94082     37926.35 
  210100    309.20573   -1501.7768    508.32563    401.05603    24.968741     37926.35 
  210200    306.87559   -1528.9269    501.98047    357.05194    94.942047     37926.35 
  210300    300.88528   -1566.6168    523.60811    313.97358    91.696262     37926.35 
  210400    300.16507     -1556.39     514.8203    312.16442   -54.433772     37926.35 
  210500    293.12865   -1550.9177    500.84193    271.92434   -139.87562     37926.35 
  210600    298.69158   -1524.9763    512.81951    334.93196    299.58928     37926.35 
  210700    301.97915     -1528.97    492.58688    325.53242      55.9183     37926.35 
  210800    299.10877   -1502.7089    507.04363    353.30505    253.41726     37926.35 
  210900    305.00952   -1557.9662    511.34883     328.9651     -130.847     37926.35 
  211000    304.44367   -1560.1559    516.17158    329.04613   -221.47654     37926.35 
  211100    302.62919   -1503.8846    486.07149    347.03409   -684.69418     37926.35 
  211200    304.36414   -1538.0366    473.20346    307.83866   -512.81575     37926.35 
  211300     295.1852   -1538.8252    499.89619    292.34607   -851.52959     37926.35 
  211400    301.01203   -1560.7164    511.89518     308.7327    4.3623283     37926.35 
  211500    296.64013   -1585.7442    498.40495    250.49749   -24.594622     37926.35 
  211600    299.40708   -1532.2689    491.00277    309.04946    262.90398     37926.35 
  211700    296.76066   -1528.9147    497.62479    307.09044    523.64914     37926.35 
  211800    293.70312   -1535.3407    508.01587    297.26615    381.51438     37926.35 
  211900    303.46033    -1548.752    509.34443    329.18811    309.69134     37926.35 
  212000    296.69799   -1562.4743    513.79778    289.42121    423.05276     37926.35 
  212100    302.37027   -1568.6644    472.55144    267.56653   -64.777861     37926.35 
  212200    297.45436   -1558.2242     478.7572    262.04192   -528.57547     37926.35 
  212300    309.52022   -1537.5024    514.45872    372.88185    -716.1778     37926.35 
  212400    305.60531   -1545.1622     497.2244    330.33165   -513.00475     37926.35 
  212500    294.66018   -1571.3573    477.34201    234.89201     64.98103     37926.35 
  212600    301.43439   -1563.1941    515.98654     312.2512    110.30543     37926.35 
  212700    292.16295   -1581.9004    454.79985    190.54431   -113.93619     37926.35 
  212800    307.82014   -1581.4451    463.74996    270.56311    461.56678     37926.35 
  212900    295.29999   -1529.3998    518.42807    320.82104    317.10791     37926.35 
  213000    304.18688    -1538.829    466.93935    299.98266     40.57824     37926.35 
  213100    308.63125   -1565.3325     514.2864    340.87018    22.768537     37926.35 
  213200    310.08213   -1585.3739    459.40307     272.4889    383.79757     37926.35 
  213300    301.83775   -1523.7216    526.48634    364.04261    853.37524     37926.35 
  213400    308.52853   -1574.2777    506.95296    324.12831    479.08667     37926.35 
  213500      300.861   -1574.3569    507.63674    290.15264    1229.5675     37926.35 
  213600    291.06083   -1520.6503    510.55739    302.58139    591.31953     37926.35 
  213700     295.6101   -1535.2263    488.19069    286.15582    15.706909     37926.35 
  213800    297.34068   -1528.2405    518.26309    331.01884    59.135948     37926.35 
  213900     297.3432   -1518.2533    475.97834    298.73268    -81.07933     37926.35 
  214000    306.23972   -1534.3812    512.71429    359.46374    -305.3117     37926.35 
  214100    302.91794   -1559.6563     511.6672    318.16041   -319.26129     37926.35 
  214200    301.25065   -1523.8326    490.55265    325.35014   -182.41735     37926.35 
  214300    298.82591   -1520.0082    495.85934    323.54573   -92.068847     37926.35 
  214400    294.22732   -1488.2931    513.61273    352.27473   -550.86841     37926.35 
  214500    301.17607   -1526.3326    483.66076     315.6219   -570.73582     37926.35 
  214600    303.88395   -1530.2696     495.3298    335.56633   -289.26391     37926.35 
  214700    304.60566   -1506.1391    497.73865    365.36061   -480.09686     37926.35 
  214800    294.65264   -1523.5778    511.71057     317.0061   -583.80018     37926.35 
  214900    292.97929   -1544.9166      476.928    253.33793   -505.84848     37926.35 
  215000    296.05472   -1527.0088    499.14955    307.33734   -617.14794     37926.35 
  215100    302.42418   -1491.2592    489.69936    362.36285   -278.46787     37926.35 
  215200    291.44925   -1487.5488     509.2045    336.08178   -636.56827     37926.35 
  215300    295.53848   -1529.1953    519.49791    323.17097    696.60371     37926.35 
  215400     312.7717   -1487.2972    514.47586    437.76828    613.30704     37926.35 
  215500    295.52143   -1503.4156    514.64096    344.01688     249.7849     37926.35 
  215600    295.33487   -1482.2656    521.35848    371.04297   -122.82636     37926.35 
  215700    304.12997   -1483.1719    523.64321    412.08704   -338.48427     37926.35 
  215800    306.94873   -1480.6423    504.16657    407.85249   -115.09192     37926.35 
  215900    306.43593   -1509.6178    512.05778     384.4555   -320.47714     37926.35 
  216000    302.97064   -1541.8853    506.50111    331.00297   -273.04188     37926.35 
  216100    302.86326   -1541.5483     522.0316    346.38617   -386.43241     37926.35 
  216200    296.10059   -1523.4615    517.00805    328.95003   -11.747701     37926.35 
  216300    304.09833   -1531.1392    493.09057    333.42434      228.769     37926.35 
  216400    298.13153   -1536.1971    508.18283    316.54866   -55.526711     37926.35 
  216500    294.62891   -1529.1126    528.46625    328.11988   -11.877336     37926.35 
  216600     303.1873   -1508.5102    528.08656    386.94067   -47.505199     37926.35 
  216700    300.22829   -1504.3788     509.4595    359.09994    196.33671     37926.35 
  216800    296.78544   -1582.0103     506.4809    262.96269    161.24553     37926.35 
  216900    311.91742   -1550.8541    502.34718    358.22995    691.94818     37926.35 
  217000    306.42766   -1565.5851    535.90531    352.29843    481.99669     37926.35 
  217100    307.90243   -1495.3767    516.74641    409.99909    484.63779     37926.35 
  217200    306.11365   -1537.7918    491.97223    334.74249    302.64207     37926.35 
  217300    306.83221    -1482.323    489.18031    390.66005   -162.59507     37926.35 
  217400    302.65602   -1513.6557    541.54964    392.86223    279.46523     37926.35 
  217500    303.88493   -1581.4493     505.1961    294.25738   -130.59731     37926.35 
  217600    293.23446   -1566.8314    504.20993    259.85589    67.290038     37926.35 
  217700    307.65152   -1603.2944    501.28887    285.49227   -130.57073     37926.35 
  217800    305.11235     -1575.27    494.88053    295.65672    139.20469     37926.35 
  217900    300.25214   -1559.7121    521.51742    315.93215    105.18496     37926.35 
  218000    305.33705    -1622.896    510.34038    264.50393    136.71883     37926.35 
  218100     297.5075    -1583.756    488.90217    246.89481    -50.38014     37926.35 
  218200    301.00833   -1611.2083    479.09545    225.42436    139.45508     37926.35 
  218300     296.1741   -1543.8777      505.695    297.55234    12.382706     37926.35 
  218400    311.04719   -1567.5645    502.87725    338.12492    377.22442     37926.35 
  218500    300.79561   -1537.9691    504.32542    322.93419    421.50311     37926.35 
  218600     303.0939   -1559.8948    495.61568    302.66391    165.49587     37926.35 
  218700     295.5065   -1564.2632     492.4422    260.90317   -272.35941     37926.35 
  218800     299.4126   -1545.7958    511.28775    315.83243    264.55505     37926.35 
  218900    306.20659   -1537.8007    513.37075     356.5512   -414.50489     37926.35 
  219000    309.89811   -1541.6569     487.3776     343.3505   -384.61992     37926.35 
  219100    308.38511   -1551.6474    500.59929    339.75815    171.74394     37926.35 
  219200    307.99898   -1536.3163     518.1117    370.86018    466.11384     37926.35 
  219300    305.42559   -1509.7135    502.46785    370.21324    27.671094     37926.35 
  219400    311.52896   -1476.5767    500.18377    428.59194   -440.06328     37926.35 
  219500    295.84217   -1511.0639    494.02884    317.20294   -534.69233     37926.35 
  219600    294.38943   -1484.2476    508.97397    352.41252   -577.78211     37926.35 
  219700    308.05253    -1490.783    506.34093    404.86424   -288.84373     37926.35 
  219800    298.89041   -1553.6915    483.86269    278.15663    75.343897     37926.35 
  219900    300.57242   -1547.6275    521.72721    329.67101    -37.95757     37926.35 
  220000    288.69205    -1512.819    508.31329    297.48547    262.85169     37926.35 
  220100    297.65338   -1528.1465     492.9626    307.22264   -242.33122     37926.35 
  220200    311.85918   -1494.9484    498.90609    410.43187   -16.042442     37926.35 
  220300    311.59233   -1503.5233    479.60602    381.35342    360.40703     37926.35 
  220400    305.08514   -1541.4237    502.55868    337.05851    411.51128     37926.35 
  220500    300.51439   -1511.2682    493.16384     337.2052    378.83512     37926.35 
  220600    288.14392   -1515.6816    522.17037    306.00796    30.670436     37926.35 
  220700    295.27557   -1532.0156    500.60913    300.27617     120.1004     37926.35 
  220800    296.55813    -1557.378    514.38002    294.46895    324.28766     37926.35 
  220900    309.49276   -1546.9663    490.86195    339.69739    460.49188     37926.35 
  221000    308.65916   -1523.0652    496.71332    365.69029   -157.29021     37926.35 
  221100    292.20574   -1510.8209    505.14705    312.16393   -161.70222     37926.35 
  221200    294.04263   -1491.1675    502.86047    337.81508   -169.68249     37926.35 
  221300    303.63754   -1489.1355    502.77422    383.03352    242.69243     37926.35 
  221400    303.12999   -1492.7595    501.71225     376.0586    453.01552     37926.35 
  221500    310.50491   -1480.0679    520.11665    440.41517    329.95777     37926.35 
  221600    303.00871   -1481.3499    498.25327    383.46222      291.162     37926.35 
  221700    292.20602   -1460.8418    509.74629    366.74361    406.87525     37926.35 
  221800    292.32229   -1445.4815    530.38892    403.27087    860.55569     37926.35 
  221900    302.48981   -1529.1325    500.39806    335.48416    84.308926     37926.35 
  222000    300.97517   -1589.3127    493.63546    261.71044    234.61396     37926.35 
  222100    296.25525   -1537.2922    507.48744    306.29627    429.74772     37926.35 
  222200    302.89033   -1551.0764    490.90025    305.84887    911.34771     37926.35 
  222300    309.29632   -1479.3401    500.90076    416.47643    853.60166     37926.35 
  222400    292.08858   -1518.7881     518.7236    317.24495    468.00296     37926.35 
  222500    306.25425   -1512.5503    491.30877    359.95464    5.5264705     37926.35 
  222600    296.56438    -1560.058    492.52861    269.96576    729.00157     37926.35 
  222700    299.83082   -1515.1484    484.62364    321.70189    614.44973     37926.35 
  222800    296.33746   -1558.7343    476.71129    254.44871    533.46575     37926.35 
  222900    291.47252    -1532.541    530.45351    312.44361     479.0577     37926.35 
  223000    291.13663   -1510.5603    506.67944    309.13531     467.4768     37926.35 
  223100    290.12297   -1418.1732    507.97288     398.2443    171.77067     37926.35 
  223200    298.24065   -1471.0567    518.37514    392.37347    609.72249     37926.35 
  223300    294.97237   -1448.9847    491.75792    373.08851    107.88935     37926.35 
  223400    299.88753   -1483.6218    531.07705    399.93773    255.16689     37926.35 
  223500    298.34337   -1459.6708    500.80708    386.65465     -231.819     37926.35 
  223600    309.21058   -1464.2559    521.33524     451.6084   -243.27053     37926.35 
  223700    294.15927   -1479.6601    510.51184    357.49991   -526.56284     37926.35 
  223800    288.18955   -1493.7241    511.90263    317.90349   -287.32972     37926.35 
  223900    299.82551   -1458.8302    517.90868    411.28125   -112.19618     37926.35 
  224000    308.39854    -1436.183    516.77232    471.45612   -747.44874     37926.35 
  224100    302.65247   -1474.0838    499.22986    390.09833   -509.43383     37926.35 
  224200    297.94791   -1502.1859    489.39542    330.94431   -251.18479     37926.35 
  224300     303.5515   -1512.6334    509.15203    365.52549   -304.18259     37926.35 
  224400    294.25696   -1500.9844    498.39142    324.49575   -109.19775     37926.35 
  224500    296.83294   -1522.8076     505.8837    321.78247    405.07701     37926.35 
  224600    298.93398   -1493.2781    493.60363     348.5075   -357.42954     37926.35 
  224700    304.11318   -1477.0548    502.75862    397.24384   -32.086741     37926.35 
  224800    296.73351   -1449.3912    493.76905     382.6358   -355.65738     37926.35 
  224900    304.95891   -1456.1892    505.25209    424.41714   -735.35236     37926.35 
  225000    302.73147   -1449.1866    491.61527    407.73721    -227.1041     37926.35 
  225100    304.46233   -1474.9891    515.19441    413.31991    72.127902     37926.35 
  225200    292.61457   -1448.0448    506.37763    378.01447     284.9071     37926.35 
  225300    301.37777   -1452.9718    491.06765    397.29925    523.74346     37926.35 
  225400    293.20913    -1431.557    524.25132    415.05737    500.79571     37926.35 
  225500    297.74784   -1440.6749    508.15841    410.31597    231.21818     37926.35 
  225600    298.92353   -1481.4048    518.82425    385.55433    348.02182     37926.35 
  225700    310.25948    -1458.108    513.53714     454.6887       201.99     37926.35 
  225800    305.61783    -1469.233     495.3177    404.41058   -91.414336     37926.35 
  225900    303.99981   -1467.0129    505.62526    409.64103   -313.48851     37926.35 
  226000    300.68063   -1497.6585    465.37377     323.7745   -490.54497     37926.35 
  226100    309.98361   -1499.6988    497.59431    395.91093    65.287541     37926.35 
  226200    308.06706   -1501.5426    497.60266     385.4319    345.18045     37926.35 
  226300    293.32341   -1537.6077    512.48902    297.75981    331.38064     37926.35 
  226400    292.98534   -1561.5625    493.98502     253.7763   -157.34046     37926.35 
  226500    293.08381   -1499.7609     478.1054    300.14237   -272.86869     37926.35 
  226600    300.05072   -1475.8577    488.60377    365.96449   -813.87883     37926.35 
  226700    301.51125   -1470.5354    486.81777    376.08769    -26.03544     37926.35 
  226800    308.42143   -1489.4419    511.71199    413.24016   -216.17989     37926.35 
  226900    292.95106   -1487.5825    509.44239    343.05912    53.600992     37926.35 
  227000    299.70489   -1479.5998    505.94571    378.00461    673.74734     37926.35 
  227100    298.51736    -1480.312    501.59183    367.58286     284.2299     37926.35 
  227200    302.65512   -1467.5859    525.46208    422.84036    164.10712     37926.35 
  227300    303.29927    -1494.188    499.40099    373.08224    111.77967     37926.35 
  227400    294.41143   -1472.1039    492.94296    348.62446    128.05087     37926.35 
  227500    301.33186   -1452.5849    501.34913    407.76053    274.94204     37926.35 
  227600    307.83227   -1474.2697    508.10646    422.14975    551.27307     37926.35 
  227700    300.41113   -1468.6659    511.96736    398.14538     360.3555     37926.35 
  227800    303.32629   -1525.1434    506.39225    349.24003    526.21019     37926.35 
  227900    299.68523   -1475.2637    490.49021     366.7966    379.08273     37926.35 
  228000    300.18827    -1468.253    471.45034    357.03611   -260.52198     37926.35 
  228100    295.62911   -1428.9746    506.01809    410.32065    229.53888     37926.35 
  228200    301.65734   -1429.4083    504.95948    436.01546   -66.438607     37926.35 
  228300    307.40248   -1493.1597    517.77231    410.98722   -310.20488     37926.35 
  228400    293.10961   -1439.8104    505.36058    387.46449   -645.61404     37926.35 
  228500    299.89916   -1446.2813    495.04467    401.29823    -706.4605     37926.35 
  228600    298.98276   -1427.0061    528.74747    450.14341   -600.67942     37926.35 
  228700    296.78173   -1461.1249    506.14513    383.49565   -180.09627     37926.35 
  228800    298.32151   -1500.6519    507.50155    352.26946   -819.10003     37926.35 
  228900    293.75686   -1437.4492    473.71433    361.09846   -796.18888     37926.35 
  229000    296.80815   -1475.8074    504.71889    367.50604   -697.23897     37926.35 
  229100    303.08297   -1481.9081    493.75994    378.74556   -204.27273     37926.35 
  229200    295.42743   -1416.1883    512.07998    428.25922   -218.99757     37926.35 
  229300    302.26034   -1454.2575    502.03231    410.95855   -620.44408     37926.35 
  229400    304.38901   -1421.4186    515.56801    466.93342   -243.04872     37926.35 
  229500    297.69992   -1401.4952    510.15258    451.27374   -220.11408     37926.35 
  229600    304.00078   -1495.5397    486.07484    361.56817    -165.9131     37926.35 
  229700    292.23946   -1482.8634    491.50438    326.63087   -444.99955     37926.35 
  229800    302.21881    -1461.215    474.55249    376.33394     -678.617     37926.35 
  229900    303.33074   -1443.2141    481.25049    406.04762   -428.16052     37926.35 
  230000    305.21202   -1450.7592    490.98172    416.71825    58.779281     37926.35 
  230100    303.11187   -1461.9915    515.84364    420.87626    200.72113     37926.35 
  230200    297.26029   -1496.9464    521.53868    365.22601    368.42757     37926.35 
  230300    295.62437   -1486.1781    509.92953    357.00719    390.83317     37926.35 
  230400    300.34398   -1466.6747    506.48299    394.34926    30.758213     37926.35 
  230500    297.23743   -1452.4803    510.42219    398.47252   -474.32631     37926.35 
  230600    301.67259   -1461.4549    527.18047    426.25857    417.05303     37926.35 
  230700    308.48315   -1465.8016    498.98084     424.4276   -23.979626     37926.35 
  230800    300.26179   -1476.3143    507.68855    385.54465    29.208449     37926.35 
  230900    299.47314   -1448.3064    506.35328    408.66046    162.69311     37926.35 
  231000    304.53081   -1464.0081     504.0768    413.49217   -160.69505     37926.35 
  231100    301.98686   -1469.6126    471.53743     363.8752    117.35114     37926.35 
  231200    302.84121    -1466.318    486.26547    385.75091    -622.3408     37926.35 
  231300    298.30081    -1438.054    514.15034    421.42269   -531.48252     37926.35 
  231400    302.02244   -1440.5686    468.11749    389.65974   -389.50577     37926.35 
  231500     300.3664   -1489.4619    500.08855    365.26878    -632.8715     37926.35 
  231600    303.90172   -1476.2063      503.325    397.70496   -338.95853     37926.35 
  231700    302.92477   -1517.2391    495.38992    344.33116    203.66138     37926.35 
  231800     303.2333   -1453.2809    503.70188    417.99271   -441.23226     37926.35 
  231900    305.08271   -1475.6552    505.46048    405.71777    254.56605     37926.35 
  232000    303.39082   -1476.7556    480.20475    371.73134    824.02673     37926.35 
  232100       300.09    -1435.516    514.65591    432.53552    202.37302     37926.35 
  232200    304.36442    -1449.309    510.49706    433.86109    115.53902     37926.35 
  232300     302.3788   -1467.5343    507.12832    403.31204    1.3286716     37926.35 
  232400     295.4844   -1471.6069    498.97139    359.98899   -91.014473     37926.35 
  232500    301.25206   -1511.6992    508.65423    355.59147    27.074788     37926.35 
  232600    310.15835   -1503.9795    501.79219    396.61613   -331.30929     37926.35 
  232700    291.60516   -1497.0387    489.11596    307.20646   -696.29611     37926.35 
  232800    299.28948   -1456.6596    496.60189    389.72758   -480.11783     37926.35 
  232900    300.81403   -1454.1201    497.64897    400.18984   -768.43423     37926.35 
  233000     302.1433   -1470.2646    503.46335    395.85467   -49.177756     37926.35 
  233100    297.06362     -1511.89    491.99776    319.85448   -455.47727     37926.35 
  233200    300.70704    -1523.288     506.0935    338.98396   -373.43757     37926.35 
  233300    300.12362   -1514.0417    484.07905    323.58457    -194.2703     37926.35 
  233400    303.84701   -1558.4033    472.04932    283.98556    -242.9697     37926.35 
  233500    297.93809   -1476.5638    497.35087    364.47758   -217.28683     37926.35 
  233600    302.49362    -1502.752    489.74557    351.22937    -477.8219     37926.35 
  233700     305.2647   -1558.3669    503.36544    321.73187    19.064287     37926.35 
  233800     295.6175   -1514.8335    469.31278    287.70406    121.05398     37926.35 
  233900    301.70981   -1518.1497    499.73551    342.28668   -33.763468     37926.35 
  234000    305.01473   -1471.8174    527.27993    431.06841    100.86149     37926.35 
  234100    301.25842   -1482.3428    504.09009    380.41242    450.71658     37926.35 
  234200    292.39048   -1504.0374    494.41308    309.04664   -253.38243     37926.35 
  234300    310.58705   -1493.1753    494.85834     402.4199   -308.64465     37926.35 
  234400    303.04527   -1499.0033    514.16735     381.8878   -17.278555     37926.35 
  234500    310.01506   -1541.0419    487.55686    344.67221    473.79614     37926.35 
  234600    298.76847   -1558.0407    486.37836    275.77317   -348.13378     37926.35 
  234700     306.1532   -1499.0871    483.22494    364.87825    39.141129     37926.35 
  234800    306.89838   -1496.3823    485.09029    372.80914   -170.65229     37926.35 
  234900    296.81756   -1503.9717    513.52757    348.19291   -523.36786     37926.35 
  235000    304.45181   -1497.1869    488.89591    364.77615   -714.99338     37926.35 
  235100    297.44621   -1476.5544    492.17428    357.09203   -1382.5541     37926.35 
  235200     298.1936   -1466.7324    487.91436    366.02483   -677.97771     37926.35 
  235300    294.72191   -1473.3817    501.98605    357.79007   -130.12476     37926.35 
  235400    307.79374   -1482.2613    504.96307    410.84092    177.29852     37926.35 
  235500    292.69044   -1469.6238    510.34542     360.7454   -273.64296     37926.35 
  235600    289.88394   -1504.9871    459.85572    262.23523   -2.0169992     37926.35 
  235700    306.90545   -1473.1115    512.84739    423.86891    430.54717     37926.35 
  235800    307.80651   -1505.9066    475.57268    357.86292    490.81373     37926.35 
  235900    308.45793    -1537.216    481.05327    334.97191    259.77832     37926.35 
  236000    299.37244   -1516.1933    478.96183     312.9279    -259.4406     37926.35 
  236100    301.21215   -1510.3163    502.70396    350.84411   -551.75901     37926.35 
  236200    292.42717    -1536.183    494.89555    277.54908    142.85349     37926.35 
  236300    305.56885   -1527.9354    490.98851    341.15813    62.889015     37926.35 
  236400    297.25996   -1556.9631    491.52453     275.1936   -190.18571     37926.35 
  236500    298.54466   -1594.5255    498.02143    249.92209   -377.75623     37926.35 
  236600    294.56019   -1506.2742    497.55565     319.7378    267.77217     37926.35 
  236700    313.78824   -1503.7571    503.94458    415.36165    73.103832     37926.35 
  236800    303.54233   -1546.0017    512.68863    335.65239   -150.02763     37926.35 
  236900    304.70273   -1493.9591    510.17289    390.41263    464.94022     37926.35 
  237000    306.53537   -1519.1041    509.27124    372.63107    866.40874     37926.35 
  237100     312.9536   -1529.3689    494.52038    376.56145    322.82735     37926.35 
  237200    302.38302   -1517.6229    484.42577    330.53988    659.87313     37926.35 
  237300    298.58406   -1527.7161    484.81936    303.70708   -78.638871     37926.35 
  237400     302.0704   -1492.2456    489.44676    359.52825   -30.287609     37926.35 
  237500    300.66167   -1522.6611    497.65952     330.9722    194.42286     37926.35 
  237600    297.89376   -1507.4767    505.35363    341.36757    104.85068     37926.35 
  237700    299.32774   -1507.7424    478.07701    320.29245    363.70644     37926.35 
  237800    288.59494    -1539.464    507.86525    269.95454    292.37286     37926.35 
  237900    316.41371   -1543.0831    483.40781    367.33972    380.35024     37926.35 
  238000    296.40691    -1535.496    498.29568    299.58462    41.681509     37926.35 
  238100    303.66874   -1508.3132    494.47682    355.69922   -170.55161     37926.35 
  238200    301.85592   -1490.9442    495.33642    365.75207   -401.20945     37926.35 
  238300      301.755   -1484.1446     497.4378    374.19789   -878.34842     37926.35 
  238400    300.53412   -1490.6585    497.74873    362.48878   -27.146785     37926.35 
  238500    292.27731   -1527.6928    490.84119    281.30906   -551.48543     37926.35 
  238600    299.59131   -1489.4912    482.67043     344.3257   -608.39121     37926.35 
  238700    294.73785   -1511.4873     464.1128    281.88312   -192.20628     37926.35 
  238800    296.07262   -1521.2422    476.89783    290.93297   -209.00126     37926.35 
  238900    303.65456   -1487.8027    494.91979    376.58872   -211.56438     37926.35 
  239000    306.53542   -1512.0585    486.54274    356.94846     94.04536     37926.35 
  239100     304.4864   -1520.9166    466.53856    318.84513    322.94061     37926.35 
  239200    296.48216   -1503.2823    497.29066    331.13266    314.18514     37926.35 
  239300    289.24828   -1498.6883    482.51519    288.32673   -285.32333     37926.35 
  239400    289.84381   -1493.7068    499.79062    313.26946   -640.38815     37926.35 
  239500    293.56566   -1477.0573    501.02679    347.94048   -225.62413     37926.35 
  239600    307.69457   -1464.3654    502.42048    425.74702    462.39767     37926.35 
  239700    300.70213   -1478.9926    486.01399    363.17768    265.28008     37926.35 
  239800    300.73983   -1441.4507     512.7983    427.67394    376.62364     37926.35 
  239900    308.72247   -1499.9035    492.09469    384.51886    890.70684     37926.35 
  240000    301.04265   -1520.9081    468.29425    305.07817    152.29145     37926.35 
  240100    309.08619   -1509.0306    488.47872    373.41625   -300.52307     37926.35 
  240200    304.29728   -1480.3081    490.47478    382.53692   -212.42574     37926.35 
  240300     308.1087   -1513.4387     476.4324     352.5533   -357.96427     37926.35 
  240400    312.19748   -1534.6507    508.48029    381.82948    31.351582     37926.35 
  240500    287.11635   -1506.4641    491.10076    279.52149    32.519986     37926.35 
  240600    300.66989   -1458.6466    512.16056    409.52479   -477.24144     37926.35 
  240700    294.28621   -1466.1929    518.65419    379.68202   -82.702826     37926.35 
  240800    301.42392    -1477.035    492.80043    375.17693   -68.266204     37926.35 
  240900    295.55422   -1462.5282    491.47695    361.88817   -120.37316     37926.35 
  241000    298.41007   -1465.4124    476.05186    356.45859   -180.18827     37926.35 
  241100    308.17099   -1488.6263    493.11628    394.33054    200.27349     37926.35 
  241200    310.69288   -1504.9778    487.03438    383.27079   -53.136352     37926.35 
  241300    291.02147   -1477.2643    496.90971    332.14228   -423.18931     37926.35 
  241400    309.16595   -1502.2064    512.91789    405.03933   -331.12548     37926.35 
  241500    294.84163   -1503.0552    508.29096    334.96144   -491.08866     37926.35 
  241600    308.00844   -1462.0595     514.4902    441.53819   -154.72577     37926.35 
  241700    298.19977   -1492.5694    522.25983    374.56119    276.46061     37926.35 
  241800    301.60989   -1492.9794    473.99865    341.26952    20.125885     37926.35 
  241900    300.13988   -1497.3019    524.78785    381.10655    590.73056     37926.35 
  242000    296.51597   -1486.5278    520.54021    371.28925    463.54154     37926.35 
  242100     289.1017   -1517.3842    492.92627    279.38073   -50.984768     37926.35 
  242200    298.03339   -1453.9556    501.62381    391.78857    28.802138     37926.35 
  242300    294.94087   -1495.4294    495.19761    329.94136   -266.93206     37926.35 
  242400    309.45395   -1505.7745    488.11254    377.96468    210.94819     37926.35 
  242500    302.32521   -1507.7355    479.42585    335.16667    481.89654     37926.35 
  242600    289.87899   -1556.6681    505.16624    255.84239    278.07176     37926.35 
  242700    308.91514    -1512.089    478.07615     359.1838    51.606547     37926.35 
  242800    308.07393    -1477.173    496.68124    408.91106    -125.3457     37926.35 
  242900    301.87369   -1541.4946    473.60959    293.55492    -328.4101     37926.35 
  243000    307.03637   -1506.9946    514.30191     392.0308   -7.4293234     37926.35 
  243100    304.35654   -1486.1443    482.89832    369.39155    549.74971     37926.35 
  243200    297.76287   -1497.7131    503.95658     349.1438    154.93779     37926.35 
  243300    296.04151   -1484.4585    513.22979     363.9083   -598.00056     37926.35 
  243400    309.03473   -1500.6271    496.18204    389.29096   -46.500956     37926.35 
  243500     291.0526   -1499.6851    456.90112    269.85324   -94.616088     37926.35 
  243600    311.02256   -1518.8671    489.43715    373.27106   -65.596936     37926.35 
  243700      303.838   -1537.6978    489.28202     321.8831    39.369695     37926.35 
  243800    303.00522   -1521.9533    483.85516    328.44496    132.39846     37926.35 
  243900    297.73627   -1531.6642     497.1099    308.22605    237.45942     37926.35 
  244000    304.21184    -1502.679    505.00345    374.30939    569.29909     37926.35 
  244100    302.07445   -1528.3032    485.35586    319.39807    378.96133     37926.35 
  244200    302.48311   -1534.8961    489.57379    318.86612    169.19599     37926.35 
  244300    297.97031   -1495.7615    478.33468      326.409   -24.587431     37926.35 
  244400    300.40522   -1500.4407    513.95291    368.32936   -377.59103     37926.35 
  244500    301.33718   -1473.6712    510.97462    396.32375   -62.568507     37926.35 
  244600    303.93394   -1509.6331    477.79248    338.89105   -73.740843     37926.35 
  244700    298.86135   -1513.6346    520.21896    354.43872    25.292668     37926.35 
  244800    291.71876   -1464.4896    482.64577    333.79773   -508.05434     37926.35 
  244900    296.76203   -1451.6087    540.18654    426.96437   -482.31274     37926.35 
  245000    292.65507   -1481.3996    465.22228    303.68696    398.55271     37926.35 
  245100    296.34456    -1489.341    497.90793    345.07072    439.40654     37926.35 
  245200    304.20126   -1494.8954    484.08091     361.1227    568.92294     37926.35 
  245300    302.37867   -1493.5172    493.10391    363.30413    461.41237     37926.35 
  245400    297.45517   -1470.0103     516.9397    388.44195   -231.45207     37926.35 
  245500    288.43097   -1447.2658    492.06369    345.61162     418.6194     37926.35 
  245600    297.35364   -1465.1973    497.60242    373.45983    108.67377     37926.35 
  245700    307.89503   -1434.1958    497.75667    452.15689   -21.249153     37926.35 
  245800    285.62024   -1463.8711    490.29751    314.56383   -139.26001     37926.35 
  245900    298.43194   -1453.0769    485.68918     378.5301   -113.97846     37926.35 
  246000    294.96531   -1488.4298    478.13637    319.98994   -97.551796     37926.35 
  246100    305.51534   -1480.0404     483.9051    381.72834   -3.2511012     37926.35 
  246200    297.86949   -1466.5362    493.99842    370.84336   -1067.6409     37926.35 
  246300    297.75685   -1485.2478    465.03389    322.65923    -300.3049     37926.35 
  246400    301.26859   -1503.9163    497.66611    352.46077    -903.1413     37926.35 
  246500    300.58741   -1467.1231    478.76492     367.2807   -665.59979     37926.35 
  246600    292.58497   -1470.9578     489.2852    337.87558   -409.09765     37926.35 
  246700    300.64254   -1515.3157    509.84536    350.41721    177.84596     37926.35 
  246800    309.31098    -1513.251    481.56287    363.29376   -342.73604     37926.35 
  246900    300.30615   -1472.0572    486.02833    368.34152   -630.80871     37926.35 
  247000    293.35579   -1497.0668    487.73894    313.69671   -193.88896     37926.35 
  247100    300.94603   -1443.8054    502.22104    415.67184    287.90921     37926.35 
  247200    301.63043   -1464.6013    500.06786    395.80944    153.40291     37926.35 
  247300    297.87155   -1455.0054    487.74983    376.13486   -12.117061     37926.35 
  247400    306.88994   -1437.0828    505.23032    452.21063     468.8405     37926.35 
  247500    287.26958   -1468.1494    509.24938    336.67588    547.08552     37926.35 
  247600      302.057   -1470.3718    504.55059    396.44542    247.42591     37926.35 
  247700    302.85025   -1479.0752    488.40985    375.17886   -290.09231     37926.35 
  247800    290.92546   -1486.5358    498.26933    323.79739   -531.60325     37926.35 
  247900    302.57072   -1489.5473    501.03619    376.07245   -8.9529656     37926.35 
  248000    305.81816   -1506.4595    479.74214    352.51204   -256.63558     37926.35 
  248100    289.95014   -1496.7651     483.8872    294.78726   -121.88576     37926.35 
  248200    307.60047   -1476.1404    489.87276    400.99996    222.84971     37926.35 
  248300    316.57225   -1483.3353    472.07996    416.47464    263.39571     37926.35 
  248400    302.32642   -1496.4936    503.73103    370.71924    425.60375     37926.35 
  248500    297.52039    -1499.607    497.07536    339.27515    725.58599     37926.35 
  248600    291.81614    -1464.061    503.73417    355.75392   -64.398276     37926.35 
  248700    295.19889   -1500.0767    487.96396    319.22411   -90.457225     37926.35 
  248800    300.79018   -1513.5612    495.79265    338.78485    15.142262     37926.35 
  248900     291.5317   -1491.3117    488.66319    312.14946    24.700257     37926.35 
  249000     306.8154   -1488.5465    483.18042    378.36078    14.285021     37926.35 
  249100    298.92309   -1496.2649    500.47511    352.34305   -506.16054     37926.35 
  249200    305.29331   -1490.2433    491.10753    377.72653   -95.748023     37926.35 
  249300    297.89168   -1484.8605    475.52163    334.14234   -126.91523     37926.35 
  249400    299.06758   -1509.1538     523.3271    362.95783    -316.7443     37926.35 
  249500    301.12456    -1529.354    481.24169    309.94914    239.28555     37926.35 
  249600    312.24314   -1510.4866    506.41913     404.1383    54.905891     37926.35 
  249700    294.42612   -1507.2288    516.36315    336.98607    430.20989     37926.35 
  249800    301.49682   -1454.8685    496.17251    401.04436   -356.60295     37926.35 
  249900    295.12964    -1456.463    497.20172     371.7632   -9.1619884     37926.35 
  250000    304.37521   -1476.3177    502.35533    398.75939   -203.15662     37926.35 
  250100    297.09762   -1504.0441    480.94434    316.80032   -559.55034     37926.35 
  250200    299.42716   -1509.0254    527.85048     369.2313   -190.08216     37926.35 
  250300    313.17984   -1479.0899    473.29186    406.63224   -641.69607     37926.35 
  250400    296.70691   -1452.1208    503.19387    389.21099   -762.46364     37926.35 
  250500    300.15293   -1480.8148    515.99719     388.8618   -425.45272     37926.35 
  250600    313.42585   -1480.7488    508.72184    441.51289    8.7675263     37926.35 
  250700    303.33904   -1472.4362    490.80444    386.41685    418.39202     37926.35 
  250800    295.74988   -1487.9278    531.56223    377.45623    321.21469     37926.35 
  250900    290.31477   -1482.3373    518.00675    344.97908    62.761197     37926.35 
  251000    305.64873   -1498.0015    499.78214    380.24589    282.99471     37926.35 
  251100    309.87472   -1510.6508    524.20488    411.07845    159.90234     37926.35 
  251200    298.90039   -1501.6124    513.59143    360.00958   -112.47041     37926.35 
  251300    297.14369   -1518.1087    503.79029    325.78938   -263.92795     37926.35 
  251400    287.55254   -1482.3955    525.32061    339.77715   -502.72416     37926.35 
  251500    300.24258   -1514.5162    475.99038     315.5579   -51.526714     37926.35 
  251600    306.04771   -1496.7873    523.63336    407.11064    -475.9556     37926.35 
  251700    297.10796   -1501.6686    478.49488    316.77294   -79.584717     37926.35 
  251800    306.99572   -1466.8998    511.50413    429.14449   -296.05209     37926.35 
  251900    300.64947   -1427.4959    489.25119    417.67406   -394.48466     37926.35 
  252000    291.29982   -1474.2605    514.15897    353.65064   -179.01479     37926.35 
  252100    297.66726   -1473.4707    541.32742     410.3258    -83.39424     37926.35 
  252200    293.44365   -1470.0436    513.96606    367.34321   -211.56463     37926.35 
  252300    295.88713   -1459.3306    516.59647    391.70664   -848.99916     37926.35 
  252400    300.52507   -1480.0558    517.91902    393.22097   -664.01138     37926.35 
  252500    292.26252   -1487.1423    499.88648    330.83811   -57.978008     37926.35 
  252600    296.59843   -1461.4746    522.00358    398.17774    140.02294     37926.35 
  252700    302.56748   -1464.7625    493.91188     393.7183    288.59862     37926.35 
  252800    302.78464   -1524.6898    503.29623    344.15478   -60.292278     37926.35 
  252900    293.85788   -1502.2477    527.10671    350.14793    174.13613     37926.35 
  253000    286.59275   -1465.9196    516.02327    342.62712   -575.38446     37926.35 
  253100      296.035     -1489.23    522.79083    368.66848   -301.48807     37926.35 
  253200    295.10717   -1489.2627    522.40505    364.06551   -475.71368     37926.35 
  253300    290.84511   -1511.8497     512.8462    312.69793    671.54705     37926.35 
  253400      310.333    -1539.339    512.80595    373.05815    82.568847     37926.35 
  253500     299.8041   -1546.0128    515.47267    321.56607   -86.958949     37926.35 
  253600    300.53826   -1497.9287    507.88128    365.36977    146.48054     37926.35 
  253700    305.34419   -1510.9537    489.22329    355.36139   -17.738316     37926.35 
  253800      300.425   -1492.3957    488.62241    351.13312   -391.66584     37926.35 
  253900    307.36324    -1535.553    485.84693    336.49162    -728.4806     37926.35 
  254000    302.16129   -1520.2883    513.19336    355.64207   -288.66136     37926.35 
  254100    298.30149   -1553.6403    514.95574    306.64494    27.285685     37926.35 
  254200    302.76443   -1597.2539    511.72158    279.92484    231.06317     37926.35 
  254300    293.17664   -1514.2927    496.04966    303.97356   -26.154235     37926.35 
  254400    297.67072   -1512.7011    494.67171    324.45531    515.12124     37926.35 
  254500    282.80704   -1531.6522     499.8776    243.67539   -154.52013     37926.35 
  254600    300.70025   -1518.5219    515.02114    352.64698   -271.32152     37926.35 
  254700     300.1826   -1526.8978    520.83892    347.75428   -98.070611     37926.35 
  254800     296.1907   -1518.9363    498.47981    315.35334    109.75127     37926.35 
  254900    301.80362   -1500.2251    521.47951    382.37839   -162.99413     37926.35 
  255000    299.45838    -1492.481    505.31853    363.38451    164.19401     37926.35 
  255100    298.71247   -1513.5184    526.98128    360.64589   -131.75776     37926.35 
  255200    295.88254   -1489.0738    502.74763    348.09389   -159.34239     37926.35 
  255300    290.02598   -1496.4805    506.43581    317.96248   -199.52393     37926.35 
  255400    306.26891   -1452.4259    489.62111    418.45742   -222.81741     37926.35 
  255500     302.6241   -1506.3093    518.81273    377.32766    64.536423     37926.35 
  255600    301.80569   -1527.6131    496.25679    329.77699   -19.374786     37926.35 
  255700    298.04592   -1504.5339    519.52286    359.16582   -196.19131     37926.35 
  255800    297.42735   -1488.1862    479.19666    332.39756   -235.33894     37926.35 
  255900    306.38504   -1483.0224    507.30521    406.06887     29.45986     37926.35 
  256000    297.52987   -1496.7732    502.46597    347.54228   -301.21766     37926.35 
  256100    302.17928   -1492.0271    505.88768    376.67873   -42.876706     37926.35 
  256200    302.53741   -1531.7478    481.17242    313.85792    273.09199     37926.35 
  256300    300.59898   -1553.4918    511.87573    314.07495   -62.977004     37926.35 
  256400    300.06274   -1503.3717    515.42198    365.32288    216.73762     37926.35 
  256500    294.52785    -1535.029    497.90516    291.18663   -311.53028     37926.35 
  256600    311.61176   -1487.2206    513.52595    431.66371   -27.079968     37926.35 
  256700    301.47698   -1506.4673    498.62585    351.80935    511.48169     37926.35 
  256800    302.93618   -1509.9932    518.25551    374.49406    225.93282     37926.35 
  256900    298.22173   -1527.5061    510.57235    328.03597    406.54107     37926.35 
  257000    293.60264   -1493.9687    509.02579     339.1949    625.55624     37926.35 
  257100    305.23171    -1459.171     508.9305    426.34402    480.34619     37926.35 
  257200    307.23557   -1444.5183    536.08598    477.18954    1057.2556     37926.35 
  257300     296.7903   -1476.8601    513.04402    374.69795    601.68223     37926.35 
  257400    293.70579   -1518.7784    502.77986    308.60448    393.72281     37926.35 
  257500    289.79426   -1481.2324    509.70936    335.43907     235.3681     37926.35 
  257600    302.67669   -1485.6227     513.9371    393.37582   -105.11515     37926.35 
  257700    293.22895   -1539.0649    497.55209    280.93969   -269.98144     37926.35 
  257800    299.60169   -1530.9698    491.63121    311.85478   -60.834235     37926.35 
  257900    294.68535   -1491.9079    517.83304    354.94594     319.6048     37926.35 
  258000    301.41158   -1524.1336    491.28475    326.50707   -78.328703     37926.35 
  258100     302.2659   -1507.7645    504.24766      359.692    31.619444     37926.35 
  258200    302.58324   -1496.7622    507.10382     374.9816    206.02682     37926.35 
  258300    300.15018   -1537.8042    462.09893    277.96169   -393.16959     37926.35 
  258400    301.24465   -1546.4424    493.65451    305.81507   -721.25798     37926.35 
  258500    285.31175   -1552.6167    518.01556    252.14502   -905.37792     37926.35 
  258600    293.02024   -1560.6355    481.77376    242.64946   -200.58109     37926.35 
  258700    293.82029   -1560.5611    481.78932    246.34769    361.68124     37926.35 
  258800    305.54259   -1562.5835    519.04606    334.44915    125.03634     37926.35 
  258900    301.79098   -1575.6288    483.29275    268.73087   -447.70319     37926.35 
  259000    315.71296   -1558.7816    505.46866    370.54169    244.96254     37926.35 
  259100    304.27405     -1550.72    494.46263    316.00814   -329.57766     37926.35 
  259200    296.65936   -1538.8153    482.11506    281.22332    -233.6895     37926.35 
  259300     298.9216   -1583.2452    500.69058    265.57149    176.14359     37926.35 
  259400    306.94041   -1553.9362    484.87866     315.2331   -13.863589     37926.35 
  259500    298.34682   -1601.3842    488.37126    232.52098    178.09772     37926.35 
  259600    309.77814   -1547.5189    506.43817    356.00803    817.60201     37926.35 
  259700    289.95584   -1572.7988    516.60291    251.49497   -200.00466     37926.35 
  259800    292.57485   -1581.4493    483.66177    221.71497   -645.56223     37926.35 
  259900    306.11496   -1605.2235    484.59338    259.93786   -290.10983     37926.35 
  260000    305.78878   -1567.4106    498.06185    309.74811   -371.41689     37926.35 
  260100    292.09216   -1548.0933    487.14395    256.37625   -693.01968     37926.35 
  260200     304.1562   -1524.7831    502.63643     349.5873   -645.33438     37926.35 
  260300     287.0219   -1545.2426    522.39822    271.61453    -1105.307     37926.35 
  260400    290.70023   -1532.5543    474.18693    252.68071   -335.80984     37926.35 
  260500    295.14935    -1497.544    498.53254    332.10197   -357.94408     37926.35 
  260600     291.2475    -1516.087    497.79053    295.21976    41.844864     37926.35 
  260700     300.7967   -1483.3995    523.90634    397.08959    273.46458     37926.35 
  260800    292.41055   -1501.2341    503.67869    321.20611    305.71059     37926.35 
  260900     305.7978    -1494.213    504.37264    389.29721    453.31001     37926.35 
  261000    291.94105   -1527.3288    509.82758    299.14287    304.54869     37926.35 
  261100    316.43478   -1494.2938    494.73918    427.55539    361.05434     37926.35 
  261200    302.30792   -1507.4355    480.59327    336.55613    246.52714     37926.35 
  261300    291.49603   -1462.1222    495.10637    347.62123   -413.17606     37926.35 
  261400    312.80822   -1484.8107    483.81673    409.76039   -513.07686     37926.35 
  261500    300.06143   -1531.5844    511.34022    333.02257   -782.95413     37926.35 
  261600    304.82224   -1538.4601     495.0912    331.36889    114.91697     37926.35 
  261700    314.43659   -1493.9261    494.21905    418.39114   -211.96954     37926.35 
  261800    302.44747   -1478.5501    513.49888    398.97651    98.757564     37926.35 
  261900    301.58407   -1557.0614    476.84594    279.91832   -80.640803     37926.35 
  262000    303.90639   -1516.0695    505.47789    360.01576    154.96355     37926.35 
  262100    299.08126   -1529.2779    515.79953    335.36785   -106.33152     37926.35 
  262200    311.59684   -1530.4842    499.55533    374.36217   -272.63266     37926.35 
  262300      295.944   -1571.7942    486.41148    249.31457   -48.881966     37926.35 
  262400     299.5478   -1594.1661    489.66549    246.44968    526.43074     37926.35 
  262500     296.2765   -1550.7908    513.75583    299.16191   -231.44852     37926.35 
  262600    301.29899   -1550.2316    479.45314    288.06963    4.4112403     37926.35 
  262700    300.77893   -1527.4537    499.58517    328.63415   -8.7297311     37926.35 
  262800    299.13495   -1571.6331    513.18029    290.63553   -44.245625     37926.35 
  262900    299.77057   -1519.9807    512.80171      344.776    92.262236     37926.35 
  263000    303.85775   -1557.4796    506.82441    319.73284    399.66049     37926.35 
  263100    303.51743   -1572.3643    501.63032    298.11915   -381.43426     37926.35 
  263200     300.8923   -1512.9514    490.15204    334.21463    158.43516     37926.35 
  263300      296.176   -1480.5237    498.79381    354.01372     425.4781     37926.35 
  263400    300.95418   -1496.3315    508.68255    369.64411   -275.19392     37926.35 
  263500    303.12203   -1542.2388    492.14743    316.97853     183.1142     37926.35 
  263600    305.46254   -1561.8001    486.08198    301.90749     307.9565     37926.35 
  263700    309.19538   -1546.4669    496.94881    344.94238   -55.120044     37926.35 
  263800    302.23598   -1540.1247    497.90484    320.85401    428.49118     37926.35 
  263900    300.41229   -1579.1025    511.57319    287.31979    533.47272     37926.35 
  264000    309.01132    -1522.049    496.15107    367.73253   -115.11662     37926.35 
  264100    306.49765   -1507.1126    477.45886    352.64013   -366.25963     37926.35 
  264200    307.51408   -1486.3398    498.61037    399.14849   -702.81979     37926.35 
  264300    293.14478   -1488.2911    491.63357    325.41529   -267.36853     37926.35 
  264400    307.46246   -1538.7827    536.13551    383.99791     91.98316     37926.35 
  264500    298.42977   -1496.8778     482.1192    331.14936    123.13651     37926.35 
  264600     298.6439   -1509.0181    516.13398    353.98961   -98.944404     37926.35 
  264700    300.00272    -1529.641    531.99051    355.35146    300.07051     37926.35 
  264800     298.1086   -1466.1889    503.78719    382.05788    366.74361     37926.35 
  264900    310.14916   -1466.0967    500.93919    433.60449     897.4527     37926.35 
  265000    301.59322   -1475.7617    499.70002    384.11341   -458.54577     37926.35 
  265100    304.79558   -1492.6397    509.98366    391.96153   -364.66742     37926.35 
  265200    288.04476   -1511.8174    508.91301    296.16762   -385.55988     37926.35 
  265300      298.412   -1474.9891    488.08552    358.92428    178.08067     37926.35 
  265400     297.6312   -1473.5508    502.50617    371.26189   -238.60448     37926.35 
  265500    301.93605   -1493.8798    506.29563    374.13703   -414.75633     37926.35 
  265600    303.39346   -1540.8166     493.9739     321.4514   -877.31275     37926.35 
  265700    307.06866   -1518.4803    505.25599     371.6448   -432.62193     37926.35 
  265800    303.24886   -1506.0279    486.49361    348.10764   -702.46399     37926.35 
  265900     298.1037   -1517.8423    492.21113    318.80621   -359.72592     37926.35 
  266000    297.44984   -1545.0587    509.77301    306.20291   -334.23517     37926.35 
  266100    291.53417   -1517.7725    493.79906     290.8356   -600.89304     37926.35 
  266200    310.01273   -1521.6782    486.22982    362.69839    192.07646     37926.35 
  266300    293.06789   -1475.2535    494.08218    340.55481    500.10879     37926.35 
  266400     299.8425   -1511.3445    500.83348    341.76833    527.50537     37926.35 
  266500    308.39299   -1546.8523    472.45501    316.44451   -15.980202     37926.35 
  266600    308.89483   -1513.8464     486.1538    365.41249    222.92801     37926.35 
  266700      308.948    -1552.955    491.84643    332.23626   -33.972292     37926.35 
  266800    306.71582   -1547.5194    508.59078    344.34914    -55.33557     37926.35 
  266900    305.77469   -1514.4046    470.64955    335.27827   -446.00331     37926.35 
  267000    301.29477   -1528.5564    526.08208    356.35474   -280.69199     37926.35 
  267100    299.08634   -1544.6586     466.8868    271.09736   -586.03125     37926.35 
  267200    290.52637   -1529.3965    501.25267    282.12008   -560.95581     37926.35 
  267300    310.46572   -1524.7983    503.77073    379.16218   -480.66397     37926.35 
  267400    296.92699   -1528.4815    479.63329    290.28227   -463.52009     37926.35 
  267500    300.87616   -1540.6736    489.46817    305.73569    45.436017     37926.35 
  267600    298.73459   -1525.5762    494.74633    316.45287    294.69105     37926.35 
  267700    298.94059   -1570.0162     499.8759    278.07145    228.30862     37926.35 
  267800    298.67995   -1572.1294    483.98227    258.88922    305.76933     37926.35 
  267900    298.08811   -1574.2963    528.36068    298.43146    252.87625     37926.35 
  268000    303.24195   -1582.8128    494.79799    279.59597    273.04808     37926.35 
  268100    292.32286   -1566.5983    496.72878    248.49656   -94.386881     37926.35 
  268200     304.9787   -1524.9681    490.46612    340.94147    270.76471     37926.35 
  268300    293.13464   -1545.9429    500.14517    276.22944   -48.926424     37926.35 
  268400    296.58644    -1539.093     506.0791    304.58072    197.77387     37926.35 
  268500     285.8991   -1548.8919    501.12814    241.63129    232.49427     37926.35 
  268600    295.23535   -1584.3623    487.61014    234.74913   -22.034626     37926.35 
  268700    292.47075   -1597.1873     476.1721     198.0178   -141.27259     37926.35 
  268800    298.00589   -1553.0177    489.83178    280.81036    80.838323     37926.35 
  268900    299.18633   -1530.7988    503.81001    322.33129    -213.1785     37926.35 
  269000     303.6162   -1504.3762    514.73455    379.65696   -142.88527     37926.35 
  269100    295.76363   -1551.0829    492.02441    274.82534    225.57398     37926.35 
  269200    309.62872    -1519.873    502.20686     378.7488    687.50605     37926.35 
  269300    297.95534   -1563.0073    487.94008    268.70109    585.56445     37926.35 
  269400    303.98013   -1548.1103    510.58572    333.41538    247.77239     37926.35 
  269500    296.11213   -1552.0687    484.27401    267.66084   -252.86651     37926.35 
  269600    300.20538   -1546.2839    511.50213    319.13416    431.53402     37926.35 
  269700    290.09556   -1583.7466    483.60427    208.17864   -198.17727     37926.35 
  269800    296.21748   -1524.7846    474.91565    286.06171    255.90171     37926.35 
  269900    298.38844   -1564.7878    495.45585    276.38967   -352.06612     37926.35 
  270000    289.25444    -1575.727    465.18756    193.98814   -457.51678     37926.35 
  270100    298.27719   -1579.1661     483.4806    249.53436   -259.87847     37926.35 
  270200    307.09571   -1579.2528    489.07666    294.81492    35.210844     37926.35 
  270300    294.02641   -1591.0488    498.19274    233.19292     100.2082     37926.35 
  270400    301.97715   -1532.9492    493.48151    322.43885    409.95245     37926.35 
  270500    299.37837   -1519.9842    527.85706    358.05903    403.75745     37926.35 
  270600     299.2425   -1509.2836    496.67729    336.96713   -29.022081     37926.35 
  270700    307.19605   -1518.4091    501.10675    368.14131   -81.230285     37926.35 
  270800    302.52453   -1564.5024    498.04967    297.92252   -325.27189     37926.35 
  270900     289.8838   -1545.7399    471.16221    232.78826   -293.69177     37926.35 
  271000    291.31407   -1563.0844    486.63231    237.36437   -305.33101     37926.35 
  271100    298.01602   -1546.4202     477.0755    274.69726    272.61944     37926.35 
  271200    302.51284   -1544.1557    487.59212    307.75893    93.056506     37926.35 
  271300    306.96236   -1496.2427    502.12058    390.26752    198.48916     37926.35 
  271400    299.15681   -1483.0573    496.54972    362.67933    39.682475     37926.35 
  271500    302.57534   -1553.0121    480.82334    292.41565   -214.51097     37926.35 
  271600    291.16185   -1499.4343    490.63661    304.33225    220.13192     37926.35 
  271700    287.21468   -1527.6844    495.48006    263.12404    140.71884     37926.35 
  271800    298.64071   -1551.3014    494.83177    290.38967    193.95234     37926.35 
  271900    309.85724   -1538.7758    493.22387    351.89357    -53.59875     37926.35 
  272000    298.49373   -1540.7972    491.35985    296.75908   -269.48241     37926.35 
  272100    300.41557   -1527.4595    509.35375    336.75814    490.67936     37926.35 
  272200    285.46123   -1529.8026    483.24916    240.86691    219.67159     37926.35 
  272300    290.43766   -1547.8516    513.87337    275.88558    243.75336     37926.35 
  272400    296.52671   -1550.4227    490.19442    277.09701     205.5647     37926.35 
  272500    290.10195   -1558.4253    501.34551    251.26998   -127.11743     37926.35 
  272600    294.74877   -1534.4628    503.20006    298.04406    263.37894     37926.35 
  272700    298.16717   -1551.5403    504.72516    297.90852    276.56116     37926.35 
  272800    302.46949   -1508.2801    493.80419    349.65104    514.49841     37926.35 
  272900    302.85576   -1550.4872    514.99622    330.37804    94.300252     37926.35 
  273000    295.97494   -1476.6212    482.72912    340.94478    394.71189     37926.35 
  273100     307.2093   -1530.5619    481.86038    336.80183   -283.07926     37926.35 
  273200    306.67255   -1528.6677    501.23021     355.6451   -1030.6229     37926.35 
  273300    305.29073   -1551.8066    477.09312    302.13717   -655.60807     37926.35 
  273400    301.89765   -1505.5243     487.4909    343.51464    83.567413     37926.35 
  273500    306.68209   -1538.8448    504.58041    348.86131    309.70047     37926.35 
  273600    301.35716   -1529.5431    526.14887    355.71618    35.407188     37926.35 
  273700    292.51043   -1511.2979    510.98903    318.90306    2.1058211     37926.35 
  273800    291.95861   -1544.1355    489.99703    262.58479    91.395351     37926.35 
  273900    299.62865   -1553.5449    499.01774    296.78772    177.68047     37926.35 
  274000    298.46674   -1530.4786     515.0084    330.60455    181.95647     37926.35 
  274100    304.82799   -1509.8671    501.17944     366.0761    797.85057     37926.35 
  274200    300.11169   -1520.4772    500.75757    333.77374    531.37772     37926.35 
  274300    295.67832   -1552.8312    482.06307    262.73093    670.29508     37926.35 
  274400    298.65521    -1530.745    485.11726    301.29699    306.43094     37926.35 
  274500     289.5199   -1482.8126    508.66421    331.57637    688.16007     37926.35 
  274600    297.10811   -1543.6076    495.51346    291.85322    526.13722     37926.35 
  274700    305.36956   -1539.8194    502.32329    339.71006    356.85948     37926.35 
  274800    305.85136   -1513.8498    493.31065    358.83992    840.63885     37926.35 
  274900    304.40613    -1542.409    488.10678    318.55892   -129.72681     37926.35 
  275000    294.02147   -1541.7036    504.31196    288.63511    77.642369     37926.35 
  275100    298.38078   -1565.3643     499.7983     280.1211     382.0205     37926.35 
  275200    295.78618    -1515.709    497.59391    315.87039     97.15444     37926.35 
  275300    310.82667   -1536.1957    510.46219    376.08412    -51.86496     37926.35 
  275400    297.16242   -1517.5276    511.83664    334.50136   -58.836587     37926.35 
  275500    293.58821   -1585.3699    506.73481    245.43765   -93.937937     37926.35 
  275600    306.39436   -1515.0149    511.00218    377.81535   -60.605324     37926.35 
  275700    312.54369   -1539.9958    502.59342    372.15891     95.98222     37926.35 
  275800    304.79578   -1571.1595    476.39537    279.85435    124.77488     37926.35 
  275900    304.41782   -1550.9593     494.2331    316.18776     296.0464     37926.35 
  276000    299.20552   -1554.8718    497.61914    292.15399   -385.90419     37926.35 
  276100    291.71474    -1538.913    510.79828    287.50875   -295.88657     37926.35 
  276200    294.22356   -1522.3065    490.42345    295.05511    -694.8682     37926.35 
  276300    298.90667    -1538.201    503.78367    313.64146   -713.37457     37926.35 
  276400    296.43769   -1501.0456    496.90697    332.78516   -145.91736     37926.35 
  276500    307.62304    -1523.023    506.53109    370.87744   -930.35719     37926.35 
  276600    305.30375   -1549.8588    499.30506    326.35567   -177.95305     37926.35 
  276700    297.76081   -1513.5646    504.17022    333.49663    190.34907     37926.35 
  276800    296.47985    -1517.532    519.28079     338.8627    234.74833     37926.35 
  276900    294.76371   -1541.0016    480.80482    269.17743    2.8789084     37926.35 
  277000    302.05512   -1542.5002    485.77158    305.52957   -556.22088     37926.35 
  277100    298.81391    -1556.733    489.37872    280.28621   -180.32713     37926.35 
  277200    295.81782   -1521.2228    509.91857    322.82394   -34.778049     37926.35 
  277300    312.46812    -1471.441    510.75643    448.53594    126.44189     37926.35 
  277400    297.69084   -1531.2628    512.53691    323.84957   -310.47592     37926.35 
  277500    301.49915   -1553.3684    512.47257    318.85497   -182.92145     37926.35 
  277600    300.22935   -1560.5903    503.14454    296.57834   -509.84023     37926.35 
  277700    296.74825   -1558.9164    502.45139    281.85945   -623.51239     37926.35 
  277800    295.62523   -1555.4248    517.94946    295.78425   -367.77615     37926.35 
  277900    306.36225   -1559.1548    509.20821    331.73661   -221.95874     37926.35 
  278000    296.54936   -1502.0559    507.69595    343.06747   -478.22255     37926.35 
  278100    305.30305    -1539.476    483.96256    321.39284   -405.43991     37926.35 
  278200    301.89024   -1537.2089    488.23695    312.54266   -26.988615     37926.35 
  278300    301.55506   -1565.3645    516.37127    311.00974   -10.240345     37926.35 
  278400    311.25019   -1544.1557    504.67824    364.25018    230.28719     37926.35 
  278500    305.39867   -1541.8939    501.67169    337.11532    172.60884     37926.35 
  278600    311.21299   -1507.2457    501.78714     398.1013   0.62379405     37926.35 
  278700    298.20869   -1509.1877    503.76487    339.48813   -261.24138     37926.35 
  278800    303.73144   -1508.3895    513.58825    375.01713   -418.14004     37926.35 
  278900    299.53105   -1500.1631     502.9762    353.68782   -447.99641     37926.35 
  279000    298.74052   -1515.9778    487.89211    319.22378   -8.0270585     37926.35 
  279100    296.40063   -1498.5709    505.94822    344.13401   -52.418513     37926.35 
  279200    291.34047   -1555.6691    495.65634    253.92272   -255.62432     37926.35 
  279300     302.8027   -1540.0276    504.85674    330.45892   -446.56986     37926.35 
  279400    298.65396   -1567.9919    510.50064    289.42778   -226.30509     37926.35 
  279500     290.3259   -1589.7407    505.88923    225.50834   -122.44077     37926.35 
  279600    302.20024   -1572.6145    480.82934    271.12753    450.04153     37926.35 
  279700    285.69176   -1587.4254    518.82283    219.85744   -47.675913     37926.35 
  279800    291.55576   -1548.4056    519.77527    286.27617    330.02992     37926.35 
  279900    309.87565   -1537.2142    488.87832    349.19263    289.66859     37926.35 
  280000    299.15956   -1579.6309     520.9124    290.48079   -147.18749     37926.35 
  280100    300.20094   -1611.4078    482.08918    224.57735   -53.232778     37926.35 
  280200    293.35906   -1564.7856    514.38514    272.63886   -473.96217     37926.35 
  280300    295.39769    -1583.239    491.08395    240.07836   -340.24175     37926.35 
  280400    300.01803   -1562.8025    491.17459    281.44306    123.26865     37926.35 
  280500     297.2616   -1539.4657    517.41436    318.58824    433.55916     37926.35 
  280600    294.79405   -1601.5273    493.65394    221.63763   -48.494913     37926.35 
  280700    290.84911   -1604.6774    478.51643     185.5585   -316.62629     37926.35 
  280800    301.53057   -1552.6775    489.72815     296.9432   -184.39341     37926.35 
  280900    297.05071   -1559.3207    503.46969    283.83747   -186.92175     37926.35 
  281000    290.03461   -1570.1777    494.48535    232.35374    212.66867     37926.35 
  281100    301.32994   -1522.7957    519.27354    355.46554    268.64471     37926.35 
  281200    302.68538   -1579.2125    472.12802    258.01614    204.64407     37926.35 
  281300    305.46832    -1562.029    514.79221    330.41487    303.73754     37926.35 
  281400    297.53148   -1524.1883    500.36563    318.03404    187.66089     37926.35 
  281500    301.32096   -1517.0163    504.04979    345.98061    386.54764     37926.35 
  281600    295.06438   -1484.5864    527.10783     373.2517   -437.09706     37926.35 
  281700    299.54004   -1484.5207    483.44956    349.84408   -526.36424     37926.35 
  281800    299.79104   -1485.9524    515.34048    381.43533   -892.85911     37926.35 
  281900    299.91133   -1491.0449    511.82221    373.36714   -277.59011     37926.35 
  282000    296.78999   -1538.3028    503.75803    303.96787   -215.87411     37926.35 
  282100    307.43311   -1498.9468      504.237    391.80291   -160.18853     37926.35 
  282200    285.07149   -1482.3847    524.34392     327.6218   -337.84823     37926.35 
  282300    300.88794   -1508.0149    489.56895    338.54836   -166.41209     37926.35 
  282400    305.32533   -1509.3786    485.94893    353.57701   -274.26826     37926.35 
  282500    304.89693   -1490.0545     507.9675     392.9877   -125.59584     37926.35 
  282600    304.13516   -1506.5475    518.51186    383.60352   -145.21329     37926.35 
  282700    298.72671   -1535.6723     478.5973    290.17221   -503.36878     37926.35 
  282800    308.22859   -1554.6564    500.69523    336.13917   -103.92544     37926.35 
  282900    296.39071   -1534.7947    521.72336    323.64054   -99.229433     37926.35 
  283000    294.96778   -1539.7789    490.77246    281.28813   -415.16964     37926.35 
  283100    297.66897   -1490.3381     519.3712    371.50988    170.03234     37926.35 
  283200    294.47124     -1540.43    500.98679    288.61196   -217.59906     37926.35 
  283300    297.41407   -1550.4352    507.68285    298.57492   -459.06367     37926.35 
  283400    299.69595   -1564.2752    479.90077    267.24403    115.74913     37926.35 
  283500    296.26359   -1523.8414      515.861    328.15824     89.20735     37926.35 
  283600    297.74322   -1559.0392    477.74076    261.51326   -377.30808     37926.35 
  283700    294.80595   -1566.3569     474.9096    238.11741   -546.41294     37926.35 
  283800    298.44671   -1548.3108    488.65328    286.32693    44.332358     37926.35 
  283900    289.80529   -1542.8622    496.58432      260.734    148.13453     37926.35 
  284000    302.80205   -1575.1996    503.80444    294.23172    162.56098     37926.35 
  284100    301.18499   -1541.5396    487.23557     304.0299   -398.15098     37926.35 
  284200    298.16506   -1510.2877    510.20535    344.63181   -162.79061     37926.35 
  284300    296.89545   -1524.6561    500.21373    314.54589    244.91842     37926.35 
  284400    293.08882   -1526.2745      496.332    291.87804    238.23446     37926.35 
  284500    302.23242   -1525.7712    513.53628    350.82287   -632.00561     37926.35 
  284600    302.42483   -1492.3478     502.3639    373.94168   -400.15482     37926.35 
  284700    306.51376   -1514.3056    483.18592    351.24682   -387.72959     37926.35 
  284800    287.27191   -1472.7441    541.75599    364.59832   -390.87828     37926.35 
  284900    282.95068   -1498.4661     507.7969    285.42864   -523.99092     37926.35 
  285000    289.75473   -1539.4117    520.33157    287.70372   -780.89249     37926.35 
  285100    304.43508   -1535.4127    514.02906    351.60814   -1010.9036     37926.35 
  285200    289.59085   -1521.7222    485.13138    269.45394    -660.6451     37926.35 
  285300    297.80813   -1467.6168    515.61407    391.10172   -987.03668     37926.35 
  285400     302.9559   -1501.6916    505.98877    370.61785   -484.45399     37926.35 
  285500    303.28736   -1508.1691      513.401    373.04743   -89.684339     37926.35 
  285600    298.57375   -1524.8754    497.08577    318.76774   -110.70385     37926.35 
  285700    293.86029   -1500.2748    501.60959     326.6346    245.87738     37926.35 
  285800    290.75176   -1536.7621    501.89512    276.41343    519.32159     37926.35 
  285900    298.28281   -1552.5695    483.97381    276.64954    439.86211     37926.35 
  286000    312.75956    -1529.502    509.99918    391.03201    922.55551     37926.35 
  286100     297.9386   -1587.4034    516.91898    273.20847    439.57731     37926.35 
  286200    292.07231   -1583.9984    503.33725    236.57488    568.03796     37926.35 
  286300    296.40799   -1589.1557    489.26101    236.89515    59.915927     37926.35 
  286400     286.9733   -1562.3079    494.13265    226.06443    53.321035     37926.35 
  286500    306.63413   -1562.8825    507.96998    327.99683    618.64905     37926.35 
  286600    297.30137   -1508.7247    515.97485    348.06914   -562.34584     37926.35 
  286700    303.05325   -1518.8075    499.43425    347.38643   -340.13669     37926.35 
  286800    296.74406   -1536.9852    510.71317     312.0335   -180.90699     37926.35 
  286900    297.26147   -1533.8658    526.48364    333.25682   -378.04895     37926.35 
  287000     294.6562   -1525.3158    515.84777    319.42132   -260.10743     37926.35 
  287100    306.20378   -1525.4293    519.89766    375.43691     -100.446     37926.35 
  287200    295.29583   -1515.5821     490.3827    306.57467   -414.26445     37926.35 
  287300    302.05288   -1504.3743    521.72077    379.59453   -577.94001     37926.35 
  287400    303.29982   -1491.7554    496.68338    372.79979   -443.59685     37926.35 
  287500    289.01842   -1480.6877    495.08604    317.86145   -550.17028     37926.35 
  287600    293.86186   -1482.0958    525.79063    369.00178    276.25266     37926.35 
  287700    301.69904   -1506.2461    520.79695    375.20314    583.40517     37926.35 
  287800    296.65306   -1508.1879    505.97206    335.67923    677.41457     37926.35 
  287900    290.04856   -1518.4958    524.24706     313.8603    304.36874     37926.35 
  288000    312.81789   -1526.2343    498.92592    383.48953    569.99585     37926.35 
  288100      294.921   -1496.2779    544.74991    378.55559    224.34208     37926.35 
  288200    302.27553    -1493.795    490.86536    360.32265    231.22667     37926.35 
  288300     296.1867   -1454.4884    545.98301    427.28645    327.98718     37926.35 
  288400    290.67889   -1451.4567    510.25482    369.74994    405.09097     37926.35 
  288500     302.1696   -1493.8444    519.21893    388.14906    644.76533     37926.35 
  288600    293.02171   -1490.5293    524.28753    355.27607   -34.387385     37926.35 
  288700    299.00712   -1518.3978    520.30511    350.41913    632.30903     37926.35 
  288800    307.80456    -1491.515    504.25406    400.92701    553.79944     37926.35 
  288900    300.37686   -1533.9698    513.58366    334.30313    253.10931     37926.35 
  289000    301.67993   -1537.4432    498.37891    321.50184    817.74051     37926.35 
  289100    303.58382   -1528.5868    497.47359    338.03932    159.96184     37926.35 
  289200    302.51915   -1557.3917     498.9972    305.95644    260.96067     37926.35 
  289300    305.56774   -1562.8119    506.00764    321.29571    1031.7464     37926.35 
  289400    306.70555    -1526.697    508.11592    364.65038    647.10554     37926.35 
  289500    297.42087   -1504.3133     486.5217    323.56629    753.94391     37926.35 
  289600    298.52984    -1499.579    510.22841    357.00868    701.95718     37926.35 
  289700    299.61508   -1459.7903    510.11701    401.58046    818.20191     37926.35 
  289800    291.41062   -1539.6226    527.34289    301.97214    629.29419     37926.35 
  289900    293.52446   -1542.6905    512.35272    293.44742    576.84878     37926.35 
  290000    303.60532   -1556.4235    513.05646    325.88248     282.5119     37926.35 
  290100    296.72433   -1548.9571    495.13059    284.38999    85.162381     37926.35 
  290200    301.24355   -1540.4213    507.57761    325.75435   -398.11652     37926.35 
  290300    303.54582   -1542.3955    513.55287    340.13857   -131.95114     37926.35 
  290400    301.80821   -1521.7417     499.0773    338.48027   -322.86359     37926.35 
  290500    310.42802   -1533.3054    493.63729    360.35159   -398.24257     37926.35 
  290600    296.60732   -1525.7735    476.95991    288.87527    -191.8837     37926.35 
  290700    305.81224   -1459.7521    524.79736    444.24792    22.330516     37926.35 
  290800    291.98695   -1457.6364    505.69304    364.90774   -391.74135     37926.35 
  290900    300.83243   -1520.8009    490.24064    326.18364   -142.93673     37926.35 
  291000    293.14578    -1582.245    503.96272     243.7951    -278.0253     37926.35 
  291100    295.44646   -1560.2489    492.84626    265.05075    73.414636     37926.35 
  291200    308.58855   -1524.8918     485.0187    351.85066    302.36271     37926.35 
  291300     300.9219   -1534.8644    507.56569    329.84869    469.02102     37926.35 
  291400    306.50872    -1535.621    498.63225    345.35503    133.00548     37926.35 
  291500    301.70536   -1544.7063    486.17087     302.1454   -206.58102     37926.35 
  291600    300.18298   -1570.6688    515.32354    298.46969   -503.17587     37926.35 
  291700     301.8131   -1517.9693    500.32181    343.51922   -512.74314     37926.35 
  291800    306.82532   -1518.3312    529.07559    394.51599   -361.15434     37926.35 
  291900    297.45244     -1540.77    522.23521    322.96549   -500.08046     37926.35 
  292000    301.04142   -1535.7159    487.55326    309.52382    119.60506     37926.35 
  292100    296.24715   -1557.9708    511.54759    289.64129   -982.22925     37926.35 
  292200    301.30111   -1505.4892    496.08839    349.45686   -1262.7782     37926.35 
  292300    310.16945   -1562.8129    515.74146    351.78212   -955.50029     37926.35 
  292400    304.32113   -1525.5944    489.55309    336.43654   -934.70727     37926.35 
  292500    296.85364   -1515.8251    512.86402    335.83862    193.15641     37926.35 
  292600    304.55419   -1520.3125    497.71727    350.93367   -154.41006     37926.35 
  292700    303.07268   -1510.9997    508.63059    364.47828    653.81114     37926.35 
  292800    302.50811   -1515.4144     516.2792    365.16602    485.06993     37926.35 
  292900    305.50406   -1538.5884    503.84515    343.06954    172.55497     37926.35 
  293000    304.05952   -1561.7207    505.58861    315.16589    164.77876     37926.35 
  293100     308.3723   -1554.7128    521.98709    358.02277    255.63177     37926.35 
  293200    306.93595   -1602.8099    512.35549    293.81617     466.4425     37926.35 
  293300     301.1773   -1558.3123    514.82648    314.81347    53.784055     37926.35 
  293400    293.83899   -1529.1252     498.3233    294.40182    174.96847     37926.35 
  293500    296.39479   -1546.1742    490.47357    281.02969   -199.61014     37926.35 
  293600    296.84854   -1534.6764    538.63383    342.73415   -131.32546     37926.35 
  293700     307.0226   -1545.4499    507.14958    346.36101   -529.65103     37926.35 
  293800    308.51604   -1589.5559      504.774    306.61484   -361.29884     37926.35 
  293900    296.97796   -1539.4075    511.70063    311.65352   -185.28676     37926.35 
  294000    296.54375   -1527.8837    527.79687    337.31533    80.721667     37926.35 
  294100    304.46967   -1513.2837    506.99717    366.86118    243.74039     37926.35 
  294200    280.13947   -1550.2059    515.37491    228.58841   -346.18663     37926.35 
  294300    301.90713   -1541.7749    508.41626    328.23218     234.5392     37926.35 
  294400    290.85405   -1476.9924    518.13801    352.88732   -259.87699     37926.35 
  294500    299.85626   -1541.4829    501.64287    312.50142   -810.37988     37926.35 
  294600    299.05584    -1499.349    506.98329    356.36586   -1155.6095     37926.35 
  294700    297.55446    -1541.912    512.06148    312.10982   -780.79753     37926.35 
  294800    294.18151   -1599.4153     525.5004    252.83362   -948.73605     37926.35 
  294900    298.65125   -1575.5722    499.21887    270.55351   -920.56787     37926.35 
  295000    303.89438   -1530.9355     512.2494    351.86716   -162.36151     37926.35 
  295100    303.14624   -1511.6755    501.34382    356.84746   -379.69919     37926.35 
  295200    308.26169   -1517.4426    516.49004    389.29704    200.51595     37926.35 
  295300    291.03017   -1542.4523    513.47088    283.55458    233.91349     37926.35 
  295400    303.81339   -1600.2717    482.74176    252.65798    191.86677     37926.35 
  295500    301.75493   -1608.5061    532.09059    284.48881   -76.203454     37926.35 
  295600    299.95129   -1535.3291     492.3254    309.76627    50.784427     37926.35 
  295700     296.8813   -1561.3478    529.50879    307.08543   -347.53861     37926.35 
  295800    304.65034   -1578.7696     509.0942     304.2872   -78.236314     37926.35 
  295900    299.63709   -1557.7515    508.39345    301.99495    151.14588     37926.35 
  296000    297.74922   -1561.2218    484.79123    266.40813   -226.00537     37926.35 
  296100     300.6941   -1542.8239    496.37531    309.67141   -135.68965     37926.35 
  296200    300.33292   -1552.1259    535.31644    337.68168   -401.98994     37926.35 
  296300    293.25813   -1558.8658    516.71399    280.43231   -65.272935     37926.35 
  296400    306.38765   -1552.0052    509.37114    339.16376   -129.93346     37926.35 
  296500    294.27928   -1553.8592    507.09281    280.42306    313.10653     37926.35 
  296600    305.40196   -1523.5404    532.99009    386.80198    124.34804     37926.35 
  296700    295.21164   -1522.3696    495.60955    304.63434    -138.2502     37926.35 
  296800    293.24146   -1485.1026    511.68477    349.09103   -334.28392     37926.35 
  296900    300.55498   -1506.3629    533.62126      382.751   -161.12374     37926.35 
  297000    303.00952    -1565.989    489.97146    290.54495   -456.64586     37926.35 
  297100    299.19463   -1521.9525    530.74022    358.14517   -522.64862     37926.35 
  297200    302.57037   -1524.4549    510.61959    350.74665    -527.9089     37926.35 
  297300     305.9673    -1540.392     507.1901    346.70005   -214.95169     37926.35 
  297400    302.69676   -1534.9605    515.75178    345.94324   -554.12387     37926.35 
  297500    297.69482   -1565.3283    500.71602    277.98115   -272.76343     37926.35 
  297600     303.6826   -1543.7681    507.58378    333.41374   -844.83673     37926.35 
  297700    290.86814   -1544.1395    515.02367    282.68949   -60.678101     37926.35 
  297800    295.05209   -1511.0798    507.95572    327.55074    -181.9091     37926.35 
  297900    296.42162   -1565.1372    518.24513    289.95922   -277.80669     37926.35 
  298000    304.29132   -1534.9214    528.59158    366.01359    690.68945     37926.35 
  298100    297.80024   -1510.7182    518.06016    350.41078     494.2501     37926.35 
  298200    304.01922   -1504.5237    511.43797    378.03053    281.14433     37926.35 
  298300    308.47397   -1532.8827    516.63618    374.96047    62.580858     37926.35 
  298400    311.97796   -1522.7394     516.0345    400.30501    238.26181     37926.35 
  298500    307.57138   -1523.8471    493.46476    356.75405     292.1601     37926.35 
  298600    303.60947   -1559.8342    520.43233    329.86636   -361.74511     37926.35 
  298700    308.29251   -1575.4309    500.46304    315.42081   -180.43588     37926.35 
  298800    301.35453   -1550.4465    551.32739    359.97941   -115.66414     37926.35 
  298900    302.84072   -1576.9548     499.4726    288.31901   -36.915146     37926.35 
  299000     296.1986   -1590.0827    524.45075    270.21358   -742.39596     37926.35 
  299100    299.93614   -1571.2236    498.99264     280.4707   -324.04024     37926.35 
  299200    307.34273   -1599.3086    515.80437    302.60095    -292.8555     37926.35 
  299300    299.22879   -1586.4764    509.63212    272.66725    402.01052     37926.35 
  299400     305.7344   -1586.5005    506.30281    298.65394    299.49496     37926.35 
  299500    295.43473   -1569.3195    511.35166    274.43267   -32.491902     37926.35 
  299600    297.01021   -1555.7181    509.41736    293.20512    467.71056     37926.35 
  299700    287.95116   -1566.0025    502.87669      235.524    182.49484     37926.35 
  299800    297.31902   -1585.8671    539.65963    294.69112    313.59251     37926.35 
  299900    302.43857   -1570.7902    505.47012    298.66745    387.61812     37926.35 
  300000    299.99957    -1571.244    502.31669    284.06046   -267.74893     37926.35 
  300100      298.906   -1584.3254    538.05171    301.78213    537.90572     37926.35 
  300200    299.67325   -1579.9385     493.0403    264.61783     457.8216     37926.35 
  300300    308.81323   -1595.8356    528.46892    325.37034     249.6481     37926.35 
  300400    299.61656   -1590.2539      467.819    228.82544   -449.20889     37926.35 
  300500    299.77118   -1577.7032    502.98779    277.24228     101.6431     37926.35 
  300600    294.50834   -1579.8973    498.38666    246.71179   -468.33852     37926.35 
  300700    296.50602   -1552.3884    526.62462    311.46821   -830.16649     37926.35 
  300800    303.73197   -1561.5364    523.74671    332.03105   -928.05989     37926.35 
  300900    305.13631   -1537.9219    506.68868    344.92107   -720.75822     37926.35 
  301000    316.49379   -1521.8751    507.01428    412.51532   -474.36409     37926.35 
  301100    301.51871   -1560.1115    532.47866    332.20619   -198.96324     37926.35 
  301200    302.55763    -1575.674     491.8785    280.72903   -331.09624     37926.35 
  301300    298.07532   -1594.6694    526.62904    276.26904    19.500231     37926.35 
  301400    301.89184   -1576.6292    506.42028    291.31291    293.03045     37926.35 
  301500    315.44915   -1616.8038    502.28652    308.14759    768.48196     37926.35 
  301600     309.3003   -1593.7187    507.83148    309.04653     405.6256     37926.35 
  301700    288.69675   -1580.8558    512.87553    234.03215    344.15056     37926.35 
  301800    299.01297   -1602.6339    528.96025    274.86453    332.45856     37926.35 
  301900    298.23301   -1621.2327    487.99387    211.78176    190.44532     37926.35 
  302000    300.60307   -1558.5522    516.53819    313.69549    82.677371     37926.35 
  302100     306.0597   -1582.4007    508.87043    306.78847    -453.0196     37926.35 
  302200    296.76698   -1596.5634     502.9231    244.76854   -109.47586     37926.35 
  302300    306.77101   -1602.6112    509.19331    290.10881   -247.86442     37926.35 
  302400    299.34256   -1595.6002    494.81919    249.24368   -48.347789     37926.35 
  302500    308.29713     -1548.78    521.80414    363.43363   -82.952191     37926.35 
  302600    303.95693   -1608.9077    494.20761    256.13522    310.66805     37926.35 
  302700    298.10662    -1645.634    488.03845     186.8551    30.460395     37926.35 
  302800    287.22279   -1633.2337    491.52266    153.65382    427.34611     37926.35 
  302900     302.6541   -1566.4757      518.896    317.37991    306.82705     37926.35 
  303000    303.71456   -1619.8443     505.5616    255.45953   -153.57481     37926.35 
  303100     298.9968   -1638.0637    505.08591    215.48755    317.62376     37926.35 
  303200    303.04121   -1622.6049    514.84066    258.94118    147.69098     37926.35 
  303300    309.62511   -1631.3266     498.2941    263.36609    770.39571     37926.35 
  303400    303.18153   -1569.1101     526.6054     324.8336   -131.80122     37926.35 
  303500    290.20358   -1602.5591     505.0325    211.28162     156.8668     37926.35 
  303600    301.15646   -1630.5543    495.22926    222.88023   -153.52996     37926.35 
  303700    300.47209   -1596.4982    519.89438    278.51498    -567.3802     37926.35 
  303800    295.56641   -1576.9978    494.00077    249.99728   -7.9880041     37926.35 
  303900    309.49968   -1584.9703    525.48131    336.34392    64.197352     37926.35 
  304000    294.99821   -1572.5189    511.55495    269.46779   -405.16274     37926.35 
  304100    297.48622    -1574.688    512.46321    279.42786   -369.49964     37926.35 
  304200    319.11323   -1582.9395    505.48533    361.73549    405.61377     37926.35 
  304300     298.3947   -1587.1862    501.08667     259.6503    345.43755     37926.35 
  304400    291.32003   -1606.2207    504.04183     211.6645   -158.59478     37926.35 
  304500    304.78253   -1603.2366     517.5546     288.8767   -11.269474     37926.35 
  304600    297.04761   -1599.7916    505.61228    245.49521   -298.49736     37926.35 
  304700     297.8466   -1622.7088    509.75824     230.3273   -385.52962     37926.35 
  304800    302.76404   -1566.2469    501.14956    300.35808   -445.96245     37926.35 
  304900    294.96047   -1554.7296    508.96143     284.4934   -348.66293     37926.35 
  305000    304.27069   -1564.9862    510.63035    317.89454   -205.35713     37926.35 
  305100    304.65044   -1544.0571     508.2546    338.16047    381.27387     37926.35 
  305200    304.16601   -1595.9704    519.59937    295.40724    0.9182694     37926.35 
  305300    310.55741   -1595.3411    543.51933    348.78152   -131.57128     37926.35 
  305400    306.55894   -1551.9893     497.2242    327.80518    578.36966     37926.35 
  305500     305.0631   -1561.6409    525.46524     339.6484    167.03763     37926.35 
  305600    291.42554   -1591.1008    498.24388    221.46224    302.72187     37926.35 
  305700    298.01133   -1593.7079    507.47871    257.79166     896.1426     37926.35 
  305800    292.97958   -1597.3855      519.262    243.20439    841.45003     37926.35 
  305900    307.32847   -1546.0236    505.87472    345.89198    724.66304     37926.35 
  306000     301.8466   -1568.0208    495.52737    288.82431     527.1588     37926.35 
  306100    301.60889   -1578.9144    518.15041    299.48174    683.32852     37926.35 
  306200    302.63658   -1566.6292     506.1892    304.44061    139.90486     37926.35 
  306300    296.99811   -1594.9646    492.90266    237.38938    247.72267     37926.35 
  306400    309.81117   -1594.3544    523.25971    326.14307   -625.92032     37926.35 
  306500    305.75451   -1588.2998     487.5481    278.19061   -750.07508     37926.35 
  306600    294.16305   -1591.9268     497.8753     232.6137   -599.12112     37926.35 
  306700    296.31962   -1563.5317    514.92616    287.78572   -494.68342     37926.35 
  306800    302.23565   -1576.0491    516.29871      303.322   -210.85927     37926.35 
  306900    296.09455   -1574.6223    508.06518    268.81913   -361.28684     37926.35 
  307000     301.6348   -1549.2967     536.3848    347.45073   -271.60345     37926.35 
  307100    296.44362   -1614.7594    478.47924    200.67035    39.925128     37926.35 
  307200    306.76961   -1610.3341    500.28066    273.46699   -23.323309     37926.35 
  307300    311.34126   -1549.6844    511.80384    366.25779    88.604317     37926.35 
  307400      301.333   -1569.7464    485.77522    275.03029    235.16536     37926.35 
  307500     296.6118   -1596.4675    541.53854    282.78006    1144.1136     37926.35 
  307600    294.87756    -1541.757    520.89987    309.03056    566.25726     37926.35 
  307700    303.51815   -1569.4513    535.79393    335.19903    851.52078     37926.35 
  307800     304.7073   -1558.9458    520.47431    335.74789    799.90143     37926.35 
  307900     306.1519   -1567.0538    510.88331    324.56406    369.50661     37926.35 
  308000     305.0178   -1598.0053    510.59647    288.21097    214.59826     37926.35 
  308100    290.52691   -1612.5675    513.31693    211.01574   -44.010111     37926.35 
  308200    298.47775   -1557.3142    497.46708    286.27729    301.89577     37926.35 
  308300    302.28015   -1557.2212    521.94177    327.99366   -260.66047     37926.35 
  308400    301.54788   -1591.5194    496.65802    265.10918      221.666     37926.35 
  308500    308.53713   -1562.7683    492.73212    321.45571    -129.4291     37926.35 
  308600    300.28176   -1579.0984     541.0192    316.18116   -439.72778     37926.35 
  308700    298.67002   -1534.4528    544.80112     357.3398    -606.8871     37926.35 
  308800    299.60484   -1516.3582    526.42162      361.271   -515.57804     37926.35 
  308900    297.20146   -1505.1792    500.18257    335.37177   -801.05588     37926.35 
  309000    305.47602   -1537.8488    512.66143    352.49891   -92.118239     37926.35 
  309100    305.29465   -1549.8024    490.76768     317.8337    -408.6307     37926.35 
  309200    298.04491   -1529.3515    551.62742    366.44824   -677.16544     37926.35 
  309300    310.48461   -1519.7988    493.69427    374.17043   -691.67187     37926.35 
  309400    299.23182   -1559.7242     518.1401    307.94112   -175.89191     37926.35 
  309500    306.43587   -1561.8471    511.62042    331.78853   -194.93184     37926.35 
  309600    313.06852   -1570.6821    548.98155    390.22775    -327.6809     37926.35 
  309700    304.69611   -1585.5495    500.01274    288.63216   -612.39331     37926.35 
  309800    295.73893   -1577.9777    505.70592     261.5006   -789.78135     37926.35 
  309900    297.70949   -1528.4605     539.7783    353.97739   -340.14261     37926.35 
  310000    299.94896   -1541.9722    512.35809    323.14539   -144.47139     37926.35 
  310100    302.76102   -1519.3157    529.60735    375.73339    -542.9211     37926.35 
  310200    304.83883   -1509.3192    514.47006    379.96348    289.17185     37926.35 
  310300    304.78848    -1511.791    514.69448    377.48902   -162.64351     37926.35 
  310400    297.70337    -1544.418    533.97297    332.18696    177.81006     37926.35 
  310500    304.43459   -1519.9858    516.46912    369.47284   -127.80887     37926.35 
  310600    303.19935   -1558.3689     509.0902    318.13992   -687.94878     37926.35 
  310700    303.03425   -1529.0551    516.38684    354.00579   -68.072335     37926.35 
  310800    299.67575      -1536.5    514.18387    329.21119     243.9052     37926.35 
  310900    289.98918   -1546.7599    513.46557    274.54687    523.57466     37926.35 
  311000    304.86723   -1517.6288     532.0449    389.35677    285.41578     37926.35 
  311100    301.27853   -1531.6437    525.67613    352.78828    334.10985     37926.35 
  311200    310.35871   -1566.5619    503.26626    336.41144    232.37122     37926.35 
  311300    302.16798   -1595.2422    486.34957     253.8746   -23.492871     37926.35 
  311400    299.43197   -1570.0034    495.46149    275.88596    324.72584     37926.35 
  311500    302.75195   -1594.9767     496.8195    267.24368    89.704784     37926.35 
  311600    303.53192   -1609.6606    493.57089    252.82883    124.68384     37926.35 
  311700     293.5692    -1571.135    491.58457    244.43656   -335.76791     37926.35 
  311800    285.03422    -1554.126    490.21114     221.5797     343.7391     37926.35 
  311900    302.27632   -1515.1862    508.90664    356.97621    1073.8415     37926.35 
  312000    310.52383   -1519.1995    503.51163    384.76396    411.28748     37926.35 
  312100     300.2233   -1493.0513     509.8892    370.83465    149.24208     37926.35 
  312200     291.8088   -1584.4564    505.16785    236.75912    121.22932     37926.35 
  312300    301.08777   -1574.5844    509.94345    293.25452     141.2229     37926.35 
  312400    299.02434   -1525.5958    519.02582    342.01947   -103.26783     37926.35 
  312500    297.01717   -1517.2527    516.45939    338.74389   -183.16646     37926.35 
  312600     291.1756   -1544.1877     508.0469    277.05109   -300.60888     37926.35 
  312700    301.38803   -1576.5964    512.09815    294.75143    82.945489     37926.35 
  312800    299.90371   -1546.8832    507.45261    313.12482    73.742016     37926.35 
  312900    305.60972    -1553.912    513.07177    337.44911    227.90042     37926.35 
  313000    296.07258   -1555.7945     509.6626    289.14523   -121.12054     37926.35 
  313100    298.44075   -1578.3896    520.72871    288.29668    81.985497     37926.35 
  313200     307.4789   -1605.9037    501.90004    282.71563    866.34157     37926.35 
  313300    303.84213   -1577.5066    485.98485    278.79584    645.63031     37926.35 
  313400    295.53622   -1533.4663    497.41203     296.8039    374.35773     37926.35 
  313500    298.35044   -1549.6126     499.1664    295.10404      492.535     37926.35 
  313600    296.07415   -1529.2852    500.45745    306.45654   -255.83096     37926.35 
  313700    307.84713    -1534.451    533.00962    386.93852   -18.294714     37926.35 
  313800    300.07584   -1538.7429    505.07538    319.66418    440.79039     37926.35 
  313900    299.86018    -1523.007    503.90262    333.25471    620.25944     37926.35 
  314000    291.69799   -1537.2799    488.12884     266.3968     298.9426     37926.35 
  314100    306.87829   -1511.6322    503.66482    376.04309    77.349428     37926.35 
  314200    295.68909   -1509.1015    520.97582    345.42197   -50.186776     37926.35 
  314300    308.66504   -1574.0031    495.30362    313.36923   -296.82151     37926.35 
  314400    299.32315   -1562.3796    498.22219    285.77973   -539.50818     37926.35 
  314500     300.7474   -1561.6881    517.62241    312.29468   -508.28138     37926.35 
  314600    302.78132   -1564.3924    499.74312    300.88406   -719.47332     37926.35 
  314700    300.37409   -1532.8656     484.8374    306.64864   -70.196577     37926.35 
  314800    307.69523   -1571.0841    496.72715    313.33797   -258.63071     37926.35 
  314900    292.17445   -1516.2044    479.38677    280.87915   -97.584061     37926.35 
  315000    301.69782   -1551.5791    503.21114    312.27885    301.74892     37926.35 
  315100     304.0441   -1570.9374    496.09776    296.38879    733.51759     37926.35 
  315200    315.86913   -1533.7387    498.80798    389.62821    321.32335     37926.35 
  315300    306.57988   -1483.2116    495.32587    394.77895    406.29159     37926.35 
  315400    290.37191   -1537.7604    496.63588    268.44279   -161.24199     37926.35 
  315500    308.24471   -1615.6388    466.92506    241.45928    395.24274     37926.35 
  315600    313.19282   -1548.4135    488.29977    352.37512    499.39145     37926.35 
  315700    289.36761   -1557.1961    530.05704    277.89893      34.3784     37926.35 
  315800    298.23007   -1561.4599    477.68824    261.23575    197.19558     37926.35 
  315900    299.16214   -1517.7805    505.28153    336.71201    660.48966     37926.35 
  316000    300.92475   -1477.0211    521.91522    402.05438    526.00066     37926.35 
  316100    304.77211   -1518.4241    520.67261    376.76024    549.17702     37926.35 
  316200    301.26055   -1564.4639    483.84646    278.05725    409.13419     37926.35 
  316300    300.77555   -1570.1283     484.2199    270.57904     419.4559     37926.35 
  316400    303.39017   -1538.7465    507.28425    336.81699   -71.196964     37926.35 
  316500    296.53439   -1518.9891    504.34335    322.71418   -574.63027     37926.35 
  316600    312.60667   -1505.7774    486.14757    390.21547    302.24588     37926.35 
  316700    300.92815   -1493.8993    506.90342    370.17971    468.48116     37926.35 
  316800    303.45394   -1444.2949    506.44973    430.72161   -99.666832     37926.35 
  316900    306.98439   -1480.8459    506.55288    410.19607    683.19988     37926.35 
  317000    301.31444    -1497.109     512.1054    373.91422    263.67569     37926.35 
  317100    299.25152   -1526.1585    500.12875    323.58434    296.73169     37926.35 
  317200    297.46392   -1512.4415    514.16773    343.27825    262.24297     37926.35 
  317300    296.14859    -1511.752    479.79557    303.66349   -128.04301     37926.35 
  317400    297.38909   -1489.1295    479.97011    332.05515   -262.63333     37926.35 
  317500    309.23006   -1458.5496    519.28702    455.35438    227.46917     37926.35 
  317600    296.38657   -1495.0338    514.02775    355.68724    793.64561     37926.35 
  317700    304.37987   -1465.9844    526.41509    433.17342    726.92005     37926.35 
  317800    305.03802   -1511.9459     493.7662    357.53133    437.30427     37926.35 
  317900    286.40877   -1513.6304    501.47733    279.54067   -8.6834647     37926.35 
  318000     295.3308   -1524.2102    531.30093    339.02252   -215.71413     37926.35 
  318100    297.01689     -1521.59    503.56825    321.51424   -245.42895     37926.35 
  318200    309.39114   -1533.2014    504.03372    366.17569   -56.443988     37926.35 
  318300    313.76523   -1498.7491    509.47671    425.79797   -173.37122     37926.35 
  318400    297.84724   -1484.2802    491.15287    350.15353   -148.55103     37926.35 
  318500    300.34371   -1497.0511    508.07187    365.56056   -208.28319     37926.35 
  318600    294.06532   -1464.0804    494.48727    356.63133    368.86034     37926.35 
  318700    291.05022   -1514.1032    486.75236    285.27568    -402.6646     37926.35 
  318800     292.2421   -1454.0216    519.38599    383.36617   -299.27388     37926.35 
  318900    301.38106   -1452.5335    504.82929    411.51398   -245.40459     37926.35 
  319000    298.81076   -1502.2175     528.9486    374.35738     42.79987     37926.35 
  319100    297.56128   -1500.1581    504.49432    346.32736   -969.78762     37926.35 
  319200    296.98979   -1495.4033    518.00182    362.01229   -376.33612     37926.35 
  319300    296.11877   -1474.8101    512.89594    373.57126   -245.42118     37926.35 
  319400    294.54948   -1475.1372    507.88858    361.15939   -325.20764     37926.35 
  319500    308.55441   -1463.4177    539.10764    467.25972    -349.9642     37926.35 
  319600    291.88611   -1477.7666    485.42527    324.05497   -47.643983     37926.35 
  319700    299.15391   -1518.7999    475.40529    305.77923    161.56222     37926.35 
  319800    296.99106   -1499.4819    494.03685    333.97444    337.94295     37926.35 
  319900    291.83647     -1521.78    501.84356    296.23605    335.89097     37926.35 
  320000    293.06022   -1514.4727    508.68924    315.90799    850.64653     37926.35 
  320100      293.534   -1541.6632    513.76963    295.93472    1234.8458     37926.35 
  320200    297.90967   -1521.9506    509.78699     331.3987    448.56121     37926.35 
  320300    305.45494   -1522.7114     470.1065    324.98639    28.077442     37926.35 
  320400    304.00125   -1518.6147    474.90606    327.32658   -153.42247     37926.35 
  320500    305.42805    -1530.305    502.79025    349.95526   -4.4154334     37926.35 
  320600    298.11459   -1513.0487    532.28447    363.72229   -151.51303     37926.35 
  320700    304.17963   -1521.0768    501.42422    352.18707     429.4744     37926.35 
  320800    309.32781   -1519.8953    490.51847    365.68099    252.56492     37926.35 
  320900    302.69875   -1509.7268     525.6101    381.04421   -683.28844     37926.35 
  321000    295.33295   -1491.0922    507.22815    348.07745   -830.66982     37926.35 
  321100    302.66439   -1485.0384    490.31252    370.28011   -429.96527     37926.35 
  321200    294.23683   -1523.9728    512.69893    315.72415   -863.09447     37926.35 
  321300    315.37049   -1494.8105    514.30696    441.80651   -389.40396     37926.35 
  321400    301.56692   -1504.5157    514.19454     369.7353   -404.75195     37926.35 
  321500    304.37885   -1527.2795    486.19863    331.65723   -239.29943     37926.35 
  321600    305.76111   -1478.7638    484.47125    384.67955   -356.59138     37926.35 
  321700     296.1748   -1489.5205    484.74446    330.96219   -395.30297     37926.35 
  321800    294.82302   -1490.3963    515.24366    354.48904   -210.73121     37926.35 
  321900    306.85687   -1491.8945    502.23747    394.25694   -87.955969     37926.35 
  322000    303.82342   -1491.6051    511.06282    389.69087   -1162.8643     37926.35 
  322100    304.45243    -1517.292    497.97347    353.75144   -17.953909     37926.35 
  322200    306.50976   -1489.8579    500.89336    393.38397   -40.338684     37926.35 
  322300    298.07844   -1498.6909    492.74374    338.37638   -141.85462     37926.35 
  322400    294.62813   -1496.6095    519.12135    351.27458    262.40633     37926.35 
  322500    298.94676   -1488.1375    512.69087    372.79298    54.075968     37926.35 
  322600    303.80948   -1521.7821     502.7555    351.14376    518.75149     37926.35 
  322700    299.30171   -1532.7649    505.35517    322.43073     1095.174     37926.35 
  322800    294.37161   -1500.7787    511.53761     338.3648    1015.6212     37926.35 
  322900    307.93409   -1499.9296    514.21131    403.05388     610.6145     37926.35 
  323000    300.86685   -1494.2419    517.63484    380.29205    271.26831     37926.35 
  323100    301.07723   -1498.5319    504.38931    363.70534     144.2803     37926.35 
  323200    294.25772   -1470.5116    512.55387    369.13448    271.35218     37926.35 
  323300    298.63283   -1497.8249     531.3827    380.38158    107.70371     37926.35 
  323400    290.18032   -1453.6071    498.20019    353.29639    280.04742     37926.35 
  323500    299.28749   -1478.7209    505.39441    376.44978   -288.51978     37926.35 
  323600    301.28558   -1485.7078      463.504    336.58383   -58.320312     37926.35 
  323700    304.95577    -1467.542    514.67666     422.4747    498.78673     37926.35 
  323800    306.16784    -1495.603    480.89554    366.09899    239.77871     37926.35 
  323900    308.40695   -1458.0766    515.66643    448.49455    82.643079     37926.35 
  324000    294.73958   -1496.1368    493.70236    326.83093    680.17705     37926.35 
  324100    305.78748   -1484.4717    504.25553     398.8749    745.84515     37926.35 
  324200    304.96656   -1498.0654    468.11903    345.44237   -80.051106     37926.35 
  324300    303.94386   -1515.6776    517.64708    372.74583   -598.43019     37926.35 
  324400    302.60196   -1490.7574    510.30252    384.26952    305.07003     37926.35 
  324500    292.72916   -1527.9062     521.0341    313.32634    751.00726     37926.35 
  324600     306.5083   -1464.0314    498.45053    416.76106    518.14579     37926.35 
  324700    301.19623   -1525.2341      506.983    340.13354   -128.94651     37926.35 
  324800    292.83977   -1513.8459    473.71767    280.56905    -121.1977     37926.35 
  324900    310.55926   -1483.8158     535.4705    452.26623    481.62827     37926.35 
  325000     282.9137   -1464.3625    480.70284    292.27142    434.99731     37926.35 
  325100    292.18184   -1478.9669    519.01014    357.77329    281.72811     37926.35 
  325200    305.35864   -1488.5298     496.5497    385.17684     542.4616     37926.35 
  325300    304.58531   -1497.8599     526.0452     401.8546    916.38792     37926.35 
  325400    307.25411   -1504.5254    527.88495    409.06507    67.022918     37926.35 
  325500    303.34404     -1467.02    535.04943    436.10061    93.550639     37926.35 
  325600    297.49902   -1483.9586    501.37571     359.1275    170.38733     37926.35 
  325700    298.74471   -1463.0251     534.1478    418.45103    579.38211     37926.35 
  325800    302.28364   -1513.0839    527.61372    377.81859    164.65413     37926.35 
  325900    294.13927   -1514.0525    509.08103    321.58655   -161.42749     37926.35 
  326000    301.24123   -1508.9604    507.72929    357.35645   -336.94315     37926.35 
  326100    301.02126   -1480.5943    512.65127    389.65252   -596.71529     37926.35 
  326200    290.57497   -1505.5076    501.30799    306.28347   -613.98432     37926.35 
  326300    293.91434   -1500.5161     509.9134    334.94082   -887.24847     37926.35 
  326400    286.76376   -1484.7283    508.43095    316.99732   -301.17407     37926.35 
  326500    305.21825   -1491.8181    501.77918     386.4849   -191.05355     37926.35 
  326600    301.32852   -1526.2873    489.38564    322.07959    280.24743     37926.35 
  326700    304.95272   -1494.4087    515.43018    396.34773    499.65773     37926.35 
  326800    297.70129   -1480.0194    489.63526    352.23847    -134.4132     37926.35 
  326900    294.61619     -1480.66    498.07335    346.12228   -396.96176     37926.35 
  327000    289.84026   -1521.2276    499.10828    285.05031   -896.25083     37926.35 
  327100    296.93149   -1506.4034    481.62029    314.36775   -760.96056     37926.35 
  327200    308.37097   -1510.0879    493.49529    374.14986   -336.35836     37926.35 
  327300    306.04309   -1499.8672    528.19767    408.57432     376.7963     37926.35 
  327400    293.11972   -1475.5551    500.98758    347.39234     147.5615     37926.35 
  327500    305.22206   -1489.4354    504.22314    391.32869     229.0414     37926.35 
  327600     292.4092   -1533.0467    473.42027    259.12898   -205.78811     37926.35 
  327700    302.35396   -1490.8792    522.09174    394.81849    727.91559     37926.35 
  327800    286.91836   -1492.9272    486.71865    287.78337   -173.72575     37926.35 
  327900    295.57516   -1497.1274    491.67794    327.58437   -833.75851     37926.35 
  328000    306.24521   -1532.2315    514.47909    363.40296    39.615946     37926.35 
  328100    296.85359   -1503.7393    501.08175    336.14197   -271.24743     37926.35 
  328200    290.26931   -1499.5871     511.8922    321.40968    65.190787     37926.35 
  328300    307.19901   -1489.4868    516.71299    412.68312    282.88038     37926.35 
  328400    302.22002   -1514.9938    498.78285    346.79094    18.852724     37926.35 
  328500    296.68281   -1481.0002    536.72855    393.75764    30.361199     37926.35 
  328600    305.87558   -1543.1912    522.52396    358.82111   -36.406906     37926.35 
  328700    296.87734   -1481.9722    501.84136    358.77577    550.39847     37926.35 
  328800    305.07665   -1534.6468    492.62194    333.86036    313.00532     37926.35 
  328900    299.97034   -1557.6873     507.3094    302.47798    230.94362     37926.35 
  329000    300.99721   -1561.2824    524.04691    320.25154    260.79646     37926.35 
  329100    306.84748   -1536.2902     492.4136    339.99497    202.42821     37926.35 
  329200    296.67386   -1579.4117    471.53278    230.10998   -120.85896     37926.35 
  329300    294.83643   -1555.2907    480.17752    254.58901    519.61127     37926.35 
  329400    301.02621   -1513.1259    508.74896    353.24093    688.53287     37926.35 
  329500     297.8743   -1516.6722    497.40917    324.13987    225.55243     37926.35 
  329600    290.55423   -1520.3497    498.79674    288.83663    533.28737     37926.35 
  329700    291.16485   -1552.7757     481.0969    241.46465   -196.13885     37926.35 
  329800    300.78739   -1533.3819    512.97757    336.13644    188.88035     37926.35 
  329900    296.17412    -1526.715    469.68245    278.70251    176.17834     37926.35 
  330000    305.13956   -1561.3669    518.69593    333.49793    251.99502     37926.35 
  330100    297.93372   -1512.7541    486.65689    317.57363    314.17895     37926.35 
  330200    299.32774   -1555.1657    490.08182    284.87397    204.90418     37926.35 
  330300     306.8275   -1524.4506    492.57606    351.90691    198.53289     37926.35 
  330400    297.28793   -1553.3581    496.53092    283.93115   -37.256596     37926.35 
  330500    298.72242   -1543.1171    471.12615    275.23685      159.862     37926.35 
  330600    303.63871   -1559.2665    500.33025    310.46385   -164.64033     37926.35 
  330700    302.72807   -1562.5373    493.36447    296.12033   -270.03452     37926.35 
  330800      294.313   -1526.7436    502.08674    302.68462   -349.89584     37926.35 
  330900    292.36936   -1496.0705    495.04293    317.54818   -228.25413     37926.35 
  331000    298.44511   -1482.5211    498.96832    362.42437   -67.354464     37926.35 
  331100    299.92235   -1548.3545    493.02299    297.30801    122.06631     37926.35 
  331200    305.75062   -1520.2279    527.28768    385.98459    -26.37159     37926.35 
  331300    299.10785   -1484.7768     486.9413    351.13062   -315.43258     37926.35 
  331400    307.15181   -1550.2008    515.16799    350.21124   -4.3296474     37926.35 
  331500    302.28938   -1586.3003    450.26084    227.27531    683.11756     37926.35 
  331600    298.93389   -1528.2246    518.74831    338.70528    751.05922     37926.35 
  331700    292.10038   -1524.6463    483.71671     276.4331   -51.946133     37926.35 
  331800    305.71701   -1523.6706    521.11954    376.22209   -216.13171     37926.35 
  331900    294.49204    -1523.143    500.38699    305.39296   -231.36159     37926.35 
  332000    299.76773   -1513.7643     490.2028    328.38069   -285.90758     37926.35 
  332100    291.50259   -1515.3394    505.67113    304.99835    -385.4582     37926.35 
  332200    305.70565   -1527.3438     499.8066    351.18479    -707.0921     37926.35 
  332300    295.22254   -1528.3512     499.6305     302.7228   -959.93626     37926.35 
  332400    298.40538   -1543.0856    503.32696     306.0394    137.92987     37926.35 
  332500    301.33759   -1543.8177    510.21111    325.41555    110.69012     37926.35 
  332600    297.62115   -1509.7801    514.45024    346.93132    121.67366     37926.35 
  332700    292.81408   -1496.5494     514.9905    339.02258      49.5079     37926.35 
  332800      287.619    -1538.059    508.25654    267.34936   -116.25921     37926.35 
  332900    298.46399   -1544.7971    502.75151    304.01679   -81.101897     37926.35 
  333000    292.54644   -1510.7315    512.87796    321.52086    475.01691     37926.35 
  333100    295.50903   -1508.8326    503.25925    327.16218    429.55976     37926.35 
  333200    296.08027    -1469.891    502.79034    368.21123     133.4686     37926.35 
  333300    304.92975   -1479.4779     516.6626    412.40733    160.78651     37926.35 
  333400    293.66345   -1520.6645    519.99657    323.74416    127.31061     37926.35 
  333500    283.79561   -1516.0841    529.00468    292.82904    143.71358     37926.35 
  333600    304.91747   -1479.4415    500.63371    396.35957     485.4658     37926.35 
  333700    304.71895   -1530.7592    498.51518    342.02796    4.8080557     37926.35 
  333800    295.19668   -1490.0412    519.13455    360.42021    332.64667     37926.35 
  333900    297.42862   -1516.3012    476.27336    301.36506    130.03003     37926.35 
  334000    297.48143   -1484.9285    505.06096    361.76351    349.98311     37926.35 
  334100    300.56471   -1513.4044    494.71014    336.84223    369.82466     37926.35 
  334200    299.50293   -1537.3349    475.56064    288.97363    96.686774     37926.35 
  334300    303.11973   -1541.0521    499.46674    325.47424   -126.78061     37926.35 
  334400    294.42555   -1509.4077    495.09695    313.53838   -628.54984     37926.35 
  334500    294.99813   -1501.0017    519.82853    349.25823   -627.87791     37926.35 
  334600    297.41119   -1493.4497    475.41807    323.28261   -705.60614     37926.35 
  334700    289.23636   -1483.2535     535.1304    356.32294   -799.94339     37926.35 
  334800    301.61832   -1521.2698    477.85162    316.87009   -506.89357     37926.35 
  334900    313.59268   -1547.5185    509.74008    376.51376   -43.920356     37926.35 
  335000    305.62631   -1504.6128    536.88176    410.63312    260.70884     37926.35 
  335100    303.70506   -1506.7863     517.5609    380.47403    -300.9804     37926.35 
  335200    292.09834   -1457.4099    495.72772    355.67132   -536.31347     37926.35 
  335300    299.09022   -1479.3794    497.77542    367.28264   -941.86472     37926.35 
  335400    295.83622   -1513.7917     504.0489     324.4684   -953.70054     37926.35 
  335500    279.59645   -1547.0863    492.93429    206.81835   -1593.1811     37926.35 
  335600    308.28276   -1564.6096    472.18042    297.91551   -506.42376     37926.35 
  335700    310.13136   -1551.3009    506.12553    353.50641   -441.86982     37926.35 
  335800    310.01746   -1582.4394    511.13067    326.85932    69.943547     37926.35 
  335900    294.59108   -1511.0108    481.60886    299.19365   -303.26399     37926.35 
  336000    309.11322   -1544.1812     492.7166    342.62541   -31.058164     37926.35 
  336100    305.10944   -1542.6659    488.22511    321.59232   -155.23194     37926.35 
  336200    305.40779   -1548.4795    482.86025    311.75941   -116.50891     37926.35 
  336300    308.50813   -1574.4143    493.93262    310.87938   -869.92447     37926.35 
  336400    301.96971   -1530.5891    490.64436    321.92822    -909.0003     37926.35 
  336500    291.28077   -1564.0173    520.66861    270.31756   -672.56216     37926.35 
  336600    303.14056    -1547.861    475.28547    294.57801   -126.48572     37926.35 
  336700    301.70715   -1560.1154    517.27695    317.85041    54.569758     37926.35 
  336800    299.96213   -1520.9623    508.87181    340.72845    -147.6108     37926.35 
  336900    280.26795   -1516.1334    500.64471    248.51016   -639.50545     37926.35 
  337000    297.97886   -1577.4695    511.34894     277.7538     -20.6613     37926.35 
  337100    307.95284    -1570.294    515.70944    334.27214    204.55503     37926.35 
  337200    303.54703   -1556.0845    469.34284    282.24496   -299.49653     37926.35 
  337300    288.31509   -1524.4599    508.68556    284.51675   -646.89604     37926.35 
  337400    306.63127   -1505.5548    493.92996    371.27167   -1173.5623     37926.35 
  337500    302.16889   -1499.1423     501.0974     364.7264   -1020.4307     37926.35 
  337600    303.17852   -1494.7019    495.24016    367.86291   -539.05456     37926.35 
  337700    301.25686   -1508.2817    504.10578    354.48221   -757.34019     37926.35 
  337800    308.08107   -1499.8018    486.73054    376.36379   -679.22855     37926.35 
  337900    302.65437   -1515.9915    477.30402    326.27333   -887.05548     37926.35 
  338000    293.40541   -1514.5727    531.57864    340.25427   -409.51199     37926.35 
  338100      315.116   -1491.3839    490.70379    420.48217   -38.609437     37926.35 
  338200    300.95536    -1486.715    541.47152    412.05482   -103.79513     37926.35 
  338300    296.02887   -1443.0793    500.26313    392.26381    -543.4856     37926.35 
  338400    307.01527   -1455.4401    511.76712    440.95529   -557.31474     37926.35 
  338500    304.76104   -1511.9061    478.41579    340.97147   -393.08285     37926.35 
  338600    303.81196   -1521.7284    517.17672    365.62977   -255.10311     37926.35 
  338700    296.61921   -1505.5875    517.20525    349.36014    89.446049     37926.35 
  338800    303.47004   -1521.4943    497.97461    345.11972    268.36794     37926.35 
  338900    300.73225   -1506.7057     489.0383     338.6247    450.97508     37926.35 
  339000    302.38642   -1503.8816    497.34024    357.21102     547.2838     37926.35 
  339100    301.24036   -1521.8693    524.69465    361.40906    232.54819     37926.35 
  339200    295.60577    -1490.971    490.42539    332.62627    413.94705     37926.35 
  339300    305.33459   -1461.3418    519.16986    434.87656    702.55643     37926.35 
  339400    307.01347   -1476.0604    508.75162    417.31138    1403.1706     37926.35 
  339500    297.83253   -1496.0549     535.0567    382.21624    945.17384     37926.35 
  339600    301.88457   -1496.8941    513.59725    378.19222    917.12449     37926.35 
  339700    300.30546   -1549.6636    500.36338    305.06706    544.85801     37926.35 
  339800    302.15984   -1511.3465    506.72024    358.10422    710.44598     37926.35 
  339900    306.69091    -1540.504     525.5942     368.2556    542.84771     37926.35 
  340000    307.00326   -1557.9152    501.50614    328.16508     315.5439     37926.35 
  340100    291.22618   -1517.8863    505.12287    300.65663     286.5733     37926.35 
  340200    296.76713   -1479.6328    514.97363    373.75035    197.26118     37926.35 
  340300    298.72432   -1511.0137    504.54769     340.7704    456.57398     37926.35 
  340400    297.42611   -1516.0858    499.21093    324.50667    186.64362     37926.35 
  340500    296.41741   -1512.8545    480.39474    304.37253   -451.43699     37926.35 
  340600    294.66526   -1537.5556    499.15433    290.52888   -850.68367     37926.35 
  340700    309.77586   -1591.4141    490.28604    295.95048   -386.79541     37926.35 
  340800    307.66116    -1566.982    514.13414    334.69337   -433.11059     37926.35 
  340900    302.34165   -1570.5177    472.82161     265.8544    85.063814     37926.35 
  341000    300.58535   -1590.7978    493.43677    258.26851    132.62534     37926.35 
  341100     296.0991   -1554.0997    472.73413    254.03118   -319.50804     37926.35 
  341200    291.96173    -1561.502    499.17496    254.41025   -139.85373     37926.35 
  341300    307.93733   -1560.5708    479.71017    307.92616   -66.473352     37926.35 
  341400    299.64227   -1573.7171     479.2112     256.8704   -11.722816     37926.35 
  341500    303.00852   -1558.3433    527.61779    335.83246    14.167855     37926.35 
  341600    300.21544   -1555.8957    470.33531    268.40091   -288.50662     37926.35 
  341700    305.53816   -1602.3978    451.60002    227.16883    58.686672     37926.35 
  341800    291.13863    -1548.898    502.02364    266.15082   -415.81872     37926.35 
  341900    302.86592   -1522.8015    501.21158      344.325   -268.82304     37926.35 
  342000    292.00117   -1557.8497    496.99205    256.05759    258.79268     37926.35 
  342100    299.64511   -1539.6213    501.64873    313.41663   -376.91077     37926.35 
  342200    299.76666   -1514.2232    518.26348    355.97762    588.73352     37926.35 
  342300    296.99516   -1523.0908    509.96852    326.31569    104.10777     37926.35 
  342400    297.63171   -1528.3629    482.08421    296.03006    603.73847     37926.35 
  342500    304.61134   -1461.9847    500.56836    412.37032    419.21217     37926.35 
  342600    298.89415    -1487.235    565.89468    426.66199    183.19509     37926.35 
  342700    321.04522   -1501.9414    498.57345    444.53493    228.82841     37926.35 
  342800    295.89572   -1531.6702    493.67689    296.48625     448.0576     37926.35 
  342900    308.65902   -1529.5096    515.70715    378.23912    651.56403     37926.35 
  343000    299.19652   -1518.1936    488.74827     319.9207    296.14379     37926.35 
  343100    283.79552   -1493.8059     510.7423    296.84446   -821.46677     37926.35 
  343200     303.7498    -1553.369    541.50841     358.0406   -333.04927     37926.35 
  343300    302.50979   -1511.0517     467.9016     321.1587   -414.31049     37926.35 
  343400    305.15684    -1520.925     488.7425    344.06438   -636.75536     37926.35 
  343500    308.94684   -1572.5506    501.12353    321.91256   -265.94905     37926.35 
  343600    306.23641   -1551.3328    498.05804    327.84094   -308.57889     37926.35 
  343700    306.50306   -1537.3161    501.92892    346.93108   -817.58237     37926.35 
  343800    300.42041   -1524.2528    509.07057    339.70348   -548.64208     37926.35 
  343900    304.37908    -1582.252    470.46039    260.94758   -303.32856     37926.35 
  344000    293.42965   -1554.6957    490.05004    258.71202    340.14694     37926.35 
  344100    293.55536   -1554.1891    490.95461    260.69004   -38.683062     37926.35 
  344200    305.86197   -1538.6684     515.1491    355.90768   -113.06704     37926.35 
  344300    304.56515    -1573.893    489.38937    289.07469    937.05216     37926.35 
  344400    294.00521   -1558.9259    492.65205    259.67957    355.07747     37926.35 
  344500    300.52991    -1558.005    486.54188    283.91645    352.48089     37926.35 
  344600    298.46945   -1547.4557    483.50215    282.13337     415.2935     37926.35 
  344700    306.66106   -1519.7488    500.04876    363.33083    148.31539     37926.35 
  344800    306.22998   -1529.7256     487.2535    338.61456   -148.15413     37926.35 
  344900    298.76073   -1538.9583    505.54643    313.98877    208.52021     37926.35 
  345000    306.61628   -1533.0251    520.61986    370.42361     193.1318     37926.35 
  345100    307.39248    -1475.688    522.00693    432.64845    -87.38892     37926.35 
  345200    288.39681   -1455.5185    519.46946    364.61065   -258.23872     37926.35 
  345300    310.01665   -1533.6515    510.10408    374.61703    198.35851     37926.35 
  345400    290.79211   -1497.6954    470.86514    284.63217    265.51866     37926.35 
  345500    293.74221   -1542.0517    513.75536    296.47094   -114.91038     37926.35 
  345600    298.50303    -1543.699    486.31184    288.85123    631.72863     37926.35 
  345700    289.18724   -1595.8738    507.48894    215.83958   -247.74536     37926.35 
  345800    310.14803   -1564.2552    504.35609    338.85788    -227.0555     37926.35 
  345900    311.30405   -1538.6332    512.25639    377.59376   -98.197548     37926.35 
  346000    293.01035   -1546.6797    483.78993    258.57686    -172.5241     37926.35 
  346100    298.47822   -1557.6625    506.76049     295.2245   -221.25362     37926.35 
  346200    301.26959   -1541.0105    494.84703    312.55199    416.50671     37926.35 
  346300    300.61414   -1529.7436      517.365    343.38082    326.64964     37926.35 
  346400    313.69252   -1531.6112    510.32719    393.45852    29.537681     37926.35 
  346500    300.43795   -1502.8811    513.35732    365.44103    21.369253     37926.35 
  346600    301.65389   -1515.4127    505.41636    350.45227   -24.458203     37926.35 
  346700     291.0619   -1496.0171    508.92196    325.58403   -336.97547     37926.35 
  346800    306.66676   -1536.3262    514.05319    360.78352    439.39759     37926.35 
  346900    300.88666   -1588.5564    494.11116    262.54331    289.22944     37926.35 
  347000    310.26495   -1571.6759     501.8484    329.45671    281.85797     37926.35 
  347100    309.10447   -1548.0869    483.27331    329.23689    219.21985     37926.35 
  347200    288.92425    -1535.567    510.26661    277.73804   -70.022671     37926.35 
  347300      292.718   -1528.0739    515.17138    307.24561    234.50827     37926.35 
  347400    300.00011   -1522.4894    500.36124    330.86205    16.341581     37926.35 
  347500     294.9451   -1486.5976    497.73733    341.33206   -312.37958     37926.35 
  347600    297.40569   -1487.9287    506.49668    359.85746   -41.989682     37926.35 
  347700    290.10846   -1510.8504    493.80511    291.33392   -586.50907     37926.35 
  347800    291.64011   -1487.6696    494.69344    322.31076    -365.3452     37926.35 
  347900    305.52749   -1532.2339    504.08469    349.76926   -241.97807     37926.35 
  348000    303.55095    -1512.706     493.9594    350.25771    134.72587     37926.35 
  348100    287.34113   -1478.4387    524.75427    342.21414   -568.33481     37926.35 
  348200    298.92831   -1527.9134    468.68927    288.93224   -150.45542     37926.35 
  348300     303.7038   -1536.0112    483.94881    317.63128   -250.61452     37926.35 
  348400    301.93024   -1547.9973    501.53438    315.23205    36.965449     37926.35 
  348500    290.35198   -1522.7721    504.09616    290.80153    135.15077     37926.35 
  348600    308.59035   -1525.7641    501.73652    367.70423    208.03824     37926.35 
  348700    298.16922   -1529.3901    511.35388    326.69672    176.07671     37926.35 
  348800     301.2196   -1558.3015    489.64738    289.83592    326.84655     37926.35 
  348900    294.88517   -1579.4917    482.76606    233.19634    -393.7654     37926.35 
  349000    300.30437   -1564.5019    490.07828    279.93878   -118.33264     37926.35 
  349100    309.58687   -1573.9953    483.82154    306.05236    211.28692     37926.35 
  349200     302.7505    -1519.777    481.75898    327.37628   -93.123885     37926.35 
  349300    303.59529    -1499.528     498.0199     367.6962   -2.0152136     37926.35 
  349400    298.87608    -1532.737    476.71152    291.89535    157.89467     37926.35 
  349500    293.81595   -1538.9758    494.31587    280.43987    366.88904     37926.35 
  349600    289.83238   -1522.2523    526.07088    310.95267 -0.027121234     37926.35 
  349700    304.31207   -1535.8689    486.23281    322.80085   -206.72144     37926.35 
  349800     292.8225   -1534.2093    481.71613    268.12624   -549.80634     37926.35 
  349900    301.62572   -1535.9033    493.32725    317.74562   -259.89331     37926.35 
  350000    299.85872   -1531.1086    513.27574    334.51972   -292.88404     37926.35 
  350100    304.16332   -1515.2686    524.93783    381.43533   -33.350763     37926.35 
  350200    297.87776   -1527.0464    522.67194    339.04397   -319.53228     37926.35 
  350300    289.25901   -1541.1535    478.42037    241.81509   -109.07824     37926.35 
  350400    311.73368   -1540.2867    492.83067    358.45214    217.00437     37926.35 
  350500    292.45081   -1548.6548    501.23715     271.5254     190.4118     37926.35 
  350600    296.81129   -1534.2668     496.1501    300.49201    138.06409     37926.35 
  350700    308.07686   -1528.9601    536.16684    396.62272     663.9346     37926.35 
  350800    295.48412   -1542.5287    505.63114    295.72563    277.80585     37926.35 
  350900    300.49475   -1501.4928    497.63925    351.36742    542.69285     37926.35 
  351000    304.48906   -1481.0344     512.3942    404.59497   -164.90158     37926.35 
  351100    302.32372    -1472.751    493.97677    384.69531   -165.42149     37926.35 
  351200    297.86496   -1471.8003    504.72595    376.28632    68.906812     37926.35 
  351300    306.95103   -1481.7946    516.12042    418.66445   -198.60407     37926.35 
  351400    294.74898   -1492.8779    508.38837    344.81822    369.12114     37926.35 
  351500    294.29446   -1459.9226     544.6641    411.99941    616.36731     37926.35 
  351600    291.28669   -1537.2735     522.0411    298.46057    81.347359     37926.35 
  351700    299.10579   -1511.5392    512.99454    350.41222   -328.28349     37926.35 
  351800    290.02262   -1515.4382    494.52494    287.07876   -111.10235     37926.35 
  351900    301.00783   -1533.4357    489.65224    313.75147     17.54874     37926.35 
  352000    302.67905   -1503.4873    507.92354    369.50836    263.71115     37926.35 
  352100    300.84993     -1514.33    517.44027    359.93305    134.25722     37926.35 
  352200    303.03809   -1527.2106    510.94378    350.42458    537.05248     37926.35 
  352300    299.57011   -1531.7761    504.94537     324.2202    249.44563     37926.35 
  352400    303.86823   -1507.8712      543.038    405.60207    585.24888     37926.35 
  352500     297.5697   -1520.3967    489.17883    310.81128    115.40987     37926.35 
  352600      293.627   -1534.6534    504.69441    294.28862   -106.25395     37926.35 
  352700    300.51463   -1526.9202    475.35682     303.7473    -709.2161     37926.35 
  352800    304.50044   -1536.8948    506.19496    342.58669    -448.9956     37926.35 
  352900    293.19396   -1556.6402    498.41753    264.07201    116.40448     37926.35 
  353000    299.35289   -1586.4053    470.24093    233.90686    370.97649     37926.35 
  353100    297.05009   -1545.8175    514.88044    308.74866    47.808397     37926.35 
  353200     294.0773   -1511.9653    499.44918     313.7624   -358.72535     37926.35 
  353300     303.8851   -1503.9572    480.95041     347.5046    81.813358     37926.35 
  353400    288.20341   -1494.1663    515.04876    320.66992   -502.49751     37926.35 
  353500    299.95741   -1531.0223     489.6791    311.45442   -211.31002     37926.35 
  353600     301.5049   -1530.9601    498.93422    327.75078   -223.54891     37926.35 
  353700    304.18134   -1527.4855    490.01147     334.3734     -493.879     37926.35 
  353800    300.51171   -1531.4741    479.12176    302.94515   -400.30888     37926.35 
  353900    295.36237    -1500.629    493.54413    324.98921   -508.99919     37926.35 
  354000    295.86246    -1523.425    492.29983    303.20435   -441.26414     37926.35 
  354100    307.76639   -1537.3759    499.20956    349.84947    43.904029     37926.35 
  354200    316.74809   -1531.7599    510.09624    406.85931    165.88586     37926.35 
  354300    307.20276   -1565.6984    487.68056    307.45606    31.454942     37926.35 
  354400    305.35004   -1569.2135    471.02642    278.93112   -6.3091653     37926.35 
  354500    292.14424   -1503.2223    525.08822    339.42639     82.23524     37926.35 
  354600     311.2333   -1524.5544     489.5374    368.63444    47.986682     37926.35 
  354700    314.90935   -1574.0646    501.50777     347.6735   -321.02471     37926.35 
  354800    290.92365    -1540.422     499.0155    270.64912    150.07866     37926.35 
  354900    299.41324   -1580.8703    501.87856    271.35171    191.99114     37926.35 
  355000    290.11028   -1523.7322    513.72223    298.37738   -105.20254     37926.35 
  355100    302.38067   -1534.9028    500.61328    329.43689   -190.59166     37926.35 
  355200    293.86623   -1476.7708    505.95592    354.51168   -226.88407     37926.35 
  355300    295.78275   -1519.1047    483.81485    298.68012   -494.22883     37926.35 
  355400    292.64976   -1545.3839    503.33195    277.78847   -239.28181     37926.35 
  355500    308.05861   -1550.8741    493.14513    331.60476   -394.73304     37926.35 
  355600    306.58429    -1534.275    513.15368    361.56322   -670.02777     37926.35 
  355700    296.17596   -1507.3179    490.25873    318.68418   -709.24057     37926.35 
  355800    295.54989   -1539.3674    518.69415    312.24662   -914.00303     37926.35 
  355900    300.46569   -1527.6531    490.65094     318.0878   -195.81049     37926.35 
  356000    310.20547   -1532.1801     489.6508    356.48665    -84.53419     37926.35 
  356100      310.006   -1524.3077    502.30483    376.11355   -32.127527     37926.35 
  356200     296.4838   -1501.7218    517.69798    353.10789   -89.177853     37926.35 
  356300    299.82533   -1523.1934    498.16358    327.17215    13.932838     37926.35 
  356400    304.43346   -1544.4574    495.62952     324.1565   -56.828085     37926.35 
  356500    298.45359   -1490.9416    503.62499    358.69883   -481.76792     37926.35 
  356600    293.51907   -1488.8192    516.49222    351.43393      173.389     37926.35 
  356700    295.88943   -1535.9276     496.1132    294.63679     102.1773     37926.35 
  356800    311.41513   -1507.3841    481.55567    378.64312   -262.57217     37926.35 
  356900     300.8339   -1487.0779    505.50127    375.17391   -575.99093     37926.35 
  357000    295.91157   -1486.8062    495.33783    343.08266   -719.44362     37926.35 
  357100    302.61532   -1530.4566    507.01069    341.33874   -45.809841     37926.35 
  357200    295.94286   -1552.5464    496.43513     278.5809    -218.6605     37926.35 
  357300    293.41103   -1511.0989     487.5418    299.71653   -742.74738     37926.35 
  357400    297.46967   -1519.2727    498.85242    321.15775   -433.49171     37926.35 
  357500    295.50479   -1541.6988    498.01493    289.03254   -160.04448     37926.35 
  357600    294.19224   -1504.8071    490.12467    312.11441    433.95892     37926.35 
  357700    293.39867   -1551.6425    524.69214    296.26752   -17.924589     37926.35 
  357800    305.61524   -1542.9002    487.40801    322.82198   -238.39097     37926.35 
  357900    295.74515   -1544.7875    479.01393    268.02682    -529.4703     37926.35 
  358000    305.41842   -1521.1597    497.08385     353.3507   -391.18302     37926.35 
  358100    299.33348   -1557.9504    494.65636    286.68962     132.1646     37926.35 
  358200    304.07713   -1552.0639     485.9882    305.30166   -328.10234     37926.35 
  358300    299.44872   -1596.3334    474.26967    228.43971    108.73604     37926.35 
  358400    310.88853   -1623.5633    485.72153     264.2548    310.21479     37926.35 
  358500    288.59862   -1589.3439    463.93305    176.15896   -136.97976     37926.35 
  358600    299.33403   -1574.0458     550.8967    326.83713    -711.6308     37926.35 
  358700    298.80633   -1569.0942    483.60385    262.11598   -766.17565     37926.35 
  358800    311.67889   -1515.1427    516.89804     407.4164   -93.579633     37926.35 
  358900    290.43875   -1520.2402    520.86473    310.49326    63.393014     37926.35 
  359000    303.05247   -1540.5889    488.15151    314.31881   -397.12208     37926.35 
  359100    299.55283   -1528.3337    495.26343    317.90269   -819.82478     37926.35 
  359200    294.48104   -1547.9587    493.32461     273.4653   -803.10509     37926.35 
  359300    301.77641   -1553.1467    504.34498     312.1995   -943.98742     37926.35 
  359400     286.4679   -1565.8672    506.37261    232.46583   -810.01853     37926.35 
  359500     305.8167   -1507.1815    511.56085    383.60216   -424.81669     37926.35 
  359600    308.80977   -1540.7045    488.36723    340.38417   -736.36085     37926.35 
  359700    292.35024   -1529.0838    480.94906    270.35481   -815.85321     37926.35 
  359800    294.52232   -1511.8001    473.63439    290.11984   -563.02257     37926.35 
  359900     310.9789   -1523.6766     506.4418    385.26937   -595.09745     37926.35 
  360000    307.21402    -1520.777    469.02346     333.7711   -188.55888     37926.35 
  360100    287.86988   -1540.4876    512.68301    270.47869   -576.34905     37926.35 
  360200     303.0239   -1486.2816    518.12759     398.4734    81.050186     37926.35 
  360300    300.03687   -1519.4079    490.23817    323.98624   -411.22059     37926.35 
  360400     299.6652   -1532.8676    510.98199    329.59415   -866.01938     37926.35 
  360500    285.83298   -1533.7555    479.25036    234.59178    -1290.263     37926.35 
  360600     300.2643   -1530.9092    496.38195     319.6544   -470.18313     37926.35 
  360700    295.51691   -1541.1259    512.01577    303.66095    -705.2739     37926.35 
  360800     307.0851   -1565.4041    517.28951    336.82864   -185.92603     37926.35 
  360900    293.01818   -1523.8561    506.54436    304.19018   -454.81455     37926.35 
  361000    300.89163   -1563.4339    494.04307    287.62008   -429.59169     37926.35 
  361100    302.18074   -1554.6099    525.47483    333.68962   -200.00834     37926.35 
  361200    309.41192   -1533.0078    497.01855    359.44785    205.42664     37926.35 
  361300    314.44642    -1557.965    502.00936    362.18689   -102.97472     37926.35 
  361400     295.3027   -1574.8365     495.1859    252.15442    89.603284     37926.35 
  361500    299.50169   -1549.8886    505.32983    306.18359    202.42651     37926.35 
  361600    298.85844   -1539.4212    496.84998    305.27007    546.68065     37926.35 
  361700    298.90065   -1549.4741    484.38986    282.94743     587.4813     37926.35 
  361800     296.7243   -1533.8606    504.46332    308.81914    557.32256     37926.35 
  361900    298.82488   -1584.6381    490.77425    253.82612     94.59556     37926.35 
  362000    294.80901   -1529.4659    484.14675    284.25938    700.43247     37926.35 
  362100    296.57123   -1515.9745     508.2437    329.79521    683.23664     37926.35 
  362200    295.58236   -1517.7756     478.3297    293.62042    66.041576     37926.35 
  362300    301.66031    -1468.094    487.25764    379.64126   -470.71263     37926.35 
  362400    312.02564   -1507.2889     513.3014    413.23738    -546.8274     37926.35 
  362500     312.4314   -1495.9641    515.50499    428.59576   -796.20353     37926.35 
  362600    299.71286   -1515.0623    478.92316    315.55552   -132.63551     37926.35 
  362700    305.79604   -1532.4374    469.72362     316.4159    1.6440818     37926.35 
  362800    304.77894   -1529.2192     515.4081    360.73141   -303.00462     37926.35 
  362900    294.25462   -1509.8301    477.94191    295.19007   -60.481913     37926.35 
  363000    299.12525   -1547.8369     504.0357    305.24334    160.85621     37926.35 
  363100    296.51244   -1528.6641    485.20975    293.80657    673.21696     37926.35 
  363200     308.4734   -1522.9824    502.20292    370.42493    233.68452     37926.35 
  363300    296.93759   -1506.9423    463.00922     295.2452    -32.08844     37926.35 
  363400    305.20174   -1536.4038    485.10178    325.14734    367.07561     37926.35 
  363500    296.88494   -1528.4739    470.46094    280.92788   -252.70553     37926.35 
  363600    297.82067   -1524.2022    483.13028    302.08902   -153.01492     37926.35 
  363700    313.94756   -1498.6412    511.70438    428.95585   -190.51901     37926.35 
  363800    301.61367   -1482.8084    501.81084    379.26966    89.879373     37926.35 
  363900     304.3816   -1475.0545    496.14344    393.83955    44.962208     37926.35 
  364000    296.14152   -1485.9836     487.0862    336.69072    138.81427     37926.35 
  364100    305.34425   -1473.9714    484.58067    387.70135    551.95325     37926.35 
  364200    301.30404    -1558.277    464.50094    265.09477    120.96202     37926.35 
  364300    296.05975   -1572.5541     478.3862    241.05141   -18.288631     37926.35 
  364400    301.35251   -1555.5376    537.29441    340.84626    -258.3146     37926.35 
  364500    305.42444   -1523.4308    501.06359    355.08654   -302.10465     37926.35 
  364600     299.1838   -1577.5208    496.81057    268.59842   -217.34343     37926.35 
  364700    293.30904   -1571.0901    483.95899    235.68258   -246.65109     37926.35 
  364800    295.75967   -1558.8009    449.30486    224.36995   -30.503387     37926.35 
  364900    303.32608   -1526.4447     515.1084    356.65394   -178.98272     37926.35 
  365000     289.8646   -1564.8975    496.92297    239.30481    162.20597     37926.35 
  365100    302.64764   -1524.0203    490.27245    331.18255    823.25393     37926.35 
  365200    290.96968   -1472.3698    486.87614    326.76961    478.63875     37926.35 
  365300     297.0108   -1479.1534    508.93641    369.29153    146.95146     37926.35 
  365400    305.50135   -1449.2839    488.36113     416.8778      486.479     37926.35 
  365500    301.03981   -1515.0437    470.72619    313.36172    -515.6939     37926.35 
  365600    303.64066   -1541.6989    471.20815    298.91817   -228.89326     37926.35 
  365700    304.49816   -1501.7352    472.84751    344.38855    342.50106     37926.35 
  365800    285.82494   -1522.2137    469.70093    236.54789    469.03432     37926.35 
  365900    311.40139   -1488.9416    505.97097    421.43893    420.19424     37926.35 
  366000      300.094   -1504.4972    493.97113    342.88757    745.07956     37926.35 
  366100    296.56251   -1471.8086     470.0064     335.6845    378.07843     37926.35 
  366200    308.13037    -1497.756    502.21639    394.11773    168.94753     37926.35 
  366300    304.55998   -1505.6199     485.5725    353.50768   -21.145105     37926.35 
  366400    300.58064   -1461.1695    518.10149    412.54036   -338.55929     37926.35 
  366500    296.81315    -1459.618    464.05734    343.05646    119.22469     37926.35 
  366600    299.32706   -1496.4836    473.58645    327.05758   -325.61709     37926.35 
  366700    295.72524   -1490.6148    490.70659    333.80241   -410.68363     37926.35 
  366800     305.6861   -1532.8826    462.16789    307.91907   -731.16156     37926.35 
  366900    296.27123    -1508.454    476.88705    304.60612   -442.31952     37926.35 
  367000    301.56703   -1497.4276    513.02873    375.65804    237.21981     37926.35 
  367100    302.58166    -1458.344    480.66685    386.95566    621.41303     37926.35 
  367200    306.57137   -1525.2802    498.70628     356.0524     336.1491     37926.35 
  367300    297.14983   -1529.8386     480.9427    291.23957    644.92926     37926.35 
  367400     294.4768   -1525.4432    480.65767    283.29468    418.20057     37926.35 
  367500    300.92971   -1511.8058    480.69692    326.07376    34.917322     37926.35 
  367600    309.69069   -1550.7258    482.69613    328.66466    187.70303     37926.35 
  367700    305.67712   -1476.4233    482.75814    384.92814    490.71495     37926.35 
  367800     292.3777    -1523.384    484.29288    279.52221    153.53233     37926.35 
  367900    307.69818   -1547.0559    500.32193    340.97428   -84.146066     37926.35 
  368000    300.88534   -1515.1263    477.57154    319.42775    384.55868     37926.35 
  368100     291.4764   -1500.4883    505.82048    319.88075    655.96168     37926.35 
  368200    298.74465   -1481.9463     504.8858     370.2676    605.58548     37926.35 
  368300    297.89045   -1523.8895    523.56758    343.15377    33.579769     37926.35 
  368400    294.93479   -1540.1013    474.79263    264.83712   -278.66414     37926.35 
  368500    296.47045   -1508.9524    511.96612    340.08525    60.575379     37926.35 
  368600     301.0594   -1518.2069    507.29786    346.85845    103.78768     37926.35 
  368700    303.65653   -1500.3752    483.00218    352.10747    943.25115     37926.35 
  368800    296.30084   -1507.5562     467.6238    296.37418    89.935115     37926.35 
  368900    305.06614   -1500.5251    519.34488    394.65756    231.31839     37926.35 
  369000    295.52897   -1493.7355    487.38731    326.47732   -6.5667789     37926.35 
  369100    300.68481   -1510.6317    507.15533    352.60176    228.23798     37926.35 
  369200      306.745   -1479.0702    505.69776    410.03694   -587.69983     37926.35 
  369300     303.6558   -1493.9535    474.01809    349.54176    381.00855     37926.35 
  369400    305.67098   -1505.1519    500.23344    373.64709   -400.74193     37926.35 
  369500    295.14183     -1513.68    508.47513    325.87458    215.29887     37926.35 
  369600    300.59779   -1466.1434    493.01027    382.55256   -296.84771     37926.35 
  369700    300.73502   -1536.4386     472.3717    292.23769   -237.02996     37926.35 
  369800    292.28969   -1507.5448    495.18361    305.85529   -64.628146     37926.35 
  369900    304.88205   -1499.2802    513.74572    389.47304     150.8749     37926.35 
  370000    310.43874   -1484.8875    492.73896    407.91952   -205.07556     37926.35 
  370100    307.22141   -1484.5564    488.92323    389.92478  -0.44191831     37926.35 
  370200    298.86125   -1506.1549    491.21877    332.91781   -18.208256     37926.35 
  370300    305.14186   -1520.5311    522.97802    378.62623    718.75212     37926.35 
  370400    292.27192    -1486.158    506.47202    338.45032    314.22555     37926.35 
  370500    303.91827   -1474.8934    504.63398    400.40157    125.45696     37926.35 
  370600    304.80108   -1468.9292    492.96502    398.67824   -339.35931     37926.35 
  370700    300.73743   -1497.7405    499.92561    358.50055   -104.77129     37926.35 
  370800    278.36758    -1526.258    470.05159     199.2218   -782.27464     37926.35 
  370900    312.01915   -1534.4039    473.63135    346.42304   -189.44414     37926.35 
  371000    304.86187   -1497.7155    505.57509    382.77614    -233.0494     37926.35 
  371100    299.91713   -1527.1077    499.59316    325.10139   -725.64383     37926.35 
  371200    293.67511   -1483.0792    478.62986    320.01529   -521.50521     37926.35 
  371300    312.26852   -1517.6517    483.18884    373.85743   -207.05688     37926.35 
  371400    305.01059    -1559.118    466.94607    283.41528    50.364967     37926.35 
  371500     297.6597   -1544.0084    499.64182    298.06838    244.95166     37926.35 
  371600    311.63188   -1569.8068    484.72989    320.37215   -47.425101     37926.35 
  371700    307.35213   -1553.2155    489.65799       322.59    245.77076     37926.35 
  371800     297.3547   -1563.2349    477.13452     254.9591      222.011     37926.35 
  371900    302.43347   -1504.8769    500.59983    359.68747    505.37202     37926.35 
  372000    303.87906   -1536.9585    473.96528    307.49085    450.03729     37926.35 
  372100    312.97897   -1521.5423    490.61241    380.59451   -14.336746     37926.35 
  372200    309.28254   -1549.6885    489.80701    334.97212    266.60555     37926.35 
  372300    300.24111   -1547.7811    493.71281    300.00882    -310.7641     37926.35 
  372400    300.23936   -1526.2395    485.27379     313.1035    -618.0616     37926.35 
  372500    303.03532   -1551.9167    491.53611    306.29824   -465.14304     37926.35 
  372600    291.53175   -1543.2264      486.593    258.16483   -413.73785     37926.35 
  372700    292.43625   -1522.9525    512.09989    308.02486    -212.3612     37926.35 
  372800    297.74912   -1548.7346    467.14486    261.24851   -208.11864     37926.35 
  372900    306.78907   -1513.9596    521.33058    390.97911   -186.36045     37926.35 
  373000    296.52498   -1552.1965    484.38118    269.50218    322.03549     37926.35 
  373100    296.41231   -1586.6321    481.98775      232.165   -177.94739     37926.35 
  373200    298.37055   -1558.1846    512.76882    300.22512   -212.12488     37926.35 
  373300    296.25877   -1558.5676    479.19698    256.74628   -211.12022     37926.35 
  373400    296.87667   -1551.9496    470.59955    257.55358   -21.073873     37926.35 
  373500    304.51095   -1561.8222    485.81585    297.32752   -8.1430134     37926.35 
  373600    308.61957   -1522.1061    504.65062    374.40817   -496.41203     37926.35 
  373700    297.92802   -1548.8329    490.60715    285.41935   -399.62562     37926.35 
  373800    298.27993   -1517.0542    506.75914    334.93713   -4.2536363     37926.35 
  373900    296.50544    -1536.249    477.99497    278.97532     173.1983     37926.35 
  374000    301.41545   -1536.2633    482.73799    305.84802    239.31261     37926.35 
  374100     303.2943   -1559.5845      491.178    299.44037    318.53648     37926.35 
  374200    294.02957   -1562.9583    509.25154    272.35653    489.95251     37926.35 
  374300    295.08913    -1578.782    481.51343    233.57321    634.87785     37926.35 
  374400    292.91136   -1563.2066    490.92183    248.73538    135.54525     37926.35 
  374500    312.30242   -1516.7929    490.31446    381.99473   -286.46021     37926.35 
  374600    294.73182   -1472.0011    527.56413    384.79341    602.39115     37926.35 
  374700    304.22921   -1503.8068    515.08943    383.34595    1002.7379     37926.35 
  374800    302.21993   -1510.4826    514.77951    367.29844     798.1882     37926.35 
  374900    303.44024   -1516.3446    491.08529    343.24568    830.37844     37926.35 
  375000    299.82597   -1528.0241    495.23383    319.41452    493.45721     37926.35 
  375100    310.17896   -1547.5448    473.88993    325.24153    148.53121     37926.35 
  375200    310.29362   -1545.0711    490.27643    344.61884    236.07025     37926.35 
  375300    299.51788   -1475.9487      521.076    395.94262    173.54159     37926.35 
  375400    290.36795   -1507.1839    493.12644    295.49204    820.18923     37926.35 
  375500    309.98667   -1560.2934    520.09059    357.82638    394.36044     37926.35 
  375600    304.58007   -1581.2868    496.74591    289.10475     685.2924     37926.35 
  375700    299.48311   -1543.0163    482.74468    290.38692    873.89397     37926.35 
  375800    309.30894   -1559.9559     507.4601    342.47686    416.51681     37926.35 
  375900    294.56855   -1510.3612    499.02642    317.15927   -54.287186     37926.35 
  376000    298.12005   -1573.9162    503.78567     274.3806    622.42535     37926.35 
  376100    296.15242   -1574.3054    499.62533    260.95718    392.64953     37926.35 
  376200    300.71954   -1567.7004     516.6605    305.19491    522.76575     37926.35 
  376300    277.84206   -1575.3407    492.72514    170.44259    135.00279     37926.35 
  376400    294.98052   -1556.2406    496.39976    270.51115    376.17454     37926.35 
  376500    305.97294   -1571.7896    481.84147     289.9793    1015.9164     37926.35 
  376600    290.14897   -1580.4195    502.08416    230.22658    24.664549     37926.35 
  376700    296.16287   -1542.2562    501.23138     294.6595    114.56341     37926.35 
  376800    300.34129   -1520.1923    492.17396    326.51053    455.09943     37926.35 
  376900    303.94171   -1483.3541    501.06153    388.47406    774.98798     37926.35 
  377000    293.99091   -1502.6059    485.14704       308.43    662.37511     37926.35 
  377100    296.76069   -1543.7872    487.64816    282.24154    192.99323     37926.35 
  377200    299.27271   -1511.5359    527.27407    365.44777   -61.117495     37926.35 
  377300    306.58749   -1595.1755    497.43942    284.96293   -115.70679     37926.35 
  377400    299.62932   -1527.5305    498.25905     322.0465   -22.700853     37926.35 
  377500    281.52722   -1507.7659    515.04655    276.95869    79.465452     37926.35 
  377600    291.84702   -1512.7215    501.40985    304.90831    -298.6241     37926.35 
  377700    295.26149   -1517.4898    503.94109    318.07047   -151.64723     37926.35 
  377800    299.45684   -1509.6906      474.628    315.47749   -251.57214     37926.35 
  377900    295.99326   -1491.8734    493.96823    337.01423   -533.38264     37926.35 
  378000    303.81983   -1511.0858    472.94839     332.0796   -165.13895     37926.35 
  378100    300.93349   -1502.0142    515.12536    370.31083   -306.30241     37926.35 
  378200    287.82501   -1503.4295    504.77009    299.42145    1033.1082     37926.35 
  378300     288.3315   -1523.3916    520.69427    297.66786    620.26302     37926.35 
  378400    293.88069   -1534.5493     514.4014    305.24389     318.7089     37926.35 
  378500     302.5305   -1541.4929    497.79311    320.70237    485.72637     37926.35 
  378600    302.35889   -1521.5476    508.72718    350.80778    427.87618     37926.35 
  378700    290.73111   -1491.6658    502.74349    322.26498    574.59615     37926.35 
  378800    295.28832   -1510.3118    515.83715    337.26554    504.69508     37926.35 
  378900    290.56007   -1525.4886    524.03302    308.96037   -9.0714534     37926.35 
  379000     293.4901   -1522.3067    484.34527    285.66878   -8.3623944     37926.35 
  379100    307.67897   -1488.8646    489.54239    388.29941    112.69781     37926.35 
  379200    294.79351    -1485.541     516.7821    360.74971   -272.00733     37926.35 
  379300    302.28827    -1507.453    506.34976    362.20646    515.44866     37926.35 
  379400    299.17191   -1507.2253    492.27518     334.3049    81.199166     37926.35 
  379500    304.84333   -1485.1705    485.39381    375.05626    -376.0178     37926.35 
  379600    291.98138   -1458.4524    473.20441    331.57793   -621.75113     37926.35 
  379700    297.22946   -1502.4511    506.70584    344.74934   -269.40828     37926.35 
  379800    307.39637   -1508.8726    490.32449    367.79893   -657.03007     37926.35 
  379900    290.59355   -1490.7626    472.65951    292.46383   -563.05257     37926.35 
  380000    292.08911   -1507.8246    506.76028    316.24754   -394.45006     37926.35 
  380100    295.15725   -1478.5937    514.39661    366.95191    -279.4541     37926.35 
  380200    294.99352   -1522.0889    489.75238    298.07412   -460.88768     37926.35 
  380300    305.28619    -1491.964    505.56286    390.42911   -524.12691     37926.35 
  380400    286.68477   -1473.7815    471.06271    290.21969   -1183.4696     37926.35 
  380500    308.13444   -1421.4303    511.16538    479.41078   -848.27767     37926.35 
  380600    296.90164   -1474.4228    480.48175    345.07512    -720.5924     37926.35 
  380700    310.81231   -1493.4199    479.19344    387.52639   -97.339776     37926.35 
  380800    294.07512   -1480.7679    492.05554    337.55626   -93.420438     37926.35 
  380900    306.29339   -1471.6086     479.3068    389.07091   -173.84401     37926.35 
  381000    297.78021   -1454.0373    499.58921    388.53047   -395.67467     37926.35 
  381100    298.45523   -1496.9251    516.84224    365.93996   -81.422201     37926.35 
  381200    307.56996   -1448.1745     492.1555    431.11097    116.16824     37926.35 
  381300    295.52324   -1390.9492    512.91164    454.76207   -303.77718     37926.35 
  381400    289.95909   -1474.8053    493.38724    326.28744   -221.68566     37926.35 
  381500    298.55319   -1493.5577    485.01348    337.92036    75.023029     37926.35 
  381600    308.59789   -1538.8848    481.98415     334.8652    621.87123     37926.35 
  381700    301.41444   -1512.8608    501.49198    347.99994    585.40957     37926.35 
  381800    301.07257   -1475.2529    508.14582    390.71982    238.93097     37926.35 
  381900    296.41461   -1501.9923    523.10206    357.92949    250.92572     37926.35 
  382000    304.86845    -1550.898    503.96514    328.01339     33.94318     37926.35 
  382100     297.1423   -1522.4834    492.50084    310.11897   -58.825036     37926.35 
  382200    297.25181   -1517.8759    520.79058    343.51011   -244.31193     37926.35 
  382300    292.64161    -1482.001    495.37836    333.18097    705.87473     37926.35 
  382400    295.66292   -1474.8558    475.50118    334.07493    346.80055     37926.35 
  382500    293.53086   -1464.3204     526.0321    385.52584    131.50244     37926.35 
  382600    295.22301   -1491.1562    527.30012    367.58957     127.5575     37926.35 
  382700    299.25639   -1494.6922    497.59198    352.53582    438.96647     37926.35 
  382800    301.76933   -1564.7931    483.33496    279.51111   -262.98764     37926.35 
  382900    299.18871   -1547.3181    493.02117    295.03389    507.03607     37926.35 
  383000     302.9239   -1476.1697    462.04872    352.05536    696.86198     37926.35 
  383100    307.44921   -1505.5448    508.72162    389.76221    5.4782658     37926.35 
  383200    308.64292   -1489.8969    493.83486    395.90688    5.6759128     37926.35 
  383300    301.76707    -1462.841    501.09588    399.21402   -517.58291     37926.35 
  383400    305.18789   -1467.5235    526.86768    435.73107   -175.33684     37926.35 
  383500    307.69516   -1428.2348    494.94304    454.40277    40.603121     37926.35 
  383600    304.85746    -1449.311    502.22581    427.81145    145.27074     37926.35 
  383700    293.92592   -1434.9708    528.50134    419.12633   -154.07208     37926.35 
  383800    292.24396   -1475.3886    498.62555    341.24715    17.951127     37926.35 
  383900    304.62221    -1447.541    495.14286    421.43754   -408.86863     37926.35 
  384000    293.62159   -1458.3695    491.45001    357.30373   -338.18304     37926.35 
  384100    299.40703   -1448.3427     522.5211    424.49379   -172.39105     37926.35 
  384200    300.62422   -1460.1079    503.22138    398.91833   -794.88424     37926.35 
  384300     307.1208   -1475.6914    522.05396    431.46682   -215.04123     37926.35 
  384400    303.59309   -1462.2298    505.36713    412.33176   -476.88967     37926.35 
  384500    302.01169   -1468.7225    493.28465    386.62455   -330.11598     37926.35 
  384600    306.35157   -1443.5492    480.73096    418.81686    74.037712     37926.35 
  384700    300.21741   -1474.3616    503.45481    383.06338    189.51977     37926.35 
  384800    297.88282   -1454.1115    505.10281     394.4326    90.736081     37926.35 
  384900    305.33946   -1476.3038    514.54656    415.31323    54.602185     37926.35 
  385000    302.62122   -1470.7295     485.2118    379.29358    357.02978     37926.35 
  385100    290.76049   -1504.9651    510.38693    316.74158   -59.108123     37926.35 
  385200    295.70603   -1475.3262    504.95743    363.25523    712.79024     37926.35 
  385300    300.91775   -1428.4483    524.70795    453.38833    648.42855     37926.35 
  385400     311.0823   -1432.5168     490.7452     461.1989    100.18581     37926.35 
  385500     297.6287   -1416.3194    492.63274    418.60855    350.28952     37926.35 
  385600    305.07435   -1407.1192    516.50642    485.26207    427.03037     37926.35 
  385700     292.3702   -1398.4612    490.50223    410.62056   -190.59198     37926.35 
  385800    300.42925   -1389.1435    525.14584    490.92791   -533.46898     37926.35 
  385900    313.46697   -1430.8873    512.93845    495.77639   -525.68332     37926.35 
  386000    304.63482   -1431.2824    477.27686    419.88698   -953.83283     37926.35 
  386100    296.48384   -1425.4822    514.18359    425.83329   -1136.8702     37926.35 
  386200    301.35301   -1428.6626    495.77459    426.20371   -860.24072     37926.35 
  386300    307.09553   -1486.9636    510.38961    408.41631   -385.59753     37926.35 
  386400    304.99361   -1495.4358    487.09652    367.17143    580.06248     37926.35 
  386500    297.42868   -1482.3038    478.05892    337.14822    326.70409     37926.35 
  386600    303.35259   -1481.9586    477.65722    363.80836    387.39036     37926.35 
  386700    302.75345   -1455.6696    462.29472    372.03274    327.92879     37926.35 
  386800    293.76332   -1459.2805    480.54317    346.12516    8.8068304     37926.35 
  386900    297.64164    -1466.115    476.24539    352.48393    241.83141     37926.35 
  387000    296.40447   -1460.6672    528.60444    404.71124   -373.63004     37926.35 
  387100    302.43159   -1540.5945    448.14122    271.50279    182.59459     37926.35 
  387200    296.20448   -1459.2781    536.92751    413.52141   -101.58079     37926.35 
  387300    289.05365   -1491.0618    472.17498    284.73521    104.43259     37926.35 
  387400    307.56985   -1474.5982    500.09247    412.62369    107.90154     37926.35 
  387500    301.80404   -1531.2186    508.94674    338.85402   -196.27834     37926.35 
  387600    299.67594   -1507.8767     486.4541    330.10558   -134.57503     37926.35 
  387700    306.35837   -1486.2692    488.30662    383.70314   -74.386729     37926.35 
  387800    291.30083   -1482.4763    470.54897    301.82942   -6.2968239     37926.35 
  387900    312.33228   -1515.4496    490.71317    383.87141     197.9469     37926.35 
  388000    302.92208   -1534.7639    469.23218    300.63647   -345.50872     37926.35 
  388100    291.33159   -1546.5482    473.77912    241.12644   -398.87825     37926.35 
  388200    304.39323   -1550.6238     476.4577    298.63695   -31.195772     37926.35 
  388300     302.7131   -1576.2269    475.70646    264.70525      -121.04     37926.35 
  388400    311.05083   -1594.8514    462.56471    270.54191    367.92704     37926.35 
  388500    303.41509     -1548.62    480.69237    300.46398   -519.62055     37926.35 
  388600    300.42899   -1514.4905    477.86248    318.29646   -826.50639     37926.35 
  388700    306.99463   -1545.9767    467.84664    306.40515   -640.53832     37926.35 
  388800     288.2046   -1514.3362    484.04887    269.50545   -460.29253     37926.35 
  388900    301.70016   -1519.7053     516.7725    357.72449    56.650541     37926.35 
  389000    306.26116    -1575.751    456.35756    261.83389   -629.27888     37926.35 
  389100     301.9619   -1558.4288    467.31415    270.72312    -122.6111     37926.35 
  389200    296.66641    -1515.874     481.6697    303.75097   -1182.0889     37926.35 
  389300    295.80699   -1535.2996    486.44252    285.22224   -581.48302     37926.35 
  389400    308.69292   -1553.8748    495.72878    334.04842   -431.73847     37926.35 
  389500    297.34146   -1510.2825    486.56668    317.28394   -130.05266     37926.35 
  389600    302.11567   -1545.6445    491.23396    308.12073    332.37071     37926.35 
  389700    301.26337   -1553.2023    472.28033     277.7654    353.10285     37926.35 
  389800    300.18801   -1508.0326    454.57758    300.38257   -127.74498     37926.35 
  389900     302.2199   -1497.8481    493.19577    358.34901    340.18437     37926.35 
  390000    296.05035   -1515.6695    485.12525    304.63266    132.98916     37926.35 
  390100    307.01288   -1507.2618    467.50604    344.86175    327.82889     37926.35 
  390200    297.67824   -1507.3991    489.85091    324.97042    434.82173     37926.35 
  390300    308.26413    -1489.293    483.60122    384.56884    364.23732     37926.35 
  390400    294.47791   -1505.2414    468.28875    291.13258    109.45646     37926.35 
  390500    295.41945   -1507.1773    476.45602    301.61024   -44.105989     37926.35 
  390600    296.81379   -1526.2949    446.59181    258.91692   -299.58849     37926.35 
  390700    299.93468   -1498.6571    484.94156    338.97952    130.17749     37926.35 
  390800    302.12605   -1462.0676    481.38287    381.89337   -391.83826     37926.35 
  390900    309.43139   -1491.5769    467.87871     371.8268    -631.0793     37926.35 
  391000    291.00567   -1484.0628    480.63619    308.99897   -125.13476     37926.35 
  391100    307.71057   -1468.9747    460.73121    379.52053    -487.4462     37926.35 
  391200    305.92969   -1476.2188    501.47081    404.98437   -471.60464     37926.35 
  391300    293.41713    -1479.419    488.15151    332.03364   -137.96481     37926.35 
  391400     301.3053   -1462.0468    472.92637    369.75607   -108.46229     37926.35 
  391500    302.12267   -1451.0114     491.6123    403.16378   -495.42306     37926.35 
  391600    304.47852   -1431.4152    463.84597    405.61845   -288.78822     37926.35 
  391700     296.8385   -1455.4434    464.84165    348.12967   -101.00173     37926.35 
  391800     291.7691   -1445.5145    460.65129     331.0054   -279.10884     37926.35 
  391900    302.51121   -1475.7946    466.13982    354.66043   -385.77691     37926.35 
  392000    293.86038   -1468.5425    493.52702    350.28473    252.74905     37926.35 
  392100     298.6469   -1433.4049    487.07743    400.55978    257.83949     37926.35 
  392200    304.88808   -1456.9944    469.42954    387.46985    355.53271     37926.35 
  392300    292.54018   -1453.1341    489.58982    355.80185    556.75845     37926.35 
  392400    304.67245   -1438.0085    490.85823      426.912    555.79011     37926.35 
  392500    302.01659   -1444.3481    496.85158    414.58795   -26.811477     37926.35 
  392600    300.15086   -1440.5129    490.34054    403.49769   -489.53121     37926.35 
  392700    306.06224    -1492.049    473.17397    361.45512   -273.86694     37926.35 
  392800    311.96818   -1490.5235    472.18788    388.63013    262.37154     37926.35 
  392900    299.20849   -1519.0887    426.98321    257.31455   -324.01444     37926.35 
  393000     294.6726   -1485.2341     475.7008    319.42997   -152.95612     37926.35 
  393100    297.99578   -1494.7582    470.58631    319.77879   -60.121549     37926.35 
  393200    303.08821   -1471.4499    463.57631     359.0438   -280.68878     37926.35 
  393300    293.65232   -1494.9047    483.17804    312.63523   -513.25607     37926.35 
  393400    296.13034   -1489.2703    511.10783    357.37519    407.44902     37926.35 
  393500    295.29043   -1499.5696    468.59981     300.7799   -200.20065     37926.35 
  393600    299.18821   -1504.6239    487.84288    332.54755   -697.65608     37926.35 
  393700    306.37456   -1488.3297    493.33107    386.74009   -224.52319     37926.35 
  393800    300.15596   -1457.4401     476.8902    373.14311   -483.65828     37926.35 
  393900    312.81506   -1477.4975    480.00737    413.29502     52.53571     37926.35 
  394000    301.93606   -1474.8557    496.88609    383.75159   -74.785972     37926.35 
  394100    298.25556   -1462.2396    480.16881    363.05153    341.92218     37926.35 
  394200    300.33083   -1487.5445    485.91439     352.8516   -163.46158     37926.35 
  394300    304.05274   -1492.3351    479.36701     358.2993    390.87015     37926.35 
  394400    302.50651   -1503.9275    472.95007    333.31653    96.426285     37926.35 
  394500    302.64827    -1516.308    456.63716    305.26244   -377.88198     37926.35 
  394600    302.43141   -1496.7229    500.87551    368.10789    129.26738     37926.35 
  394700    309.08686   -1471.9665    479.35015    401.35475    108.71287     37926.35 
  394800    295.24118   -1498.4423    478.98746    312.07272    54.103381     37926.35 
  394900    292.73123   -1482.0853     476.9695    315.09195     201.0875     37926.35 
  395000    308.98056    -1421.725     496.1877    467.95444    -68.08133     37926.35 
  395100    303.96078    -1469.817    486.86551    387.90113   -692.54165     37926.35 
  395200    300.91148    -1431.426    471.12872    396.80315    -84.15335     37926.35 
  395300    298.29962   -1464.5841    487.94785    368.68476    215.75949     37926.35 
  395400     290.6238   -1447.7115    474.42571     337.4176    153.24817     37926.35 
  395500    298.46828   -1427.1843    500.22523    419.12261    -188.0497     37926.35 
  395600    292.15039   -1473.8853    479.86849     323.5714   -656.91732     37926.35 
  395700    301.43942   -1478.7512    467.98432    348.71453   -359.40478     37926.35 
  395800    296.64627   -1509.7933    493.64203    321.71318   -238.03339     37926.35 
  395900    304.47915   -1506.4241    473.85458    340.62098   -191.52472     37926.35 
  396000    294.78675   -1472.7033    493.12019    349.89498   -21.927705     37926.35 
  396100    302.25158   -1456.9924    475.21776    381.36963   -232.43731     37926.35 
  396200    301.37048   -1430.1853     511.6988    440.68398   -351.26429     37926.35 
  396300    300.09406   -1491.7715     501.5447    363.18708    400.50607     37926.35 
  396400    303.77278   -1478.5794    456.21555    347.64095    678.35121     37926.35 
  396500    293.28239   -1500.6788    478.87583    300.89053   -714.98139     37926.35 
  396600    300.02089   -1501.0595    498.57457    350.59891   -285.96753     37926.35 
  396700    292.74768   -1470.9487    512.10905    361.44234   -244.62102     37926.35 
  396800    302.57698   -1468.8665    476.41444    372.15969   -568.10894     37926.35 
  396900    304.25477   -1490.9369    489.77494    371.01656   -54.768689     37926.35 
  397000    302.45908   -1504.6293    479.35875    338.80946   -616.93643     37926.35 
  397100    301.79468   -1482.4063     465.2765    343.95383   -672.69888     37926.35 
  397200    295.85526   -1491.6359    480.18731    322.84847     155.7066     37926.35 
  397300    295.56961   -1421.8418    494.18227    405.34927    86.227819     37926.35 
  397400      303.769   -1474.0654    478.10404    374.02634    327.20682     37926.35 
  397500    296.91484   -1481.8357    488.48232    345.72235    619.23999     37926.35 
  397600    297.11545   -1474.2836    500.94666    366.64347    287.32975     37926.35 
  397700    296.16653   -1499.1691    473.53392     310.0657    481.87368     37926.35 
  397800     297.9448   -1483.6396    485.35357    345.43473    482.05443     37926.35 
  397900    293.88847   -1455.2934    511.91192     382.0454    213.65305     37926.35 
  398000    293.63466   -1488.5649    476.66013    312.37745    194.30058     37926.35 
  398100      302.539   -1542.3875    480.31333    302.36627    111.69698     37926.35 
  398200    297.06008    -1510.546    484.08544    313.27018   -413.08846     37926.35 
  398300    303.79826   -1498.7745    482.76097    354.10618    365.75956     37926.35 
  398400    318.41287   -1494.6537    461.39292    402.77032   -91.144682     37926.35 
  398500    305.06967   -1478.5494    481.77347    379.07773   -241.22311     37926.35 
  398600    297.77806    -1489.871    476.73044     329.8282   -188.87151     37926.35 
  398700    306.53208   -1489.8163    477.30192    369.93473   -308.52889     37926.35 
  398800    295.59474    -1482.377    486.40644    337.15152   -562.01666     37926.35 
  398900    292.23228   -1497.5804    485.94408    306.32126   -394.09433     37926.35 
  399000     303.9494   -1557.3715     469.2236    282.65341    82.124183     37926.35 
  399100    296.76046   -1504.1216    480.17047    314.42835   -193.11707     37926.35 
  399200    300.95569   -1486.2883    498.78532    369.79683   -335.83808     37926.35 
  399300    305.45055   -1502.8847    458.88915    333.57591    261.01414     37926.35 
  399400     299.1756   -1462.9113    479.65083    366.01121    296.65631     37926.35 
  399500    300.73877   -1454.2022    528.17792    430.29722    187.48517     37926.35 
  399600    299.73593   -1470.2209    483.59011    365.16795    751.90719     37926.35 
  399700    304.13592   -1489.9069    489.03911    370.77473    636.89157     37926.35 
  399800    292.97586   -1484.4422    490.12259     326.9914   -91.142415     37926.35 
  399900    287.21278   -1497.1561    477.58617    275.74986    187.92701     37926.35 
  400000    297.36862   -1511.2609    486.86938    316.73076    185.27631     37926.35 
  400100    299.80994   -1513.3829    468.86899    307.61861    356.58822     37926.35 
  400200    290.43247   -1459.4771    501.54475    351.90809     385.7965     37926.35 
  400300    298.50607   -1509.2063    477.80516    314.85096    400.57491     37926.35 
  400400    303.47882   -1491.6796    460.95845    337.95791    243.25808     37926.35 
  400500    309.53548   -1547.5847    473.08908    321.49874   -240.83591     37926.35 
  400600    293.62424   -1521.3079    467.97677    270.90407   -206.25789     37926.35 
  400700    301.73457   -1502.3277    482.94961    341.43442    314.03606     37926.35 
  400800     297.7209    -1504.102    488.57792    327.18694    66.907146     37926.35 
  400900    294.77534   -1527.7466    482.41611    284.09613   -139.37434     37926.35 
  401000    301.56589    -1536.411    483.56894     307.2097   -71.341861     37926.35 
  401100    308.89137   -1573.6014    480.56949    300.05755    -294.8724     37926.35 
  401200     300.8284   -1533.9817    505.29171    328.03571   -45.818982     37926.35 
  401300    307.16298   -1498.3771    457.43975    344.35709   -505.30172     37926.35 
  401400    296.57112   -1473.2654    492.34387    356.60404    -689.5631     37926.35 
  401500    307.96643   -1457.9514     485.4834    416.45002   -489.00539     37926.35 
  401600    286.87207   -1479.6453    500.47812    314.61603   -565.74296     37926.35 
  401700    299.05249   -1508.3439    478.22864    318.60119   -280.14659     37926.35 
  401800    296.97547   -1506.1403    503.34632    336.55514   -123.09443     37926.35 
  401900    294.24221   -1496.5996    482.25435    312.67703   -769.80769     37926.35 
  402000    298.10311   -1532.5316    472.41056    284.31375   -195.35319     37926.35 
  402100    302.11301   -1505.7716    483.30895    340.05666   -159.17499     37926.35 
  402200    297.58831   -1476.8716     497.0333    362.27474    82.220432     37926.35 
  402300    298.71693   -1455.0496    506.06408    398.21759    121.22809     37926.35 
  402400    292.13855   -1514.5229    450.37547    253.38736   -406.80633     37926.35 
  402500    305.25963   -1503.1909     474.2617    347.78123    28.681667     37926.35 
  402600    306.09615   -1501.7857    488.29209    366.98947    99.308317     37926.35 
  402700    295.44669   -1512.6299    499.79905     319.6236    295.73633     37926.35 
  402800    300.65268   -1500.1527    483.36005    339.14061    499.89824     37926.35 
  402900    289.33032   -1480.7595    486.03664    310.14694   -12.469109     37926.35 
  403000    292.86146   -1481.1007    509.28566    348.98008    46.796021     37926.35 
  403100    291.16596   -1506.4878    463.05406    269.71476    65.859975     37926.35 
  403200    299.75181   -1520.2898    493.30087    324.88146   -305.96922     37926.35 
  403300    299.67525   -1504.8766    481.90092    328.54939   -690.01324     37926.35 
  403400    293.69528   -1542.2399    483.33499    265.65071   -249.11117     37926.35 
  403500     295.0665   -1479.7004    502.09071    353.13003   -241.30124     37926.35 
  403600    296.49987   -1511.9683    499.30389    324.53978   -177.17666     37926.35 
  403700    306.56531    -1530.849    475.30171    327.05171     267.8654     37926.35 
  403800    294.52176    -1479.731    503.97789    352.52991    712.41902     37926.35 
  403900    305.53425   -1488.7785    472.91078    362.08127    769.21159     37926.35 
  404000    314.17167   -1543.6852    502.33223    375.55045    424.50145     37926.35 
  404100    295.08003   -1514.8711    467.77343    283.70313    169.33492     37926.35 
  404200    299.50266   -1510.7913    504.25698    344.21232     433.0896     37926.35 
  404300    309.09251   -1547.0347    468.57703    315.53897    107.21796     37926.35 
  404400    296.81539   -1512.2413    481.00185    307.38769    576.01559     37926.35 
  404500    292.46176   -1528.2462     472.2868    263.03313      409.169     37926.35 
  404600    304.57942   -1533.2628    485.84011       326.22   -260.55215     37926.35 
  404700    303.92033   -1516.1747    501.25212    355.74767    254.59105     37926.35 
  404800    300.91694   -1515.6718    485.78402    327.23731   -93.471229     37926.35 
  404900    292.37409   -1518.1128    495.15704    295.64132   -20.397188     37926.35 
  405000    296.64384   -1516.2771     460.2574    281.83384   -422.37059     37926.35 
  405100    305.54646   -1473.6734    489.49184    393.82242   -609.32806     37926.35 
  405200    305.99213   -1477.5358    484.04561    386.52384   -154.60636     37926.35 
  405300    303.08476   -1507.8452    514.41079    373.46747   -240.55419     37926.35 
  405400    296.63198   -1523.5674    474.98669    289.21931   -453.61512     37926.35 
  405500    307.13474   -1487.0971    460.83865    358.90868    39.524989     37926.35 
  405600    288.54505   -1494.9692    478.77748    285.13655   -446.44285     37926.35 
  405700    295.63323   -1464.7684    474.51641    343.04368    241.71107     37926.35 
  405800    308.80204   -1482.3583    524.27003    434.59834    497.88174     37926.35 
  405900    297.55104    -1520.803    481.06629     302.2083    631.85498     37926.35 
  406000    289.75486    -1534.121    471.81186    244.47534    712.56665     37926.35 
  406100    304.33664   -1525.2988     486.9788     334.2278    527.69039     37926.35 
  406200    316.90045   -1528.3393    502.51337    403.38423    663.71849     37926.35 
  406300    308.55337    -1522.339    478.45115    347.67719    535.28566     37926.35 
  406400    289.91088   -1491.2382    505.64161     321.8915    1179.9022     37926.35 
  406500    290.50169   -1493.9737    504.69074    320.86971    848.10928     37926.35 
  406600    296.46579   -1478.1055    501.99998    360.94498    799.46054     37926.35 
  406700    302.72115   -1493.2173    490.90748    362.95219    523.15511     37926.35 
  406800    306.63053   -1522.2242    483.44381    344.11278   -578.72202     37926.35 
  406900    291.89122   -1472.3555    524.35523    368.41915   -89.454595     37926.35 
  407000    279.73426   -1465.4853     502.6666    298.77317   -506.66728     37926.35 
  407100    293.81763   -1460.0131    511.05481    376.14907   -636.12188     37926.35 
  407200     298.5751   -1490.2671    475.59805     331.8944    248.07435     37926.35 
  407300    298.50311   -1490.5673    512.68416    368.35559    868.78978     37926.35 
  407400    303.02207   -1528.1159    496.25867     334.7619    763.17934     37926.35 
  407500    310.00435   -1516.7267    484.91152    366.29378    905.38433     37926.35 
  407600    295.00507   -1521.5212    507.98527    316.92682    687.68919     37926.35 
  407700    298.94566   -1495.7152    504.81779    357.33725    559.62201     37926.35 
  407800    307.67254   -1526.0638    455.32574     316.8545    1220.4154     37926.35 
  407900    314.52777   -1525.2872    484.07526    377.29751    252.11179     37926.35 
  408000     285.2738   -1543.6241    470.66226    213.61322    125.67359     37926.35 
  408100    301.39425   -1529.7252    451.92187    281.47442    698.24073     37926.35 
  408200    300.20591   -1546.5755    491.85542    299.19827    604.43619     37926.35 
  408300    296.19608   -1518.5982     524.3862    341.62215    247.98309     37926.35 
  408400    297.23791   -1530.0583    485.46307    295.93748   -435.36503     37926.35 
  408500    305.67074   -1527.1363    491.60358    343.03178   -201.26939     37926.35 
  408600    296.33021   -1466.4516    473.44842    343.43592    284.23549     37926.35 
  408700    311.01394   -1472.6056    471.70667    401.76321    720.70576     37926.35 
  408800    295.87553   -1518.7748    497.34334    312.95701    182.22957     37926.35 
  408900    295.79498   -1504.0127    484.85744    314.86989    514.10075     37926.35 
  409000    309.60531   -1507.6114    479.98932    368.68724    416.70023     37926.35 
  409100    316.82169   -1536.3257    485.48875    378.01798    27.630385     37926.35 
  409200    294.88023   -1512.0723    481.92189    299.74928    107.61314     37926.35 
  409300     308.2334   -1510.5764    472.42798     351.9736    662.23519     37926.35 
  409400    299.04352   -1521.8697    521.21898    348.02525    818.45146     37926.35 
  409500    297.56474   -1534.6221    495.49489    302.87956    293.63073     37926.35 
  409600    298.46888   -1505.5807    478.03473    318.53843    196.13878     37926.35 
  409700     305.0844   -1549.5466    474.96675    301.34024    513.29385     37926.35 
  409800     296.9301   -1517.0249     479.1352    301.25484    577.72722     37926.35 
  409900    292.68531   -1495.5906    518.49934    342.90948    747.35706     37926.35 
  410000    299.19477   -1521.0922    494.00478     322.2707    321.31942     37926.35 
  410100    307.40956   -1546.3132    504.18472    344.27802    537.32037     37926.35 
  410200    290.08363   -1523.8593    498.05804    282.46589    410.66475     37926.35 
  410300    294.26422   -1516.2755    494.67556    305.52163    565.42837     37926.35 
  410400    283.80375   -1552.1473     495.7343    223.53215    664.95846     37926.35 
  410500     308.9224   -1483.9998    492.77223    402.00183    894.78409     37926.35 
  410600      295.866    -1522.599    506.04677    317.79326    394.62941     37926.35 
  410700     312.6569   -1530.6108     470.8292    350.29029    223.58399     37926.35 
  410800     314.8353   -1494.9451    478.29455     403.2458   -215.79359     37926.35 
  410900    294.01168   -1479.2861    524.40175    371.09824   -163.74995     37926.35 
  411000    309.03485   -1494.8419    509.16533    408.05999    106.50018     37926.35 
  411100    303.60478   -1505.9593    492.26178    355.54961    179.96143     37926.35 
  411200    296.54808   -1485.2155    500.05387    352.25999   -324.85628     37926.35 
  411300     298.3602   -1512.6758    484.22521    317.14368   -166.34066     37926.35 
  411400    308.81292   -1535.0661    481.05791     338.7275   -332.46181     37926.35 
  411500    295.64046   -1549.1676     480.6882    264.84895   -781.49168     37926.35 
  411600    310.42798   -1533.7435    461.90109    328.17712    133.92626     37926.35 
  411700    286.96494   -1492.3248    494.51102    296.38816    324.24679     37926.35 
  411800    302.88586   -1510.2387    492.58302    348.34915   -108.27371     37926.35 
  411900    299.99769   -1518.5146    513.19054    347.65516    -601.9624     37926.35 
  412000    293.01231   -1502.8766    475.32958     293.9284    -1125.488     37926.35 
  412100     307.6577   -1563.6091     479.5154    303.43191    -457.1528     37926.35 
  412200    305.28902   -1554.5691    492.75178    315.02561   -278.17722     37926.35 
  412300    311.59947   -1553.1541    475.74422    327.89301   -275.57723     37926.35 
  412400    310.65621   -1509.3738    525.98095    417.65603   -123.28204     37926.35 
  412500    306.00158   -1545.0855    476.90506    311.87613   -40.113482     37926.35 
  412600    294.87178   -1547.5336    499.78129    282.10925    194.12782     37926.35 
  412700     306.7372   -1526.1662    479.68211    336.89007    46.141068     37926.35 
  412800    297.53543   -1514.0814    475.02481      302.818   -19.348222     37926.35 
  412900    293.61538   -1501.7301    532.12643     354.5916   -120.57532     37926.35 
  413000    306.42246   -1520.4454    490.33011    351.83946    103.44045     37926.35 
  413100    303.78654   -1506.7867    466.59589    329.87601    274.69248     37926.35 
  413200    299.18728    -1514.715    507.53615    342.14547    65.224748     37926.35 
  413300    290.56695   -1467.4755     502.9401    345.91154    223.91478     37926.35 
  413400    307.00037   -1551.1772    496.85904    330.24297   -351.04888     37926.35 
  413500    298.26588   -1501.7358     495.0703    338.50331    -198.9711     37926.35 
  413600    304.95202   -1500.2883    493.59987    368.63467    26.004984     37926.35 
  413700    297.75995   -1441.9312    506.30181    407.25771   -60.603199     37926.35 
  413800    298.46015   -1464.7358    491.76385    373.07308    279.84486     37926.35 
  413900    308.71235   -1479.1102    480.52976    393.70161   -196.45894     37926.35 
  414000    295.95354   -1486.3052    518.68401    367.11909   -379.59801     37926.35 
  414100     295.7574   -1495.4024    480.98673     319.4401    -651.6836     37926.35 
  414200    298.03261   -1430.8092    500.22753    413.53513    -605.1968     37926.35 
  414300    290.17677    -1444.918    500.36426     364.1335   -89.359477     37926.35 
  414400    303.10505   -1464.9434    500.18989    402.23979    664.51817     37926.35 
  414500    302.96627     -1489.89    507.92421    384.40163    188.50272     37926.35 
  414600    313.35327   -1488.2398    503.19419    428.16681    -242.6558     37926.35 
  414700    289.54682   -1473.3646     507.4216    339.90322   -821.69145     37926.35 
  414800    308.67906   -1490.3147    512.16673    413.98402   -1026.6382     37926.35 
  414900    306.43499   -1457.9892    501.55806     425.5801   -1307.8212     37926.35 
  415000    310.75792   -1440.7174    466.40586    427.19597   -806.52994     37926.35 
  415100    298.29041   -1470.1735    497.61529    372.72128   -709.15488     37926.35 
  415200    300.42554   -1489.1959    504.29842    370.01144   -22.343326     37926.35 
  415300     305.0442   -1481.8902    515.24069    409.08932     19.80577     37926.35 
  415400    301.02988   -1481.7094    479.53236    355.45741   -29.898238     37926.35 
  415500    298.83717   -1476.6975     498.5853    369.63315   -136.27086     37926.35 
  415600    303.57911   -1505.8469     479.2337    342.51816   -277.64881     37926.35 
  415700    292.43317   -1492.1476    506.26219    332.97816   -185.21146     37926.35 
  415800    293.88678   -1495.0769    527.19806    357.54041   -562.41431     37926.35 
  415900    306.34424   -1462.6363    496.56774    415.53345   -37.271097     37926.35 
  416000    298.21461   -1481.5386    493.90539    357.30443   -246.73133     37926.35 
  416100    287.61696   -1485.3419    485.79411    297.59476   -330.76521     37926.35 
  416200    293.72146   -1476.9784    519.06425    366.75952   -413.81725     37926.35 
  416300    291.19658   -1481.6967    534.45591     366.0458   -365.70327     37926.35 
  416400    308.51426   -1486.8912    493.98025    398.47777   -242.77279     37926.35 
  416500    299.88368   -1484.9988    494.44258    361.90891    3.0799754     37926.35 
  416600    300.69188   -1486.9094    484.93693    354.13758    -447.2322     37926.35 
  416700    295.08409   -1502.0786    487.04825     315.7888    465.48984     37926.35 
  416800    307.54174   -1540.6968     496.3279    342.63371   -98.387784     37926.35 
  416900     309.5337   -1482.1175    491.30234    405.17115    257.78667     37926.35 
  417000    299.47358   -1496.3772    513.52528    367.76364   -74.360395     37926.35 
  417100      307.751   -1518.2172    478.08667    347.81592    157.25177     37926.35 
  417200    299.61456   -1504.6666    517.68517    364.26993    665.34882     37926.35 
  417300    298.72425   -1569.7045    496.13227    273.66389     179.7795     37926.35 
  417400    304.68014   -1510.5564    506.41503    369.95561    678.13053     37926.35 
  417500    300.37474   -1506.0922    515.22565    363.81321    8.2957337     37926.35 
  417600    290.59083   -1515.7265    491.21585    286.04397     -470.358     37926.35 
  417700    314.43446   -1496.4993    499.86549    421.45477    -371.3227     37926.35 
  417800    294.25737   -1520.4849    462.39564    269.00133   -293.51293     37926.35 
  417900    317.31126   -1521.2317    494.93489      404.766   -485.16817     37926.35 
  418000    300.05659     -1526.17    489.90168    316.97657   -96.525219     37926.35 
  418100    293.09215   -1541.9762    501.35326    281.21259   -361.51248     37926.35 
  418200    299.51376     -1494.39    487.68394    344.09072   -543.34692     37926.35 
  418300    301.49554   -1485.8234    491.04901    364.96012   -238.97806     37926.35 
  418400    300.04873   -1506.5543    521.25823    367.91341     -148.706     37926.35 
  418500     294.8164   -1518.3492    484.44879    295.71139    456.41708     37926.35 
  418600    302.27951    -1538.931    493.46163    317.80082    975.20295     37926.35 
  418700    294.35394    -1520.744    508.83024    315.61237    532.01016     37926.35 
  418800    299.34183   -1478.1232    513.02863    384.92675    218.43001     37926.35 
  418900    313.97528   -1472.8752    501.49726    444.63977    850.95059     37926.35 
  419000    296.46847   -1503.6406    488.30524    321.72723    752.99841     37926.35 
  419100    285.37308   -1497.5005    486.68715     276.2094      266.848     37926.35 
  419200    300.71205   -1500.7507    526.51509    381.96533    143.89554     37926.35 
  419300    293.30726   -1486.9112    459.15166    295.04612   -277.66261     37926.35 
  419400    295.97817   -1484.2367    539.93711    390.55176    99.744079     37926.35 
  419500    311.52938   -1464.0211    488.08637    429.05208    71.331006     37926.35 
  419600    297.11213   -1514.2201    529.70452    355.44992    592.04951     37926.35 
  419700    291.56687   -1489.7487    493.38006    318.58795    199.53371     37926.35 
  419800    292.10478   -1453.6746    482.98336    346.69125   -200.51072     37926.35 
  419900    296.99633   -1464.5969    522.78235    397.62873    114.18994     37926.35 
  420000    307.32856   -1497.4231    497.10421    385.72235   -70.072307     37926.35 
  420100    290.67832   -1538.0959    506.33431    279.18769    70.884449     37926.35 
  420200    294.88918   -1517.1715    493.40025     306.1688    358.91823     37926.35 
  420300    291.25398   -1515.0479    502.12784    300.62539    656.76457     37926.35 
  420400    291.05806   -1514.9409    489.59036    287.31133    251.43919     37926.35 
  420500    307.23015   -1524.1894    503.39957    364.80762   -16.572479     37926.35 
  420600    295.04856   -1531.0801    476.05826    275.63701   -116.29665     37926.35 
  420700    307.94224   -1516.2038    511.48643     384.0915   -8.1994896     37926.35 
  420800    301.49671   -1487.7641    513.47496    385.45067   -218.83489     37926.35 
  420900    296.09123   -1506.9012    480.11195    308.57206   -94.618105     37926.35 
  421000    305.20242   -1475.2077    517.98391    419.22867     270.9762     37926.35 
  421100    296.34347   -1487.9144    510.16449    358.74896    326.16915     37926.35 
  421200    291.01285   -1499.2641     498.7268     311.9206    434.45599     37926.35 
  421300    296.65567   -1491.2433    494.61388    341.27744   -144.15891     37926.35 
  421400    305.68325   -1496.8871    494.14657    375.88041   -100.47011     37926.35 
  421500    294.53972   -1508.2906    488.98109    309.05453    6.4998901     37926.35 
  421600    305.05659   -1511.2392    493.43517    357.99075    211.75897     37926.35 
  421700    299.43404   -1544.4571    488.28096    294.26113    142.24273     37926.35 
  421800    303.85373   -1538.5599    502.87261    334.68259   -41.886411     37926.35 
  421900     293.3727   -1479.9385    490.48772    333.65007    -369.0542     37926.35 
  422000    307.41015   -1486.8729     520.3948    419.93106     146.4621     37926.35 
  422100    294.39354   -1500.3599    508.41567    335.76046    406.23004     37926.35 
  422200     297.9701   -1529.3808    495.50367     309.9578    112.50706     37926.35 
  422300    299.04874   -1500.9393    505.83612    353.59633    147.70911     37926.35 
  422400    296.54103   -1515.5948    471.74607    293.54114    61.759521     37926.35 
  422500    308.32014   -1497.6298    477.48815    370.37157   -112.27607     37926.35 
  422600    304.45182   -1511.5062    472.67843     334.2394     92.48707     37926.35 
  422700    307.20362   -1472.1548    499.55592    412.87887   -173.32532     37926.35 
  422800    301.60618   -1504.3452    494.11311    350.00142    421.67438     37926.35 
  422900    308.71965   -1554.5001    481.78908    319.60401    518.30657     37926.35 
  423000    301.20542   -1490.6435    487.84252     355.6251    502.50244     37926.35 
  423100    305.77842   -1525.2911     490.3191    344.07813    313.51068     37926.35 
  423200    306.38989   -1469.0622    504.68313    417.42879    854.58343     37926.35 
  423300    297.94511   -1464.3702    505.81576    385.16772    306.11501     37926.35 
  423400    290.42013   -1446.6164    483.10292    346.27127   -307.39119     37926.35 
  423500    302.69891   -1468.9257     485.1246    381.36054   -149.47698     37926.35 
  423600    311.49354   -1504.2576    477.70127    378.26881    186.16383     37926.35 
  423700    304.22069   -1489.7682    511.50962     393.7662    326.90273     37926.35 
  423800    304.75326    -1499.316    516.88238    391.99313     25.67364     37926.35 
  423900    286.43475   -1473.9452    482.16739    300.03309   -61.652074     37926.35 
  424000    287.60069   -1497.0876    503.87899    303.86061   -397.84256     37926.35 
  424100      303.959   -1541.3972    503.54741    332.99481   -430.29402     37926.35 
  424200    293.59913   -1512.6371    454.98149    266.46643   -664.04644     37926.35 
  424300    299.85689   -1520.8293     482.9061    314.42108   -269.15329     37926.35 
  424400    297.85072   -1520.8015    488.01974    310.51476   -70.853419     37926.35 
  424500    304.88108   -1521.9453    492.00504    345.06295    248.61701     37926.35 
  424600    295.23508   -1521.1118    486.89602    297.28428   -578.65271     37926.35 
  424700    291.81478   -1515.7637    505.49972    305.81066   -477.20895     37926.35 
  424800    291.71672   -1533.0763    458.83157    241.38761   -483.58197     37926.35 
  424900    306.09637   -1485.1812    492.73669     388.0396    -424.4342     37926.35 
  425000    305.83535     -1486.98    501.81234    394.13922    -410.1341     37926.35 
  425100    305.34575   -1506.6403    503.37587    373.83439   -484.93126     37926.35 
  425200    302.33293   -1518.0881    503.46359     348.8866   -36.405038     37926.35 
  425300    303.15146   -1545.4644    523.78746    345.52573    518.65388     37926.35 
  425400    302.20534   -1522.4739    500.50365    340.96543    546.83409     37926.35 
  425500    298.74735   -1529.9977    476.36844    293.71104    317.05711     37926.35 
  425600    292.59953   -1530.1792    491.49957    280.93421    80.806811     37926.35 
  425700    301.31582    -1470.313    510.94067    399.55171     147.3872     37926.35 
  425800     296.1657   -1500.1748     513.6406    349.16295   -385.05711     37926.35 
  425900    291.74099   -1540.4647    472.71112    247.98827     70.15633     37926.35 
  426000    303.62746    -1525.599    497.03412    340.78451   -491.21279     37926.35 
  426100    290.65514   -1511.6289    506.69319    305.90901   -130.07261     37926.35 
  426200    296.94403   -1480.6197     506.2083    364.79596      -380.79     37926.35 
  426300    310.41078   -1508.9854    482.31225    373.26875   -61.774126     37926.35 
  426400    297.05897   -1465.4572    487.46056    361.72909   -284.34091     37926.35 
  426500    310.18113   -1460.6455    485.07156    423.33226    278.06489     37926.35 
  426600    299.85765   -1442.1189    510.45655    420.68536     487.5649     37926.35 
  426700    300.90469   -1487.2199    506.56279    376.41269    627.84551     37926.35 
  426800    304.14331   -1502.0153    502.44641    372.10699    1137.7742     37926.35 
  426900    292.49257   -1526.6343    482.49015    274.98723     729.4918     37926.35 
  427000    310.46494    -1522.119    480.68061    358.74785    495.98663     37926.35 
  427100    301.75501   -1544.6619    485.49526    301.73812    -187.4801     37926.35 
  427200    304.13569   -1482.4648    481.10814     370.2849   -13.956912     37926.35 
  427300    294.17356   -1497.5778    465.59818    294.73303   -260.04531     37926.35 
  427400    298.95989   -1486.8113      475.858     337.3455    456.50211     37926.35 
  427500     294.0354   -1488.5795    500.49242    338.00251    132.01861     37926.35 
  427600     303.1673   -1465.1969    464.97948    367.05671    372.39111     37926.35 
  427700    304.81476   -1505.1079    469.87329    339.46949    278.99802     37926.35 
  427800     295.5809   -1515.5123    493.69331    311.24075    56.006747     37926.35 
  427900     299.3925   -1521.1733    480.37033    309.44696    233.99639     37926.35 
  428000    297.73219    -1516.744    492.07257    318.09049    254.97823     37926.35 
  428100    292.06944   -1504.3625    502.06979    314.93047    465.35122     37926.35 
  428200    315.88846   -1548.1347    492.12053    368.63198    776.79476     37926.35 
  428300    295.02187    -1528.147    481.83522    284.22672    295.31409     37926.35 
  428400    309.31182   -1527.5297    490.64349    358.09951     507.9237     37926.35 
  428500    309.32997   -1518.4087    485.63378    362.29257    22.723253     37926.35 
  428600    303.99214   -1497.0027    462.23848    336.22984    131.89503     37926.35 
  428700    300.64781   -1505.3516    511.68843    362.24808    87.597048     37926.35 
  428800    299.03979   -1520.7191    502.57681    330.51689   -293.83622     37926.35 
  428900    294.64055   -1495.6282    475.26034    308.45084   -286.55216     37926.35 
  429000    304.63373    -1450.273     496.5102    420.12491   -542.50047     37926.35 
  429100    293.31534   -1475.4523    482.20237    329.59215   -140.27071     37926.35 
  429200    301.25102   -1483.9191    505.38808    380.10066   -190.50442     37926.35 
  429300    292.54396   -1512.6008    489.91863    296.68099   -47.532929     37926.35 
  429400    297.64768   -1495.1597    500.96577    348.18683   -138.76949     37926.35 
  429500    294.88643   -1505.6272    499.92172    324.22219   -109.49498     37926.35 
  429600    298.87304   -1464.1676    492.35316    376.09276   -273.65606     37926.35 
  429700     294.8391   -1458.3508    500.01835    371.38175   -766.73629     37926.35 
  429800    313.69272   -1464.7947    485.48371    435.43238   -653.53322     37926.35 
  429900    300.24182   -1519.7454    485.67211    320.00699   -272.27352     37926.35 
  430000    298.45763     -1486.95    501.63989    360.72357    138.98862     37926.35 
  430100    295.62344   -1497.5459    476.91854    312.62416    457.56974     37926.35 
  430200    295.28171   -1474.6466    512.27622    369.33999    395.30366     37926.35 
  430300    301.60747   -1462.2241    492.85981    390.87502    386.78118     37926.35 
  430400    294.27466    -1479.646    500.11348    347.63608    507.81438     37926.35 
  430500      292.415   -1472.7764    489.62669    335.63189    446.02313     37926.35 
  430600    301.98112   -1503.4221    475.12591    333.62831    246.37646     37926.35 
  430700    302.37047   -1506.3007    479.28712    336.66689   -403.23803     37926.35 
  430800    298.82117   -1463.5281    481.83276    365.97786    91.203422     37926.35 
  430900    298.51453   -1462.3744    483.20064    367.11653   -699.78865     37926.35 
  431000    299.14028   -1470.4388    494.15066    372.82425   -767.27425     37926.35 
  431100    310.28841   -1485.3364    475.14815     389.2018   -585.29885     37926.35 
  431200    289.37625   -1480.3123     479.2241     303.9887   -443.01225     37926.35 
  431300    306.76971   -1459.2757    500.65108    424.89629   -146.88001     37926.35 
  431400    305.53917   -1463.9138    509.91701    423.97439   -231.72978     37926.35 
  431500    297.66922   -1455.6658    492.74944    379.56164   -129.79084     37926.35 
  431600    303.86345   -1495.0018    476.29082     351.7027    70.515653     37926.35 
  431700    297.43893   -1497.1283    497.70495    342.01603    48.044067     37926.35 
  431800    306.20006   -1501.8994    493.23698     372.2893    347.38516     37926.35 
  431900     302.2498   -1486.4461     487.4047    364.09486     305.7178     37926.35 
  432000    295.89086   -1475.2395    506.28899    365.50704    204.47102     37926.35 
  432100    301.95492   -1480.5311    498.08211    379.35731   -53.925957     37926.35 
  432200    302.68725   -1472.1327    499.11519    392.09156    253.91867     37926.35 
  432300    297.46003   -1497.3719    505.34933     349.5119   -115.48872     37926.35 
  432400    296.94555   -1477.2961    503.70279    365.62094    71.054956     37926.35 
  432500    304.18641   -1517.7887    507.36185    361.44341   -136.80801     37926.35 
  432600    301.17817   -1492.5995    504.50636    370.21005   -611.20629     37926.35 
  432700    297.81604   -1515.5454    472.31823    299.91295   -586.47627     37926.35 
  432800    297.18182   -1522.0394    485.43821    303.67856   -322.62553     37926.35 
  432900    301.12447   -1552.6175    491.18949    296.63295   -903.04277     37926.35 
  433000    297.59914   -1536.1181    472.35497    278.39873   -483.94735     37926.35 
  433100    304.59708   -1563.6733    492.64586    302.69491   -87.665143     37926.35 
  433200    294.38887   -1530.6375    496.00864     293.0548    294.88069     37926.35 
  433300    291.91184   -1479.4206    486.63342     323.7252     117.4713     37926.35 
  433400     298.0656   -1519.5336    495.90312    320.63516    668.55907     37926.35 
  433500    300.68224   -1516.5343    502.53412    342.06637    358.60845     37926.35 
  433600     307.2141   -1503.9004     499.1271    380.75171    190.63539     37926.35 
  433700    290.02344   -1515.0936    488.10959    281.01172    17.567603     37926.35 
  433800    299.40603   -1521.3506    497.86939    326.82972   -146.00932     37926.35 
  433900     295.7291   -1490.9305    509.90563    352.70318    183.98446     37926.35 
  434000    304.42159   -1489.1339    488.70322    372.50023   -713.11757     37926.35 
  434100    307.75582   -1492.9401    514.69925    409.72734   -95.720943     37926.35 
  434200    299.58809   -1527.4139    482.68105    306.39916   -316.21096     37926.35 
  434300    306.68755   -1482.7642    504.77926    405.16542    63.808915     37926.35 
  434400    303.03034   -1472.3023    480.84822    375.20232    -470.8442     37926.35 
  434500    297.27247   -1478.4625    511.15667    373.38281    -14.82762     37926.35 
  434600    290.79885   -1477.4344    468.20645    302.26484   -313.98996     37926.35 
  434700     301.9679   -1470.3487    492.22461    383.74074   -299.57882     37926.35 
  434800    303.91121    -1468.608    475.49267    377.51377   -72.638683     37926.35 
  434900    296.80843   -1465.6602    526.32563    399.26126    -53.44044     37926.35 
  435000    291.32018   -1448.7388    488.70548    353.81063   -103.06348     37926.35 
  435100    302.37559   -1479.4634    482.60542    366.84552    6.0344942     37926.35 
  435200    299.91713   -1492.5262    506.79405    366.88383    216.02221     37926.35 
  435300     297.5568   -1467.5068    500.07436    374.53855    185.84927     37926.35 
  435400    294.45517   -1490.1206    498.54642    336.40852    325.25578     37926.35 
  435500    292.79897    -1502.001    495.21412    313.72637   -408.11564     37926.35 
  435600     310.6975   -1493.1178    482.05196     390.1692   -439.90383     37926.35 
  435700    307.83411   -1480.6961    470.60834    378.23345   -449.01175     37926.35 
  435800    306.79858   -1489.5514    490.51187    384.61153   -221.46595     37926.35 
  435900    289.95257   -1495.1451    473.74773     286.2787   -432.57659     37926.35 
  436000    311.48808   -1470.9559    446.33798    380.18264    259.25177     37926.35 
  436100    295.42244   -1501.2748    483.76049    314.83078    12.015966     37926.35 
  436200    295.02547   -1481.2114    491.56244    340.90578   -196.69547     37926.35 
  436300    301.03323   -1481.5226    506.34199    382.46891    173.44568     37926.35 
  436400    298.65674   -1468.9139    477.29038    355.30815   -171.40615     37926.35 
  436500    300.14394   -1515.3437    506.76968    345.06488    15.002636     37926.35 
  436600    301.98303   -1490.8394     469.6473    340.74104    405.04607     37926.35 
  436700    301.23843   -1475.9456    514.93998    397.56937    72.291357     37926.35 
  436800    305.99081   -1501.5227    487.83389    366.31924    -16.07582     37926.35 
  436900    305.16426   -1484.7724    486.42078    377.92872     595.2604     37926.35 
  437000    297.79919   -1483.4649    496.15158    355.75078    45.801219     37926.35 
  437100    294.12251    -1487.276    506.36708    345.57352    376.27372     37926.35 
  437200    301.96827   -1476.9496    472.72146    357.63835    210.79873     37926.35 
  437300    294.20986   -1509.4709    518.08139    335.48684    235.37726     37926.35 
  437400    306.60578   -1478.8426    513.49839     417.4373   -376.19636     37926.35 
  437500    293.36601   -1477.9242     495.2439    340.39032   -910.17256     37926.35 
  437600    297.55459   -1471.9022    469.55172    339.61048    -886.2086     37926.35 
  437700    297.65754   -1474.5605     501.3409    369.20568   -664.13747     37926.35 
  437800    301.49454   -1446.9833    516.52326       429.27   -925.49146     37926.35 
  437900    304.40702   -1470.7495    481.00327    383.11901   -518.66926     37926.35 
  438000    310.94197    -1468.942    497.63017    431.02572    -398.2705     37926.35 
  438100    298.52371    -1452.724    503.41089     397.0186   -277.61632     37926.35 
  438200     309.0089   -1463.5597    510.76065    440.82047     863.2472     37926.35 
  438300    296.38718   -1494.7636    495.84265    337.77507    888.55313     37926.35 
  438400    309.71935   -1466.6629    494.98148     425.1422    1081.6738     37926.35 
  438500    297.90855   -1472.8064    515.38405    386.13493    531.91828     37926.35 
  438600    300.80005   -1478.7763    486.92389    364.74545    403.77235     37926.35 
  438700    289.37719    -1540.967     492.3887    256.50285    238.36443     37926.35 
  438800    304.43991   -1545.8118    502.18785    329.38957    62.564531     37926.35 
  438900    295.70728   -1491.6453    475.85128    317.83565    304.67947     37926.35 
  439000    294.87757   -1492.4268     474.7766     312.2375    99.608211     37926.35 
  439100    306.09814   -1484.4253       480.43    376.49675    435.43459     37926.35 
  439200    300.02934   -1460.7115    501.08576    393.49625    35.982679     37926.35 
  439300    305.32455   -1468.3663     490.0352    398.67205     108.7583     37926.35 
  439400    296.95247   -1473.2821    481.44306    347.40636    225.16286     37926.35 
  439500    298.15185   -1483.6483    480.55741     341.5637   -517.36903     37926.35 
  439600    297.38702   -1535.6663    486.03086    291.56979      39.6416     37926.35 
  439700     307.3177   -1537.0662    481.56781    330.49386     334.9447     37926.35 
  439800    295.84926   -1551.8888    455.59899     237.9802   -631.19874     37926.35 
  439900      301.644   -1557.8941    473.00645    275.51643   -113.54469     37926.35 
  440000    293.39739   -1517.0988    472.73142    278.84478     41.04134     37926.35 
  440100    302.50431   -1552.7936    489.47071    300.96114    344.23776     37926.35 
  440200    300.15924    -1527.352    511.95583    338.31168    602.32462     37926.35 
  440300    293.25566   -1516.0041    476.12342    282.69224    401.71258     37926.35 
  440400     307.8222   -1523.1005     488.6853    353.85235    499.92077     37926.35 
  440500    294.03767   -1502.4843    493.29987    316.91537     647.8918     37926.35 
  440600    301.18383   -1514.8126    499.11639    342.63254    548.68934     37926.35 
  440700    300.31807   -1497.0448    474.10294    331.48234    392.88418     37926.35 
  440800    295.88906   -1515.7271    487.38725    306.10963    811.45137     37926.35 
  440900    291.93979   -1536.5895    511.00332     291.0522   -143.97535     37926.35 
  441000    305.74232   -1504.8597    457.45173    331.47937    277.42054     37926.35 
  441100    300.77418   -1475.6391    509.38523    390.22732    271.29052     37926.35 
  441200    298.16318     -1494.09    495.86246    346.47815   -213.15933     37926.35 
  441300    295.92174   -1500.4795    488.08261    322.19996    368.66905     37926.35 
  441400    302.10841   -1505.4454    475.56027    332.61338    334.09512     37926.35 
  441500    306.36383   -1523.0458    501.90767    360.55218   -116.86479     37926.35 
  441600    310.10209   -1524.5643     463.1394    337.12486    166.03357     37926.35 
  441700     296.5135   -1499.4699    483.28335    321.07919   -108.56466     37926.35 
  441800     306.2616    -1567.429    482.23122     296.0315   -357.98482     37926.35 
  441900    297.54214   -1511.8741    463.37704    293.40774   -331.13408     37926.35 
  442000    304.81157   -1494.3077    465.81912    346.20109   -476.41473     37926.35 
  442100    300.09328   -1512.7257    505.49987    346.18456   -102.54749     37926.35 
  442200    303.51638    -1489.989    502.52451    381.38399    275.28034     37926.35 
  442300    297.45876   -1491.3224    504.20805    354.41444   -108.83577     37926.35 
  442400    301.22345   -1497.0472    524.05225    385.51244    224.93799     37926.35 
  442500    299.83464   -1514.8732    474.27716    311.64791   -241.90616     37926.35 
  442600    296.79657   -1508.4492    514.81599    344.90913   -386.67135     37926.35 
  442700    306.15686   -1502.3441    475.96628    354.37906   -254.66865     37926.35 
  442800    295.94707   -1495.7344    480.95798    319.93473   -81.248072     37926.35 
  442900    301.85367   -1520.7012    471.63792     312.2864    15.524242     37926.35 
  443000    302.09601   -1495.5819    508.55927    375.42003    241.79991     37926.35 
  443100    300.85471   -1461.8914    512.83651    407.78946    226.44262     37926.35 
  443200    306.54553   -1487.9556    504.73228    399.28646    580.74783     37926.35 
  443300    297.46433   -1461.1253    509.92713    390.35572    659.71641     37926.35 
  443400     304.4237   -1485.1551    483.82088    371.60622    112.18807     37926.35 
  443500    295.30256   -1465.6817    506.10569     372.2284   -505.27091     37926.35 
  443600    292.10173   -1448.5403    499.15061    367.97905   -133.47829     37926.35 
  443700    302.91337   -1478.8495    489.78584    377.06523    -189.4152     37926.35 
  443800    293.99929   -1527.6091    462.51523    260.83289   -315.36099     37926.35 
  443900    301.52853   -1491.3889    501.72868    370.22302   -385.21685     37926.35 
  444000    300.79946   -1470.3755    512.05735    398.27709   -210.83611     37926.35 
  444100    307.59189   -1475.5628    498.63431    410.30039    14.078354     37926.35 
  444200    300.34487   -1475.8144    496.82415     375.5548    32.649373     37926.35 
  444300    309.67235   -1428.2852    502.09346    470.41989    817.22583     37926.35 
  444400      294.211   -1401.2217    513.47001     439.1298    281.26851     37926.35 
  444500    299.56723   -1457.8297    491.88857    385.09675    328.15827     37926.35 
  444600    304.81138    -1439.231    494.37099    429.82886    -260.5117     37926.35 
  444700      295.099   -1390.3916    506.23795    446.73269    66.984548     37926.35 
  444800    294.21673    -1428.141    506.26953    405.03587    170.70765     37926.35 
  444900    302.65466   -1436.8919    530.40743    458.47765    -137.6826     37926.35 
  445000    295.56691   -1425.8711    528.21524    435.34072   -64.019213     37926.35 
  445100    294.20884   -1441.7434    506.56772    391.69614   -307.62349     37926.35 
  445200    297.52932   -1465.4125    481.88403    358.31853   -676.65559     37926.35 
  445300    300.94112    -1428.602    532.85644    461.48849   -671.70996     37926.35 
  445400    302.66555   -1447.7361    480.98324    398.25834   -164.17272     37926.35 
  445500    298.27482   -1442.0301    522.76912    425.94814    34.688089     37926.35 
  445600    302.90234   -1438.7303    484.16412    411.51301   -67.923538     37926.35 
  445700    293.34922   -1435.1522    501.71105    389.55373   -6.1223676     37926.35 
  445800    294.40245   -1442.5845    521.83099    406.99138   -17.845814     37926.35 
  445900     295.5882   -1434.4336    515.42704     414.0861    -418.2209     37926.35 
  446000    307.80268   -1432.1444    523.12975    479.16481    -124.7955     37926.35 
  446100    298.29586   -1442.4557    495.79869    398.64705    285.28482     37926.35 
  446200    305.02695   -1424.3624    506.01976    457.31842   -61.692567     37926.35 
  446300    287.02027   -1444.9741    489.35282    338.83025   -48.550418     37926.35 
  446400    302.08063   -1420.9675    496.83245    438.23824     83.17229     37926.35 
  446500     293.4937     -1454.02    494.62072    364.24726   -2.9284769     37926.35 
  446600    301.93052   -1445.0824    517.16419    433.77806    222.77704     37926.35 
  446700    291.55813   -1465.4993    523.91228    373.33013    442.21803     37926.35 
  446800    298.05512   -1474.3846    497.72175    367.55552    185.21173     37926.35 
  446900    294.36116   -1466.9789    499.68234    360.26212    437.53997     37926.35 
  447000    295.75724   -1450.5775    484.32393    367.60139    339.93447     37926.35 
  447100    302.20198   -1467.6629    539.30844    434.56605    350.32292     37926.35 
  447200     286.3994   -1484.3462    507.53685    314.84211    566.70567     37926.35 
  447300    288.42976    -1498.321    498.13923     300.6265    302.69586     37926.35 
  447400    297.21493   -1489.1962    487.20438    338.43728    124.67835     37926.35 
  447500    305.24337   -1461.3163    502.63794     417.9587   -15.095818     37926.35 
  447600    295.77098   -1485.2057    495.45346    344.16472   -169.62634     37926.35 
  447700    300.02865   -1482.0376    497.37975    368.46102   -385.21453     37926.35 
  447800    294.97077    -1526.076    495.62066    299.85267   -221.74367     37926.35 
  447900    298.57211   -1505.1983    482.07336    323.42504   -422.90167     37926.35 
  448000    312.09743   -1478.2819    503.28164    432.54838   -87.567359     37926.35 
  448100     305.2151   -1478.2071    525.03736    423.33984   -464.92143     37926.35 
  448200    300.09487   -1435.6921     524.4093    442.13469   -536.84486     37926.35 
  448300    299.05067   -1432.6555    491.98541    408.03812    -324.4075     37926.35 
  448400    295.61831   -1486.5424    475.18967    321.87569   -281.32888     37926.35 
  448500     298.4792   -1465.5791    492.95604    373.50783    297.57642     37926.35 
  448600    301.76481   -1475.0105      493.251    379.18944    49.597466     37926.35 
  448700    295.70109   -1505.8328    502.74648    330.51546     311.3853     37926.35 
  448800    298.25259   -1530.0052    499.31117    314.41487    187.56508     37926.35 
  448900    291.80292    -1494.398    496.80894    318.43203   -305.25757     37926.35 
  449000    295.36937   -1461.7975     496.1243    366.43255   -674.17756     37926.35 
  449100    299.51147   -1512.8007    486.56324    324.54902   -738.30289     37926.35 
  449200    311.88348   -1510.3341    501.67224    397.92192    243.14277     37926.35 
  449300    295.03019    -1549.659    480.18243    261.09945    233.07889     37926.35 
  449400    298.86352   -1534.4269    501.66936    315.10665    123.23757     37926.35 
  449500     300.3137   -1484.7312    492.44895    362.12219    389.19229     37926.35 
  449600    296.51279   -1502.7942    501.57566    336.04393    30.169685     37926.35 
  449700    304.39841   -1520.1535    462.64044     315.3133    197.39152     37926.35 
  449800    302.04612   -1521.5566    500.43379    341.09482    256.51805     37926.35 
  449900    306.53734   -1492.3666    496.92835    387.03458    633.83586     37926.35 
  450000    300.19548   -1490.4749    479.23389    342.63029    38.237097     37926.35 
  450100    308.37967   -1551.2463    511.13552    350.67097    318.39792     37926.35 
  450200    291.25757   -1516.8794    479.60913    276.29136    920.16055     37926.35 
  450300    302.20597    -1529.793     478.1664    311.31193    711.52812     37926.35 
  450400    289.92552   -1535.5047    500.26987    272.31928    770.03648     37926.35 
  450500    301.45577   -1535.8617    499.07806    322.77149    528.13032     37926.35 
  450600    308.51865   -1584.6186    474.10487    280.89475    168.60642     37926.35 
  450700    293.49893   -1592.3871    487.71236    218.99532    60.414085     37926.35 
  450800    299.88347   -1565.4705    489.07499    276.06859    124.95431     37926.35 
  450900    303.35442   -1589.8129    489.72291      268.028    132.12086     37926.35 
  451000    303.22656   -1531.2314    475.34956    311.65951   -445.00282     37926.35 
  451100    300.89509   -1584.9307    487.65223    259.74807   -548.43581     37926.35 
  451200    292.91387   -1603.8787    485.08399    202.23681   -334.56932     37926.35 
  451300    307.43679   -1591.8292    470.27787    264.97802    173.02007     37926.35 
  451400    298.46762   -1619.3718    481.07673    207.78364     -344.101     37926.35 
  451500    298.54107   -1581.4692    486.54228    251.48302   -134.68851     37926.35 
  451600    293.74264   -1586.6362    458.98053    197.11349    305.82962     37926.35 
  451700    303.79137    -1616.694    479.99791    233.39248    57.347794     37926.35 
  451800    308.82673   -1607.7475    481.49872     266.5492    426.98577     37926.35 
  451900    291.55293   -1607.2673    491.56509    199.19142    887.83769     37926.35 
  452000     304.5528   -1561.9978    513.89463    325.41943    1012.0657     37926.35 
  452100    301.50501   -1534.6001     477.3895    302.56664    106.76573     37926.35 
  452200    289.37502   -1545.1131    464.15679     224.1151    -70.70721     37926.35 
  452300    307.48642   -1517.6355     492.5723    361.68993    54.562197     37926.35 
  452400    292.03843   -1498.9819    509.50494    327.60628    103.14148     37926.35 
  452500    291.80734   -1513.0685    499.62076     302.5933   -478.02326     37926.35 
  452600    283.00769   -1494.0917    491.79311    274.05638   -495.23858     37926.35 
  452700    307.87325   -1493.0049    497.05319    392.54609   -324.81658     37926.35 
  452800    299.79025   -1540.8068    506.50653    317.74341   -8.3821888     37926.35 
  452900    295.06174   -1567.6726    489.73077    252.77644    409.45903     37926.35 
  453000    309.84735   -1544.5755    473.99413    326.81949    338.48278     37926.35 
  453100    289.97301   -1554.1016    524.84886    278.51552    60.316068     37926.35 
  453200    305.44991   -1495.8929    492.52359    374.19924    45.131217     37926.35 
  453300    299.18567   -1485.2785    486.83179    350.87036    99.275178     37926.35 
  453400    293.60052   -1515.9996    493.30053    301.42918   -148.25311     37926.35 
  453500    296.12875   -1494.7089    496.16169    336.98329   -223.94641     37926.35 
  453600    295.55515   -1482.6485    504.40119     354.6963    250.13152     37926.35 
  453700     305.9945   -1508.9407    483.07346    354.15747    256.74338     37926.35 
  453800    307.79551   -1514.6678    486.48513    359.96442    48.991292     37926.35 
  453900    303.92756   -1493.5778    510.71848    387.84353   -19.798961     37926.35 
  454000    305.69905   -1490.6727    520.44921    408.46877   -19.985916     37926.35 
  454100    302.79362   -1484.4971    549.10605    430.19772   -412.71477     37926.35 
  454200     294.4935   -1478.2448    482.69021    332.60095    -329.7686     37926.35 
  454300    293.53324   -1441.8452    494.99175    376.97141   -396.51057     37926.35 
  454400    306.70062   -1530.7088    514.33355    366.83401   -559.79246     37926.35 
  454500    302.72759   -1565.0253    502.86605    303.13172   -92.592165     37926.35 
  454600    295.30181   -1562.3077    480.01001    249.50333    506.20975     37926.35 
  454700    293.32783   -1585.9152    505.13207    242.11534     547.4423     37926.35 
  454800    299.63993   -1606.1288    504.31136    249.54833    829.64573     37926.35 
  454900    301.09878   -1573.1373    507.49327    292.30106    380.06604     37926.35 
  455000    294.12337   -1545.4291    498.70209    279.75932    691.71496     37926.35 
  455100    295.18814   -1554.5651    502.56167    279.28494    396.42347     37926.35 
  455200    290.36122   -1586.7256    502.49894    225.29243    481.48717     37926.35 
  455300    301.62064   -1629.8996    494.01725    224.41642    892.98279     37926.35 
  455400    292.80796   -1608.2262    509.11773    221.44533    602.25107     37926.35 
  455500    295.70882   -1552.6627    506.19518    287.16904    596.74991     37926.35 
  455600    292.29911   -1545.0488    480.44969    253.65977    157.44638     37926.35 
  455700    298.50123   -1540.1181    487.79474    293.90688   -408.48662     37926.35 
  455800    295.02167   -1548.8343     477.9274     259.6307   -459.31441     37926.35 
  455900    299.05721   -1509.8232    515.11931    354.03387   -667.15981     37926.35 
  456000    294.56224   -1497.8088    509.51279     340.1695   -526.36151     37926.35 
  456100    305.65938    -1506.056    489.94588    362.40314   -500.65852     37926.35 
  456200      299.782   -1538.2678    518.93956    332.67827   -36.994096     37926.35 
  456300    299.69934   -1530.5259    493.13173    314.23953    538.38778     37926.35 
  456400     299.8559   -1525.3539    489.15572    316.14159    695.49087     37926.35 
  456500    306.55286   -1503.3382    508.72495    387.92961    322.33758     37926.35 
  456600     297.1718   -1522.6676    507.06575    324.63278    560.05225     37926.35 
  456700     291.2656   -1544.5031    493.74014    262.83482    75.256378     37926.35 
  456800    307.15679   -1496.0599    481.94988    371.15657   -158.39607     37926.35 
  456900    295.72286   -1559.4754    490.64039    264.86488   -1007.6214     37926.35 
  457000    299.49141   -1523.4908    484.08303    311.28818   -802.71502     37926.35 
  457100     299.2475   -1618.9981    502.18082    232.77869   -320.03425     37926.35 
  457200     300.1193   -1549.5244    512.74001    316.74328    20.942864     37926.35 
  457300    300.10801    -1521.679    497.91039    329.70821   -163.26466     37926.35 
  457400    306.12964   -1531.1982    496.36071    345.79669     -405.458     37926.35 
  457500    305.70615   -1519.1957    518.91543    378.44399    358.24261     37926.35 
  457600     304.6022   -1520.6742     508.0403    361.11152    696.41226     37926.35 
  457700    298.95315   -1532.3279    499.13681    315.07729    231.73799     37926.35 
  457800    298.79041   -1511.9278    478.26636    313.87303   -309.96327     37926.35 
  457900    286.06451   -1516.8752    502.20735    275.47324   -47.097351     37926.35 
  458000    305.63967   -1555.2165    497.22005    320.42797    23.754989     37926.35 
  458100    296.58857   -1552.8998    473.79197    258.49641   -218.07486     37926.35 
  458200    304.26113   -1529.3418    537.47252    380.33798    184.83078     37926.35 
  458300    294.79377   -1476.5491    515.74869    368.70929   -72.994566     37926.35 
  458400    304.71746   -1512.5951    491.95538    353.62555   -148.58232     37926.35 
  458500    293.63591   -1529.1938    497.65132    292.74539    91.037646     37926.35 
  458600    290.72675   -1568.8222    516.50893    258.85441    684.97873     37926.35 
  458700    298.95756   -1595.4629    471.49672    224.32218    679.21539     37926.35 
  458800     309.3502   -1573.0262    509.10285    331.23538    300.93255     37926.35 
  458900    299.72037   -1589.9388    476.04151    237.83127    559.22018     37926.35 
  459000    300.07346   -1550.2929    476.58748    279.61558    414.89749     37926.35 
  459100    305.57898   -1541.8458    496.97513    333.28004    606.47991     37926.35 
  459200    294.87861   -1567.7496    485.18373    247.32654    196.94032     37926.35 
  459300    295.99905   -1559.2584    515.03279    290.71993    52.773038     37926.35 
  459400    303.76023   -1563.2914    509.19915    315.85597    106.83939     37926.35 
  459500    296.16066   -1576.3192    481.30703    240.66218    163.20985     37926.35 
  459600    297.65117   -1559.1233     484.9762    268.24949   -140.81119     37926.35 
  459700     300.5303   -1607.4904    468.46625    216.35717   -85.283112     37926.35 
  459800     293.8182   -1579.0105     483.2092    229.30866    223.35531     37926.35 
  459900    307.85468   -1591.8559    517.84808    314.40617    98.144403     37926.35 
  460000    295.52242   -1576.8991    472.52637    228.42321   -251.27022     37926.35 
  460100    304.29695   -1541.6384    496.25587    326.98624    99.369246     37926.35 
  460200    306.15093   -1583.8748    481.73322    278.58856    36.440704     37926.35 
  460300    293.64291   -1557.9771    507.55039    273.89274    84.762979     37926.35 
  460400    289.75927   -1565.8544    486.72363    227.67355    145.81712     37926.35 
  460500    300.19279   -1579.8377    475.66749    249.68891    1.3692146     37926.35 
  460600    314.25112   -1564.3564    482.87485    335.78017    392.99089     37926.35 
  460700     303.0397   -1554.2507    500.36005    312.80804    1001.6258     37926.35 
  460800    293.32044   -1582.0036    496.01455    236.87607    611.31318     37926.35 
  460900    298.98652   -1561.5931     494.2929    281.11878    409.35424     37926.35 
  461000    313.41405   -1572.4488    505.25361    346.29134   -251.97634     37926.35 
  461100    297.16106   -1581.9706    443.83782    202.05341   -473.32408     37926.35 
  461200     309.7746   -1564.9613    497.69112    329.80264   -417.39762     37926.35 
  461300    307.09544   -1578.1267    495.11965    301.98282    113.27727     37926.35 
  461400    293.39411   -1587.6851    480.69608    216.20834    854.78334     37926.35 
  461500    298.23057   -1561.6857    492.15123    275.47516    385.63258     37926.35 
  461600    298.09212   -1530.4477    492.77419    306.71167    180.10069     37926.35 
  461700    294.61443   -1575.2505    474.11122    227.56166   -1.6458135     37926.35 
  461800    294.81672   -1534.6063    501.68815    296.69513   -124.02915     37926.35 
  461900    295.06124   -1554.1673    499.07071    275.61942    35.386249     37926.35 
  462000     296.1241   -1575.3674    475.52611     235.6682    117.77872     37926.35 
  462100    301.34506   -1616.6314    479.77311    222.19755    270.00804     37926.35 
  462200    296.33656   -1541.4494    500.86161    295.87996   -212.88065     37926.35 
  462300    301.66364   -1545.0718    480.68619    296.10701   -68.358221     37926.35 
  462400    299.89691   -1522.5397    497.37687    327.36191   -127.15738     37926.35 
  462500    285.93576   -1498.3894    502.88068    294.05171   -76.834436     37926.35 
  462600    297.13756   -1477.5586     493.6592    356.18082   -199.22278     37926.35 
  462700    308.26766   -1483.4491    513.28209    420.10954   -185.94809     37926.35 
  462800    302.57839   -1549.4352    491.71707    306.90003   -493.95248     37926.35 
  462900    296.54725   -1503.3581    499.16382    333.22364   -377.47471     37926.35 
  463000     308.3274   -1427.9412    475.67318    438.27793    36.268459     37926.35 
  463100    302.03133   -1497.9414    503.05657    367.26611   -523.42504     37926.35 
  463200    294.16761   -1480.4726    469.61772    315.83098   -598.75302     37926.35 
  463300    301.51541    -1492.911    494.33367    361.24681   -1241.8996     37926.35 
  463400    303.83815   -1469.1042    502.65557    403.85097   -928.73437     37926.35 
  463500    297.56497   -1474.4427    498.50168    366.06681    -639.3461     37926.35 
  463600    307.52969   -1476.4701    518.85444    429.33271     81.33245     37926.35 
  463700    290.77092   -1482.4876    521.98806    350.86732   -211.70136     37926.35 
  463800    305.57657   -1526.8816    490.74074    341.99896     343.4855     37926.35 
  463900    297.52675   -1523.4351    503.90193    322.30221    135.19484     37926.35 
  464000    295.39354   -1529.5733    517.34103    319.98241    276.29149     37926.35 
  464100    307.49513   -1523.7407    504.15471     367.2065    441.09049     37926.35 
  464200    298.04268   -1515.9941    487.76578    315.93394    320.18055     37926.35 
  464300    301.03722   -1470.1603     503.2548    390.76201    230.82764     37926.35 
  464400    299.11691   -1484.1743    496.88447    361.71712     764.8999     37926.35 
  464500    297.38338   -1494.5494    492.24516    338.88461    230.86818     37926.35 
  464600    296.96349   -1486.1822    533.70803    386.82097    703.64845     37926.35 
  464700    309.71147   -1501.7423    514.50043    409.54618    319.82243     37926.35 
  464800    299.12867   -1533.5824    499.12548    314.60312   -6.4167628     37926.35 
  464900    295.57808   -1512.0602    474.42168    295.40849   -301.85031     37926.35 
  465000    301.63768   -1525.1185    501.98202    337.23904   -313.00281     37926.35 
  465100    297.52493   -1508.8234    488.98227    321.98605   -551.71988     37926.35 
  465200    299.58815   -1519.4584    507.07213      338.746   -438.74231     37926.35 
  465300    305.75647   -1470.5545    510.97649    419.37313   -498.51832     37926.35 
  465400    298.21367   -1483.8279    499.58112    360.68661   -408.14986     37926.35 
  465500     294.8266   -1443.3824    533.01547    419.29087   -277.53313     37926.35 
  465600    303.10491   -1480.6851    504.91436    391.22197   -9.2857122     37926.35 
  465700    293.11898   -1465.8445    504.83586    360.94787    330.28329     37926.35 
  465800    298.50988   -1487.0028    505.90696     365.1735     858.0261     37926.35 
  465900    297.12432   -1488.0032    492.74799    344.76522    94.873674     37926.35 
  466000    305.05328   -1475.1298     492.2876    392.93767    108.86929     37926.35 
  466100    294.49109   -1465.7459    489.31393    351.71273   -167.36924     37926.35 
  466200    301.45553    -1481.911    499.03914    376.68224   -444.87955     37926.35 
  466300    299.57544   -1468.9015    491.36265    373.53609   -384.31155     37926.35 
  466400    285.99575   -1462.8528    484.65312    311.63137   -720.76573     37926.35 
  466500    296.42321   -1511.7332    488.66367    313.78894   -882.68875     37926.35 
  466600    298.26151   -1509.0082    472.29549    308.43643   -913.43948     37926.35 
  466700    295.35091   -1468.6138     496.5129    359.92155   -544.43079     37926.35 
  466800    299.35219    -1474.982    492.64034    367.72639   -364.29301     37926.35 
  466900    304.15225   -1507.9141    499.95206    363.75412   -560.07274     37926.35 
  467000    297.80378   -1498.4166     501.9933    346.66151    51.459609     37926.35 
  467100     309.6124   -1518.1621    494.38943     372.5686    288.42189     37926.35 
  467200     306.2172   -1488.7122    490.38882     382.7057    923.05134     37926.35 
  467300    300.85981   -1490.7871    512.67597    378.75632   -96.578984     37926.35 
  467400     296.4878   -1504.5637     500.4942    333.08033      91.5154     37926.35 
  467500    295.77872   -1500.9015    520.18058    353.23095    125.38568     37926.35 
  467600    302.88814   -1482.5398    481.71398    365.18925    30.726456     37926.35 
  467700    287.11319   -1472.4604    516.38857     338.7988   -168.04822     37926.35 
  467800    299.78665   -1462.7531    514.25601    403.53039   -233.38121     37926.35 
  467900    302.27948   -1479.4841    491.92909    375.71508   -38.485218     37926.35 
  468000    304.98609   -1498.3332    490.97176    368.11531   -39.312308     37926.35 
  468100    299.24437   -1486.1955    510.32369    373.71002    158.91615     37926.35 
  468200     297.3926   -1502.5308    508.31345    347.01304    14.492149     37926.35 
  468300    303.94424   -1506.9787    485.94042    349.73979   -164.03477     37926.35 
  468400    293.67902   -1434.6066    514.82848    404.70421    521.97879     37926.35 
  468500    304.33269   -1475.4449     512.2167    409.30177   -536.04961     37926.35 
  468600    312.27899   -1526.2836    506.12354    388.20747   -71.736389     37926.35 
  468700    297.56361   -1497.2402    500.89106    345.65252   -279.58681     37926.35 
  468800    283.32854   -1484.5041    501.13426     294.4322    29.409422     37926.35 
  468900    305.46577   -1523.1285    488.33396    342.84553    181.19404     37926.35 
  469000    299.55621   -1518.8148    487.46679    319.64023    159.92758     37926.35 
  469100    296.96215   -1520.6691    522.97861    341.59856    262.58044     37926.35 
  469200    302.06816    -1493.332    516.16994     385.1549   -4.2438639     37926.35 
  469300    305.27301   -1490.0167    469.26723    356.02126    19.034851     37926.35 
  469400    305.76322   -1509.8786    485.72625     354.8292   -231.04014     37926.35 
  469500    300.70324    -1564.665    488.04488    279.54115   -46.398249     37926.35 
  469600    303.14071   -1499.1294    506.34021    374.36494    603.59106     37926.35 
  469700    304.60763   -1510.7186    493.84663    356.89798    103.78086     37926.35 
  469800    292.67654   -1477.8526    538.34339    380.45191    636.72987     37926.35 
  469900    294.27159   -1537.8828    484.12534    273.39729    372.12357     37926.35 
  470000    301.25863   -1555.1352    485.84959    289.38042    588.96809     37926.35 
  470100    292.01491   -1502.7563    473.93402    288.15491   -228.70427     37926.35 
  470200    293.74781   -1513.4583    518.31664    329.65088    -577.8422     37926.35 
  470300    301.76468   -1533.7158    512.68548    339.91801   -221.24639     37926.35 
  470400    301.65687   -1556.2768    509.98862    314.17388    250.02316     37926.35 
  470500    301.34606    -1567.917    493.31081    284.45421      0.99663     37926.35 
  470600    297.69472   -1541.9279    474.49784    275.16287     463.6547     37926.35 
  470700    304.95542   -1569.9638    478.15152    283.52618    540.54395     37926.35 
  470800    306.01707   -1532.7194    486.47673    333.88377    280.89009     37926.35 
  470900    293.59688   -1563.9504    492.34704    252.50846   -166.00482     37926.35 
  471000    315.33107   -1572.1081    458.85447    308.87862   -219.96721     37926.35 
  471100    305.09262   -1530.8857    514.87299     359.9445    386.31235     37926.35 
  471200    296.39856   -1507.5655    512.16315      341.345   -515.12498     37926.35 
  471300    304.81171   -1518.6007    533.73167    389.82132   -473.92801     37926.35 
  471400    299.99035   -1520.4413      483.363    315.86785   -586.59283     37926.35 
  471500    294.11433   -1494.1172    491.53688    323.86515    2.0310204     37926.35 
  471600    312.45065   -1508.5924    492.60173    393.15107   -80.862171     37926.35 
  471700    298.12615   -1453.9667    495.17752    385.74953   -448.68708     37926.35 
  471800    302.09211   -1504.8306    507.61096     365.2054   -371.52083     37926.35 
  471900    301.81654   -1492.8252     503.7171    372.07408   -669.02631     37926.35 
  472000    301.01653   -1529.6082    504.24604    332.21198   -415.06323     37926.35 
  472100    303.98564   -1498.6204     507.9506    380.29502   -509.44891     37926.35 
  472200    295.84608   -1539.3906    466.63391    261.49891    -184.8941     37926.35 
  472300    308.42788   -1501.3757    493.36918    382.99259    315.03352     37926.35 
  472400    300.91623   -1507.7889    486.94527    336.27816   -131.51028     37926.35 
  472500    300.34899   -1510.5458    494.15779    338.17561   -126.43461     37926.35 
  472600    302.24937    -1495.879     510.5773    377.83261   -289.04748     37926.35 
  472700    295.78679    -1491.499    517.63995    360.12924   -322.08137     37926.35 
  472800    300.55084   -1488.8758    506.67768    373.27585     13.28744     37926.35 
  472900    288.04708   -1448.6863    498.51285    348.90903    -43.48332     37926.35 
  473000    297.07352   -1469.0469    504.91113    375.65554   -159.89385     37926.35 
  473100    314.27277    -1495.831    455.08985    376.61822    -24.24959     37926.35 
  473200    302.90479   -1461.7341    511.17397    415.53007    429.00712     37926.35 
  473300    305.16273   -1482.8237    505.78211    399.23179    238.29114     37926.35 
  473400    297.73056   -1475.4511    498.91429    366.21779     396.1059     37926.35 
  473500    300.25376   -1470.5938    516.11029    399.65064    761.51807     37926.35 
  473600    294.25616   -1476.2021    515.77683    366.65983    517.14688     37926.35 
  473700    291.49109   -1491.2402    507.75771    331.13235    850.92115     37926.35 
  473800    303.61139   -1458.5914    503.37293    414.05848    614.18702     37926.35 
  473900    300.45787   -1486.2014    490.90883    359.76209    334.93043     37926.35 
  474000    303.30639    -1540.313    479.46957    307.05797    14.004199     37926.35 
  474100    293.40776   -1490.2873      511.514    344.48557   -350.72132     37926.35 
  474200    302.20597   -1447.0061    511.83478    427.76721   -23.525529     37926.35 
  474300    291.37201   -1489.0212    484.68322    309.73977   -350.78637     37926.35 
  474400    307.36817   -1463.2763    521.93551    444.87914    98.532965     37926.35 
  474500     301.0351   -1475.7736    503.89673    385.78106    157.62776     37926.35 
  474600     295.0427   -1472.5107    501.79908    359.92079    55.047075     37926.35 
  474700    296.44234    -1488.753    493.89013    342.08189     442.5711     37926.35 
  474800    308.46316   -1471.2074    509.38117    429.33206     248.3319     37926.35 
  474900    305.12436   -1501.0211     506.2821    381.36138   -205.76525     37926.35 
  475000    311.48674   -1499.3092    511.40738    416.89268   -329.89142     37926.35 
  475100    308.73599    -1523.187    485.19526    354.39692   -501.31478     37926.35 
  475200    297.42845   -1514.7013    501.15446     327.8452      67.8693     37926.35 
  475300    301.08407   -1492.7256    490.58452    355.73773    35.124625     37926.35 
  475400     310.3879   -1519.5989    502.32734    382.56726     733.1424     37926.35 
  475500    294.41607   -1490.2003     492.7256    330.33168    339.13563     37926.35 
  475600    302.30266   -1501.3393    511.82717    373.86252    412.18226     37926.35 
  475700    309.11859   -1515.2437    504.74593    383.61642    502.91528     37926.35 
  475800    293.34758   -1521.2449    471.01117    272.75375    59.690565     37926.35 
  475900    296.70133   -1470.5219    516.21466    383.80556   -172.50852     37926.35 
  476000     304.6451   -1500.5823    489.18015    362.53675   -278.84172     37926.35 
  476100    304.69322   -1490.2623    494.28524    378.17887   -74.176809     37926.35 
  476200    298.82161   -1524.3622    473.03897    296.35199    208.89576     37926.35 
  476300    301.24874   -1497.5933    475.11821    336.14637    935.17171     37926.35 
  476400    292.32028   -1506.7127    502.64846    314.29015    381.16972     37926.35 
  476500    294.55171   -1469.3911    513.26243    372.28942    253.66312     37926.35 
  476600    305.30463   -1466.2872    508.85493    419.48112    502.87483     37926.35 
  476700    303.66908    -1461.725    486.08706    393.89919    344.04244     37926.35 
  476800     293.7039   -1458.1036    515.79208      382.283    524.53075     37926.35 
  476900    311.62149   -1485.0648    483.39836     403.7358    250.95095     37926.35 
  477000    288.32316   -1514.5338    490.29515    276.08888   -170.65218     37926.35 
  477100    311.35432   -1482.6285    526.40481    447.97361    -80.09466     37926.35 
  477200    294.53352     -1528.28     513.3954     313.4514    159.28885     37926.35 
  477300    295.76074   -1521.7136    476.31476    288.47188   -127.11046     37926.35 
  477400     302.8419   -1484.3776    487.32157    368.75052   -339.83483     37926.35 
  477500    285.12781   -1475.1814    477.79206    288.52725   -42.934992     37926.35 
  477600    310.87809   -1519.9316    493.70486    375.82275    75.799603     37926.35 
  477700    292.76215   -1506.6653    497.45062    311.13258    315.68266     37926.35 
  477800    293.15226   -1513.4529    474.69569    283.34937   -207.76189     37926.35 
  477900    294.65087   -1474.9247    504.47781    358.41838   -732.75161     37926.35 
  478000    292.63329   -1496.1665    495.54958    319.14921    31.331759     37926.35 
  478100    292.21891   -1536.9436    486.61035      267.564   -106.99365     37926.35 
  478200     302.7269   -1524.9004    493.19108    333.57857    33.663804     37926.35 
  478300    316.52212   -1531.1723     497.9576    394.28922    448.61888     37926.35 
  478400    284.31696   -1524.5052    493.78444    251.53896    4.8151666     37926.35 
  478500    301.32486   -1501.7916    483.26783    340.44102   -587.33612     37926.35 
  478600    293.97154    -1488.578    480.98341    318.20693   -354.91619     37926.35 
  478700     297.3226   -1492.8448    499.17793     347.2478    -747.2906     37926.35 
  478800    297.80129   -1460.4527    512.37761    394.99847   -582.34433     37926.35 
  478900    294.35322   -1491.2685    483.50782    319.76229   -278.35272     37926.35 
  479000    299.67381   -1496.3347    493.23922    348.42304    232.05402     37926.35 
  479100    308.90674   -1511.6703    496.63714    378.12556   -106.94523     37926.35 
  479200    296.08865   -1521.5837    494.69406    308.46001    466.42962     37926.35 
  479300    298.65538   -1525.1864    513.00871    334.74777    325.53875     37926.35 
  479400    296.00582   -1483.4916    496.80457    348.28905    -353.4961     37926.35 
  479500    290.43727   -1473.3398    491.06828    327.59057   -461.51763     37926.35 
  479600    307.70704    -1524.413    494.56251    357.89771    174.53028     37926.35 
  479700    302.93287   -1539.0424    485.23513    312.40954   -60.070996     37926.35 
  479800    298.13326   -1511.1802    495.73715    329.12772    544.09931     37926.35 
  479900    288.95538   -1465.3334    498.34787     336.1933    381.78435     37926.35 
  480000    292.44398   -1492.0247    511.50518    338.39278     531.5737     37926.35 
  480100    310.51874   -1506.4125    466.16977    360.18607     725.2401     37926.35 
  480200    294.25149   -1504.8674    489.12876    311.32545    54.553981     37926.35 
  480300    296.86563   -1541.2722    491.22404    288.80565   -247.27386     37926.35 
  480400    307.20299   -1518.1185    481.99994    349.35639   -132.44095     37926.35 
  480500    312.09686   -1483.6692    461.88758    385.76449   -158.49552     37926.35 
  480600    296.39881   -1524.5175    492.03152    304.26243   -531.28147     37926.35 
  480700    295.41967    -1498.081     486.6934    320.94488   -90.735483     37926.35 
  480800    291.02965   -1488.5269    470.99808    295.00488    49.529532     37926.35 
  480900     302.3133   -1545.8563    505.47459     323.0409    590.89064     37926.35 
  481000    292.59252   -1524.7046    485.98616    280.86378    261.90096     37926.35 
  481100    293.81358   -1543.1589     462.2046    244.13488   -472.27084     37926.35 
  481200    297.51023   -1513.3648     473.5797    301.97579   -275.52919     37926.35 
  481300    303.36104    -1518.458     522.1312    371.82103   -782.95912     37926.35 
  481400    290.09608   -1506.1651    481.93458    284.09277    -592.0777     37926.35 
  481500    311.98184   -1532.0951    487.31245     362.2447   -513.70298     37926.35 
  481600    310.72922   -1511.5707    473.96232    363.76971    280.08731     37926.35 
  481700    292.29169   -1500.6093    503.70096    321.31715    324.58017     37926.35 
  481800    304.32342   -1541.7319    502.24599    333.00226   -122.90833     37926.35 
  481900    300.70567   -1546.9725    473.41367    282.61343   -224.47542     37926.35 
  482000    296.12941   -1543.7721    497.83538     289.5967    -99.89585     37926.35 
  482100    303.04645   -1560.6067    486.73233    292.85468    138.61841     37926.35 
  482200    291.80706   -1538.0494     471.2386    249.22898   -124.62619     37926.35 
  482300    288.48264   -1449.0071    509.89118    361.93089   -29.323722     37926.35 
  482400    303.61511      -1484.4    494.57232    379.46599   -46.131144     37926.35 
  482500    296.61524   -1454.4226     504.7114     388.0133    108.52979     37926.35 
  482600    306.15775    -1462.633    496.43189    414.55986    44.654547     37926.35 
  482700    304.30064   -1481.3458    493.55334    384.59302    153.04261     37926.35 
  482800     293.3669   -1481.7242    497.08776    338.43819    121.56459     37926.35 
  482900    309.39732   -1466.7161    486.43612     415.0913   -247.80043     37926.35 
  483000    301.10256    -1482.854    490.98485    366.09302   -237.05278     37926.35 
  483100     295.8792    -1464.319    500.61352    370.69955   -217.34851     37926.35 
  483200     307.4501   -1482.5369    506.81642     410.8689   -184.78147     37926.35 
  483300     301.9085   -1542.9737    491.57602    310.19925    358.85682     37926.35 
  483400    306.86173   -1533.9935    486.99316    336.93549    601.94061     37926.35 
  483500    292.50618   -1569.8831    513.02926    262.33895    151.21986     37926.35 
  483600    298.82787   -1502.8276    492.97362    337.84941    575.56568     37926.35 
  483700    296.50454   -1554.5749    482.32923     264.9796     528.4812     37926.35 
  483800      305.263   -1550.3712    478.14787    304.50237     8.674695     37926.35 
  483900    294.35877   -1572.2658    496.84447    252.12653    -313.1769     37926.35 
  484000    310.76237   -1542.2367    493.89467    353.18556     234.2037     37926.35 
  484100    298.02162   -1557.4397    481.09557    267.72315    193.62208     37926.35 
  484200    306.62325   -1559.1998    483.67004    307.33057    194.03793     37926.35 
  484300    298.18522   -1513.3238    512.46063    343.94189    364.64906     37926.35 
  484400    291.10074    -1506.409    492.08893    298.53422    190.34811     37926.35 
  484500    296.68768   -1557.7152    512.60859    292.94464    396.96609     37926.35 
  484600    300.94494   -1519.1759    479.22581    317.30127    334.66396     37926.35 
  484700    294.34633   -1551.6264    481.87014    257.73559    342.78527     37926.35 
  484800    284.27833   -1577.5582      492.978    197.50532     -448.733     37926.35 
  484900    303.29414   -1547.1035    510.45825     331.2009   -461.56761     37926.35 
  485000    307.10117   -1557.8341     473.4713    300.65293   -395.14057     37926.35 
  485100    299.18409   -1540.5365    460.73031    269.50371   -129.70295     37926.35 
  485200    293.00425   -1541.8032    495.33406    274.96994   -239.42106     37926.35 
  485300    305.34805   -1538.2295     502.2568    341.13654   -605.93601     37926.35 
  485400    294.21849   -1556.6278    454.94702    225.23451   -225.48337     37926.35 
  485500    304.34076   -1533.5101    492.34657    331.40285    359.07038     37926.35 
  485600    297.45311   -1548.2497    510.47772    303.73137   -223.38422     37926.35 
  485700    306.80989   -1541.6884    498.10534    340.11903    -87.65873     37926.35 
  485800    301.01109   -1526.7955    493.29994    324.05409    116.14899     37926.35 
  485900    302.66464   -1509.7277    484.72674    340.00614    82.542461     37926.35 
  486000    309.36171   -1494.2208    503.88314    404.87304    148.43695     37926.35 
  486100    299.96303   -1508.7839    502.03952    346.07852    189.77481     37926.35 
  486200    289.73032   -1529.7096    496.84268    273.80682    241.57064     37926.35 
  486300    295.86458   -1509.1592    490.76754    315.94738    -317.8543     37926.35 
  486400    296.52305   -1469.9008    497.54545    364.95343   -243.24012     37926.35 
  486500    303.39557   -1515.4201    490.66062    343.54406   -27.596395     37926.35 
  486600    297.37186   -1502.7466    485.72359    324.11385    95.407865     37926.35 
  486700    307.25485   -1538.3373    447.05655    294.42804   -471.63984     37926.35 
  486800    298.86346   -1517.0939    498.34668    329.11676   -77.166169     37926.35 
  486900    313.81985    -1511.853    495.03758    398.50127   -55.477645     37926.35 
  487000    306.43346   -1544.9132    483.21159    320.30276   -83.345979     37926.35 
  487100    307.13852   -1578.0185    496.96144    304.12709    73.441726     37926.35 
  487200    301.06438   -1566.7166     460.8885     251.9619    339.19371     37926.35 
  487300    302.86043   -1528.7907    503.13253     340.2319   -276.74283     37926.35 
  487400    303.35217   -1551.3102     480.2216     297.0192   -180.68259     37926.35 
  487500     303.4908   -1523.9073    510.20443    355.03018    19.125128     37926.35 
  487600    299.01409   -1556.8498    485.62482    277.31825   -273.57025     37926.35 
  487700     297.3523   -1520.3328    501.38825    322.10416   -187.35981     37926.35 
  487800    311.90072   -1526.5539    498.40657    378.51416   -121.99322     37926.35 
  487900    305.86577   -1494.8627    519.11057      403.692   -242.74485     37926.35 
  488000    304.39196   -1482.2291    499.72376    390.29189     264.3205     37926.35 
  488100    293.03597   -1476.5624     514.4664    359.48615     109.2369     37926.35 
  488200     294.3324   -1496.3295    517.73874    348.83821   -200.68849     37926.35 
  488300    296.83862   -1492.4612    502.46093    348.73171    -136.6738     37926.35 
  488400    291.36312   -1500.7437    512.77706    326.07108   -226.70408     37926.35 
  488500     296.0513   -1496.8775    495.40271    333.70638   -682.77847     37926.35 
  488600    300.13482   -1508.0864    522.39336    367.90463   -460.53077     37926.35 
  488700    295.75013     -1526.03    496.76611    304.55899   -520.33381     37926.35 
  488800    297.36573   -1484.1172     515.0669    372.05893   -171.52352     37926.35 
  488900    306.90054   -1481.8771    511.17323    413.40698   -254.40623     37926.35 
  489000    293.48632   -1482.3698    502.03094    343.27434   -297.57576     37926.35 
  489100     301.4329   -1503.0523    477.58336    333.98309   -130.09182     37926.35 
  489200    307.99064   -1507.0195    494.38005     376.3877    342.95897     37926.35 
  489300    297.06446   -1492.7963    501.86161    348.81584   -235.71407     37926.35 
  489400    311.03686   -1484.5757    502.09777     420.2876    47.170055     37926.35 
  489500    297.89877   -1474.6375    479.08677    347.96246    366.32669     37926.35 
  489600    307.82207   -1514.3413     491.7909    365.71652   -184.58156     37926.35 
  489700    309.87373   -1498.3552    490.97487    390.13958    516.18952     37926.35 
  489800    299.82936   -1484.0549    471.24795    339.41312    1113.3056     37926.35 
  489900    307.16892   -1505.4487     531.2836    411.15618    829.32383     37926.35 
  490000    298.82955   -1533.5481    496.71515      310.878    574.62905     37926.35 
  490100    294.52232   -1508.8441    501.79383    321.23523    242.46778     37926.35 
  490200    307.07813   -1526.9307    506.82729     364.8084    19.334626     37926.35 
  490300    293.43412   -1500.6539    478.01746    300.74139    74.337914     37926.35 
  490400    298.47551   -1564.8825    497.49917      278.731   -433.82311     37926.35 
  490500    300.35678   -1557.0349    482.61376    280.17765    237.03251     37926.35 
  490600    293.88277   -1576.6809    475.27965    223.99991    -274.4759     37926.35 
  490700    292.91275   -1569.6798    476.60823    227.95484   -489.18876     37926.35 
  490800    311.84171   -1529.1044     448.7462    326.03713   -301.59152     37926.35 
  490900    301.75702     -1541.51    485.81886    305.22263   -553.88791     37926.35 
  491000     313.2812   -1540.2989    491.20248    363.79102   -104.40509     37926.35 
  491100    297.08156   -1506.2289    492.34434    325.94303   -535.60285     37926.35 
  491200    297.60413    -1535.921    516.77935    323.04275   -405.01547     37926.35 
  491300    292.10958   -1492.1224    484.68801    309.96982    -453.1073     37926.35 
  491400    301.08685   -1497.9102    476.11245    336.09362   -165.57341     37926.35 
  491500    299.12484   -1476.5872    483.65799    356.11348   -86.466013     37926.35 
  491600    293.53203   -1497.0942    505.43229    332.15747     115.2287     37926.35 
  491700    288.79148   -1464.1827    502.83165    341.08864    268.24093     37926.35 
  491800    302.25527   -1487.1757    504.81936    380.80451   -421.28993     37926.35 
  491900    294.14641   -1447.0177    472.57262     352.1451    158.35817     37926.35 
  492000    292.06734   -1456.8143    499.79067    360.19003   -137.77261     37926.35 
  492100     296.8433   -1428.6325    499.22852    409.34908   -215.43546     37926.35 
  492200    293.17039   -1449.8861    517.94773    390.25003   -156.47256     37926.35 
  492300    306.89907   -1420.7351    501.53116    464.90034   -616.08616     37926.35 
  492400    295.33766   -1453.3108    500.87363    379.52554    -348.5681     37926.35 
  492500    301.06887   -1476.4914    481.31761    362.63646   -502.03134     37926.35 
  492600    300.26846   -1480.4195    494.98737    368.76831   -473.47973     37926.35 
  492700    297.65426   -1440.5077    522.89242    424.79519   -732.96733     37926.35 
  492800    293.08105   -1442.7485    518.82614    397.86307   -590.06527     37926.35 
  492900    294.71388   -1457.6045    499.37643    370.92141   -912.79311     37926.35 
  493000    297.07481   -1521.6814    499.73745    317.85318   -848.37215     37926.35 
  493100    305.46125   -1534.7528    507.77265    350.63955   -482.28301     37926.35 
  493200    295.32341   -1520.6701    507.08532    318.31368   -286.83477     37926.35 
  493300    299.80458   -1530.4273    499.21509    320.89614   -620.12509     37926.35 
  493400    305.43474   -1512.6106    484.55079    349.44043   -540.67738     37926.35 
  493500    301.01231   -1497.8977      496.944    356.60144   -329.30764     37926.35 
  493600    293.87824   -1502.3511    475.12155    298.15116   -72.277963     37926.35 
  493700    288.53722   -1489.9909    521.79609    333.09811    282.22289     37926.35 
  493800    298.71245   -1505.7304    482.32515     323.7776    79.186533     37926.35 
  493900     295.7799   -1495.8597    489.87805    327.97552   -35.178957     37926.35 
  494000    284.09869   -1486.6971    502.00328    296.58151    528.61275     37926.35 
  494100    297.97574   -1481.9461    491.34776    353.26198    614.06849     37926.35 
  494200    286.42035   -1493.3857    496.44663    294.80679    212.48021     37926.35 
  494300    289.50474   -1473.8316    530.50755    362.33241     506.6354     37926.35 
  494400    301.03819   -1497.0407    510.43747    371.06864    272.17692     37926.35 
  494500    297.43529   -1483.8099    514.93123    372.54421    375.90911     37926.35 
  494600    294.64676    -1467.182    485.82987    347.49467    48.061451     37926.35 
  494700    300.91384   -1449.0401    488.84905       396.92    116.28278     37926.35 
  494800    304.98431   -1422.3286    488.14323    441.28337   -221.24274     37926.35 
  494900    297.09518   -1403.8013    494.79907    430.88688    453.13964     37926.35 
  495000    295.76143   -1422.5243    522.67488     434.0244    219.96946     37926.35 
  495100    304.17345   -1428.4834     525.8506      469.179    522.47558     37926.35 
  495200    311.17265   -1382.6078    515.92217    536.69229    605.35484     37926.35 
  495300    303.50448   -1393.5057    517.18447    492.47353    393.04923     37926.35 
  495400    295.37872   -1431.4757    496.71042    397.38257    393.80982     37926.35 
  495500    291.58335   -1440.9947    478.14097    352.17714   -183.47201     37926.35 
  495600    300.17045   -1394.0512    484.84031    444.54747   -49.128526     37926.35 
  495700     288.2752   -1444.0396     519.3728    375.44444    -400.6596     37926.35 
  495800     289.3576   -1484.8692    507.30217    327.42578   -406.06188     37926.35 
  495900    303.33033    -1508.881    482.62317    341.75155    464.57125     37926.35 
  496000    291.73449   -1512.5448    483.03455    286.20229   -131.28652     37926.35 
  496100     299.2475   -1503.4277    524.29548    370.46371     34.90746     37926.35 
  496200    305.14918   -1498.3728    492.97748    370.81698   -79.516843     37926.35 
  496300    302.57342   -1502.1346    490.65337    353.11449    320.86231     37926.35 
  496400     306.9644   -1489.8438    499.01965     393.5747   -168.69004     37926.35 
  496500    284.55026     -1501.41    478.85111    260.75302   -186.42325     37926.35 
  496600    300.45856   -1486.9353    455.96747    324.08993      211.951     37926.35 
  496700    295.79229   -1491.6177     495.6878    338.08316    107.54766     37926.35 
  496800    306.62984   -1496.5016    468.26619    354.65464    162.07013     37926.35 
  496900    299.15058   -1475.5485    512.74267    386.35299    737.65155     37926.35 
  497000    289.02199   -1480.9623    503.52909    326.04608   -78.497011     37926.35 
  497100    306.30652   -1490.8605    493.46334    384.03467    80.826936     37926.35 
  497200    309.38927   -1506.2089    480.20031    369.32642   -75.050592     37926.35 
  497300    300.82055   -1473.9715    486.48911    369.20794   -330.24265     37926.35 
  497400    293.51375   -1487.7571    506.55437    342.53417   -789.09653     37926.35 
  497500    309.11253   -1466.0138    518.84261    446.91564   -16.766887     37926.35 
  497600      306.288   -1516.8501    478.11768    342.61593   -50.157618     37926.35 
  497700    290.50036   -1489.4686    506.03271    326.71075    170.02394     37926.35 
  497800    308.69724   -1530.4694    495.34308    357.08764    42.044083     37926.35 
  497900    295.27231   -1498.8978    509.81262    342.58275    813.84908     37926.35 
  498000    298.33297   -1517.5139    497.93585    325.89342    954.68998     37926.35 
  498100    301.77966   -1477.9087    499.34652    382.45366    950.36972     37926.35 
  498200    308.12675   -1453.9055    478.27292    414.00842    929.72326     37926.35 
  498300    307.65865   -1502.4502    498.37257    383.45228    534.14999     37926.35 
  498400    294.67945   -1479.5948    536.29487    385.69422    424.26924     37926.35 
  498500     309.3134   -1490.8357    518.34815    422.50522   -21.789815     37926.35 
  498600    307.64257   -1474.7242    491.83635    404.56957    416.67077     37926.35 
  498700    300.06355   -1448.4105    538.50575     443.3716    419.39872     37926.35 
  498800    307.77581   -1508.3733    509.92127    389.60633     37.17202     37926.35 
  498900    297.74365   -1465.5669    494.61421    371.86093    551.80545     37926.35 
  499000    302.03136   -1472.4667    531.83481    421.51914   -218.91287     37926.35 
  499100    287.04616    -1480.251    495.32197    309.63925   -498.82745     37926.35 
  499200    313.99413   -1464.8319    486.50573    437.77659   -444.72718     37926.35 
  499300    302.38517   -1466.8204    502.13815    399.06445   -464.84323     37926.35 
  499400    310.13901    -1438.484    519.26424    479.49646   -26.283386     37926.35 
  499500    301.12477   -1450.8019    493.63577    400.89618    94.753149     37926.35 
  499600    304.88208   -1425.0047    518.16465    468.16765    126.32682     37926.35 
  499700     296.3493   -1440.4752    483.09323    379.14323   -235.47173     37926.35 
  499800    306.81018   -1479.3229    546.45959    450.84001    156.36451     37926.35 
  499900    296.33387   -1488.8905    513.00707    360.57211    14.763381     37926.35 
  500000    296.96884   -1474.5534     496.0853     360.8512   -332.04761     37926.35 
  500100    297.65571   -1473.9341    510.09591     378.5788    9.5292723     37926.35 
  500200    301.28965   -1470.6198    495.40515    383.59128   -207.19741     37926.35 
  500300    300.15462   -1467.1787    519.80993    406.31822   -149.05477     37926.35 
  500400    292.37979   -1469.2761    489.74859    339.09529    41.508767     37926.35 
  500500     303.8739   -1518.6489    522.48934    374.30131    228.13567     37926.35 
  500600    305.01122   -1506.8646    537.22261    405.94808    461.11342     37926.35 
  500700    302.42558   -1508.8147     498.6561    353.77037   -306.24359     37926.35 
  500800    294.52947   -1473.9977    497.32234    351.64245   -528.65154     37926.35 
  500900    308.56798   -1470.2484    496.33642    417.71903   -458.01976     37926.35 
  501000    297.08865   -1456.5277    508.53204    391.86391   -255.69039     37926.35 
  501100     291.6739   -1464.5665    509.50405    360.37682   -181.84112     37926.35 
  501200    299.60081    -1486.281    483.78534    348.69374    164.46429     37926.35 
  501300    298.23615   -1453.3054     522.1572    413.88664   -52.355577     37926.35 
  501400    297.46357   -1478.9371    495.40825    358.02163   -11.314772     37926.35 
  501500    290.23661   -1492.1455    510.51274    327.32434    149.45643     37926.35 
  501600    307.41666   -1431.8191    496.75128    451.37077   -360.59644     37926.35 
  501700    303.25919   -1449.0793    500.39876    419.00796   -490.46303     37926.35 
  501800    307.97365   -1477.1976    480.80405    392.55708   -216.39107     37926.35 
  501900    298.67798   -1474.4242     490.9876    363.59082     95.17029     37926.35 
  502000    299.48467    -1412.091    513.01123    451.58582    4.8961738     37926.35 
  502100    290.06794   -1493.3279    479.51074    294.37925   -30.681196     37926.35 
  502200    294.92466   -1489.6702    481.76607     322.1959   -1084.4552     37926.35 
  502300    301.58227   -1476.8219    506.39895    389.70278   -1195.7468     37926.35 
  502400    293.74156     -1498.98    458.03885    283.82317   -513.95022     37926.35 
  502500    306.72062   -1450.3007    517.19207    450.19082   -413.31316     37926.35 
  502600    299.35631    -1481.352    490.61954     359.3542   -104.37005     37926.35 
  502700    299.05757   -1508.3766    498.32378    338.68654    91.082715     37926.35 
  502800    301.57542    -1445.028    499.07283    414.13957    350.31082     37926.35 
  502900     302.4234   -1531.3098    499.00961    331.61895    582.80508     37926.35 
  503000     301.5332    -1498.787    519.55355    380.67086    170.21148     37926.35 
  503100    294.71889   -1481.5973      491.171    338.74577     762.0278     37926.35 
  503200    305.82611   -1536.6294    514.65547    357.29127    814.40242     37926.35 
  503300    296.96429   -1530.4747     494.5419    303.36596    694.49775     37926.35 
  503400     309.1342   -1506.3413    485.27977     373.1231    582.08815     37926.35 
  503500    293.67183   -1481.3887    498.90441    341.96558    612.65299     37926.35 
  503600    299.25515    -1469.147    496.68168     377.1651    898.00028     37926.35 
  503700    288.86186   -1477.8575    499.58765    324.48725    737.44828     37926.35 
  503800     297.1703    -1496.901    512.89608    356.22292    412.06483     37926.35 
  503900     305.7913   -1513.4561     508.2971    373.94923    552.89918     37926.35 
  504000    297.22033   -1483.0497    452.38514    309.78895   -153.71863     37926.35 
  504100    303.36246   -1463.9022    495.54043    399.79251   -164.87683     37926.35 
  504200     302.8489   -1497.8011    498.17088    366.20789     405.3399     37926.35 
  504300    295.86129   -1484.8343     494.7445     344.2345   -227.15603     37926.35 
  504400    309.94151   -1439.8779    502.67009    460.61779   -165.13634     37926.35 
  504500    304.42555   -1460.4947    498.83582    411.28994   -371.45014     37926.35 
  504600    291.37384    -1466.042    471.76365    319.80766   -370.57824     37926.35 
  504700    305.62488    -1483.556    513.45898    408.26069   -514.36409     37926.35 
  504800    293.01093   -1478.0737     492.9389    336.33443   -295.76704     37926.35 
  504900    293.35376   -1495.8435    513.00991    340.18175   -431.83943     37926.35 
  505000    305.91368   -1477.0819    513.76062    416.33896    344.23332     37926.35 
  505100    303.64649   -1499.2874    491.14514    361.29291    31.748922     37926.35 
  505200     293.5943   -1465.4511    530.88546    389.53455    229.32545     37926.35 
  505300    300.78293   -1492.3238    499.88841    364.08528    238.86174     37926.35 
  505400    300.66269   -1482.9824    495.46444    368.46038    34.381853     37926.35 
  505500    292.69801   -1475.3263    504.73402    349.46562    282.80223     37926.35 
  505600    296.36471   -1467.7864    490.82954    359.63777    321.26211     37926.35 
  505700    302.37995   -1479.5853    504.76291    388.90077   -212.60475     37926.35 
  505800    297.04713   -1501.8674    489.06374    326.86865    70.303496     37926.35 
  505900    301.02537   -1472.4179    508.36009    393.55619    26.524806     37926.35 
  506000    305.67228   -1514.5514    500.80633    364.82639   -33.293993     37926.35 
  506100    297.08063   -1484.3931    473.81376    329.24407    177.00286     37926.35 
  506200    294.78798   -1492.7405     501.1997    337.94282    5.9682364     37926.35 
  506300    296.75855     -1478.78    493.44298    353.03381   -41.638291     37926.35 
  506400    300.14044   -1499.3815    493.05606    347.29762    270.46748     37926.35 
  506500    296.12759   -1491.1894    505.87321      350.209   -105.46334     37926.35 
  506600    294.26574   -1477.0366    504.51299    354.60478   -244.64888     37926.35 
  506700    300.72981    -1464.413    519.60026    411.46838   -196.90023     37926.35 
  506800    297.11818   -1488.6602    509.98779     361.3204    32.548334     37926.35 
  506900    300.84623   -1481.5443     497.2578    372.51964   -111.06481     37926.35 
  507000    293.05598   -1530.6076      495.309    286.37382   -135.94276     37926.35 
  507100    296.65024   -1521.5405    512.27087    328.61279   -787.71347     37926.35 
  507200    304.52445   -1501.0079    493.86915    366.25609   -373.04145     37926.35 
  507300    306.20406   -1502.1652    495.24376    374.04835    663.46524     37926.35 
  507400    307.14622    -1575.423    504.89631    314.69224    801.07483     37926.35 
  507500    307.21743    -1496.139    482.28662    371.68767     254.5268     37926.35 
  507600    293.77577   -1488.5786    523.80605     360.1461    318.47003     37926.35 
  507700    310.43593   -1498.5377     471.8761    373.39378    784.01079     37926.35 
  507800    295.78376   -1479.3097    494.96141    349.62631    237.57306     37926.35 
  507900    294.60667   -1488.7251    509.72703    349.66784    200.24317     37926.35 
  508000    307.01403   -1522.4693    484.88761    347.04101    1070.9798     37926.35 
  508100    294.22663   -1497.8458    504.73373    333.83991    764.63877     37926.35 
  508200    301.63501   -1529.2384    495.44047    326.56555    55.082906     37926.35 
  508300    309.48601   -1482.8329    503.77968      416.718     146.2856     37926.35 
  508400    297.32563   -1511.7048    506.02502    335.24855   -112.80728     37926.35 
  508500    300.16292   -1506.8243    489.06477    335.96489    97.129976     37926.35 
  508600     299.8626   -1498.4138    504.03804    357.99421    328.64912     37926.35 
  508700    307.52003   -1553.7741    501.51167    334.64234    210.77036     37926.35 
  508800    304.03212   -1543.3219    470.79406    298.64657    139.33726     37926.35 
  508900    303.49441   -1540.9695    444.08765    271.86747   -628.29088     37926.35 
  509000    292.01469   -1502.2279    514.38402    329.13237   -895.72068     37926.35 
  509100    308.20879     -1527.86    502.41641     364.5675   -379.58416     37926.35 
  509200    297.78415   -1498.8203     505.1881    349.36409   -734.63227     37926.35 
  509300    293.18022   -1513.1887     482.8854    291.92938   -447.35151     37926.35 
  509400    293.93661     -1493.11    491.46296    323.99691   -255.23707     37926.35 
  509500    304.64822   -1504.0374    518.81361    388.72915    287.41904     37926.35 
  509600    297.32727   -1529.6765     523.9914     335.2507    496.32789     37926.35 
  509700    292.78941   -1487.0839    502.90931    336.29559   -376.49046     37926.35 
  509800    294.50371   -1486.8866    517.12743    358.44239   -174.65208     37926.35 
  509900    284.55095   -1528.8297    481.72475    236.21001   -187.07221     37926.35 
  510000    303.07967   -1528.9366    484.56538    322.50767    72.482025     37926.35 
  510100    298.75619   -1527.3177    517.45881     337.5212   -332.97175     37926.35 
  510200    298.87628   -1511.5137    481.37783    317.78584   -378.53948     37926.35 
  510300    300.70007   -1522.8708    515.59186      348.868   -288.09146     37926.35 
  510400    300.72386    -1545.419    519.68892     330.5242   -84.991133     37926.35 
  510500    298.68594   -1545.2704    482.47464    284.26756   -26.472267     37926.35 
  510600    295.52771    -1546.665     524.6375    310.79235   -146.28639     37926.35 
  510700    296.60247   -1494.1516    521.93258    365.44792   -14.038833     37926.35 
  510800    294.64354   -1525.7181    479.36066    282.47483   -353.13911     37926.35 
  510900    300.88613   -1521.1909    504.10417    339.89935   -522.99773     37926.35 
  511000    305.75106   -1511.0464    507.32302     375.2034    -553.1265     37926.35 
  511100    299.46243   -1549.1218    486.17215    287.61555    205.37536     37926.35 
  511200     301.7265   -1522.5161    532.02967    370.28971   -636.94158     37926.35 
  511300     292.1773   -1530.1776    481.78742    269.31938   -57.968079     37926.35 
  511400     304.2004   -1515.3042    496.33803    352.96719    117.60991     37926.35 
  511500    292.98008   -1521.2783    500.86741    300.91922    487.27467     37926.35 
  511600    306.35582   -1506.9409    493.59552     368.3088     312.0052     37926.35 
  511700    309.19497   -1521.4394    500.38012    373.39939    123.95794     37926.35 
  511800    301.93511   -1514.3313    499.99497    347.38057    116.07863     37926.35 
  511900     302.8216   -1512.3528    506.46059    359.82276    110.46401     37926.35 
  512000    309.07797   -1504.2003    473.84159    363.57232    71.668394     37926.35 
  512100    294.74457   -1502.5948    466.83484    293.52796   -410.44414     37926.35 
  512200    306.52076   -1516.1042    474.97118     341.2651   -258.86203     37926.35 
  512300    291.32785   -1497.3373     501.8318    318.37308   -626.18666     37926.35 
  512400    315.37337   -1498.9789    486.96919    410.31339    -424.3987     37926.35 
  512500    288.17592   -1510.3476    471.35172    260.66763   -346.91117     37926.35 
  512600    303.62544   -1519.7911    518.55417    368.10338    62.627493     37926.35 
  512700    301.91825   -1523.7099    461.56105    299.49201   -377.83408     37926.35 
  512800    303.27674   -1547.5564    502.55356    322.76487   -212.09703     37926.35 
  512900    286.12176   -1513.9246    492.15452    268.62917   -277.95344     37926.35 
  513000    297.27825   -1524.2342    482.53873    299.01922   -56.649528     37926.35 
  513100      290.087   -1518.3718    495.62104    285.53166   -391.97271     37926.35 
  513200    301.64923   -1502.2634    503.08795    361.25215   -420.42501     37926.35 
  513300    306.88546   -1470.1364    512.85972    426.76623    282.41871     37926.35 
  513400    303.78848   -1474.8696    486.01049    381.21646   -5.8852391     37926.35 
  513500    295.76764   -1511.1192    506.48204    329.26474   -190.32892     37926.35 
  513600    311.08285   -1472.5787    481.21915    411.61336   -122.19246     37926.35 
  513700    297.95941   -1520.7459    487.78579    310.82654   -77.992727     37926.35 
  513800    296.15879   -1486.1526    485.64931    335.16261    138.72421     37926.35 
  513900    303.96346   -1488.3836    485.97063    368.45178    190.93474     37926.35 
  514000     296.2063   -1501.3336    476.09925    310.64594   -120.35442     37926.35 
  514100    300.61833   -1460.6912    489.47192    384.55905    227.84203     37926.35 
  514200    298.73311   -1485.6303    484.07138    345.71709   -276.73012     37926.35 
  514300    301.85143   -1519.1143    485.78211     328.0074   -793.13733     37926.35 
  514400    292.26802   -1485.9064    487.02467    319.23696   -298.71666     37926.35 
  514500    294.16904   -1468.4341    488.45217    346.71033   -276.54662     37926.35 
  514600    297.55493   -1469.8076    502.49983    374.65471   -444.23127     37926.35 
  514700    305.08497   -1506.9822    497.67805    366.61861   -251.83859     37926.35 
  514800     300.9568   -1508.4236    479.70208    328.58324    -84.31275     37926.35 
  514900    313.85002   -1463.6669    471.72784    423.51374    90.172629     37926.35 
  515000    294.16548   -1488.6404    489.64161    327.67739    65.744749     37926.35 
  515100    293.69304   -1489.9288    471.45562    306.07235   -73.855789     37926.35 
  515200    296.84191   -1523.9201    470.04728    284.87402    362.07588     37926.35 
  515300    303.81186   -1542.8104     480.7345    308.10518    538.36996     37926.35 
  515400    305.59447   -1503.7631    478.79783    353.25531    34.653443     37926.35 
  515500    293.07889    -1530.993     482.5498    273.33256    -331.7103     37926.35 
  515600     311.1132   -1532.4772    465.68914    336.32173   -109.96188     37926.35 
  515700    294.94304   -1532.6748    479.50448    277.01266   -176.15252     37926.35 
  515800    299.86176   -1546.3393    493.66331    299.69025   -71.895472     37926.35 
  515900    300.70962   -1538.0961    472.40276    290.49667    181.75856     37926.35 
  516000    303.82745   -1533.0141    458.70442    295.94171   -217.54318     37926.35 
  516100    307.08049   -1499.1699    484.48664    370.23914    249.59593     37926.35 
  516200    304.32615   -1503.5372    482.41929    351.38253    282.07202     37926.35 
  516300    290.54225   -1531.3959    491.96355    270.90319    457.50522     37926.35 
  516400    309.05068   -1540.1913    474.57942    328.19607   -20.397435     37926.35 
  516500    299.80176     -1474.06    495.45886    373.49452   -60.113043     37926.35 
  516600    295.42841   -1462.2312    485.76315     355.9039   -345.75542     37926.35 
  516700    304.61184   -1439.8672    493.75183    427.67352   -233.06348     37926.35 
  516800    288.32368   -1477.4083    523.28171    346.20331   -418.01662     37926.35 
  516900    293.66149   -1476.5186    478.68985    326.57449   -768.56841     37926.35 
  517000    289.90741   -1495.2368    514.62891    326.86462   -928.60318     37926.35 
  517100    301.40621   -1490.8045     488.6768    357.20391   -398.58341     37926.35 
  517200    295.18305     -1492.76    473.87113    312.37652   -363.82914     37926.35 
  517300    300.01837   -1474.6212    482.75962    361.21098     102.9331     37926.35 
  517400    305.44493   -1442.7166    497.92458    432.75412    333.54949     37926.35 
  517500    305.56507   -1454.7906    488.07972    411.37706   -345.23153     37926.35 
  517600    288.31339    -1466.952    465.23514    298.56662   -210.74527     37926.35 
  517700    300.14277   -1485.7521    484.62251    352.50396   -1038.3686     37926.35 
  517800    298.13593   -1442.6007    469.25939    371.24148    -459.3037     37926.35 
  517900    291.88353   -1463.2918     481.4392     334.5321   -679.50325     37926.35 
  518000    304.95256    -1454.388    495.56314    416.50066   -688.50183     37926.35 
  518100    299.15114   -1401.1575    491.25853    439.26237   -34.173692     37926.35 
  518200    304.30005   -1410.1899    497.70171    459.89463    -66.81167     37926.35 
  518300     290.4181   -1452.7319    488.80806    345.85178    224.54307     37926.35 
  518400    293.25334   -1488.3347    489.65769    323.88544    56.943338     37926.35 
  518500    312.01644   -1447.6468    515.46072    474.99731    130.83804     37926.35 
  518600    297.83433   -1430.7375    502.98182     415.4669   -595.99278     37926.35 
  518700    304.18592   -1436.8862    491.98833    426.97015   -544.13784     37926.35 
  518800    298.29945   -1427.9066    505.17405    422.58775   -461.69037     37926.35 
  518900    311.62696   -1484.9043    462.75855    383.28109   -267.28568     37926.35 
  519000    303.30082   -1446.4315    510.51572    431.96053    386.99739     37926.35 
  519100    313.06679    -1429.966    474.58416    456.53857    594.77373     37926.35 
  519200    298.08058    -1411.737    492.68743    425.28356    925.80595     37926.35 
  519300     296.3351   -1417.5152    496.62814    415.57406    59.794416     37926.35 
  519400     301.1151   -1446.2151    496.92838    408.73204    888.13777     37926.35 
  519500    290.09316   -1437.4219    483.97071    354.85898    224.51993     37926.35 
  519600    301.79319   -1454.4272    500.76848    407.41819    71.742594     37926.35 
  519700    295.27961   -1433.4731    494.81751    393.04528    -62.35585     37926.35 
  519800    293.53476   -1459.6503    487.28663    351.46801    -274.1225     37926.35 
  519900    297.92464   -1421.3369    494.08676    416.37976    372.35988     37926.35 
  520000     301.1686   -1455.4786    484.34148    387.12289   -353.65166     37926.35 
  520100    295.90276   -1465.9351    507.09651    375.67267    371.04799     37926.35 
  520200     310.7449   -1440.5228    494.88439    455.81042   -272.70939     37926.35 
  520300    291.53721   -1392.6884    493.81832    415.95267   -765.90425     37926.35 
  520400    301.14885   -1397.6095    473.23977    433.80122   -92.487539     37926.35 
  520500    300.05608   -1423.0366    487.70765    417.91365   -100.68151     37926.35 
  520600    305.18396   -1415.5566    475.89308    436.70561   -592.18183     37926.35 
  520700    305.41475   -1408.8992    485.17131    453.68211   -918.52937     37926.35 
  520800    304.30695   -1434.3173    491.18611    429.28269   -449.72685     37926.35 
  520900    305.94057   -1389.5111    500.69512    490.96552    108.39843     37926.35 
  521000    293.77517   -1447.0225     485.2733    363.16676   -27.089602     37926.35 
  521100    303.75975   -1418.8971    481.60369    432.65267   -573.78567     37926.35 
  521200    305.61654   -1467.9958    470.43595    380.76019   -204.36074     37926.35 
  521300    294.95697   -1455.8833    464.10077     338.4633   -195.06189     37926.35 
  521400    300.77457   -1451.8385     504.6768    409.32123   -973.27773     37926.35 
  521500    316.97978   -1476.2032     466.6508    420.01552   -774.84458     37926.35 
  521600    301.99841   -1467.0092     477.1963    372.18954   -477.21664     37926.35 
  521700    304.06045   -1444.5772     501.9705    428.69546   -592.09219     37926.35 
  521800    298.20576   -1422.1199    490.09849    412.87626   -232.41885     37926.35 
  521900    300.98313   -1498.3368     494.6919     353.7787    -102.1884     37926.35 
  522000    300.80575   -1449.3446    487.32003    394.59905   -186.19465     37926.35 
  522100    296.17707   -1460.6545    486.95658    362.05045    97.079363     37926.35 
  522200    299.37408   -1443.6911    491.04683    397.52255    539.35839     37926.35 
  522300    306.82535   -1416.6947    499.56372    466.64082   -137.62597     37926.35 
  522400    293.34712   -1430.1149    494.41103    387.28152   -431.98808     37926.35 
  522500    318.07751   -1429.5341    485.22365     490.2082   -16.425845     37926.35 
  522600    299.26057   -1446.8066    505.80176    408.65003   -45.669541     37926.35 
  522700    303.61605   -1419.9931    505.66268    454.96753   -99.660167     37926.35 
  522800    304.17732   -1457.2665    500.79168    415.35445    507.74228     37926.35 
  522900    292.99434   -1479.3997    457.53903    299.53374   -388.05359     37926.35 
  523000    308.22863   -1476.0373    491.31165     405.3749   -317.08733     37926.35 
  523100    296.83974    -1436.797    463.87498    365.81502   -551.39066     37926.35 
  523200    299.59818   -1461.5889    472.92564    362.51426   -1060.3658     37926.35 
  523300    300.25638   -1469.4791    487.47651    372.14338   -547.97142     37926.35 
  523400    305.38603   -1463.0026    465.59607    379.87393     -183.785     37926.35 
  523500    296.62244    -1511.431    472.77057    299.09654    4.2105925     37926.35 
  523600    292.60318   -1462.1461    489.49055    346.97473   -437.76797     37926.35 
  523700     290.1332   -1493.8843    474.12957    288.73607   -331.69457     37926.35 
  523800    295.59375   -1466.4921    477.06059    343.68618   -95.612303     37926.35 
  523900    301.33872   -1469.8065    495.38524    384.60603     141.5464     37926.35 
  524000    312.60003   -1461.0061    482.91917    431.72846   -129.36711     37926.35 
  524100    298.35914   -1475.8321    456.23134    325.98871   -518.39793     37926.35 
  524200    303.38565   -1483.5102    479.96157    364.71026    608.58123     37926.35 
  524300    304.60559   -1468.6565    473.32302    378.42727     217.1585     37926.35 
  524400    301.38563   -1488.8737    463.91247    334.27766     70.99523     37926.35 
  524500    298.91215   -1486.7291    493.42189    354.77636   -238.77102     37926.35 
  524600    301.60327   -1516.9501    480.37348    323.64373   -446.38602     37926.35 
  524700    296.54588   -1530.0354    463.70712    271.08337   -246.49402     37926.35 
  524800    300.28675   -1475.7567     488.4232    366.94936   -85.046842     37926.35 
  524900     292.1572   -1484.5313    476.68399    309.77157    466.33432     37926.35 
  525000    303.19675   -1417.8837    504.70967     454.2329     517.9294     37926.35 
  525100    307.50737   -1441.2608    464.95619     410.5431    272.94132     37926.35 
  525200    299.48393     -1448.14    447.65639    350.17864   -37.230603     37926.35 
  525300    299.56067   -1440.2104    492.46745    403.26532    547.80379     37926.35 
  525400    296.87329   -1425.2114    496.86756    410.54446    488.59812     37926.35 
  525500     298.4516   -1486.3654    477.99513    337.63618     450.7098     37926.35 
  525600    294.25008   -1496.0529    502.40908    333.41391    238.45275     37926.35 
  525700    298.79388    -1503.152    469.86882     314.2669    213.16484     37926.35 
  525800    294.99481   -1481.2461    459.71503    308.88542   -212.60709     37926.35 
  525900    304.25407   -1445.9591     497.9749     424.1912    8.3570642     37926.35 
  526000    298.50098   -1452.7182    488.02692    381.53787   -4.6762309     37926.35 
  526100    295.05741   -1482.8881    476.16883    323.97951   -319.38998     37926.35 
  526200    303.76202   -1446.3378    500.88881    424.50726    -97.13229     37926.35 
  526300     303.8433    -1405.167    476.66402    441.81983     33.39923     37926.35 
  526400    301.10752   -1389.7801    451.07058      419.275   -265.83422     37926.35 
  526500    305.87889   -1398.3415    498.99846    480.16028   -171.11091     37926.35 
  526600     299.9044   -1428.8906     468.3163    391.98424   -656.45126     37926.35 
  526700    302.36436   -1420.6475    487.51993     430.5253    15.206222     37926.35 
  526800    300.40676   -1418.8579    492.88062     428.8469   -147.26079     37926.35 
  526900    301.50276   -1424.7628    500.62067    435.62494    109.88643     37926.35 
  527000    306.34428   -1433.8033    512.12093    459.91983    563.87828     37926.35 
  527100    301.53439   -1487.4503     481.5916    354.05099    645.29088     37926.35 
  527200    304.14962   -1463.4005    493.34033     401.6442     15.85775     37926.35 
  527300    294.65504   -1516.0685     473.3643    286.17984   -67.990693     37926.35 
  527400    290.76278   -1478.1515    464.79435    297.97305    262.18938     37926.35 
  527500    302.42581   -1453.5518    473.71065    384.08882    179.16096     37926.35 
  527600     308.5623   -1487.6598    472.58411    376.52964    705.53395     37926.35 
  527700    300.05162   -1474.2334    475.11107    354.10021    30.987624     37926.35 
  527800    299.30704   -1475.9272    474.86461    348.80186   -554.11747     37926.35 
  527900    305.57597   -1504.3342    457.76358    331.56647   -179.28023     37926.35 
  528000     296.9736   -1478.1864    484.47028    345.62465   -815.04852     37926.35 
  528100    301.52292   -1476.1274    487.89762     371.6282   -96.286189     37926.35 
  528200    295.76208   -1476.3941    485.68285    343.16555   -216.38229     37926.35 
  528300    293.45061   -1459.3932    480.63928    344.69829   -648.38912     37926.35 
  528400    309.10928   -1455.2217    482.09861    420.94916   -397.63258     37926.35 
  528500    308.61959   -1462.0989    474.08506    403.84995     234.9217     37926.35 
  528600    303.88687   -1472.5531    493.20329    391.16955     640.9166     37926.35 
  528700    300.79848   -1485.9782    492.33163    362.94426    563.96759     37926.35 
  528800    297.01036     -1481.51    485.71627    343.71276    27.148526     37926.35 
  528900     297.8264    -1463.594    483.91445    363.50724   -273.70721     37926.35 
  529000    313.45234   -1492.0581    489.63262    411.23377   -406.71797     37926.35 
  529100    284.71023   -1468.5667    470.71282    286.17946   -361.40205     37926.35 
  529200    295.38114   -1476.5827    485.67408    341.25014   -965.73095     37926.35 
  529300    294.67343   -1436.8967    507.22071    399.29108   -1025.1595     37926.35 
  529400    291.37755   -1476.8362    487.67709    324.94356   -212.13099     37926.35 
  529500    304.77922   -1484.8321    486.57805    376.28975   -306.24748     37926.35 
  529600    307.64622   -1478.7971    459.32209    367.99889   -147.89649     37926.35 
  529700    305.03489   -1413.9869    466.53214    428.24216   -158.95331     37926.35 
  529800    295.88566   -1497.5878    471.68055    308.52691   -463.99764     37926.35 
  529900    305.26936   -1488.2053    481.49649     370.0455   -62.591544     37926.35 
  530000    294.13043   -1487.6457    484.81613    323.68857    79.806024     37926.35 
  530100    303.17591   -1509.8984    488.88764    346.30212    35.708519     37926.35 
  530200    295.87086   -1518.0219    477.19463    293.54013    283.51232     37926.35 
  530300    303.53481   -1510.3501     491.8954    350.47681   -355.00074     37926.35 
  530400    306.34395   -1441.0075     500.2635     440.8567    218.37369     37926.35 
  530500    301.17584   -1479.3386    503.78779    382.74193   -753.08354     37926.35 
  530600    297.50606   -1484.1149    479.23293    336.86015   -419.84055     37926.35 
  530700    300.84962   -1457.3329    484.84262    384.33114     40.80553     37926.35 
  530800    291.63155   -1477.0718    514.67839    352.85483   -501.78716     37926.35 
  530900    307.03159   -1488.2389    465.64509    362.10815    502.52271     37926.35 
  531000    301.73808   -1493.4926    481.89355    349.22934    792.73228     37926.35 
  531100    296.16384   -1490.1682    489.56005    335.08056   -188.03676     37926.35 
  531200    297.06581   -1483.1881    475.37249    331.94097   -283.47946     37926.35 
  531300    301.54597   -1507.5785    483.45781    335.84126     222.8866     37926.35 
  531400    296.91641   -1507.8672    510.66195     341.8775   -5.2536808     37926.35 
  531500    292.26126   -1522.4693    469.05097     264.6699   -219.84737     37926.35 
  531600    303.92317   -1475.9208    486.54856    381.31083   -395.76434     37926.35 
  531700    297.79139   -1502.6045    486.74272    327.16717   -494.83652     37926.35 
  531800    295.60246   -1488.6789    468.12292    312.60097   -676.43423     37926.35 
  531900    302.83327   -1499.3147    447.58682    314.03979   -635.93943     37926.35 
  532000    305.62943   -1472.3057    491.82266    397.89512   -502.35783     37926.35 
  532100    305.80522   -1441.8148    497.37257    434.72876   -266.90275     37926.35 
  532200    296.52211   -1441.5279    471.55334    367.32989    315.70186     37926.35 
  532300     287.5781   -1441.4694    508.94831    364.44627    488.57996     37926.35 
  532400    304.26599   -1483.0516    485.22033    374.39791   -271.39096     37926.35 
  532500     294.2382   -1467.5346    494.11898    353.58855    367.52087     37926.35 
  532600     297.3585   -1480.5082    481.29683    341.86525     190.3551     37926.35 
  532700    308.22549   -1467.7269      491.732    414.09145   -241.89224     37926.35 
  532800    294.23587   -1465.5947    472.32051    333.71951    210.41373     37926.35 
  532900    301.61745   -1446.0577    495.13954    409.36619   -535.83473     37926.35 
  533000    320.01198   -1452.7853    494.26075    484.71845     -200.637     37926.35 
  533100     296.4337   -1441.4394    499.19929    394.66569   -476.78248     37926.35 
  533200    297.53315   -1444.7672    486.90074    383.99779   -542.02894     37926.35 
  533300    297.78633   -1407.8567    491.15377    426.30313    58.285675     37926.35 
  533400    295.69363   -1408.2419    506.48487    431.81109    8.5106164     37926.35 
  533500    316.11805   -1394.6567    484.35609    515.38091    685.92456     37926.35 
  533600    312.35873   -1420.4833    489.21392    477.45778   -200.37058     37926.35 
  533700    303.60536   -1414.3333    463.25031    418.16673   -461.20829     37926.35 
  533800    301.12993   -1439.4665    509.66089    428.28006   -639.99306     37926.35 
  533900    296.57113   -1422.8169    495.83733      410.546    136.14295     37926.35 
  534000    291.45548   -1452.3327    496.34315     358.4646    213.89506     37926.35 
  534100    300.43147   -1460.7587    491.74577    385.92272   -23.264845     37926.35 
  534200    300.67922    -1472.832    462.12639    345.34737    -515.4367     37926.35 
  534300    295.97567   -1444.3527    478.88361    369.37098   -324.49603     37926.35 
  534400    295.10835   -1470.1243    479.88951    340.69369   -428.60887     37926.35 
  534500    305.40376    -1426.818    477.39694     427.9394    55.231656     37926.35 
  534600    296.57138   -1458.1227    496.95754    376.36151    90.455601     37926.35 
  534700    300.00581   -1493.8913    470.68823    329.81287    191.03242     37926.35 
  534800    291.54652   -1474.2186    473.57478    314.22094   -58.695191     37926.35 
  534900    296.59775   -1462.0942    462.14579    337.69723   -54.508036     37926.35 
  535000    302.88869   -1434.8602      499.617    430.77439   -95.792624     37926.35 
  535100    293.40159   -1457.3457    464.63221    330.51757      47.6413     37926.35 
  535200    302.77566   -1466.1916    480.09882    379.41502   -519.49747     37926.35 
  535300    300.97213   -1474.3745    483.25062    366.25006   -199.76323     37926.35 
  535400    295.46438   -1455.5401    482.37453    359.36861    376.05724     37926.35 
  535500    298.50534   -1480.1367    465.19296     331.3051      532.064     37926.35 
  535600    316.12655   -1493.8459    496.77536     428.6493    522.64421     37926.35 
  535700    310.52295     -1481.15    482.72217    402.01995    973.45726     37926.35 
  535800    298.49214    -1453.437     509.2048    401.95707    522.67566     37926.35 
  535900    298.57379   -1508.3498    486.42943     324.6372    466.94777     37926.35 
  536000    289.89422   -1489.3262    484.89898    302.98574     231.0615     37926.35 
  536100    298.91278   -1459.1384    457.61842    346.56635   -373.27032     37926.35 
  536200    295.07009   -1478.6256    482.64639    334.77671    -30.54729     37926.35 
  536300    298.17869   -1443.6921    500.96307    402.04665    294.87856     37926.35 
  536400    304.72945   -1465.2314    477.89253     386.9805    560.47623     37926.35 
  536500    298.08519    -1430.881    499.76261    413.23555    187.51956     37926.35 
  536600     308.6131   -1443.7753    477.77989    425.83907    173.02121     37926.35 
  536700    297.49511   -1467.2945    482.21263    356.61082   -236.46828     37926.35 
  536800    296.74652   -1504.4413    473.52649    307.40173   -484.33164     37926.35 
  536900    316.61653   -1476.5309    499.02317    450.42196   -244.47592     37926.35 
  537000     302.3688   -1465.1775    462.47089    360.96625    276.11821     37926.35 
  537100    302.40696   -1457.8604    474.10051    380.08513    498.95066     37926.35 
  537200    302.08274   -1429.6793    512.13291    444.83637    74.214344     37926.35 
  537300    295.44187   -1424.7127    487.55491    395.27493    310.09794     37926.35 
  537400    305.45717   -1442.7191    506.20969     441.0919    45.072586     37926.35 
  537500    301.25392   -1466.2208    486.90313    379.32716   -341.32969     37926.35 
  537600    299.01574    -1461.398    481.04693    368.19958   -181.53386     37926.35 
  537700    308.71738   -1443.1269    520.06631    469.24412    112.24658     37926.35 
  537800    309.34073   -1467.2541    495.74975    423.61171    606.14281     37926.35 
  537900    295.97564   -1449.3386    465.30076    350.80216    827.12569     37926.35 
  538000    312.80735   -1493.8453    477.43194    394.33702    386.54604     37926.35 
  538100    295.06371   -1478.7233    504.92424    356.92812    928.11267     37926.35 
  538200    303.50723   -1475.1127    485.60023    379.29469    662.89319     37926.35 
  538300    290.75001   -1441.3926    511.93439    381.81436    531.01009     37926.35 
  538400    299.88668   -1433.1685    495.46972    414.77985    311.83789     37926.35 
  538500     302.2942   -1434.1376    491.40681     420.6057    -247.5302     37926.35 
  538600    304.90149   -1426.4322    493.34649    442.00951   -680.96611     37926.35 
  538700    298.12498   -1466.0548    479.80756    358.28616   -556.46916     37926.35 
  538800    289.38816   -1419.4832    493.74755    379.39501   -323.59892     37926.35 
  538900     296.7418   -1461.2321    544.45841    421.52158   -704.96612     37926.35 
  539000    309.23186   -1440.4288    482.38077    436.57701    242.90357     37926.35 
  539100    302.27585   -1449.8498    469.74443    383.14837    469.96054     37926.35 
  539200    296.82787   -1481.8486    520.18112    377.01601    57.425477     37926.35 
  539300    303.45641   -1458.1575    489.02728    399.44775   -77.772417     37926.35 
  539400    298.89143   -1484.6806    455.79602    319.10551    156.32101     37926.35 
  539500     307.1876   -1446.2578    480.97621    420.12396    211.32819     37926.35 
  539600    303.70188    -1479.421    489.41783    379.68191   -62.094432     37926.35 
  539700     297.1377   -1435.1862    506.06703    410.96167   -50.898963     37926.35 
  539800    300.17803   -1429.1725    466.98523    391.60538    141.48958     37926.35 
  539900    305.21887   -1475.0187    499.89457    401.40245   -60.292319     37926.35 
  540000    304.98286   -1485.5384    495.07494    384.99871     144.5002     37926.35 
  540100    302.50905   -1448.6471    496.18183    411.84009    246.78098     37926.35 
  540200    298.05287   -1474.1889    501.86183    371.88111    265.30985     37926.35 
  540300    302.09368   -1472.0488    478.22041    368.60371   -345.54045     37926.35 
  540400    301.12824   -1477.6004    485.30517    365.78279    -272.3332     37926.35 
  540500    296.42362   -1490.3173    481.04073    327.58376   -347.12974     37926.35 
  540600    302.02465    -1539.697    489.06318    311.48692   -27.004903     37926.35 
  540700    293.59545   -1523.6577     467.7325    268.18019    562.55699     37926.35 
  540800    302.56503   -1492.6234    504.54744    376.48188    455.64647     37926.35 
  540900    297.70087   -1514.0488    476.59833    305.17026    394.02763     37926.35 
  541000    298.46128   -1497.5184    471.16543    319.69719    185.81362     37926.35 
  541100    302.64623   -1477.7244    512.75761    399.95724   -388.16587     37926.35 
  541200    301.91978   -1479.8522    459.87161    341.66717   -212.33048     37926.35 
  541300    296.85294   -1497.9383    488.96061    329.81884    580.34557     37926.35 
  541400    291.00073   -1468.9517    476.63813    320.08974   -50.985214     37926.35 
  541500    298.51674   -1493.8877    467.09325    319.50583    92.917139     37926.35 
  541600    296.80407    -1515.672    489.71002     312.6142    8.1591117     37926.35 
  541700    293.87776   -1462.3033    482.02138    345.09668   -461.98266     37926.35 
  541800    300.91313   -1457.6972    519.02132    418.43194   -72.174743     37926.35 
  541900    296.62118   -1485.7629     479.0739    331.06229    -260.9695     37926.35 
  542000    297.27302    -1458.361    499.89538    382.22551    148.90543     37926.35 
  542100    301.21797   -1453.7725     491.8999    396.61011    324.35539     37926.35 
  542200    293.60352   -1485.2379    485.28896    324.19281   -162.92193     37926.35 
  542300    300.52354   -1510.5942    496.89941    341.65608   -270.20294     37926.35 
  542400    307.47861   -1489.3743    470.37947    367.72312   -243.96628     37926.35 
  542500    299.76404    -1535.912    489.56061     305.5741   -299.23078     37926.35 
  542600    303.43369   -1484.3787    506.27381    390.37063   -135.41279     37926.35 
  542700    302.76138   -1436.0722    488.35516    417.72637   -427.85599     37926.35 
  542800    297.51828   -1415.6259    532.59371    458.76496   -255.09595     37926.35 
  542900    302.33826   -1428.9358    456.40297    391.00228   -73.776615     37926.35 
  543000    309.15262   -1405.1436    516.07573    505.19979    144.67976     37926.35 
  543100    291.44593   -1402.4431     508.5756    420.54363   -108.29702     37926.35 
  543200    299.39542   -1478.8071    496.29186     367.7478    124.82266     37926.35 
  543300    305.46394   -1471.9097    499.26102    404.98316    -1.589834     37926.35 
  543400     294.8799   -1486.1056    493.02591     336.8185   -2.4377619     37926.35 
  543500    299.25259   -1456.6033    523.67131    416.68692   -123.04886     37926.35 
  543600    312.35891   -1471.4567    496.66359    433.93483   -3.6223812     37926.35 
  543700    309.59901   -1491.7495    497.09165    401.62306   -28.203897     37926.35 
  543800    301.25787   -1492.9671    474.22164    339.91717   -150.49017     37926.35 
  543900    295.31931   -1490.8739    515.11889    356.12489   -764.12215     37926.35 
  544000    303.96128   -1467.4664    482.00122    385.38977   -362.62501     37926.35 
  544100     299.3818   -1506.5302    498.48814    342.15955   -329.83566     37926.35 
  544200    291.59413   -1458.3136    509.58202    366.34791   -73.197415     37926.35 
  544300    297.59105   -1473.9003    487.13188    355.35701    77.545215     37926.35 
  544400    292.25287   -1471.1811    484.85209    331.72139    129.45064     37926.35 
  544500    308.68984   -1451.8355     493.4695    433.81455    369.00994     37926.35 
  544600    299.46577   -1463.7512    520.38606    407.21516   -133.47886     37926.35 
  544700    307.63993   -1466.8473    495.71048    416.30866    368.12295     37926.35 
  544800    303.14265   -1493.9241    501.85815    375.09701    394.18649     37926.35 
  544900    306.88868    -1497.747    506.51756    392.82795    905.21052     37926.35 
  545000     298.1609   -1481.7377    484.41113    347.36878    570.87377     37926.35 
  545100    301.75067    -1446.022    520.77366    435.63682   -88.619779     37926.35 
  545200    296.75898   -1468.0805    478.03297    348.32521   -459.79639     37926.35 
  545300    299.38506   -1453.3709    491.34494    388.19033   -59.035052     37926.35 
  545400    292.02525   -1447.5037    517.82112    387.34121   -35.964236     37926.35 
  545500     294.1981   -1487.4937    510.75145    350.08105     456.3155     37926.35 
  545600    295.38584   -1494.7426     494.2024    331.63983    388.94243     37926.35 
  545700    313.93902   -1501.5928    516.66364    430.92501    50.571483     37926.35 
  545800    299.95436    -1466.253    485.48194    372.01281   -60.182492     37926.35 
  545900    314.30019   -1462.5634    485.90684    440.82651    271.04513     37926.35 
  546000    294.84631   -1478.4071    500.31907    351.65868   -68.277953     37926.35 
  546100    289.63532   -1476.2012    492.80525    322.84938   -243.76475     37926.35 
  546200    294.88426   -1480.2359    501.05038    350.73236    664.54596     37926.35 
  546300     301.8784   -1466.6967    477.73109    372.49561    45.332089     37926.35 
  546400     289.5166   -1467.4463    496.92758    335.19119   -230.44992     37926.35 
  546500    300.32917   -1455.5151    503.34221    402.30131   -103.90807     37926.35 
  546600    303.30754   -1440.1708    476.19104     403.9268    299.05365     37926.35 
  546700    299.88134   -1433.2053    484.40312     403.6523    100.04281     37926.35 
  546800    305.60962   -1463.7703    502.88977    417.40834    334.65553     37926.35 
  546900    297.96604   -1463.4275    491.13548    371.52455    486.59852     37926.35 
  547000    306.86654   -1486.3488    479.76371    377.37241    303.12699     37926.35 
  547100    293.22012   -1462.0908    509.39137    369.71322   -99.876803     37926.35 
  547200    289.70235   -1483.2493    481.61954     304.9179    8.2849531     37926.35 
  547300    287.01513   -1427.4324    511.23154    378.22755    63.641185     37926.35 
  547400     296.7379   -1434.1265    508.27563    412.42687   -77.481819     37926.35 
  547500    297.29672   -1482.3795    508.70478     367.1233   -179.88078     37926.35 
  547600    304.35255   -1449.4833    510.03758     433.1738   -252.06487     37926.35 
  547700    301.26947   -1501.3856    477.40568    334.73507   -992.20158     37926.35 
  547800    303.22762   -1464.8767     486.5403    389.20975   -914.87341     37926.35 
  547900    298.43014   -1476.5957    485.66459    354.97858   -1187.8828     37926.35 
  548000    308.72704   -1449.2307    475.87112    418.98876   -983.52126     37926.35 
  548100    308.86445   -1433.8955    498.70639    457.77893   -656.60235     37926.35 
  548200    286.73769   -1413.1553    483.31675    363.33862   -444.03144     37926.35 
  548300    289.02208   -1477.9342    480.71084    306.25633   -673.64404     37926.35 
  548400    308.19757   -1479.0986    505.53377    416.39564   -316.12556     37926.35 
  548500    311.84428   -1495.7846    476.67891     387.3013    117.12511     37926.35 
  548600    295.59841   -1466.2495     485.8718    352.76095    490.51039     37926.35 
  548700    299.63512   -1412.1087    493.13982    432.37523    630.87044     37926.35 
  548800     293.4646   -1494.3664    467.39839    296.54724    -176.2883     37926.35 
  548900    303.00362   -1475.6957    489.59429    380.43448   -407.01053     37926.35 
  549000    300.31344   -1453.8292    483.49154    384.06564   -83.152807     37926.35 
  549100    295.89224   -1487.0207    470.52134    317.96449   -40.186564     37926.35 
  549200    296.72536   -1470.3369    467.93377    335.81799   -450.81403     37926.35 
  549300    304.48633   -1471.3394     482.3509    384.23442   -120.06891     37926.35 
  549400    297.10515   -1445.6732    480.07579    374.33662    26.357068     37926.35 
  549500    305.62648   -1413.5376    507.38273    472.21008    641.31198     37926.35 
  549600    287.81401   -1448.8941    480.78392    329.92108    204.47582     37926.35 
  549700    299.99648   -1406.6212     489.4846    435.83721   -140.45037     37926.35 
  549800    301.55095   -1445.0427    491.28472    406.22648   -292.92848     37926.35 
  549900    309.19179   -1453.8222    447.44764    388.06974   -463.75153     37926.35 
  550000    309.11899   -1444.0395    464.65905    414.73552   -434.78278     37926.35 
  550100    309.09462   -1387.2849    478.96442    485.68557   -1030.3334     37926.35 
  550200    305.18825   -1409.9125    485.37184    451.84789   -675.77087     37926.35 
  550300    298.81658   -1402.3643    474.45343    419.74163   -355.81364     37926.35 
  550400    308.21299   -1414.9801    482.38041     457.4303    -202.8396     37926.35 
  550500    297.03952    -1431.365    499.08298    407.35597   -106.52653     37926.35 
  550600    308.47312   -1432.8454    492.25879    450.61648   -187.24026     37926.35 
  550700    289.50118   -1400.9231     509.6202    414.33748   -476.01287     37926.35 
  550800    295.13445   -1440.6056    472.03222    362.47287   -522.71423     37926.35 
  550900    297.99435   -1419.0706    513.38901     438.2627    268.31005     37926.35 
  551000    293.60449     -1447.93    474.65991    350.87603    32.903209     37926.35 
  551100    300.25186   -1380.9112    503.38208    476.59645   -150.74668     37926.35 
  551200    311.58562   -1451.3472     483.8947    437.78797    86.906064     37926.35 
  551300    295.89794   -1444.3034    485.09972    375.28581   -584.15789     37926.35 
  551400     304.6612   -1458.5726    467.03769    382.47663   -89.307435     37926.35 
  551500     299.2911   -1432.5177    484.62406    401.89895     -219.026     37926.35 
  551600    309.21875   -1396.0516    469.31011    467.82442   -159.63561     37926.35 
  551700    296.83315   -1428.2692    485.58359     396.0217    268.51948     37926.35 
  551800    301.74246    -1426.544    505.98768    440.29176    78.336496     37926.35 
  551900    309.46711   -1420.7993     477.1971    452.08383   -2.8239888     37926.35 
  552000    299.43006   -1396.8544    489.78056    443.34543   -186.33884     37926.35 
  552100    303.94969   -1402.5438    486.22123    454.48005    67.575697     37926.35 
  552200    305.38848   -1442.8778    486.72223    421.13595    181.27701     37926.35 
  552300    308.14738   -1493.5826    468.67604    364.82754    608.80413     37926.35 
  552400    296.17056   -1444.8571    480.22894    371.09091    518.99023     37926.35 
  552500    336.01327   -1479.1917    507.98674    544.20336    799.26732     37926.35 
  552600    292.10855    -1502.379    469.07686    284.09735     639.8927     37926.35 
  552700    298.60559    -1451.992    486.43307    381.14204   -73.379202     37926.35 
  552800    302.43586   -1475.9607    476.45998    364.47464   -24.544511     37926.35 
  552900    309.38654   -1471.1071    470.81218    395.02775     145.6861     37926.35 
  553000    294.06845   -1457.7221    501.64569    370.16215    569.73341     37926.35 
  553100    297.31211   -1448.9713    468.49683    360.39292    202.16965     37926.35 
  553200    304.76932   -1408.3164    506.24856    472.43128    949.55792     37926.35 
  553300    298.07902   -1439.2897    482.23736     387.2738    361.19436     37926.35 
  553400    310.47642    -1446.726    457.18708    410.69903    455.59205     37926.35 
  553500    300.70219   -1430.8121     489.1229    414.46735    130.30699     37926.35 
  553600    306.58192   -1366.3628    503.64663    519.95777    321.20332     37926.35 
  553700    298.36802   -1401.0392    456.60268    401.19295   -427.74968     37926.35 
  553800    308.21127   -1388.0281    517.35992    519.35406   -167.90402     37926.35 
  553900     299.9277   -1405.8421    470.14576    416.96728    107.25317     37926.35 
  554000    294.30088   -1397.8685    526.99406    456.41241   -23.595056     37926.35 
  554100    308.89181   -1412.0372    490.90844    471.96266    333.52913     37926.35 
  554200    298.10559   -1458.4399    488.03907    374.04507    580.34038     37926.35 
  554300    301.45915   -1463.9431      461.505    357.13229    798.95171     37926.35 
  554400     309.4733   -1462.9841    502.16867     434.8985    881.04066     37926.35 
  554500    303.50991   -1476.3738    459.51802     351.9635    782.41779     37926.35 
  554600     296.9845   -1450.5395    475.24141     364.0918    473.65563     37926.35 
  554700    304.20944   -1470.7956    516.01337    417.19187    815.90598     37926.35 
  554800    297.45084   -1459.5601    462.88081    344.81374    1052.8756     37926.35 
  554900    297.53266   -1461.5424    490.80043    371.12011    336.34669     37926.35 
  555000    297.61389   -1463.2758    489.78862    368.74119    42.295211     37926.35 
  555100    300.53359   -1457.2151    465.09402    363.27504   -59.071354     37926.35 
  555200    302.79178   -1478.3702    472.34701    359.55733   -332.55249     37926.35 
  555300    291.83541   -1513.4765    471.61379    274.30494   -75.043815     37926.35 
  555400    297.03657   -1489.9031    493.84146    343.56304    326.24073     37926.35 
  555500    293.83605    -1479.366     491.9289    337.75343   -436.25434     37926.35 
  555600    298.69459   -1457.7213    494.54188    383.92295   -23.052502     37926.35 
  555700     304.4902   -1444.3455    475.56842    404.46327     241.3962     37926.35 
  555800    313.64221   -1450.2323    461.48555    425.76878    282.60348     37926.35 
  555900    291.07803    -1485.537    466.86069    294.07561    206.64959     37926.35 
  556000    293.64974   -1481.6184    485.59981    328.33159    518.04318     37926.35 
  556100    291.87144   -1489.2936     477.8908    304.92732     395.4501     37926.35 
  556200    294.37645   -1495.8894    480.44832    312.18662    8.5794223     37926.35 
  556300    306.26699   -1482.2642    499.55019    398.53958    449.48785     37926.35 
  556400    298.78512   -1499.5702    480.32403    328.26451    276.26822     37926.35 
  556500    299.97191   -1488.3225    487.79588    352.33635    301.15513     37926.35 
  556600     304.5033   -1497.2768     485.1369     361.1595    459.36737     37926.35 
  556700    295.77108   -1483.4817    477.86871    328.30443    580.77418     37926.35 
  556800    294.36178   -1476.1527    490.04986    341.45863   -3.2656448     37926.35 
  556900    305.54571   -1507.8984    463.46615    333.56835   -108.71036     37926.35 
  557000    304.51888   -1491.3018    454.37608    336.44398    466.61934     37926.35 
  557100    302.41345   -1514.5026     461.8605    311.23215    623.85525     37926.35 
  557200      295.934   -1532.2596    463.74652    266.13914    637.29671     37926.35 
  557300    295.17805   -1498.9701    496.73138    329.00412    680.09743     37926.35 
  557400    295.78478   -1472.5048    457.20179    318.67613   -30.175354     37926.35 
  557500    301.53314   -1524.5219    482.72513    318.10731    110.04539     37926.35 
  557600    306.09906   -1510.0443    460.76428    331.21625    159.07705     37926.35 
  557700    293.48145   -1468.5656    487.43859    342.46427    226.45943     37926.35 
  557800    306.56984   -1492.1129    476.74611     367.2527    115.29606     37926.35 
  557900    293.91038   -1506.0054    452.44996    271.97022   -30.376713     37926.35 
  558000    296.85482   -1478.8743    502.67074    362.60143    516.13262     37926.35 
  558100    306.34704   -1509.1827    480.08959     352.5215     193.4207     37926.35 
  558200     296.3164   -1502.6256    456.38658    290.13775   -197.24333     37926.35 
  558300    312.15862   -1478.2942    467.17789    396.70829   -427.29372     37926.35 
  558400    300.06739   -1505.7573    468.74391    316.28023   -173.77092     37926.35 
  558500    309.03992     -1480.94    457.37514    370.19458   -482.63589     37926.35 
  558600    303.64888   -1461.3973    471.00038    379.04904    420.36993     37926.35 
  558700    295.73622   -1488.4497    457.84666    303.15717    344.10231     37926.35 
  558800    307.99878   -1477.3802    483.57465    395.25832     433.7791     37926.35 
  558900    286.74929   -1528.1226    469.20548    234.31231      406.041     37926.35 
  559000    300.36583   -1521.7857    468.04352    300.89737    105.73779     37926.35 
  559100    307.62398   -1514.8674    475.94939    348.45553     23.39573     37926.35 
  559200    294.02438   -1507.7399    484.43436    302.73426   -184.97624     37926.35 
  559300    299.02162   -1504.6501    465.90347    309.83064   -63.094141     37926.35 
  559400    306.30029   -1445.5328    475.67698    411.54796   -35.395987     37926.35 
  559500     294.4606   -1445.8044    483.63991    365.84268   -371.73489     37926.35 
  559600    302.28665   -1502.7782    460.17868    320.70284   -45.671191     37926.35 
  559700    302.52976   -1469.0827    447.55388    342.87001   -544.96501     37926.35 
  559800    302.86178   -1519.4623    456.95086    303.38476   -41.467687     37926.35 
  559900    297.77463   -1476.6548    457.69156    323.99009   -92.848787     37926.35 
  560000    297.11569   -1439.2473    511.95456    412.68882   -497.36672     37926.35 
  560100     306.1588   -1449.1778    495.66372    427.25159    120.21569     37926.35 
  560200    291.54408   -1482.5502    479.48722    311.79084   -207.04442     37926.35 
  560300     297.5863   -1455.3905    482.91682    369.63031    418.44597     37926.35 
  560400    298.73353   -1516.7657    472.08513    302.59741    341.32411     37926.35 
  560500    287.61812   -1451.0554    489.60965    335.70206   -186.89008     37926.35 
  560600    297.64819     -1473.06    472.13858    341.46166   -25.460698     37926.35 
  560700    303.49622   -1466.9687    483.86186    385.65067    209.68256     37926.35 
  560800    295.28692   -1455.6261    476.83772    352.94553   -610.34442     37926.35 
  560900     304.4226   -1420.7627     492.7383    444.91105   -279.92721     37926.35 
  561000    296.66926   -1428.9815    474.64421    383.63086   -373.12524     37926.35 
  561100    297.43192   -1430.8196    521.26771    431.85589   -922.11733     37926.35 
  561200    304.54387   -1444.9788    472.93674     401.4403    317.45834     37926.35 
  561300    289.68522   -1448.5318    482.56243    340.50103   -34.291835     37926.35 
  561400    306.97652   -1452.2387    492.53753     424.7524    377.60692     37926.35 
  561500    299.63197   -1457.5583    483.76708    377.53867   -600.44148     37926.35 
  561600    304.52628   -1426.3478    490.14185     437.1971    43.062887     37926.35 
  561700    302.94052   -1478.5134    486.41122    374.14916    177.47989     37926.35 
  561800    288.91485   -1473.5214    476.38271    305.85739   -368.13227     37926.35 
  561900    305.85842   -1465.5164    474.12702    388.02157   -167.24064     37926.35 
  562000    289.87514   -1469.7687    492.24143    329.79967    371.87839     37926.35 
  562100    300.74849   -1492.9861    466.08641    329.46569    353.48487     37926.35 
  562200    296.82599   -1479.4006    492.61932     351.8937    468.70675     37926.35 
  562300    299.96879   -1495.5418    458.64933    315.95642    203.95171     37926.35 
  562400    298.40534   -1449.6732      503.064    399.18865    438.15163     37926.35 
  562500    295.41746   -1518.1392     454.7285     268.9119    -21.15302     37926.35 
  562600    308.69923   -1495.1851    477.02511    374.06291   -339.19006     37926.35 
  562700     291.7371    -1458.516    466.55499    323.76325   -17.954436     37926.35 
  562800    299.39626   -1457.8369    492.13117    384.56108     183.0001     37926.35 
  562900    306.09842    -1482.607    470.68621    368.57258   -252.16323     37926.35 
  563000    296.08691   -1461.7926    488.10238    361.65157    487.71539     37926.35 
  563100    301.76254   -1460.8148    489.17979    389.30364    81.144951     37926.35 
  563200    306.35431   -1494.3177    490.93003     378.2597   -200.31481     37926.35 
  563300    308.57351    -1477.482    492.40828     406.5822    -66.69611     37926.35 
  563400    300.30333   -1456.1162    495.74042    393.98193   -308.84302     37926.35 
  563500    303.62486    -1417.713    483.69604    435.32068   -577.51424     37926.35 
  563600    297.56506   -1414.6926     470.2778    397.59342   -1053.8319     37926.35 
  563700    305.44076   -1437.0391    498.50935    438.99753   -993.02115     37926.35 
  563800    303.28873   -1476.6535    488.84376    380.01199   -918.01034     37926.35 
  563900    296.33297   -1477.3097    479.10245    338.24428   -1169.6194     37926.35 
  564000     295.9457   -1466.9466    500.39364      368.152     -475.867     37926.35 
  564100     299.9426   -1492.2725    478.84009    339.29841   -4.3662705     37926.35 
  564200    306.99708   -1488.1052    508.80352    405.24462   -199.91228     37926.35 
  564300    292.06796   -1489.6032    471.06209    298.67529   -561.52447     37926.35 
  564400    299.68763   -1495.6185    443.43313    299.39557   -516.76423     37926.35 
  564500    305.93613   -1489.9271    481.52202    371.35633   -771.05076     37926.35 
  564600    310.70601   -1459.9481    474.50461    415.82993   -134.10388     37926.35 
  564700     298.1603   -1545.4501    469.58952    268.83212   -151.60416     37926.35 
  564800     306.6675    -1541.889    465.83727    307.00814   -212.52981     37926.35 
  564900     294.7855   -1524.9931    471.91823    276.39763    -8.087612     37926.35 
  565000     298.3107   -1521.4958    485.42299    309.29822   -271.18814     37926.35 
  565100    297.71568   -1481.6307    483.65321    344.71001   -596.33079     37926.35 
  565200    295.06723   -1448.2517    519.02072    401.51208   -38.010669     37926.35 
  565300    291.31319   -1499.3602     490.1353     304.5876   -101.50856     37926.35 
  565400    299.17128   -1476.5127    478.36027    351.09975   -242.61773     37926.35 
  565500    300.91251   -1502.7582    487.88934    342.23624   -22.119515     37926.35 
  565600     294.4642   -1482.2308    472.06487     317.8575    217.73877     37926.35 
  565700    309.96384   -1486.3499    485.56958    397.14589    324.82612     37926.35 
  565800    299.48508   -1477.9082    481.85096    354.61018     78.92193     37926.35 
  565900    300.88535   -1471.7632    510.83951    396.05888    413.26998     37926.35 
  566000    312.47853   -1510.8678    485.20753    383.60713    149.93061     37926.35 
  566100    285.74446   -1461.6592    475.47006    302.50853   -88.190858     37926.35 
  566200    304.79693   -1496.2759    484.60206    362.94983   -468.75647     37926.35 
  566300    304.09573   -1483.0297     505.6915    394.12311   -9.4394963     37926.35 
  566400     288.0536   -1462.6153    526.28097    362.77752   -126.19522     37926.35 
  566500    302.02848   -1462.3578    512.95796    412.73821    274.72862     37926.35 
  566600    294.04044   -1441.8406    512.19187    396.46354    300.28631     37926.35 
  566700    303.77394   -1493.8822    510.72356    386.85139    644.15548     37926.35 
  566800    303.42187    -1501.499    490.48701    357.41024    332.97665     37926.35 
  566900    299.94978   -1495.5317    471.30209    328.53362   -85.703915     37926.35 
  567000    302.05869   -1483.7775    457.22282    335.71963   -421.52791     37926.35 
  567100    303.49051   -1472.8114    465.49079    361.41112   -11.863631     37926.35 
  567200    302.66857   -1461.3926    510.21324    413.84554   -197.65863     37926.35 
  567300    300.88664   -1500.1215    492.07052    348.93745    738.88302     37926.35 
  567400    304.62922   -1514.2509    498.74023    358.35663    573.03172     37926.35 
  567500    299.84446   -1517.9029    482.39346    316.77871    452.88746     37926.35 
  567600     296.6657   -1522.2205    459.63642    275.36805   -52.836584     37926.35 
  567700    301.38117   -1483.7255    478.22173    353.71492   -153.79022     37926.35 
  567800    295.53948   -1495.0459    492.27007    330.09705    461.74925     37926.35 
  567900    308.28964   -1525.2078    491.04478    356.21264    295.63287     37926.35 
  568000     292.8949   -1509.0205    475.65391    287.57936    520.98933     37926.35 
  568100    307.32863   -1495.6198    517.96564    408.38737     490.4746     37926.35 
  568200    313.61057   -1470.8964     478.3237    421.80019    186.04672     37926.35 
  568300    312.39684   -1457.1374    464.30073    416.06229    59.151281     37926.35 
  568400    301.03819   -1504.7423     503.9159    356.84546    332.35388     37926.35 
  568500    305.85338   -1473.1637    491.76864    397.99316   -66.077976     37926.35 
  568600    291.06306    -1477.376      479.546    314.85441    1.7598631     37926.35 
  568700    300.90528   -1479.6099    507.87428    385.33681    464.69218     37926.35 
  568800    292.38283   -1508.5804    482.55541    292.61151    257.14632     37926.35 
  568900    318.35722   -1530.0078    482.81705     388.5894    395.46184     37926.35 
  569000    296.54233   -1488.8645    504.74445    353.27567   -86.759975     37926.35 
  569100    308.32611   -1459.7188    504.82405    435.64539    227.82777     37926.35 
  569200    303.53372    -1452.755    510.40635    426.57802   -97.592846     37926.35 
  569300    298.41067   -1466.0134    467.59872    347.40719    606.66575     37926.35 
  569400     302.8646   -1492.3642    506.25377    379.79851    841.32452     37926.35 
  569500     309.2311   -1495.7681    498.13334    396.98689    615.42142     37926.35 
  569600    300.15912   -1497.6149    495.74512    351.83752    174.56517     37926.35 
  569700    291.57788   -1516.3173     487.7976    286.48655   -46.856553     37926.35 
  569800    299.15964   -1497.7548    480.97778    332.42263   -49.819289     37926.35 
  569900     297.8556   -1495.6646    517.61988     365.2738   -46.963537     37926.35 
  570000    297.82813    -1506.668    494.56346    331.09009   -451.47689     37926.35 
  570100    296.29262   -1473.3943    497.52135    360.39654    -212.2369     37926.35 
  570200    297.94738   -1462.8414    500.15654    381.04762   -489.57696     37926.35 
  570300    300.76312   -1424.0143    501.73063    434.14766    203.69529     37926.35 
  570400    301.12302   -1405.4344    499.96366    452.58374    398.70004     37926.35 
  570500    303.38978   -1426.6187     498.2598    439.91853    650.67421     37926.35 
  570600    305.02398   -1432.6735    523.64742    466.62163    1111.0636     37926.35 
  570700    305.04331   -1450.7077    478.67949    403.70665     303.6252     37926.35 
  570800    288.77124   -1426.4633    517.51218    393.39726     7.159929     37926.35 
  570900    310.97724   -1463.1733    498.31912    437.64248    300.92057     37926.35 
  571000    310.90049   -1483.2883    485.01872    403.88093    294.93461     37926.35 
  571100     301.9149   -1486.1282    501.75569    377.25334    608.89235     37926.35 
  571200     287.7755   -1487.9764    497.80658    307.68777    386.51811     37926.35 
  571300    291.49287   -1480.5054    472.09189     306.2093     201.9391     37926.35 
  571400     299.1106   -1443.1902    477.07092    382.85923    468.15289     37926.35 
  571500    312.92728   -1470.1445    474.45075    415.59752    729.29279     37926.35 
  571600    304.32666   -1449.4941     505.9062    428.91486    483.61732     37926.35 
  571700     298.1763   -1446.8204    495.75774    393.70216   -263.88336     37926.35 
  571800     297.8942   -1493.4467     495.6614    345.70727    472.47681     37926.35 
  571900    307.56749   -1469.3886    504.15155     421.8818    541.97233     37926.35 
  572000    305.17406   -1531.7128    479.25659    323.86829    520.21623     37926.35 
  572100    290.43192   -1487.0493    481.53024    304.31891   -122.02904     37926.35 
  572200    303.19329   -1475.4202    482.38375    374.35488   -470.86347     37926.35 
  572300     301.0802   -1494.7556    465.10891    328.21468    4.9276007     37926.35 
  572400     298.2414   -1478.3728    469.55532    336.24097    -104.4637     37926.35 
  572500    305.42863   -1441.5392    504.82496    440.75838    9.9758392     37926.35 
  572600    296.79511   -1462.5909    503.26598    379.21084   -351.23662     37926.35 
  572700    291.68496   -1488.5056    474.97429    301.95783    51.040649     37926.35 
  572800    298.49688   -1475.7311     492.1578    362.63736   -110.18234     37926.35 
  572900    310.36323    -1497.696    482.57278    384.60422     332.0794     37926.35 
  573000    295.66147   -1500.4551    524.54188    357.50983    876.98826     37926.35 
  573100    296.62823   -1491.3076    499.19224    345.66778    802.14473     37926.35 
  573200    301.94605    -1533.079    496.61038    325.29768    626.54623     37926.35 
  573300     305.4727   -1543.4931    484.98293    319.16123     160.7494     37926.35 
  573400    295.60441   -1492.1087    476.42758    317.48462    175.56336     37926.35 
  573500    299.67581   -1494.4359    480.04095    337.13266    603.15251     37926.35 
  573600    294.89175   -1468.1773    490.50171    352.27606    432.18259     37926.35 
  573700    295.57696   -1491.1338    492.98282    334.89093    283.17244     37926.35 
  573800    303.55319     -1494.62    490.53764    364.93208    184.67555     37926.35 
  573900    308.31789   -1469.6758    459.65296    380.48025    306.11443     37926.35 
  574000    287.47823   -1488.8205    486.84614    294.54259    516.49605     37926.35 
  574100    291.28358   -1506.0919    481.01779    288.60485    71.829037     37926.35 
  574200    291.12684   -1515.5643    484.00545    281.41314    -442.5012     37926.35 
  574300    301.48539   -1493.3222     477.2723    343.63884   -604.90327     37926.35 
  574400    317.40326    -1491.584    473.46147    413.35525  0.026418978     37926.35 
  574500    307.74648   -1518.9858    465.06517    334.00544    -64.33949     37926.35 
  574600    305.30444   -1520.3046    487.64596    344.25393    327.17298     37926.35 
  574700    293.98146     -1473.46    517.71525    370.10156    455.69942     37926.35 
  574800     287.9312   -1500.8965    492.63129    290.29456    20.302546     37926.35 
  574900     287.6457   -1454.1247    483.47204    326.61959    8.3921385     37926.35 
  575000    303.40584   -1484.2386     471.5903    355.70158    126.09745     37926.35 
  575100      294.366    -1491.708    510.71499    346.58749   -362.79348     37926.35 
  575200    291.67442   -1510.5756    470.28209    275.14808     -248.902     37926.35 
  575300    312.41458   -1480.3179    498.05598    426.71706   -30.242059     37926.35 
  575400    304.01288   -1492.9742    478.02016    356.13362   -332.81255     37926.35 
  575500    302.06319   -1493.0095    507.31648    376.60159    655.77034     37926.35 
  575600    304.14236   -1502.3332    493.93145    363.26986    143.09717     37926.35 
  575700    308.98534   -1558.9456    495.74413    330.31181    768.87465     37926.35 
  575800    301.49082   -1496.3303    502.61022    365.99311    557.62989     37926.35 
  575900    308.06411   -1499.4912     498.6732    388.54048    629.33261     37926.35 
  576000    294.17667   -1517.4361    474.72789    284.01843    166.19447     37926.35 
  576100    308.98174   -1483.5626    485.96124    395.89569   -457.95386     37926.35 
  576200    287.57818   -1500.1057    502.94209    299.80408   -100.01012     37926.35 
  576300    296.29143    -1477.202    487.34338    346.40551    -588.9908     37926.35 
  576400    296.51453    -1514.915     510.0382     332.3935   -115.99939     37926.35 
  576500    305.01214     -1472.06    493.06074    396.59501    288.54673     37926.35 
  576600    303.17244   -1472.7737    517.50958    412.03312    502.62702     37926.35 
  576700    293.74171   -1490.7794    496.73229    330.71786    260.75403     37926.35 
  576800    296.51615   -1446.2235      465.857    356.91119    102.85766     37926.35 
  576900    303.77128   -1537.2386    482.77939    315.53884    261.73359     37926.35 
  577000    305.54178   -1532.9066    494.03539    339.11176    -17.29288     37926.35 
  577100     305.7421   -1476.7377    472.79511    374.94379   -477.65712     37926.35 
  577200    308.08247   -1477.1748     481.4023    393.66886     59.27381     37926.35 
  577300    290.60585   -1477.4377    494.71918    327.90383    166.04497     37926.35 
  577400    305.28004   -1503.9296     491.0245    363.89741    62.685154     37926.35 
  577500    295.67529   -1473.4688    483.99043    344.00702    543.67808     37926.35 
  577600    305.00484   -1471.4671    497.88372    401.97794    28.568994     37926.35 
  577700    296.59245    -1471.794    470.43269    336.26042    445.10048     37926.35 
  577800    303.85439   -1492.2742    488.36359    366.46225   -140.77172     37926.35 
  577900    298.78346   -1484.2507     495.4017     358.6541    361.20351     37926.35 
  578000    287.17043   -1487.8662     504.3284    311.59098    137.93919     37926.35 
  578100    288.05486   -1473.3498     502.7724    328.54011    629.84819     37926.35 
  578200    304.95571   -1466.2859    480.90563     389.9595    284.37143     37926.35 
  578300     308.4271   -1482.4716    501.28154    409.80551    432.18207     37926.35 
  578400    316.12038   -1470.4626    488.07894    443.30841    687.56718     37926.35 
  578500    305.57012   -1497.4214    488.12323    368.81262    511.12539     37926.35 
  578600    292.18283   -1497.4725    475.95423     296.2163    200.87759     37926.35 
  578700    306.78049   -1463.1441    482.59496    403.02027    -399.2228     37926.35 
  578800    305.82141   -1454.3173    467.95215    392.87884   -303.13372     37926.35 
  578900    311.52372    -1472.972    482.63101    414.62029   -701.29605     37926.35 
  579000     294.9413   -1420.3536    496.93262    406.75417   -395.54393     37926.35 
  579100    306.23981     -1411.41    502.75831    472.47934    232.12028     37926.35 
  579200    293.10726   -1433.4706    479.99769    368.43075   -319.13801     37926.35 
  579300    300.59431   -1478.9054    498.65984     375.4245    28.825173     37926.35 
  579400    302.75916   -1441.5337    485.73192    409.63158   -155.75163     37926.35 
  579500    295.69275   -1465.4702    475.39097    343.48487   -300.21992     37926.35 
  579600    298.67172   -1466.2986    481.27923    361.97977   -240.03552     37926.35 
  579700    308.12098   -1481.3179    452.86005    361.15713   -82.346025     37926.35 
  579800    301.54674    -1466.643    469.08989    362.41234   -797.72767     37926.35 
  579900    302.90945   -1480.7978    497.43244    382.74581   -749.38858     37926.35 
  580000    310.19072   -1466.6111    461.64417    393.98262   -186.07654     37926.35 
  580100    290.88546   -1421.2139    461.18181     351.8513   -20.751611     37926.35 
  580200    298.93378   -1428.7107    467.74632    387.21672   -558.81463     37926.35 
  580300    300.58047   -1449.0127    460.21531    366.81016   -381.86215     37926.35 
  580400    302.37443   -1419.8895    490.10409    433.91288    -548.0202     37926.35 
  580500    298.70755   -1411.2181    484.87524    420.81792   -429.89366     37926.35 
  580600     303.3142   -1448.9209    476.28422    395.29993   -959.29344     37926.35 
  580700    302.23992   -1490.0807    472.24136    345.25233    -531.0883     37926.35 
  580800     304.3619   -1470.9306    466.01856    367.74964   -260.79486     37926.35 
  580900    291.70295   -1470.9944    484.75194    329.32784   -238.61765     37926.35 
  581000    298.79621   -1450.1566     491.2111    388.61517   -334.06596     37926.35 
  581100    307.08958   -1438.1765    491.72962     438.5166    -270.4627     37926.35 
  581200    294.47415   -1467.5589    475.51573     336.0251   -504.96159     37926.35 
  581300    299.19252   -1473.4217    468.05872    343.98497   -121.78149     37926.35 
  581400    309.56228   -1485.1932    464.62916    375.55119    193.76092     37926.35 
  581500    299.42686   -1464.1913    476.77026    362.98377    157.73976     37926.35 
  581600    304.00993   -1500.1073    469.14806    340.11503   -278.82759     37926.35 
  581700     293.3652   -1470.4113    471.10368     323.7593   -167.23104     37926.35 
  581800    305.06835   -1454.5262     488.1356    409.45715    25.021927     37926.35 
  581900    307.50155   -1460.3981     479.0476    405.47092    281.41419     37926.35 
  582000    301.93361   -1444.1433    500.85288    418.41983    682.35864     37926.35 
  582100    301.32818   -1449.6756    445.00659    354.31067    123.05189     37926.35 
  582200    289.11577   -1477.8873    467.19329    293.20814    515.34488     37926.35 
  582300    293.76622   -1451.9715    466.71934    339.62338    283.17074     37926.35 
  582400    307.59618   -1492.7884    471.88024    366.34003   -93.069822     37926.35 
  582500    300.33123   -1447.0113    452.08501    359.55722   -28.724457     37926.35 
  582600    305.42654   -1484.9576    500.05479    392.56037   -108.14891     37926.35 
  582700    294.99331   -1503.8077    490.25021    316.85223   -498.74341     37926.35 
  582800    308.46721   -1465.3821    484.38608     410.1805    -241.7474     37926.35 
  582900     312.4261     -1468.92    445.60765    385.71864   -596.13791     37926.35 
  583000    306.62004   -1437.9289    469.32086    414.23779    89.553098     37926.35 
  583100    288.82994   -1464.7228    478.78829    316.67859   -61.245285     37926.35 
  583200    305.72237   -1480.5075    459.81955    358.10943   -452.14565     37926.35 
  583300    295.61265   -1453.1242    466.55979    346.63846    750.65997     37926.35 
  583400    302.91777   -1452.1915    460.61847    374.57568    531.47715     37926.35 
  583500    306.10529   -1440.3051    488.80681    429.02606    642.10977     37926.35 
  583600    302.46415   -1464.4008    450.82982    350.53195    824.41388     37926.35 
  583700    310.97494   -1423.5675    480.69684    459.61563   -277.64933     37926.35 
  583800    305.60188   -1432.1893    480.23082    426.29554    161.55805     37926.35 
  583900    294.99096   -1479.5215    481.68853    332.56614    179.46433     37926.35 
  584000    298.48821   -1480.9761    484.38402    349.57951    210.74115     37926.35 
  584100    307.73311   -1447.3114    467.96978    408.52413   -136.13525     37926.35 
  584200    299.30684    -1468.013    453.81884    335.66938   -128.95199     37926.35 
  584300    294.87137   -1476.4083     471.6395    325.09095    506.57909     37926.35 
  584400    295.45395   -1454.9765    484.93039    362.44101    680.30484     37926.35 
  584500    300.15333   -1514.0641    457.06233    296.67937    300.79576     37926.35 
  584600    285.25723    -1471.394    482.67991    297.78626    963.62445     37926.35 
  584700    301.63107   -1485.1723    480.85328     356.0267    503.87867     37926.35 
  584800    305.05545   -1497.5163    476.58072      354.854    536.33356     37926.35 
  584900     305.9805   -1494.9495    475.48307    360.49509    223.62258     37926.35 
  585000    293.37754   -1506.1538    476.36374    293.33252    5.5043138     37926.35 
  585100    302.52779   -1502.9948    469.74772    331.14287    607.49118     37926.35 
  585200    296.72436   -1495.3332    465.12535    308.00879    187.71178     37926.35 
  585300    304.11893   -1450.5934    487.17146      408.144    374.21179     37926.35 
  585400     305.5276   -1449.1945    472.89083    401.61526     426.4506     37926.35 
  585500    296.74815   -1434.5472    487.70071    391.47744    521.34116     37926.35 
  585600    297.32133   -1494.3072    460.13257    306.73437    264.27963     37926.35 
  585700    296.40148   -1508.2153    476.63103    305.17618    1091.4813     37926.35 
  585800    307.88941    -1499.712    485.97244    374.83105    983.60731     37926.35 
  585900    292.93547   -1465.6559    488.44673     343.9197    138.43948     37926.35 
  586000    297.19495   -1491.1451    465.95098    315.14486    120.45413     37926.35 
  586100    292.04151   -1493.6628     470.1055     293.5399 -0.034819116     37926.35 
  586200    295.44384   -1484.9653    450.72414     298.2004    38.483522     37926.35 
  586300    295.72781   -1502.9334    457.74055    288.52935   -197.76149     37926.35 
  586400    292.33998   -1516.1757    459.86379    262.13129   -96.131491     37926.35 
  586500    295.37918   -1464.1967     493.5201    361.47337   -438.77795     37926.35 
  586600    295.95946   -1468.0566    473.50144     340.2118   -80.127741     37926.35 
  586700    296.39561   -1479.2548    456.14282    313.62203   -824.23418     37926.35 
  586800    296.98533   -1457.9142    480.75894    362.23841   -738.79894     37926.35 
  586900    296.54895   -1462.2978    493.64998    368.77777    87.247246     37926.35 
  587000    296.61373   -1474.3051    484.44666    347.85927   -391.97222     37926.35 
  587100    299.87298   -1523.2764    490.00177    319.14218    334.06127     37926.35 
  587200    300.67565   -1524.9022    463.21947    294.35406    173.11695     37926.35 
  587300     303.4204   -1485.5373      475.674     358.5523    128.46535     37926.35 
  587400     295.3445   -1468.5019     465.9002    329.39183   -212.93912     37926.35 
  587500     298.7123   -1475.0152    487.99318    360.16018   -532.01055     37926.35 
  587600    300.41677    -1439.135    486.37411     402.1084   -232.56327     37926.35 
  587700    299.60442   -1486.1409    465.56766    330.63242    -446.4229     37926.35 
  587800    305.14937   -1459.6244    469.39246    385.98127   -303.05289     37926.35 
  587900    304.73157   -1450.8416    471.70914    395.19641   -213.20094     37926.35 
  588000    307.55479   -1450.5202    463.23908    399.78037   -553.11543     37926.35 
  588100    297.15749   -1427.2723    471.51611    384.41385    -62.39623     37926.35 
  588200     305.8438   -1434.3606    506.12719    451.11165   -133.96608     37926.35 
  588300    286.52669    -1489.163    488.67486    291.73734    354.04956     37926.35 
  588400     297.4989   -1484.5245    489.14152    346.32682    290.87095     37926.35 
  588500    307.53577   -1466.1168    481.53195    402.39088    468.04795     37926.35 
  588600    306.51862   -1500.9004    471.45832    352.94634    -168.2133     37926.35 
  588700    304.47936   -1511.3206     472.2178    334.08862   -301.42869     37926.35 
  588800    297.85206   -1496.5035    466.84349    313.64253   -93.932511     37926.35 
  588900    286.33358   -1507.1509    468.22636    252.43004    331.93173     37926.35 
  589000    306.81127   -1459.5438     460.5452     384.7097    490.63622     37926.35 
  589100    292.45037   -1495.7842     504.6844    327.84133    649.06471     37926.35 
  589200    298.74846   -1503.8499    461.13685    304.63228    580.62892     37926.35 
  589300    292.25666   -1522.1003    494.08759    290.05482     654.5291     37926.35 
  589400    296.70887   -1485.5095    472.87202    325.50931    238.13438     37926.35 
  589500    305.69294   -1499.8072    462.37206    341.22947    113.33761     37926.35 
  589600    308.68104   -1468.6965    498.29973    421.74413    70.736057     37926.35 
  589700    295.62169   -1467.7014     489.6922    355.23443    45.068325     37926.35 
  589800    304.98552   -1464.2913    464.94193    376.12484   -6.8771662     37926.35 
  589900    307.99831   -1467.8645    481.42848    402.62582    168.58222     37926.35 
  590000    300.89376   -1497.8647    480.25119    339.40697   -237.05018     37926.35 
  590100     288.8697    -1463.954     505.0498    343.88818    51.535692     37926.35 
  590200    297.72948   -1402.8398    525.16377    465.07374     -271.871     37926.35 
  590300    298.92519   -1467.7738    489.81737    370.18591     -337.045     37926.35 
  590400    293.27956   -1482.0195    479.71417    320.37542   -720.50356     37926.35 
  590500     308.9802   -1481.1929    484.67587    396.97301   -29.902556     37926.35 
  590600    308.71835   -1463.7348    483.00617    411.58053   -577.26164     37926.35 
  590700    302.74543   -1480.2543    500.24427    385.36148     14.64741     37926.35 
  590800    293.85992   -1473.4097    484.86199    336.75048   -443.47654     37926.35 
  590900     296.5894   -1441.7772    520.98799    416.81872   -342.07781     37926.35 
  591000     293.7912   -1484.0051    494.70573    335.68889   -568.91412     37926.35 
  591100    301.23617   -1471.2623     498.1485    385.45101   -598.19137     37926.35 
  591200    290.29433   -1444.6699    501.00775    365.55531   -284.39586     37926.35 
  591300    291.62252    -1493.287    484.01591    305.93649   -349.95634     37926.35 
  591400     294.0671   -1502.6804    485.36199    308.91414   -261.82724     37926.35 
  591500    291.21123   -1487.4482    480.70085    306.60524    24.856956     37926.35 
  591600    300.51265   -1510.5751    474.75988    319.48644    198.87455     37926.35 
  591700    297.18819    -1479.577    493.59751    354.32906   -16.942001     37926.35 
  591800    298.80476   -1504.3417    477.79533    321.05283    343.15123     37926.35 
  591900    304.43592   -1504.2713    512.11658    380.84081    77.606444     37926.35 
  592000    302.18269   -1511.0321    482.49174    334.29315   -103.12096     37926.35 
  592100    293.15948   -1496.5403    483.99511    309.59394   -295.53616     37926.35 
  592200    297.02895   -1513.7292    469.59001    295.45112   -370.91718     37926.35 
  592300    301.71925   -1491.4947    479.93356    349.18231   -256.26069     37926.35 
  592400    296.62202    -1487.068    481.42532    332.11242   -203.62044     37926.35 
  592500    298.27471   -1510.9646    484.28953    318.53358   -223.93471     37926.35 
  592600    300.47263   -1485.4717    464.61613     334.2656   -123.39368     37926.35 
  592700    299.56074   -1481.5336    492.50284    361.97788    236.29221     37926.35 
  592800    300.88893   -1543.4716    467.35295    280.88003    515.64715     37926.35 
  592900    308.40674   -1495.4589    459.56716    355.01204    255.06129     37926.35 
  593000    294.57762   -1490.0007    504.68946    343.22373    70.490217     37926.35 
  593100    296.64906   -1490.0959    477.32823    325.10938    -84.87659     37926.35 
  593200    299.36242   -1469.2704    473.46973     354.3136    225.14272     37926.35 
  593300    301.37667    -1468.417    482.42098    373.20244    306.16447     37926.35 
  593400    297.68259   -1439.1011    478.03871    381.47583   -308.18713     37926.35 
  593500    307.07915   -1486.8363    504.33717    402.41724   -44.792464     37926.35 
  593600    296.11004   -1456.9143    452.57706    331.10883   -275.89961     37926.35 
  593700    298.93562   -1477.1117    487.94263     359.0203   -16.484277     37926.35 
  593800    299.31851   -1470.2965     515.1683    394.78803    173.90333     37926.35 
  593900    305.97373    -1461.097    468.26688    387.10082    242.04128     37926.35 
  594000    292.34454   -1430.0319    491.06832    379.50024   -359.32603     37926.35 
  594100    304.59556   -1448.9303    482.21051    406.99573   -136.99757     37926.35 
  594200    290.58395    -1464.436    504.47614    350.56379    215.30919     37926.35 
  594300    292.48413   -1496.1851    492.82931    315.73754   -99.715688     37926.35 
  594400    300.85743   -1472.6019    445.37511    329.62989    552.75583     37926.35 
  594500    298.50335   -1455.1152    489.48749    380.61216    543.56194     37926.35 
  594600    297.62834    -1510.618    460.98604     292.6616    183.01707     37926.35 
  594700     303.9413   -1487.7427    459.47382    342.49597    34.416709     37926.35 
  594800    289.28242   -1504.0182    474.87986    275.51538    73.537507     37926.35 
  594900    308.31966   -1515.8024    483.96481    358.67345    -522.3596     37926.35 
  595000    299.34109   -1457.4352    489.12433    381.70717    179.47451     37926.35 
  595100    296.01992    -1441.112    491.62279    385.55045    122.96623     37926.35 
  595200    286.70471   -1418.4164    465.74038    340.35243    173.34677     37926.35 
  595300    301.95774   -1438.3366    486.76239    410.24483   -331.13746     37926.35 
  595400     299.7215   -1442.5379    467.69583    376.89163   -221.85326     37926.35 
  595500    304.74279   -1449.1406     481.3447    406.58357    442.74975     37926.35 
  595600    306.03082   -1482.5894    501.73455    399.33361    -65.81739     37926.35 
  595700    301.32956   -1503.7858    483.83053    339.03065    -274.7035     37926.35 
  595800    303.61728   -1466.6752    469.51694     372.1452   -400.37218     37926.35 
  595900    293.40342    -1485.318    465.18913    303.11047   -401.97516     37926.35 
  596000    301.05476   -1455.9732    468.11581    369.88928   -582.53165     37926.35 
  596100     288.1852   -1474.4253    494.64773    319.92774   -1063.8213     37926.35 
  596200    306.94707   -1449.9689    469.59707    403.94892   -896.63911     37926.35 
  596300    296.52544   -1457.9334    489.44875    368.83484   -473.97004     37926.35 
  596400     298.3113   -1425.7949    475.10479    394.68358   -51.223392     37926.35 
  596500    300.70862   -1465.2843    492.75972    383.66093   -105.32407     37926.35 
  596600    303.95658   -1454.5302     478.8023     395.1058   -33.961126     37926.35 
  596700    310.49171   -1444.5711      465.095    420.83081    -99.44908     37926.35 
  596800    297.83962   -1474.4562    467.90741    336.69766   -103.02804     37926.35 
  596900    296.57015   -1464.8863    443.99399    316.62889   -31.110757     37926.35 
  597000    292.18025   -1488.8463     468.1562    297.03281   -174.39679     37926.35 
  597100    296.24247   -1504.9091      454.658    285.79224    301.43318     37926.35 
  597200    302.98996   -1503.2106    452.65144    315.91509   -118.18214     37926.35 
  597300    298.01781   -1499.8417    486.49189    330.70031   -217.37573     37926.35 
  597400    305.98167   -1468.3731    486.34236    397.93602    33.563819     37926.35 
  597500    303.38352   -1493.5452    468.45373    343.15782   -211.79043     37926.35 
  597600    294.44139   -1481.5986    469.46107    315.78305   -202.05952     37926.35 
  597700    304.80328   -1481.1055    499.72328    393.27006    324.12003     37926.35 
  597800    296.17219   -1524.3024    484.86436    296.28841   -145.33425     37926.35 
  597900    302.05801   -1494.2954    469.51789     337.4937   -44.912523     37926.35 
  598000    288.67544   -1549.0784    460.45651    213.29443    294.95601     37926.35 
  598100     301.8701    -1530.239    472.01372    303.19853    659.19366     37926.35 
  598200    300.40779   -1504.5269    467.26123    317.56313    966.58294     37926.35 
  598300    297.46482   -1538.9942      485.588    288.14993    548.24633     37926.35 
  598400    304.53801   -1522.3365    454.21356    305.33299    567.77573     37926.35 
  598500    296.43143   -1424.5847     476.4496    388.76045    391.97814     37926.35 
  598600    296.19338   -1473.0687    455.82053    318.57379    508.99141     37926.35 
  598700    302.17483   -1436.9091    474.79661    400.68559   -251.96363     37926.35 
  598800    306.01939   -1434.9296    480.10327    425.31057   -250.41224     37926.35 
  598900    300.20851   -1444.7217    492.67997    401.88839    76.376017     37926.35 
  599000    296.52611   -1469.6102    482.72116     350.4335   -227.43562     37926.35 
  599100    304.55129   -1464.2895    468.03701    377.26335   -476.59549     37926.35 
  599200    294.00628   -1484.8235    484.82798    325.96266   -479.55309     37926.35 
  599300    294.62581   -1471.1801     484.7554    342.32756    116.06253     37926.35 
  599400    303.83469   -1473.5239    460.15684    356.91699   -625.06237     37926.35 
  599500     299.8316   -1487.5985    478.15254    342.78428    111.26179     37926.35 
  599600    308.35106   -1494.2188    466.67503    363.10888    208.57604     37926.35 
  599700    302.60132   -1508.1992    459.66789    316.19024    582.70054     37926.35 
  599800    292.25824   -1533.1892    438.81278    223.69818    111.09813     37926.35 
  599900    307.73621   -1497.1581    454.87734    345.59901   -34.982052     37926.35 
  600000    293.90881   -1492.9317    478.57861     311.1655   -25.490424     37926.35 
  600100    296.32557   -1509.5422    482.73144     309.6074   -574.08267     37926.35 
  600200    300.41485    -1483.126    467.13497    338.86964   -295.58494     37926.35 
  600300    289.62934   -1473.5265    461.56265    294.25453   -148.33689     37926.35 
  600400    302.62852   -1458.5994      454.735    360.97977   -351.21638     37926.35 
  600500    313.66076   -1462.8351     473.5677    425.33188   -175.18909     37926.35 
  600600    307.57668   -1421.7583    442.70159     408.1035     -105.808     37926.35 
  600700    291.41773   -1465.4527      466.731    315.56221   -539.49484     37926.35 
  600800     301.9174   -1447.0773    495.98299    410.54276    -56.13236     37926.35 
  600900    291.93716   -1414.3345    477.16079    379.45281   -186.30958     37926.35 
  601000    296.59878   -1486.4444    474.84687     326.0528   -561.06323     37926.35 
  601100    300.28279   -1474.1295    468.70222    348.83778    58.025125     37926.35 
  601200    298.38391   -1440.9463     493.5076    398.26253    184.25386     37926.35 
  601300    307.67093   -1433.1272    466.32946    420.78761    588.61015     37926.35 
  601400       292.67    -1442.953    467.52508    344.50369    583.18444     37926.35 
  601500    301.02867   -1422.7028    497.41912    432.34528    761.88062     37926.35 
  601600    304.94348   -1444.7731    491.76377     422.2753    66.901382     37926.35 
  601700    297.73077   -1399.9501     452.4983    395.30376    182.95297     37926.35 
  601800    306.16252   -1408.3755     481.4874    453.89436    193.15662     37926.35 
  601900    292.68984   -1425.6678    467.47206     361.8254   -394.24303     37926.35 
  602000      304.767   -1431.6806    455.31073    398.11881   -411.93413     37926.35 
  602100    289.83341   -1474.2348    456.45591     289.3598   -669.08047     37926.35 
  602200    298.20798   -1508.7298    443.07881    279.25675   -472.49194     37926.35 
  602300    304.97431   -1459.3251    457.71706    373.81557   -760.09973     37926.35 
  602400    307.91726   -1455.2553    463.43931    396.88029   -854.55224     37926.35 
  602500    298.46439   -1462.5669    452.67481    336.17203   -234.42342     37926.35 
  602600    289.89893   -1526.7417    470.32571    251.01822   -79.341113     37926.35 
  602700    301.18222   -1491.9824    486.35944    352.69853    42.237552     37926.35 
  602800    297.77385   -1461.1798    458.80214    340.57214   -110.67701     37926.35 
  602900    296.30868   -1453.6898    468.96703    351.61918   -230.34855     37926.35 
  603000    311.28734   -1495.2594    471.91258    380.54835   -100.24403     37926.35 
  603100    320.42916   -1479.1656    436.37215    402.33099     68.58948     37926.35 
  603200    297.57026   -1506.8498    431.22959    266.41142    -685.1552     37926.35 
  603300    303.94213   -1529.0245    489.59521     331.3392   -753.27213     37926.35 
  603400    296.89848   -1508.8794    434.91824    265.04075     35.03102     37926.35 
  603500    303.91736   -1482.0171    466.13166     354.7714   -24.454054     37926.35 
  603600    299.30738   -1476.9077    475.32234    348.28067   -159.65836     37926.35 
  603700    300.39772   -1479.3827    464.87509    340.27572   -468.74622     37926.35 
  603800    290.17315   -1471.4973    459.22193    296.39556   -342.55547     37926.35 
  603900    302.72229   -1485.3575    452.66281    332.57241   -659.37393     37926.35 
  604000    302.33668   -1472.7017    473.48711    364.31344   -331.17596     37926.35 
  604100    295.08786   -1452.0002    494.99614    373.83204   -292.72424     37926.35 
  604200    300.61725   -1430.5445    468.53893    393.76789    -184.0213     37926.35 
  604300    299.23439    -1425.406    482.44728    406.57809   -285.60384     37926.35 
  604400    301.21897   -1426.6095    462.39056    394.26832   -123.51787     37926.35 
  604500    292.90244   -1443.9223    480.81897    357.87665    216.01011     37926.35 
  604600    310.15041   -1432.1813    493.09429    459.68073    567.41275     37926.35 
  604700    299.61986   -1429.3056    484.69058    406.66027    768.84089     37926.35 
  604800    302.04043    -1428.116    487.91765    421.99358    1074.9066     37926.35 
  604900    303.81984   -1484.7985    463.26542    348.68394    590.39602     37926.35 
  605000     286.0813   -1478.7173      466.828    278.32757    212.29453     37926.35 
  605100     308.7877   -1449.2784    488.06427    431.40782     379.6195     37926.35 
  605200    305.54394   -1413.5339    488.41302    452.87184     488.8752     37926.35 
  605300     300.2241   -1432.4026    476.73951    398.33725    45.745786     37926.35 
  605400     300.9738   -1479.6316     467.3301    345.07997   -13.479399     37926.35 
  605500    309.28881   -1474.5381    472.71345    393.05727   -236.14669     37926.35 
  605600    292.13749   -1462.0497    477.08786    332.56815    97.047084     37926.35 
  605700    296.24702   -1491.7116    483.31628    327.66856    347.47403     37926.35 
  605800    301.66279   -1495.7255    448.35562    313.11898    -49.53432     37926.35 
  605900    300.88359   -1478.4247    494.27934    372.82928   -563.93852     37926.35 
  606000    299.27209    -1453.411    487.41411    383.70992   -518.41209     37926.35 
  606100    288.90148   -1442.5864    454.76398    315.11335   -591.23012     37926.35 
  606200    292.18303    -1494.105     468.5489    292.17933   -532.53999     37926.35 
  606300    309.71218   -1483.2775    479.78723    393.30104   -446.28056     37926.35 
  606400    308.38462   -1480.0569    477.13999    387.88714    235.98187     37926.35 
  606500    304.10531   -1521.6529     473.8517    323.70332    395.64686     37926.35 
  606600    291.67955   -1484.4563    454.77907    285.78753    111.94539     37926.35 
  606700    304.20085   -1517.8704    460.80158    314.86657    762.49416     37926.35 
  606800    306.16847   -1518.8964    483.35969    345.27252    921.13551     37926.35 
  606900    299.67732   -1479.0342    460.50778    333.00793    791.87742     37926.35 
  607000    303.55106    -1535.081    469.08091    303.00472   -14.892586     37926.35 
  607100    307.28915   -1525.0792    480.82015     341.6045     60.46687     37926.35 
  607200    301.32369   -1502.0572    451.03413     307.9364      -99.796     37926.35 
  607300     289.6299   -1454.0075    469.31824    321.53164   -274.16969     37926.35 
  607400    290.89102   -1444.0815    472.67395      340.501   -393.18082     37926.35 
  607500    306.00943   -1439.1186    464.87521    405.84858   -482.40178     37926.35 
  607600    303.45885   -1445.0387    484.14746    407.69775    -631.5651     37926.35 
  607700    296.72328   -1449.6807    474.52109    363.05222   -473.70051     37926.35 
  607800    295.42199   -1468.5626    465.05475    328.83516   -270.25201     37926.35 
  607900    300.27694   -1463.6618    454.53429    345.11112   -24.722844     37926.35 
  608000    307.26397   -1462.7594    473.77947    396.76997   -55.561889     37926.35 
  608100    294.32152    -1425.867    470.28669    371.79968   -1.0608851     37926.35 
  608200    301.41624   -1455.2494      457.131    361.25847    262.87932     37926.35 
  608300    302.39245   -1419.7824    494.71269    438.70989    115.38465     37926.35 
  608400    307.33793   -1458.6919    482.45761    409.84915    -303.1973     37926.35 
  608500    291.51469   -1448.9013    461.54858    327.36853    266.42393     37926.35 
  608600    297.06144   -1467.9518     514.5463    386.33137    -15.79495     37926.35 
  608700    298.05758   -1464.1403    470.25647    350.34561   -128.43351     37926.35 
  608800    297.37121   -1468.7318    471.26073    343.66285   -1284.7432     37926.35 
  608900    309.05381   -1440.2325     479.0566    432.64618    235.21859     37926.35 
  609000    302.49477   -1458.8016    480.53669    385.97607   -128.82082     37926.35 
  609100    302.59901    -1529.715    466.50254    301.49868    99.880016     37926.35 
  609200    297.53979   -1478.5586    468.70192    332.03757    423.90595     37926.35 
  609300    298.97005   -1486.2764    465.84518    327.91339    272.03686     37926.35 
  609400    300.10236   -1475.2881    470.98777    349.15096   -226.76802     37926.35 
  609500    294.94816   -1452.9296    482.18078    359.45723   -480.69376     37926.35 
  609600    289.89065   -1425.8903     479.9277    361.43432   -584.15932     37926.35 
  609700    312.57572    -1461.833    470.85189    418.72461   -300.41696     37926.35 
  609800    291.23874   -1417.4901    504.48202     400.4686   -894.82936     37926.35 
  609900    288.64456   -1461.0165    502.65011    343.41068   -348.18606     37926.35 
  610000    314.26164   -1432.3186    502.12844    487.11905    316.88492     37926.35 
  610100    305.43049   -1429.3283    476.94197    425.09466    146.18367     37926.35 
  610200    300.66868   -1447.7922    492.36881    400.58202    219.96323     37926.35 
  610300     296.2555   -1457.8034    466.77104    345.06975    47.659986     37926.35 
  610400    288.84492    -1430.907    487.57111    359.34481   -108.48753     37926.35 
  610500    297.78837   -1439.8967    480.62455    383.74314    400.04745     37926.35 
  610600    310.81066   -1487.5822    462.27725    376.44046    436.90406     37926.35 
  610700    295.40408   -1442.3781    485.21396    375.09812    429.70651     37926.35 
  610800    289.41254   -1442.9639    496.01658    358.29322    300.06509     37926.35 
  610900    309.34218   -1433.7224    481.23752    442.63774    439.44624     37926.35 
  611000    301.14734   -1454.4996    471.70165    375.36623    42.861547     37926.35 
  611100    297.50272   -1470.4877    478.55651    349.79584    417.80409     37926.35 
  611200    303.36207   -1457.6452    477.15528    387.66263    293.84871     37926.35 
  611300    293.32291   -1481.7787    521.71536    362.81295    113.26123     37926.35 
  611400    297.83946   -1456.9111    483.45524    369.78984    91.801583     37926.35 
  611500    286.10004   -1514.3106    454.37671    230.36744    285.11095     37926.35 
  611600    302.44243   -1488.7745    495.48403    370.71448   -85.020717     37926.35 
  611700    297.00246   -1500.4062    472.63015    311.69481   -329.75373     37926.35 
  611800    309.94574   -1436.6973    484.25964    445.40699   -370.07394     37926.35 
  611900    299.85357   -1436.5436    486.89627    402.68198    -212.3741     37926.35 
  612000    303.59329   -1486.2417    469.05059    352.00416   -337.75144     37926.35 
  612100    294.35685   -1498.3181    492.36314    321.58431    -170.3111     37926.35 
  612200    309.85875   -1491.6701    478.81451    384.59665    69.020031     37926.35 
  612300    298.44036   -1452.0866    470.30517    364.17431   -281.84677     37926.35 
  612400    291.96429   -1491.9061    479.59804    304.44082    58.321089     37926.35 
  612500    308.88912   -1445.3491    459.79572    407.52596   -480.83888     37926.35 
  612600    293.24763   -1454.8982    488.20329    355.84179   -358.54058     37926.35 
  612700    302.30813   -1442.1376    475.92734      397.189   -351.01749     37926.35 
  612800    297.09542   -1412.8887    490.52682    417.52823    51.357933     37926.35 
  612900     296.6996   -1479.5235    483.40116    341.98269    532.38849     37926.35 
  613000    298.63935   -1479.7082    468.70791    335.85285   -34.642109     37926.35 
  613100    312.67814   -1423.6653    505.21513     491.7175    513.18961     37926.35 
  613200    306.07223    -1476.641    481.58793    385.32216    448.42164     37926.35 
  613300    285.65157   -1456.0331    484.43127    316.67695   -103.79024     37926.35 
  613400     303.9496   -1411.2801    505.40365    464.92582    2.7239628     37926.35 
  613500    291.57864   -1434.8365    462.49372    342.66686   -431.88747     37926.35 
  613600     301.4074   -1467.7576    468.22519    359.80461   -48.726252     37926.35 
  613700    295.02618   -1474.6526     473.7667    329.67206    39.777352     37926.35 
  613800    309.28303   -1444.2238    491.57163    442.20366    521.66953     37926.35 
  613900     309.0679   -1465.8923    481.30959    409.30286    618.59792     37926.35 
  614000    294.09051   -1457.7902    482.68813    351.23599    296.65439     37926.35 
  614100    304.97767   -1483.6159    497.46738    389.29029    853.36898     37926.35 
  614200    301.68832   -1453.1103     467.1646    374.65822    622.86512     37926.35 
  614300    299.79426   -1461.3723    477.24012    367.92965     637.4876     37926.35 
  614400    299.85022   -1478.6253    496.38859    370.07746    499.10189     37926.35 
  614500     292.8889   -1444.2011    503.89248    380.61029    740.54791     37926.35 
  614600    308.62771   -1442.9441    499.48836     448.4446     615.4122     37926.35 
  614700    301.01087   -1444.2866    495.34626    408.60836   -86.678655     37926.35 
  614800    309.86333   -1475.9113    477.26706    398.82876    615.94788     37926.35 
  614900     304.0015   -1472.2432    471.86243    370.65549   -270.07341     37926.35 
  615000    294.55559   -1463.4685    478.85756    343.82469    154.94873     37926.35 
  615100    295.10827   -1465.2371     464.4068    330.09785   -189.38905     37926.35 
  615200    299.78066   -1475.4062    509.72809    386.32235   -194.88104     37926.35 
  615300    299.76472   -1455.3384    481.66614    378.25634    98.765463     37926.35 
  615400    301.80741   -1482.2428    454.76028    333.65848   -210.65643     37926.35 
  615500    295.37954   -1536.2201    488.48457    284.41601   -182.14534     37926.35 
  615600    291.23961   -1499.2549    462.29698    276.52271   -385.10245     37926.35 
  615700    295.60647   -1518.3801    479.86465    294.65961   -338.56408     37926.35 
  615800    296.86122   -1495.5404    470.13813    313.43162    544.96862     37926.35 
  615900    309.53421   -1459.9397    476.12177    412.17075    113.41228     37926.35 
  616000    304.10976    -1446.422    487.49548    412.59803    2.1458723     37926.35 
  616100    303.72222   -1464.3872    498.01317    403.40276    38.334232     37926.35 
  616200    296.55985   -1421.2025    476.47559    392.74782    168.50332     37926.35 
  616300    312.96823   -1444.9636    459.22663    425.73897   -156.19325     37926.35 
  616400    297.19324   -1442.3573    501.93387    399.90784   -217.75971     37926.35 
  616500    297.30761   -1450.4392    468.41977    358.82765    195.52949     37926.35 
  616600    295.50328   -1442.2352    445.21781    335.69225    284.80553     37926.35 
  616700    289.53518   -1451.4804    483.20999    337.52333   -28.702982     37926.35 
  616800    290.41047   -1422.2042     501.5392    389.07623    354.63825     37926.35 
  616900    292.14834   -1478.2007    510.12225    349.50051     241.6438     37926.35 
  617000    306.04513   -1470.6624    474.40591    383.99654    294.18852     37926.35 
  617100    294.19793   -1454.3499    452.69629    325.16892   -212.15282     37926.35 
  617200    299.64307   -1431.6489     481.4355    401.16653    206.06989     37926.35 
  617300    293.33337   -1450.1692    496.63264    369.38683   -173.45981     37926.35 
  617400    302.91795   -1484.8741    469.39466    350.67004   -237.39842     37926.35 
  617500    294.71485   -1469.3374    485.76999    345.58643    130.59298     37926.35 
  617600    309.11772   -1488.9405    450.67662    355.84643    81.117699     37926.35 
  617700    305.75913    -1451.703     470.5342    397.79436     596.9028     37926.35 
  617800    291.52969   -1459.6742    491.83401    346.94866   -322.06773     37926.35 
  617900    307.19712   -1446.5351    488.83018    427.74351   -8.0017741     37926.35 
  618000    303.63483   -1406.7019    477.93628    440.61707    89.092302     37926.35 
  618100     308.1425   -1459.8403    530.28234     460.1541    167.02133     37926.35 
  618200    300.57061   -1476.3644    471.10993     350.3086   -199.31319     37926.35 
  618300    302.69061    -1482.266    478.86663    361.72492   -446.62476     37926.35 
  618400    290.49783   -1478.9454    490.32216    321.51193   -162.38158     37926.35 
  618500    301.64873   -1486.2904    471.13462    345.26958   -33.631766     37926.35 
  618600    306.70575   -1447.7357    498.77679    434.27347   -108.20916     37926.35 
  618700    300.34303   -1501.5164    460.80642    313.82673   -142.91501     37926.35 
  618800    290.24955   -1466.2317    480.59586    323.37965   -31.135217     37926.35 
  618900    305.11565    -1483.376    509.60814    402.29323    539.14805     37926.35 
  619000    315.77679   -1503.7855    432.89571    353.25265     596.3935     37926.35 
  619100    299.07971   -1446.0744    496.11362    398.87838    44.103013     37926.35 
  619200     299.9662   -1485.9025    509.60502    376.53971   -64.022095     37926.35 
  619300    291.31139   -1511.5913    468.48026    270.69327   -6.7761604     37926.35 
  619400    304.78029   -1503.5105     482.5073    353.54548    -196.1546     37926.35 
  619500    291.48679   -1512.5415     447.8797    249.93359   -305.92422     37926.35 
  619600     304.4396   -1496.7475    454.45275    330.71742    315.84366     37926.35 
  619700    303.63008   -1498.0528    511.93633    383.24469   -56.606114     37926.35 
  619800    296.07249   -1470.2441    485.09407     350.1267    216.81897     37926.35 
  619900    304.82342   -1463.1256      474.611     386.2285   -76.529801     37926.35 
  620000    296.43637   -1466.3561    489.55268    360.11441   -585.55373     37926.35 
  620100    296.03172    -1466.229    506.63842    375.50233    -346.7382     37926.35 
  620200    302.31852   -1503.2101    472.04391    332.27996   -323.27866     37926.35 
  620300    296.10692   -1478.4124    470.95374    327.97332    326.92143     37926.35 
  620400     303.8759    -1503.707    495.58123    362.34404   -918.67846     37926.35 
  620500    306.60847   -1474.5468    499.44482    407.69164   -535.03099     37926.35 
  620600    301.06648   -1526.7911     446.6878    277.69618    154.02368     37926.35 
  620700    301.83979   -1538.0261    498.78276    322.04378    365.83522     37926.35 
  620800    290.90895   -1475.9175     472.9373    309.00917    534.47242     37926.35 
  620900    308.76083   -1484.2526    467.31584    375.56403    238.44694     37926.35 
  621000    310.02736   -1509.0569    468.94462    358.10044    20.200032     37926.35 
  621100    299.74281   -1480.9075    491.67164    362.59387   -465.88497     37926.35 
  621200    305.61821   -1472.1742    468.92177    375.07518   -211.73742     37926.35 
  621300    308.51607   -1498.6651    491.63391    384.36569     -443.926     37926.35 
  621400    300.75877   -1476.7572    469.33489    348.98933   -244.37459     37926.35 
  621500    299.62614   -1443.7141    504.97407    412.56355    282.13239     37926.35 
  621600    301.14252   -1453.1296    479.27411    384.28694    402.74258     37926.35 
  621700    301.30256   -1523.8578     475.9525    310.95884    670.50166     37926.35 
  621800    294.94647   -1488.5954    494.56148    336.16457    696.79674     37926.35 
  621900     302.0036   -1467.9689    496.39707    390.45398    274.06422     37926.35 
  622000    307.58497   -1518.2423    473.05963    342.01495    525.01346     37926.35 
  622100    276.26309   -1489.1421    460.40382    217.19872    361.94828     37926.35 
  622200    302.83471    -1507.997    470.33315    328.11025    347.93149     37926.35 
  622300    298.87819   -1501.8045    496.18518    342.31101    188.29233     37926.35 
  622400      289.381    -1528.597    468.99593    245.49728   -381.31077     37926.35 
  622500    296.60715   -1518.3806    490.53309    309.84049   -41.534361     37926.35 
  622600    299.70455   -1525.1355    496.53667    323.05837   -83.820651     37926.35 
  622700    296.05726   -1501.5981    493.49646    327.10643    302.25833     37926.35 
  622800    308.89085   -1520.6821    474.02834    346.43331    667.40598     37926.35 
  622900    302.49077   -1496.4922    490.60426    358.33507    263.18595     37926.35 
  623000    302.74455    -1475.787    500.92901    390.50947    222.16818     37926.35 
  623100    307.31843   -1476.8479    465.05474    374.20243    178.43237     37926.35 
  623200    301.93284   -1489.3092    496.23782    368.63533    29.536193     37926.35 
  623300    304.10579   -1540.1667    491.31276    322.65278   -117.91874     37926.35 
  623400    298.40199   -1495.3491    498.03129     348.4649   -159.20209     37926.35 
  623500     296.2593   -1485.0708     498.1293     349.1778    200.90391     37926.35 
  623600    291.76823   -1522.0111    492.92915    286.78271   -84.367302     37926.35 
  623700    302.87736   -1542.5547    486.61303    310.02483   -142.01556     37926.35 
  623800    302.86295   -1569.4472     485.3888    281.84312   -234.45423     37926.35 
  623900    295.52232   -1528.2324    493.67528    298.23835    -292.9165     37926.35 
  624000    303.48039   -1466.1343    479.93652    382.48835   -134.89959     37926.35 
  624100     293.7194    -1509.031    505.22238    320.85574   -462.41747     37926.35 
  624200    299.79606   -1536.3452    481.79927    297.52404   -486.99734     37926.35 
  624300    307.33897     -1492.16    485.26805    379.19626   -405.50202     37926.35 
  624400    290.00211   -1487.1549    496.95558    317.70021   -676.16836     37926.35 
  624500    288.37762   -1461.7722    510.14825    348.94917   -758.02295     37926.35 
  624600    310.86449   -1490.5867    458.83714    370.23855    229.88183     37926.35 
  624700    307.48866   -1434.2392    500.31926    452.84334   -268.20226     37926.35 
  624800    312.38801   -1454.0016    470.60745      425.465    144.55996     37926.35 
  624900    302.33114   -1474.8292    479.43765    368.11144    395.21618     37926.35 
  625000    298.41622   -1457.8429    507.15225    395.15624    102.36962     37926.35 
  625100    298.13648   -1503.6749    499.69341    340.60379     615.9418     37926.35 
  625200    295.05352    -1497.977    474.03857    306.74279   -15.944133     37926.35 
  625300    306.62021   -1483.0264      475.817    375.63715     598.1953     37926.35 
  625400    296.62444   -1482.0677    469.69564    325.39399    525.60431     37926.35 
  625500    303.52666   -1460.4174    496.51367    404.99109    918.20473     37926.35 
  625600    294.39109    -1486.181    489.23546    330.74815    34.519422     37926.35 
  625700    321.76918   -1432.8025    517.85679     536.2222    325.56975     37926.35 
  625800    295.24105   -1443.9917    491.49336    379.02865    332.07137     37926.35 
  625900    300.33184   -1407.5441    513.02173    459.96386    106.56278     37926.35 
  626000    299.69379   -1439.7675    486.90611    398.74727    85.381549     37926.35 
  626100    288.61791   -1439.7671    494.78877    356.67849   -21.297604     37926.35 
  626200    295.42392   -1451.6952    503.59206    384.24863    120.54765     37926.35 
  626300    300.91586   -1406.9659    497.76334    447.91765    607.36776     37926.35 
  626400    296.30604   -1407.4406    524.80327    453.69271    627.42121     37926.35 
  626500    302.19926   -1449.9749    503.17562    416.10894    272.73125     37926.35 
  626600    299.88591   -1427.6109    537.48381    462.34809   -342.35251     37926.35 
  626700    300.87826   -1460.3458    470.67948    367.28428    28.983513     37926.35 
  626800    304.49524   -1431.5049    501.66116    443.41935    311.88724     37926.35 
  626900    303.79586   -1424.6691    458.82337    404.26319    265.18209     37926.35 
  627000    292.79554   -1444.2944    505.52011    381.72353    455.89161     37926.35 
  627100    316.14547   -1444.5577     500.1601    481.40753    527.96757     37926.35 
  627200     293.3242   -1456.5246    490.40363    356.76113   -27.578467     37926.35 
  627300    313.16917   -1498.9598    497.84341    411.26579    511.59491     37926.35 
  627400     308.0109    -1507.852    510.63865    391.90518    517.91141     37926.35 
  627500    300.89443   -1495.9152    497.25931    358.36769    555.03345     37926.35 
  627600    301.76256   -1496.2954    475.71056     340.3539    211.57389     37926.35 
  627700    300.76036   -1488.1918    469.67844    337.90551     459.1211     37926.35 
  627800    303.86109   -1478.7994    496.16523    387.76888    665.14176     37926.35 
  627900    316.68576   -1467.0993    476.53311     437.6757    832.25597     37926.35 
  628000    292.86576      -1413.6    457.78902    365.00354    162.99213     37926.35 
  628100    307.75963   -1465.6899    507.95168    430.24717   -285.20599     37926.35 
  628200    300.92814   -1466.3313    495.93599    386.78029   -256.32606     37926.35 
  628300    303.19511   -1486.2215    501.25356    382.43156   -188.38182     37926.35 
  628400    304.06482   -1485.1168    491.06641    377.27146   -547.23296     37926.35 
  628500    302.27649   -1504.5024    484.28512     343.0393   -709.95189     37926.35 
  628600     302.8509   -1519.8404    505.16226    351.16904   -832.31567     37926.35 
  628700    296.43752   -1554.2962    447.46594    230.09277   -801.56043     37926.35 
  628800    294.88932   -1558.3171    489.07085    260.69447   -563.81768     37926.35 
  628900    300.34023   -1540.6393    463.31343    277.19826     -99.1586     37926.35 
  629000     297.7804   -1507.7882    508.59846    343.78956   -281.19241     37926.35 
  629100    300.36123   -1508.9325    495.53481    341.22112   -314.45547     37926.35 
  629200    308.96126   -1488.5047    496.06577    400.96578   -251.83721     37926.35 
  629300    305.73799   -1488.8611    493.24696    383.25366     605.5217     37926.35 
  629400    300.82789   -1504.0496    505.70991    358.38373    116.19626     37926.35 
  629500    305.75159   -1460.3636    494.38577     412.9513    267.21572     37926.35 
  629600    303.51771   -1498.0873    474.98555    345.75271    80.285682     37926.35 
  629700     297.3082   -1483.8776    480.35981      337.332   -283.65929     37926.35 
  629800    316.57816   -1456.0339    486.52131    458.24401   -566.38258     37926.35 
  629900    290.56952   -1489.2957    471.57324    292.73614   -1038.8653     37926.35 
  630000     295.6168   -1509.2826    470.65011    294.58912   -893.35562     37926.35 
  630100    297.18374   -1504.4218    472.73337    308.59997   -869.10794     37926.35 
  630200    304.25939   -1486.2979    467.91433    353.81582   -763.89247     37926.35 
  630300    293.73966   -1536.9135    493.85758    281.69987   -377.55483     37926.35 
  630400    309.12068   -1515.2201    490.73269     369.6362   -131.65732     37926.35 
  630500    299.41747   -1544.1339    451.64039    257.86896    298.38924     37926.35 
  630600     300.4638   -1562.7009    464.70318    257.08367    427.79163     37926.35 
  630700    291.93449   -1564.6137    476.85775    228.85853    314.22129     37926.35 
  630800    296.06131   -1546.2852    479.43227    268.37343   -1.1540148     37926.35 
  630900    312.77858   -1497.2707    487.17365    400.52363    -90.10917     37926.35 
  631000    303.43502   -1516.6844     492.7012    344.49828     360.4647     37926.35 
  631100    296.48113   -1495.5073    514.85004    356.46243     99.28165     37926.35 
  631200    298.84241   -1469.1508      496.873    375.49117    354.05569     37926.35 
  631300     295.3563    -1464.365    479.53444    347.21622    249.53485     37926.35 
  631400     307.6818   -1440.4514    486.77007    433.95297   -329.21984     37926.35 
  631500    288.91322   -1465.5878    524.03078    361.43166   -275.34225     37926.35 
  631600    300.12668   -1490.8615     510.8673    373.56679    58.769438     37926.35 
  631700    296.65682   -1485.5969    482.06015    334.37532   -109.83292     37926.35 
  631800    300.05582    -1464.793    495.19645     383.6449    60.373384     37926.35 
  631900      304.832   -1447.8248    519.27145    446.22852    272.24537     37926.35 
  632000    304.30157   -1468.1808    479.76896    383.97779    400.51181     37926.35 
  632100    299.29141   -1485.1654    507.58988    372.21847    55.321198     37926.35 
  632200     301.3169   -1488.9139    488.02634    358.04124    199.54846     37926.35 
  632300    302.59176   -1525.5015    491.27382    330.45077   -5.0266523     37926.35 
  632400    309.72209   -1532.8121    465.82177    329.84567   -72.411995     37926.35 
  632500    286.52306   -1515.4009    493.90367    270.71188   -207.24317     37926.35 
  632600    308.59582   -1495.3151    484.62899    381.07046    613.27374     37926.35 
  632700    294.19343    -1507.317    473.87895     293.3642    222.09757     37926.35 
  632800    307.75918   -1526.8734    508.31294    369.42282   -71.303599     37926.35 
  632900    286.22009   -1502.0385    489.63709    278.44128    283.78895     37926.35 
  633000    300.91769   -1519.4207    499.38387    337.09154    314.52053     37926.35 
  633100    306.53945   -1534.3448    500.52115    348.65875     610.5145     37926.35 
  633200    307.10774   -1540.3064    490.75223    335.49114   -203.45006     37926.35 
  633300    308.51926   -1496.3492    464.08814    359.15022   -256.26708     37926.35 
  633400    307.34671   -1512.1397    488.80577    362.78921   -543.25406     37926.35 
  633500    310.45872   -1521.6798    466.91021    345.38857   -420.80506     37926.35 
  633600    301.56124   -1531.4392    488.58782    317.17943    303.09465     37926.35 
  633700    295.41329   -1559.2048    495.08906    268.18801    108.67654     37926.35 
  633800    300.27601   -1567.2449     476.0108    263.00039   -336.62126     37926.35 
  633900    300.40275   -1596.7216    481.96033    240.04478    8.4266523     37926.35 
  634000    304.05824   -1550.7585    459.31046    279.84417   -33.367314     37926.35 
  634100    292.35241   -1539.1856     478.1663    257.48002   -688.55449     37926.35 
  634200    299.43938   -1528.2146     498.8353      321.082    104.79575     37926.35 
  634300    307.73752   -1513.6697    486.14823    360.36413    342.96253     37926.35 
  634400    291.87073   -1515.2803    492.71534    293.76198   -66.274266     37926.35 
  634500    308.32404   -1525.5159    477.26873     342.2836    506.93475     37926.35 
  634600    308.44463   -1475.9768     492.2793    407.37712    191.60522     37926.35 
  634700    301.16153   -1507.9886    487.74599    337.98554     307.2777     37926.35 
  634800    292.07311   -1481.9816    477.96685    313.22491     54.61148     37926.35 
  634900    296.01424   -1496.7087    542.62096    380.92635    212.97876     37926.35 
  635000    288.75555   -1460.0192    483.07722    325.33563    146.64279     37926.35 
  635100    298.17751   -1493.5396    485.31141     336.5421   -119.05232     37926.35 
  635200    294.15646   -1533.9066    498.91647    291.64544    60.945233     37926.35 
  635300    292.38199   -1515.3163    504.51648    307.83286    102.39319     37926.35 
  635400    304.36335   -1492.1262    510.98343    391.52547    194.31009     37926.35 
  635500    299.42832   -1508.0689    499.29421    341.63669   -258.10741     37926.35 
  635600    288.92229    -1504.645    489.41218    287.79683   -244.37041     37926.35 
  635700    304.63339   -1509.7514    487.03341    351.16814   -523.14692     37926.35 
  635800    301.23631   -1529.3059    504.57224    333.83178    175.52578     37926.35 
  635900    291.69384   -1524.3599    502.81305    293.98236    231.75723     37926.35 
  636000    301.28542   -1537.7985    478.04221    299.03057    295.32757     37926.35 
  636100    302.39832   -1533.0066    482.38689    313.18632    628.64233     37926.35 
  636200    301.19303   -1572.8111    463.75469    249.31377    231.65806     37926.35 
  636300    306.24677   -1477.6278    499.36277    402.89733    553.95953     37926.35 
  636400    299.13452   -1527.4376    492.74328    314.39207    104.51675     37926.35 
  636500    290.05899   -1459.7735    481.33489     329.7174    165.98821     37926.35 
  636600    301.77562   -1483.5935    491.37707    368.78118   -151.31108     37926.35 
  636700    304.92698   -1478.6681    494.11696    390.65908    211.92416     37926.35 
  636800    296.33214   -1471.3863    487.56265    352.62409    36.512569     37926.35 
  636900    294.32266   -1457.9398    487.43163    356.87692   -458.00434     37926.35 
  637000    300.87637   -1465.2618    509.86455    401.54485   -132.14934     37926.35 
  637100    297.99578   -1435.2204    495.51981     404.2501   -783.68926     37926.35 
  637200    293.53106   -1421.3715    523.00469    425.44815   -1228.9676     37926.35 
  637300    289.61224    -1427.303    493.56138    372.39959   -885.18943     37926.35 
  637400     299.2925   -1447.2764    511.83433    414.35679   -385.68616     37926.35 
  637500    306.87193   -1419.4367    497.24534    461.79044    192.91051     37926.35 
  637600    299.44909   -1450.7689    498.45471    398.19093   -509.29926     37926.35 
  637700    308.07171   -1452.2611    512.21922    449.35095   -233.80452     37926.35 
  637800    290.93987   -1404.8719    480.05783    387.31473   -905.69857     37926.35 
  637900    295.06981   -1432.6393    506.57236    404.68779   -860.13693     37926.35 
  638000    306.18444   -1435.0622    488.64738    434.46649   -575.66497     37926.35 
  638100    303.29558    -1505.171    489.21918    351.90085   -1050.5666     37926.35 
  638200    305.13804   -1439.3851    496.02504    432.80201   -745.01433     37926.35 
  638300    297.74355   -1439.9771    492.12923    394.96527   -812.87223     37926.35 
  638400    295.74077    -1485.475    489.78815    338.09382   -139.17149     37926.35 
  638500    303.65369   -1514.5043    485.27317    340.23661   -146.24823     37926.35 
  638600    307.33597   -1479.0798    495.14711    402.14195   -21.848009     37926.35 
  638700    304.42236   -1473.9302    482.53197    381.53618    329.48948     37926.35 
  638800    296.58094   -1444.8827    497.76365    390.45072   -290.66725     37926.35 
  638900    294.25309   -1450.8129     496.4495    372.70792   -256.03428     37926.35 
  639000    305.59048    -1458.994    493.91047    413.11907   -201.22243     37926.35 
  639100     307.5755   -1425.7888    492.30805    453.67416    218.76994     37926.35 
  639200    302.50769    -1405.662    529.07301    487.71023   -260.19337     37926.35 
  639300    296.86984   -1445.2887    480.02265    373.60673   -576.26619     37926.35 
  639400    305.33499   -1445.2787    496.05051    427.82208   -1004.5996     37926.35 
  639500    301.40625   -1419.3602    486.13953    426.11112   -944.91534     37926.35 
  639600    299.51057   -1424.1573    480.54065    407.16573   -477.82499     37926.35 
  639700    310.90925   -1488.6251    497.67111    411.23599   -433.64713     37926.35 
  639800    299.04738   -1458.8182    478.13073    368.00598   -483.30673     37926.35 
  639900    292.14087   -1422.6645    495.86793    390.74871    13.403424     37926.35 
  640000    307.43669   -1464.7644    460.01434    381.77879   0.10270583     37926.35 
  640100    296.99552   -1467.6781    486.68009    358.44158   -282.33186     37926.35 
  640200    299.80064   -1486.7172    496.60063    361.97399    231.75823     37926.35 
  640300    309.06992   -1422.1373    471.67012     443.4275   -146.97139     37926.35 
  640400    289.73112   -1459.7972    492.90402    339.78417   -744.84637     37926.35 
  640500    295.13629   -1399.6182     531.4877    462.92407   -11.056335     37926.35 
  640600    302.17883   -1446.8716    501.18636    417.13084    50.411885     37926.35 
  640700    300.44647   -1430.5035    490.91224      415.412    8.3450456     37926.35 
  640800     310.9894   -1439.0089    481.91721     445.4598    647.29134     37926.35 
  640900    291.20279   -1457.0615    501.85104    358.10408    1.0255299     37926.35 
  641000    305.63581   -1454.5083    485.87014    409.76881    197.33676     37926.35 
  641100      300.838   -1433.5379    478.13726    401.36833    42.772835     37926.35 
  641200    292.25122   -1419.3305    494.57114     393.2836    505.81541     37926.35 
  641300    292.84674   -1415.6471    469.75344    374.83508    373.47176     37926.35 
  641400    291.40116   -1419.9261    497.43614    391.71925   -281.19062     37926.35 
  641500     307.8908   -1438.5377    502.18099     452.2202    91.975847     37926.35 
  641600    295.07995   -1457.7136    501.79834    374.88513   -65.864536     37926.35 
  641700    288.90534   -1447.3741    485.11527    340.69438    866.62191     37926.35 
  641800    295.85086   -1453.8057    496.89437    377.36591    1041.9057     37926.35 
  641900    305.52022   -1427.7099    483.63121    433.80699    733.76213     37926.35 
  642000    297.07743   -1457.4651    474.82495    357.16884    191.30677     37926.35 
  642100    297.73715   -1479.9997     485.6416    348.42614   -188.73014     37926.35 
  642200    299.31844   -1471.6095    485.38511    363.69151   -277.54292     37926.35 
  642300    293.99877   -1433.4855     501.1444    393.58324   -433.06531     37926.35 
  642400    292.66654   -1431.6995    518.85878    407.07537   -505.78016     37926.35 
  642500    297.81104    -1414.913    495.23385    423.43836   -329.58456     37926.35 
  642600    292.87391   -1443.8625    483.75278    360.74156   -414.83324     37926.35 
  642700    296.51193   -1424.5549    513.89332    426.59699   -1266.2488     37926.35 
  642800     299.9142   -1419.7993    507.66022    440.46368   -760.71854     37926.35 
  642900    298.34927   -1459.6539    487.75508    373.64615   -366.06623     37926.35 
  643000    303.64943   -1456.8872     487.9976    400.55891   -1243.1828     37926.35 
  643100    304.21241   -1427.0366     498.8029    443.75385   -826.00438     37926.35 
  643200    296.76843   -1478.8158    463.44792    323.04753   -1213.9382     37926.35 
  643300    306.94533   -1460.8744    487.47666    410.91513   -828.12866     37926.35 
  643400    296.31422   -1465.2377    501.06432    372.19354   -269.95395     37926.35 
  643500    302.43303   -1416.7618    499.83402    447.03477   -105.03422     37926.35 
  643600    297.74287   -1463.4997    487.97177    367.28221    60.424474     37926.35 
  643700    294.57932   -1490.1191    479.11165    317.53515    511.82457     37926.35 
  643800    299.40336    -1468.172    482.47589    364.60275    583.20612     37926.35 
  643900    302.34712   -1481.4379     497.1436    379.28082    825.59625     37926.35 
  644000    310.17312   -1473.3248    485.98474    411.53009    678.02632     37926.35 
  644100    302.89532   -1435.2584    482.04246     412.8315    328.61473     37926.35 
  644200    290.30053   -1386.4224    513.51723     436.3402    238.25488     37926.35 
  644300    304.85002   -1459.0781    491.37873    407.16368   -704.09907     37926.35 
  644400    300.39407   -1468.9212    495.24076    381.08641   -1022.9239     37926.35 
  644500    300.06842   -1436.8583    457.17746    373.61744   -918.82724     37926.35 
  644600    305.44919   -1455.3884    495.05555    417.23252   -1136.3145     37926.35 
  644700    300.15086   -1455.0476    461.58486    360.20734   -469.05591     37926.35 
  644800    293.80768   -1488.3167     460.3152      297.061   -741.33564     37926.35 
  644900    310.46601   -1450.0762    479.45567    429.57048   -916.88932     37926.35 
  645000    297.64261    -1431.938    484.32859    394.74846   -710.21256     37926.35 
  645100    302.44978   -1464.5525      481.074    380.55957   -426.34867     37926.35 
  645200    298.61291    -1483.934    475.70322    338.50321    244.23934     37926.35 
  645300    297.71424   -1486.3619      468.181    324.50015    137.74056     37926.35 
  645400    309.39049   -1510.9453    483.29064    367.68583      42.1826     37926.35 
  645500    297.76434   -1523.1751    490.18562    309.91743    -174.3431     37926.35 
  645600     308.1779   -1492.2102    490.39619    388.05774    273.73844     37926.35 
  645700    300.54145   -1481.5757     482.2602    356.11609     395.6681     37926.35 
  645800    309.08999   -1555.2158    472.69163    311.46109     276.3221     37926.35 
  645900    288.66784   -1500.8913    488.41988    289.41064     423.6359     37926.35 
  646000    305.63839   -1476.2524    466.04434     368.2106   -61.113403     37926.35 
  646100    301.23317   -1454.6144    477.34048    381.27732   -193.18349     37926.35 
  646200    299.16331    -1487.682    502.19273    363.72698   -66.635413     37926.35 
  646300    298.35627   -1472.2687    473.29923    346.60704    117.73166     37926.35 
  646400    298.21656   -1479.2853    501.95682    367.61795   -154.04177     37926.35 
  646500    309.68715   -1467.3391    469.83056    399.16987    117.11296     37926.35 
  646600    304.57931   -1466.1976    481.83274    389.27735    317.16055     37926.35 
  646700    291.12334   -1458.6894    484.25791    338.52477    196.09868     37926.35 
  646800     298.4015   -1478.6017    478.84424    346.02304   -614.32633     37926.35 
  646900    298.12796   -1460.8902    480.95677    364.61337   -558.94962     37926.35 
  647000    300.72621   -1469.1655    479.52325    366.62263   -304.63448     37926.35 
  647100    297.04405   -1447.4354     486.4933     378.7164   -307.86641     37926.35 
  647200    301.06992   -1465.9621     488.4371    380.28992    -638.4053     37926.35 
  647300    296.17352   -1436.1773    534.88065    434.43574   -135.41664     37926.35 
  647400     296.2571   -1460.6905    471.04028    346.45907   -203.73706     37926.35 
  647500    296.80516   -1466.7601    482.18719    354.00811   -451.40812     37926.35 
  647600     302.0947   -1462.6096    471.48407    371.31117   -512.62038     37926.35 
  647700     305.8508   -1460.2068    490.50708    409.67682   -596.23328     37926.35 
  647800    298.27367   -1430.0686    492.42971    407.56509   -362.30425     37926.35 
  647900    296.96169    -1458.182    480.56693    361.67195    -1.709156     37926.35 
  648000    294.49336   -1436.9001     493.1177    384.37247    353.65247     37926.35 
  648100    296.30752   -1464.9285    506.74488    378.15307    367.39781     37926.35 
  648200    301.98675    -1426.483    494.79294    430.25976    485.10264     37926.35 
  648300    299.20801   -1466.5944    482.18502    365.00846    298.22998     37926.35 
  648400    303.61164   -1459.0565    482.10013     392.3217    236.80549     37926.35 
  648500    300.18619    -1438.198    481.83272    397.46407   -92.905454     37926.35 
  648600    298.64876   -1463.0473    487.89781    371.74613    262.82098     37926.35 
  648700    302.55821   -1447.0589    476.59524    394.06342   -124.30975     37926.35 
  648800    303.75611   -1472.6649    494.30628    391.57094   -190.63677     37926.35 
  648900    297.70669   -1462.1808    493.44483    373.91099   -257.06362     37926.35 
  649000    301.93129   -1464.3011    500.33131    397.72994   -266.58183     37926.35 
  649100    292.56534   -1473.4516    453.40989    299.41795    101.82173     37926.35 
  649200     296.3294    -1464.592     531.0782    402.92157    542.26151     37926.35 
  649300    291.02986    -1477.023    482.32275    317.83444    454.85467     37926.35 
  649400    293.92976   -1477.1145    476.67403    325.17263    511.11541     37926.35 
  649500    292.91654   -1463.3037      494.013    351.75283    442.04573     37926.35 
  649600    296.81089   -1461.2552    474.41006    351.76177    358.82705     37926.35 
  649700    304.64421   -1471.0993    536.05883    438.89446   -463.40918     37926.35 
  649800    298.19943   -1481.5796    472.48339    335.77297   -812.95723     37926.35 
  649900    301.19971   -1473.8023    492.21223    376.81024   -1044.8773     37926.35 
  650000    291.33727   -1462.2519     501.6725    353.34164   -654.11017     37926.35 
  650100    299.53552   -1451.2914    492.22545    391.82898   -39.751796     37926.35 
  650200    292.55612   -1454.6424    491.70515    356.48076    246.53212     37926.35 
  650300    299.21441   -1497.2652    501.73348    353.91501    301.10595     37926.35 
  650400    308.96749   -1469.2204    497.24269    421.45508    391.37452     37926.35 
  650500    299.31475   -1466.9852    482.84608    365.76008    607.70106     37926.35 
  650600    302.99206   -1440.0973    484.42397    410.81048    40.282369     37926.35 
  650700    303.10605   -1520.4639    488.07483    334.60881   -190.67388     37926.35 
  650800    304.10649   -1462.2063    461.01777    370.32129    53.062025     37926.35 
  650900    301.90176   -1467.1599    499.51691    393.92357    61.345047     37926.35 
  651000    302.54159   -1459.6932    473.42524     378.1842   -233.01903     37926.35 
  651100    299.89778   -1446.7066    484.83113    390.65318   -418.12406     37926.35 
  651200    304.41429   -1439.9298    495.88453    428.85275   -759.31782     37926.35 
  651300    295.25041   -1467.8781    429.65161    293.34269   -669.31371     37926.35 
  651400    296.44611   -1503.7272    480.95004    314.18464   -595.70667     37926.35 
  651500    300.44877   -1487.9324    517.28909    384.37033    133.34052     37926.35 
  651600    303.59446   -1504.1709    446.34581    311.37544    521.95768     37926.35 
  651700    302.95261   -1499.1009    499.61007    366.81507    650.55017     37926.35 
  651800    293.31071    -1507.669    468.27323    283.42543    333.39887     37926.35 
  651900    289.80519   -1456.1834    467.68723    318.51527   -131.56068     37926.35 
  652000    301.57579   -1433.7585    481.87054    408.20846    532.88209     37926.35 
  652100    298.43691   -1434.3973    458.64615    370.18906    186.46577     37926.35 
  652200    302.44823   -1485.3893    487.48794    366.12981    506.94456     37926.35 
  652300    305.39048   -1487.3648    485.62184    375.55762   -84.591489     37926.35 
  652400    291.98851   -1485.1568    475.13145    306.83283   -496.62349     37926.35 
  652500     302.7075   -1521.3546    480.26415    324.10994    100.86882     37926.35 
  652600    302.94776   -1507.5205    475.06757    333.83105   -347.28915     37926.35 
  652700    302.92257   -1485.2538    466.68816    347.60474    42.292354     37926.35 
  652800    293.56439   -1486.0819    495.64675    333.53012   -268.65202     37926.35 
  652900    298.54824   -1479.8864    500.24658    366.80246    353.79245     37926.35 
  653000    297.18856   -1454.6325    501.34288    387.02059    400.32638     37926.35 
  653100    293.02053   -1472.1476    524.96763    374.33257    1199.0172     37926.35 
  653200     298.2613   -1440.8953    482.06033    386.31321    1083.1583     37926.35 
  653300    298.95549   -1474.2474    499.09957    373.13121    493.02164     37926.35 
  653400    298.34123   -1456.4572    499.79462    388.84607    499.64646     37926.35 
  653500    296.75895   -1456.4848    498.38474    380.27261    903.11577     37926.35 
  653600    299.04236   -1490.2355    501.96478    360.40008   -10.539292     37926.35 
  653700    312.26192   -1480.9795    484.19285    411.50386     207.0297     37926.35 
  653800    298.44341   -1505.7568    484.42533    324.63805   -716.92334     37926.35 
  653900    307.27945   -1497.5405    490.13968    378.41888   -503.24318     37926.35 
  654000     295.0645   -1465.1751    510.16319    375.71885   -478.23644     37926.35 
  654100    299.72483   -1463.3016    473.04719     361.4943    -584.1654     37926.35 
  654200    305.27403   -1467.7563    487.92751    396.94659   -317.36314     37926.35 
  654300    309.59019   -1442.1218    521.05994    475.17923   -101.55137     37926.35 
  654400    295.62339   -1463.3543    469.91772    339.81476    228.31136     37926.35 
  654500     295.0321    -1405.884    488.83757    413.53822   -299.57974     37926.35 
  654600    294.15605   -1485.9524    509.34123    350.02252   -123.91554     37926.35 
  654700    288.91942   -1449.9074    483.30315    336.41238   -396.28147     37926.35 
  654800    303.40737   -1472.4798    503.46204    399.33905   -14.830042     37926.35 
  654900    309.91168   -1457.1628    488.12228     428.6505    64.296634     37926.35 
  655000    307.48266   -1473.5327    492.41422    405.61776   -245.90652     37926.35 
  655100    311.07951   -1450.4018    485.87179    438.42786   -408.10177     37926.35 
  655200    303.43076    -1479.136    489.47489    378.80117   -642.60683     37926.35 
  655300    301.70559   -1467.4276    521.68147    414.93567   -257.37067     37926.35 
  655400    304.73692    -1473.465    480.47241    381.36045    91.282803     37926.35 
  655500    303.81215   -1479.6546    508.54596    399.07366    284.38167     37926.35 
  655600    303.68913   -1490.6383    495.48585    374.47507   -419.03068     37926.35 
  655700    297.05966   -1490.0579    503.07213    352.74307    60.516062     37926.35 
  655800    296.76367   -1456.3263    485.90621    367.97389    692.99481     37926.35 
  655900    295.65557    -1475.733    516.75572    374.41913    700.82285     37926.35 
  656000    304.33266   -1471.7606    477.68005    378.44931    477.07234     37926.35 
  656100    298.26697   -1449.7648    500.84486    396.25386    328.76735     37926.35 
  656200    305.65689   -1485.7753    498.85087    391.57763    211.59517     37926.35 
  656300    304.18021   -1488.5554    505.86647    389.15332    198.67622     37926.35 
  656400    298.07606   -1499.3976    459.21691    304.13205    223.89737     37926.35 
  656500    294.44099   -1480.5297    513.16676    360.55576    448.29119     37926.35 
  656600    299.40745   -1507.7722    487.90227    330.44734    110.17129     37926.35 
  656700    293.82996   -1498.9475     485.7543    311.96982   -287.39089     37926.35 
  656800    293.67889   -1510.8292    481.19211    294.84455   -172.31524     37926.35 
  656900    309.65229   -1476.5147    499.19698    419.20344   -295.34747     37926.35 
  657000    304.54631   -1435.2157    491.12192    429.39964   -243.15614     37926.35 
  657100    301.46728   -1460.0952    492.29705    391.80895   -478.53938     37926.35 
  657200    306.91463   -1489.7024    520.33887    414.81085   -206.91793     37926.35 
  657300    302.55878   -1484.2069    495.24323    375.56603   -19.932009     37926.35 
  657400     310.1414   -1517.9726     511.3902    392.14468   -36.309375     37926.35 
  657500    293.02642    -1507.438    499.10268    313.20381   -574.04686     37926.35 
  657600    301.19501    -1496.938    494.84391    356.28499   -181.93021     37926.35 
  657700    300.54696   -1515.1374    493.15867    333.47772   -164.62414     37926.35 
  657800    294.43578   -1468.4846      515.868    375.27865    119.19413     37926.35 
  657900    298.33003   -1420.4034    526.19351     451.2483   -64.199298     37926.35 
  658000     303.0141   -1415.8185    487.73828    438.50295    -139.4849     37926.35 
  658100    292.39045    -1449.755     513.0178    381.93367    -561.6449     37926.35 
  658200    303.71342   -1480.1741    502.81315    392.37611   -449.49543     37926.35 
  658300    301.46016   -1489.7912    484.07589    353.85961   -462.96185     37926.35 
  658400    285.92521   -1465.7042    493.08066    316.88935   -478.22079     37926.35 
  658500    303.23873   -1447.8396    502.89974    422.65644   -652.48881     37926.35 
  658600    298.72281   -1448.4615    527.83744    426.60558   -321.45058     37926.35 
  658700    288.37919     -1473.48    499.32538    326.42561   -382.49637     37926.35 
  658800    295.64989   -1454.2888    500.19074     379.2728   -526.80116     37926.35 
  658900    304.55687   -1428.8241    505.95756    450.67449   -197.36889     37926.35 
  659000    298.54957   -1445.7566    486.70778    387.39941   -515.87686     37926.35 
  659100    299.96716   -1473.1758    488.89042    368.55625   -285.55154     37926.35 
  659200    302.40216   -1467.0994    489.64469    386.36869     239.2661     37926.35 
  659300    303.19507     -1480.37    484.65723    371.68652   -65.644567     37926.35 
  659400     310.7105   -1491.1917    487.74852    397.85049    303.70713     37926.35 
  659500    294.01004   -1448.3941    511.63692    389.21805    293.84504     37926.35 
  659600    295.57242   -1475.5381    515.69659    373.17998    905.20915     37926.35 
  659700    298.20804   -1498.2576    518.46921    365.11967    786.84503     37926.35 
  659800    300.38561   -1468.2952    519.89826    406.33184    746.73662     37926.35 
  659900     310.9113   -1492.3444    511.09402    420.94892    498.65082     37926.35 
  660000    302.81202   -1494.5786    498.49543    369.58861    762.05161     37926.35 
  660100     301.6249   -1500.2438    478.65677    338.73085    557.48708     37926.35 
  660200    299.51668   -1479.3126     480.0745     351.5718    510.50265     37926.35 
  660300    304.88854    -1469.102    536.63386    442.56873    439.61201     37926.35 
  660400    293.35802   -1468.2724    492.16937    346.93152   -214.68533     37926.35 
  660500    292.21258   -1424.5079    519.91113    413.27196    30.008993     37926.35 
  660600    304.50924   -1477.3085    507.27313    403.29086    276.30212     37926.35 
  660700    299.80349    -1503.217     497.2469    346.13329   -51.725296     37926.35 
  660800    287.25041   -1506.4419    496.45092    285.49845   -293.59064     37926.35 
  660900    304.97309   -1491.4504    486.48837    370.45609   -290.82154     37926.35 
  661000    297.28759   -1460.3622    521.78317    402.17777   -403.87349     37926.35 
  661100    304.18591   -1491.9702    484.68393    364.58174    -389.4219     37926.35 
  661200    296.34312   -1453.7526    499.43254    382.17725    582.28953     37926.35 
  661300    302.66181   -1483.6278    504.58848    385.95499    85.882794     37926.35 
  661400    303.36142   -1470.7701    492.34181     389.7213    -123.2602     37926.35 
  661500    306.23006   -1441.4197    516.98907    456.65641    105.35493     37926.35 
  661600     308.4815   -1450.5806     477.8392    418.49957    55.213664     37926.35 
  661700    295.15293   -1484.2746    509.23293    356.08786   -13.949962     37926.35 
  661800    291.86761   -1501.3539    499.90382     314.8628    37.376745     37926.35 
  661900    286.47758   -1491.4298    489.16415    289.73837    54.456551     37926.35 
  662000    312.09972    -1463.961    510.36567    453.96362    31.016387     37926.35 
  662100     305.7947   -1454.2124    501.47771    426.38888    190.23876     37926.35 
  662200    292.48566   -1471.7676    490.23636      337.569   -610.46993     37926.35 
  662300     306.4257   -1481.2408    527.22682    427.95535    -75.02033     37926.35 
  662400    297.49999   -1444.7966    522.64544    419.56358   -81.169529     37926.35 
  662500    302.81423   -1447.4815     486.1692    404.36945    186.67452     37926.35 
  662600    306.63933   -1485.7334    494.90123    392.10068    109.27924     37926.35 
  662700    294.43687   -1511.5679    478.38107    294.71334    9.4658292     37926.35 
  662800    300.37539   -1514.1711    495.96436    336.47592   -169.42109     37926.35 
  662900    298.84013   -1500.7146    483.93042    330.97458    247.06135     37926.35 
  663000    291.46353   -1506.8803    503.44822    311.05843   -479.40068     37926.35 
  663100    302.89272   -1558.4629    441.91739    249.49019    -455.4861     37926.35 
  663200    295.60514   -1500.7418     494.1072    326.53445   -100.93083     37926.35 
  663300     298.6964   -1534.5138    528.19793    340.79463   -304.93586     37926.35 
  663400    301.94026   -1523.3311    457.82408    296.23315    163.55649     37926.35 
  663500    309.16224   -1514.5859    517.94783    397.67297    25.426548     37926.35 
  663600    293.63696   -1542.7622    474.38662    255.91703   -433.60062     37926.35 
  663700    307.96551   -1501.4012    503.39573    390.90844   -282.71365     37926.35 
  663800    301.21176   -1507.2706    484.03882    335.22288   -417.41486     37926.35 
  663900    299.97537   -1532.1662    473.73407    294.44652   -521.29829     37926.35 
  664000     307.8729    -1527.062    481.29919    342.73332    -9.743925     37926.35 
  664100    292.06911   -1525.7804    496.38348    287.82473   -136.21606     37926.35 
  664200     294.6885   -1540.8465    498.74695    286.93544    387.14749     37926.35 
  664300    297.54851   -1539.0769    486.42207    289.27874    443.90597     37926.35 
  664400    304.66103   -1488.0364    521.28225    407.25661    262.53846     37926.35 
  664500    304.31824   -1490.9424    494.77986    376.30227    539.00243     37926.35 
  664600    295.42154   -1491.0431    500.43799    341.73583    959.42841     37926.35 
  664700    297.17277   -1500.5517    493.10007    332.78734    341.90016     37926.35 
  664800    298.22795    -1473.121    487.75729    359.63405    78.471535     37926.35 
  664900    301.73404   -1505.2162    513.64641    369.24032   -55.654993     37926.35 
  665000     295.8599   -1518.3038    491.25745     307.2716    41.675794     37926.35 
  665100    308.40332   -1493.2744    504.64974    402.26368    2.4819875     37926.35 
  665200     299.8267   -1459.5571    499.18548    391.83648      249.289     37926.35 
  665300    295.26888   -1498.6334    512.56454    345.58364   -595.43726     37926.35 
  665400    304.47668    -1552.332    496.85584    317.70326   -113.19246     37926.35 
  665500     301.9435     -1492.36    506.42459    375.81934   -337.47195     37926.35 
  665600    303.15463   -1506.0269    499.76365    360.95372   -449.87452     37926.35 
  665700    299.41839   -1522.7325    498.90933    326.54344   -311.14368     37926.35 
  665800    299.05522   -1493.0292    480.76367    336.46324   -103.23084     37926.35 
  665900    298.80848    -1508.719    499.24798    338.14495   -383.26943     37926.35 
  666000    305.62446   -1521.1987    472.37749    329.53466   -226.27003     37926.35 
  666100    305.69288   -1518.4426    502.52957    362.75138    -171.6349     37926.35 
  666200    292.53293   -1542.3461    485.91823    262.88554    95.763916     37926.35 
  666300     303.9942   -1507.4635    508.12381    371.66365    190.36679     37926.35 
  666400     295.5285   -1530.1132    479.80964    282.51984   -180.28769     37926.35 
  666500    310.21094    -1517.725    494.38703    375.70275    76.002556     37926.35 
  666600    299.99531   -1544.2373    471.10166    279.83289   -502.40161     37926.35 
  666700    295.32865   -1547.3349    488.09579    272.68294     -335.655     37926.35 
  666800    294.79541   -1485.4421     496.3128    340.38783   -877.10451     37926.35 
  666900    293.12606   -1556.9715    483.60876    248.62568   -158.68673     37926.35 
  667000    300.37218   -1541.3005    501.63441    315.00213    198.27895     37926.35 
  667100    293.65253    -1530.277    508.67505    302.76087   -552.37818     37926.35 
  667200    304.02273   -1520.6419    467.31806    317.80821   -282.32246     37926.35 
  667300    293.70407    -1498.625    486.12664    312.09692   -247.90047     37926.35 
  667400    294.62641   -1490.2058    490.01767    328.56681   -103.89473     37926.35 
  667500    302.78593   -1492.1462    487.11709      360.525   -106.44995     37926.35 
  667600    306.24774   -1485.1954    472.82806    368.79937   -253.54391     37926.35 
  667700    302.72299   -1501.5797    490.75803    354.44859     113.0512     37926.35 
  667800    300.34005   -1575.0083    502.02436    281.53942   -566.42699     37926.35 
  667900     299.9476    -1568.529    487.00502     271.2294    259.22417     37926.35 
  668000    297.68277   -1539.7527    510.21525    313.00157    244.67893     37926.35 
  668100    299.67281   -1566.6225     462.5145    247.40605    353.22978     37926.35 
  668200    294.31398   -1545.4459    497.57066    279.47064    559.70332     37926.35 
  668300    299.97647   -1580.9259    497.83504    269.79272    435.52981     37926.35 
  668400    298.88337   -1520.5476    503.29071    330.69684    439.72134     37926.35 
  668500    297.72315   -1563.6232    480.98167    260.07961    589.37358     37926.35 
  668600    300.02758   -1518.2464    498.46226    333.32996    253.98738     37926.35 
  668700    298.83548    -1505.127    502.22967     344.8404    447.32947     37926.35 
  668800    307.83316   -1491.0148    530.98097    428.28308    912.92265     37926.35 
  668900    298.48705   -1486.6235    498.86933    358.41217   -102.28715     37926.35 
  669000    313.30198   -1453.3714    495.12344    454.73319     194.4582     37926.35 
  669100     301.9418   -1442.3294    500.46188    419.87968    189.06489     37926.35 
  669200    297.42668   -1431.3456    513.65883    423.69731    41.269197     37926.35 
  669300    293.97118   -1465.0189    501.30869    362.08969   -78.406899     37926.35 
  669400     304.4967    -1483.372    513.48072    403.37835    3.4109565     37926.35 
  669500     308.3388   -1488.8026     458.2835    360.07828   -198.71502     37926.35 
  669600    301.93115   -1506.0998    508.56306    364.16233   -270.52216     37926.35 
  669700    296.74297   -1463.5243    485.24073    360.01702    84.657332     37926.35 
  669800    301.43077   -1462.7254    545.65281    442.36979    178.94639     37926.35 
  669900    306.96545   -1454.9042    491.70191    421.20138   0.44224505     37926.35 
  670000    302.92899   -1501.2961     511.2259    376.12911    23.371627     37926.35 
  670100    298.02921   -1460.4814    488.36032    371.98039   -91.665394     37926.35 
  670200    288.60994   -1485.1602    511.16755    327.62831   -90.210693     37926.35 
  670300    303.71389   -1502.2034    487.83181     355.3676    422.24431     37926.35 
  670400    294.60006   -1508.4171    523.19918    343.41818    643.00591     37926.35 
  670500    303.32708   -1490.8146    526.08127    403.26134    739.77005     37926.35 
  670600    293.24043   -1541.0415    476.39769    257.86042    -23.02581     37926.35 
  670700     311.4229   -1521.7652    495.49881     378.2402    291.78086     37926.35 
  670800    297.31225   -1477.6629    498.78544    361.99053    343.38174     37926.35 
  670900    296.71095   -1479.1148    529.50828    388.54964   -91.178955     37926.35 
  671000    293.62626   -1420.9169    513.71174    417.03914    3.6258877     37926.35 
  671100    304.02926   -1447.3638     492.8032    416.60095   -73.764786     37926.35 
  671200    300.23072   -1485.7114    500.09973    368.41859   -252.93702     37926.35 
  671300    295.13027   -1501.3276    514.88733    344.58715   -461.96992     37926.35 
  671400    306.49209   -1516.2265    492.39927    358.44157   -472.09272     37926.35 
  671500    295.39147   -1507.9043    493.14119    317.44222    407.72992     37926.35 
  671600    300.91905   -1507.7116    484.04851    333.47153    101.93465     37926.35 
  671700    305.83993    -1524.087    498.48101    353.72157   -622.68887     37926.35 
  671800    308.71731   -1494.3081    498.69554    396.69187   -181.23127     37926.35 
  671900    303.87217   -1503.7015    504.49675    371.24829    341.79131     37926.35 
  672000    293.32908   -1489.0934    496.30344    330.11412    668.86333     37926.35 
  672100    297.70411   -1490.9855    510.69794    362.34779   -135.22492     37926.35 
  672200    296.22681   -1472.9349    529.65612    392.69397    475.36411     37926.35 
  672300    298.00038   -1486.8231    499.24618    356.39454    56.408868     37926.35 
  672400    291.84106   -1479.0899    501.35583    338.45906    751.96936     37926.35 
  672500    310.67857   -1472.1908    502.27681     431.2357    945.92719     37926.35 
  672600    293.35553   -1497.2252    503.83237    329.63056    233.88517     37926.35 
  672700    306.34082   -1472.6321    497.93388    406.88832   -26.704316     37926.35 
  672800    299.48121   -1507.1498     503.4559    346.95604     112.6599     37926.35 
  672900    297.37034   -1467.3402    511.44476     385.2346    468.11489     37926.35 
  673000    304.43952   -1479.0606    522.16977    416.12096    242.15953     37926.35 
  673100    292.50638   -1516.4241    489.40056    292.17018    109.13329     37926.35 
  673200    310.50275   -1446.5573    516.19359      469.993   -403.70156     37926.35 
  673300    291.84876   -1469.8876    501.51703    347.85728   -855.62948     37926.35 
  673400    295.25424   -1509.4698    479.11584    301.23251   -445.09334     37926.35 
  673500    297.59547    -1467.137    491.87418    366.88248   -185.50439     37926.35 
  673600    299.28611   -1509.2664    507.11676    347.62039   -548.27411     37926.35 
  673700    301.55093   -1511.7425    486.14339    334.38518   -657.30983     37926.35 
  673800    299.16415   -1469.8431     520.8251    400.20203    -958.2972     37926.35 
  673900      302.798   -1431.6766    504.01993    437.95193   -892.06686     37926.35 
  674000      306.445   -1438.5743    488.52285    432.00493   -243.36452     37926.35 
  674100    291.25109   -1439.5261    506.99245    380.99877   -70.908708     37926.35 
  674200    283.51873   -1480.1991    506.98297    305.44361  -0.46767448     37926.35 
  674300    296.44716   -1534.7259    479.45367    281.69428    226.06988     37926.35 
  674400    300.62345   -1503.4509    500.97903    353.32959    228.32526     37926.35 
  674500     297.6153   -1491.6994    509.74882    360.28413    238.77155     37926.35 
  674600    295.40487   -1495.4633    504.19611    340.99866    311.50369     37926.35 
  674700    307.60823     -1489.46    504.86471    402.70724   -92.943746     37926.35 
  674800    290.61169   -1534.6403    513.96759    289.97602   -60.567379     37926.35 
  674900    303.10106   -1519.1084    468.05116    315.91815   -591.16411     37926.35 
  675000    295.04234   -1517.6381    482.01371     295.0064    6.2458166     37926.35 
  675100    297.53821   -1544.8926    515.26241    312.25686     154.0831     37926.35 
  675200    309.18454   -1549.1119    493.86095    339.16074    334.40817     37926.35 
  675300    288.78702   -1479.2199    510.54841    333.74805    206.50038     37926.35 
  675400    300.77826   -1487.5108    487.47043    356.45926   -82.081036     37926.35 
  675500    298.35328   -1502.2697    496.28577    339.57905   -30.346389     37926.35 
  675600    299.33234   -1527.2683    500.45747    323.16774    137.43996     37926.35 
  675700    305.78131   -1523.0665    517.85782    373.85448    437.26254     37926.35 
  675800    303.23442   -1496.6587    503.05658    373.97465    959.52803     37926.35 
  675900    306.75059   -1474.9682    502.82651    411.29297    783.77184     37926.35 
  676000    289.84509   -1490.7731    469.89103    286.30925   -314.26927     37926.35 
  676100      294.074   -1471.9507    511.96915    366.28202    197.47828     37926.35 
  676200    302.95768   -1494.8288    492.15374    363.65367     51.19213     37926.35 
  676300    303.64843   -1526.8268    480.07204    322.68925    -279.2597     37926.35 
  676400    305.76978   -1518.4399     484.9666    345.53784   -366.00154     37926.35 
  676500    305.10873   -1507.2905    484.62707    353.36648   -550.80366     37926.35 
  676600    305.19663   -1502.9331    484.23896    357.73214   -384.60223     37926.35 
  676700    297.59231   -1491.6305    463.43341    313.93395    94.893907     37926.35 
  676800    297.40551   -1498.9526    507.19308     349.5291   -210.32304     37926.35 
  676900    303.85868    -1478.006    501.03285     393.4191   -126.24083     37926.35 
  677000    291.57053   -1467.2883    471.59373    319.27846     99.14013     37926.35 
  677100     297.1471   -1465.2013    472.86738    347.78924   -161.73518     37926.35 
  677200    304.34853   -1442.4074    501.19519    431.38922   -9.0251814     37926.35 
  677300    293.32675   -1495.5461    471.22185    298.56936     88.06263     37926.35 
  677400     305.3299    -1470.181    491.01909    397.86541    247.23622     37926.35 
  677500    288.63357    -1483.859    483.63038    301.49884    -424.0589     37926.35 
  677600    299.88659   -1470.0699     521.1473    403.55558   -203.95539     37926.35 
  677700    296.16952   -1469.3693    487.07698    353.42203   -321.55298     37926.35 
  677800    292.30478   -1499.8836    484.06672    302.46763   -328.75134     37926.35 
  677900    309.98183   -1451.9532     467.2877    413.34191   -273.28595     37926.35 
  678000    298.81642   -1452.1242    501.72875    397.25635   -478.61815     37926.35 
  678100    300.51038   -1510.1918     502.0039    347.10355    105.89219     37926.35 
  678200    293.99203   -1505.6764    493.33593    313.55344    49.522261     37926.35 
  678300    297.30584   -1438.9392    508.79692    410.69686   -642.39141     37926.35 
  678400    306.63581   -1411.0013    487.87678     459.7924    -547.8965     37926.35 
  678500    311.32685   -1474.6236    497.45773    426.90755   -284.95153     37926.35 
  678600    299.82521    -1431.436    540.94487    461.71026    85.351805     37926.35 
  678700    299.83261   -1426.7484    510.44095    435.92729   -126.78972     37926.35 
  678800    295.69083   -1442.4503    494.46995    385.57512    260.20705     37926.35 
  678900    306.28587   -1426.1593    511.41827    466.59768      586.353     37926.35 
  679000    305.96254   -1433.0955     485.1606    431.94566    744.38805     37926.35 
  679100    294.50527   -1454.9725    495.39403    368.63014    1125.8791     37926.35 
  679200    312.02652   -1468.1661     488.7329     427.7957    213.07267     37926.35 
  679300    299.64363   -1443.4659    522.80804     430.7246    472.81844     37926.35 
  679400    295.09567   -1445.3788     532.6885    418.18105   -522.25053     37926.35 
  679500    305.55866   -1448.8036    466.25172    395.50719    317.69166     37926.35 
  679600     297.1454   -1488.5703    486.52988    338.07506   -882.04488     37926.35 
  679700    297.10533   -1500.2306    493.87421    333.57839   -371.36881     37926.35 
  679800    285.55336   -1434.3004    499.70465    353.24012   -395.03364     37926.35 
  679900    309.82387   -1460.7909    476.19253    412.69664   -459.22881     37926.35 
  680000    304.14394   -1450.1845    492.52718     414.0214   -366.25697     37926.35 
  680100     290.2517    -1480.411    511.27154    339.88571    58.762267     37926.35 
  680200    300.10842   -1526.8106    490.81914    317.48716    241.85758     37926.35 
  680300    297.96713   -1521.3302    508.13915    330.63044   -364.56207     37926.35 
  680400     292.2691   -1536.7056    487.68184    269.09989   -26.946735     37926.35 
  680500    299.55287   -1511.9981    481.35053    320.32559   -183.91033     37926.35 
  680600    307.02432   -1541.8913    479.07254    321.85033    397.95805     37926.35 
  680700    299.55544   -1486.1427    503.80932    368.65132    519.16967     37926.35 
  680800    306.81682    -1537.025    485.27123     331.9795    1000.4462     37926.35 
  680900    299.56585   -1510.2165    517.55234    358.36752    541.31877     37926.35 
  681000    293.63869   -1506.1248    471.18929    289.36491     582.4711     37926.35 
  681100     307.2239   -1490.6754    497.06952    391.96338   -130.01559     37926.35 
  681200    303.10865   -1494.2672    510.03779    382.78021    -316.5379     37926.35 
  681300    307.87869   -1538.0827    499.04573    349.48528   -63.974133     37926.35 
  681400    299.65032   -1487.5616    484.62232    348.47341    227.96978     37926.35 
  681500    292.63774   -1488.4745    517.13519     348.4468    575.48813     37926.35 
  681600    291.26365   -1514.2526    502.02097    301.35741    333.36209     37926.35 
  681700    292.09912   -1478.1265    507.72106    346.95157    146.36297     37926.35 
  681800    287.10515   -1510.8532    465.51054    249.49166   -525.70527     37926.35 
  681900    295.09634   -1522.4219    498.75551    307.20798    220.60385     37926.35 
  682000    301.21079   -1506.1478    494.71813    347.02059   -248.53906     37926.35 
  682100    289.21396   -1495.7175    515.48817     324.1157   -432.22385     37926.35 
  682200    293.84111   -1505.6989    491.02159    310.53598   -122.41451     37926.35 
  682300    307.28275     -1472.42     505.9839    419.39854    98.433656     37926.35 
  682400    295.30859   -1490.4412    497.21469    338.60504    780.13151     37926.35 
  682500    293.54374   -1498.7429    498.16701    323.29625    661.52604     37926.35 
  682600    304.63233   -1448.4649    511.87316    437.28955   -18.699926     37926.35 
  682700    299.87535   -1482.4508    484.09498    354.07176   -95.689598     37926.35 
  682800    298.94963   -1483.0624    493.28266    358.47282   -210.67882     37926.35 
  682900    293.97499   -1505.0702    535.94346    356.69031   -327.30016     37926.35 
  683000    294.21375   -1509.2211    511.60844    329.28127     290.6056     37926.35 
  683100    294.37462   -1470.9706    489.35725    346.00608    229.08055     37926.35 
  683200    307.76916   -1487.3422    499.40992    400.09604   -651.12488     37926.35 
  683300    302.60538   -1495.8356    458.20607    327.11037   -420.62893     37926.35 
  683400    302.44594   -1464.9621    523.50186    422.56054    -390.8776     37926.35 
  683500    301.46161    -1476.076    463.96654      347.472   -27.686666     37926.35 
  683600    301.76763   -1497.4069    507.76546    371.32024    362.84659     37926.35 
  683700    304.23403     -1503.24    497.64715    366.49217   -191.36171     37926.35 
  683800    300.10431   -1499.7851    493.84501    347.52001   -146.95651     37926.35 
  683900    296.26656   -1494.3042    484.48881    326.33659   -68.507173     37926.35 
  684000    296.19615   -1433.7239    525.05745      427.168    194.76581     37926.35 
  684100    299.87244   -1496.9904    512.57311    367.99708    382.98534     37926.35 
  684200    294.74817   -1461.6977    474.45944    342.06579    430.10159     37926.35 
  684300    311.42415   -1472.1139    499.02745    431.42571    80.057732     37926.35 
  684400    309.95797    -1501.459    503.14013    399.58089   -175.92712     37926.35 
  684500    289.90874   -1451.4757     529.2932    385.29597    339.68638     37926.35 
  684600     300.3628   -1531.7426    488.29015    311.17342    7.2895068     37926.35 
  684700    295.34471   -1468.3996    518.64799    382.24288    38.159903     37926.35 
  684800    300.83367   -1467.2069    515.83696    405.37956    631.13657     37926.35 
  684900    299.04289   -1455.9416    500.94018    393.67179    723.33035     37926.35 
  685000    306.67909   -1473.2778    497.57715    407.41149    901.67364     37926.35 
  685100    292.73799   -1478.7231    510.07361     351.5888    587.41339     37926.35 
  685200    303.99801   -1470.8822    526.60833    426.74669    384.85041     37926.35 
  685300    300.99306   -1465.5041    495.90468    387.86891    716.07296     37926.35 
  685400    293.20051    -1535.946    490.49758    276.87581   -119.83357     37926.35 
  685500    306.39529   -1478.1967    491.49885    395.13434    218.15222     37926.35 
  685600    302.82717   -1462.7627    530.81459    433.79204    302.38435     37926.35 
  685700    298.36641   -1513.1923    496.54748    328.97739    251.61903     37926.35 
  685800    294.31788   -1477.7385    493.47129    343.09633     545.5676     37926.35 
  685900    299.60273   -1495.8496    486.15544    341.50388    570.47989     37926.35 
  686000    309.44996   -1506.6083    498.52469    387.52504    548.42252     37926.35 
  686100    308.99107   -1533.1451    494.24128    354.63526    191.77611     37926.35 
  686200    299.04999   -1552.1676    523.32255    319.86008    73.016904     37926.35 
  686300    289.93993   -1571.5191    529.18419    265.28417   -236.97735     37926.35 
  686400    302.91975   -1505.4623    477.82493     338.5203    221.75505     37926.35 
  686500    299.74877   -1529.3729    502.70068    325.18444   -132.71619     37926.35 
  686600    297.59156    -1534.654    508.43713    315.91082   -163.14526     37926.35 
  686700    299.70444   -1487.1686    491.34558    355.83368   -313.81889     37926.35 
  686800    297.50127   -1533.6707    522.49594    330.54568   -743.39989     37926.35 
  686900    299.51306   -1504.2709    487.49029    334.01294   -336.95679     37926.35 
  687000    307.38741    -1502.155    524.88552    409.03722   -760.30978     37926.35 
  687100    299.44571   -1484.6577    504.93078    370.76295   -966.21186     37926.35 
  687200    295.85163   -1482.5794    467.80566    319.50696   -218.45854     37926.35 
  687300    297.28179   -1465.1733    508.06527     383.6226   -401.77132     37926.35 
  687400    309.97636   -1414.4706    542.55384    526.06595   -652.01286     37926.35 
  687500    305.93027   -1434.8082    494.89283    439.81966   -861.07301     37926.35 
  687600    321.28819    -1470.499    512.68144    491.18111   -657.83512     37926.35 
  687700    299.18617   -1473.0216    506.37211    382.66981   -411.74386     37926.35 
  687800     294.4317   -1487.5506    514.47814    354.80433    -313.3571     37926.35 
  687900    300.54991   -1456.7866    485.71825    384.40137    -141.8802     37926.35 
  688000    296.56623   -1420.9084    514.90406    431.49915    514.34348     37926.35 
  688100    292.27409    -1469.249    532.27405    381.17109    1.0043518     37926.35 
  688200    303.46323    -1494.194    493.97995    368.39463    146.64879     37926.35 
  688300    311.40051   -1465.5884      529.618    468.43521    81.459278     37926.35 
  688400    299.42029   -1410.6626    533.38949    473.10206   -109.28202     37926.35 
  688500    304.53955   -1459.7252    508.95685    422.69453   -765.89516     37926.35 
  688600    293.30325   -1486.6509    478.37623    314.51288    -652.4598     37926.35 
  688700     290.8173   -1494.1733    519.34946    336.75214   -787.70841     37926.35 
  688800    303.63463   -1524.1467    480.79175    326.02682   -224.43922     37926.35 
  688900    294.19055   -1491.2021    520.86072    356.44792    -422.3167     37926.35 
  689000    299.12783   -1515.7123    522.86736    356.21127    198.68687     37926.35 
  689100    294.28161   -1462.7107     460.8459    325.33516    21.283343     37926.35 
  689200    302.09649   -1469.1082    504.52037    397.85698    49.077364     37926.35 
  689300     310.0441   -1464.5372    520.59343    454.34446    654.95834     37926.35 
  689400    302.00222   -1457.7812    492.36708    396.60548    339.43047     37926.35 
  689500      301.152   -1481.3281    538.33103    415.18809   -703.38556     37926.35 
  689600    289.52257   -1505.4336    480.88682    281.19002   -608.84748     37926.35 
  689700    300.26649   -1461.4573    510.91255    403.64675   -891.35638     37926.35 
  689800    301.44241   -1517.0538    505.52144    347.96251   -459.06752     37926.35 
  689900    310.93199   -1427.9321    505.16283    479.52326   -208.88059     37926.35 
  690000    301.11796   -1464.4659    494.50402    388.06975   -130.74191     37926.35 
  690100    297.82173   -1500.6157    510.32501    352.87504    394.80974     37926.35 
  690200    304.28299   -1460.8841    507.09355    418.51527     838.7749     37926.35 
  690300    297.60658   -1456.1595    509.18748    395.22344     1152.567     37926.35 
  690400    297.95642   -1493.1411    497.56735    348.19942    224.90688     37926.35 
  690500    302.51341   -1479.6519    519.43101    404.10416    300.38563     37926.35 
  690600    290.17103   -1491.5127    507.36385    324.51249   -236.83854     37926.35 
  690700    307.14844   -1513.7591    510.66886    382.13872     95.81574     37926.35 
  690800    303.12429   -1490.7837    517.08598     393.3824    368.86324     37926.35 
  690900    303.84951   -1498.0278    485.10698    357.43006    36.779623     37926.35 
  691000    301.81525   -1482.2799    494.57239    373.46889   -359.89906     37926.35 
  691100    295.58096   -1491.8959     502.3245     343.4886   -452.83463     37926.35 
  691200    300.63432    -1499.608    533.71162    389.95406   -517.96731     37926.35 
  691300    301.44355   -1532.7197    486.27901    313.05939    -554.0322     37926.35 
  691400    298.30993     -1533.41    507.43655    319.39406   -215.68753     37926.35 
  691500     294.0188   -1518.4993    530.59749     338.1128   -124.64164     37926.35 
  691600    300.34606   -1493.2472    492.15637    353.45964    -4.661293     37926.35 
  691700    302.94965   -1521.6778    527.21092    371.82563   -46.723441     37926.35 
  691800    296.31071   -1527.8167    497.15067    305.68509   -67.295936     37926.35 
  691900    299.96491   -1501.9624    523.22429    374.09328   -420.91048     37926.35 
  692000    298.67597   -1488.8809    527.28456    385.42198   -556.30453     37926.35 
  692100    301.98928   -1471.8099    508.27647    398.42781   -516.54916     37926.35 
  692200    305.55373   -1476.0747    503.51592    405.47808   -532.74753     37926.35 
  692300    302.82993   -1492.0292    515.10349    388.82681   -501.90806     37926.35 
  692400    293.61463    -1518.759    510.59681    316.02967   -903.14441     37926.35 
  692500    303.90952   -1493.5352    532.15779    409.24403   -653.83668     37926.35 
  692600    295.42213   -1505.0871    505.94561    333.20213   -421.91343     37926.35 
  692700    300.82747   -1472.7336    522.51191    406.49984   -238.77059     37926.35 
  692800    300.51669   -1494.8062    518.89721    379.41095    153.48246     37926.35 
  692900    298.36136   -1491.8367    526.89368    380.65648    274.04943     37926.35 
  693000    299.29884   -1496.7333    527.07529    380.16951    612.78382     37926.35 
  693100    295.26292   -1500.4102     489.1894    320.40484    359.48563     37926.35 
  693200    295.96762   -1470.4292    552.74064    417.11517   -193.46371     37926.35 
  693300    300.59968   -1490.8043    511.45181    376.34175   -670.99911     37926.35 
  693400    302.46681   -1474.7762    493.21591    382.55464   -991.59096     37926.35 
  693500    302.67665   -1476.1091    543.98289    432.93512   -797.23248     37926.35 
  693600    302.53521   -1468.6915    491.38848    387.12042   -746.42766     37926.35 
  693700    294.26283    -1459.567    504.03623    371.58449   -496.61098     37926.35 
  693800    291.29963   -1450.1648    500.85371     364.4402   -157.29117     37926.35 
  693900    298.27813   -1496.2386    508.02815    357.01367    690.30172     37926.35 
  694000      294.167    -1491.875    502.55168    337.35978    70.869358     37926.35 
  694100    295.76243   -1496.4373    500.22616    337.66722    201.96892     37926.35 
  694200    300.62873   -1504.5556    519.11822    370.38781   -736.04343     37926.35 
  694300    287.56175   -1488.6414    512.44968     320.7019   -376.42939     37926.35 
  694400    300.17189   -1467.7568    510.94041    396.94846   -751.14617     37926.35 
  694500    303.55146   -1531.7596    482.79679    320.04387   -346.67934     37926.35 
  694600    296.68374   -1498.8674    487.18735    326.35342   -284.63346     37926.35 
  694700    302.26532   -1493.8473    509.17764    378.53646   -140.16409     37926.35 
  694800    287.12107   -1515.9193    526.41227    305.39912   -732.37555     37926.35 
  694900    303.22259   -1499.3861    484.59029    352.72761    12.867428     37926.35 
  695000    294.85878   -1481.0314    527.43806    376.20964   -305.65708     37926.35 
  695100    307.10234   -1511.8617    488.94498    362.10425   -541.36466     37926.35 
  695200     295.8549   -1468.8142    489.80743    355.28863    54.808771     37926.35 
  695300    309.48536   -1475.3519    542.31568    462.73206    285.54916     37926.35 
  695400    300.11716   -1452.1465    498.10894    399.48048    315.32126     37926.35 
  695500    303.97774   -1488.2118    509.36119    392.07856   -30.479394     37926.35 
  695600    304.63621   -1465.3766    506.19111     414.7134   -2.3786496     37926.35 
  695700    293.32961   -1491.1899    512.35465     344.0712    -257.0684     37926.35 
  695800    302.44364   -1469.0466    495.25444    390.21828   -265.62798     37926.35 
  695900    297.91739   -1460.3363    530.27089     413.5318   -43.829408     37926.35 
  696000    300.91607   -1484.3966    500.18745    372.91194    -65.62996     37926.35 
  696100    288.66405   -1502.9868    499.01762    297.89575   -3.1390951     37926.35 
  696200    297.68189   -1448.4293    508.06516    402.17097    330.55999     37926.35 
  696300    302.22795   -1484.9013    514.65961    392.79595   -127.20653     37926.35 
  696400    306.00456   -1527.9091    479.11328    331.27417    313.38152     37926.35 
  696500    306.14454   -1501.1532    493.31416    372.86229    448.51823     37926.35 
  696600    306.64096   -1487.6145    488.36736    383.69299    199.64232     37926.35 
  696700    303.55424   -1502.8551    481.56929    347.73336    112.88185     37926.35 
  696800    295.50527   -1534.5447    494.10226    292.27616    59.240521     37926.35 
  696900    306.16122   -1500.9307    511.70165    391.54747    1.0379136     37926.35 
  697000    301.98279    -1510.368    493.54912    345.11312   -92.160575     37926.35 
  697100    293.51933    -1522.577    474.63659    275.82162   -547.20568     37926.35 
  697200    304.93243   -1454.4889    493.51216    414.25806   -495.68808     37926.35 
  697300     302.1271   -1444.9241    466.09395    383.75266    50.392204     37926.35 
  697400    299.24086   -1488.0474    529.83223    391.35081    532.12903     37926.35 
  697500    296.21959   -1501.0847    497.24898    332.10443     112.3831     37926.35 
  697600    300.98124   -1478.6475    506.57185    385.33938   -121.65745     37926.35 
  697700    300.96791     -1491.98    512.93127    378.30622   -286.67592     37926.35 
  697800    294.56102   -1510.5361    506.91768    324.84164  0.071911359     37926.35 
  697900    304.01369   -1540.4156    473.96152    304.63725   -170.36402     37926.35 
  698000    306.89953   -1464.0698    490.28005     410.3166   -197.96208     37926.35 
  698100     302.1652   -1499.2862    475.48287    338.95129   -589.05719     37926.35 
  698200     303.3184   -1485.5666    490.00306    372.39202   -35.966659     37926.35 
  698300    303.81063   -1499.4306    505.19375    375.93862   -7.4058485     37926.35 
  698400    292.74843   -1524.2161    488.21569    284.28492    56.496903     37926.35 
  698500    293.96695   -1516.3084    521.58608     331.0585    570.32171     37926.35 
  698600    308.22517   -1506.7901    492.19917    375.49393     750.2412     37926.35 
  698700    304.90329   -1489.0778    498.24004     384.2656    872.56933     37926.35 
  698800    310.28791   -1538.9688    491.72059     352.1396    223.90343     37926.35 
  698900    296.83433   -1532.4095    478.88691       285.19   -379.12118     37926.35 
  699000    308.75216   -1526.6935     503.7325     369.5006    173.17324     37926.35 
  699100     289.3587   -1518.0173    488.97309    275.95357    13.979675     37926.35 
  699200    307.21448   -1520.4684    476.85589     341.9142    67.846171     37926.35 
  699300    299.57652   -1533.3141    500.46285    318.22853   -53.888157     37926.35 
  699400    293.89041   -1544.7508     492.1948    272.87965   -371.43462     37926.35 
  699500    302.97699   -1524.9644    492.36127    333.81271   -293.89578     37926.35 
  699600    298.88486   -1519.2271    474.49152    303.22479   -446.56174     37926.35 
  699700    299.94407   -1598.5517    484.00979    238.19557    39.788981     37926.35 
  699800    296.89617   -1566.5816    484.38956     256.7995    149.51356     37926.35 
  699900    306.39411   -1540.4212    498.47401    339.87975    452.30845     37926.35 
  700000    302.99825   -1563.1771    467.97527     271.3099    144.61933     37926.35 
  700100    311.51421   -1605.0994    446.67719     246.4961   -35.530612     37926.35 
  700200    297.96174   -1531.6463    489.27913    301.43006   -621.08495     37926.35 
  700300    299.16185   -1518.7996    475.28693    305.69698   -376.88827     37926.35 
  700400    286.49654   -1509.0959    482.30231    265.29595    -9.085853     37926.35 
  700500    297.19268   -1522.5962    494.63225    312.36475     721.9681     37926.35 
  700600     286.4797   -1483.2215    497.06362    305.85578   -367.86712     37926.35 
  700700    300.12847   -1470.9118    490.07158    372.72888    -49.52425     37926.35 
  700800    297.84751   -1516.6571     506.3689    332.99382   -294.12548     37926.35 
  700900    288.06648    -1491.438    473.57033    281.30226    265.87104     37926.35 
  701000     304.9683   -1502.2445    486.15916    359.31117   -122.60769     37926.35 
  701100     306.3755   -1529.5761    486.37225    338.53912    59.315859     37926.35 
  701200     300.2048   -1476.8985     506.8279     383.8427    88.574815     37926.35 
  701300    289.61916   -1471.9956     482.0861    316.26294     162.4819     37926.35 
  701400    294.37618   -1488.8082    485.64653    324.46475    492.06029     37926.35 
  701500    307.79282   -1467.1974    506.68983    427.62743    759.21767     37926.35 
  701600    300.92688   -1497.2187    498.33285    358.28402   -85.894849     37926.35 
  701700    290.44188   -1444.7647    500.45891     365.5771   -26.362151     37926.35 
  701800    302.67473   -1467.1098    486.87581    384.81861   -97.798029     37926.35 
  701900    308.51202   -1484.8243    491.95687    398.51116     -80.6116     37926.35 
  702000    308.53286   -1463.5386     478.4061    406.34005   -372.06602     37926.35 
  702100    290.35404   -1483.9302    504.37172    329.92825   -503.84269     37926.35 
  702200    298.49641   -1520.5186    497.32975    323.01969   -302.74687     37926.35 
  702300    310.21843   -1443.0492    488.42647    444.45173    -470.4751     37926.35 
  702400    292.97946   -1449.5286    492.84367    364.64232   -426.87125     37926.35 
  702500    297.92417   -1463.0282    506.41868     387.0182   -186.55613     37926.35 
  702600    306.49542   -1414.2619    519.41874    487.44065   -146.18965     37926.35 
  702700    296.50982   -1465.0436    482.84119     355.0467   -447.43416     37926.35 
  702800    299.61853   -1478.3254    494.70081    367.64472   -454.22073     37926.35 
  702900    295.38762   -1489.0574    499.17798    342.30856   -348.75338     37926.35 
  703000    303.44193   -1461.7963    490.45651    397.17287    -133.1423     37926.35 
  703100    296.71013   -1432.4814    514.41543     420.0865    73.577566     37926.35 
  703200    297.31585   -1461.4436    509.54463    388.98527    184.61149     37926.35 
  703300    302.27237   -1450.3536    497.25093    410.13527    222.20166     37926.35 
  703400    305.46332    -1471.251    507.68952    414.06754    279.49925     37926.35 
  703500    300.34982   -1482.3499    500.31627    372.53376    387.75233     37926.35 
  703600    298.36757   -1473.4284    503.80123    376.00029    154.87698     37926.35 
  703700    304.19689    -1445.019    483.91396    410.81245   -28.253721     37926.35 
  703800    297.34902   -1472.4162    488.35606    356.97375    452.00872     37926.35 
  703900    292.51332   -1440.7818    516.27975    394.72302    177.17654     37926.35 
  704000    288.09747   -1449.7303    501.21585     350.7952    331.36574     37926.35 
  704100    303.15455   -1472.9723    495.18309    389.42737    704.16517     37926.35 
  704200     298.4332   -1449.3865    512.92859    409.46562    703.97973     37926.35 
  704300    309.41405   -1448.8665    545.32953    491.90973      1161.27     37926.35 
  704400    294.40929   -1475.3275    496.43975    348.88799    841.96525     37926.35 
  704500    293.90854    -1470.287    509.41576    364.64615   -40.938635     37926.35 
  704600    296.09042   -1446.6824    513.11944    401.79462    -289.4993     37926.35 
  704700    304.96322   -1480.6152    516.19515    410.95356   -13.846279     37926.35 
  704800    291.97574   -1448.5058    487.53887    355.83359   -298.59394     37926.35 
  704900    302.06443   -1466.6116    524.40692    420.09546   -372.80039     37926.35 
  705000    301.00058   -1496.6629    491.77265    352.61207    63.486654     37926.35 
  705100    298.44436   -1477.3019    462.23808    330.90997    289.14358     37926.35 
  705200    290.50764   -1472.2323    500.39449    338.34166    -468.9842     37926.35 
  705300    289.85283    -1486.712      492.547    313.06128    -682.8183     37926.35 
  705400    305.87984   -1524.2453     493.3775    348.63974    -589.3844     37926.35 
  705500    302.20053    -1495.556    491.91446    359.27249   -695.78122     37926.35 
  705600    293.37127    -1475.031    482.63123    330.69456   -472.35913     37926.35 
  705700    299.84209   -1504.2152    482.53755    330.59982   -619.16078     37926.35 
  705800    307.39194   -1476.2062     497.4557    407.57657   -77.837075     37926.35 
  705900    299.57298   -1515.5476    473.92112     309.4373   -426.43338     37926.35 
  706000    290.26045   -1490.8069    507.03448    325.29219    162.31339     37926.35 
  706100    300.38639   -1524.1244    478.96021    309.56815    420.53736     37926.35 
  706200    304.12845   -1493.9912    501.66857    379.28623    274.53015     37926.35 
  706300    304.25444   -1497.5528    492.99463    367.61893    249.38009     37926.35 
  706400    303.43809   -1526.3617    485.63595     327.7696    294.34927     37926.35 
  706500    298.63807   -1496.2435    495.20548    345.80943   -236.53827     37926.35 
  706600     299.9206   -1493.5678    467.17875    326.24258   -325.59774     37926.35 
  706700    290.76305   -1502.1423    489.61167    298.80073   -10.776829     37926.35 
  706800    304.16487   -1530.5934     507.1409     348.3206    517.65286     37926.35 
  706900    292.70219   -1502.5576    491.39031    308.90956    578.92556     37926.35 
  707000     291.9006   -1502.9154     505.9272    319.47346    221.91221     37926.35 
  707100    297.99266   -1513.0134    495.18607    326.10932    367.53873     37926.35 
  707200    299.27952   -1548.6632    489.28714    290.36425    422.32141     37926.35 
  707300    308.90138   -1510.9144    476.61137     358.8316    869.54657     37926.35 
  707400    294.29975   -1537.8389    493.38007    282.82289    44.533338     37926.35 
  707500    307.80929   -1515.2563    476.32242    349.27545    228.64452     37926.35 
  707600     306.9364   -1496.8515    519.51423    406.93531    302.59303     37926.35 
  707700    296.22945   -1467.4678    453.87416    322.39097   -132.27005     37926.35 
  707800    297.07813   -1480.1163    514.91282    374.60862    325.64628     37926.35 
  707900    309.08655   -1475.6306    490.67248    409.01157     129.0604     37926.35 
  708000    301.21063    -1529.561    480.69889    309.58746    427.97659     37926.35 
  708100    295.48904   -1523.3971    500.58393    309.83225    447.42481     37926.35 
  708200    297.16572   -1514.7297    485.85828    311.33581     6.951763     37926.35 
  708300    298.14339    -1473.905    474.22848    344.93996    287.89808     37926.35 
  708400    298.39956   -1529.5025    495.87733    312.14654   -67.693563     37926.35 
  708500    291.58714   -1520.1015    480.29194    275.23845    82.677765     37926.35 
  708600     295.2568   -1527.0297     487.5964    292.16473    239.87934     37926.35 
  708700    307.25344   -1531.5749     484.9312    339.05879   -330.91372     37926.35 
  708800    306.64982   -1515.0873    482.92634    350.81919   -34.976978     37926.35 
  708900    313.84635   -1558.7351    491.76931    348.47052    173.17812     37926.35 
  709000    295.54433   -1540.8858    483.54154    275.55056    844.36046     37926.35 
  709100    298.37851   -1525.6018    487.44948    307.52449    338.14356     37926.35 
  709200     301.6835   -1538.6504    502.84464    324.77642    633.40946     37926.35 
  709300    291.22415    -1474.316    517.65966    356.75454     265.1515     37926.35 
  709400    292.49481   -1540.2461      482.653    261.54845    152.15729     37926.35 
  709500    297.53654   -1527.1023    484.80482    299.58207    331.59034     37926.35 
  709600    305.31949   -1515.3569    493.18976    354.81331    587.45467     37926.35 
  709700    294.95776   -1486.9362    495.54695     338.8601    33.617656     37926.35 
  709800    304.36185    -1515.549     491.5379    348.65035    117.36952     37926.35 
  709900      300.633   -1520.8009    442.51639    277.55999   -334.90037     37926.35 
  710000    300.97192   -1525.0352    468.35449    300.69226   -106.73648     37926.35 
  710100    292.01249   -1532.7637     491.0936    275.29618    22.611702     37926.35 
  710200    296.46504   -1454.0022    504.08015    387.12511   -572.45484     37926.35 
  710300    298.04141   -1475.5961    470.19138    338.75179   -660.56207     37926.35 
  710400    309.47461   -1512.3393    510.91315    394.29372   -290.35072     37926.35 
  710500    294.87602   -1508.0835    475.00437    296.80163   -544.19992     37926.35 
  710600    295.15302   -1482.7322    509.36307     357.7608   -354.05383     37926.35 
  710700    291.68455   -1491.5731    484.46347    308.37767   -202.64676     37926.35 
  710800    293.54399   -1532.8415    481.50644    272.53826   -318.14477     37926.35 
  710900    298.00768   -1505.3879    485.49506    324.11149   -39.033073     37926.35 
  711000     313.1687   -1572.7029    458.88797    298.56514    315.47055     37926.35 
  711100    294.83862   -1571.5001    491.34142    249.55335    646.17734     37926.35 
  711200    298.79107   -1574.2482    474.71716    248.00643   -56.325218     37926.35 
  711300     305.9207   -1558.1645    471.21483    292.74218    132.35519     37926.35 
  711400    312.62641   -1532.3484    482.97019    360.55615   -250.91581     37926.35 
  711500    292.48563   -1517.7533    507.46407    308.81092   -473.31187     37926.35 
  711600    304.37979   -1510.7715    479.42657     341.3975    421.81542     37926.35 
  711700     293.6924   -1529.1383    489.95341    285.35774   -212.49095     37926.35 
  711800    296.60836   -1485.6233    504.13526    356.20546    404.05388     37926.35 
  711900    306.09201   -1497.9873    493.48877     375.9659    460.03168     37926.35 
  712000    298.58722    -1509.439    514.49999    351.67906    210.03336     37926.35 
  712100    304.55658   -1497.1431    493.86799    370.26459   -42.029945     37926.35 
  712200    295.33104   -1487.9176    487.63348    331.64872   -339.13198     37926.35 
  712300    306.95485   -1533.6145    483.30876    334.05009   -631.54973     37926.35 
  712400    295.06391   -1532.5568    488.53063    286.70193   -932.16581     37926.35 
  712500    296.73728   -1481.5039     465.9749     322.7459   -812.63593     37926.35 
  712600    308.53228   -1448.1236    529.92492     473.2713   -247.88049     37926.35 
  712700    299.88303   -1500.2567    464.08459    316.29008   -270.71703     37926.35 
  712800    293.68748   -1474.3043    514.84061    365.05671    -229.6911     37926.35 
  712900    310.37321   -1492.4967    486.61049    393.88625   -25.559308     37926.35 
  713000     314.6235   -1483.2626    507.94447    443.62308    360.62051     37926.35 
  713100    316.63082    -1500.017     480.4842     408.4613    232.04209     37926.35 
  713200    290.78502   -1520.4384    496.84445    287.83651     504.3129     37926.35 
  713300    300.66333   -1515.4261    492.74929    333.30443    362.62371     37926.35 
  713400    314.47381   -1521.1656    519.80507    416.90556    362.68983     37926.35 
  713500    299.18818   -1520.2801    479.68005    308.72838    42.933771     37926.35 
  713600    294.75178   -1502.7764    489.64752    316.19151   -886.52561     37926.35 
  713700     307.4212   -1471.6481    470.73152    385.54246   -424.28353     37926.35 
  713800    304.04396   -1496.9493    503.03872    377.31728   -328.05697     37926.35 
  713900    300.94814   -1507.9344    516.80286    366.13423    398.01566     37926.35 
  714000    299.37639   -1489.2359    496.63181    357.57308    84.583838     37926.35 
  714100    307.65256   -1489.6491    496.94625    394.79957   -303.54216     37926.35 
  714200    308.77983   -1479.0219    464.80353    378.36805   -321.52523     37926.35 
  714300    315.76139   -1502.6155    470.01744     391.4749    -501.4067     37926.35 
  714400    307.06342   -1498.3879    489.50456    375.96214    -496.0245     37926.35 
  714500    298.37218    -1478.755    490.04861    356.94187   -450.67354     37926.35 
  714600    301.10957    -1553.865    504.68143    308.81029   -138.18304     37926.35 
  714700    300.99698   -1525.2557    505.57574    337.80604    -160.9458     37926.35 
  714800    301.07625   -1537.0138    485.55985    306.38956   -270.13815     37926.35 
  714900    299.96622   -1497.0981    503.25119    358.99045   -387.18471     37926.35 
  715000    311.70306   -1488.1059     494.9794    412.64359   -992.24031     37926.35 
  715100    295.24699   -1463.4954    505.78563    373.84404      117.719     37926.35 
  715200    298.93596    -1487.319    476.79188    337.66375    364.97645     37926.35 
  715300    300.68383   -1490.8534    503.69336    368.91369   -72.123494     37926.35 
  715400       312.01   -1449.9211    498.50651    455.73978    179.21356     37926.35 
  715500    296.68227     -1477.16    516.62654    377.49338    429.42658     37926.35 
  715600    304.32202   -1483.8729     523.5006     412.1095    622.75383     37926.35 
  715700    300.52762   -1517.0112    492.28851    330.64654    346.73719     37926.35 
  715800    293.56055   -1480.6276    508.15348    351.47389    257.60727     37926.35 
  715900    302.91343   -1473.4507    503.00396    395.68237   -136.12163     37926.35 
  716000     296.5098   -1485.7228    472.15333    323.67957   -134.76856     37926.35 
  716100    301.40778   -1444.8089    504.97786    419.50767    361.79426     37926.35 
  716200     300.3507   -1497.0413    498.02465    355.55467    12.964922     37926.35 
  716300    288.19022   -1555.7849    472.27752    216.22059   -381.16746     37926.35 
  716400    297.31406   -1532.7904     522.2947    330.38049   -390.07812     37926.35 
  716500    317.45477   -1480.4749    521.82427    473.05948   -212.08626     37926.35 
  716600    306.63253   -1458.7448    493.68657    417.84388   -412.36211     37926.35 
  716700    305.44906   -1475.2412    481.31726    383.64085    25.314459     37926.35 
  716800     293.0392   -1489.9304    504.31593    335.98224    118.18444     37926.35 
  716900    301.23917   -1500.6739    499.09018    356.99456   -249.03649     37926.35 
  717000    304.66026   -1497.9571    482.04348    358.09371    111.58059     37926.35 
  717100    296.17185    -1442.399    499.52186    392.84769    269.90494     37926.35 
  717200    309.28776   -1482.1355    503.64656    416.38823    444.55732     37926.35 
  717300      291.341   -1480.8479     508.8423    341.93228   -207.36227     37926.35 
  717400    312.43696   -1465.9663    499.80048    442.91414    292.50367     37926.35 
  717500    303.12667     -1462.54    495.45982    400.01062   -125.45904     37926.35 
  717600    295.26526   -1422.8333    495.98823     404.7911   -238.17438     37926.35 
  717700    292.92052   -1448.0675    515.68154     388.6755    262.25639     37926.35 
  717800     294.0876   -1477.2297    499.72294    348.81821   -168.37279     37926.35 
  717900    291.38192   -1494.6814    500.90929    320.35029     259.8471     37926.35 
  718000    300.78527    -1508.003    516.85066    365.37889   -182.17349     37926.35 
  718100    302.91563   -1523.4698    463.69794    306.36728    57.827816     37926.35 
  718200    295.27122   -1473.7353    501.36039    359.28814   -147.79691     37926.35 
  718300    299.97023   -1494.7847    473.79793    331.86866    237.14556     37926.35 
  718400    300.67837   -1524.6353    497.56886    328.98261    589.13283     37926.35 
  718500    289.64741   -1512.7167    495.86729    289.45046    248.97685     37926.35 
  718600    315.02639   -1475.2024    506.51137    452.06718    127.63907     37926.35 
  718700    291.66284   -1452.3436    483.76138    346.80716    24.788444     37926.35 
  718800    299.25844    -1470.441    507.37299    386.57728    364.83249     37926.35 
  718900    305.54127   -1501.4247     499.7262    376.28213   -306.09576     37926.35 
  719000    305.92789   -1513.8048    475.11281    341.03229    -573.8372     37926.35 
  719100    297.79155   -1503.6706    462.82809    302.18709    -448.4358     37926.35 
  719200    286.94095    -1502.402    491.88042    283.57218   -291.36214     37926.35 
  719300    290.38617   -1479.2881     509.0905      339.434   -888.21864     37926.35 
  719400    302.92807   -1491.1294    508.41884    383.48461   -731.37373     37926.35 
  719500    294.47163   -1521.6527    477.06618    283.47044   -860.94143     37926.35 
  719600    306.99266    -1529.581    471.82528    326.77062    -384.9409     37926.35 
  719700    300.35982   -1459.3114    501.81654    397.11755    48.627725     37926.35 
  719800    305.44053   -1465.4143    507.05511    419.16712    242.38718     37926.35 
  719900    296.73716   -1482.1841    513.57502    369.66527    538.36794     37926.35 
  720000    295.66062   -1524.5021    479.20262    288.11972   -55.567055     37926.35 
  720100    301.78453   -1519.1168    509.82316    351.74418    522.50289     37926.35 
  720200    311.07399    -1492.123    507.35652    418.16657    380.89449     37926.35 
  720300    307.90563   -1474.7586    500.78224    414.66742   -345.23701     37926.35 
  720400    297.16369     -1449.01    490.69036     381.8784   -409.57375     37926.35 
  720500    301.82651   -1466.9662    496.97389    391.23483   -243.06645     37926.35 
  720600    302.32655   -1454.7066     523.2801    432.05587   -585.17047     37926.35 
  720700    293.87248   -1448.6201    497.93826    374.67292   -33.236552     37926.35 
  720800     297.6162   -1500.3429    480.72586    322.62176    -271.4511     37926.35 
  720900    302.30448   -1512.0902    484.86081    336.15341   -325.85192     37926.35 
  721000    297.63935   -1459.0519    489.77352    373.06484   -316.11175     37926.35 
  721100    306.29028   -1496.5622    487.16109    371.95746   -948.65523     37926.35 
  721200     300.5099   -1479.7696    490.02252    365.54226   -913.13716     37926.35 
  721300    297.96969   -1501.8372    494.61409       336.61   -43.743901     37926.35 
  721400    304.50584   -1474.6889    507.81798    406.43996    329.03101     37926.35 
  721500    308.09313   -1483.2208    511.26325    417.53189    770.49393     37926.35 
  721600    294.01639   -1483.7945    526.71553    368.92485    661.40442     37926.35 
  721700    308.11955   -1455.6843     496.5539    430.47815    379.01403     37926.35 
  721800    292.42236   -1443.2922    501.33947    376.86206    110.38685     37926.35 
  721900    302.93169   -1459.5688    517.45632    424.09902    683.61236     37926.35 
  722000    293.46702   -1459.1198    541.17457    405.58089     337.2309     37926.35 
  722100    300.12633    -1429.223    503.19236    427.52882    212.44635     37926.35 
  722200    303.69055    -1485.645    479.08366    363.07253    290.98851     37926.35 
  722300    294.11984   -1512.9907    497.70859    311.18826   -151.05889     37926.35 
  722400    296.97122    -1507.171     507.0895    339.24848    437.78956     37926.35 
  722500    302.73811   -1473.7675    520.46987    412.04083    196.84082     37926.35 
  722600    298.18514   -1441.5502    500.83651    404.09101   -130.40291     37926.35 
  722700    292.18685   -1479.2416    545.94357    384.45461     339.5433     37926.35 
  722800    305.07931   -1468.7856    514.34074    421.45232    998.01421     37926.35 
  722900     295.2957   -1516.7164     505.0231    320.08019    894.87086     37926.35 
  723000    300.61054   -1528.1646    514.24995    341.82852    244.67392     37926.35 
  723100    298.24863   -1507.2809    492.74905    330.55925    -229.0719     37926.35 
  723200    298.49526   -1488.3152    500.90651    358.79461   -166.58096     37926.35 
  723300    294.36953   -1535.2892    495.69248    287.99975   -70.070833     37926.35 
  723400    297.15183   -1554.3916    504.41365     290.1666   -224.85818     37926.35 
  723500    314.12019   -1536.8158    500.26597    380.12148    91.441575     37926.35 
  723600    296.55572   -1514.5891    491.19462    314.06166   -538.10952     37926.35 
  723700    313.10819   -1531.6303    507.36091    387.83783    39.911806     37926.35 
  723800    303.40711   -1529.5932    522.51323    361.27566    192.81139     37926.35 
  723900    300.33697   -1522.2322    481.94106    314.21821    -58.30718     37926.35 
  724000    296.31921    -1512.724     501.8898    325.55526    26.467577     37926.35 
  724100     302.7988   -1540.7719    486.02445    310.86478    372.90172     37926.35 
  724200    292.27645   -1490.9601    501.73434    328.93099    121.56733     37926.35 
  724300    308.98064   -1464.9325    495.61734    424.17693   -174.07106     37926.35 
  724400    297.93278   -1501.3336    491.99962    334.33268    241.46151     37926.35 
  724500    297.21044   -1476.0245    509.21427    373.59863    260.48582     37926.35 
  724600    297.82441   -1453.7119    517.80318    407.26911   -127.78528     37926.35 
  724700    296.62518   -1490.7205    494.30935    341.35819   -396.92522     37926.35 
  724800     292.1255   -1478.7881    516.36039    355.04823    108.80183     37926.35 
  724900    294.11033   -1472.8743    519.81108    373.36425    111.33416     37926.35 
  725000    302.66792   -1453.3894    495.67074    407.30323    593.99867     37926.35 
  725100    296.06451   -1465.1409    520.41624    390.51615   -481.50379     37926.35 
  725200    298.32221   -1536.1093    498.60969    307.92327   -235.59212     37926.35 
  725300      293.412   -1509.7955    499.97136    313.45393    393.26736     37926.35 
  725400     287.3216   -1563.6501     488.7119    220.87234    371.35866     37926.35 
  725500    302.49191   -1520.2555    544.69409    388.66667    596.26432     37926.35 
  725600    306.56912   -1517.7047    509.16413    374.07566   -245.41241     37926.35 
  725700    296.77761   -1511.9395    478.27238    304.78965   -138.90743     37926.35 
  725800    300.17786   -1526.7943     483.4352     310.4327   -523.42634     37926.35 
  725900    310.15171   -1561.3862    487.78249    325.16983   -229.09456     37926.35 
  726000     310.2318   -1524.0805    479.30983    354.36405   -393.73502     37926.35 
  726100    294.29708   -1556.2647    509.90721    280.91225   -319.40422     37926.35 
  726200    300.27871   -1554.6792    500.20976    299.77717    317.96277     37926.35 
  726300    295.16741   -1605.0658    499.42623    225.55531    267.46635     37926.35 
  726400    302.51558    -1554.149    507.59421    317.78011    581.91151     37926.35 
  726500    293.37357   -1532.4987    493.19664     283.8027    540.34246     37926.35 
  726600    291.57464   -1553.7649    502.41725    263.64397    229.31591     37926.35 
  726700    299.89404   -1558.2703    552.57201    346.81354    803.30586     37926.35 
  726800    299.16798   -1577.4822     517.6636     289.4187    658.16212     37926.35 
  726900    298.35099   -1509.8356    546.08521     381.8023    157.05779     37926.35 
  727000    301.70262   -1522.9824    511.27765    348.96366    200.05314     37926.35 
  727100    298.18624   -1550.8331    520.41288    314.38951    243.16674     37926.35 
  727200    300.53958   -1550.1253    508.69801    313.99591    604.60772     37926.35 
  727300    303.03676    -1564.092    513.40603    315.99943     403.7946     37926.35 
  727400    296.16944   -1538.6933    523.27259    320.29322    567.06535     37926.35 
  727500    303.61461   -1527.6138     508.0715    349.74915    798.86971     37926.35 
  727600     302.2339    -1529.663    536.77295    370.17445    162.46647     37926.35 
  727700    304.35144   -1489.3279    507.33141    390.61802    901.44349     37926.35 
  727800    292.09741   -1497.4488    514.34539    334.24586     30.30297     37926.35 
  727900    289.38157   -1506.0155    491.60019    290.68567    61.573199     37926.35 
  728000    305.94669   -1505.3317    528.91131    403.38869   -185.57089     37926.35 
  728100    300.26978    -1525.537    478.04181    306.71117    73.627082     37926.35 
  728200    302.09641   -1487.7093     525.5948    400.32992    501.74986     37926.35 
  728300     296.2101   -1496.7818    489.18986    328.30541    543.42856     37926.35 
  728400    305.33709   -1504.8686    524.75345    396.94458    292.37879     37926.35 
  728500    289.50095   -1449.9546    510.68336    366.36811   -7.0640836     37926.35 
  728600    287.00596   -1465.8627    496.14583    324.67013   -39.471997     37926.35 
  728700    303.46013    -1483.345     516.8736    402.12331    187.86025     37926.35 
  728800    301.03856   -1441.4441    511.54344    427.77288    17.828352     37926.35 
  728900    297.97585   -1464.2206    520.48959    400.12981   -324.28481     37926.35 
  729000    299.57053    -1479.212    520.88948    392.73022   -457.94903     37926.35 
  729100    295.96935   -1457.0175     508.3189    386.11298   -168.98465     37926.35 
  729200    300.14494   -1450.1184    518.93783    422.46282   -843.84458     37926.35 
  729300    295.01173   -1453.2059    516.62578    393.91261   -451.13563     37926.35 
  729400    307.73251   -1474.0916    485.47791    399.24931   -635.80649     37926.35 
  729500    308.51172   -1464.7419    512.87133    439.50663    317.92023     37926.35 
  729600    294.67319   -1483.6093    527.09633    372.45303    250.07236     37926.35 
  729700    298.15698     -1448.75    547.43891    443.36664     11.72347     37926.35 
  729800    298.83088    -1450.091    515.61326     413.2393   -355.47639     37926.35 
  729900    294.75315    -1500.118    532.74378    361.95235   -721.21313     37926.35 
  730000    294.19416   -1533.3848    484.65814    278.07891   -701.77553     37926.35 
  730100    304.39871   -1524.2722    511.98291    360.53844   -972.27062     37926.35 
  730200    291.88542     -1524.22    481.09757    273.27074   -815.58891     37926.35 
  730300    298.26844   -1480.4544    544.93571    409.66172   -415.44992     37926.35 
  730400    298.54815   -1492.9954    511.07646    364.52293    497.13821     37926.35 
  730500    302.35098   -1538.8971    502.38982    327.08521    285.16879     37926.35 
  730600    307.56844   -1537.5962    498.89703    348.42396    653.02369     37926.35 
  730700    294.75515   -1500.3482    505.92299    334.91033     349.1177     37926.35 
  730800    286.30199   -1477.8819     525.9571    339.28735   -244.85513     37926.35 
  730900    303.29655   -1475.4112    503.39028    395.83614    -480.5414     37926.35 
  731000    291.43957   -1467.0436    493.46233    340.80114   -795.47442     37926.35 
  731100    291.64687   -1512.6318    499.82134    302.50685   -544.88679     37926.35 
  731200    296.41764   -1480.3935    517.32485    373.76466   -148.98563     37926.35 
  731300    307.91966   -1506.5364     477.4495    359.62013    231.59197     37926.35 
  731400    310.77475   -1523.4916     500.2545    378.34633    112.71203     37926.35 
  731500    286.24703   -1472.3873    526.61172    345.18868   -218.71935     37926.35 
  731600    309.07942   -1506.7273    474.96435    362.17461    250.98583     37926.35 
  731700    305.94434   -1541.1254    492.07596      330.749    7.9721993     37926.35 
  731800    287.92946   -1501.1302    529.23758    326.65935    173.11329     37926.35 
  731900    298.15272   -1519.0136    525.14095    350.78587   -81.898642     37926.35 
  732000    304.16159   -1556.6811    501.57072    316.64793    128.68183     37926.35 
  732100    301.43146   -1522.9119    476.19748    312.73106    378.05067     37926.35 
  732200    294.88249   -1526.0858    498.26423    302.08832    117.65846     37926.35 
  732300    299.04751   -1548.5932    480.54069    280.64154   -60.424936     37926.35 
  732400    307.18749   -1558.0391    487.40739    314.77328   -188.82183     37926.35 
  732500    293.24983   -1542.1379    486.26794    266.67671    375.92936     37926.35 
  732600     304.4789   -1544.7205     513.1651    341.63394    197.27787     37926.35 
  732700    300.90277   -1542.5485    487.68758    302.20023    279.96254     37926.35 
  732800    302.10707   -1539.3256    476.07512    299.24202    580.30811     37926.35 
  732900    298.68084   -1532.9381    506.82962    320.93186    162.60678     37926.35 
  733000    306.65187   -1523.4023    548.98444    408.57152   -372.39621     37926.35 
  733100    301.72829     -1517.18    488.63332    332.23754   -120.17148     37926.35 
  733200    299.61669   -1563.8935    494.15408    281.52155   -44.016492     37926.35 
  733300    297.15632   -1540.8809    527.54653    326.83042   -853.32266     37926.35 
  733400    302.09489   -1533.4798    484.00538    312.96312   -636.16362     37926.35 
  733500    292.24151   -1509.7246    498.91492    307.18954   -679.08342     37926.35 
  733600    298.10014   -1540.0681    511.21178     315.5651   -359.71162     37926.35 
  733700    308.98935   -1530.1064    521.01934    384.44425    252.53814     37926.35 
  733800      296.015   -1537.1426    519.43604    317.31087   -195.00856     37926.35 
  733900    295.25488   -1545.2018    538.53041    324.91793    256.59246     37926.35 
  734000    298.20516   -1605.8664    489.12959     228.1582    323.44193     37926.35 
  734100    296.00845   -1561.8524     490.4861    263.62164    659.62116     37926.35 
  734200    298.76141   -1553.2767    487.25589    281.38288     587.6552     37926.35 
  734300    300.33487   -1572.7343    524.24274    306.00838    1350.0975     37926.35 
  734400    305.66175   -1545.1979    485.73606    319.06219    711.80336     37926.35 
  734500    310.39618    -1538.435    504.37516     365.8162    344.49385     37926.35 
  734600    305.90146   -1532.4319    503.13591     350.3091    523.26322     37926.35 
  734700    304.59518   -1524.4751    477.38646    326.62516   -533.71759     37926.35 
  734800    305.77093   -1501.2381    504.10822    381.88653    153.90488     37926.35 
  734900    306.01264   -1496.5305    472.67426     356.2502    67.524707     37926.35 
  735000     300.3322    -1520.613    521.94982    355.82473   -81.437359     37926.35 
  735100    311.32248   -1559.9698    524.21001    368.29389    229.33217     37926.35 
  735200    299.97886   -1561.1157    481.23626    273.01491   -363.36701     37926.35 
  735300    309.90802   -1561.6806    506.11714    342.11111   -328.37921     37926.35 
  735400    300.98283   -1592.6381    518.64123    283.42535   -358.99041     37926.35 
  735500    293.56979   -1532.3953    480.74015    272.33455    652.06139     37926.35 
  735600      288.384   -1535.3873    548.79942    314.01403    143.45706     37926.35 
  735700    292.73553   -1504.9977    496.94413    312.17361    334.02145     37926.35 
  735800    308.32294   -1566.1352    531.28553    355.67616   -95.485829     37926.35 
  735900    294.39331   -1528.3208    503.39315    302.77606   -672.46569     37926.35 
  736000    297.38427   -1551.9175    498.57584    287.85117   -501.84034     37926.35 
  736100    295.11678   -1554.0083    488.42523    265.38347   -363.35076     37926.35 
  736200    300.72434   -1549.8011    502.79661    309.25191    15.362592     37926.35 
  736300    304.70794   -1547.9599    496.91749    323.17991    177.42369     37926.35 
  736400    298.02924     -1554.41    504.72706    294.41866    -170.0809     37926.35 
  736500    301.45105   -1569.1407    486.42859    276.82178   -681.41631     37926.35 
  736600    296.58953   -1551.5639    490.06083     276.1055   -43.288465     37926.35 
  736700     306.6675   -1573.5078    499.39559     308.9477    42.877624     37926.35 
  736800     302.2067   -1575.4422    493.40029    280.89993   -129.72472     37926.35 
  736900     295.6697   -1580.3071    485.30722    238.46028   -177.34769     37926.35 
  737000    293.42346   -1545.2759    485.16246    263.21625   -86.211221     37926.35 
  737100     303.3475   -1552.0325    503.46666    319.52093   -480.81076     37926.35 
  737200    299.10465    -1543.268    481.13203    286.81568   -302.18944     37926.35 
  737300    297.03354   -1514.9872    479.90155    304.52541   -75.953388     37926.35 
  737400    296.94944   -1509.2212    513.65057     343.6611    601.03029     37926.35 
  737500    300.72486   -1496.4614     523.4525    383.24988    144.08656     37926.35 
  737600    305.36885   -1475.9776     497.4995    398.72488   -103.88309     37926.35 
  737700    307.90426   -1565.6929    495.52133    318.46608    476.56101     37926.35 
  737800    295.96919   -1555.1954    496.48273    276.09826    131.38162     37926.35 
  737900    296.66751   -1550.0768    517.01458    304.89808   -9.2801978     37926.35 
  738000    303.54133   -1509.6118    500.17038    359.51956   -1.6805069     37926.35 
  738100    299.94849   -1519.3705    485.56934    318.95622   -450.47142     37926.35 
  738200    302.33437   -1489.3652    506.56755    380.71995   -625.05177     37926.35 
  738300    295.43688   -1509.3259    494.20318    317.28742   -486.46596     37926.35 
  738400    309.09821   -1481.8626    495.80627    407.96597    108.81917     37926.35 
  738500    293.10152   -1492.7143     498.3784    327.54191   -309.13329     37926.35 
  738600    297.50874   -1519.9866    502.17325    323.94081    15.723367     37926.35 
  738700    296.88535   -1495.9099    476.00378    319.03665    571.29534     37926.35 
  738800    307.13908   -1493.4776    518.42829    410.13736    503.32759     37926.35 
  738900     293.2086   -1534.3532    483.36316    271.37067    557.02286     37926.35 
  739000    302.84598    -1517.501    541.30689    389.63086    855.16404     37926.35 
  739100    299.80339   -1513.6697     486.7897    325.22297    226.66588     37926.35 
  739200    313.77134   -1519.6428    513.84324    409.29836    623.88306     37926.35 
  739300    302.07198   -1523.2175    482.25143    321.36821   -155.86475     37926.35 
  739400    301.37882   -1509.8434     495.1428    344.50757    726.92141     37926.35 
  739500    306.38806   -1557.6425    497.49386    321.65099   -471.65974     37926.35 
  739600    305.96064   -1531.0976    495.21837    343.99275    102.33993     37926.35 
  739700     291.5261   -1531.2595    494.58306    278.09629   -421.39461     37926.35 
  739800    307.35784   -1525.3888    489.51973    350.30424    98.897593     37926.35 
  739900    295.19689   -1530.7568    477.15262    277.72358    168.13893     37926.35 
  740000    300.96592   -1500.8887    501.30723    357.76453   -426.15493     37926.35 
  740100    296.86106   -1489.8014    484.86166    333.89339   -367.31645     37926.35 
  740200    308.78997   -1458.8355     492.0144      425.811    75.293982     37926.35 
  740300    295.78423   -1484.8058    492.92436    342.09522   -88.961968     37926.35 
  740400     306.0331   -1472.0863    495.65725    403.76968    45.548171     37926.35 
  740500    301.15268   -1480.6099    489.32105    366.89939    55.317921     37926.35 
  740600    307.42923   -1490.7261    500.65419    396.42333   -558.62176     37926.35 
  740700    305.78611   -1469.8007    465.33116    374.61531    56.348656     37926.35 
  740800    307.53319   -1482.6857    499.03755    403.31599    -199.6405     37926.35 
  740900    298.36782   -1476.1454    479.80343     349.2866    -340.3581     37926.35 
  741000    301.50645   -1457.2454    501.59347    404.13177   -108.18517     37926.35 
  741100    312.27102   -1476.8238    509.09559    440.60339    210.57269     37926.35 
  741200    306.55873   -1459.1073    494.17423    417.63631    486.64576     37926.35 
  741300    300.86217   -1434.1046    505.48012    428.25359    308.47322     37926.35 
  741400    297.95447   -1456.4236    491.04037    378.38118    66.371022     37926.35 
  741500    300.99493   -1426.8833    513.69384    444.28732    239.08445     37926.35 
  741600    307.27728   -1426.5479    471.52664    430.78873    61.487572     37926.35 
  741700    302.43651   -1429.8076    486.59221    420.76289    104.90087     37926.35 
  741800    293.57295   -1436.8775    484.31057      371.437    348.09097     37926.35 
  741900    303.92365   -1451.7064    496.08661    415.06543   -43.438157     37926.35 
  742000     308.9544   -1437.5378    509.54795    465.38389   -171.77995     37926.35 
  742100    303.55359   -1428.7264    485.47735    425.76716   -164.45015     37926.35 
  742200    299.16185    -1472.799    488.47549    364.88614   -440.40725     37926.35 
  742300     295.9479     -1475.87    496.07745    354.92235    197.63388     37926.35 
  742400    306.08435   -1446.7928    510.45993    444.09704   -88.202281     37926.35 
  742500    294.98523   -1482.1721    501.04565    349.24678    199.14702     37926.35 
  742600    307.01309    -1508.507    487.61993    363.73135    172.13673     37926.35 
  742700    312.76625   -1523.5306    503.17318    390.20761    1068.5071     37926.35 
  742800    285.48081   -1487.2302    491.92153    292.20002    1053.5898     37926.35 
  742900    304.36489   -1481.0325    504.30536    395.94808    1120.5798     37926.35 
  743000    305.89181   -1481.3591     509.2537    407.45613    387.61216     37926.35 
  743100     297.8143   -1510.4594    485.40686    318.07972    70.995612     37926.35 
  743200    303.91831   -1493.6757    490.86901    367.85437   -362.97835     37926.35 
  743300    297.45494   -1534.4746    499.90725    306.94415    135.75699     37926.35 
  743400    307.32066   -1478.5971     493.6827    401.09117   -150.27307     37926.35 
  743500    298.44859   -1507.2832    476.37275    315.08238   -631.77656     37926.35 
  743600    296.72592   -1511.7168    496.50334    323.01025    322.33096     37926.35 
  743700    312.66766   -1464.9508     491.2128    436.38236   -85.361661     37926.35 
  743800    295.40108   -1493.2591    467.88567    306.87531    557.86755     37926.35 
  743900    310.91898   -1481.0146     495.2632    416.48253     277.0906     37926.35 
  744000    298.06794   -1513.4336    488.53079    319.37333   -152.96574     37926.35 
  744100    304.03586   -1519.1558    471.14511    323.18058    303.12621     37926.35 
  744200    305.41584   -1504.8972    506.58334    379.10105     286.9023     37926.35 
  744300     298.4648   -1502.5165    497.76013    341.30965   -176.70873     37926.35 
  744400    308.64743   -1502.8115    501.73066    390.90848    241.96927     37926.35 
  744500    301.37266   -1445.2941    504.75551    418.64171    41.695676     37926.35 
  744600    300.47669   -1455.1597    485.83745     385.8173    102.72994     37926.35 
  744700    301.28916   -1491.7178    478.63878    345.72477    75.087269     37926.35 
  744800    300.05659    -1486.632    464.14274    330.75566    287.61671     37926.35 
  744900    292.54755   -1438.5628    458.63018    339.44672   -135.76581     37926.35 
  745000    300.30348   -1476.0381    513.51744    391.83772    5.7826735     37926.35 
  745100     307.1826   -1512.1723    479.10101    352.31163    -113.9315     37926.35 
  745200    298.01323   -1493.2104    484.94392    335.76296   -175.28789     37926.35 
  745300    295.38003   -1535.2137    487.07246    284.01248   -225.04678     37926.35 
  745400    292.23497   -1483.5747    506.95632    341.35126   -378.06146     37926.35 
  745500    310.06029   -1470.4855    490.71013     418.5859    38.323825     37926.35 
  745600     293.6736   -1498.6393     497.1768    322.99537    -223.1811     37926.35 
  745700    288.75844   -1491.0133    488.99508     300.2724   -471.56644     37926.35 
  745800    293.50214    -1449.734    498.10142    372.05197   -115.82747     37926.35 
  745900     299.1608   -1464.8387    493.32013    377.68628   -541.10335     37926.35 
  746000     286.2188   -1488.7944    498.53325    300.57582   -226.23257     37926.35 
  746100    293.17437   -1517.1891     483.4324     288.4496   -306.58129     37926.35 
  746200    308.62008   -1513.7401    472.74947    350.87532   -160.17228     37926.35 
  746300     293.6633   -1552.5796    492.90587    264.73759   -418.78193     37926.35 
  746400    304.62265   -1495.9415    503.57116    381.46729   -475.50408     37926.35 
  746500    297.33188   -1487.0018    505.31926    359.27401    77.663873     37926.35 
  746600    298.41961   -1531.3817    467.92504     282.4055   -126.23362     37926.35 
  746700    310.26644   -1555.4343    452.95387    296.81059   -63.729059     37926.35 
  746800     286.0574   -1501.5844    492.97491    281.49957    90.768591     37926.35 
  746900    301.63748   -1508.2806    496.54554    348.63961    489.84256     37926.35 
  747000    304.94581    -1533.363    493.18116    335.11333    1160.5523     37926.35 
  747100    295.38322   -1551.3456    472.97444      253.797    492.22534     37926.35 
  747200    306.33247   -1555.2335    506.39818    332.71354    857.56268     37926.35 
  747300     289.2325   -1528.8723    486.36623    261.92259    480.54182     37926.35 
  747400    301.21404   -1511.0179    491.68683    339.13387    596.43945     37926.35 
  747500    304.87712   -1514.9555    481.41556    341.44542   -232.04681     37926.35 
  747600    304.00764    -1517.024    503.95998    357.99997   -433.75562     37926.35 
  747700    303.73468   -1502.7656    472.42632    339.49368   -433.47736     37926.35 
  747800    295.76195   -1467.3356    508.51089    375.05145   -110.11336     37926.35 
  747900    292.24132   -1501.3062    472.92733    289.61943    -233.9307     37926.35 
  748000     292.8342   -1454.0521    475.36038     341.9804   -475.51101     37926.35 
  748100    291.74622   -1448.0075     520.4542    388.21216   -514.46144     37926.35 
  748200    305.30067    -1443.258    503.30578    436.94332   -278.51848     37926.35 
  748300    302.89556   -1461.2449     490.1785    394.98214   -766.86399     37926.35 
  748400    294.73217   -1448.6516    512.52147    393.10181    -18.37946     37926.35 
  748500    300.56918   -1472.4667     497.2617    380.35166   -203.70044     37926.35 
  748600    292.50924   -1497.4431    516.37019    338.13365    281.11413     37926.35 
  748700    307.31154   -1477.6736    510.32431    418.61519    206.66177     37926.35 
  748800    299.80066    -1473.905    484.19254     362.3782   -49.039976     37926.35 
  748900    300.10128   -1479.5714    493.55781    367.43285   -672.07212     37926.35 
  749000     289.6992   -1476.0636    496.49228    326.96213   -314.59703     37926.35 
  749100    307.54806   -1483.1097     497.1611    401.08257   -656.50793     37926.35 
  749200    303.93158   -1472.0672    497.64023    396.29398   -528.20705     37926.35 
  749300    303.96326   -1491.4133    478.43946    357.89006   -201.07233     37926.35 
  749400    298.44887   -1519.1022    490.69103    317.58292   -618.30955     37926.35 
  749500    296.34464   -1537.0367    484.49714     283.9646   -208.75792     37926.35 
  749600    305.67281   -1529.2682    480.28725    329.59287    121.36269     37926.35 
  749700    305.00326   -1550.6856    475.25534    300.12399    350.06243     37926.35 
  749800    305.91721   -1553.7007    486.60283    312.57828    -429.6002     37926.35 
  749900    302.42106   -1493.3934    472.02607    342.54122   -92.505091     37926.35 
  750000    294.83725   -1511.6001    501.37015    319.47589    -663.6164     37926.35 
  750100    300.02933   -1539.6484    505.42362    318.89714    500.69437     37926.35 
  750200    289.59201   -1484.6577    501.78899    323.18135    254.55055     37926.35 
  750300    305.81049   -1502.3129    520.13307    397.01503   -73.942718     37926.35 
  750400     298.5314   -1524.7458    473.67956     295.3001    79.829792     37926.35 
  750500    293.24153   -1509.6319    487.57603    300.45332   -182.88854     37926.35 
  750600     297.7323    -1502.605    516.12424    356.28169   -22.874723     37926.35 
  750700    296.40619   -1482.4089    462.25446    316.62729      -233.37     37926.35 
  750800    304.03032   -1452.9075    499.73061    417.98939   -386.26718     37926.35 
  750900    298.77417   -1512.4154    499.35794    334.40372   -144.08582     37926.35 
  751000    295.09167   -1511.6344    470.08273    289.30161    39.716654     37926.35 
  751100    295.24853     -1508.97    478.59285    301.18361   -181.76303     37926.35 
  751200    302.63073   -1505.7807    476.93263    336.00608   -468.15186     37926.35 
  751300    306.51826   -1454.5488    476.41285     404.2508   -648.33699     37926.35 
  751400    300.47354   -1471.0045    502.00904    386.12985   -24.847519     37926.35 
  751500    304.29363   -1526.6415    443.41399     289.1263    163.04974     37926.35 
  751600    301.22408   -1503.7699    507.53578    362.27609   -20.947817     37926.35 
  751700    292.51875   -1487.8625     493.0235    324.41044   -354.99319     37926.35 
  751800    288.79491   -1511.7219    480.65019    271.38341   -688.34219     37926.35 
  751900    305.25973   -1497.6223     489.0985    368.18709   -342.10444     37926.35 
  752000    308.63357   -1504.6596    488.15584    375.42303   -197.28994     37926.35 
  752100    294.80814   -1547.9739    493.35151    274.95216    377.27069     37926.35 
  752200    304.32437   -1545.4457    503.50935    330.55613   -41.487308     37926.35 
  752300     290.9484   -1492.5592    495.24971    314.85775   -180.84711     37926.35 
  752400     303.9142    -1477.363    501.15643    394.43596   -724.96103     37926.35 
  752500    289.83431   -1472.3645    512.52096     347.2992    98.727575     37926.35 
  752600    296.44898   -1489.3651    502.39565    350.00528   -303.71229     37926.35 
  752700    302.65552   -1446.0463    513.93685     432.8565   -623.93001     37926.35 
  752800    293.04104   -1462.2138    504.95768    364.34886   -232.74604     37926.35 
  752900    295.18839   -1423.8962    514.57275    421.96608    -708.6388     37926.35 
  753000    300.66085    -1423.846    499.45908    431.58314   -405.60638     37926.35 
  753100    309.56053   -1459.6194    488.75041    425.23838   -810.90636     37926.35 
  753200    296.67405   -1433.6066    519.39546     423.7786   -835.30357     37926.35 
  753300     294.0465   -1454.4708    492.29265    363.96147   -584.98624     37926.35 
  753400     298.9071   -1482.1208    504.13979    370.07967    83.985707     37926.35 
  753500    309.84788   -1459.8417    477.79582    415.35738    502.70472     37926.35 
  753600    301.45209    -1471.417    505.83463    393.95621   -218.69114     37926.35 
  753700    298.44771   -1484.3618    507.28735     368.9145    215.17764     37926.35 
  753800    294.05258   -1489.1737    501.18106    338.17441    484.42852     37926.35 
  753900    290.46861   -1478.7199    501.44504    332.72855   -406.46394     37926.35 
  754000    297.07503   -1463.9284    489.67425    365.54404   -507.75017     37926.35 
  754100    312.87126   -1500.2603    485.26098    396.03937   -579.13847     37926.35 
  754200    302.80161   -1564.8201    506.51311    307.31787     269.1187     37926.35 
  754300    310.88747   -1541.3926      488.162    348.86121    567.93378     37926.35 
  754400    297.76361   -1529.6159    489.76363    303.05143    413.69893     37926.35 
  754500    303.07017   -1555.2202    487.63163    299.24751    278.81791     37926.35 
  754600    294.30817   -1528.2003    480.74738    279.86681    16.163831     37926.35 
  754700    304.44592   -1532.6099     506.2363    346.66707    14.238181     37926.35 
  754800    300.26923   -1522.0568    476.20644    308.35352   -557.83861     37926.35 
  754900    302.05051   -1494.1289    489.77043    357.87893     202.9607     37926.35 
  755000     292.4392   -1489.4094    494.22792    323.70931    67.735519     37926.35 
  755100    299.35802   -1494.2659    500.29576    356.12425    53.211576     37926.35 
  755200    304.27113   -1488.1618    520.63459    404.72514    277.36559     37926.35 
  755300     309.3658   -1501.7114    494.96368    388.48144   -274.48111     37926.35 
  755400    294.87153   -1469.9277    509.22674    369.15946    766.63508     37926.35 
  755500    291.09283   -1474.1503    512.54356    351.21185    548.92361     37926.35 
  755600    295.90562   -1462.9634    498.83132    370.39207    276.13189     37926.35 
  755700    299.46208   -1459.8147    509.91371    400.66271     -40.2644     37926.35 
  755800    297.56427   -1448.4441    498.87592    392.43647    290.06722     37926.35 
  755900     295.3837   -1455.9762    466.57449    342.76862    150.28161     37926.35 
  756000    300.28322    -1496.085     483.7386    341.92062   -433.32051     37926.35 
  756100     311.5079     -1497.01    487.36087     395.2408    -295.6879     37926.35 
  756200    293.02755   -1474.4995    487.36717    334.41184   -694.12625     37926.35 
  756300    307.31677   -1473.8542    488.84221    400.97604   -593.54731     37926.35 
  756400    302.84886      -1473.9    484.31908    376.25699   -655.82814     37926.35 
  756500    291.65965   -1475.9266     506.6456    346.09397    -107.6708     37926.35 
  756600    316.53916   -1497.0273    497.70945    428.26293     210.9482     37926.35 
  756700    305.36408   -1451.6338    507.49087    433.03854    289.10671     37926.35 
  756800    298.24021   -1471.0772    489.36752    363.34342    383.72074     37926.35 
  756900    313.90222   -1450.6572    509.90904    474.94003    400.49973     37926.35 
  757000    302.36788   -1450.8056    480.65731    393.52047    122.98314     37926.35 
  757100    300.09334   -1436.4869    480.10081    397.02457   -609.23893     37926.35 
  757200    300.59121   -1436.6501    509.97653    428.98249   -866.09433     37926.35 
  757300    305.71183   -1437.7044    495.12571    436.17113   -944.93389     37926.35 
  757400    288.70019   -1454.3323    507.28041    354.97606   -1437.9686     37926.35 
  757500    298.89587   -1472.2804    475.74845    351.47817   -685.75286     37926.35 
  757600    298.07534   -1453.1071    480.07739    371.27983   -1073.6931     37926.35 
  757700    288.32883   -1449.9009    522.93159    373.38383    -126.1523     37926.35 
  757800    287.70409   -1426.1732    521.59245    392.95476    170.48737     37926.35 
  757900    314.32724   -1430.6325    490.74659    477.71915   -15.708605     37926.35 
  758000     293.4438   -1420.7291    532.66823    435.36062   -203.71039     37926.35 
  758100     292.1726   -1468.1004    493.64766    343.23567   -334.29714     37926.35 
  758200    307.45741   -1487.8637    496.68456    395.44326   -20.702369     37926.35 
  758300    305.97295   -1447.8921    489.12177    421.15717    -92.63902     37926.35 
  758400    304.59031   -1442.7689    485.16234    416.08528   -903.87238     37926.35 
  758500    299.58896   -1489.5254     506.0217    367.63225    592.14696     37926.35 
  758600    300.91276    -1437.802    479.49446    398.79863     317.0977     37926.35 
  758700    302.27778   -1441.8409    496.33476    417.75627    556.79434     37926.35 
  758800    302.83479   -1467.2782    492.47057    390.96686   -16.764906     37926.35 
  758900    303.50456   -1466.2192    489.69888    392.27479   -117.88943     37926.35 
  759000    290.70382   -1499.6423    510.49559    321.91753    -280.8527     37926.35 
  759100    300.32124   -1521.4442    463.21063    296.20485   -358.41034     37926.35 
  759200    302.25916   -1503.0863    486.95858    347.05069   -27.602489     37926.35 
  759300    302.58197   -1481.2661    509.31312    392.68126   -523.62245     37926.35 
  759400    301.03541   -1509.4691     484.9217    333.11195   -289.84228     37926.35 
  759500    300.44931   -1483.6662    476.03427    347.38409    21.454626     37926.35 
  759600    298.65085   -1517.0817    490.57946    320.40284   -189.03478     37926.35 
  759700    297.94148   -1524.4401    503.66726    322.93295    665.62714     37926.35 
  759800    299.85311   -1498.1405    478.73887    332.92559   -14.043778     37926.35 
  759900    298.10922   -1502.0409    484.15525    326.57668    154.14677     37926.35 
  760000    289.65828    -1524.676    473.90363    255.57653    32.858741     37926.35 
  760100    300.13313   -1512.4612    490.36936    331.49826    427.66039     37926.35 
  760200     296.8334    -1531.838     471.0575    277.92791     120.1335     37926.35 
  760300    290.33411   -1497.4027    475.39439    287.38854    103.64787     37926.35 
  760400    308.71032   -1456.6169    498.30507     433.9611     511.4503     37926.35 
  760500    305.10686   -1471.0081    488.05252    393.06582    195.76617     37926.35 
  760600    282.53407   -1459.8882    494.03709    308.36789   -657.13307     37926.35 
  760700    293.10986   -1446.7414    492.50313    367.67707   -210.35973     37926.35 
  760800    300.43146   -1424.1109    473.95243    404.77707   -458.26084     37926.35 
  760900     294.7327    -1489.053    486.53956     326.7209   -441.32632     37926.35 
  761000    295.80624   -1509.8941    458.80054    282.98236    485.65257     37926.35 
  761100    294.27752   -1477.6149    488.88354    338.45018    1065.6588     37926.35 
  761200    312.32703   -1503.3125        504.7    409.97167    971.86341     37926.35 
  761300    298.43381   -1471.3533    488.76059    363.33354    92.218496     37926.35 
  761400     302.0914   -1493.5877    499.78452    368.61867    -258.2842     37926.35 
  761500    306.19884     -1511.83    476.07349    345.18973    451.96037     37926.35 
  761600    302.95406   -1531.3742      496.074    331.01214    217.39314     37926.35 
  761700    297.62001   -1519.1778    473.63256    296.71076   -118.85906     37926.35 
  761800    294.36773   -1553.0839    501.17251    275.67697   -32.681819     37926.35 
  761900    305.04511   -1502.6639    491.87863    364.95773   -706.38901     37926.35 
  762000    295.17357   -1500.8152    474.26957    304.67699    -619.4988     37926.35 
  762100    301.95269   -1483.6975    473.46362     351.5624    139.14767     37926.35 
  762200    299.00605   -1529.4119    489.14223    308.23729   -522.82322     37926.35 
  762300    292.99643   -1491.1591     487.9265     318.1712   -279.93138     37926.35 
  762400    308.23376    -1536.321    486.13708    339.93976   -193.67857     37926.35 
  762500     298.6404   -1491.5772    458.01987    313.30058   -805.71462     37926.35 
  762600    304.13301   -1485.3782    464.57009    350.82127   -1104.4085     37926.35 
  762700    311.94865   -1492.6134    484.11633    398.38064   -356.05413     37926.35 
  762800    304.60086   -1523.0276    472.27457    322.98641   -458.89822     37926.35 
  762900    299.54173   -1529.2211    482.49812    304.19994   -378.91666     37926.35 
  763000    308.44121    -1466.527     487.5573    412.08956    423.49339     37926.35 
  763100    299.53273   -1482.8939    476.80995    344.79835    48.050774     37926.35 
  763200    297.03727    -1481.505    487.22525    345.34816    -417.3563     37926.35 
  763300     311.7358   -1469.8246    524.11346    460.20662    17.703198     37926.35 
  763400    310.58708   -1521.8599    509.76679    388.64395    570.85888     37926.35 
  763500    295.30006   -1503.0941    498.44227    327.14128    408.38355     37926.35 
  763600    299.02658   -1490.7713     509.8747    367.70302    771.94193     37926.35 
  763700    291.31071   -1496.3873    503.29252    320.70647     159.0266     37926.35 
  763800    301.00436   -1494.5529    512.60586    375.57231   -406.69872     37926.35 
  763900    303.59088   -1475.4936    497.14651    390.83731    183.24681     37926.35 
  764000    298.22071   -1498.3631    473.02264    319.62467    167.43689     37926.35 
  764100    295.83128   -1482.4528    467.98104    319.71715    716.08639     37926.35 
  764200    297.59285   -1504.4859    498.60385    336.25147    208.41395     37926.35 
  764300    299.77698   -1455.1212     495.3747    392.23739    406.96711     37926.35 
  764400    306.08064   -1478.5548    514.61118    416.46956   -493.49243     37926.35 
  764500    302.31556   -1451.6093    456.46652    368.29002    60.273936     37926.35 
  764600    292.01075   -1452.0049    508.30163    373.25516   -209.80349     37926.35 
  764700    300.82178   -1445.8105    508.83937    419.72474   -213.29965     37926.35 
  764800    302.76547   -1470.8158    482.52809    377.17419   -6.7160387     37926.35 
  764900    300.01018   -1446.2764    522.59628    429.35552   -228.58948     37926.35 
  765000    294.95635   -1463.6419    504.47574    371.07678    365.13036     37926.35 
  765100    296.15315   -1520.1558     501.9357    317.42042    -73.30049     37926.35 
  765200    300.86146   -1466.6701    515.01292    405.21767   -159.27526     37926.35 
  765300    293.51829   -1504.3458    515.38536    334.79691   -283.50718     37926.35 
  765400    294.53729   -1519.4775    493.62543    302.50093   -82.294473     37926.35 
  765500    302.19704   -1484.4502    501.08082     379.5289     230.7444     37926.35 
  765600    307.30783   -1517.9405    470.47346    338.48073    523.24739     37926.35 
  765700    302.95669   -1501.5887      496.025    360.76051    533.57505     37926.35 
  765800    299.94739    -1545.763    490.47598     297.4654    225.76031     37926.35 
  765900    294.08981   -1525.6084    490.64777    291.37434    461.32081     37926.35 
  766000    300.43844   -1483.7316    502.54973    373.78514    762.75446     37926.35 
  766100    292.97539   -1523.9144    477.09782    274.49231    143.71066     37926.35 
  766200    298.27963   -1482.2248    484.25012    347.25618    113.22915     37926.35 
  766300    297.89432   -1499.1486    497.34431    341.68891   -618.68404     37926.35 
  766400    293.56435   -1510.5574    482.20454    295.61222   -751.84005     37926.35 
  766500    293.52123   -1519.8581    491.79096    295.70354    78.637673     37926.35 
  766600    293.18537    -1489.067    513.99165    347.18064    9.8409153     37926.35 
  766700    305.31815   -1527.1745    476.45126    326.25108    -261.5417     37926.35 
  766800    308.51312   -1488.0933    469.29311     372.5834    -184.7073     37926.35 
  766900    305.30104   -1490.8417    505.56251    391.61801   -763.13142     37926.35 
  767000    304.75445   -1486.8062    469.19926    356.82516   -46.428179     37926.35 
  767100    309.20082   -1455.5486    490.93982    429.87622   -171.49262     37926.35 
  767200    304.53453   -1450.3843    489.56989    412.62583   -70.271514     37926.35 
  767300    287.50368   -1448.7878    497.70346    345.54734   -671.20115     37926.35 
  767400     292.1225   -1458.2527    501.74879    360.95856   -140.55477     37926.35 
  767500    289.33872   -1453.7359    517.40097    368.57277   -345.43722     37926.35 
  767600    304.35868   -1465.0427    497.96403    405.56847   -119.51257     37926.35 
  767700    300.81319   -1416.1756    507.34053    447.82202    418.01459     37926.35 
  767800     301.0164   -1435.9742    492.17269    413.77209   -113.95337     37926.35 
  767900    296.02026   -1468.9266    495.02191    361.13645    215.92609     37926.35 
  768000    293.96057   -1465.5785    496.75165    356.92517   -244.98634     37926.35 
  768100    303.74595   -1436.0821    483.42668    417.22838   -640.13611     37926.35 
  768200    295.92288   -1428.9836    492.87626    398.49461   -268.00497     37926.35 
  768300    307.99802    -1472.546    466.68667    383.20112   -360.48993     37926.35 
  768400    295.99146   -1469.8297    484.54266    349.62425     114.8687     37926.35 
  768500    309.51655   -1481.5211     506.6767     421.0646    387.85793     37926.35 
  768600    292.38228   -1492.5628    492.06595    318.13723   -209.18926     37926.35 
  768700    300.83824   -1460.9228    468.07687    363.92414   -6.9048386     37926.35 
  768800    313.65386    -1492.215    508.43333    430.78647    257.42133     37926.35 
  768900    296.10564     -1486.71    482.16917    330.88538   -341.50983     37926.35 
  769000    296.20405   -1487.4674    499.04814    347.45081   -125.60535     37926.35 
  769100    301.31753   -1453.5896    471.58663    376.92872   -581.16374     37926.35 
  769200     308.0366   -1443.6377    493.20148    438.79824    372.61927     37926.35 
  769300    294.34189   -1411.6536    511.66324    427.48147    240.09283     37926.35 
  769400    303.63173    -1412.693    504.91583    461.59147    396.15775     37926.35 
  769500    300.78346   -1441.1283    494.64475    410.03954    226.22617     37926.35 
  769600    303.02507   -1444.7723    503.58106    425.44144    104.63095     37926.35 
  769700    300.99282   -1461.0534    463.19677    359.61066    361.61545     37926.35 
  769800    291.09876   -1437.9745    491.98556    366.85647    629.97518     37926.35 
  769900    299.61167   -1514.8199    503.36722    339.78565    476.53452     37926.35 
  770000    301.22455     -1488.67    489.68118    359.52357    531.83308     37926.35 
  770100    294.14024   -1509.2399    497.31598    314.63844    166.20003     37926.35 
  770200    296.45657   -1472.9945    511.03178    375.04621    261.20868     37926.35 
  770300    293.66236   -1430.8272    495.38596    388.96589    88.037948     37926.35 
  770400    305.73342   -1485.4884    496.17724    389.53604    5.3563496     37926.35 
  770500    308.16418    -1498.135    515.55288     407.2277    72.421025     37926.35 
  770600    299.55874   -1513.2997    507.62224    345.32218    36.554378     37926.35 
  770700    295.81691   -1488.6231    495.39502    340.89601   -100.34897     37926.35 
  770800    298.34303   -1476.4812    497.59543    366.63105    -416.9147     37926.35 
  770900    302.69509   -1491.4307    469.52552    343.23921   -131.26885     37926.35 
  771000    295.37753    -1471.717    495.50333    355.92888   -555.13732     37926.35 
  771100     304.5621    -1478.123    500.82108    396.26271     -302.869     37926.35 
  771200    297.14009   -1504.1852    471.45324    307.35964   -523.63509     37926.35 
  771300    308.16524   -1502.6894    483.50263    370.62787   -347.93537     37926.35 
  771400    292.97101   -1509.2734    486.53813    298.55393    108.67511     37926.35 
  771500    310.47324   -1488.7922     497.1528    408.58419    541.70247     37926.35 
  771600    300.49713   -1482.7179    525.41103     397.9249    548.92049     37926.35 
  771700    289.87357   -1479.9413    484.81893    312.19744    368.02878     37926.35 
  771800    297.38314   -1506.2796    471.98063     306.8888    201.94287     37926.35 
  771900    300.34964   -1506.3149    504.37508     352.6267    60.934426     37926.35 
  772000    307.87218   -1477.6553    504.84746    415.68507    491.93428     37926.35 
  772100    298.42133   -1480.5796    496.93692    362.22729    150.15296     37926.35 
  772200    299.31498   -1504.8398    483.38252    328.44295   -8.7381785     37926.35 
  772300    306.77247   -1502.4135    495.61506    376.73484     1020.323     37926.35 
  772400    296.56785   -1533.9936    494.83896     298.3562    298.65891     37926.35 
  772500    306.14301   -1461.7452    485.06026    404.00947    99.123322     37926.35 
  772600    289.64477    -1448.824    504.12592    361.58984    442.08016     37926.35 
  772700    310.03309   -1444.1245    485.38957    439.50366   -90.933225     37926.35 
  772800    310.23349   -1456.4898    494.17626    436.82887    168.86855     37926.35 
  772900     306.2951   -1467.0907    519.74477    434.03442    3.0866532     37926.35 
  773000    303.26695   -1482.7523    483.29623    368.26742    71.280278     37926.35 
  773100     300.5096   -1431.6399    513.22477    436.87283     106.8071     37926.35 
  773200    303.44873   -1486.6512    484.99165    366.88379    144.51269     37926.35 
  773300    300.88946   -1493.9007    478.92362    342.02404   -19.904627     37926.35 
  773400     294.5298   -1500.7224    496.55739    324.15423   -69.182188     37926.35 
  773500    293.12571   -1480.7171    511.52464    352.79445   -326.05943     37926.35 
  773600    303.20387   -1461.5722    488.08793    393.95475   -369.69581     37926.35 
  773700    296.56889   -1443.9258    501.83031    395.41995   -39.256972     37926.35 
  773800    302.17924   -1459.9839    493.23177    396.06584   -209.38039     37926.35 
  773900    293.23898   -1460.8964    486.58203    348.18331   -183.04344     37926.35 
  774000    326.25515    -1463.201    528.98472    537.18321    321.11097     37926.35 
  774100    291.76576   -1494.1313    527.10993    348.83218    389.01671     37926.35 
  774200    298.47431   -1521.9255    501.77019    325.95356    400.97916     37926.35 
  774300    305.75275   -1483.8989    482.85052    377.88604   -3.6236004     37926.35 
  774400    295.33088   -1482.5507    484.00129    333.38276   -722.83029     37926.35 
  774500    305.50241   -1453.9611    517.49284    441.33712   -241.75242     37926.35 
  774600    296.84344   -1470.7016    500.24055    368.29267    180.40861     37926.35 
  774700    303.32591    -1490.723    495.23825    372.50469    806.81171     37926.35 
  774800    304.51663   -1509.6404    521.66353    385.38271    782.02135     37926.35 
  774900    294.68528   -1504.4866    502.68309    327.21695    429.83587     37926.35 
  775000    298.80509   -1523.7958    477.13639    300.94129    300.84704     37926.35 
  775100    296.12001   -1505.5641    512.61898    342.54598    159.34423     37926.35 
  775200    294.99427   -1470.5781    497.06998     356.9059     849.3359     37926.35 
  775300    292.83662   -1438.7537    497.16321    379.09265    397.57597     37926.35 
  775400     285.6484   -1450.9326    502.86153    340.19336     329.6187     37926.35 
  775500    302.67821   -1510.3577    488.11768    342.82829    133.76572     37926.35 
  775600    294.93835   -1487.8713    515.35857    357.64905    293.71245     37926.35 
  775700    296.69162   -1505.5513    502.15771     334.6754    766.75576     37926.35 
  775800    288.63117   -1485.8756    491.95156    307.79263    465.27319     37926.35 
  775900    293.10587   -1482.5776    505.50133    344.82106    424.00868     37926.35 
  776000    298.52546    -1451.521    530.81178    425.63031    385.30184     37926.35 
  776100     289.7103   -1456.5911    485.99943    335.99187    80.614863     37926.35 
  776200    301.70553   -1475.2698    561.61173    447.02351   -100.46361     37926.35 
  776300    298.86479   -1488.3458    493.52339    353.04755    257.73166     37926.35 
  776400    286.91737    -1473.455    489.97723    310.50964    6.3738158     37926.35 
  776500    298.30435   -1494.1339    534.93682    386.14528    -423.9611     37926.35 
  776600    302.39908   -1491.7802    466.32634    338.35558    65.429359     37926.35 
  776700    308.26068   -1515.9584    519.86784    394.15453   -845.96607     37926.35 
  776800    308.02324   -1441.9067    484.22058    431.48814   -397.36581     37926.35 
  776900    298.09669   -1496.5124    496.41258    344.30601   -502.12529     37926.35 
  777000    299.25951   -1517.0452    491.99162    324.59657   -642.29764     37926.35 
  777100    298.79225   -1464.2723     510.9461    394.21661   -602.12718     37926.35 
  777200    302.91184   -1514.6525    502.91863    354.38812   -68.269314     37926.35 
  777300    296.83946    -1491.386    483.29139    330.64112   -528.81823     37926.35 
  777400    301.28795   -1505.9875    482.59457    335.40534    78.385336     37926.35 
  777500    299.26167   -1465.1422     521.9906    406.50821    356.95552     37926.35 
  777600    295.55842   -1491.9832    544.00657    384.98165     906.2811     37926.35 
  777700    307.36823   -1488.0968    506.17248     404.2958    286.09205     37926.35 
  777800    301.07014   -1517.6631    498.15921    338.31213    372.42093     37926.35 
  777900    293.04451   -1508.4303    490.15401    303.34435    184.68829     37926.35 
  778000    289.76527   -1484.5253     504.1837    326.48979    455.84541     37926.35 
  778100    293.48909   -1532.3227    503.71757    295.02059   -328.00877     37926.35 
  778200    296.13421   -1521.3353    484.64771    298.86751   -452.90137     37926.35 
  778300    308.11094   -1478.7678    503.95885    414.76078     -8.01626     37926.35 
  778400    294.61888   -1530.5672    485.34914    283.50299    -93.96417     37926.35 
  778500    294.01993   -1552.4033    485.70879    259.32533     64.60581     37926.35 
  778600    307.17685   -1505.4902    466.51147    346.37835    237.05775     37926.35 
  778700    312.83502   -1535.3321     481.4008    356.94388    92.238256     37926.35 
  778800    294.54236   -1533.9017     477.9707    272.44493    316.96116     37926.35 
  778900    318.49334   -1518.2163    483.41658    401.59426    290.22638     37926.35 
  779000    292.91548   -1469.5506     487.3013    338.78939   -687.66179     37926.35 
  779100    307.06727   -1477.2167    493.12467    400.77081   -448.90242     37926.35 
  779200    304.73296   -1505.9596    506.02167    374.39721   -998.60635     37926.35 
  779300      302.805   -1514.4012    482.68355    333.92251   -316.20458     37926.35 
  779400    296.90021   -1523.9679    478.83225    293.87405   -384.17433     37926.35 
  779500    298.25886   -1522.0919    463.30272    286.34798   -127.93589     37926.35 
  779600    312.14836   -1494.5534    499.25598    412.48097   -429.89346     37926.35 
  779700    304.49741   -1528.0721      508.793    353.99375   -410.13672     37926.35 
  779800    283.66611   -1510.8731    481.29081    249.74214   -84.349855     37926.35 
  779900    300.77838   -1504.3547    526.86941    379.01486   -33.261224     37926.35 
  780000    307.27593   -1511.6595    488.03989    362.18432   -405.82926     37926.35 
  780100     303.0536    -1486.823     486.7011    366.63942   -575.96459     37926.35 
  780200    289.45412   -1470.9978     547.6814    382.11171   -472.17752     37926.35 
  780300    305.52456   -1506.9591    497.76306    368.70927     178.7256     37926.35 
  780400    311.18566   -1519.3248    495.33945    379.45125    195.75538     37926.35 
  780500    308.34766   -1474.8181    525.28413    441.10343    181.16406     37926.35 
  780600    299.05523   -1456.1824    496.94066    389.48704   -331.29695     37926.35 
  780700    292.28388   -1494.7514    505.34365    328.78248    358.52154     37926.35 
  780800    298.54016   -1520.3687    485.70225    311.73937    80.880276     37926.35 
  780900    301.93278   -1472.0967    521.03631      410.646    207.78541     37926.35 
  781000    292.50012   -1487.5642    503.91536    335.51665    9.0039027     37926.35 
  781100     304.1858   -1495.5381    481.00222     357.3316    53.703682     37926.35 
  781200    295.82751   -1447.3799    518.58342    405.37539    233.66262     37926.35 
  781300    311.06593   -1483.5084    503.83968    423.22791    47.643784     37926.35 
  781400    314.83512   -1479.0539    535.39009    476.23174    400.16488     37926.35 
  781500    290.12128   -1410.5334    532.53527    430.43886    367.26611     37926.35 
  781600    306.38183   -1497.4935    506.29876    390.57674    507.12839     37926.35 
  781700    300.85722   -1430.5495    526.70904    453.01525    289.59672     37926.35 
  781800    297.55145   -1496.7599    553.82959    399.01646    742.35676     37926.35 
  781900    295.76831   -1480.7718    500.76713    353.90021    348.87661     37926.35 
  782000    295.26805   -1484.6435    506.12634    353.13158    312.43784     37926.35 
  782100    305.94889   -1492.6147    488.22748    375.43177   -158.16843     37926.35 
  782200    307.00815   -1449.0121    514.25778    449.84184   -371.48417     37926.35 
  782300    304.15713    -1459.068    497.76355    410.43381    11.411614     37926.35 
  782400    295.73539   -1486.6104    496.94376    344.08982   -361.50278     37926.35 
  782500    300.32805   -1459.8498    494.72492    389.34431   -427.11897     37926.35 
  782600    300.32147     -1490.01    479.98368    344.41318   -383.77139     37926.35 
  782700    295.22183   -1517.8034    487.86059    301.49753    162.63639     37926.35 
  782800    304.61342    -1537.923    488.40905    324.28207     494.3083     37926.35 
  782900    288.03928   -1523.6544     489.7269    265.11976   -45.699299     37926.35 
  783000    308.93575   -1520.9829    486.28384    358.59049     236.6462     37926.35 
  783100    308.78094   -1543.2905    484.64251    333.94343    458.95072     37926.35 
  783200    301.81305   -1569.2724    498.75719    290.65124    136.28795     37926.35 
  783300    290.27846   -1548.6968     458.3621    218.81122   -407.61505     37926.35 
  783400    299.83363   -1511.6357    484.15686     324.7605    20.225409     37926.35 
  783500     303.9222   -1504.5259    482.75552    348.90827   -44.052112     37926.35 
  783600    304.59187   -1476.3247    496.30563    393.67977   -63.082277     37926.35 
  783700    294.85665   -1501.4739    478.76592    307.08539    262.92808     37926.35 
  783800     301.0033   -1496.4807    491.90699    352.94085    306.36479     37926.35 
  783900    301.84865   -1501.7476    482.28136    341.86078    639.89665     37926.35 
  784000    298.83185   -1475.4451     522.2812    394.55747    332.19447     37926.35 
  784100    305.84611   -1515.0086    469.52221    333.86911    283.47752     37926.35 
  784200    302.11919   -1502.5396    486.43805    346.44564    547.19375     37926.35 
  784300    299.45762   -1577.5367    477.97868    250.98554   -495.78256     37926.35 
  784400    299.66881   -1550.3663    494.17861    295.30833   -521.48305     37926.35 
  784500    299.94719    -1528.319    470.68028     295.1128   -415.18822     37926.35 
  784600    303.71304   -1461.5002    517.08663    425.32182   -37.771258     37926.35 
  784700      311.322   -1478.6398    492.62573    418.03745   -75.170637     37926.35 
  784800    298.11622   -1447.7999    506.24102      402.935      819.495     37926.35 
  784900    300.02136   -1502.6714    513.61144    364.02607     343.2829     37926.35 
  785000    294.64486   -1502.1422    518.99148     345.6875     935.9719     37926.35 
  785100    296.37735   -1514.2729     511.2327    333.61143    636.24341     37926.35 
  785200    297.05758   -1476.4183    529.12343    392.42462    733.15168     37926.35 
  785300    297.62076   -1504.5615    510.69496    348.39284    28.900002     37926.35 
  785400    294.00917   -1482.4273    494.01417    337.55816   -225.49795     37926.35 
  785500    296.19037   -1519.8961    499.63085    315.54312   -377.57561     37926.35 
  785600    294.39425   -1491.8743     498.0075    333.84111   -469.38365     37926.35 
  785700    310.00004   -1470.0779    505.11467    433.12625    176.14237     37926.35 
  785800     292.6356   -1489.8142    501.71827    331.68051    216.65327     37926.35 
  785900    308.36272    -1546.747    503.00634    346.96464    138.11113     37926.35 
  786000    296.01916   -1529.0015    516.34247    322.37724    111.16464     37926.35 
  786100    297.48233   -1519.0895    508.97546    331.52102    56.432198     37926.35 
  786200    291.41312   -1475.1123    499.96817    339.11902   -125.75101     37926.35 
  786300    304.05626   -1535.1067    483.03606    319.21262    174.71936     37926.35 
  786400    294.71254    -1550.601    506.38002     284.9225    663.08982     37926.35 
  786500    303.21224   -1569.4047    488.36867    286.44075   -23.482511     37926.35 
  786600    303.91007   -1563.2433    494.90858    302.28926    269.50508     37926.35 
  786700     296.9827   -1530.9798    495.67905    304.08096   -96.582997     37926.35 
  786800    296.54823   -1508.5376    502.43741    331.32209   -71.274735     37926.35 
  786900    297.10142   -1512.2036    510.85132     338.5649     154.0972     37926.35 
  787000    309.87569   -1530.9408    493.63771    360.22563    84.925819     37926.35 
  787100    306.99839   -1475.3755    498.63985    407.81648    152.05501     37926.35 
  787200    295.98677   -1542.7098    496.31764    288.49804    -148.0317     37926.35 
  787300     300.4745   -1508.0502    504.07269    351.15217    131.24797     37926.35 
  787400    304.52913   -1519.3104    487.99041    342.09593    575.50789     37926.35 
  787500    302.11761   -1562.9732    515.71426    315.28106    451.96871     37926.35 
  787600    299.12543   -1503.9917    472.78685    317.84053    347.86078     37926.35 
  787700    297.83808   -1497.3484    503.57754    349.46867    349.12896     37926.35 
  787800    299.28762   -1533.8991    510.86688    326.74461    752.53666     37926.35 
  787900    308.34793   -1523.9097    505.87947    372.60836    748.61098     37926.35 
  788000     297.4889   -1495.8594    490.17804    335.98339    489.42076     37926.35 
  788100    302.33901   -1549.4153    477.46256     291.5858    12.911084     37926.35 
  788200    295.90692   -1540.9968    491.35073     284.8839     611.1996     37926.35 
  788300    292.51972   -1543.8053    496.19313    271.64169    937.19461     37926.35 
  788400    302.27659   -1572.0709    497.72497    288.91114   -287.55893     37926.35 
  788500    293.37052   -1570.0735    475.68942    228.70689   -263.51544     37926.35 
  788600    293.98845   -1565.6169    495.42153     255.6824      446.752     37926.35 
  788700    300.03517   -1524.7418    496.06867    324.47518    9.1928649     37926.35 
  788800    300.89067   -1502.8487    502.01681     356.1747   -251.98255     37926.35 
  788900    305.83131   -1518.8124    518.90476    379.38103    594.30609     37926.35 
  789000     295.2488   -1491.1232    487.03517    327.47389    327.56588     37926.35 
  789100    296.23131   -1554.6202     482.0271    263.39996    282.34409     37926.35 
  789200    296.07489   -1520.4775    494.61318    309.42326    424.43656     37926.35 
  789300    303.57596   -1472.9307    474.63126    370.81764   -260.02568     37926.35 
  789400    303.57615   -1493.3524    493.71556    369.48119    180.14985     37926.35 
  789500     294.4828    -1497.905    512.20039    342.40268   -149.27911     37926.35 
  789600    303.98285   -1497.0367    504.91674    378.83219   -534.36209     37926.35 
  789700    295.42432    -1493.859    519.76804    358.26262   -1307.1236     37926.35 
  789800    296.04969   -1498.4223    475.57746    312.32905   -525.34329     37926.35 
  789900    300.08067   -1489.1803    474.61598    338.78917   -310.01654     37926.35 
  790000    301.89651   -1468.1883    531.33624    424.69085   -170.22835     37926.35 
  790100    293.41916   -1501.3662    495.24391    317.18797   -355.90396     37926.35 
  790200    307.19977   -1489.5528    488.49866    384.40622    178.45685     37926.35 
  790300    292.94921   -1447.0506    513.33889    387.47915    653.58086     37926.35 
  790400    289.71083   -1470.5724    493.64549    329.65899   -260.55446     37926.35 
  790500    310.14367    -1480.099    488.76638    407.40471   -593.76295     37926.35 
  790600    305.65015    -1447.957    490.67621    421.19084   -141.04239     37926.35 
  790700    303.23121    -1490.571    476.49776    353.48905   -295.09288     37926.35 
  790800    298.53733   -1464.0826     496.2501    378.56056    -320.6006     37926.35 
  790900    299.90499   -1443.0496    498.04538    407.55694   -253.62295     37926.35 
  791000    304.19183   -1449.7237    507.10777    429.27879    42.120067     37926.35 
  791100    301.13491   -1462.7593     515.4305    410.77932     376.3477     37926.35 
  791200    302.28937   -1467.0098    498.28722    394.59208    388.43485     37926.35 
  791300    305.60701   -1496.4771    518.88348    400.68346    250.27269     37926.35 
  791400    302.10261   -1469.8909    517.99886    410.58039    860.34066     37926.35 
  791500     295.7691   -1504.2687    499.54369    329.18342    441.65933     37926.35 
  791600    302.02855   -1500.0604    510.71378    372.79177    809.67774     37926.35 
  791700    310.30333   -1479.6611    485.25009    405.04637   -432.00141     37926.35 
  791800    289.03374   -1496.6046    512.45912    319.38669   -525.61001     37926.35 
  791900    306.41616   -1467.0244    486.13009    401.03203     -46.2075     37926.35 
  792000    306.70974   -1455.6499    485.33425    412.93473   -406.33451     37926.35 
  792100    299.01854   -1488.0888    494.33573    354.81026   -416.47948     37926.35 
  792200    307.49396   -1455.8163    478.20392    409.17482   -175.63568     37926.35 
  792300    300.40022   -1479.9219    490.22512    365.09785   -446.57918     37926.35 
  792400    296.07132   -1525.6326     482.9938    292.63272   -542.90722     37926.35 
  792500    299.88217   -1490.7176    487.26549    349.00611   -222.17024     37926.35 
  792600    299.58248   -1511.8942    498.15288     337.3654    734.38916     37926.35 
  792700    291.27468   -1457.6876    491.12581    347.07705    160.75282     37926.35 
  792800    295.73063   -1459.4175    507.66237    381.97983    95.106715     37926.35 
  792900    292.24146   -1419.7989    488.16292    386.36298   -26.693349     37926.35 
  793000    293.26509   -1424.4996    527.67764    425.79349     363.4356     37926.35 
  793100    301.48531   -1428.9833    505.77299    436.47809    273.92695     37926.35 
  793200    303.81358   -1436.7031    491.06158    424.54732    39.177306     37926.35 
  793300    303.61183   -1502.6636    478.91821    345.53349    -189.1152     37926.35 
  793400    302.66091   -1541.4839    493.52704    317.03345    6.8543507     37926.35 
  793500    303.13733    -1528.059    515.88717    354.96713    264.65074     37926.35 
  793600    302.30327   -1513.9789    494.64065    344.03908    873.68412     37926.35 
  793700    297.59823   -1496.4248    494.54382    340.27684    124.37674     37926.35 
  793800    307.71088   -1490.9584    489.36616    386.17323   -145.18085     37926.35 
  793900    302.66354   -1469.2698    496.24223    391.97459   -148.00542     37926.35 
  794000    301.32889   -1513.4571    472.30523    317.83104    628.69269     37926.35 
  794100    302.90323   -1532.1923    504.98616      338.877    172.99175     37926.35 
  794200    294.63621   -1502.1597    483.59104    310.23048   -131.56017     37926.35 
  794300    293.17309   -1538.8303    478.69289    262.06309   -430.77883     37926.35 
  794400    293.36311   -1522.0834    500.05793     301.0321   -194.19153     37926.35 
  794500    301.94026      -1560.9    484.63288    285.47312    153.49785     37926.35 
  794600    295.70412   -1523.2111    517.13795    327.54223    160.98275     37926.35 
  794700    296.44269   -1546.0071    490.51835    281.45757   -120.91204     37926.35 
  794800    296.93634   -1486.7312    496.09451    348.53604   -26.784938     37926.35 
  794900    309.23129   -1476.9532     517.9211     435.5904    255.49841     37926.35 
  795000    286.22085   -1497.9184    477.19524    270.12306    -307.2068     37926.35 
  795100    295.59662   -1488.4075    508.78879    353.51193    281.52138     37926.35 
  795200     305.2594   -1512.8897    504.87996    368.69968    230.17743     37926.35 
  795300    304.72794   -1538.1096    503.41392    339.61681    611.79334     37926.35 
  795400     306.0992    -1507.276    504.59741    377.81821    333.93427     37926.35 
  795500    302.20474   -1524.0718    511.47014    350.33135   -592.73453     37926.35 
  795600    291.94209   -1523.4138    495.37474    288.60971   -442.17086     37926.35 
  795700    291.70566   -1491.1867    496.32974    320.72549   -142.88612     37926.35 
  795800    309.90852   -1517.0527    518.93973    399.56386   -484.33977     37926.35 
  795900    306.06368   -1493.3784    503.46547    390.42373    121.26086     37926.35 
  796000    297.58016   -1542.6065     478.3736    277.84339   -194.02436     37926.35 
  796100    308.59544   -1503.8008    519.88837    407.84237   -138.48574     37926.35 
  796200    303.51036   -1546.9993    504.39999    326.22195    70.521266     37926.35 
  796300     303.1999   -1546.8187    476.37736    296.97977   -185.53326     37926.35 
  796400    292.36541   -1571.9481    496.17078    242.78062    411.77471     37926.35 
  796500    307.51873   -1565.6693     493.7925    315.02217    216.74925     37926.35 
  796600    307.53119   -1597.8279    499.03035    288.15757    253.72124     37926.35 
  796700    290.91295    -1560.936    471.26843    222.33978   -84.471403     37926.35 
  796800    305.89861   -1503.2284    485.20519    361.56898   -395.18689     37926.35 
  796900    300.48357   -1478.1627    504.94247    381.95038   -104.61679     37926.35 
  797000    309.69021   -1503.5108     519.3087    412.49008   -139.03959     37926.35 
  797100    310.90599   -1555.2252     486.0473    332.99747   -565.10375     37926.35 
  797200    284.82567   -1544.3476    503.67916    243.88553    628.00578     37926.35 
  797300    305.16942   -1526.3107    481.96972    331.96261    553.39035     37926.35 
  797400    294.62351   -1561.4664    505.15981    272.43533   -161.18712     37926.35 
  797500    310.15086   -1505.7527    490.14269    383.15971    -393.7693     37926.35 
  797600    296.81867   -1462.8705    492.62832    368.39979   -360.21033     37926.35 
  797700    297.21108   -1473.1279    490.07265    357.35652    126.50426     37926.35 
  797800    300.88171   -1511.9999    485.51325    330.47956    137.03806     37926.35 
  797900    300.09337    -1526.517    491.95379    318.84762    319.26462     37926.35 
  798000    303.43497   -1538.5721    513.38355    343.29272    121.62611     37926.35 
  798100    291.64871    -1502.413    478.97517    291.88777   -333.11485     37926.35 
  798200    309.20094   -1511.2067    506.77121    390.05011    204.32591     37926.35 
  798300    292.31225     -1511.73    479.64175    286.22999    7.9451724     37926.35 
  798400    294.95242   -1529.6977    506.24984    306.77741    257.49661     37926.35 
  798500    293.77636   -1563.1988    502.81601    264.53853    7.0635424     37926.35 
  798600    303.82791   -1530.3215    486.73138     326.6633    367.58589     37926.35 
  798700    288.76731   -1531.4807    523.00897    293.85891   -286.00591     37926.35 
  798800    310.10702   -1518.6366    487.84212    367.77748    147.72434     37926.35 
  798900    306.17442   -1507.8635    494.18653    367.15913    502.03273     37926.35 
  799000    304.77789   -1552.1016    473.02126    295.45743    358.79929     37926.35 
  799100    304.67478   -1546.3146     515.8622    343.62035    470.63579     37926.35 
  799200    304.04119   -1503.4306    525.79772    393.58243    151.79676     37926.35 
  799300    295.00756   -1524.8577    479.64208     285.2583    246.37047     37926.35 
  799400    294.23975   -1552.6905    514.63981    288.96043    303.23427     37926.35 
  799500     307.4436   -1555.7056    488.02088    318.87536   -87.812802     37926.35 
  799600    302.42251   -1542.6078    507.83922    329.14653   -267.56247     37926.35 
  799700    303.54413   -1559.4738    507.28872    316.78846   -121.40568     37926.35 
  799800    302.77972   -1520.0328    517.65285    363.14615     97.54703     37926.35 
  799900    298.58257   -1504.4455    489.88693    332.03859    244.51588     37926.35 
  800000     304.2256   -1486.2438    537.20626    423.00948    311.90695     37926.35 
  800100    293.50235   -1514.9112    490.40529    299.17958    363.80798     37926.35 
  800200    303.81495   -1490.2959    507.79211    387.69116   -108.79261     37926.35 
  800300    302.80168   -1538.0612    518.70688    346.27085    76.660295     37926.35 
  800400    294.14047   -1483.5857    523.54163    366.51934    291.12023     37926.35 
  800500    302.75971   -1485.9473    523.54452    403.03315    236.29946     37926.35 
  800600    305.52745   -1536.2684    521.59278    363.24263    133.84269     37926.35 
  800700    305.29643   -1513.7756    529.24086    392.34163    134.69757     37926.35 
  800800    303.07111   -1575.8543    518.46784    309.45383    624.44388     37926.35 
  800900    290.19799   -1514.4487    516.02353    310.35775    401.59768     37926.35 
  801000    293.22026   -1485.0199    522.51269    359.90611   -442.72093     37926.35 
  801100     299.8474   -1503.7687    500.89227    349.42496   -41.920677     37926.35 
  801200    304.07383   -1506.0895    516.04011    381.31308    612.67824     37926.35 
  801300    298.34099    -1473.267    527.86345    400.10405    7.3488331     37926.35 
  801400    307.45884   -1515.1743    512.23902    383.69353   -46.870922     37926.35 
  801500    301.39128   -1491.2601    512.69445    380.69864   -104.75225     37926.35 
  801600    297.26208   -1513.4411    513.41044     340.6111   -372.42276     37926.35 
  801700    301.08618   -1526.5516    511.63002    342.96673   -556.60731     37926.35 
  801800      301.033   -1507.8124    509.26237     359.0985   -432.03092     37926.35 
  801900    302.50267   -1511.0553    492.87837    346.09972   -73.724866     37926.35 
  802000    289.23544   -1541.2994    512.61798    275.76046   -566.59084     37926.35 
  802100    295.14403   -1497.7366    499.98084    333.33368    185.65216     37926.35 
  802200    311.38278   -1507.8475     508.6068    405.08499    239.84726     37926.35 
  802300    295.69827   -1508.2955    539.35804    364.65155   -34.076093     37926.35 
  802400    301.05076   -1535.2412     509.1743    331.66163    43.827058     37926.35 
  802500    301.76074   -1509.5898    511.05616    362.39694   -163.83493     37926.35 
  802600    285.11936    -1517.884    518.66857    286.66307   -426.68789     37926.35 
  802700    307.46215   -1513.9398    509.30128    382.00519    -93.62128     37926.35 
  802800    300.11826   -1483.5083     508.8792    378.89394   -378.94381     37926.35 
  802900    300.65743   -1464.3774    519.64119    411.21846    134.62446     37926.35 
  803000      299.673   -1477.1906    476.01076    350.33507    26.413754     37926.35 
  803100    311.41641   -1483.3246    498.25426    419.40694    -453.0013     37926.35 
  803200    304.27091   -1495.0126    514.49419     391.7329   -185.60984     37926.35 
  803300     293.5373   -1509.3507    494.98381    309.47619    34.770197     37926.35 
  803400    296.00809   -1514.1442    512.90715    333.74928   -92.100269     37926.35 
  803500    292.62481   -1496.6301    498.21213    321.30989   -389.44096     37926.35 
  803600    300.61279   -1552.5249    525.25238    328.48082   -146.48657     37926.35 
  803700    296.59025   -1532.7301    509.48744    314.36918   -213.48548     37926.35 
  803800    299.37419   -1506.5905    509.21532    352.79214    67.790897     37926.35 
  803900    296.08609   -1515.1812    488.54193    308.69884     1.458713     37926.35 
  804000    295.38019   -1510.5351    532.84626    354.46569    499.52417     37926.35 
  804100    298.74768   -1517.5463    498.74135     328.5368    499.59662     37926.35 
  804200    306.10697   -1487.4873    494.01008    387.05465   -154.99042     37926.35 
  804300    305.08379   -1466.6802    509.37901    418.61627    39.417498     37926.35 
  804400    303.39354   -1483.0441    527.00909    412.25939    77.492817     37926.35 
  804500     309.9511   -1496.2842    494.13264    395.71725    109.89788     37926.35 
  804600     305.6766   -1513.8835    512.68353    377.39093    276.32396     37926.35 
  804700    302.93817    -1527.417    515.13833    353.96204    341.78047     37926.35 
  804800    300.56783   -1523.9994    513.72615     345.2773   -48.921591     37926.35 
  804900    296.45794   -1516.2829    538.14128    358.87352    490.38833     37926.35 
  805000    290.56163   -1484.6586    530.01278    355.77717    537.86813     37926.35 
  805100    294.99031   -1503.1907    518.41229    345.61776    312.72303     37926.35 
  805200    300.16099   -1513.5105    482.93751    323.14276   -24.586299     37926.35 
  805300    295.28785   -1499.2831    509.38956    341.84454    -49.00988     37926.35 
  805400    304.03203   -1500.2273    514.29142    385.23807   -99.706341     37926.35 
  805500    291.73502   -1478.2092    495.83156    333.33727   -272.18725     37926.35 
  805600    303.44582   -1511.9258    502.94366    359.54811   -404.83522     37926.35 
  805700    307.11795   -1476.7427    504.71269    413.06143   -512.27704     37926.35 
  805800    292.42762   -1507.3292    492.64574    304.15506   -705.54367     37926.35 
  805900    299.96609   -1516.4688    515.24059    351.60853   -464.56651     37926.35 
  806000    294.61179   -1508.6356    468.05966    288.11309   -800.26497     37926.35 
  806100    300.02127   -1526.4632    477.95357    304.57602   -291.47842     37926.35 
  806200    302.53951   -1511.2409    491.98633    345.18821   -374.64287     37926.35 
  806300     297.0677   -1519.1744    493.32225    313.91302     394.7237     37926.35 
  806400    300.13075   -1533.3547    494.85536    315.08003   -70.142348     37926.35 
  806500    305.44451   -1519.7184    495.05227    352.87816    308.38874     37926.35 
  806600    295.31056   -1506.3329    501.72243    327.23002   -160.52014     37926.35 
  806700    296.86168   -1510.9682    495.63032     323.4981   -853.36571     37926.35 
  806800    304.99924   -1474.6404    496.52518    397.42088   -553.34455     37926.35 
  806900    300.14847   -1488.7999     498.4873    363.34669    -458.9803     37926.35 
  807000    300.92007   -1463.5287    527.01689    420.62735   -782.82365     37926.35 
  807100    297.25455   -1505.0758     484.7245     320.2565   -824.55658     37926.35 
  807200    289.56031   -1483.2491    544.84352    367.50147   -359.79528     37926.35 
  807300    299.61285   -1520.4893    471.64664    302.40101    382.98604     37926.35 
  807400    293.78205   -1510.3418    529.70371    344.30884    351.67463     37926.35 
  807500    297.20113   -1544.9218    506.02947    301.47457    653.15696     37926.35 
  807600    306.91003   -1488.3297    499.86481    395.68874    796.01884     37926.35 
  807700    297.68267   -1557.9327    478.22996    262.83585    791.41875     37926.35 
  807800    298.10597   -1546.4603    505.95781    303.94524    -96.64268     37926.35 
  807900    299.83923   -1528.0439    495.36969    319.59037    103.55407     37926.35 
  808000     304.4189   -1496.6263    509.17885    385.47129    145.38693     37926.35 
  808100    305.81798   -1513.1073    482.11117    348.23239    666.95461     37926.35 
  808200    296.73513   -1501.9102    513.70037    350.05541    324.92027     37926.35 
  808300    291.65507   -1542.8041    491.46309     264.0133   -154.28893     37926.35 
  808400    295.38895   -1529.5595    535.43411    338.06856   -62.134067     37926.35 
  808500    293.55793   -1499.2043    481.85187    306.58375   -76.199616     37926.35 
  808600    296.65222   -1508.3585     508.4515    337.98433    223.15741     37926.35 
  808700    300.86414    -1549.593    488.90481    296.19878    498.56938     37926.35 
  808800    305.13061   -1555.3867    511.11126    331.85316    147.73587     37926.35 
  808900    303.93733     -1555.35    488.86559     304.2625   -251.68764     37926.35 
  809000    290.97914   -1514.4909    527.01082    324.82581    -244.3816     37926.35 
  809100    305.08214   -1500.3713    487.67377    363.21247   -165.07789     37926.35 
  809200    291.54744   -1501.8022    516.34009    329.40678   -44.311846     37926.35 
  809300    281.17255   -1489.3485      509.559    288.28907    240.03377     37926.35 
  809400    307.05334   -1532.3254    490.57621    343.05084    360.15978     37926.35 
  809500    302.50289   -1522.0886    466.34294    308.53197    123.13256     37926.35 
  809600    301.04085   -1485.8377    500.21802    372.06416    698.89733     37926.35 
  809700    301.55923   -1474.8992    529.15965    414.28226     531.3113     37926.35 
  809800    294.79163   -1517.2188    490.04205    302.32335    25.469753     37926.35 
  809900    296.93501   -1506.5624    528.29645    360.90076    355.12638     37926.35 
  810000    294.53767   -1535.2248    525.46975    318.59973    340.91136     37926.35 
  810100    297.93005   -1513.4425    496.97144    327.18322    318.05453     37926.35 
  810200    290.50184   -1508.6154     501.3014     302.8393   -192.25321     37926.35 
  810300    306.64208   -1534.8236    488.79238    336.91403   -306.49184     37926.35 
  810400    306.62863   -1575.2172    490.41889    298.08621   -31.935148     37926.35 
  810500    295.46275   -1554.9891    497.71887    275.25657    57.450503     37926.35 
  810600      304.903   -1543.9019    509.54196    340.74205   -241.61477     37926.35 
  810700    291.77811   -1535.0436    474.13067    254.99626    388.62573     37926.35 
  810800     301.0673   -1587.3954    499.01496    269.42276    512.05584     37926.35 
  810900    297.54306    -1571.815    482.65112    252.74507    278.86333     37926.35 
  811000    303.68896   -1565.5872    477.62091    281.66042     511.1957     37926.35 
  811100    293.77865   -1540.4567    495.09067    279.56554   -21.531848     37926.35 
  811200     289.4785   -1525.2639    524.63466    304.90886    276.36825     37926.35 
  811300    293.85338   -1482.3304    520.53569    363.47391     222.9704     37926.35 
  811400    302.63536   -1555.5448    481.87153    291.20177   -571.15262     37926.35 
  811500    326.23068   -1520.5794    496.25727    446.96698   -425.64357     37926.35 
  811600    307.53345   -1531.9658    484.97408    339.97356   -882.14971     37926.35 
  811700     304.3871    -1556.015    478.26324    295.02359    -257.7813     37926.35 
  811800    292.07687   -1547.6585     482.1912    251.78933   -819.23011     37926.35 
  811900    308.53611   -1523.6766    486.33372    354.14438   -570.13928     37926.35 
  812000    304.56216   -1502.9694    502.32052    372.91596   -541.67988     37926.35 
  812100    313.59482   -1530.5075    498.52698    382.32135   -202.74849     37926.35 
  812200    303.93459   -1497.2651    510.75593    384.22531   -129.96418     37926.35 
  812300    301.67601   -1517.6203    463.37284    306.30099    81.097641     37926.35 
  812400    300.03931   -1526.1758    515.08145    342.07262   -39.325752     37926.35 
  812500    301.69327   -1556.4855    478.79756    282.93833 -0.054279604     37926.35 
  812600    297.55481   -1516.2307    506.07363    331.80489    88.137663     37926.35 
  812700    304.01362   -1557.2866    476.39461    290.19897    493.14351     37926.35 
  812800    287.27514   -1543.1586    491.70421    244.14658    78.239198     37926.35 
  812900    292.65978   -1533.1079    495.11783    281.89548    -176.6327     37926.35 
  813000    298.70887   -1494.0175    529.43964    382.58886   -599.47387     37926.35 
  813100    297.14722   -1530.6438    488.38339     297.8633    -202.7577     37926.35 
  813200     300.5084   -1535.2106    492.28865    312.36066   -461.46401     37926.35 
  813300    296.89684   -1552.5077    526.74355    313.23042   -612.33857     37926.35 
  813400    310.29396   -1551.0443    496.35446    344.72527   -702.88286     37926.35 
  813500    293.24288   -1503.5401    491.09388    310.06907   -438.52038     37926.35 
  813600    296.52615   -1503.2003    494.91437    329.03682    100.34628     37926.35 
  813700    299.78077   -1473.3281    505.85666     384.5295   -211.01945     37926.35 
  813800    302.55352   -1486.1027    535.59218    413.99541    52.548511     37926.35 
  813900    295.80662   -1494.0611    502.44841    342.46503    -112.8097     37926.35 
  814000    308.60306   -1517.9154    493.43491    367.30873    132.82606     37926.35 
  814100    305.96752   -1464.6685    503.86154    419.09606    141.59793     37926.35 
  814200    301.81933   -1528.8374    469.05081    301.40824   -681.28683     37926.35 
  814300    303.51647   -1525.9483    512.85839    355.75893   -440.76851     37926.35 
  814400    291.75771   -1561.8188    498.56623    252.56464   -60.686126     37926.35 
  814500    303.84856   -1471.4318    505.44666    404.36143   -240.39518     37926.35 
  814600    291.70049   -1475.0156    524.86681    365.41035   -67.235288     37926.35 
  814700    295.96199   -1482.5714    489.54541    341.75245    45.926838     37926.35 
  814800    317.10332   -1498.6554    500.29591    431.76558    319.07362     37926.35 
  814900    296.34616   -1525.3067    515.55844    326.76273     402.3493     37926.35 
  815000    312.24195   -1508.1291     501.0162    401.08751    472.34926     37926.35 
  815100    301.05002   -1464.4651     509.0074    402.26751    503.55703     37926.35 
  815200    298.74242    -1516.621     496.4952    327.19228    -103.6968     37926.35 
  815300    295.56688    -1469.939    498.58732    361.64481    442.03784     37926.35 
  815400    301.71052    -1515.897    500.31802    345.12506    260.28813     37926.35 
  815500    306.05144   -1561.1139    470.12961    289.29713   -59.868509     37926.35 
  815600    292.69023   -1559.0719    505.44424    266.39519    55.181257     37926.35 
  815700     301.2291   -1528.7959    470.67989     300.4169    248.36536     37926.35 
  815800    306.06806   -1456.8149    528.18829     451.7298   -116.09377     37926.35 
  815900    302.72917   -1455.8218    481.31259    390.78897   -284.81394     37926.35 
  816000    305.62079   -1515.8453    519.89926    382.39319   -550.27553     37926.35 
  816100    298.00334   -1486.9767    494.35799    351.36614   -653.31955     37926.35 
  816200    303.21211   -1523.4542    506.39248    350.41453   -163.57711     37926.35 
  816300    293.91306   -1520.1185     498.3087    303.72799    87.964609     37926.35 
  816400    307.87512   -1533.8962    528.30689    382.91684   -74.927805     37926.35 
  816500     314.4626    -1518.829    495.38253    394.76901    1017.8923     37926.35 
  816600    304.25872   -1540.9376    489.89287    321.15165    633.09825     37926.35 
  816700    296.98518    -1514.334    513.16582    338.22475    371.83904     37926.35 
  816800    297.18881   -1489.7952    515.46277    365.97892     479.6075     37926.35 
  816900    307.28619   -1467.8842    498.08524    416.05119    216.49296     37926.35 
  817000    302.88188   -1469.2427    529.34626    426.09044    471.46564     37926.35 
  817100    293.21659   -1488.9065    508.85133    342.34154    368.83239     37926.35 
  817200       302.44   -1491.0509    524.35087    397.29399    427.14996     37926.35 
  817300     301.9928   -1503.3548    482.46904    341.09136   -394.77807     37926.35 
  817400    298.61436   -1478.3319    514.73522    383.14386    -231.0259     37926.35 
  817500    302.33707   -1490.9305    513.48862    386.08788   -225.94111     37926.35 
  817600    308.76759   -1468.3834    497.64548    421.79327   -241.96743     37926.35 
  817700    301.92931   -1415.0545    519.68271    466.31901   -611.77264     37926.35 
  817800    287.60406   -1462.9939    500.74995    334.84049   -628.36971     37926.35 
  817900    299.95921   -1493.5803    497.78228    357.00764   -491.16462     37926.35 
  818000    294.41951   -1461.5557    494.70746    360.97359   -836.75529     37926.35 
  818100    298.74868   -1487.3159    492.26249    352.29283   -442.18176     37926.35 
  818200    293.19636   -1488.7712     499.2309    332.76523   -611.47087     37926.35 
  818300    303.79465   -1440.7902    508.32035    437.63351   -258.45862     37926.35 
  818400    304.87072   -1496.3424    498.32137    376.93544     169.5898     37926.35 
  818500    310.64095   -1517.6357    472.76423    356.10854    35.588436     37926.35 
  818600    301.77175   -1466.1481    515.68557    410.51767   -66.539274     37926.35 
  818700    294.25382   -1370.4088    525.47626    482.14206   -755.40989     37926.35 
  818800    304.22349   -1448.7056    515.19677    438.52863   -661.55949     37926.35 
  818900    300.61599   -1454.8732    476.48711    377.38168    -321.2991     37926.35 
  819000    296.20753   -1479.4312    502.94099    359.39554   -155.78012     37926.35 
  819100    310.23445   -1443.0289     489.1748    445.29259   -653.49948     37926.35 
  819200    298.14598   -1479.9099    500.77365     365.4919   -434.84738     37926.35 
  819300    304.02825   -1494.5343    516.25417    392.87679   -457.68551     37926.35 
  819400    304.55791     -1513.27    483.10994    343.38558    197.74456     37926.35 
  819500    289.71614   -1483.9392     508.0349    330.70557    364.35722     37926.35 
  819600    295.20411   -1522.5548    498.87717    307.68277    3.2962363     37926.35 
  819700    284.67715   -1471.1878     506.1937    318.89006   -128.03239     37926.35 
  819800    303.03263   -1455.7233    517.80388    428.74727    670.03512     37926.35 
  819900    302.11557   -1501.8286    509.23047    369.93271    522.09545     37926.35 
  820000    297.76137   -1519.1107    496.54279    320.32558    -662.7107     37926.35 
  820100    305.55091   -1497.0991    493.10005    374.02504   -115.79785     37926.35 
  820200    299.24424   -1467.5168    502.30955    384.37397   -192.62714     37926.35 
  820300    299.65263   -1529.1298    502.19628    324.48951   -207.06105     37926.35 
  820400    309.44342   -1519.2377    509.52563    385.86713    302.94996     37926.35 
  820500    286.13894   -1555.2067    489.01294    224.28305    59.817678     37926.35 
  820600    303.44113   -1519.8846    518.79497    367.41942    162.45271     37926.35 
  820700    292.98501   -1537.0943    477.09452    261.35254    171.37106     37926.35 
  820800    295.53782   -1500.7501    474.51815    306.63345    541.86219     37926.35 
  820900    296.16993   -1495.9805    539.16015    378.89583    395.42073     37926.35 
  821000     301.0523   -1479.4615    503.32445    381.59846     487.9192     37926.35 
  821100    298.64664   -1481.6635    506.96865    372.19119    337.36555     37926.35 
  821200    298.62328   -1491.3243    505.88909    361.34546    423.66158     37926.35 
  821300    300.88311   -1503.3396    489.67337    343.30631   -285.14194     37926.35 
  821400    298.08078   -1506.5059    474.35826    312.18639   -195.56274     37926.35 
  821500    301.86235    -1519.276    499.09309    341.20592   -573.87368     37926.35 
  821600    304.07443   -1497.4682    485.05436    358.95139    46.948333     37926.35 
  821700    292.38633   -1514.5538    486.01954      290.118    493.75275     37926.35 
  821800    299.60999   -1546.7421    489.62822    294.11686    364.67448     37926.35 
  821900    293.68056   -1483.5902    522.43858    363.33758    270.33382     37926.35 
  822000    295.03634   -1444.8221    502.82321    388.60486   -387.92387     37926.35 
  822100    303.54491   -1463.0046    521.69275    427.66527    273.25663     37926.35 
  822200    309.00548   -1484.4479     512.9422    422.09844    358.96995     37926.35 
  822300    303.84557   -1532.8958    449.71699    287.15428    390.37548     37926.35 
  822400    303.75626   -1512.5281    500.66754    358.06969    337.08071     37926.35 
  822500    295.67517   -1518.2563    486.29639    301.52499    -200.7169     37926.35 
  822600    307.92259   -1486.9639    488.05404    389.81039   -473.38989     37926.35 
  822700    295.46136   -1467.5027    525.63878    390.65662     -500.194     37926.35 
  822800     291.8895    -1450.713    489.20991    354.90852   -356.50012     37926.35 
  822900    300.60169   -1472.6532    464.00021    347.05032   -556.94668     37926.35 
  823000    298.19642   -1415.6727    520.20706    449.38998    -682.7049     37926.35 
  823100    297.06546   -1508.4868    476.26294    307.53117   -48.113348     37926.35 
  823200    297.75369   -1457.9843    517.37071    402.24534   -116.27842     37926.35 
  823300    294.13655   -1464.8579    518.65679    380.34466    570.09915     37926.35 
  823400    297.01281   -1439.9493     502.6973    402.26557    219.25153     37926.35 
  823500     307.0948   -1453.1045    508.57482    440.45736    449.99261     37926.35 
  823600    309.99956   -1446.3592    494.95263    446.68075    240.89762     37926.35 
  823700    297.07874   -1500.0093    501.66663    341.47223   -81.103503     37926.35 
  823800    293.55556   -1509.7194    491.40619    305.61229   -278.87501     37926.35 
  823900    306.93278   -1529.3441    489.53181    344.44402   -455.63498     37926.35 
  824000    304.03485   -1514.3365    491.08736    347.93753   -635.97522     37926.35 
  824100    299.26431   -1514.5404     499.1927    334.32399   -965.35588     37926.35 
  824200    298.77212   -1485.3278    489.52877    351.65299   -719.05362     37926.35 
  824300    301.73496   -1531.2241    490.03322     319.6234   -893.86597     37926.35 
  824400    295.55531   -1527.6131    483.70381    289.03495    -960.6848     37926.35 
  824500    308.40053   -1520.5922    501.37713    371.66068   -178.46899     37926.35 
  824600    299.14975   -1554.2585    475.42659    270.32319   -338.93112     37926.35 
  824700    302.76368   -1534.9451     505.7745    336.28319    474.00854     37926.35 
  824800    303.62034   -1554.3136       473.12    288.12366      314.777     37926.35 
  824900    296.17021   -1545.2456    494.25836     284.7302   -419.67293     37926.35 
  825000     300.4086   -1521.5393    512.43361    345.72671   -911.49075     37926.35 
  825100     301.2939   -1524.7124     492.8608    326.97352   -374.96801     37926.35 
  825200    304.77891   -1527.5011    496.50091    343.54218   -270.97888     37926.35 
  825300    294.61111   -1527.5044    492.23203    293.41362   -321.71787     37926.35 
  825400    302.49058   -1518.4211    483.70599    329.50705   -220.56818     37926.35 
  825500    300.28843   -1496.1139    477.20131    335.37795   -395.74643     37926.35 
  825600    305.53378   -1516.2641    518.51402    380.19674   -482.66866     37926.35 
  825700    302.61714   -1539.1481    486.45906    312.10384    59.387882     37926.35 
  825800    296.00398   -1527.2994    495.50583    303.17423    96.769521     37926.35 
  825900     305.6475   -1533.1819    511.47933     356.7572    231.41072     37926.35 
  826000    292.58203     -1518.41    502.08867    303.21357     729.6143     37926.35 
  826100    297.68349   -1530.1153    487.13792    299.56495    432.28175     37926.35 
  826200     309.2766   -1522.6686     490.8989    363.05711   -1.2940105     37926.35 
  826300    294.10507   -1516.2597    526.79555    336.93957    537.06462     37926.35 
  826400    298.14496   -1501.7636     504.4832    347.34312   -6.5133418     37926.35 
  826500    296.67438   -1513.2383    492.34998    317.10293    -461.5558     37926.35 
  826600    303.80027   -1472.0397    482.49229    380.58137   -528.15553     37926.35 
  826700    300.10314   -1499.6336    485.34184    339.16313   -1020.4824     37926.35 
  826800    298.33336   -1458.4236    490.39172    377.44136   -800.73908     37926.35 
  826900    291.22236   -1490.6599    490.00074    312.74361   -703.53661     37926.35 
  827000    301.19203   -1525.0447    496.45753    329.77849    87.282481     37926.35 
  827100    304.79263   -1502.6052    494.41253     366.4116    506.89761     37926.35 
  827200    288.91292   -1503.1689    521.59444    321.41289    666.73124     37926.35 
  827300    294.85177   -1498.4351    489.84626    321.18253    804.89347     37926.35 
  827400    302.83257   -1542.9758     524.4269    347.21553    891.17406     37926.35 
  827500    300.34199   -1528.8758    481.63387    307.29014     339.3802     37926.35 
  827600    302.97956   -1513.6629    509.97128    362.73581   -232.94075     37926.35 
  827700    302.07841   -1520.5711    482.32755    324.11965   -660.12488     37926.35 
  827800    289.26572   -1532.5221     500.7161    272.77246    -416.7367     37926.35 
  827900    298.11078    -1562.352    492.29641    274.41375   -188.54135     37926.35 
  828000    315.21109    -1535.689     492.1772    378.07938    370.74178     37926.35 
  828100    299.93909   -1536.3391    493.77334    310.14918    50.239859     37926.35 
  828200    308.77715   -1526.4325    494.76079    360.90263   -492.38033     37926.35 
  828300    308.95163   -1461.8494    513.01229    444.52405   -316.31245     37926.35 
  828400    309.57994   -1553.3252      480.036    322.90573   -715.63505     37926.35 
  828500    309.81303   -1538.5847    500.06082    358.72221   -224.05589     37926.35 
  828600    307.87495   -1555.6854    484.83615    317.65624   -416.66314     37926.35 
  828700    294.16421   -1511.9248    478.10216    292.84789   -297.44975     37926.35 
  828800    306.06818   -1510.8326    539.60893    409.13329   -35.859601     37926.35 
  828900    302.82633   -1540.6944    467.84837     292.8903   -40.501893     37926.35 
  829000    304.46625    -1546.392    534.71819    361.45852   -491.09955     37926.35 
  829100    292.81455   -1526.2511    463.40864    257.74109   -263.56373     37926.35 
  829200    301.29903   -1536.5103    502.12387    324.46181   -395.97876     37926.35 
  829300     292.4247    -1543.701    519.88372    295.00806    36.703022     37926.35 
  829400     304.1006   -1503.6563    500.01411    367.84105    356.08331     37926.35 
  829500    316.41458   -1522.8518    493.83076    397.99781   -193.82322     37926.35 
  829600    301.17232   -1524.7736    512.64543    346.14868    196.40467     37926.35 
  829700    303.79967   -1525.2611    507.13048    351.99541    226.74958     37926.35 
  829800    295.95653   -1518.2471    502.83616    319.34284    18.140895     37926.35 
  829900    295.79045   -1482.4595     497.8703    349.41561    -35.12175     37926.35 
  830000    300.69243   -1496.8679    534.36446    393.60903    7.8424231     37926.35 
  830100    305.43214   -1489.4278    482.29042    370.35108    221.35741     37926.35 
  830200    303.94811   -1458.2217    507.48439    420.05824    39.904725     37926.35 
  830300    303.28182   -1482.7809    526.49515    411.50481    217.55131     37926.35 
  830400    302.56364   -1480.9441    486.09705    369.70451    213.27726     37926.35 
  830500    295.13282    -1467.775    496.07793    359.34183   -190.44171     37926.35 
  830600    290.82676   -1463.9381    506.08572    353.76632    43.074082     37926.35 
  830700    307.28565   -1457.3978    496.07239    424.52226    197.66543     37926.35 
  830800    306.45723   -1438.9053    531.33283    474.53916    178.46711     37926.35 
  830900    292.98927   -1469.4208     501.6478     353.5985    133.74871     37926.35 
  831000    297.20138   -1444.4973     500.4691    396.33979   -99.666537     37926.35 
  831100    299.19573   -1487.2549    507.85187    369.95938   -798.36151     37926.35 
  831200    300.24474   -1505.0554    513.73001      362.768    34.920553     37926.35 
  831300    300.36255   -1477.0707    522.14521     399.6993    258.04896     37926.35 
  831400    296.71939   -1460.5221    513.02739    390.69954   -389.79667     37926.35 
  831500    293.46981   -1443.3727    525.40535    405.57146    387.86856     37926.35 
  831600     309.2617   -1470.9024    510.80631    434.66357   -236.10675     37926.35 
  831700    305.79704   -1511.1626    482.73462    350.70613   -598.38815     37926.35 
  831800     308.3315   -1513.4362    519.73629    396.86449   -674.84274     37926.35 
  831900    296.01543    -1459.366    494.87703    370.53047   -727.58585     37926.35 
  832000    312.63587   -1463.2248    506.53263    453.28481   -315.63155     37926.35 
  832100    310.86959   -1492.6238    479.26806    388.65544    545.89972     37926.35 
  832200    292.03499   -1485.5943    477.99143    309.46487    -16.55825     37926.35 
  832300    300.96341   -1521.6794    491.01298     326.6682   -51.716363     37926.35 
  832400    294.89508   -1521.7474    473.86438    282.08362   -377.28585     37926.35 
  832500    301.32737   -1511.5907    470.07425    317.45963   -293.07454     37926.35 
  832600    302.92474   -1513.8766    490.98348    343.28704    4.8171814     37926.35 
  832700    305.48308     -1507.59    519.65498    389.78314     -37.9114     37926.35 
  832800    299.42981   -1565.8522    488.32934    272.89532    162.40325     37926.35 
  832900    304.81003   -1542.8472    471.09173     302.9273    126.31519     37926.35 
  833000    293.92885    -1495.474    478.38778    308.52277   -153.52298     37926.35 
  833100    301.19147   -1581.2392    471.20391    248.32793    151.26509     37926.35 
  833200    306.06649   -1584.1497    494.41172    290.61139     8.392944     37926.35 
  833300    303.17331   -1524.8626    497.74461    340.18326   -46.596879     37926.35 
  833400    295.69047   -1588.9339    481.63053    226.25042    154.58931     37926.35 
  833500    298.73504   -1567.5934    489.11385    268.80522   -141.81815     37926.35 
  833600     301.5504   -1549.6691    474.97756    285.29043   -225.89347     37926.35 
  833700    298.81786   -1557.4447    490.74553     280.9591   -244.98033     37926.35 
  833800    301.07871   -1531.4133    468.65996    295.10129   -352.86862     37926.35 
  833900    291.83094   -1566.6802    460.17362     209.6409   -759.44827     37926.35 
  834000    299.99731   -1555.9138    497.12464    294.18842    129.07101     37926.35 
  834100    300.25388   -1575.9744     490.6446    268.80491   -396.55366     37926.35 
  834200     300.5509   -1587.7361    478.48473    246.22286   -187.58661     37926.35 
  834300    294.94483   -1552.8994    484.26673    261.55838   -424.41809     37926.35 
  834400    296.08658   -1606.6083    474.43906    203.17107   -219.56318     37926.35 
  834500    296.48338     -1546.99    494.98237    285.12228     175.9406     37926.35 
  834600    299.37756   -1524.7115     496.1692    321.64016    217.89887     37926.35 
  834700    305.21627   -1514.2892    489.87129    352.09703   -615.73409     37926.35 
  834800    311.52652   -1547.1141    480.10527    337.96504   -319.18666     37926.35 
  834900    304.32558   -1549.9904    497.85117    320.35863    404.39516     37926.35 
  835000    304.62885   -1541.7927    509.75594    341.82887   -64.474241     37926.35 
  835100    295.66428   -1529.6976      503.589    307.32714    256.65151     37926.35 
  835200    291.96934   -1529.3246    492.40702    279.85407   -110.84917     37926.35 
  835300    306.24775   -1546.2318    484.38339     319.3184    -109.5685     37926.35 
  835400    307.90284   -1547.4793    466.16994    307.32186   -57.683539     37926.35 
  835500    303.47351   -1558.6854    490.16346    300.13314    263.73034     37926.35 
  835600    297.81743   -1532.9451    489.93765     300.1389    283.36235     37926.35 
  835700    302.55837   -1572.3737      490.913    283.06712     334.9261     37926.35 
  835800    302.21567   -1600.5619    473.10921    235.52964    429.70973     37926.35 
  835900       307.45   -1540.5973    478.63334    324.62491   -97.308761     37926.35 
  836000    294.27492   -1525.5464    488.36063    289.98399   -131.68949     37926.35 
  836100    295.40031   -1507.3414    501.00052    325.90442   -645.35918     37926.35 
  836200     311.6797   -1493.0085     512.7382     425.3944   -313.03407     37926.35 
  836300    296.71745   -1502.3171    492.35896    328.22737   -305.08429     37926.35 
  836400    301.25394   -1493.9485    485.63509    350.33153   -374.82322     37926.35 
  836500    301.93291   -1492.3439     521.4781    390.84131    190.51234     37926.35 
  836600    297.72408   -1457.4571    505.49143    390.75967   -65.084703     37926.35 
  836700    300.74122   -1461.3814    488.67865    383.62979   -282.59651     37926.35 
  836800    308.27734   -1488.8801    476.37841    377.81856    4.4167735     37926.35 
  836900    296.62522   -1499.2087    479.04909     317.6099   -40.354224     37926.35 
  837000    288.88175   -1474.4005    482.02677      310.473   -278.62306     37926.35 
  837100    285.59271   -1463.0505    487.38511    312.34792   -479.20137     37926.35 
  837200    295.10095   -1510.2885    496.78324    317.38986   -309.17232     37926.35 
  837300    299.49435   -1484.0237    491.52996    358.21547   -209.86798     37926.35 
  837400    285.40109   -1493.0443     464.1533    258.25809    -30.22852     37926.35 
  837500    297.65961   -1527.9482    486.47257    300.95898   -157.96463     37926.35 
  837600    292.14344   -1475.4574    483.14248    325.24193    321.95068     37926.35 
  837700    317.70669   -1526.6253    487.19212     393.4131    125.15646     37926.35 
  837800    300.40799   -1511.1512    470.58379     314.2623   -82.686109     37926.35 
  837900    301.11919   -1502.7449    493.58829    348.88056    215.94347     37926.35 
  838000    298.86468   -1507.3664    494.34287    334.84586    187.98604     37926.35 
  838100    300.76512   -1479.3229    485.03324    362.15065   -208.24257     37926.35 
  838200    305.24668   -1476.4631    522.16594    422.35485   -442.97635     37926.35 
  838300    293.43305   -1452.3253    476.60935    347.65706   -53.942269     37926.35 
  838400    303.38897   -1493.3067    502.10455    377.07173   -277.69746     37926.35 
  838500    301.63683   -1468.9164    517.60669    409.06195   -182.55067     37926.35 
  838600    305.10554    -1469.433    462.66264    369.24512    12.064972     37926.35 
  838700    304.68952   -1477.3888    498.99266    395.74307   -14.828176     37926.35 
  838800    298.68051   -1541.4498    494.99059    300.57965    315.36516     37926.35 
  838900    304.14576   -1520.3402    491.62926    342.97599    800.58219     37926.35 
  839000    294.91664   -1488.0039    514.16252    356.22252    489.16654     37926.35 
  839100    304.94596   -1507.8276    499.51054    366.97879    516.89881     37926.35 
  839200    307.04889   -1520.2354    475.80233    340.34687    119.57187     37926.35 
  839300    297.04517   -1523.4233    493.43449    309.67474    13.788647     37926.35 
  839400    306.08303   -1465.9817    499.35772    413.79994   -42.819444     37926.35 
  839500    306.29534   -1467.5082    458.18105    372.05431    339.15196     37926.35 
  839600    302.02964   -1476.1824    516.53601    402.49691   -217.79764     37926.35 
  839700    290.91865   -1501.2726    490.58908    301.34965    226.62141     37926.35 
  839800    303.26242   -1524.0379    508.30189    351.96705    702.58099     37926.35 
  839900    300.24022   -1503.9963    508.13635     358.2131   -120.45224     37926.35 
  840000    299.80159   -1483.9438    459.04001    327.19112    55.689856     37926.35 
  840100    302.46182   -1537.9546    482.26764    308.40544   -61.904778     37926.35 
  840200    301.24742   -1541.6701    482.31507    299.26043   -420.97356     37926.35 
  840300    307.25347   -1509.6675     469.1512    345.18624   -28.653726     37926.35 
  840400     302.2021   -1540.1854    489.56009    312.29573   -147.47262     37926.35 
  840500    317.03716   -1520.0463    474.50661    384.28703    531.95524     37926.35 
  840600    304.06018   -1535.2311    482.59001    318.65987    584.29163     37926.35 
  840700    293.17793   -1515.2955    475.44691    282.37375    8.9128653     37926.35 
  840800    292.61415    -1483.705    494.31676    330.29152   -108.70675     37926.35 
  840900    299.51697   -1500.2768    478.77871    329.31308   -102.79196     37926.35 
  841000    309.47931   -1485.9425    506.25215     416.0507    110.20428     37926.35 
  841100    296.83456   -1475.6379    489.12855    352.20428   -84.828673     37926.35 
  841200    293.56911   -1444.0532    496.64219     376.5756   -61.806701     37926.35 
  841300    289.50859   -1436.3564    503.78294     373.1003   -428.13933     37926.35 
  841400    308.94538   -1446.1571    506.22616    453.40207    -59.64284     37926.35 
  841500    298.99083    -1470.178    482.86875    361.12917   -592.12793     37926.35 
  841600     302.7341    -1477.431    485.08508    372.97448   -666.65148     37926.35 
  841700    313.98383   -1475.5661    503.28086    443.77106   -399.34422     37926.35 
  841800    301.86905   -1519.0721    491.57196     333.9189   -607.77387     37926.35 
  841900    292.32008    -1488.047    482.56517    312.87165   -116.28856     37926.35 
  842000    298.31412   -1489.5055    490.73799    346.61893   -2.8389178     37926.35 
  842100    291.51187   -1491.0816    488.14735    311.77424   -65.064535     37926.35 
  842200     303.1314   -1484.6976    490.11318    372.52779   -246.75273     37926.35 
  842300    289.67514    -1487.592    501.82675    320.65972     422.9351     37926.35 
  842400    311.05132   -1459.3681      491.613    435.07566    180.03475     37926.35 
  842500    295.68102    -1462.938     516.4464    387.01965    40.844005     37926.35 
  842600    296.07902   -1423.9684    496.00529    407.34308    87.331497     37926.35 
  842700    299.24659   -1438.1377    488.58379    400.03793   -297.93224     37926.35 
  842800    305.07333   -1492.1285    484.69432      368.436   -452.70142     37926.35 
  842900    303.60535   -1504.8204    477.05849    341.48778   -581.09038     37926.35 
  843000     301.7162   -1484.2816    480.48079    356.92894    43.422302     37926.35 
  843100    300.88541   -1480.2237    505.07989    381.83898    389.11918     37926.35 
  843200    294.42093   -1469.9697    496.41691    354.27545    117.40409     37926.35 
  843300    306.30602   -1508.9064    490.77802    363.30124    493.07158     37926.35 
  843400    300.01743   -1466.3332    502.79707     389.5322    236.73587     37926.35 
  843500    294.52422   -1500.0637    510.72626    338.95673     160.9906     37926.35 
  843600    301.81853   -1486.1712    499.80862    374.82864   -78.753166     37926.35 
  843700    303.40236   -1453.3594    483.35127    398.32611   -659.31399     37926.35 
  843800    300.37933   -1487.4785    487.89126     355.1132   -581.38624     37926.35 
  843900    304.24034   -1524.1751    487.52426    335.46261   -633.57302     37926.35 
  844000    297.18608   -1479.4082     491.7173    352.60808   -766.15243     37926.35 
  844100    289.50356   -1515.4842    476.84932    267.01622    54.111154     37926.35 
  844200     286.5705   -1516.0025     494.1011    270.52164    -531.2744     37926.35 
  844300     291.8496   -1519.1277    480.73118    277.83512   -709.11889     37926.35 
  844400    301.57826   -1511.4958    470.53341    319.14518   -467.64545     37926.35 
  844500    297.80825   -1501.9582    515.25163    356.39834   -694.98294     37926.35 
  844600    291.06217   -1501.6967    490.08832    301.07197   -7.8608901     37926.35 
  844700    289.11972   -1560.6654    486.54064    229.79526    289.79775     37926.35 
  844800    303.52241   -1576.1059    499.22271     291.9924    325.17738     37926.35 
  844900    294.42656    -1513.762    475.62629    289.71799    835.45404     37926.35 
  845000    288.19775   -1544.3545     468.1022    223.50968     819.9733     37926.35 
  845100    304.96215   -1568.6337    519.89958    326.63467    684.32678     37926.35 
  845200    286.97802   -1575.0359    475.69569    194.92082    176.49197     37926.35 
  845300    310.41743   -1505.6001    472.53945    366.91131   -6.4893841     37926.35 
  845400    286.92449   -1523.0609    488.65319    259.61185    134.58289     37926.35 
  845500    296.71024   -1548.6094     478.8243    268.36788   -18.403869     37926.35 
  845600    304.87144   -1540.9706    457.42469    291.41379   -572.20997     37926.35 
  845700    290.98831   -1525.5859    476.71327    263.47464    77.623037     37926.35 
  845800    289.92859   -1518.1023    478.72493    268.19056    159.50181     37926.35 
  845900    290.80252   -1482.8327    486.73053    315.40717    195.30915     37926.35 
  846000    314.55475   -1495.4874    491.63789    414.78164   -59.355898     37926.35 
  846100    308.72988   -1459.8372    482.81456    415.33846   -433.09726     37926.35 
  846200    307.61317   -1460.7759    493.93069    420.47964   -652.63914     37926.35 
  846300     308.9855   -1467.2315    455.28316     381.5656   -788.43491     37926.35 
  846400    301.08043   -1396.7168    502.18289    463.32843   -121.51197     37926.35 
  846500    286.24911   -1448.6645    477.98368    320.29287   -664.24906     37926.35 
  846600    294.98228   -1440.6398    485.23023     374.9504   -357.75388     37926.35 
  846700     287.4628    -1430.082    512.10115    378.46648   -491.57781     37926.35 
  846800    307.99757   -1417.7201    496.04768      467.386    170.18012     37926.35 
  846900    298.89157   -1490.5303     473.9134    331.37382   -158.78798     37926.35 
  847000    299.56253   -1487.8337    500.93468    364.11766    17.097518     37926.35 
  847100    300.40695   -1505.4482    497.55141    346.92818   -327.44386     37926.35 
  847200    293.08085   -1461.4349    478.99251    339.34217    -239.1209     37926.35 
  847300    311.82822   -1463.4229    477.68191    420.59356   -4.4644334     37926.35 
  847400    298.48877   -1447.0827    512.86591    411.95728   -574.83758     37926.35 
  847500    299.14478   -1432.4121     497.9461    414.66668   -766.13383     37926.35 
  847600    292.10477   -1488.5456    509.09305     337.9299   -189.02749     37926.35 
  847700    305.98946   -1486.2209    475.21929    369.00036    146.07865     37926.35 
  847800    296.77569    -1460.216    506.47913    384.71131    1.0055822     37926.35 
  847900     289.3458   -1458.3652    528.99886    375.57329   -847.59999     37926.35 
  848000    310.04153    -1451.864    477.30279    423.71549   -362.80912     37926.35 
  848100    312.12305   -1498.5032     484.2751    393.43616   -7.9363455     37926.35 
  848200    304.63528   -1480.4721    488.33776    381.76026    197.37538     37926.35 
  848300    298.88619   -1505.8758    495.28324    337.37388   -249.93878     37926.35 
  848400    309.44791   -1452.7427    468.01306    410.86983   -224.80448     37926.35 
  848500    304.45311   -1519.6659    451.15081    304.55799    36.176193     37926.35 
  848600    304.49986   -1488.3141    478.52751    363.49735    459.34138     37926.35 
  848700    305.68393   -1547.3734     455.1331    286.38368    303.43168     37926.35 
  848800    299.80631   -1543.7282    460.66578    269.05379   -108.60029     37926.35 
  848900    302.02926   -1535.4317    468.96606    295.67592   -150.40032     37926.35 
  849000    305.62097   -1482.3716    480.13168    376.10012   -579.28875     37926.35 
  849100    299.98314   -1526.8866    441.46241    267.48943   -354.71119     37926.35 
  849200    285.55433   -1537.3838    466.24804    216.70443   -723.95616     37926.35 
  849300    293.84156   -1530.6086    475.26838    269.87513   -356.37952     37926.35 
  849400      302.519    -1530.062     455.6305     289.9188   -432.06923     37926.35 
  849500    290.62548   -1492.8701    480.55104    298.39189   -911.90123     37926.35 
  849600    301.97822   -1473.6636    462.51366    350.76145   -809.62279     37926.35 
  849700    291.38104   -1549.6687    495.20229    259.65202   -132.82453     37926.35 
  849800    291.33331   -1544.0186    508.24252    278.12716     -143.995     37926.35 
  849900     288.0061   -1543.1198    438.44514    194.22297    55.408419     37926.35 
  850000    300.47446   -1513.5752    517.50773    359.06202    397.38798     37926.35 
  850100    307.63461   -1506.6982    476.63548    357.35881    568.07741     37926.35 
  850200    297.00142   -1466.9631    490.37822     362.8813    474.63102     37926.35 
  850300    307.67719   -1498.9897    461.70658    350.33043      112.195     37926.35 
  850400    305.31914   -1489.3952    513.02943    400.61309   -142.35452     37926.35 
  850500    304.20729   -1453.1177    481.35493    400.20168   -186.47529     37926.35 
  850600    298.30173   -1495.8158    482.03552     331.5503   -140.39772     37926.35 
  850700    296.29951   -1470.4249    469.00659    334.88226   -344.15164     37926.35 
  850800    306.68884   -1484.0657    498.54939    397.63983   -8.7424465     37926.35 
  850900    305.39063   -1476.3313    465.33952    366.30941    18.002882     37926.35 
  851000    312.68684   -1504.3539    509.79013    415.64312   -364.22679     37926.35 
  851100    300.55917   -1490.5818    505.31261     370.2423   -346.53261     37926.35 
  851200    305.65703   -1496.4661    504.04152    386.07808    325.64242     37926.35 
  851300    303.10869   -1459.3479    483.05144    390.71329     182.9266     37926.35 
  851400    310.92486   -1492.3324    497.34112    407.26914   -67.509648     37926.35 
  851500    295.64553   -1479.7735    500.10887    353.68661   -373.72235     37926.35 
  851600    292.14649   -1490.6724    486.20981    313.10797   -189.26717     37926.35 
  851700    295.44431   -1521.7395    483.11397    293.81811    250.56819     37926.35 
  851800     295.9077   -1488.3201    484.45439    330.66787   -92.954294     37926.35 
  851900    301.25394   -1485.1245    493.15484    366.67519  -0.58685936     37926.35 
  852000    294.49746   -1469.2447    487.63979    346.56851    244.89384     37926.35 
  852100    298.68622   -1467.4111    468.95531     348.6088   -67.473731     37926.35 
  852200    295.03831   -1465.0639    480.02685    345.57559    182.50026     37926.35 
  852300    303.29621   -1479.6667    504.72975    392.91848    17.282228     37926.35 
  852400    294.98126   -1527.7416    473.07515    275.68891    279.05549     37926.35 
  852500    306.36799    -1532.623    461.05553    310.14161    421.26953     37926.35 
  852600    292.96584   -1528.9187    481.53478     273.8819    250.87578     37926.35 
  852700    298.34268   -1538.3499    472.18486     279.3502    379.87066     37926.35 
  852800    292.49452   -1541.4795    477.63294    255.29365   -292.46082     37926.35 
  852900     304.8546   -1464.6642    495.89583     406.1154    561.15263     37926.35 
  853000    293.98712   -1532.2081     502.9104    296.57406    131.06154     37926.35 
  853100    299.70185   -1538.9029    486.30953    299.05168   -26.393725     37926.35 
  853200    300.95015   -1510.9003    486.08705    332.46156    114.57798     37926.35 
  853300    295.87329   -1535.3506    472.07944    271.10713   -121.89697     37926.35 
  853400    302.04494   -1546.2389    499.67502    315.64835    314.22016     37926.35 
  853500    304.89676   -1512.4837    494.70093    357.29113   -435.41787     37926.35 
  853600    306.08712   -1513.1724    480.87514    348.14509   -749.49979     37926.35 
  853700    307.42952    -1517.296    471.69174    340.89231   -486.56605     37926.35 
  853800    299.31627    -1507.817    493.29469    335.38378   -578.55595     37926.35 
  853900    302.24383   -1473.1792     498.7761     388.7062   -609.15563     37926.35 
  854000    304.37362   -1508.8846    478.86473    342.69469   -458.33708     37926.35 
  854100    312.36264   -1504.6903    500.63572    404.69018   -374.20475     37926.35 
  854200    292.75285   -1459.4315    515.91811     376.7919   -832.20356     37926.35 
  854300    304.50112   -1477.2805    511.03919    407.04824   -8.3256613     37926.35 
  854400    300.96077   -1465.5183    496.45957    388.26395    112.41738     37926.35 
  854500    291.90368    -1461.201    516.53552    371.81008    58.924346     37926.35 
  854600    302.35653   -1504.1023    469.86336    329.37861    99.861941     37926.35 
  854700    303.11039   -1528.9614    489.46353    327.51954    202.61173     37926.35 
  854800    293.38455   -1510.8189    510.95579    323.29111    269.62243     37926.35 
  854900    296.09442   -1466.3135    508.12453    377.18674   -72.830412     37926.35 
  855000    295.14223   -1468.2733    494.59348    357.40145    305.85125     37926.35 
  855100    294.40014   -1486.3914    471.17407    312.51723    147.41931     37926.35 
  855200    295.98066   -1487.3427    499.73568    347.25556   -300.27415     37926.35 
  855300    299.62679   -1557.5904     498.5393    292.25544   -378.19912     37926.35 
  855400    306.38445   -1532.1783    468.45757    318.06262    222.92828     37926.35 
  855500    295.63647   -1504.6258    475.03935    303.72389    210.45836     37926.35 
  855600    298.85866   -1502.4922    484.64235    329.99242    192.23064     37926.35 
  855700    315.38533   -1501.2406    491.20546    412.34181    249.44783     37926.35 
  855800    300.71925   -1525.6085    469.69271    300.31771    213.02953     37926.35 
  855900    294.26746   -1520.8161    494.82093    301.14094    137.28246     37926.35 
  856000    297.59931   -1510.7324    508.72347    340.15372     247.9712     37926.35 
  856100    311.01533   -1501.8829    500.03322    400.81874    22.009234     37926.35 
  856200    294.55204   -1472.5452    537.35133    393.22577    73.882605     37926.35 
  856300    299.46158   -1489.3561    493.45733    354.66264    230.73581     37926.35 
  856400    302.03859   -1475.5365    509.92727     396.5744   -75.374376     37926.35 
  856500    303.27916   -1499.0526    501.52309    370.24912    211.89397     37926.35 
  856600    299.63134    -1509.727    500.54195      342.142      882.115     37926.35 
  856700    301.30681    -1469.999    496.12671    385.01103    368.66406     37926.35 
  856800    291.92721   -1486.6964    508.27608    338.16141    248.94727     37926.35 
  856900    309.45044   -1467.2297    496.23985    424.62103    711.87174     37926.35 
  857000    306.24815   -1488.9423    502.17807    394.40439    148.67819     37926.35 
  857100    303.72747   -1433.5071    525.82025    462.11362     322.7241     37926.35 
  857200    299.32479   -1473.3861    502.36415     378.9226    53.068749     37926.35 
  857300    301.20727   -1473.6678    524.74142    409.50809   -90.108152     37926.35 
  857400    306.79575   -1442.1648    479.98272    421.45623   -124.70097     37926.35 
  857500    305.39941   -1461.6005    506.78326    422.52364   -17.716892     37926.35 
  857600    302.12223   -1448.1343    486.42102    400.84762    12.985814     37926.35 
  857700    317.83354   -1449.5621    460.98552    444.84174    196.89454     37926.35 
  857800    311.51842   -1467.3469    485.57184    423.16228    492.82276     37926.35 
  857900    303.67272   -1478.7307    486.21964    377.04251    483.33539     37926.35 
  858000    313.91023    -1469.448    505.01391    451.29028    1247.6038     37926.35 
  858100    313.09819   -1435.0608    543.09806    520.09934    1434.0924     37926.35 
  858200    298.10365   -1432.1477    526.61655    438.90607    583.01396     37926.35 
  858300     295.8116   -1420.2729    535.08085    448.90809    33.492177     37926.35 
  858400    294.17653    -1435.813      530.003    420.91604    1037.2654     37926.35 
  858500    297.16919   -1499.9154    506.34346    346.65089    622.34362     37926.35 
  858600    306.68842   -1471.9918    485.03639    396.19884    246.79416     37926.35 
  858700    305.95767   -1466.1707    509.83424    423.52208    202.53941     37926.35 
  858800    296.80553   -1512.3524     492.1825    318.41282   -286.57952     37926.35 
  858900    287.91649   -1445.9843    487.49846    340.00762   -544.75921     37926.35 
  859000     305.1912   -1439.9343    501.73636     438.2039    170.05596     37926.35 
  859100     301.4764   -1449.5881    543.44274    453.50284   -366.09408     37926.35 
  859200    299.09326   -1456.9774    453.27421    345.19714   -589.17229     37926.35 
  859300    300.62474   -1470.7219    547.02108    432.10642   -225.95774     37926.35 
  859400    293.23725   -1475.3271    494.02667    341.18947   -247.62239     37926.35 
  859500    301.44244   -1503.9261    488.09893    343.66792   -619.69799     37926.35 
  859600     296.7618   -1452.8097    507.57809    393.15393   -198.87749     37926.35 
  859700    299.83564   -1472.9741    528.63667      407.911   -950.41132     37926.35 
  859800    303.70377   -1451.7673    516.75164    434.67786   -585.44124     37926.35 
  859900    294.87687    -1514.616    481.75619    297.02468    93.399838     37926.35 
  860000    303.95363   -1476.6445    484.04458    378.22052   -116.34855     37926.35 
  860100    305.52044   -1505.6367     519.2142    391.46417   -610.97775     37926.35 
  860200    296.54181   -1482.8096    506.45734     361.0411   -255.56156     37926.35 
  860300    305.57618   -1468.8311    499.12827    408.43519    67.249888     37926.35 
  860400    302.81989    -1527.527    486.02669    324.20695   -457.42072     37926.35 
  860500    300.60532   -1529.3342    459.21838    285.60385   -137.15808     37926.35 
  860600    294.96048   -1496.4091    485.94041    319.79291    42.306661     37926.35 
  860700    307.77065     -1508.34    513.66619    393.36125   -395.89717     37926.35 
  860800    300.96879   -1468.8033    504.58062    393.13625    -860.5709     37926.35 
  860900    305.58715   -1538.8629    498.13959    337.46425    -546.6783     37926.35 
  861000    297.72766   -1518.3177    516.46178     340.8856    75.068462     37926.35 
  861100    292.34622   -1506.7429    503.17112    314.89965   -220.48641     37926.35 
  861200    300.13904   -1525.4373     515.9553     344.1347   -107.00354     37926.35 
  861300    299.70976   -1513.2483    480.96492    319.39737    221.52156     37926.35 
  861400    308.05993   -1547.8069    486.40205    327.93487    151.79392     37926.35 
  861500     309.7526    -1542.281    496.03195     350.7245    33.386416     37926.35 
  861600    297.40717   -1509.8858    499.12446    330.53478    238.56115     37926.35 
  861700    307.89402   -1510.4177    474.48948    352.66319    332.96118     37926.35 
  861800    292.05677   -1506.5993    526.45731    337.02402    40.276689     37926.35 
  861900    297.50906   -1511.3395    504.26532    334.68147    473.09486     37926.35 
  862000     301.8304   -1537.3112    504.19087     328.1244     746.5825     37926.35 
  862100    307.97029   -1506.7489    498.41367    380.60021    445.67115     37926.35 
  862200    302.08807   -1450.8132    507.20668    418.80032    261.56902     37926.35 
  862300    306.95429   -1520.3429    495.77773    359.78808   -69.916735     37926.35 
  862400    311.47027   -1496.9796    514.86311    422.60371   -558.85838     37926.35 
  862500    309.81313   -1510.4154    516.68595    403.51715   -488.74695     37926.35 
  862600    297.24663   -1544.4698    465.89907     262.0013   -483.59129     37926.35 
  862700    307.61559   -1529.7374    493.23434    350.83263   -301.51341     37926.35 
  862800     296.5322   -1579.7363    513.56667    271.18042    96.294625     37926.35 
  862900    298.13595   -1516.3641    473.96899    302.18777    27.621906     37926.35 
  863000     294.3431   -1533.9507    499.69153    293.21809   -93.518495     37926.35 
  863100    296.37357    -1550.424    487.35744    273.56807    475.58251     37926.35 
  863200    289.78341   -1501.8655    509.94533    314.99306   -278.65136     37926.35 
  863300     305.6089   -1466.1388     517.2312      429.378    4.5556206     37926.35 
  863400    297.60972    -1509.934    502.47817    334.75378    341.38595     37926.35 
  863500    302.52429   -1490.9967    528.03972    401.41715     403.3367     37926.35 
  863600     298.6194   -1498.1985    490.65929    339.22401   -5.5472718     37926.35 
  863700    304.23815   -1511.2752    505.71457    366.54298    190.12802     37926.35 
  863800    294.02438   -1473.8764    514.95187    367.11534    230.55631     37926.35 
  863900    308.23801   -1555.5061    474.65171    309.28843   -61.441361     37926.35 
  864000    292.21419   -1482.0686    514.10435    349.91168    -768.0876     37926.35 
  864100    300.52305   -1463.8305    475.11493    366.63305    -211.8848     37926.35 
  864200    298.09792   -1469.7603    490.16672    364.81781   -319.28087     37926.35 
  864300    288.40841   -1503.5789    481.52191      278.655   -354.95315     37926.35 
  864400    298.22729   -1466.9547    508.33114    386.37129    33.406349     37926.35 
  864500    293.92316   -1451.4724    486.53182    360.64278    28.792482     37926.35 
  864600    292.47759    -1456.714    515.09753    377.44743   -313.37793     37926.35 
  864700    292.74327   -1481.5989    505.54296    344.20609     38.41497     37926.35 
  864800    287.50118   -1515.3458    518.63056    299.90519   -548.48083     37926.35 
  864900    301.33207   -1505.8779    481.85141    334.97076   -271.51973     37926.35 
  865000     304.9593   -1484.7686    503.30436    393.89174   -352.90424     37926.35 
  865100    292.18255   -1527.8294    503.57997    293.48378   -453.95633     37926.35 
  865200    299.15732   -1511.9676    497.39749     334.6191   -769.85172     37926.35 
  865300    305.20477   -1539.4554    490.63567    327.64327   -671.95174     37926.35 
  865400    303.53355   -1522.0134    487.67653    334.58904   -701.78351     37926.35 
  865500    298.47854   -1539.1592    490.04854    297.01729   -169.04601     37926.35 
  865600    297.14848   -1531.9446    450.64587    258.83071    8.1875198     37926.35 
  865700    304.34206   -1563.0893    477.25127    286.73418    325.68556     37926.35 
  865800    297.21873   -1572.6507    498.53786    266.33335    659.90973     37926.35 
  865900    292.78606   -1538.1732    469.07582     251.3577   -48.447701     37926.35 
  866000    295.46092   -1520.1487    459.72769    272.09762   -313.28916     37926.35 
  866100     315.8648    -1515.142    487.55145    396.94878   -465.72263     37926.35 
  866200    294.87747   -1529.9375    464.09813    264.04787   -494.85123     37926.35 
  866300    310.21113   -1523.4452    453.83445    329.43079   -730.56135     37926.35 
  866400    306.52352   -1547.0159     480.3618    315.75637   -898.79301     37926.35 
  866500    303.41126   -1524.2397    463.00266    307.13731   -294.67804     37926.35 
  866600    302.16057   -1481.1226     491.9148    373.52593   -618.57899     37926.35 
  866700    309.39311   -1496.1027    483.03829    382.28783    -1081.201     37926.35 
  866800    296.62443   -1502.4497      468.444    303.76031   -896.56527     37926.35 
  866900    298.86125   -1491.2846     503.6633    360.23264   -675.49156     37926.35 
  867000      299.028   -1458.3862    490.45903    380.67884   -383.13009     37926.35 
  867100    293.80814   -1491.6833    487.43287    320.81419   -765.61079     37926.35 
  867200    294.70516   -1498.7257    491.70051    322.08496   -526.82008     37926.35 
  867300    287.92088    -1474.457     487.9117     311.9679   -213.22258     37926.35 
  867400    290.38036   -1493.3657    507.51154    323.75134   -6.3138956     37926.35 
  867500      303.614   -1501.5375    472.23227    339.98346    22.227314     37926.35 
  867600    298.99997   -1515.5758    488.61245    321.51621    34.788497     37926.35 
  867700    291.20898   -1474.7918      487.399    325.94966   -80.676466     37926.35 
  867800     303.5125   -1486.2574     459.5769    342.15046   -560.74072     37926.35 
  867900    302.83864    -1453.085    498.18568    410.89247   -495.73391     37926.35 
  868000    295.47311   -1497.6328    473.68961    308.63035   -183.55399     37926.35 
  868100    306.91002   -1489.6763    497.28124    391.75854   -282.85848     37926.35 
  868200    306.95891   -1490.5369    494.57413    388.41133   -82.932297     37926.35 
  868300    296.84774   -1509.9274    475.04111    303.88685   -248.23475     37926.35 
  868400    300.78717   -1509.2425    463.63291    310.93016   -414.19137     37926.35 
  868500    306.06618   -1501.0106    484.57117    363.90851   -1037.4259     37926.35 
  868600    306.08172   -1463.0766    457.36432    374.70569   -300.48494     37926.35 
  868700    300.12534   -1497.2891    471.32821    327.59404    60.091073     37926.35 
  868800    297.38469   -1505.7256    502.36478    337.83384    668.15147     37926.35 
  868900    309.03044   -1513.7223    489.87496    369.86934    737.32434     37926.35 
  869000    303.14717   -1540.1655    470.00041    297.01818    47.232818     37926.35 
  869100    292.82818   -1493.2136    473.75632    301.18778    104.79295     37926.35 
  869200     296.4007   -1508.4952     482.9874    311.24914    20.718951     37926.35 
  869300    297.16661   -1492.5609    473.44666    321.09699   -359.01572     37926.35 
  869400    299.07509   -1460.5274    481.27942    369.57038    -208.9991     37926.35 
  869500    296.47171   -1467.1566    496.22384    366.14445   -593.75393     37926.35 
  869600     295.1847   -1432.5393    477.63306    376.36658   -1261.6209     37926.35 
  869700    309.83967   -1425.9128    495.23238    466.68581   -846.67338     37926.35 
  869800    293.69946    -1441.766    498.20617    381.01463   -747.77681     37926.35 
  869900    290.73341   -1477.4744    478.84443    312.56777   -1040.4087     37926.35 
  870000    302.57921   -1449.4388    493.77071    408.95372   -850.80978     37926.35 
  870100    285.11197   -1438.9048    465.73087    312.67124   -1028.5979     37926.35 
  870200    310.54728   -1445.7492    455.64074    410.44906   -326.29253     37926.35 
  870300    302.99507   -1431.6539    454.05271    388.89613     155.1385     37926.35 
  870400    308.00461   -1463.9381    483.81067     408.9628   -246.44946     37926.35 
  870500    306.88553   -1446.3724    486.80742    424.47816   -520.38219     37926.35 
  870600    287.55727   -1467.7052    444.24159    273.40976   -357.48411     37926.35 
  870700     302.4972   -1452.7115    503.19942    414.73982   -192.92225     37926.35 
  870800    295.15932   -1463.6258    477.47437    345.00693   -329.98148     37926.35 
  870900    307.51989   -1479.5697    474.93878     382.2732   -652.91282     37926.35 
  871000    297.06497   -1468.8457    489.64731    360.55443    139.28796     37926.35 
  871100    305.21307   -1453.4001    484.75281    407.85321    181.58192     37926.35 
  871200    300.80445   -1451.1787    489.43897    394.87804   -197.68909     37926.35 
  871300    299.36091   -1425.2105    494.58115    419.47803   -207.82599     37926.35 
  871400    304.98085   -1474.0214    471.10137    372.53306   -0.9714936     37926.35 
  871500    294.33446   -1441.5609    499.16649    385.04386   -199.90422     37926.35 
  871600    300.35513   -1458.8675    477.59947    373.32327    379.42174     37926.35 
  871700    296.99566   -1470.0753    481.44263    350.80751    67.504076     37926.35 
  871800    299.63154   -1468.1877    495.89853    379.03879    224.78379     37926.35 
  871900    297.37638   -1403.2044    493.44982    431.40262    298.25635     37926.35 
  872000    301.48622   -1449.2394    460.86815    371.32122   -29.423931     37926.35 
  872100    307.56523    -1422.447    499.01961    463.68121   -801.38954     37926.35 
  872200    307.77627    -1399.511    489.75313    478.30253   -740.07057     37926.35 
  872300    288.66611   -1432.6033     481.8994    351.17034   -566.29875     37926.35 
  872400    300.00493   -1466.1508    497.80388    384.66503    165.74461     37926.35 
  872500     304.5611    -1460.995    473.38847    385.95351    741.19858     37926.35 
  872600    304.04496    -1479.723     467.4888    358.99817    164.11642     37926.35 
  872700    303.54146   -1516.1817    495.21417    347.99405    13.168557     37926.35 
  872800    297.02021   -1483.9505      474.709    330.30947     373.3353     37926.35 
  872900    294.94477   -1436.9304    478.31387    371.57423    304.44995     37926.35 
  873000    294.03022   -1427.6432    485.27644    383.69938   -134.05266     37926.35 
  873100    290.46738   -1412.0184    515.32304    413.30258   -658.97937     37926.35 
  873200    305.03036   -1426.3893    494.75484    444.04197   -14.129636     37926.35 
  873300    304.89397   -1470.3231    481.43886    386.17711   -216.16944     37926.35 
  873400     300.3728   -1459.4578    477.40023     372.6134   -73.871079     37926.35 
  873500    305.94294   -1437.9202    493.15658    435.02849   -446.26029     37926.35 
  873600    303.32027   -1499.0884    474.35967    343.23522   -377.38519     37926.35 
  873700     303.6747   -1477.3052    475.74032    367.99756   -186.91956     37926.35 
  873800    306.17808   -1484.2053     463.8152    360.46245   -303.61857     37926.35 
  873900    299.83684   -1508.2843    467.09422    311.06376   -302.01906     37926.35 
  874000    303.97424   -1492.5833     494.7897    373.11978  0.016599438     37926.35 
  874100    311.51428    -1457.299    469.31938    416.93901    13.304513     37926.35 
  874200    299.83806   -1488.5064    490.84777    354.60074   -251.46824     37926.35 
  874300    303.81368   -1494.0827    482.35758    358.46416    70.409471     37926.35 
  874400    300.35964   -1430.4787    488.85118    412.98418   -276.92736     37926.35 
  874500    305.72992     -1425.07     493.4357     447.1971   -142.98176     37926.35 
  874600    308.89393   -1445.9154    477.43723    424.62278    119.43321     37926.35 
  874700    295.34423   -1448.3892    491.94272    375.54589   -106.19594     37926.35 
  874800    309.94676    -1444.488     482.7484    436.10966    27.642444     37926.35 
  874900    297.55723   -1437.3353    473.00089    377.63841    232.95005     37926.35 
  875000     302.2397   -1417.4643    492.06904     437.6954   -675.52957     37926.35 
  875100    302.63808   -1438.0252     500.9108    427.77288   -410.23048     37926.35 
  875200    295.63806   -1421.1569    496.86026    409.02079   -624.73375     37926.35 
  875300    302.06562   -1422.5932    496.17016    435.88255   -576.49459     37926.35 
  875400    298.21497   -1438.9117    472.27695    378.30448    257.26338     37926.35 
  875500    298.88034   -1408.8326    497.08276    436.19025    70.370589     37926.35 
  875600     304.8683   -1428.5718    496.49364    442.86734    223.99793     37926.35 
  875700    300.95712   -1459.6272    492.40026    390.07935    148.17613     37926.35 
  875800    298.68094   -1449.6511    462.56544    359.95515    256.71337     37926.35 
  875900    297.10113   -1455.2993     471.5404    356.15698   -296.34936     37926.35 
  876000    304.31128   -1465.2554     485.1816    392.35965   -42.545472     37926.35 
  876100    294.20725   -1464.5658    491.96714    354.26595    125.60037     37926.35 
  876200     305.8854   -1482.0975    473.89634    371.33144    652.51759     37926.35 
  876300    296.49342   -1439.5337    515.96227    413.60371    844.88668     37926.35 
  876400    312.26341    -1451.032    473.99867    431.26389   -81.964784     37926.35 
  876500    311.60617     -1421.18    489.54382     473.6969    169.69362     37926.35 
  876600    299.37728   -1443.1952    504.74891    411.73499   -294.76283     37926.35 
  876700    306.80079   -1439.5581    481.64997    425.75287   -639.79529     37926.35 
  876800    304.12079   -1429.2217    468.53594    410.88854   -686.24354     37926.35 
  876900    304.27781   -1477.7792    493.32832    387.83155   -654.56122     37926.35 
  877000    299.20914    -1444.996    494.27831    398.70518    -295.3145     37926.35 
  877100    305.79092   -1463.2507    514.55499    430.41078    3.1880999     37926.35 
  877200    302.86265   -1474.4965    488.58956    379.99317    168.09458     37926.35 
  877300     306.6549   -1470.4616    486.42214    398.96355    197.68209     37926.35 
  877400    299.43505   -1472.7169    484.48803    362.21294    116.41026     37926.35 
  877500    307.41276   -1398.0477    514.40639    502.77967     423.2657     37926.35 
  877600    301.68809   -1415.8048     502.2707     447.0688    223.98376     37926.35 
  877700    301.17564   -1465.6057    476.55372    369.23981   -64.243432     37926.35 
  877800     300.1126   -1470.8471    482.85468    365.50508   -233.91778     37926.35 
  877900    296.32618   -1475.2135    459.94237    321.14971   -299.89133     37926.35 
  878000    304.81858   -1450.3819    473.85668    398.19612    -617.1535     37926.35 
  878100    295.70301   -1453.1872    475.20137    355.62462   -517.15646     37926.35 
  878200    296.44163   -1439.8525    506.87218     403.9612    -554.2686     37926.35 
  878300    283.32529   -1459.3591    478.28093    296.70914   -597.41416     37926.35 
  878400    298.00389   -1500.9172    480.69417    323.76423     224.3135     37926.35 
  878500    304.14131   -1507.2846    455.05325    319.43552    61.504723     37926.35 
  878600    294.92536   -1512.1536     466.4373    284.38696   -261.10986     37926.35 
  878700    303.87618   -1444.0866    493.62042    420.00497    357.78621     37926.35 
  878800    300.26059   -1467.1451    483.43308     370.4529    384.67144     37926.35 
  878900    294.69638    -1479.007    505.94568    356.00921   -163.14589     37926.35 
  879000    311.24233   -1422.4237    492.31955    473.58806    158.98297     37926.35 
  879100    302.55696   -1438.0294    478.54007    405.03216   -100.31162     37926.35 
  879200    285.77538   -1455.3437    496.07217    329.56564   -533.30871     37926.35 
  879300    292.94115   -1490.1283    472.77982    303.80605    -511.9474     37926.35 
  879400    290.47275   -1453.6407    503.00749    359.38887   -778.11298     37926.35 
  879500    298.08455    -1508.415    482.55718    318.49321   -339.23141     37926.35 
  879600    290.94501   -1488.3094    487.22451    311.06708    680.44682     37926.35 
  879700    306.38918   -1503.9956    466.57464    344.38373    616.62532     37926.35 
  879800    302.23054   -1526.0751    472.98271     309.9569    586.74569     37926.35 
  879900     301.6725   -1483.3023    462.08992    339.32026    531.96201     37926.35 
  880000     295.7601   -1488.1103    490.20603    335.96365    207.20695     37926.35 
  880100    306.50582   -1472.0948    490.49261    400.72852    719.96728     37926.35 
  880200    307.13017   -1481.7589    495.90041    399.28802    830.72871     37926.35 
  880300    305.56618   -1482.7356    471.17048    366.52785    612.26147     37926.35 
  880400    300.35834   -1469.0711    497.40166    382.93634    695.96613     37926.35 
  880500    295.88767   -1466.4136    477.36025    345.38987    856.69192     37926.35 
  880600    295.76809   -1462.7891    487.09038    358.20519    579.06307     37926.35 
  880700    310.39235   -1456.0726    470.85861    414.64482    252.60069     37926.35 
  880800    297.63949   -1485.0808    521.78452    379.04754    194.49612     37926.35 
  880900    292.34431   -1437.0498    470.91332    352.32635   -231.76297     37926.35 
  881000    298.37142   -1459.7447    474.38705    360.28719    179.01451     37926.35 
  881100     299.4149   -1459.5421     494.7053     385.5141    170.47586     37926.35 
  881200      296.669   -1494.3914    476.04858    319.62417    142.05882     37926.35 
  881300     292.1988   -1460.2014    476.54594     334.1511     -347.237     37926.35 
  881400     299.0582   -1451.2119    483.75284    381.28316   -427.38453     37926.35 
  881500    294.06403   -1450.3378    476.03673    351.91759   -370.17707     37926.35 
  881600    305.32384   -1490.4601    482.95373    369.49367    156.74832     37926.35 
  881700    300.41794   -1494.1529    484.72497    345.44661   -21.546326     37926.35 
  881800    292.77177   -1473.7945    485.12194    331.71805   -826.98755     37926.35 
  881900    295.70365   -1445.9305    504.50913     392.1919   -391.44826     37926.35 
  882000    301.18713   -1484.5903    478.85045    352.60375   -64.977585     37926.35 
  882100    292.34952   -1485.3523    462.76226    295.89624   -451.40987     37926.35 
  882200    300.26702   -1484.1174    488.64766     358.7242   -69.717517     37926.35 
  882300    301.28556   -1475.1377    499.24464    382.89448    64.109102     37926.35 
  882400    297.71815   -1494.0378     466.6394    315.30019     371.5853     37926.35 
  882500    302.53435   -1459.6581    504.27199    409.03338    618.76551     37926.35 
  882600    300.89968    -1493.592    507.22308    370.67826    103.88277     37926.35 
  882700    296.88977   -1491.2206    476.43443    324.17647     734.3041     37926.35 
  882800    291.16308    -1461.155     475.3386    327.31908   -64.911919     37926.35 
  882900    300.73103   -1443.9604    508.93395     421.2602    -136.9241     37926.35 
  883000    303.11136   -1472.5504    461.93722    356.40861   -402.00702     37926.35 
  883100    309.89723   -1478.1891    473.44833    392.88506    101.22896     37926.35 
  883200    305.63753   -1462.1672    494.74032    410.98784    325.30432     37926.35 
  883300    308.47668   -1454.5706    486.47116    423.11972    346.53827     37926.35 
  883400    303.66561   -1487.5909    497.83161    379.76214    652.11958     37926.35 
  883500    303.83624   -1462.1755    453.81836    361.93388    702.45055     37926.35 
  883600    290.02125   -1444.8758    483.55996    346.67007    266.86801     37926.35 
  883700     302.6329   -1423.8377    475.86497    416.89128    641.15274     37926.35 
  883800    298.31635   -1447.1919     468.8026     367.0072   -209.66269     37926.35 
  883900      299.047   -1387.4153    539.02349    500.29991   -4.1485508     37926.35 
  884000    299.89687    -1418.041    484.01957    418.50316   -525.99491     37926.35 
  884100    293.64622   -1409.4403    506.64424    421.53825   -253.91521     37926.35 
  884200    294.89232   -1414.0053    491.23436    407.18327   -551.01419     37926.35 
  884300    293.88693    -1436.902    485.26763    373.78558    255.75114     37926.35 
  884400    307.06117   -1414.6523    511.40093    481.58397    129.16389     37926.35 
  884500    299.38293   -1446.1285    494.83481    398.91304     -291.753     37926.35 
  884600    301.23132   -1463.9563    497.46566    392.05224    88.193841     37926.35 
  884700    307.88515   -1459.8006    493.42975    422.18061    -137.8955     37926.35 
  884800    298.32903   -1459.6211    502.54582    388.37838   -85.232289     37926.35 
  884900    298.40172   -1499.9028    500.85378     346.7325    166.46404     37926.35 
  885000    302.59827    -1477.281    488.22886    375.65561    354.82065     37926.35 
  885100    306.38009   -1481.9759    493.40223    393.18999   -441.38981     37926.35 
  885200    293.82726   -1467.7758    518.58266    375.95765   -420.32847     37926.35 
  885300    294.84942   -1445.5533    463.03911    347.24656   -285.36871     37926.35 
  885400    293.26734   -1464.6426    489.92509    347.90806   -501.97164     37926.35 
  885500    297.24886   -1471.8357    495.87868    364.62511   -671.39425     37926.35 
  885600    293.24769   -1463.6132    486.40397    345.32776   -396.11261     37926.35 
  885700    300.10782   -1469.7599    488.37709    372.09311   -354.15688     37926.35 
  885800    306.80783   -1476.2502    489.16916    396.61177    19.918883     37926.35 
  885900    297.04009   -1524.1655    495.36538    310.84046    838.72961     37926.35 
  886000    296.66492   -1461.1654    507.25424    384.03736    756.50756     37926.35 
  886100    292.94197   -1481.4297    508.20602    347.93454    635.71705     37926.35 
  886200    300.78948   -1451.3293    496.14939    401.37033    580.44391     37926.35 
  886300    300.67232   -1438.2715    516.43944     434.1897   -211.86787     37926.35 
  886400    298.47991   -1431.8791    480.14647     394.4015   -314.94822     37926.35 
  886500    300.50248   -1458.3903    507.79077    404.65627   -290.51262     37926.35 
  886600    299.47027   -1507.3896    482.98384     326.1949   -53.609915     37926.35 
  886700    300.01353   -1449.3319    511.55376    415.27253    -262.7825     37926.35 
  886800    306.55902   -1469.7003    476.07257    388.94286   -412.63693     37926.35 
  886900    291.34561   -1468.4574    493.76138    339.26268   -87.921272     37926.35 
  887000    296.70273   -1500.8789    504.24308    341.48333     99.99691     37926.35 
  887100    304.40093    -1492.504    505.26777    385.60153    140.01241     37926.35 
  887200    301.05028   -1484.6452    498.43097    371.51215    15.232912     37926.35 
  887300    296.88472   -1502.1753    499.02266    335.78724   -142.86568     37926.35 
  887400    298.33522    -1485.791    499.35301     359.0436    506.81262     37926.35 
  887500     300.7274   -1496.6088    499.28807    358.94951      6.70082     37926.35 
  887600    292.11829   -1486.5889    501.08108     331.9356    340.24028     37926.35 
  887700    302.42938   -1465.2206    491.96789    390.69338   -218.65338     37926.35 
  887800    298.73904   -1438.3585    498.14415    407.08841   -66.631091     37926.35 
  887900      297.063   -1538.4246    476.54437    277.86371    253.88901     37926.35 
  888000    293.04793    -1502.606    507.67201    326.70207   -372.61495     37926.35 
  888100    296.53346   -1476.1439    515.02383    376.23565   -433.64701     37926.35 
  888200    294.71965   -1435.1849    510.37925    404.36981   -113.43617     37926.35 
  888300     306.9323   -1466.8491    520.59995    438.00493    -457.1841     37926.35 
  888400    302.37757   -1486.3444    502.22873    379.59676    486.56005     37926.35 
  888500    304.62302   -1523.6383    532.63568    382.83675   -369.33728     37926.35 
  888600    302.23455   -1524.9473    517.54803    355.66812    -295.7727     37926.35 
  888700    301.71682   -1496.4876    494.19803    358.44292    224.53068     37926.35 
  888800    299.82952   -1516.6942    477.20553    312.73213    73.032782     37926.35 
  888900    307.80527   -1485.4457    491.38938    394.13487   -53.118083     37926.35 
  889000    302.59176   -1486.3524    508.22281    386.54887    37.900375     37926.35 
  889100     297.4109    -1476.941     495.1744    359.54632    691.15805     37926.35 
  889200    305.72339   -1470.1388    519.55518    428.21838    505.81086     37926.35 
  889300    298.98419   -1479.7691    486.97528    355.61462    880.34427     37926.35 
  889400    298.12786   -1501.6517    482.82918    325.72386    712.86546     37926.35 
  889500    295.11068   -1583.2643    485.00464    232.67934    712.98625     37926.35 
  889600    307.36521   -1526.2109    498.32747    358.32314    318.73204     37926.35 
  889700    295.97853   -1518.9694    491.32444    307.20803   -263.84805     37926.35 
  889800    295.11912    -1511.089    484.04303    303.93108   -986.49156     37926.35 
  889900    301.11492   -1541.0647    494.81437    311.76758   -1285.1908     37926.35 
  890000    297.75896   -1473.1085    498.46821    368.24242   -289.43927     37926.35 
  890100    297.92808    -1464.136    478.35022    357.85961    -143.2736     37926.35 
  890200    293.51444   -1469.7989    504.49338    358.43456   -517.00012     37926.35 
  890300    303.21048    -1496.241    464.37466    335.60251   -641.51509     37926.35 
  890400    305.75049   -1501.2709    499.21724     376.8705   -305.32975     37926.35 
  890500    296.71223   -1454.4467    478.33772    362.05297     29.86144     37926.35 
  890600    303.27767   -1463.2126    521.39763    425.95694    12.522868     37926.35 
  890700     290.2561   -1461.3087    513.90689    361.64321   -211.79506     37926.35 
  890800      299.518   -1454.6259    506.47976    402.66974    81.642098     37926.35 
  890900    297.30778   -1476.3852    513.86344    378.32609   -1175.0871     37926.35 
  891000    301.27905   -1421.1652    501.58539    439.17829   -67.041772     37926.35 
  891100    300.84597   -1476.6428    477.24514    357.40729   -389.24962     37926.35 
  891200    298.44203   -1440.9272    513.08744    418.12353   -434.86977     37926.35 
  891300    295.02768    -1484.839    490.62054    336.34617    -467.3776     37926.35 
  891400    299.81448   -1467.3364    505.85046      390.667   -306.84674     37926.35 
  891500    305.30131   -1486.3919    497.63552      388.142   -219.19395     37926.35 
  891600    294.08582   -1464.7216    531.75064    393.34592    509.56127     37926.35 
  891700    295.14639   -1481.7718    514.21222    363.54047    725.90645     37926.35 
  891800    303.64404   -1459.0472    502.54697    412.92396    483.66182     37926.35 
  891900    304.70495   -1421.7434    533.06659    485.53201    543.59239     37926.35 
  892000    298.96102   -1469.0046    498.23831    377.53765    194.25611     37926.35 
  892100    296.60242   -1475.8534    493.51662    355.32992    604.39449     37926.35 
  892200    305.92266   -1498.4248    512.37678     393.6527    841.00831     37926.35 
  892300    301.91243   -1501.3096    489.79434    350.09947   -166.18595     37926.35 
  892400    295.71935   -1487.9012    524.19759     369.9805    561.47593     37926.35 
  892500    294.65082   -1501.3769    497.49079      324.979    1127.7404     37926.35 
  892600    304.22076    -1482.824    488.07337    377.27455    691.58725     37926.35 
  892700    298.22112    -1507.542    508.19921     345.6242    513.01681     37926.35 
  892800    302.90099   -1506.0072    500.50802    360.57385   -211.55212     37926.35 
  892900    300.38458   -1488.0726    489.84076    356.49231   -437.07834     37926.35 
  893000    294.29098   -1480.8704    515.51581     361.8876   -41.356361     37926.35 
  893100    288.69143   -1466.6369    506.09976    341.45128    207.88565     37926.35 
  893200    299.42514   -1505.7961     503.3809    347.98186    467.97296     37926.35 
  893300    306.70095   -1500.1216    484.92571    368.01487     585.3058     37926.35 
  893400    299.31821   -1466.6436    497.39719    380.66844     136.0054     37926.35 
  893500     301.1922   -1513.3609    501.12703    346.13261   -64.372368     37926.35 
  893600     304.0823   -1547.2884    505.76667    329.87895   -82.770703     37926.35 
  893700    296.78946   -1494.7015     487.8943     331.7031    310.74138     37926.35 
  893800    306.63619   -1499.1602    502.68956    386.44808   -244.20105     37926.35 
  893900    294.82166   -1512.2728    468.69916    286.06196   -287.33846     37926.35 
  894000    306.46711   -1522.9049    474.09898    333.35017   -80.476972     37926.35 
  894100    291.58358   -1534.1938    498.41735    279.25547   -95.621167     37926.35 
  894200     309.3434   -1566.6607    488.44566      316.913    387.02791     37926.35 
  894300    296.42106   -1551.1512    491.03509    276.73272    264.72129     37926.35 
  894400    307.67232   -1541.8889    493.32858    339.03131    717.54619     37926.35 
  894500    306.63587   -1508.0833    505.57343    380.40736    380.99405     37926.35 
  894600    300.70562   -1506.2014    506.04961     356.0202    364.42626     37926.35 
  894700    306.89712   -1482.2712    511.37576    413.19997    484.87969     37926.35 
  894800    297.87841   -1480.9811    512.56076    375.00101   -134.93678     37926.35 
  894900    298.47019   -1494.3968    503.24652    354.93998   -55.380748     37926.35 
  895000    302.46274   -1483.0648    487.03105    368.06281    -497.2981     37926.35 
  895100    307.34379   -1454.4358    515.38482    447.05897   -56.946816     37926.35 
  895200    298.24582   -1468.6307    509.63636      386.084    390.99181     37926.35 
  895300    304.20066   -1423.6307    536.20447    484.50827    710.27066     37926.35 
  895400    294.69583    -1470.355    509.19987    367.91292    655.42459     37926.35 
  895500    303.48922   -1462.0715    516.01997    422.67445    185.96446     37926.35 
  895600    303.51308   -1490.7678     501.1133    379.17908    196.02329     37926.35 
  895700    304.82073   -1518.0313    503.85072    360.55045    118.34649     37926.35 
  895800    299.18351   -1481.4564     477.3982    345.24918   -298.68345     37926.35 
  895900    298.14637   -1482.8694    515.04125    376.80173   -1086.0144     37926.35 
  896000    293.28665   -1517.2745    462.86451    268.30274   -942.43614     37926.35 
  896100     293.6109     -1539.15    505.99783    291.02287   -434.80536     37926.35 
  896200      300.708   -1534.8978    499.90475     321.1897   -228.28167     37926.35 
  896300    307.78105    -1503.998    484.64545    368.72943   -100.13319     37926.35 
  896400    299.27179    -1459.126    534.96947    425.54889   -614.63505     37926.35 
  896500    307.67344   -1484.5292    472.98983    376.05723    125.19515     37926.35 
  896600    298.89577   -1529.7762    501.30228    319.53569    445.05366     37926.35 
  896700    289.63251   -1536.9035    528.77798    298.10716    -266.1808     37926.35 
  896800    295.07963   -1543.2105    502.43151    290.01997    140.31756     37926.35 
  896900    299.49126   -1562.4409    472.13078    260.38519    358.15468     37926.35 
  897000    309.51281   -1452.6531    518.06991    461.30897     63.55901     37926.35 
  897100    299.16214   -1459.0439    506.98541    397.15246   -767.87383     37926.35 
  897200    312.93971   -1506.9088    519.73039    424.16896   -533.52219     37926.35 
  897300    303.08069   -1481.4952    503.42924    388.81752   -202.69833     37926.35 
  897400    290.24981   -1530.3962    491.37597    269.99645   -357.84348     37926.35 
  897500    307.47323   -1493.4492    480.07688    373.32138   -295.37919     37926.35 
  897600    300.36374   -1484.4281    499.55627    369.75832   -283.14614     37926.35 
  897700     304.0836   -1524.2389    478.82147    325.98913   -160.49841     37926.35 
  897800    294.01749   -1501.0295    483.37019    308.34943    339.01976     37926.35 
  897900    292.79687   -1481.5802    512.38994    351.31357    18.066198     37926.35 
  898000     309.5924   -1496.4036    506.38308    406.23058    184.30884     37926.35 
  898100    294.48076    -1545.755    514.70327    297.04635   -218.63121     37926.35 
  898200    313.43063    -1526.016      465.364     352.9094   -617.74306     37926.35 
  898300    307.34971   -1551.6923    485.07511    319.51947   -278.12395     37926.35 
  898400    305.08588   -1518.7026    488.30399    345.52821   -312.19044     37926.35 
  898500    311.27794   -1505.9383    481.79907     379.7136   -287.77861     37926.35 
  898600    298.57172   -1488.6703    498.93331    356.81115   -336.15121     37926.35 
  898700    303.22149   -1517.1332    487.41973    337.80502   -94.176398     37926.35 
  898800    310.24532   -1529.4166      533.251    403.03013    135.01607     37926.35 
  898900    300.81543   -1482.6404    493.69164    367.71853    329.10491     37926.35 
  899000    312.91598   -1525.9909    524.30376    409.55317    203.32735     37926.35 
  899100    290.50852   -1502.8377     506.2111    313.55681   -68.216341     37926.35 
  899200    305.13291   -1522.6316    513.85044    367.35781    388.04253     37926.35 
  899300    296.41356   -1494.6094     468.1617    310.36723    -178.4813     37926.35 
  899400    304.70035   -1536.2503    523.78311    361.72094   -18.043248     37926.35 
  899500    305.52531   -1538.2597    469.82931    309.47824   -59.894301     37926.35 
  899600    305.17077   -1480.2548    519.38608    415.44094   -40.664489     37926.35 
  899700    298.85778   -1500.1286    496.36979    344.07949   -369.06526     37926.35 
  899800    293.80416   -1498.5232    491.23881    317.76225   -400.69269     37926.35 
  899900    304.26556    -1478.714      464.259    357.77223    532.59027     37926.35 
  900000    308.68837   -1504.1875    544.35451    432.34095    299.11517     37926.35 
  900100    292.74178   -1475.6891    507.45276    352.01902    706.45539     37926.35 
  900200    302.56539    -1493.825    535.51419     406.2487    -8.057434     37926.35 
  900300    298.72438   -1530.1502    511.03054    328.11698   -246.79202     37926.35 
  900400    294.05912   -1493.6553    531.87415    364.41535    50.092217     37926.35 
  900500    299.84729   -1512.9643    526.39036    365.72701   -107.51165     37926.35 
  900600    298.91649   -1524.3727    476.35036    300.08073    273.29879     37926.35 
  900700    309.78357   -1538.2853    492.69254     351.5205   -24.193763     37926.35 
  900800    295.37723    -1517.266      486.344    301.21913   -195.47264     37926.35 
  900900     299.2886   -1486.5641    525.49271    388.70989   -242.64772     37926.35 
  901000    300.90998   -1502.3781    476.63808    331.35362   -332.76687     37926.35 
  901100    308.01832   -1509.2301    505.77251    385.69449   -708.75097     37926.35 
  901200    289.57555   -1544.2971    526.93329    288.61195    -462.6798     37926.35 
  901300    296.33678   -1529.9654    507.28889    313.79221   -310.57456     37926.35 
  901400     299.4113   -1508.1964    492.73576    334.87402    96.602889     37926.35 
  901500    304.20122   -1532.7389    521.85059    361.04876   -297.27769     37926.35 
  901600    307.02305   -1527.2051    495.51494     352.9732   -157.88174     37926.35 
  901700    298.66032   -1524.3961    514.62338    337.17508   -155.44127     37926.35 
  901800    304.71749   -1488.2828    533.54016    419.52275   -230.54686     37926.35 
  901900    288.79271   -1516.0598    492.87404    279.25938   -44.575788     37926.35 
  902000    296.87033   -1500.4458    483.81465    322.24377    240.49332     37926.35 
  902100    296.76491   -1554.9521    505.08167     288.5291     437.9195     37926.35 
  902200    305.41438   -1530.9037    470.72135    317.22595   -379.91798     37926.35 
  902300     299.1739   -1588.7035    493.87965    254.44011   -420.38499     37926.35 
  902400    310.66083   -1550.3448    509.93904    360.66392   -494.76544     37926.35 
  902500    293.31665   -1551.0954    494.88054    266.63317   -178.18309     37926.35 
  902600    305.10799   -1544.1487    500.39213    332.26992    200.48332     37926.35 
  902700     310.0993   -1555.0559     469.6729     313.1542    43.396712     37926.35 
  902800    305.00288   -1528.6804    496.76262    343.63471    35.980692     37926.35 
  902900    295.54622   -1486.4167    506.68963    353.17623   -230.76356     37926.35 
  903000    299.22757   -1516.9978    486.74958    319.25782   -366.89864     37926.35 
  903100    302.86322   -1538.6976    478.64635    305.85141    75.488835     37926.35 
  903200    300.11856   -1568.3841    508.00616    293.14647   -79.682437     37926.35 
  903300    295.80857   -1513.7356    507.50714    327.85798    103.17181     37926.35 
  903400    312.61808   -1538.2857    511.67541    383.28653    235.24513     37926.35 
  903500    297.08332   -1534.5741    515.04467    320.30615    47.088738     37926.35 
  903600    295.70006   -1528.6763    509.97456    314.89531   -194.06082     37926.35 
  903700    301.55188   -1530.8524    490.46958    319.60577   -196.39169     37926.35 
  903800    306.66741    -1518.365    500.11851    364.81297    409.00817     37926.35 
  903900    307.74055   -1510.8419    487.36506    364.42239   -197.15831     37926.35 
  904000    298.59834   -1520.4164    527.83556    354.08744    100.43334     37926.35 
  904100    305.83364   -1569.3411    483.37941    293.33748     31.99551     37926.35 
  904200    298.74644   -1507.6108     511.0903    350.81573   -281.52973     37926.35 
  904300    308.35248   -1518.3729    530.93612    403.22227   -492.10134     37926.35 
  904400    303.46956   -1545.2085    517.89543    341.32419    -590.8901     37926.35 
  904500    289.37925   -1582.2707    494.51603    217.33583   -628.11022     37926.35 
  904600    293.42128   -1558.1684     492.7478    257.89928   -260.15486     37926.35 
  904700    294.24627   -1558.0397    485.51874    254.51964   -122.03223     37926.35 
  904800    308.11626   -1531.2721    490.60429    348.92595   -143.53892     37926.35 
  904900    306.21719   -1543.3786    504.38501    342.03538    62.900091     37926.35 
  905000    302.63863   -1546.0573    504.27387    323.10634     635.4394     37926.35 
  905100    298.34824   -1565.1594    490.27574    270.65666    377.88058     37926.35 
  905200    298.13354     -1493.53    489.25439    340.29642    690.04724     37926.35 
  905300    291.69366   -1506.6477    496.08495    304.96558    453.81586     37926.35 
  905400    305.33417   -1519.7481    494.00406    351.30259   -183.00568     37926.35 
  905500    298.64104   -1536.2902    495.24492    305.81556   -207.75821     37926.35 
  905600    295.26023    -1494.484    518.02475    355.15421     115.9401     37926.35 
  905700    290.91886    -1549.533    509.01875    271.51985   -420.35733     37926.35 
  905800    306.70816   -1508.5267    505.85678    380.57329   -236.62988     37926.35 
  905900    290.65604   -1541.8317    467.82283    236.83983    114.33928     37926.35 
  906000    307.33539    -1555.392    536.22626    366.90631   -604.77707     37926.35 
  906100    297.64454   -1549.2323    478.78938    271.92369   -117.89871     37926.35 
  906200    291.85151   -1573.5715    498.89063     241.5594   -226.83294     37926.35 
  906300    295.59805   -1536.5237    495.22527    291.83864   -766.81512     37926.35 
  906400     295.6578    -1541.528    512.31336    304.19183   -715.21742     37926.35 
  906500    292.65379   -1536.2311    492.00947    275.63694   -462.53356     37926.35 
  906600    302.02409   -1500.0708    512.55121     374.5987   -95.361944     37926.35 
  906700    297.19546   -1486.6755    497.09983    350.76561      4.02207     37926.35 
  906800    300.80654   -1510.3984    508.25798    354.48675    42.129878     37926.35 
  906900      298.334    -1505.016    495.67665    336.13674    151.78423     37926.35 
  907000    302.00913    -1537.318    488.49648     313.2293     413.7396     37926.35 
  907100    302.86441   -1506.9765    505.84141    364.77303    699.04589     37926.35 
  907200    302.47375   -1527.6506    489.84416    326.33982    379.80882     37926.35 
  907300    294.96293   -1553.3598     486.4905    263.40333   -26.967367     37926.35 
  907400    298.28155   -1533.3183     510.9959    322.91717    138.23682     37926.35 
  907500    300.44483   -1553.1252    517.80749    319.67814   -296.35109     37926.35 
  907600    303.15349   -1506.4338    499.00563    359.78367   -79.236812     37926.35 
  907700    303.15254   -1521.8631    511.62233     356.9668   -490.27292     37926.35 
  907800    304.35282   -1561.4851    496.22776    307.36347   -433.68296     37926.35 
  907900    299.32744   -1560.5144    496.39164     285.8337   -348.50813     37926.35 
  908000    303.59925   -1543.1065    526.55927    352.67495    217.59977     37926.35 
  908100    310.70805   -1526.4665    506.82455    381.64063     415.1828     37926.35 
  908200    296.16687   -1525.2023    489.51408    300.01419    544.89095     37926.35 
  908300    295.36845   -1518.2093    529.89974    343.79196    449.36466     37926.35 
  908400    286.24158   -1513.5138    528.19232    305.61821    448.32056     37926.35 
  908500    296.86169   -1520.4233    503.10159    321.51433   -221.12263     37926.35 
  908600    297.70502   -1522.7513    527.53267    347.42076    724.25058     37926.35 
  908700    295.90258    -1545.019    515.61226    305.10368   -52.923593     37926.35 
  908800    293.38584   -1534.1749    494.32631    283.31151    256.87818     37926.35 
  908900    297.36168    -1569.165     492.2602    264.18616   -282.62349     37926.35 
  909000    302.71727   -1529.5631    502.60929    338.29065   -73.818962     37926.35 
  909100     306.8087   -1518.5629    539.10647    404.24023   -45.301448     37926.35 
  909200    307.69221   -1552.6451    519.15939    354.19559    465.60441     37926.35 
  909300    298.59353   -1556.4644    497.67722    287.85941   -55.015268     37926.35 
  909400    298.16152   -1500.4996    503.05897    347.25759   -916.46914     37926.35 
  909500    312.64189   -1528.1283    507.48105    389.35691   -685.90399     37926.35 
  909600    290.10006   -1553.9673    484.21887    238.59288   -463.16759     37926.35 
  909700     302.4251   -1554.9957    510.15472    319.08583   -336.50303     37926.35 
  909800    291.25093    -1524.357    523.65301    312.82763    -473.9833     37926.35 
  909900    303.47264   -1516.6372    506.46144    358.47538    129.56692     37926.35 
  910000    295.16589   -1479.5277    493.93583    345.59609    116.11686     37926.35 
  910100    303.11263   -1557.9321    487.23685    296.33233   -100.09809     37926.35 
  910200    292.14242    -1526.859    504.92121    295.61445    290.28604     37926.35 
  910300    303.32914   -1535.5571    500.34319    332.79008   -248.33866     37926.35 
  910400    302.71869   -1519.8588    526.65931    372.05138    323.58447     37926.35 
  910500    294.00677   -1518.4812    511.55765    319.03686    184.16781     37926.35 
  910600     301.6726   -1495.8928     509.1842    373.82448    215.68983     37926.35 
  910700    298.60184   -1518.4735    500.59208    328.80263    333.32292     37926.35 
  910800     292.2828   -1520.7221    498.66837    296.13161    601.36663     37926.35 
  910900    306.50153   -1503.3444    500.85973    379.82665   -2.9634775     37926.35 
  911000    300.77105    -1519.569    514.35432    351.25245    210.22421     37926.35 
  911100      300.705   -1520.6294    497.67381     333.2136   -274.20881     37926.35 
  911200    309.59331   -1493.7786    499.73922    402.21583   -256.40934     37926.35 
  911300    300.68964   -1479.9532    534.98951    411.13628   -395.54315     37926.35 
  911400    296.80903   -1546.5923    526.52356    318.52972   -69.719296     37926.35 
  911500    302.71287   -1514.6002    496.69019    347.31462   -109.29095     37926.35 
  911600    288.30769   -1514.9839    528.33742     313.6113   -143.52449     37926.35 
  911700    305.98332   -1516.1968    509.21795    372.99539    470.37869     37926.35 
  911800    292.57476   -1500.5928    525.82604     344.7354    427.10214     37926.35 
  911900    309.83341   -1535.9083    498.85271    360.28247    11.956897     37926.35 
  912000    291.74878   -1562.9443    495.62506    248.45775   -164.81768     37926.35 
  912100    311.09369   -1530.9331    485.48068    357.56942   -39.902119     37926.35 
  912200     301.9341    -1491.392    516.57634    386.89681     2.482736     37926.35 
  912300    301.65758   -1500.8061    506.22083    365.88005   -755.98155     37926.35 
  912400    304.15383   -1505.1863    490.44968    356.98668    18.856714     37926.35 
  912500    296.67546   -1557.3275    523.27836    303.94703   -242.91934     37926.35 
  912600    306.50304    -1525.876    484.24985      340.692    430.76609     37926.35 
  912700    304.22774   -1481.4136    505.15315    395.79625    716.18687     37926.35 
  912800    300.01897   -1474.3455    522.61359    401.34329    764.29362     37926.35 
  912900    294.83794    -1511.715    503.77568    321.76965    448.94665     37926.35 
  913000     309.6762   -1502.1642     494.6995    389.16431    585.23852     37926.35 
  913100     295.6976   -1508.1599    511.81433    337.24048    492.02814     37926.35 
  913200     297.5754   -1511.2774     485.0011    315.77852   -41.670827     37926.35 
  913300    300.98273    -1527.641    500.92527      330.706   -25.100163     37926.35 
  913400    297.18432   -1503.5782    493.22386    329.93675    -743.9959     37926.35 
  913500    301.76987   -1514.2939    497.54987    344.22771   -755.94425     37926.35 
  913600    296.55315   -1530.0938    508.10073     315.4514   -515.42281     37926.35 
  913700    298.47939   -1480.8998    493.69096    358.92299   -84.764243     37926.35 
  913800    290.79128   -1493.8302    516.53788    334.16636    -160.8402     37926.35 
  913900    312.22668   -1501.4737    515.40765    422.06549    341.21501     37926.35 
  914000    292.52182   -1510.2955    506.34051    315.30833    335.46946     37926.35 
  914100    301.60681   -1528.2044    515.19665    347.22863    249.58076     37926.35 
  914200    293.38859   -1535.0979    522.48959    310.56411   -306.55087     37926.35 
  914300    303.02938   -1528.5755     498.6704    336.74699    499.50519     37926.35 
  914400    299.29102   -1528.8189    493.80204    314.77534    156.56321     37926.35 
  914500    308.11896   -1519.2733    502.51029    372.84287    202.54628     37926.35 
  914600    297.75758   -1511.3002    506.59082    338.16704    45.766003     37926.35 
  914700     309.6198   -1513.6284    511.01165     393.7579   -185.22128     37926.35 
  914800    295.88824   -1541.9915    504.01304    296.46735   -97.568958     37926.35 
  914900    309.67746   -1524.8656    490.40919    362.17831     253.6767     37926.35 
  915000    293.89217   -1591.4449    494.82846    228.82711   -202.18676     37926.35 
  915100    299.00344   -1551.5451    510.70611    307.65625    35.307484     37926.35 
  915200    302.99347   -1536.6635    488.96934      318.796    -435.4181     37926.35 
  915300    306.16696   -1530.0103    496.56499    347.35717   -325.82698     37926.35 
  915400    310.05414   -1556.2609    491.82762    333.90022    -18.07719     37926.35 
  915500    309.98848   -1575.8889     479.1749    301.32341    23.015329     37926.35 
  915600    307.36338   -1536.7538    498.41833    347.86281   -51.699106     37926.35 
  915700    296.53555   -1548.8306    489.82313    278.35768   -98.561629     37926.35 
  915800    297.80397      -1494.4    509.33434    358.01998    355.18768     37926.35 
  915900    302.28941   -1524.7932    492.28233    330.80398    10.400309     37926.35 
  916000    295.98918   -1519.9531    509.83255    324.78044    345.63071     37926.35 
  916100    308.88228   -1494.4971    491.19365    389.74506    276.72839     37926.35 
  916200    307.27676   -1505.1522    513.58104    394.23644   -151.76807     37926.35 
  916300    307.51713   -1535.4979    512.17279    363.56651   -116.09602     37926.35 
  916400    297.43386   -1507.8304    497.42901    331.01505   -50.049535     37926.35 
  916500    299.58103   -1534.8639    494.05448    310.29074   -1077.3625     37926.35 
  916600    301.37159   -1528.0901    494.11381     325.1992   -377.27449     37926.35 
  916700    283.24828   -1543.0224    454.21205    188.62968   -128.64326     37926.35 
  916800    301.79994   -1509.4182    497.04655    348.73573    268.73272     37926.35 
  916900     293.3529   -1521.4267    503.55351    305.13831    80.897677     37926.35 
  917000    306.63111   -1476.3463    527.93813    434.48756    353.87919     37926.35 
  917100    297.60538   -1459.3888    526.55892    409.36011    611.51965     37926.35 
  917200    294.85175   -1516.7189    486.98701    300.03934    383.08258     37926.35 
  917300    296.08244   -1468.5761    528.73767    395.48316    462.31718     37926.35 
  917400    293.10913   -1459.8809    517.68517    379.71633    220.72138     37926.35 
  917500    308.47877   -1467.9351    493.05048    416.34402   -462.94522     37926.35 
  917600    308.85651   -1493.3861    506.32616    405.87232   -721.40017     37926.35 
  917700    299.83881   -1476.6573    492.60836    368.21379   -566.74775     37926.35 
  917800    301.70943   -1493.7558    503.63268    370.57602   -579.88673     37926.35 
  917900    305.28116   -1468.0086    530.81999    439.61891   -318.47677     37926.35 
  918000    293.64903   -1472.5632     483.8623    335.64617   -217.66588     37926.35 
  918100     302.1534   -1503.8502    525.02753    383.87872   -473.46759     37926.35 
  918200    299.37383    -1511.837    506.68195    345.01063   -246.89151     37926.35 
  918300    311.33531   -1507.8664    504.64951    400.89469    47.975738     37926.35 
  918400    297.98804   -1476.2227    487.80851    355.50168   -2.8994507     37926.35 
  918500    306.43458   -1461.2247    511.85744    432.64214   -425.14383     37926.35 
  918600    304.70228   -1517.6682    506.39259    362.92116    13.321066     37926.35 
  918700    297.14857   -1478.8241    501.87565    363.18137    232.11883     37926.35 
  918800    287.01949   -1488.4308    514.05745    320.07464    394.19287     37926.35 
  918900    294.41455   -1457.7798     501.6181    371.63779    251.30564     37926.35 
  919000     307.6998   -1520.6726    505.31977    372.36274   -78.803696     37926.35 
  919100    285.49026   -1496.2451    528.94504    320.25123   -99.606754     37926.35 
  919200    307.65194   -1484.9658    509.71514    412.24895    162.58818     37926.35 
  919300    293.45609   -1499.5892     488.9197     312.8074   -576.58192     37926.35 
  919400    300.74304     -1472.71    515.44141     399.0722   -686.03137     37926.35 
  919500    297.71767   -1484.1616    506.97529    365.51016   -230.93224     37926.35 
  919600    300.68617   -1479.4674    509.40719    386.02409     -16.3952     37926.35 
  919700    294.06034   -1506.9605    497.35464    316.59614    74.898169     37926.35 
  919800     296.3055   -1553.1979    516.23744    299.36715   -5.9066967     37926.35 
  919900    296.94799    -1529.036    499.78622    309.97544    118.32342     37926.35 
  920000    308.36737   -1523.8097    504.87851    371.79504    416.67859     37926.35 
  920100    293.06058   -1550.0945    474.24361    245.84218   -207.02241     37926.35 
  920200    306.68355   -1540.9769    527.75603    369.91136   -264.01215     37926.35 
  920300     299.1917   -1508.4428    515.60526    356.50673    15.894878     37926.35 
  920400    304.95982   -1500.5086    489.66633    364.51601   -334.06236     37926.35 
  920500    310.65875   -1515.8639    504.98094    390.17734   -513.36527     37926.35 
  920600    298.94896    -1468.107    517.74079    397.88331    -390.1544     37926.35 
  920700    309.04016   -1486.3305     500.9884    408.41842   -612.31167     37926.35 
  920800    294.54749   -1521.7208    464.46749    271.14575    6.3110112     37926.35 
  920900    299.54791   -1497.1724    548.75338    402.53179    247.93636     37926.35 
  921000    293.55289   -1543.9841    497.82097    277.75033    106.41015     37926.35 
  921100     300.4418   -1531.8547    492.73981     315.8673    681.86894     37926.35 
  921200    306.76404   -1552.0094    518.51413    349.99996    766.13107     37926.35 
  921300    305.52696   -1546.7776     506.5743    337.71278    841.83332     37926.35 
  921400    296.03422   -1534.0797    499.77604    300.80045    95.212838     37926.35 
  921500    292.85323    -1564.413    497.26511    253.61012    310.40318     37926.35 
  921600    305.52145   -1505.8461    507.17762    379.22272     173.7867     37926.35 
  921700      294.594   -1534.9376    501.52816    295.19935    -64.36726     37926.35 
  921800     301.8135   -1533.8698    496.39533     323.6941    126.94473     37926.35 
  921900    293.66335   -1524.8735    510.46537    310.00346    519.56074     37926.35 
  922000    293.67077   -1518.3746    502.50106    308.57155    500.82992     37926.35 
  922100    308.31279   -1538.4915    507.23512    359.22374    985.65613     37926.35 
  922200    302.92816   -1524.0825    489.59848    331.71159    829.13279     37926.35 
  922300    304.08753   -1501.5631    479.65941    349.52059   -7.3415855     37926.35 
  922400    300.35099   -1514.3254    501.63308    341.88029    529.29045     37926.35 
  922500    297.85985   -1534.8854    476.61351    285.06575    166.63466     37926.35 
  922600    310.43513   -1513.0486    513.22843    400.23161    626.69861     37926.35 
  922700    295.89105   -1517.2769    501.10913    318.29072    489.05518     37926.35 
  922800    294.25939   -1474.6013    498.13594    350.63434   -287.51619     37926.35 
  922900     292.7166   -1473.4004    511.24927    357.99067   -175.15845     37926.35 
  923000    297.90818   -1454.4294    512.51606    401.64234   -409.81838     37926.35 
  923100    301.12628   -1522.6801    502.57035    337.95937   -191.81263     37926.35 
  923200     304.1372    -1536.134    503.29588    338.81023   -261.42705     37926.35 
  923300    303.74631   -1500.2097    476.42704    346.10278   -137.57628     37926.35 
  923400    304.61252   -1512.8053    498.35538    359.34207   -572.41944     37926.35 
  923500    292.66313   -1496.4972     493.3885    316.79198   -653.87209     37926.35 
  923600     307.0877   -1470.1365     508.0588    422.87731   -256.33861     37926.35 
  923700    297.38288   -1464.8117    527.87218    404.24708   -66.000759     37926.35 
  923800    297.28759   -1451.4916    509.21299    398.47819   -151.95724     37926.35 
  923900     303.0369   -1460.9429    520.38373    426.12679    152.31557     37926.35 
  924000    301.78528   -1539.5956    510.20026    331.64584    -556.3524     37926.35 
  924100    292.00404   -1487.3202    485.04555    314.65349   -132.59004     37926.35 
  924200    314.10918   -1484.5395    505.71924    437.80138    66.624167     37926.35 
  924300    307.05837    -1532.441    474.09132    326.47302   -626.10328     37926.35 
  924400    297.57355   -1457.2084     504.3806    389.21863    104.03387     37926.35 
  924500    307.59793   -1497.3154    510.97277    400.91345   -37.721712     37926.35 
  924600    303.43879   -1488.4655    492.32705    372.36006   -355.10305     37926.35 
  924700    298.32631   -1486.3028     524.1523     383.2909   -1196.8202     37926.35 
  924800    306.13641   -1459.6678    513.37254    434.36944   -510.37286     37926.35 
  924900    290.83644   -1480.4851    487.71755    318.89482   -492.96332     37926.35 
  925000    305.47642   -1489.3493    530.03831    418.37714   -467.30505     37926.35 
  925100    300.71634   -1518.0296    492.13725    330.32805   -750.15419     37926.35 
  925200    319.19873   -1514.0046    499.37095    424.94165   -367.95467     37926.35 
  925300    298.45372   -1544.0139    511.12045    313.12257    -456.2074     37926.35 
  925400    288.54198   -1498.6857    529.10531    331.73403    18.923702     37926.35 
  925500    306.91802    -1510.136    485.86501    359.91869    541.05882     37926.35 
  925600    292.34269   -1485.2385    520.09727    353.31425   -91.172904     37926.35 
  925700    310.15055   -1484.6631    517.45197    431.55717   -448.87234     37926.35 
  925800    300.10707   -1488.2108    518.19933    383.46107   -568.82212     37926.35 
  925900    310.44261   -1468.6346    514.11392    445.56488    -339.6073     37926.35 
  926000    301.98063   -1482.7827    531.86627    411.00578   -668.96356     37926.35 
  926100    293.90842   -1513.3678    505.49617    317.64524   -1079.8283     37926.35 
  926200    300.08283   -1492.4335    492.73961    353.66942    -508.2218     37926.35 
  926300    293.38475   -1490.7061    497.53677    329.98582    -613.1019     37926.35 
  926400    302.20302    -1506.323    480.02538    336.62755   -698.12181     37926.35 
  926500    299.39593   -1495.8491    518.65078    373.06697  -0.71968342     37926.35 
  926600    291.14711   -1478.7304    525.53874    359.87176   -175.39538     37926.35 
  926700    314.20452     -1479.64    506.15508     443.5667    112.16843     37926.35 
  926800    308.56437   -1493.3464    509.31365    407.58196    205.75293     37926.35 
  926900    287.78255   -1511.0418    513.91519    300.76281   -26.933903     37926.35 
  927000    306.77982   -1479.9812    485.54188    389.12713    409.93131     37926.35 
  927100     300.3202   -1525.7894    484.42953     313.0739     378.6186     37926.35 
  927200    288.39012   -1524.9694    504.95371    280.61384    147.70168     37926.35 
  927300    308.58648   -1508.9471    488.52153    371.28882   -293.57447     37926.35 
  927400    297.63383   -1484.3748    487.86251    345.80604    309.29459     37926.35 
  927500    305.83473   -1479.8272    517.70753    417.18445    164.71943     37926.35 
  927600    294.53901   -1525.5422    502.39651    305.21505    -136.5593     37926.35 
  927700    304.77954   -1495.9173    501.43223    380.06018    184.37969     37926.35 
  927800    289.50373   -1490.2616    500.60053    315.99073   -21.176897     37926.35 
  927900    302.55394    -1487.695    529.04596     405.8588   -227.23406     37926.35 
  928000    302.40346   -1426.5537    527.77542    465.05096    102.49325     37926.35 
  928100    286.17691   -1468.3253    497.55051    319.87319    94.466173     37926.35 
  928200    293.50938    -1454.923    518.90114    387.69534    337.97216     37926.35 
  928300    297.69246   -1420.4493    505.16793    427.30142    689.97051     37926.35 
  928400    298.45244   -1504.6563    540.64792    382.00183    718.02386     37926.35 
  928500    297.89196   -1516.4793    505.47298    332.47621    408.47604     37926.35 
  928600    300.53362   -1490.9356    506.13888    370.59951    403.32404     37926.35 
  928700    295.39574   -1491.7516    487.15834    327.63137   -715.94665     37926.35 
  928800    311.42648   -1474.4596    509.67468    439.73778   -281.85894     37926.35 
  928900    314.86966   -1450.8317    483.98758    453.20728   -400.53803     37926.35 
  929000    301.42531   -1468.7478      493.512    384.18201   -103.61292     37926.35 
  929100    297.52824   -1475.3464    504.44192    370.93767    420.95303     37926.35 
  929200    301.10872    -1514.051    528.11903    372.05799    163.78183     37926.35 
  929300    301.53329   -1493.0273    518.49891    385.37639    215.94923     37926.35 
  929400     305.1528    -1496.938    492.13724    371.42781    130.46156     37926.35 
  929500    298.10918   -1503.4315    493.72372    334.75433    -130.8629     37926.35 
  929600    298.39629   -1507.6485    497.18767    335.29613    1250.1225     37926.35 
  929700     296.3367   -1472.7577     531.2622    394.97279      310.589     37926.35 
  929800     306.5579   -1508.3798    491.77279    365.95856    1308.7231     37926.35 
  929900    299.88137   -1489.5682    515.55593     378.4424    619.51331     37926.35 
  930000    300.50347   -1491.1666    518.26689    382.36063    241.00005     37926.35 
  930100    304.95382   -1483.9504    478.10766    369.48844   -161.06507     37926.35 
  930200    297.23337   -1512.9186    493.94428    321.53792    -156.9796     37926.35 
  930300    299.81152   -1468.3883    514.43062    398.18196    444.80906     37926.35 
  930400    301.09216   -1513.3706    495.92213     340.4668   -472.40463     37926.35 
  930500    307.51917   -1479.9312    478.63787     385.6076    299.45367     37926.35 
  930600    292.15102   -1463.4971    524.86349    378.95743   -551.51072     37926.35 
  930700    297.07102   -1459.2714    502.84765    383.35634   -291.66798     37926.35 
  930800    305.44321   -1487.1036    488.12378    378.55854    182.97493     37926.35 
  930900    298.87398   -1465.5289     498.3997    380.78218   -238.47988     37926.35 
  931000     305.0957   -1443.5814    482.40916    414.79887    126.38801     37926.35 
  931100    300.96917   -1476.2199    511.07673    392.21743     100.9924     37926.35 
  931200    298.37153   -1514.1099    495.75553    327.29101    45.859358     37926.35 
  931300    289.63426   -1487.7809    487.88916    306.34883    35.435925     37926.35 
  931400    292.82345   -1469.8591    519.08284    369.84743   -348.51165     37926.35 
  931500    304.45626   -1468.3305     488.2291    392.98586    278.04015     37926.35 
  931600    310.90596   -1487.1398    501.36932    416.40468    50.890721     37926.35 
  931700    299.14196    -1497.777    506.18216    357.52509   -343.52946     37926.35 
  931800    296.08752   -1483.6167    484.48123    336.20902   -621.42074     37926.35 
  931900    292.80289   -1461.2938    491.33236    350.56954   -322.48941     37926.35 
  932000    293.78979    -1487.515    481.04921     318.5161   -133.05033     37926.35 
  932100    311.17975   -1517.9594    509.29714    394.74774    1.3641433     37926.35 
  932200    309.44543   -1526.1086    513.68516    383.16483   -348.27674     37926.35 
  932300    302.79751   -1486.6855    495.15233    374.07317     13.86096     37926.35 
  932400    305.15193   -1489.3693    503.80354    390.65898    -110.1278     37926.35 
  932500    303.39643   -1481.2329    498.04991    385.12446    299.83616     37926.35 
  932600    298.87569   -1513.8068    480.10251    314.21479    492.04886     37926.35 
  932700    285.14535   -1501.4467    501.39811    285.94714    532.62796     37926.35 
  932800    299.64398   -1490.5853    499.11014    359.90894   -52.172729     37926.35 
  932900    291.10688   -1439.4812    506.50522    379.90607   -198.28836     37926.35 
  933000    292.35781   -1500.5291    503.95496    321.94949    359.46066     37926.35 
  933100    296.51918   -1451.8018     516.6024    402.09187    25.106118     37926.35 
  933200     293.6699   -1495.5905    521.22993    350.08057    385.49074     37926.35 
  933300    309.03108   -1507.0451    482.78038    369.45482   -219.29897     37926.35 
  933400    301.11279   -1479.9282    505.33849     383.4186   -320.15896     37926.35 
  933500    294.71542   -1483.9087    471.69961    316.94728   -459.70811     37926.35 
  933600    304.85262   -1473.2787    508.88291    410.47908   -718.64147     37926.35 
  933700    292.73435    -1476.995    500.40453    343.63143   -415.00951     37926.35 
  933800    303.25114   -1511.4407    515.41273    371.62422   -145.56021     37926.35 
  933900    285.81505   -1487.9129    475.09269    276.19584   -298.65072     37926.35 
  934000    299.02922   -1469.6568    493.81731    372.77205   -490.85496     37926.35 
  934100    306.58846   -1464.7768    513.71443    431.64105    275.11312     37926.35 
  934200    294.39269   -1514.9452    490.84949    303.60519    356.13062     37926.35 
  934300    299.64926   -1490.7428    503.42525    364.09036    21.385852     37926.35 
  934400    303.31574   -1453.4319    521.62559    436.13723    561.12213     37926.35 
  934500    297.41321   -1449.0173    522.39415    414.70019    116.98145     37926.35 
  934600    310.34633   -1474.7414    490.61984    415.52978   -249.17595     37926.35 
  934700    296.18126   -1508.9899    504.97921    331.75664    237.23161     37926.35 
  934800    297.96363   -1475.8663    512.22241     380.1618    18.241576     37926.35 
  934900     303.8768   -1481.6849    495.21482    384.00382    69.556434     37926.35 
  935000     303.7812    -1473.228    521.93042    418.74518   -116.31669     37926.35 
  935100     299.0182   -1480.9617    485.15095    352.75105    77.713829     37926.35 
  935200    300.58431   -1456.2864    509.22515    408.56362   -107.19085     37926.35 
  935300    293.39887   -1475.9993    482.77971    329.99923   -214.82064     37926.35 
  935400    303.08776   -1466.4062     536.9612    437.47036   -536.49955     37926.35 
  935500    294.28939   -1505.2705    466.55472    288.51922   -518.84055     37926.35 
  935600    298.38481   -1504.1023    486.11904      327.722    249.15546     37926.35 
  935700    287.17006   -1478.7228     502.6829    319.08714    12.880461     37926.35 
  935800    307.27509   -1480.3772     511.4745    416.89737    406.89434     37926.35 
  935900    308.64317   -1528.1184    494.31515    358.16689    265.73406     37926.35 
  936000    301.62306   -1478.1603    491.36812     373.5175    300.65878     37926.35 
  936100     303.2558   -1494.6809     491.3113    364.30362   -627.54251     37926.35 
  936200    299.85543   -1489.2925    515.94667    378.99186   -704.08162     37926.35 
  936300    303.28488   -1526.8255    500.25863    341.23752   -174.09739     37926.35 
  936400    305.68544   -1482.1827    524.29413    420.74221     -273.386     37926.35 
  936500    297.25174   -1511.8229    473.28611    302.05836   -520.99655     37926.35 
  936600    292.62134   -1521.4272    502.13566    300.42063   -898.54446     37926.35 
  936700    296.05841   -1539.1611    473.75688    269.80908    -482.9738     37926.35 
  936800    296.90816   -1558.5284     475.4811    255.99828   -390.16432     37926.35 
  936900    308.07148    -1514.799    512.54748    387.14023   -217.01099     37926.35 
  937000    308.98827   -1517.9411    497.18359    372.76899   -500.08756     37926.35 
  937100    293.77718   -1517.2835    534.08248    341.72393  -0.66888358     37926.35 
  937200    302.57034   -1512.2513    498.99699    351.32756    289.23788     37926.35 
  937300    299.99617   -1509.2488    523.52406     367.2477    36.911908     37926.35 
  937400    305.92466   -1548.0991    503.03868    334.64929   -248.90209     37926.35 
  937500    287.59625   -1576.1673     492.1465    213.02836     342.5025     37926.35 
  937600    303.97741   -1523.8162    537.33974    384.45121   -113.99472     37926.35 
  937700    300.19474   -1556.9138    461.52111    258.47524    525.39878     37926.35 
  937800    293.42286   -1513.9439    534.10714    343.49021    856.19338     37926.35 
  937900    294.64937   -1526.2309    486.41669    289.04435    1003.6086     37926.35 
  938000    298.79838   -1526.0071    525.54017    347.10345    342.22845     37926.35 
  938100    302.29418   -1510.4738    480.53895    333.40149   -357.49612     37926.35 
  938200    293.33162   -1475.4989    499.53295    346.94957   -58.715537     37926.35 
  938300    291.14146    -1479.075    500.92363    334.88658     49.52897     37926.35 
  938400    288.19519   -1510.1727    509.81441    299.39209     1.527979     37926.35 
  938500      308.939   -1515.2813    489.74677    367.76976    687.70636     37926.35 
  938600    296.80769   -1518.0348    513.79653    334.35421    186.34624     37926.35 
  938700    302.51768   -1506.7479    498.72138    356.31777     243.3866     37926.35 
  938800     308.0167   -1544.5953    487.19057    331.74005     -60.3192     37926.35 
  938900     301.1893   -1538.2155    511.32316    331.46108    250.09466     37926.35 
  939000    299.36662   -1530.0991    494.50825    314.54236    265.13901     37926.35 
  939100    305.09085   -1544.3583    483.27501     314.8659   -41.235339     37926.35 
  939200    304.41962    -1521.953    502.89985    353.86885   -341.42001     37926.35 
  939300    291.17917   -1494.3101    471.03243    289.93037    -546.1955     37926.35 
  939400     310.6236   -1530.0251     497.6068    368.48345   -91.463738     37926.35 
  939500    301.06955   -1505.2778    477.91486    330.45035    133.55072     37926.35 
  939600    303.68442   -1524.9121    485.81483      330.509    235.80359     37926.35 
  939700     292.4566   -1564.7574    482.18235    236.39415   -164.08813     37926.35 
  939800    302.92681   -1500.7309    504.57117    370.02975   -18.281273     37926.35 
  939900    303.29777   -1513.2275    482.29852    336.93351    490.60528     37926.35 
  940000    299.06135    -1519.423    470.08395    299.41732    264.17023     37926.35 
  940100    308.62264   -1540.6858    486.16025    337.35194      492.417     37926.35 
  940200    297.92623   -1536.9656    518.00255    324.67394    439.60175     37926.35 
  940300    295.00807    -1531.169    494.00533    293.31258    611.52003     37926.35 
  940400    295.74591   -1525.4292    495.19491    303.56956    500.16069     37926.35 
  940500    298.70522   -1547.0288    492.57438    292.69591    583.43586     37926.35 
  940600    298.99138    -1603.412    489.80096    234.82982    353.60752     37926.35 
  940700    295.13722   -1579.3182    514.85614    266.59664   -154.71183     37926.35 
  940800    296.25028   -1535.6482    484.29786    284.72821   -786.79715     37926.35 
  940900    302.58858   -1536.6289    478.01158     306.0468   -94.876203     37926.35 
  941000    295.85588   -1555.2502    487.61992    266.66953   -237.21374     37926.35 
  941100    301.12834    -1537.951    529.75368    349.88109   -88.420876     37926.35 
  941200    295.01233   -1552.0068    452.71794    231.20658    381.80942     37926.35 
  941300     296.3159   -1560.8717    480.80765    256.31047   -449.55161     37926.35 
  941400    297.63613   -1605.5243    487.40821    224.21259   -44.369829     37926.35 
  941500    305.69031   -1564.0751    519.37438    333.95211    277.18612     37926.35 
  941600    295.52742   -1531.3131    513.25535    314.76078    279.51661     37926.35 
  941700    294.58721   -1509.5306    484.31552    303.36306    640.81511     37926.35 
  941800    311.89103   -1547.7718    490.40843    349.25449    207.36641     37926.35 
  941900    305.31382   -1552.6911    463.54115    287.80488   -49.167496     37926.35 
  942000    300.73459   -1597.8059    479.30878    237.80551   -546.35682     37926.35 
  942100    297.14439   -1579.7726    492.37986    252.71821    -267.1894     37926.35 
  942200    295.37169   -1575.1541    495.27859    252.24064   -304.41798     37926.35 
  942300    306.54506   -1550.6248    471.62119    303.50401   -371.75856     37926.35 
  942400    299.12112   -1516.0826    490.76848    323.71187   -4.7244948     37926.35 
  942500    303.49964   -1577.5348    475.93854    267.17671   -234.83126     37926.35 
  942600    288.79987   -1539.7871    508.47329    271.16371   -172.90969     37926.35 
  942700    297.61389   -1507.7665     521.1831    355.64497   -195.06771     37926.35 
  942800    297.87153   -1527.5482    500.11675    315.95893   -1101.3253     37926.35 
  942900    286.13391   -1467.0796    466.03912    289.41365   -832.65679     37926.35 
  943000    294.75389   -1492.2897    533.58175    370.62196   -476.82394     37926.35 
  943100    294.26337   -1496.7553    487.68759       318.05   -185.68726     37926.35 
  943200    302.97531   -1521.0421    480.49026    325.85641    205.74822     37926.35 
  943300    295.80763   -1497.6807    496.56344      332.965     565.2264     37926.35 
  943400    296.01006    -1501.725    510.70015    343.97034    211.95549     37926.35 
  943500     298.5595   -1507.6938    488.81198    327.61123    532.55273     37926.35 
  943600    300.72215   -1534.3747    503.79593    325.66776    1169.9185     37926.35 
  943700    283.91363   -1513.8737    495.28201    261.84903    329.38097     37926.35 
  943800    301.30566    -1526.483    525.61648    358.01163    481.32236     37926.35 
  943900    297.56303   -1522.6538    463.50362    282.84889      841.007     37926.35 
  944000    300.94924   -1496.9168    523.82755    384.18149    859.26828     37926.35 
  944100    299.02988   -1488.9265    477.88704    337.57499    706.89908     37926.35 
  944200     306.8601   -1453.8228    490.50569    420.61137    572.21426     37926.35 
  944300    298.48836   -1463.8326    495.32169    377.66137     809.1718     37926.35 
  944400    306.12304   -1530.7738     494.0217    343.85229    579.78535     37926.35 
  944500    292.81625   -1492.6457    462.84319    290.78873    132.27062     37926.35 
  944600    296.67252   -1455.8856    481.59841    363.69563    16.810433     37926.35 
  944700    290.74843   -1479.9325    490.57433    321.90731   -262.83018     37926.35 
  944800     286.6169   -1512.5997    495.74125    275.77389   -30.231531     37926.35 
  944900    297.54713   -1525.9219    487.94377    303.94919    61.474298     37926.35 
  945000    306.92942   -1519.4889    500.50975    365.26196    584.52211     37926.35 
  945100    315.37317   -1498.7913    469.18718    392.71798     659.0478     37926.35 
  945200    298.23863   -1523.0186    481.47848    303.50586    233.78423     37926.35 
  945300    297.61554   -1498.4937    496.25057     339.9927    635.44338     37926.35 
  945400    291.86502   -1471.0288    502.87036    348.14274    439.45288     37926.35 
  945500    287.16582   -1486.0276    487.73408    296.81444    108.74142     37926.35 
  945600    289.09047   -1478.4805    519.91792    345.22547   -436.41334     37926.35 
  945700     305.5273   -1525.7971    479.34134    331.46182   -232.77694     37926.35 
  945800    301.79816   -1490.7197      468.353    338.73267    415.09169     37926.35 
  945900    307.90092   -1499.1238    477.27238    366.77113    322.12183     37926.35 
  946000    300.51606   -1500.7535    502.40226    356.96583     158.1039     37926.35 
  946100    305.01861   -1487.7905    483.77859    371.61158    340.11132     37926.35 
  946200     298.6503   -1550.9189    487.44295    283.42659   -155.17556     37926.35 
  946300    297.57654   -1500.5517    465.86683    307.37511    316.99156     37926.35 
  946400    305.21624   -1531.5307    473.47521    318.45924    46.134614     37926.35 
  946500    298.11257   -1550.8419    459.83303    253.46857   -354.08185     37926.35 
  946600    304.69492   -1503.8371    480.83655    351.16304    -630.6471     37926.35 
  946700    289.26927   -1514.9809    493.21449    282.82808   -546.90678     37926.35 
  946800    293.60602   -1476.9078    483.24165    330.48694    343.07321     37926.35 
  946900    293.00103   -1514.6887    497.09175     303.8276    320.94218     37926.35 
  947000    305.01476   -1467.2075    495.95167    404.35025     371.0714     37926.35 
  947100    308.29412   -1480.4595    519.96288    429.89928    561.21172     37926.35 
  947200    300.18349   -1462.0498      513.173     404.9404   -382.00372     37926.35 
  947300    299.58102   -1470.5983    469.16267    349.66444   -303.90207     37926.35 
  947400    290.25689     -1501.37     466.6558    274.33439   -543.32664     37926.35 
  947500     306.3246   -1515.7602    483.09535    348.84852   -434.53263     37926.35 
  947600    298.00563   -1473.2189    500.63107    371.40732    301.40292     37926.35 
  947700    290.18689   -1515.0686    480.10045    273.76478    777.49891     37926.35 
  947800    300.09212   -1494.8199     485.6239    344.20911    767.33747     37926.35 
  947900    300.95257   -1506.3096     488.0682     339.0443    354.39662     37926.35 
  948000    298.89436   -1501.2137    508.09014    354.87973   -139.09378     37926.35 
  948100    289.27059   -1510.8721    487.96396    281.69228   -529.27334     37926.35 
  948200    310.52044   -1529.9187    463.17012    333.68794   -159.40296     37926.35 
  948300    305.23285    -1475.841    491.53505     392.2837   -282.54992     37926.35 
  948400    302.17843   -1527.3238    472.16847    307.65896     27.85939     37926.35 
  948500    302.70489   -1509.0553    504.03006    360.16341    196.91529     37926.35 
  948600    300.67403    -1478.685    482.27457    359.61916    -26.67972     37926.35 
  948700    297.35322   -1513.7399    481.60919    308.92213    -148.3958     37926.35 
  948800    300.81566   -1468.8312     490.2016    378.03866    432.18276     37926.35 
  948900     288.4954   -1476.5764    489.70537     314.2333    560.41069     37926.35 
  949000    298.06865   -1432.8629    485.75962    397.17606    1162.3316     37926.35 
  949100    296.54327   -1421.8734    482.59689    398.12346    603.16949     37926.35 
  949200    298.07387   -1428.8783    484.65929    400.08391    205.94051     37926.35 
  949300    304.86399   -1426.2903    467.14628    415.78215    -312.8223     37926.35 
  949400    312.02109   -1448.0009    484.26363    443.46708   -594.65787     37926.35 
  949500    302.10487   -1443.5641    509.25524    428.17372   -783.53715     37926.35 
  949600    297.94129   -1428.6818    487.97744    403.00058   -621.17656     37926.35 
  949700    298.06556   -1478.9904    480.65246    345.92748    79.997542     37926.35 
  949800    296.96776   -1468.2857    491.63299    362.66171   -423.46748     37926.35 
  949900    295.95134   -1452.9251    513.87623    395.68149   -703.45735     37926.35 
  950000    308.06675   -1464.0372    491.72291     417.0562   -227.85351     37926.35 
  950100    307.06308   -1484.2496    479.54776    380.14207   -286.36473     37926.35 
  950200    309.80028   -1500.6557    477.80175    374.33463   -196.56174     37926.35 
  950300    300.66564   -1490.0654    496.26287    362.18922    435.70019     37926.35 
  950400    302.61874   -1508.3924    479.26642    335.67409     438.9074     37926.35 
  950500    298.87543   -1472.5347    509.51108    384.89427    876.05363     37926.35 
  950600    297.97852   -1451.0747     490.0305    382.82863    743.07003     37926.35 
  950700    293.96858   -1483.2276    489.76015    332.32076       690.87     37926.35 
  950800    306.60839   -1507.2326     498.5102    374.07094    481.26814     37926.35 
  950900    290.70099   -1408.1676    492.30852    395.19236    198.04345     37926.35 
  951000    295.34869   -1456.7317    475.70142    350.98221    137.05424     37926.35 
  951100     293.9119    -1499.234      491.051    317.34954   -92.528166     37926.35 
  951200    305.67222   -1492.4234    494.44286    380.59064     248.6072     37926.35 
  951300    295.21233   -1485.2592    481.09976    327.23805    151.49936     37926.35 
  951400    309.48241   -1477.0175    477.70916    396.44664   -13.597795     37926.35 
  951500    309.06177   -1427.3461    498.76428    465.27618    9.9034139     37926.35 
  951600    303.55687   -1426.3411    499.56868    442.25858    290.30575     37926.35 
  951700    300.94484   -1451.4265    451.22573    357.05009   -29.053916     37926.35 
  951800    291.14658   -1466.2477     485.6432    332.45658    36.604482     37926.35 
  951900    295.39705   -1459.8625    484.55085    356.91886   -147.55574     37926.35 
  952000    294.35542   -1462.0799    479.14508    344.59797   -127.07318     37926.35 
  952100    307.47412    -1482.011    496.30626    400.99292   -307.72108     37926.35 
  952200    296.77549   -1463.8093    453.34445    327.98237   -592.32697     37926.35 
  952300     298.4522   -1466.3382    469.06436    348.73526   -159.06889     37926.35 
  952400    287.82621   -1471.1699    481.77105    308.68745    -578.5102     37926.35 
  952500    310.16524   -1485.4271     475.6033    389.01075   -13.865425     37926.35 
  952600     299.8304   -1500.5711    483.29776    334.95139   -289.94968     37926.35 
  952700    294.11385   -1480.0562    507.35027    353.73737   -775.90381     37926.35 
  952800    292.63009   -1415.0131    482.20427    386.94278   -1121.7133     37926.35 
  952900    302.88524   -1489.1777    488.77956    365.60389   -1021.9255     37926.35 
  953000    304.46413   -1460.3948    463.24854    375.97655   -1099.6015     37926.35 
  953100    307.58102    -1453.403    487.06365     420.8405   -482.32738     37926.35 
  953200    308.48352    -1384.815    495.17088    501.60597     185.1172     37926.35 
  953300    304.43477    -1411.397    471.89717    433.49047    251.91932     37926.35 
  953400    304.37329   -1463.1815    492.50803     402.0396    374.48183     37926.35 
  953500    306.10813    -1444.117    484.69363    421.11372    303.88136     37926.35 
  953600    295.80366   -1465.1413    520.15353    389.07656    92.551027     37926.35 
  953700    290.59407    -1426.606    506.36744     390.3307    83.707141     37926.35 
  953800    299.46568   -1454.3563    472.13966    368.36326   -303.30873     37926.35 
  953900    299.66014   -1471.9607    504.93747    384.43367    279.47183     37926.35 
  954000     289.0329   -1478.1682    457.05337    282.41357    199.61289     37926.35 
  954100    307.02731   -1481.7969    504.88345     407.7692    -322.1046     37926.35 
  954200    308.35711   -1468.9425    469.57046    391.30794   -95.161415     37926.35 
  954300    301.09483   -1481.3864    509.51562    386.05653    459.68156     37926.35 
  954400    307.02825    -1487.202    477.69391    375.17878    337.09195     37926.35 
  954500    301.39844   -1505.1534    487.31796    341.46116    356.70542     37926.35 
  954600    303.03806   -1526.3638    494.87805    335.20546    349.61241     37926.35 
  954700    281.52563   -1522.6516    477.44565    224.46497    65.064231     37926.35 
  954800    301.28548   -1437.2561    500.84075    422.37184    89.461092     37926.35 
  954900    293.69073   -1455.2904    479.06219    348.30684    100.54812     37926.35 
  955000    301.69609   -1430.8112    494.01808     423.8459   -189.52568     37926.35 
  955100    305.68656   -1435.5377    478.07183    421.16997    514.65123     37926.35 
  955200      295.125   -1412.0217    502.33729    421.31912    752.00666     37926.35 
  955300     299.8734   -1442.3864    489.72139    399.75373    918.43329     37926.35 
  955400      298.349   -1454.5397    484.08267    375.08672    577.78636     37926.35 
  955500    299.24372   -1478.6324    500.01668    370.96314    209.25681     37926.35 
  955600    290.50161   -1458.0328    473.40296    325.52238    13.951282     37926.35 
  955700     292.0913   -1446.0187     480.3328    351.63582    95.965262     37926.35 
  955800    299.95583   -1493.8394    484.73908    343.69015   -127.64879     37926.35 
  955900    308.20815   -1480.1582    527.32714     437.1771    299.69296     37926.35 
  956000    308.20887   -1499.3726    498.74293    389.38175   -329.50898     37926.35 
  956100    293.70206   -1492.1451    493.30342    325.74446   -510.52219     37926.35 
  956200     292.2384   -1481.2551     507.5746    344.30468   -19.961735     37926.35 
  956300    295.09942   -1487.2621    523.90738    367.53353    498.87225     37926.35 
  956400    298.30897   -1502.6596    477.92282    320.62641    631.53419     37926.35 
  956500    298.42402   -1506.7308    492.80834    331.95959    278.96019     37926.35 
  956600    299.49754   -1505.1437    477.50127    323.08121   -755.95766     37926.35 
  956700    313.52585   -1466.3923    468.83384    416.43228   -716.16219     37926.35 
  956800    296.38428   -1468.9979    489.99318    357.67824   -393.03991     37926.35 
  956900    304.84384   -1442.9776    500.00844    431.86612   -216.44444     37926.35 
  957000    304.66138   -1463.6773    510.04562    420.38074   -571.12991     37926.35 
  957100    298.66836    -1457.302     495.9025    385.58452   -852.77131     37926.35 
  957200    297.64442   -1442.6304    490.28825    390.02391   -239.69686     37926.35 
  957300    304.50069   -1457.2104    488.92512    405.00235   -327.53372     37926.35 
  957400    304.23853   -1490.2169    500.34449     382.2329   -426.50055     37926.35 
  957500    304.35181   -1516.6962    479.36926    335.28927   -136.26887     37926.35 
  957600    297.87857   -1493.9418    462.39012    311.87048   -836.40657     37926.35 
  957700    303.59147   -1520.1902    510.26895    359.26578   -100.72795     37926.35 
  957800    301.39168   -1479.0387    489.90207    370.12942    168.44116     37926.35 
  957900     300.9822   -1494.4089     495.6302    358.64068   -233.21532     37926.35 
  958000    304.53655   -1506.8158    485.77572    352.40928   -548.42038     37926.35 
  958100     295.5371   -1463.6861    476.75703    345.93307   -275.20666     37926.35 
  958200    300.92518   -1465.9386    467.72028     358.9439   -94.259519     37926.35 
  958300    299.23546   -1456.9318    494.26817    386.87795    168.34583     37926.35 
  958400    298.98594    -1470.698     498.0487    375.76704    935.80112     37926.35 
  958500    303.31323   -1526.2547    483.53646    325.21404    602.80439     37926.35 
  958600    302.19639   -1504.6562     511.8781    370.11727    439.99761     37926.35 
  958700    291.24207   -1500.1789    482.19342    295.50618    -163.3974     37926.35 
  958800     303.4424   -1492.9608    507.94184    383.49586    598.08036     37926.35 
  958900     299.3029   -1443.9894    496.13361    401.98996    500.26233     37926.35 
  959000    304.50545   -1485.6172    487.01098    374.70289    917.68455     37926.35 
  959100    295.37596   -1501.6426    487.92126    318.41411   -149.10258     37926.35 
  959200    289.65886   -1489.2381    491.68443    308.79783    12.097421     37926.35 
  959300    297.46494   -1450.8193     492.2578    382.99515    353.38178     37926.35 
  959400     303.3535   -1433.4643    527.98572    462.63523    735.76211     37926.35 
  959500    300.59785   -1507.0549     489.4603    338.09135    204.53575     37926.35 
  959600    307.19274   -1508.6622    518.97198     395.7384    384.98489     37926.35 
  959700    291.37031   -1539.0691    468.53596    243.53694    1196.7774     37926.35 
  959800    306.83377   -1526.9349     501.4462    358.32107    586.54956     37926.35 
  959900    299.92896   -1491.0663    497.43734    359.04034    179.79274     37926.35 
  960000    296.75299   -1485.1273    503.71836    356.93689   -196.06447     37926.35 
  960100    295.08126   -1467.1802    483.57425    347.20034   -271.03793     37926.35 
  960200    298.43273   -1469.5104    514.16618    390.57716    -259.9275     37926.35 
  960300    297.15624   -1457.6338     486.5736    369.10424   -49.148145     37926.35 
  960400    293.57297   -1459.0556    510.73838    375.68674   -417.58564     37926.35 
  960500    303.43376   -1459.6094    514.20201    423.06848   -418.32283     37926.35 
  960600    293.72705    -1437.573    512.98247     400.1083    582.13942     37926.35 
  960700    304.03575    -1486.273    517.59693    402.51474    627.80843     37926.35 
  960800      312.856   -1467.2449    499.17074     442.8956    286.28209     37926.35 
  960900     293.1392   -1479.5843    529.41829    371.88166    134.25792     37926.35 
  961000    304.95565   -1468.9654    483.09442    389.46848    286.57724     37926.35 
  961100    294.84142   -1487.6775    477.48053    319.52771    257.36368     37926.35 
  961200    308.32964   -1524.8769    513.27981    378.95898    344.71548     37926.35 
  961300    304.81299   -1517.4451    519.77143    377.02238    143.08936     37926.35 
  961400    297.17671   -1490.6311    485.74845    335.37411   -252.69689     37926.35 
  961500    303.87293    -1483.655    505.07095    391.87236     204.7597     37926.35 
  961600    293.96969   -1473.2418    502.46547    355.01685   -79.198917     37926.35 
  961700    296.07353   -1495.8599    493.80694    333.22853    68.890736     37926.35 
  961800    302.91286    -1448.337    514.11276    431.90235    280.70775     37926.35 
  961900    293.13509   -1466.0085    474.18048    330.20114    96.237212     37926.35 
  962000    300.70948    -1473.932    505.92008    388.17747    375.69481     37926.35 
  962100    306.06991   -1487.0876    492.01271    385.28985    118.23156     37926.35 
  962200    303.80241   -1502.7563    476.43559     343.8177     611.4537     37926.35 
  962300    274.36964     -1482.23    529.02911    284.19675    158.48656     37926.35 
  962400    295.02992   -1513.9901    480.76586    297.35059    632.59814     37926.35 
  962500     308.9977     -1516.99    484.55523    361.13424    757.42246     37926.35 
  962600    298.73577   -1522.1718    498.99211     324.1084    417.01428     37926.35 
  962700    294.45837   -1503.6075    490.38424    314.77383    358.55914     37926.35 
  962800    295.84111      -1514.7    494.12452     313.6577    41.257914     37926.35 
  962900    294.31882   -1516.3273    468.60587    279.64632    29.553532     37926.35 
  963000    304.78431    -1501.272    476.79309    350.08779   -83.925486     37926.35 
  963100     295.6398    -1517.751    462.81133    278.38566    247.74155     37926.35 
  963200     292.1516   -1544.2356     496.6738    270.03185     52.05515     37926.35 
  963300    301.83207   -1535.6958    486.22561    311.78202   -31.678573     37926.35 
  963400    290.88718   -1511.0593    481.45556    282.28749    248.57693     37926.35 
  963500    298.78816   -1535.9893    479.98975     291.5248   -300.62269     37926.35 
  963600    290.06579   -1535.0651    503.61019    276.73178   -159.80709     37926.35 
  963700    298.68853   -1523.4588     486.9175    310.53368     602.9112     37926.35 
  963800    303.97031   -1502.6516    498.28798    366.53202   -331.63748     37926.35 
  963900    294.68488   -1504.0108    476.95145    301.95934   -92.386125     37926.35 
  964000      301.685   -1528.8301    509.33326    341.09216    142.62913     37926.35 
  964100    298.84422   -1524.1066    491.87517    315.54571    122.51929     37926.35 
  964200    301.75488   -1522.9758    476.53641    314.46475    432.18728     37926.35 
  964300    305.95296   -1510.3896    484.51137    353.95906    781.11643     37926.35 
  964400    292.75803   -1516.0862    516.05246     320.2949    173.04267     37926.35 
  964500    306.62698   -1510.1927    497.16157    369.84604    142.44896     37926.35 
  964600    302.42266   -1546.6849    476.41303    293.64387   -158.41046     37926.35 
  964700    294.06367   -1511.0383     483.9588    299.13757    -148.5942     37926.35 
  964800    313.55844   -1541.8609    510.92824    383.20509    593.72616     37926.35 
  964900     295.5307     -1523.81    473.29638     282.3197    410.16425     37926.35 
  965000      293.148   -1529.0541    487.29706     280.3303    385.71238     37926.35 
  965100    294.23247   -1539.0024    479.53618    267.51212    123.82693     37926.35 
  965200    298.03116   -1493.3507    478.44323    329.20281    101.83647     37926.35 
  965300    295.29436   -1561.4908    505.44848    275.72506   -366.28439     37926.35 
  965400    295.71927   -1543.1037    496.40216    286.98215  -0.85394203     37926.35 
  965500    308.95877   -1557.1247    459.26032    295.52902    96.594184     37926.35 
  965600    308.96684   -1552.6891    468.31074    309.05145   -260.40378     37926.35 
  965700    308.23534   -1541.2813    481.59803    330.44752   -550.32723     37926.35 
  965800    297.09888   -1533.5132    492.60929    299.00178   -653.79965     37926.35 
  965900    309.83022   -1505.0718    489.98771    382.23949   -688.74913     37926.35 
  966000     290.0363   -1498.5852    492.89063    302.35918   -703.35106     37926.35 
  966100    304.02713   -1492.1794    490.33838    369.31085   -452.80208     37926.35 
  966200    301.99643   -1551.7128    497.91564    308.19634   -393.64158     37926.35 
  966300    295.93474   -1509.5456    538.78539    363.89532   -423.27807     37926.35 
  966400    286.44443   -1504.9055    470.62872    257.57775   -318.93052     37926.35 
  966500    285.13002   -1530.7368    506.92741    262.11715   -390.93094     37926.35 
  966600    309.01785   -1531.4645    482.39059    344.58593    -1019.813     37926.35 
  966700    304.72139   -1467.9601    505.96204    412.28492   -120.80395     37926.35 
  966800    297.45574   -1504.7812     499.8339    336.56788   -75.612576     37926.35 
  966900    305.82552   -1468.8205    507.00306     417.4451      323.173     37926.35 
  967000    301.98372   -1528.7247    498.33159     331.5431   -202.22843     37926.35 
  967100    302.92369   -1483.7029    509.95502     392.4275      371.157     37926.35 
  967200     297.9364   -1496.6788    506.38188      353.386    107.07191     37926.35 
  967300    303.21791   -1515.5793    527.37779     379.3008    276.90168     37926.35 
  967400    305.64379   -1551.9625    493.49799    319.97849    23.194778     37926.35 
  967500    297.27081   -1502.8866    520.66144    358.45593   -32.571301     37926.35 
  967600    294.77572   -1552.4439    500.94176     277.9262   -109.34839     37926.35 
  967700    302.69481    -1542.203    484.96008    307.90023   -256.12976     37926.35 
  967800    303.11566   -1483.4771    483.58929    367.15343   -334.56734     37926.35 
  967900    300.68391   -1491.8953    507.58285    371.76167   -0.3928991     37926.35 
  968000    312.92879   -1458.2258     472.5343    425.60658    193.05154     37926.35 
  968100    295.58087   -1487.1354    519.74382    365.66792   -502.14623     37926.35 
  968200    294.61878   -1449.0531    497.04253    376.71005    392.24139     37926.35 
  968300    299.20976   -1468.9634    507.67449    388.13682    -383.2704     37926.35 
  968400    302.77115   -1505.6021    480.78684     340.6722   -318.47211     37926.35 
  968500    303.40928   -1488.3086    497.02144    377.07821   -177.94848     37926.35 
  968600    299.71068   -1528.4432    468.93222     292.1739   -327.87354     37926.35 
  968700    304.17827   -1538.5088    493.02882    326.35352   -655.84457     37926.35 
  968800    308.47977   -1547.2575    488.76847    332.74417   -29.430218     37926.35 
  968900    287.13587   -1511.9237    488.26195    271.31111   -709.57281     37926.35 
  969000    305.48287   -1499.5337    474.64756    352.83116   -533.67556     37926.35 
  969100    308.95531   -1501.4309    496.96059    388.90748   -313.58708     37926.35 
  969200    292.15277   -1467.2768    513.08908    363.41122   -80.745772     37926.35 
  969300    298.08684   -1451.6086    509.96852    402.72128   -476.61376     37926.35 
  969400    303.43891   -1465.2402    491.12644    394.38533    36.516301     37926.35 
  969500    303.84572   -1454.6272    498.80059    414.50709   -185.48399     37926.35 
  969600    290.67929   -1488.4594    461.27539    283.76957   -327.65503     37926.35 
  969700     305.8205   -1461.0315    506.55343    424.76189   -135.65136     37926.35 
  969800    300.69562   -1492.8751    511.62911    374.88093    59.474282     37926.35 
  969900    306.43242   -1500.4602    471.77149    353.31091   -252.35955     37926.35 
  970000    306.84294    -1516.119    483.57346    351.30556    337.96901     37926.35 
  970100    303.53579   -1513.9593    483.34905    338.32573    272.44978     37926.35 
  970200    305.24383   -1493.3689    463.81335    347.08362    752.80426     37926.35 
  970300    300.10765   -1484.3926     503.9448    373.02737     218.8516     37926.35 
  970400    291.69164   -1470.4701     501.3787    346.42787    482.03782     37926.35 
  970500    289.56698    -1481.109    494.03706    318.86523   -17.307999     37926.35 
  970600    305.73124   -1479.1053    493.43102    393.16313    210.89747     37926.35 
  970700     301.7561   -1454.6397    457.11723    363.38722    166.82604     37926.35 
  970800    292.67347   -1453.9989    491.74122    357.68961    47.336384     37926.35 
  970900    306.38231   -1494.6761    499.02411    386.12173    595.99601     37926.35 
  971000    311.89827   -1517.4324    462.24414    351.46218   -470.40766     37926.35 
  971100    299.69042   -1495.4142    498.59211     354.7714   -233.41361     37926.35 
  971200    301.20043   -1463.2217    472.10307    367.28498   -225.31371     37926.35 
  971300    290.52595   -1461.6186    480.32168    328.96512   -652.30005     37926.35 
  971400    304.14533   -1500.9635    499.62122    370.34265   -435.13956     37926.35 
  971500    307.50842   -1516.8269    473.87153    343.89701   -826.50041     37926.35 
  971600    306.86253   -1530.4141    473.34145    326.86687   -584.00455     37926.35 
  971700    304.54943   -1509.6427    496.24821    360.11294   -613.08328     37926.35 
  971800    290.29507    -1537.856    476.30275    247.66749   -220.21225     37926.35 
  971900    296.82559   -1501.4962    497.50394    334.68094   -35.657727     37926.35 
  972000    299.02572   -1517.3663    505.41346    336.64286  -0.54276422     37926.35 
  972100    294.99562   -1531.3147    482.99192    282.09735    494.22724     37926.35 
  972200    300.82495   -1488.6719    484.09932    352.13758    308.02145     37926.35 
  972300      301.719   -1502.4067    502.89895    361.23457    638.39441     37926.35 
  972400    303.98967   -1482.6021    504.21427     392.5951     315.7787     37926.35 
  972500    292.82955   -1512.5327     497.2148    305.33328    569.18967     37926.35 
  972600    301.88924   -1477.2947    490.95838    375.17383    335.98884     37926.35 
  972700    299.41859   -1529.5381    492.01283    312.84223   -53.298852     37926.35 
  972800    309.35223   -1514.3986    465.89012    346.65941   -461.11739     37926.35 
  972900    306.41249   -1475.9067     464.0241    370.02716   -254.44752     37926.35 
  973000    307.17289   -1539.5137    455.18686    301.01239   -384.49064     37926.35 
  973100    293.27303   -1541.5443    500.32265    281.42963   -393.38018     37926.35 
  973200    302.23773   -1537.5313    483.62451    309.17492   -397.00207     37926.35 
  973300    294.87294   -1521.6642    505.27421    313.47682   -547.80263     37926.35 
  973400    296.26302    -1524.938    491.45714     302.6552   -877.59534     37926.35 
  973500    302.23948   -1503.7019    476.85718    336.24496   -268.10274     37926.35 
  973600    294.84251   -1527.0532    480.52774    283.20414   -152.75645     37926.35 
  973700    310.34759   -1564.5312    492.77689    327.90265   -156.17178     37926.35 
  973800    305.77925   -1562.4033    470.51153    287.16207    396.82898     37926.35 
  973900    295.66261   -1500.3098    499.74801     332.8664     439.3909     37926.35 
  974000    299.34979   -1521.3915    480.63625      309.302    495.19128     37926.35 
  974100    302.32747   -1516.3297    491.98115    339.13794   -137.50726     37926.35 
  974200    289.56272   -1507.9122    446.24378    244.24948   -231.34687     37926.35 
  974300    305.87878   -1522.3544    465.92017    323.06856      190.963     37926.35 
  974400    285.50421   -1512.9221    486.90727    261.59933    49.808491     37926.35 
  974500    290.64249   -1485.0777     490.1289    315.83882   -52.871486     37926.35 
  974600    307.35908   -1495.0944    497.07099     388.1555    170.06703     37926.35 
  974700      298.257   -1501.0442    489.84633    333.93094   -500.58474     37926.35 
  974800    296.64733   -1494.5326    473.67355    317.01021   -37.102005     37926.35 
  974900    305.06398   -1504.8722      464.992    335.94786   -57.251106     37926.35 
  975000    306.57774   -1495.6109    508.53744    395.58162    905.43981     37926.35 
  975100    306.47864   -1472.5803    485.49143    395.11931    558.99461     37926.35 
  975200    293.16044   -1475.2575    494.29634    341.18233    240.82194     37926.35 
  975300    300.59851   -1455.5493    514.93892    415.07855    207.06972     37926.35 
  975400    302.67108   -1458.1974    500.85814    407.69686   -311.66427     37926.35 
  975500    296.19511   -1459.6814    492.81024    368.95862   -583.25702     37926.35 
  975600    305.19882   -1441.4614    510.29636    445.27116   -923.02347     37926.35 
  975700    300.62695   -1429.1288    470.97573    397.66407   -706.87913     37926.35 
  975800    290.66788   -1434.0325    500.33478     377.2044   -61.832189     37926.35 
  975900    299.03465   -1450.7996    483.78843    381.62482   -140.37203     37926.35 
  976000    293.66403   -1447.9427    518.21361    394.68561   -2.8125951     37926.35 
  976100    303.04643   -1428.3533    483.83528    422.21089   -399.66081     37926.35 
  976200    307.91371   -1432.2613    487.29655    443.71551   -182.14159     37926.35 
  976300    302.16862    -1468.896    508.10553    401.97966   -545.01768     37926.35 
  976400    309.48047   -1464.2792    491.76017    423.22726   -68.688446     37926.35 
  976500    302.57504   -1440.5712    519.77966    443.81143    826.63796     37926.35 
  976600    305.22754   -1464.6269     487.1411    399.07998    70.395582     37926.35 
  976700    301.94075   -1441.8601    503.91949    423.80182    112.41797     37926.35 
  976800    305.54304   -1462.1436    501.48351    417.32857   -423.10307     37926.35 
  976900    305.46362   -1470.0244    504.22182    411.82787   -319.67284     37926.35 
  977000    307.14801   -1504.0958    477.56239    358.69348   -442.91911     37926.35 
  977100    307.90865   -1475.9317    507.95921    420.68491   -3.0239264     37926.35 
  977200     300.8012   -1497.8892     484.9609    343.67478    6.3277899     37926.35 
  977300    291.79009   -1479.7562     472.9782     309.1853   -148.44139     37926.35 
  977400    310.29991   -1511.4487    475.92265    363.91592    474.78745     37926.35 
  977500    303.94856   -1473.8494    513.38038    410.32848    209.70403     37926.35 
  977600    310.90448   -1483.2708    490.18624    409.08399    263.91864     37926.35 
  977700    300.84555   -1487.7022    500.56965    369.67053   -260.73696     37926.35 
  977800    304.21067   -1484.4134    495.76718    383.33349    -197.5434     37926.35 
  977900    295.12013   -1513.7404    497.24045    314.48173   -66.941053     37926.35 
  978000    307.59615   -1521.7976    483.87285    349.32333   -326.02937     37926.35 
  978100    303.41085   -1505.7194    479.56004    342.21312   -645.83168     37926.35 
  978200    295.53565    -1454.986    504.30052    382.17016    80.973488     37926.35 
  978300    312.57669   -1478.9377    486.85314    417.62557    194.64632     37926.35 
  978400    309.58566   -1480.2469    491.46348     407.4372    494.38099     37926.35 
  978500    307.57204   -1524.2837    500.09462    362.95023    339.38396     37926.35 
  978600    305.74237   -1492.6473    485.46008    371.70032   -81.320872     37926.35 
  978700    293.09354    -1514.732    476.96333    284.07314   -473.04192     37926.35 
  978800    303.93297   -1485.3313    476.72422    362.12021    -563.4064     37926.35 
  978900    301.08772   -1474.4738    510.70789    394.12938    226.72664     37926.35 
  979000    298.12608   -1495.1357    528.39756    377.80024    369.47922     37926.35 
  979100    297.75162    -1502.009     493.4053    334.24584    139.29692     37926.35 
  979200    297.42135   -1498.8065     513.2729    355.82646    74.489912     37926.35 
  979300    297.00799   -1473.1022    493.71261     360.1062     240.7485     37926.35 
  979400    318.80718   -1515.8555    516.30579    438.25967    190.25563     37926.35 
  979500    292.19019    -1500.955    504.86828      321.681    38.779777     37926.35 
  979600    292.85377   -1485.7154    497.49302    332.53808    68.335157     37926.35 
  979700    299.84635   -1505.4285    473.66409     320.5323    40.095106     37926.35 
  979800    302.95052   -1495.8861     484.8404     355.2507     500.4095     37926.35 
  979900    295.87447   -1507.0827    481.45779    308.75878    171.97898     37926.35 
  980000    305.17754   -1509.1504    504.84087    372.03068     101.3574     37926.35 
  980100    303.01216   -1520.3804    488.95246    335.14648    45.012742     37926.35 
  980200    312.12814   -1551.0323    459.86261    316.51747    70.919281     37926.35 
  980300     296.4358   -1517.7013    473.22772     292.4417    -282.3204     37926.35 
  980400    308.11328   -1498.7141    513.20079    404.06697    354.54659     37926.35 
  980500    297.14925   -1520.0963    484.86963    304.90622    373.73218     37926.35 
  980600    299.76184    -1552.976    477.29521    276.23474    466.90404     37926.35 
  980700    296.11556   -1535.3754    487.30648    287.40214    472.73313     37926.35 
  980800    291.61646   -1488.6766    473.30622    299.80977    168.17151     37926.35 
  980900    285.58812   -1553.5469    480.18441     214.6301    177.59817     37926.35 
  981000    306.29402   -1560.0836    471.07304    292.36493   -160.06897     37926.35 
  981100    299.73642   -1507.9498    455.77932    299.63046     567.4297     37926.35 
  981200    309.73541   -1529.1754    495.39785    363.11845   -41.219132     37926.35 
  981300    292.79809   -1537.3401    480.51928    263.68853   -429.95179     37926.35 
  981400    290.64167   -1522.9697    489.85381    277.66803    39.302116     37926.35 
  981500    303.03091   -1512.9839    481.46336    335.13842   -138.67908     37926.35 
  981600    306.72839   -1516.4778    495.89904    362.75569   -157.12042     37926.35 
  981700    305.89357   -1523.3942     490.9015    347.07676    40.832506     37926.35 
  981800    296.50558   -1511.8191    490.09977    315.51067   -545.37838     37926.35 
  981900    303.50165   -1457.4998    489.97105    401.25327   -691.34981     37926.35 
  982000    307.08219   -1477.2348    481.20616    388.90147   -349.96941     37926.35 
  982100    315.49723        -1512    483.01264    393.89428    181.02162     37926.35 
  982200    310.96435   -1503.2071    510.29641    409.52781    228.72358     37926.35 
  982300    287.43203   -1445.6999    516.68186    367.29053   -468.12673     37926.35 
  982400    292.88377   -1469.5899    461.74079    313.04664   -1058.5635     37926.35 
  982500     303.8566   -1469.2413    495.14921    396.29075   -388.52956     37926.35 
  982600    290.01451   -1480.9991    488.44231    315.39871   -19.162497     37926.35 
  982700    295.05614   -1499.9725    476.50325    307.22379     403.2727     37926.35 
  982800    299.01151   -1445.2133     524.8836    428.20191    509.24307     37926.35 
  982900    287.76637   -1452.7467    499.37305    344.44281    139.38812     37926.35 
  983000    307.95959   -1456.0054    513.81064    446.69243    378.08586     37926.35 
  983100    302.56036   -1486.5719    489.17308    367.13803    128.16563     37926.35 
  983200    302.63047   -1462.6773     517.1464    419.32209    82.896645     37926.35 
  983300    294.58263   -1442.9389    492.92067    378.53932    557.76369     37926.35 
  983400    296.00964   -1431.0671    507.95361    411.87987    407.03023     37926.35 
  983500    297.63396    -1439.031    497.45902    400.74695     501.2142     37926.35 
  983600    297.22339   -1449.6466    511.50708    402.32773    379.49664     37926.35 
  983700    322.88071    -1446.082    539.95297    550.05184    39.486573     37926.35 
  983800    296.76592   -1420.0333    485.38577    403.75653    451.40304     37926.35 
  983900    290.47046   -1455.1922    489.71289    344.53246   -82.365956     37926.35 
  984000    299.91502   -1434.8137    508.72093     426.5136   -75.633746     37926.35 
  984100    297.51482   -1453.9057    482.17939    370.05524    449.51529     37926.35 
  984200    294.75587   -1457.1658    519.93963     392.1127    346.30433     37926.35 
  984300    288.83329   -1449.0099    519.53615    373.15449    599.12581     37926.35 
  984400    307.55962   -1468.5193    487.89134    406.45538    373.01734     37926.35 
  984500    299.91334   -1482.2959     476.2259    346.52883    362.97893     37926.35 
  984600    292.94008   -1487.2082    518.09857    352.04008    710.42948     37926.35 
  984700    294.27111   -1500.7589    495.73007    322.12377    184.42984     37926.35 
  984800    293.35247   -1449.6958    483.31657    356.63033   -236.29732     37926.35 
  984900    297.23118   -1490.1643    510.68885    361.02694   -342.71592     37926.35 
  985000    296.65818   -1467.0435    486.92391    357.79865   -54.702122     37926.35 
  985100     301.1952   -1512.4961    487.64213    333.52601    103.25216     37926.35 
  985200    301.46305   -1503.2142    500.05707    356.43085   -47.246434     37926.35 
  985300    296.03946   -1498.4062    479.10315    315.82478   -546.35476     37926.35 
  985400    299.32351   -1479.3987    488.08659    358.62667   -407.90577     37926.35 
  985500    300.65663   -1455.6907    481.07567    381.33608   -90.097526     37926.35 
  985600     299.1865   -1426.0197    473.22207     396.5232   -296.44088     37926.35 
  985700    307.66317   -1402.8337    492.98411    477.70068   -469.67931     37926.35 
  985800    298.93347   -1470.0701    496.73545    374.84496   -791.77594     37926.35 
  985900    308.01397   -1456.4403    497.33197    430.02405   -672.94947     37926.35 
  986000    289.88074   -1481.7309    486.35332    311.97456   -655.58362     37926.35 
  986100    294.87008   -1432.4942    488.47127    385.83102   -277.46549     37926.35 
  986200    294.48772   -1429.9561    499.94075    398.11411   -380.15687     37926.35 
  986300    290.24541   -1434.4097    502.79714    377.38427   -160.84928     37926.35 
  986400    306.50064   -1487.8903    493.49355    387.91055    139.25032     37926.35 
  986500    293.54173   -1470.9161    487.20322    340.15028   -161.51163     37926.35 
  986600    298.22818   -1466.9907    499.60006    377.60816   -103.31835     37926.35 
  986700    296.55758   -1468.3311    542.28088    411.41426   -148.78687     37926.35 
  986800    292.29941   -1453.4878    492.54782    357.32028   -298.70505     37926.35 
  986900    298.41743   -1499.4105    467.14754    313.58943   -667.62525     37926.35 
  987000    302.45642   -1450.5709    487.21027     400.7074   -840.30104     37926.35 
  987100    313.66513   -1481.0885    459.20328    392.73372   -337.70172     37926.35 
  987200    294.88262   -1481.1255    484.19079    332.97579    114.13315     37926.35 
  987300    303.48653    -1499.131    495.31632    364.89912   -31.533441     37926.35 
  987400    298.32305   -1469.6164    513.22129    389.03156    569.50354     37926.35 
  987500    292.49922   -1503.6433    482.36383    297.88192   -649.18382     37926.35 
  987600    295.21229   -1488.5305    456.06982    298.93656    91.233993     37926.35 
  987700    304.72108   -1501.1752    487.46217    360.56858    1090.0918     37926.35 
  987800     298.1704   -1488.0543    505.58636    362.27034    811.38829     37926.35 
  987900    298.27765   -1462.7456    487.25463    369.73099    909.50102     37926.35 
  988000    295.49648    -1484.019    483.26638    331.92637    783.91219     37926.35 
  988100     302.9043   -1496.4433    471.06844    340.71306    414.35851     37926.35 
  988200    318.05823    -1514.951    482.71449    402.19521    385.64338     37926.35 
  988300    294.36543   -1523.2742    496.15511     300.4589    369.30667     37926.35 
  988400     300.5042    -1535.046    470.18857    290.40617   -1.6281954     37926.35 
  988500    313.35387   -1522.8189    469.32065    359.71691    306.82542     37926.35 
  988600    286.76759   -1538.1302    457.95059    213.13242    159.88427     37926.35 
  988700    302.05728   -1477.7802    516.40817    400.89592    392.49168     37926.35 
  988800     303.4097   -1458.5852    503.69255    413.47472    601.49279     37926.35 
  988900    309.19267   -1454.9477    470.70075    410.20134    205.98218     37926.35 
  989000    303.25995   -1462.1855    499.01013    404.51658   -258.80567     37926.35 
  989100    308.86832   -1473.0563    505.89283    425.82203   -307.85038     37926.35 
  989200    306.47544   -1412.7283     484.2198     453.6852   -319.89725     37926.35 
  989300    298.33092   -1451.4599    513.21219    407.21449   -141.00431     37926.35 
  989400    308.89207   -1424.8983    456.44776    424.64202   -409.50583     37926.35 
  989500    308.82529   -1414.5034    531.00438    509.29243   -1058.5116     37926.35 
  989600    300.66864   -1418.2857    474.21067    411.93023   -544.91099     37926.35 
  989700    298.91894   -1445.0077    507.28273    410.38911   -444.68052     37926.35 
  989800    300.38654   -1419.5558    471.98287     407.1601   -581.97818     37926.35 
  989900    303.51766   -1455.5613    510.56257    423.85549    70.515599     37926.35 
  990000    297.63091   -1460.1022    474.46576    356.66869   -198.47045     37926.35 
  990100    294.24208   -1464.0991    497.01303     359.9356   -325.83395     37926.35 
  990200    289.59553   -1489.1544    507.39993    324.31137   -86.230409     37926.35 
  990300    305.46785   -1502.7099    476.11761    351.05716    365.66435     37926.35 
  990400    302.63102   -1517.7459    468.94912    316.05866    153.18089     37926.35 
  990500    304.68898   -1504.9145    473.70425    342.92653    370.62619     37926.35 
  990600    309.15243   -1516.9894    492.01219     369.2896    555.09513     37926.35 
  990700    290.45041   -1464.7206    445.25556    290.45629    151.45206     37926.35 
  990800    299.99679   -1474.8956    489.66717    367.74675    414.22119     37926.35 
  990900    296.39314    -1496.078    456.60544    297.25031    480.49343     37926.35 
  991000    292.21414   -1464.7969    483.73403    336.81286    122.43332     37926.35 
  991100    296.53315   -1518.2741    489.46323    308.54343   -515.35856     37926.35 
  991200    293.35634   -1516.0673    493.34929    300.30903   -513.71287     37926.35 
  991300    290.30594   -1504.6725    481.72072    286.31801   -766.70486     37926.35 
  991400    297.46962   -1467.0953    515.01144    389.49388   -533.70386     37926.35 
  991500    300.78784   -1510.9915    496.79486    342.34616   -29.276418     37926.35 
  991600    305.13305   -1454.5287      497.952    419.56283    33.176684     37926.35 
  991700    300.03272   -1527.8486    470.35622    295.64486   -606.16051     37926.35 
  991800    296.87154   -1503.5274     481.8786    317.23164   -75.044418     37926.35 
  991900     300.3527   -1483.8463    467.46929    338.20332   -45.018373     37926.35 
  992000    292.47377    -1458.773    499.35049    359.62417    498.25552     37926.35 
  992100    308.66571   -1481.6973    484.72227    395.09672    174.73975     37926.35 
  992200    295.11172   -1477.5979     493.4687    346.81448   -220.36026     37926.35 
  992300    289.21762   -1450.8159    492.74895    346.29453   -17.604061     37926.35 
  992400    292.99566   -1427.8214    484.64442    378.22336    228.25934     37926.35 
  992500    310.83001   -1424.0485     480.7132    458.49733    342.58646     37926.35 
  992600    291.07819   -1479.5838    490.25834    323.42719     466.9752     37926.35 
  992700    289.18812   -1467.9599     476.4413    312.70986    56.243451     37926.35 
  992800    305.77441   -1420.2571    479.11034    437.88529    84.657098     37926.35 
  992900    306.10123   -1452.7587    463.81815    391.56552    -419.3715     37926.35 
  993000    299.10841   -1396.1125    504.17033    457.02648   -349.26585     37926.35 
  993100    306.78034   -1471.5999    488.53776    400.50664   -260.13539     37926.35 
  993200    297.02232   -1460.3926    478.36116    357.52899    86.702906     37926.35 
  993300    295.46906   -1445.0258    487.80885    375.33832    152.61917     37926.35 
  993400    292.77424   -1426.9657    480.00145    373.43755   -148.12983     37926.35 
  993500    299.89039   -1479.0453     500.7949    374.24489    -410.4893     37926.35 
  993600    302.95764   -1448.6248      482.003    399.70669    7.7114042     37926.35 
  993700    293.90316   -1435.0136     470.4151     360.8947   -138.20061     37926.35 
  993800    310.07126   -1476.2839    519.58859    441.71542   -450.43767     37926.35 
  993900    298.19327   -1431.0062    470.37193    384.20719   -625.54131     37926.35 
  994000    302.58638    -1460.705    471.46834    375.41747   -755.32993     37926.35 
  994100    308.77057    -1449.914    479.47615    422.10682   -130.65254     37926.35 
  994200    291.22503   -1461.3721    477.01567    329.05842   -644.86446     37926.35 
  994300     295.0234    -1440.765    474.87856    364.65893    6.8860251     37926.35 
  994400     303.5464   -1409.0755    466.05748     425.9658   -857.95854     37926.35 
  994500    296.62754    -1459.238    472.31459    350.85659   -373.82007     37926.35 
  994600    289.54003   -1426.1573    475.50603    355.16432    122.03138     37926.35 
  994700    292.32821   -1427.0869    488.55085    379.85408    -234.2994     37926.35 
  994800    300.65241   -1428.3616    491.95172    419.52215   -425.41913     37926.35 
  994900    297.43945   -1442.2211    485.20029    384.42084    -545.4315     37926.35 
  995000    291.13783   -1431.0447    494.55385    376.53073   -183.23851     37926.35 
  995100    313.46383   -1445.9742    465.23172    432.96856   -45.748424     37926.35 
  995200    293.62875   -1443.2018     470.9309    351.98468   -513.42113     37926.35 
  995300     304.5454   -1412.6506    496.53606    457.37469     -339.305     37926.35 
  995400    298.39017   -1447.3943    490.13196    388.46704     128.2997     37926.35 
  995500    288.29602    -1398.321    496.48693    398.37105    439.52971     37926.35 
  995600    288.68732   -1412.6061    479.39687    368.76065    399.90926     37926.35 
  995700    297.65008   -1414.0626    492.79301      421.122     163.0012     37926.35 
  995800    308.07422   -1421.6459    486.52806    454.28629    215.97243     37926.35 
  995900    295.23763   -1453.4064     469.3982    347.50337    308.43831     37926.35 
  996000    294.58246    -1440.165    487.08996    375.48172    260.33602     37926.35 
  996100    292.33904   -1445.4329    453.60489    326.61096   -458.15757     37926.35 
  996200    307.81027   -1456.6166    469.23362    400.83074   -38.166287     37926.35 
  996300    300.32695    -1430.592    484.70769    408.57992    58.167578     37926.35 
  996400    302.97174   -1472.3162    476.76851    370.84443   -59.302766     37926.35 
  996500    284.67569   -1480.7442    496.92632    300.05973     358.2617     37926.35 
  996600    306.65378   -1454.5739    494.98945    423.41361    487.58915     37926.35 
  996700    297.10021    -1450.295     485.7835    375.40025     45.25765     37926.35 
  996800    302.57197   -1444.5583    488.56809    408.59892   -64.350241     37926.35 
  996900    290.20192   -1461.9937    458.87442    305.68137   -68.921624     37926.35 
  997000    302.90796   -1436.8255    493.01805    422.29704   -428.34723     37926.35 
  997100    299.36681   -1444.5577    494.76405     400.3404    206.53317     37926.35 
  997200    302.23943   -1415.1085    496.42266    444.40362    774.52891     37926.35 
  997300    292.16405   -1489.2308    482.93446    311.35347    134.09339     37926.35 
  997400      297.944   -1467.5831    484.56554    360.69967   -111.11978     37926.35 
  997500    300.96039   -1436.7307    500.37624    420.96651   -84.215355     37926.35 
  997600    293.98715   -1478.5486    468.64443    315.96778   -565.81819     37926.35 
  997700    298.91728   -1453.6397    483.89061    378.35757    32.117669     37926.35 
  997800    301.73602   -1417.8061    493.15856    436.17156    -7.324942     37926.35 
  997900    289.54281   -1440.3606    486.55889    352.02641   -128.53779     37926.35 
  998000    298.21837   -1422.4913    493.09864    415.56194   -185.21378     37926.35 
  998100    297.11323   -1414.8482    473.39847    398.52074    -127.4721     37926.35 
  998200    314.96468   -1462.7003    503.99194    461.77154    151.78487     37926.35 
  998300    292.14488   -1479.6328     462.6967    300.62729   -180.54408     37926.35 
  998400    289.94667   -1475.1847    507.62917    340.09404   -539.42868     37926.35 
  998500    296.98529    -1439.289    506.79743    406.90186    23.195428     37926.35 
  998600    303.20285   -1482.5762    475.64073    360.49894    49.798627     37926.35 
  998700    300.36543    -1441.509     503.2026    416.33134   -473.34665     37926.35 
  998800    296.83948   -1436.3389    478.15896    380.55593   -438.85041     37926.35 
  998900    307.83939    -1425.575    454.12413    416.89418   -163.17125     37926.35 
  999000    284.18972   -1455.3213    502.32189     328.6865   -473.92155     37926.35 
  999100    298.90969   -1488.3614    475.16854    334.87956    534.04304     37926.35 
  999200    301.06689   -1474.8367    492.50771    375.47232    83.823181     37926.35 
  999300    299.14702   -1418.1381    490.31792    421.32256    545.66036     37926.35 
  999400    300.48658   -1471.1215    490.88064    374.94324    699.19168     37926.35 
  999500    296.05823   -1460.5939    502.66538    377.28394      761.107     37926.35 
  999600    305.71752   -1457.8117    481.26043    402.22422    419.74857     37926.35 
  999700     293.7094   -1443.4889    486.00832    367.13873   -133.05661     37926.35 
  999800    303.89213   -1462.6024    467.85639    375.79702   -567.86393     37926.35 
  999900    295.23224   -1481.2621    491.11909    341.34424   -566.71817     37926.35 
 1000000    304.72175   -1499.1905    477.00314     352.0972   -895.69612     37926.35 
 1000100    303.52393   -1492.7279    457.01102    333.16562   -292.88138     37926.35 
 1000200    301.23459   -1475.2514    497.46663    380.77292    248.23324     37926.35 
 1000300      294.075   -1502.1506    472.73931    296.85683   -530.41248     37926.35 
 1000400    305.27375   -1495.6094    456.15747    337.32214   -91.344199     37926.35 
 1000500    293.56205    -1484.947    465.63512    304.64286   -123.76909     37926.35 
 1000600     304.5644   -1507.7632    475.10852    340.92028   -95.472799     37926.35 
 1000700    297.03765   -1471.9051    477.78594    345.51038   -218.50922     37926.35 
 1000800    304.34204   -1463.8167    470.93875    379.69419    139.98685     37926.35 
 1000900    294.66553   -1452.0811    490.55148     367.4018       203.53     37926.35 
 1001000    308.11483   -1411.2671    477.08536    455.40558    218.99619     37926.35 
 1001100    296.50516   -1409.3668    489.57206    417.43339    180.55947     37926.35 
 1001200    301.13057   -1436.4422    492.76066      414.407   -111.96682     37926.35 
 1001300    310.12363   -1490.0871    484.53441    393.09416   -108.45487     37926.35 
 1001400    315.48752   -1448.8661     475.3441    449.31588    313.38054     37926.35 
 1001500    298.92003   -1442.1099    503.37105    409.38017    87.901352     37926.35 
 1001600    304.44334   -1434.2571    470.20308    408.97492    526.22795     37926.35 
 1001700    303.62251   -1470.4948    469.69082    368.52304    163.27518     37926.35 
 1001800    297.72707   -1507.9964    482.13464    316.87709   -22.900845     37926.35 
 1001900    297.67322   -1482.6031    477.98149    337.87435    373.34004     37926.35 
 1002000     301.4747    -1457.525    469.41122    371.52674    230.12034     37926.35 
 1002100     287.6794   -1467.4491    474.66851    304.64361     527.3702     37926.35 
 1002200    303.41444   -1473.0101    481.96517    377.34374    824.88866     37926.35 
 1002300    301.37795   -1481.7702    456.78062     334.2146     317.8531     37926.35 
 1002400    303.01326   -1448.2337    487.00768    405.35335    386.96522     37926.35 
 1002500    298.98233   -1445.0929    469.32874    372.63583    151.24791     37926.35 
 1002600    302.52531   -1448.2192     471.9641    388.12368   -270.63311     37926.35 
 1002700     307.5017   -1468.2807    493.43332    411.97469   -94.253286     37926.35 
 1002800    297.53585   -1434.9629    512.51743    419.43096    851.02917     37926.35 
 1002900    308.99268   -1447.5866    489.83048    435.79024    383.00953     37926.35 
 1003000    295.18911   -1434.4785    492.46383    389.27803   -68.091412     37926.35 
 1003100    293.35711   -1448.0231    483.00111     358.0085   -191.84028     37926.35 
 1003200    304.13871   -1449.3107    471.29733     393.6418      223.093     37926.35 
 1003300    301.42923   -1459.6938    491.66226    391.40391   -87.848062     37926.35 
 1003400    299.26273   -1437.1957    498.73928    411.20821    236.66175     37926.35 
 1003500    302.47501   -1415.0356    519.81092    468.92717    187.97382     37926.35 
 1003600    301.46853   -1400.1692    495.15131    454.59482    560.34622     37926.35 
 1003700    294.24394   -1429.9956     487.0428    384.07728    394.85069     37926.35 
 1003800     296.5603   -1411.4562    509.42606    435.44655     131.6958     37926.35 
 1003900    292.61994   -1429.5834    494.48324    384.60577    349.92281     37926.35 
 1004000      302.486   -1427.0541    478.60668    415.75406    58.529049     37926.35 
 1004100     295.7979   -1459.9733    499.12254    373.18763   -487.72863     37926.35 
 1004200    303.95525   -1413.1142    485.60468    443.31819   -126.68126     37926.35 
 1004300    290.37847   -1445.8252    489.37125    353.14296    31.084898     37926.35 
 1004400    298.42134   -1419.1489    489.31269    416.03374    112.76897     37926.35 
 1004500    299.68635   -1438.8915     467.8232    380.50688    359.02731     37926.35 
 1004600    292.58521   -1486.0554    481.38778    314.88163    656.14267     37926.35 
 1004700    285.37975   -1475.7965    511.17852    322.43483    496.49277     37926.35 
 1004800    291.96668   -1432.2842    507.57889     392.0544    745.35839     37926.35 
 1004900    289.90934   -1414.4869    478.67492    371.66919    125.54776     37926.35 
 1005000    297.07403   -1455.3668    519.56476    403.99159    405.98474     37926.35 
 1005100    296.28056   -1484.8903     489.1831    340.50793    74.215032     37926.35 
 1005200    300.54175   -1467.7708    494.12912    381.79127    453.04829     37926.35 
 1005297    301.42519    -1470.753     499.0496    387.71382   -550.92805     37926.35 
Loop time of 606.24 on 32 procs for 1000000 steps with 1514 atoms

Performance: 142.518 ns/day, 0.168 hours/ns, 1649.511 timesteps/s
100.0% CPU use with 32 MPI tasks x no OpenMP threads

MPI task timing breakdown:
Section |  min time  |  avg time  |  max time  |%varavg| %total
---------------------------------------------------------------
Pair    | 248.86     | 273.56     | 301.82     |  86.9 | 45.12
Bond    | 1.3928     | 1.5624     | 1.787      |   7.5 |  0.26
Neigh   | 39.191     | 39.263     | 39.325     |   0.7 |  6.48
Comm    | 251.1      | 279.29     | 303.91     |  85.8 | 46.07
Output  | 0.39232    | 0.40883    | 0.85493    |  12.5 |  0.07
Modify  | 8.8387     | 9.0556     | 9.2708     |   4.2 |  1.49
Other   |            | 3.102      |            |       |  0.51

Nlocal:        47.3125 ave          78 max          15 min
Histogram: 2 1 2 5 6 4 6 3 1 2
Nghost:        1943.69 ave        2005 max        1902 min
Histogram: 2 2 6 6 7 3 4 1 0 1
Neighs:        5151.94 ave        8814 max        1420 min
Histogram: 3 0 2 8 3 4 6 2 2 2

Total # of neighbors = 164862
Ave neighs/atom = 108.89168
Ave special neighs/atom = 2.0277411
Neighbor list builds = 49707
Dangerous builds = 0

# Output the system volume
variable v equal vol
print 'The system volume is $v'
The system volume is 37926.3497902139

# Outputs
variable A equal xhi-xlo
variable B equal yhi-ylo
variable C equal zhi-zlo
variable D equal xy
variable E equal xz
variable F equal yz
print 'Lattice vectors'
Lattice vectors
print '$A 0 0'
33.5980198279764 0 0
print '$D $B 0'
0 33.5980198279764 0
print '$E $F $C'
0 0 33.5980198279764
Total wall time: 0:10:11
