LAMMPS (29 Sep 2021 - Update 1)
# Test LAMMPS input file for single DeFDe

# Initialize simulation

clear

units real
atom_style full
boundary p p p
dielectric 1
special_bonds dreiding

bond_style harmonic
angle_style harmonic
dihedral_style harmonic
improper_style umbrella
pair_style hybrid/overlay hbond/dreiding/lj 4 9.0 11.0 90 lj/cut 8.50000

# Read data file
read_data frag5.dat
Reading data file ...
  triclinic box = (0.0000000 0.0000000 0.0000000) to (15.000000 15.000000 15.000000) with tilt (0.0000000 0.0000000 0.0000000)
  2 by 4 by 4 MPI processor grid
  reading atoms ...
  1528 atoms
  scanning bonds ...
  2 = max bonds/atom
  scanning angles ...
  6 = max angles/atom
  scanning dihedrals ...
  10 = max dihedrals/atom
  scanning impropers ...
  1 = max impropers/atom
  reading bonds ...
  1027 bonds
  reading angles ...
  549 angles
  reading dihedrals ...
  64 dihedrals
  reading impropers ...
  2 impropers
Finding 1-2 1-3 1-4 neighbors ...
  special bond factors lj:    0        0        1       
  special bond factors coul:  0        0        1       
     4 = max # of 1-2 neighbors
     6 = max # of 1-3 neighbors
    10 = max # of special neighbors
  special bonds CPU = 0.002 seconds
  read_data CPU = 0.018 seconds

# Dreiding potential information

bond_coeff 1 700 1.275
bond_coeff 2 350 1.375
bond_coeff 3 350 0.935
bond_coeff 4 350 1.43
bond_coeff 5 700 1.22
bond_coeff 6 350 1.53
bond_coeff 7 350 1.09
bond_coeff 8 350 1.42
bond_coeff 9 350 0.98

angle_coeff 1 50 120
angle_coeff 2 50 120
angle_coeff 3 50 109.471
angle_coeff 4 50 104.51

dihedral_coeff 1 5.625 -1 2
dihedral_coeff 2 0.0833333333333333 -1 6
dihedral_coeff 3 0.111111111111111 -1 3
dihedral_coeff 4 0.333333333333333 -1 3

improper_coeff 1 40 0

pair_coeff 1 1 lj/cut 0.0774 3.6621
pair_coeff 1 2 lj/cut 0.0857947550844456 3.77835472527395
pair_coeff 1 3 lj/cut 0.0857947550844456 3.77835472527395
pair_coeff 1 4 lj/cut 0.0860649754545948 3.53100349192691
pair_coeff 1 5 lj/cut 0.0860649754545948 3.53100349192691
pair_coeff 1 6 lj/cut 0.00278208554864871 3.41951536039831
pair_coeff 1 7 lj/cut 0.0342998542270955 3.42058613398347
pair_coeff 2 2 lj/cut 0.0951 3.8983
pair_coeff 2 3 lj/cut 0.0951 3.8983
pair_coeff 2 4 lj/cut 0.0953995283007206 3.64309650983885
pair_coeff 2 5 lj/cut 0.0953995283007206 3.64309650983885
pair_coeff 2 6 lj/cut 0.00308382878902186 3.52806914614779
pair_coeff 2 7 lj/cut 0.0380199947396104 3.52917391183829
pair_coeff 3 3 lj/cut 0.0951 3.8983
pair_coeff 3 4 lj/cut 0.0953995283007206 3.64309650983885
pair_coeff 3 5 lj/cut 0.0953995283007206 3.64309650983885
pair_coeff 3 6 lj/cut 0.00308382878902186 3.52806914614779
pair_coeff 3 7 lj/cut 0.0380199947396104 3.52917391183829
pair_coeff 4 4 lj/cut 0.0957 3.4046
pair_coeff 4 5 lj/cut 0.0957 3.4046
pair_coeff 4 6 lj/cut 0.0030935416596516 3.29710294046152
pair_coeff 4 7 lj/cut 0.0381397430510485 3.29813538230316
pair_coeff 5 5 lj/cut 0.0957 3.4046
pair_coeff 5 6 lj/cut 0.0030935416596516 3.29710294046152
pair_coeff 5 7 lj/cut 0.0381397430510485 3.29813538230316
pair_coeff 6 6 lj/cut 1e-04 3.193
pair_coeff 6 7 lj/cut 0.0012328828005938 3.19399984345648
pair_coeff 7 7 lj/cut 0.0152 3.195
pair_coeff 1 1 hbond/dreiding/lj 6 j 9.50 2.75 4 9.0 11.0 90
pair_coeff 1 4 hbond/dreiding/lj 6 i 9.50 2.75 4 9.0 11.0 90
pair_coeff 1 5 hbond/dreiding/lj 6 i 9.50 2.75 4 9.0 11.0 90
pair_coeff 1 4 hbond/dreiding/lj 6 j 9.50 2.75 4 9.0 11.0 90
pair_coeff 4 4 hbond/dreiding/lj 6 j 9.50 2.75 4 9.0 11.0 90
pair_coeff 4 5 hbond/dreiding/lj 6 i 9.50 2.75 4 9.0 11.0 90

neighbor 2 bin
neigh_modify every 2 one 10000

# Gemoetric relaxation
fix 1 all box/relax iso 1.0 vmax 0.001
minimize 1.0e-4 1.0e-6 10000 10000
WARNING: Using 'neigh_modify every 1 delay 0 check yes' setting during minimization (../min.cpp:188)
Neighbor list info ...
  update every 1 steps, delay 0 steps, check yes
  max neighbors/atom: 10000, page size: 100000
  master list distance cutoff = 13
  ghost atom cutoff = 13
  binsize = 6.5, bins = 3 3 3
  3 neighbor lists, perpetual/occasional/extra = 3 0 0
  (1) pair hbond/dreiding/lj, perpetual, skip from (3)
      attributes: full, newton on
      pair build: skip
      stencil: none
      bin: none
  (2) pair lj/cut, perpetual, half/full from (3)
      attributes: half, newton on
      pair build: halffull/newton
      stencil: none
      bin: none
  (3) neighbor class addition, perpetual
      attributes: full, newton on
      pair build: full/bin
      stencil: full/bin/3d
      bin: standard
Per MPI rank memory allocation (min/avg/max) = 14.53 | 14.91 | 15.32 Mbytes
Step Temp E_pair E_mol TotEng Press Volume 
       0            0 2.7685602e+18    222.63578 2.7685602e+18 2.2499056e+20         3375 
    5620            0   -1175.9273    80.976023   -1094.9513    128.99146    34340.171 
Loop time of 5.0465 on 32 procs for 5620 steps with 1528 atoms

100.0% CPU use with 32 MPI tasks x no OpenMP threads

Minimization stats:
  Stopping criterion = energy tolerance
  Energy initial, next-to-last, final = 
    2.76856017508777e+18  -1094.41969122863  -1094.49966066988
  Force two-norm initial, final = 6.3682901e+20 114.93137
  Force max component initial, final = 3.2107599e+20 88.743733
  Final line search alpha, max atom move = 1.6963788e-05 0.0015054298
  Iterations, force evaluations = 5620 5625

MPI task timing breakdown:
Section |  min time  |  avg time  |  max time  |%varavg| %total
---------------------------------------------------------------
Pair    | 1.3        | 2.7787     | 4.2908     |  44.5 | 55.06
Bond    | 0.0064867  | 0.012694   | 0.027239   |   3.7 |  0.25
Neigh   | 0.088909   | 0.089194   | 0.089475   |   0.1 |  1.77
Comm    | 0.28184    | 1.7948     | 3.2664     |  55.4 | 35.57
Output  | 0          | 0          | 0          |   0.0 |  0.00
Modify  | 0          | 0          | 0          |   0.0 |  0.00
Other   |            | 0.3711     |            |       |  7.35

Nlocal:        47.7500 ave          65 max          27 min
Histogram: 3 0 2 4 3 5 4 7 2 2
Nghost:        2122.53 ave        2170 max        2062 min
Histogram: 4 2 1 5 2 2 2 3 5 6
Neighs:        5581.03 ave        8458 max        2835 min
Histogram: 3 2 3 5 2 7 5 1 0 4

Total # of neighbors = 178593
Ave neighs/atom = 116.88024
Ave special neighs/atom = 2.0628272
Neighbor list builds = 87
Dangerous builds = 0

# MD simulation
velocity all create 300.0 12345 rot yes dist gaussian
timestep 1.0
fix 2 all nvt temp 300.0 300.0 1

# Compute interaction energy
group WAT molecule <> 2 501
1500 atoms in group WAT
group MOL molecule 1
28 atoms in group MOL

compute w WAT group/group MOL pair yes
fix 3 all ave/time 10 5 100 c_w file outa

# Outputs
thermo 100 # Output thermodynamic data every nth step
#dump mf1 all xyz 10000 mol_*.xyz

# Run
run 1000000
Neighbor list info ...
  update every 2 steps, delay 10 steps, check yes
  max neighbors/atom: 10000, page size: 100000
  master list distance cutoff = 13
  ghost atom cutoff = 13
  binsize = 6.5, bins = 6 6 6
  4 neighbor lists, perpetual/occasional/extra = 3 1 0
  (1) pair hbond/dreiding/lj, perpetual, skip from (4)
      attributes: full, newton on
      pair build: skip
      stencil: none
      bin: none
  (2) pair lj/cut, perpetual, half/full from (4)
      attributes: half, newton on
      pair build: halffull/newton
      stencil: none
      bin: none
  (3) compute group/group, occasional, copy from (2)
      attributes: half, newton on
      pair build: copy
      stencil: none
      bin: none
  (4) neighbor class addition, perpetual
      attributes: full, newton on
      pair build: full/bin
      stencil: full/bin/3d
      bin: standard
Per MPI rank memory allocation (min/avg/max) = 13.37 | 13.45 | 13.94 Mbytes
Step Temp E_pair E_mol TotEng Press Volume 
    5620          300   -1175.9273    80.976023    270.55783    1946.7031    34340.171 
    5700    301.18988   -1134.9018    171.54392    407.56718     1844.615    34340.171 
    5800    305.05878   -1186.4441    231.20998    433.30102    686.56725    34340.171 
    5900    310.82461   -1191.3289    207.90768    431.35825    735.58129    34340.171 
    6000    293.07963   -1187.9303    207.66936    353.74868    386.11685    34340.171 
    6100    294.31771   -1191.1153    220.18324    368.71296     860.8548    34340.171 
    6200    302.19453    -1212.182    213.93662    377.25252    961.28486    34340.171 
    6300    311.01216   -1186.2343    221.53628     450.9351    390.37235    34340.171 
    6400    302.16879    -1217.761    213.53699    371.15673    265.88754    34340.171 
    6500    297.55304   -1199.3481    218.81681    373.83995   -19.445298    34340.171 
    6600    292.36794   -1178.0356    222.48104    375.21568    217.03235    34340.171 
    6700    292.49311   -1177.8374     228.9355    382.43805    215.66602    34340.171 
    6800    302.29187   -1144.6857    228.32362    459.57892    974.35092    34340.171 
    6900    314.67822   -1133.5105     235.2555    534.06483    615.28526    34340.171 
    7000    303.01331   -1126.4168    224.14369    476.95169    782.06135    34340.171 
    7100     297.0095   -1120.8189    232.09176    463.17007     110.5389    34340.171 
    7200    292.99117   -1086.6044    264.76294    511.76555    243.42363    34340.171 
    7300    292.20477   -1133.3015    225.04942    421.77549    246.70878    34340.171 
    7400    292.35415   -1171.2022    243.23577    402.74101    450.90105    34340.171 
    7500     297.2327    -1153.185    248.95972    448.68789    283.48758    34340.171 
    7600    301.15684   -1132.7398    252.36485    490.39972    212.69814    34340.171 
    7700    295.82629   -1127.7804     245.5399    464.27114    658.81423    34340.171 
    7800    304.91132   -1162.6029    242.28326    467.54426     936.6247    34340.171 
    7900      295.188   -1161.5106    228.97191    411.06766     752.1399    34340.171 
    8000    304.12195   -1137.8188    266.40835    512.86049     815.3458    34340.171 
    8100    307.47255   -1069.8076     258.5535    588.26778    561.35617    34340.171 
    8200    294.14182   -1142.2157    247.75702    444.38573    301.90973    34340.171 
    8300    299.75509   -1179.8621     267.4613    451.99356    703.78907    34340.171 
    8400     289.2843   -1170.6949     260.6276    406.66715    -3.992245    34340.171 
    8500     302.1439   -1144.2791    265.29431     496.2827    447.91986    34340.171 
    8600    289.77367   -1227.8238    256.35129    347.48943    553.91846    34340.171 
    8700    292.08377   -1161.4134    264.51154    432.57496    386.10127    34340.171 
    8800    296.56058   -1171.1042     263.8777    442.62738    602.03568    34340.171 
    8900    308.59687   -1154.3183    257.85504    508.17618    567.28984    34340.171 
    9000     302.5415   -1132.5462    247.60948    492.14056    129.29877    34340.171 
    9100    299.56538   -1160.5551    271.52862    474.50436    347.88928    34340.171 
    9200    300.64796   -1188.3124    246.46129    426.60734    265.20085    34340.171 
    9300    297.92814   -1165.6501    271.47669    461.90516    101.76593    34340.171 
    9400     287.8546   -1225.1915    251.66612    336.70148    -225.8223    34340.171 
    9500    302.56123    -1200.858    272.63243    448.94144    376.03872    34340.171 
    9600    295.57263   -1202.4001    254.46667    397.42358    108.32042    34340.171 
    9700    302.81502   -1162.3026    268.79027    484.80983    324.50774    34340.171 
    9800    293.12729   -1162.8609    263.53342    434.89911    300.59383    34340.171 
    9900    306.98975   -1172.9374    267.96822     492.3551    437.46844    34340.171 
   10000    289.90569    -1141.344    279.75768    457.97653   -83.128869    34340.171 
   10100    296.26604   -1165.4159    269.25161    452.34893    617.94585    34340.171 
   10200    302.95795   -1218.0322    276.66077    437.60134     1030.807    34340.171 
   10300    306.73105   -1216.3613    274.27964    454.06517    370.35771    34340.171 
   10400    297.70754   -1139.8561    276.88214    492.10048    390.04436    34340.171 
   10500    296.85452   -1154.5863    289.12057     485.7261    336.11229    34340.171 
   10600    307.27168   -1178.9154    272.33972    492.03189    29.161712    34340.171 
   10700     305.2066   -1188.4402    280.55629    481.32402    133.96835    34340.171 
   10800    304.40179   -1203.9112    272.31282    453.94629    90.737402    34340.171 
   10900    299.03706   -1176.7428    275.69218    460.07546   -114.47576    34340.171 
   11000    310.41053   -1148.3359    277.76329    542.32205    587.59625    34340.171 
   11100    289.46751    -1189.048    290.07431     418.5947    80.293912    34340.171 
   11200    310.14959   -1223.7931    279.51617    467.43005    936.80748    34340.171 
   11300     293.8552    -1204.899    281.31956     413.9604    184.02953    34340.171 
   11400    302.38952   -1207.5379    286.51839    455.36593    558.85873    34340.171 
   11500    308.15235   -1254.6383    280.57838    428.55624    732.45944    34340.171 
   11600    292.19081   -1202.4221    277.15069    404.69259   -209.99328    34340.171 
   11700    271.02406   -1206.9986    274.65057    301.27134   -154.48324    34340.171 
   11800    311.28387   -1211.9757     288.1352    493.02938    383.17212    34340.171 
   11900    304.60783     -1192.24     280.4405    474.68307    482.06413    34340.171 
   12000    303.06659    -1217.104     298.3989    460.76211    74.446789    34340.171 
   12100    291.64448   -1197.6063     301.2985    431.16951  -0.40716065    34340.171 
   12200    305.70323   -1167.3204    295.86936     520.0174    902.52109    34340.171 
   12300    304.20257    -1219.269    299.56665    464.93561    570.24996    34340.171 
   12400    297.00652   -1222.7068    290.56961    419.74646    210.23522    34340.171 
   12500    295.45125   -1246.9206    302.62969    400.51371    207.64696    34340.171 
   12600    306.25531   -1236.2849    305.34394    463.04041    796.77569    34340.171 
   12700    304.78047   -1264.0256    296.51148    419.75425    405.42144    34340.171 
   12800    295.94932   -1240.7646    312.43738    418.74438    26.099384    34340.171 
   12900     297.6592   -1266.4337    300.21946    388.64022    399.57634    34340.171 
   13000    303.59161   -1203.5813    331.84493    510.12067    913.42639    34340.171 
   13100    300.09231   -1194.2103    303.83911    475.55804    568.49149    34340.171 
   13200    303.26383   -1232.4229     313.5909    461.53304    671.04247    34340.171 
   13300    303.05884   -1201.9881     310.4678    487.91171    219.36273    34340.171 
   13400    307.42722   -1211.8819    320.47725    507.91089    503.91373    34340.171 
   13500    302.13246    -1200.868    306.69627     481.0437    196.85482    34340.171 
   13600    304.07242   -1229.3564    315.59586    470.28496    199.36491    34340.171 
   13700    294.34778   -1269.5845    318.37611    388.57352    623.26509    34340.171 
   13800    289.53474   -1249.6735    310.21085    378.41174    51.969223    34340.171 
   13900    296.00404   -1228.0716    303.86215    423.11125   -51.150732    34340.171 
   14000    309.81008   -1233.2139    314.43924    491.38697    202.19606    34340.171 
   14100    303.03231   -1224.9321    308.33799    462.71719    303.91871    34340.171 
   14200    308.74934   -1246.3897    310.91748    469.86124    470.47327    34340.171 
   14300    299.30149   -1232.7293    308.93663    438.53701    111.99397    34340.171 
   14400    285.06589   -1261.5196    337.24193    373.25593    196.86895    34340.171 
   14500    295.35508    -1281.179    301.35621    364.54403   -213.57584    34340.171 
   14600    291.90071   -1245.6507    330.12899    413.12191    370.48433    34340.171 
   14700    303.74073   -1165.9027    312.52946    529.16249     606.4143    34340.171 
   14800    305.04167   -1192.2694    311.89694    508.08481     289.4607    34340.171 
   14900     303.5881   -1232.5059    302.72919    452.06434   -198.25231    34340.171 
   15000    298.04007   -1239.9679    331.49371    448.11392    75.069948    34340.171 
   15100    298.82304   -1255.7104    323.06505    427.50656    313.84157    34340.171 
   15200    321.05445   -1222.9302    304.42714    542.83947    366.70685    34340.171 
   15300    310.75584   -1247.3166     315.8054    482.95519   -122.71484    34340.171 
   15400    299.89209   -1231.7983    327.48761     460.7072   -106.91269    34340.171 
   15500    296.72956   -1222.5944    329.69693    457.72554    9.9259025    34340.171 
   15600    293.07364   -1236.8372     315.4325    412.57766   -69.975384    34340.171 
   15700    285.38953   -1221.4209    317.15787     394.7436   -114.30439    34340.171 
   15800    302.67112   -1175.9041    322.60352    524.36665    3.9111621    34340.171 
   15900    295.53342   -1210.7589    333.81463    468.23434    36.546108    34340.171 
   16000    296.74508   -1227.7265    331.24379    454.21093    208.37697    34340.171 
   16100    308.41828   -1233.6372    344.34412    514.53349    194.06188    34340.171 
   16200    286.53175   -1246.3481    344.92053    402.77818   -615.88009    34340.171 
   16300    307.86321   -1271.9143    321.84379    451.22945   -33.038573    34340.171 
   16400    307.31853   -1276.3385    313.85862    436.34094    334.79452    34340.171 
   16500     293.8547   -1257.3163    330.50849    410.72977    456.46736    34340.171 
   16600    294.84184   -1218.9361    338.15667    461.25128   -111.94554    34340.171 
   16700    298.12656   -1246.1454    328.92015    439.75644    54.599432    34340.171 
   16800    285.48745   -1230.2098    325.88709    395.12963    -29.58576    34340.171 
   16900    297.17536   -1268.7093     336.3478    420.29064    549.83936    34340.171 
   17000    300.07469   -1298.0785    326.15653    393.92709    961.94533    34340.171 
   17100    300.17718   -1263.2536    325.36332    428.42527    898.13275    34340.171 
   17200    311.67199   -1247.0172    329.36444    500.98369     926.7421    34340.171 
   17300    307.74325   -1319.4938    332.46314    413.72335    382.27171    34340.171 
   17400    300.46554   -1319.1758    335.27882    383.73114     968.7343    34340.171 
   17500    296.05586   -1285.6195    339.98254    401.91957    207.81258    34340.171 
   17600    302.36637   -1292.9654    349.01248    432.32719    -279.6286    34340.171 
   17700    310.23295   -1246.6586    330.83329     496.2611    478.09906    34340.171 
   17800    309.68058   -1223.0214    342.06509    528.61578    674.60245    34340.171 
   17900    307.54369   -1264.9943    334.54709    469.39844    302.09916    34340.171 
   18000    304.92783   -1263.9233     360.4849    484.50062    638.90759    34340.171 
   18100    302.72336   -1244.4032    331.97867    465.48052    406.25058    34340.171 
   18200    302.13718   -1274.1524    330.63751      431.722    250.60319    34340.171 
   18300    310.77931   -1291.5805    330.87944    453.87225    793.89075    34340.171 
   18400    295.78587   -1238.1157    335.55416    443.76606     333.2865    34340.171 
   18500    304.57562   -1240.8034    345.17574    490.70824    1215.8998    34340.171 
   18600     308.1737   -1206.2493    346.90434    543.36836    432.78114    34340.171 
   18700     296.2737   -1179.4053    338.19879    507.34157    820.93333    34340.171 
   18800    299.43557   -1202.5765    345.06864    505.43212    310.90889    34340.171 
   18900    306.95703   -1225.4227    373.99052    545.74321    34.515239    34340.171 
   19000    295.15831   -1264.8009    345.63328    424.30353    220.81994    34340.171 
   19100    307.34748   -1277.6733    346.10171    467.38102    761.27674    34340.171 
   19200    301.84922   -1287.7436     344.9218    431.10438    169.39345    34340.171 
   19300    307.01524   -1277.8545    333.26055    452.84641    446.43859    34340.171 
   19400    303.66864   -1270.5132    359.62176    471.31615    278.94429    34340.171 
   19500    299.56682   -1264.4945    355.58042    454.62325    282.48216    34340.171 
   19600    302.87441   -1285.1492    358.29757    451.74085     442.2767    34340.171 
   19700    300.78129   -1246.8769    353.42406     475.6124   -267.50718    34340.171 
   19800    301.77165   -1222.6007    335.09809    486.07051   -184.29137    34340.171 
   19900    302.54213   -1287.0372    330.63536    420.67822   -354.10607    34340.171 
   20000    307.44665   -1266.1506    350.44031    483.69371   -161.96465    34340.171 
   20100      296.674   -1255.7975     357.4567    452.02928   -473.27369    34340.171 
   20200    305.79034   -1242.7344    337.87657    487.00712   -211.15993    34340.171 
   20300    302.53634   -1268.7099    351.22979    459.57356   -277.82876    34340.171 
   20400    260.71962    -1285.184    357.93281    259.46553   -426.56819    34340.171 
   20500    308.95839   -1320.4829    335.97106    421.77314   -115.41435    34340.171 
   20600    305.37763   -1310.3896    348.75064    428.34746   -118.13543    34340.171 
   20700    296.39659   -1226.4358    359.81632    482.48793    232.65069    34340.171 
   20800    310.81151   -1223.8364    354.87449     545.7579    332.75502    34340.171 
   20900    297.06223   -1237.4055    353.42764    468.15942    452.49319    34340.171 
   21000    292.84971   -1216.7648    344.19592     460.3942    1152.2759    34340.171 
   21100    307.32557   -1241.8003    363.41114    520.46371    724.98841    34340.171 
   21200    293.77445   -1223.7631     360.3473    473.75642    31.858283    34340.171 
   21300    307.91245    -1245.545    363.65367    519.63287    560.09447    34340.171 
   21400     303.4034   -1291.8176    356.43749    445.62017    38.503121    34340.171 
   21500    297.87981   -1236.4959       353.21    472.57268   -161.94884    34340.171 
   21600    302.94349    -1258.908    349.26171     469.2607   -123.42201    34340.171 
   21700    307.40598   -1278.7667    347.42587    467.87804    -125.0429    34340.171 
   21800    305.50787    -1308.732    362.47715    444.32438   -79.462104    34340.171 
   21900    301.39819   -1294.5525    375.33292    452.65362     -159.685    34340.171 
   22000    293.16316   -1240.8789    371.53023     465.0412    235.19972    34340.171 
   22100    291.73882   -1293.2611    365.13758     399.7832    3.9952197    34340.171 
   22200    294.39312   -1236.1348    370.56661    474.42009    -242.1392    34340.171 
   22300    307.32256   -1245.6163    373.66085    526.88375    36.971138    34340.171 
   22400    306.76837   -1278.7946    373.92331    491.44542   -204.96777    34340.171 
   22500     304.4864   -1250.6132    359.25613    494.57278   -73.869456    34340.171 
   22600    308.14146   -1264.1427    358.29345    496.71731    281.60723    34340.171 
   22700     308.3074   -1286.0445     359.7378    477.01517    16.820104    34340.171 
   22800    298.34491   -1300.8806    384.60933    441.70438   -92.291958    34340.171 
   22900    304.49545   -1260.4162    381.11202    506.66677    198.74525    34340.171 
   23000    297.22768    -1212.623     378.4717    518.73899    157.07536    34340.171 
   23100     310.7414   -1273.4063    386.55802    527.55237    248.97188    34340.171 
   23200    306.59308   -1242.2391    395.91676    549.19642    216.34314    34340.171 
   23300    296.50326   -1258.2777    385.85165    477.16695   -303.64574    34340.171 
   23400    306.43101   -1253.9385    376.43529    517.27788   -659.00038    34340.171 
   23500    298.40489   -1289.1281    375.94094    445.06152    536.86455    34340.171 
   23600    305.17133    -1261.206    398.09488    525.93627    396.20637    34340.171 
   23700    302.80141   -1211.7613    363.27352     529.7725    713.29615    34340.171 
   23800    303.65449   -1276.9891    367.67701    472.83115    357.75774    34340.171 
   23900    307.15246   -1279.7767    395.73947    514.02766    110.65965    34340.171 
   24000    303.70609   -1297.2362     393.7702    478.91205    213.92397    34340.171 
   24100    309.18591   -1275.5185    376.01351    507.81557   -98.696334    34340.171 
   24200    304.00897   -1329.2995    377.03315     431.4904    188.81713    34340.171 
   24300     299.5302   -1322.3914    387.99889    428.97817   -89.719423    34340.171 
   24400    296.76588   -1320.3484    381.74164    412.18155    688.69629    34340.171 
   24500    301.28792   -1319.4551    375.00727    426.92348    98.279246    34340.171 
   24600    294.45727   -1313.3759    373.87094    400.77532    389.83377    34340.171 
   24700    304.95005    -1301.736    386.06373    472.36794    207.49985    34340.171 
   24800    312.28942   -1320.0914    384.54455    485.89999    592.43118    34340.171 
   24900     288.0704   -1295.9743    375.75389    390.98875    664.97257    34340.171 
   25000     305.2128   -1316.7399    372.77625    445.27246    1141.8381    34340.171 
   25100    300.24956    -1297.362    394.26203    463.54506    437.80721    34340.171 
   25200    301.92545    -1261.625     404.3512    516.99936    316.50025    34340.171 
   25300    292.94894   -1280.8684     400.5919    453.13828    71.745558    34340.171 
   25400    305.87532   -1313.0397    388.82361    468.03565    218.14973    34340.171 
   25500    305.65705   -1268.5059     392.7846    515.53696    780.60446    34340.171 
   25600    302.66385   -1289.8963    396.87684    484.61467    679.69526    34340.171 
   25700    289.64558   -1282.2737    389.62376    425.72898    155.67092    34340.171 
   25800    295.29053   -1294.6472    398.39794    447.82374    425.09981    34340.171 
   25900    297.45412   -1320.2745    373.51351    407.15997     257.4408    34340.171 
   26000    296.35879   -1281.4278    384.72911     452.2367    940.66372    34340.171 
   26100     302.7595   -1340.8628    376.47152    413.67824    742.84634    34340.171 
   26200    305.27677    -1347.888    399.11719    440.75649    550.23612    34340.171 
   26300    301.80261   -1293.0246    394.43914    475.12856    236.01767    34340.171 
   26400    299.82623   -1308.6021    389.62313    445.73914   -314.95882    34340.171 
   26500    298.52044    -1307.096    398.02174    449.70031    228.13817    34340.171 
   26600    294.24712   -1319.0781    370.59374    390.83934   -121.33943    34340.171 
   26700    292.95553   -1319.6989    381.89625    395.64216   -48.423832    34340.171 
   26800    298.93461   -1334.0406    383.27466    409.89385    80.173187    34340.171 
   26900    308.52525   -1354.4273    398.03919    447.92531   -9.1751863    34340.171 
   27000    299.69289   -1394.3881    390.29178     360.0149   -271.52307    34340.171 
   27100    298.13523   -1330.4949    372.55343    399.07975   -276.33401    34340.171 
   27200    301.82544   -1313.1544      374.896    435.55955   -387.21931    34340.171 
   27300    291.26957   -1317.4295    398.34647    406.68783   -599.22599    34340.171 
   27400    310.29782   -1400.5928    384.22798    396.01682    329.91881    34340.171 
   27500    309.32464   -1347.7645    404.45008    464.63762     988.7511    34340.171 
   27600    285.31341   -1405.3686    400.58024    293.87184    364.15938    34340.171 
   27700    298.81661   -1327.4342    408.51415     441.2026     812.2428    34340.171 
   27800    297.37642    -1343.078    399.77481    410.26417    1102.3128    34340.171 
   27900    294.58075    -1331.196    389.01738    398.66369    1096.0658    34340.171 
   28000    303.04585   -1323.8645    389.85243    445.36077     1046.658    34340.171 
   28100    295.29376   -1332.4777    396.17108    407.78109    407.86492    34340.171 
   28200    298.96026   -1361.3541    389.57971    389.00213    274.69571    34340.171 
   28300    294.08096   -1301.9495    387.12484    423.74273    595.96011    34340.171 
   28400    313.03874   -1297.4801    405.13694     532.5143     300.7526    34340.171 
   28500    299.97478   -1313.9563    378.84992    430.28797    193.29545    34340.171 
   28600    307.43639     -1341.81    381.15854    438.70576    617.00773    34340.171 
   28700    295.37665   -1355.2001    402.18778    391.45268    244.20197    34340.171 
   28800    299.55626   -1335.7719    408.44989    436.16733    209.51503    34340.171 
   28900    303.23451   -1316.9885    399.72098    462.96406    412.54063    34340.171 
   29000    298.93191   -1292.6797    403.75154    471.71933    691.53538    34340.171 
   29100    285.29377   -1290.2234    430.35166    438.69906   -73.644441    34340.171 
   29200    301.26516   -1298.1471    383.60244    456.72306   -298.10413    34340.171 
   29300    296.72406    -1301.217    409.08256    458.46352   -107.06688    34340.171 
   29400    296.04365   -1289.0854    403.37085    461.78641    436.70581    34340.171 
   29500    293.17171   -1317.4594    410.25854    427.22791    238.65929    34340.171 
   29600    297.63902   -1295.3413     388.1858    447.60708    700.55146    34340.171 
   29700    302.20402     -1283.69    407.97033    499.82145    542.58485    34340.171 
   29800    296.28126   -1293.8122    414.03414    468.80441    156.21252    34340.171 
   29900    294.29129   -1259.0734     401.7335    482.18488    22.218385    34340.171 
   30000    300.18166   -1269.4876    397.37356    494.22188    406.43049    34340.171 
   30100    294.98086   -1316.6542    413.75635    439.76558    639.29945    34340.171 
   30200    301.90517    -1338.699    383.27072    418.75254    174.20162    34340.171 
   30300    307.44821   -1288.4755     400.3248    511.26035    626.19228    34340.171 
   30400    287.50013   -1300.8191    419.37878    427.17309    43.512132    34340.171 
   30500    299.98516   -1279.5737    409.62236    495.49015    32.101546    34340.171 
   30600    296.32402   -1278.5657     415.1665      485.378   -249.93514    34340.171 
   30700    297.60695   -1317.8741    419.96352    456.70611    -242.7743    34340.171 
   30800     302.1642   -1347.4902    419.60645    447.47613    238.12242    34340.171 
   30900    295.44378   -1346.4909    400.04412    398.32374    734.37308    34340.171 
   31000    299.11461   -1326.6297    417.39157     452.2409    466.07049    34340.171 
   31100    295.06377   -1271.5503    399.45001    470.94058    410.61623    34340.171 
   31200    301.29069   -1261.5301    425.43756    535.29136    274.52644    34340.171 
   31300    298.28662   -1290.2187      402.968    470.45959   -338.61757    34340.171 
   31400    296.48755   -1291.7415    393.08298    450.86293    29.107132    34340.171 
   31500    299.05321   -1282.0564    419.46772    498.61088   -162.68091    34340.171 
   31600     299.9103   -1297.0654    417.33146    485.36685    422.85004    34340.171 
   31700    300.70755   -1325.0993    407.33951    450.96987   -99.612772    34340.171 
   31800    301.35316   -1347.5501    398.93883    423.05698    221.84954    34340.171 
   31900    295.70174   -1337.7889    409.50082     417.6566    178.16788    34340.171 
   32000    302.83571   -1340.3876    423.73923    461.76799    261.72705    34340.171 
   32100    303.40813   -1325.9265    419.78926    474.88459    521.18116    34340.171 
   32200    298.00587    -1370.104    409.47248    395.80088    696.52382    34340.171 
   32300    301.44006   -1362.0515    409.91462    419.92688    185.60596    34340.171 
   32400    296.95438   -1407.0979    408.42449    352.97296    143.04132    34340.171 
   32500    311.08622   -1410.2523    401.54149     407.2594    285.35501    34340.171 
   32600    300.69647   -1351.5831    413.60267    430.69881   -16.588288    34340.171 
   32700    303.13847   -1377.2516    424.17506     426.7179   -10.857382    34340.171 
   32800    308.44244    -1339.148    434.63701    499.42558     56.02372    34340.171 
   32900    300.90619   -1313.3564    422.12476    478.40214   -22.775161    34340.171 
   33000     299.7474    -1316.377    411.92049    459.90281    382.96878    34340.171 
   33100    298.58219   -1328.5443    431.91559     462.4269    198.45656    34340.171 
   33200    305.84619   -1306.6225    421.28041    506.77703   -159.61266    34340.171 
   33300    299.18152   -1271.7429    418.79696    508.83769    -154.3809    34340.171 
   33400    309.77852   -1275.0224    423.34879    558.34439   -306.80084    34340.171 
   33500    294.42945    -1307.658     421.5353    454.03092   -498.15068    34340.171 
   33600    308.74659   -1286.4568    435.67241    554.53645    -183.4984    34340.171 
   33700    301.36307   -1318.3456    413.62366    466.99143   -407.38288    34340.171 
   33800     291.4856   -1305.4981    416.83758    438.09354    107.01684    34340.171 
   33900     298.9182   -1304.8298    436.68115    492.43638    159.27271    34340.171 
   34000    299.14012   -1351.1892    416.10062    426.50664     -496.267    34340.171 
   34100    298.66753   -1348.3638    438.58226    449.66255   -458.40513    34340.171 
   34200    316.86743    -1341.303    424.30619    525.28767   -119.54619    34340.171 
   34300    308.84904   -1352.3691    419.97479    473.39289   -136.04921    34340.171 
   34400    298.51821   -1346.4955    448.65143    460.92039    -599.2584    34340.171 
   34500    300.62904   -1342.7976    433.76027    459.33494   -311.05325    34340.171 
   34600     315.2397   -1356.1574     426.7257     505.4439   -380.75062    34340.171 
   34700    298.95164   -1368.1324    425.67632    418.28121   -46.552211    34340.171 
   34800    309.11713   -1404.0394    405.44976    408.41789    179.58245    34340.171 
   34900    294.74646   -1373.2631    412.64841    380.98186    160.27439    34340.171 
   35000    293.63056   -1370.3184    425.23953    391.43848    2.7070561    34340.171 
   35100     303.9984   -1375.9511    415.38882    423.14627   -335.86398    34340.171 
   35200    290.96547   -1404.5211     431.6892    351.55474   -74.709955    34340.171 
   35300     304.9006   -1403.7974    431.09695    415.11473   -140.99283    34340.171 
   35400     307.7586   -1370.3774      432.169    462.61551    568.62433    34340.171 
   35500    296.53275   -1353.7015    433.47825    429.50393    39.190158    34340.171 
   35600    300.48681   -1356.1308    436.78084    448.37491    1052.1938    34340.171 
   35700    293.71942   -1335.5139    431.42805    432.83591    1225.1589    34340.171 
   35800    297.62558   -1299.9828    425.34545    480.06405    114.29342    34340.171 
   35900    313.41805   -1291.1662    418.88254    554.30031    816.93862    34340.171 
   36000    299.50567   -1341.5478    447.13965    468.85091    575.28172    34340.171 
   36100      307.871   -1321.1799    424.13425    504.28979    442.71849    34340.171 
   36200    288.47779   -1308.9459     396.6543    400.77188    0.8992637    34340.171 
   36300    290.96627   -1330.4868    428.79579    422.69925    160.51623    34340.171 
   36400     301.3251   -1336.3852    410.17705    445.33237   -306.59452    34340.171 
   36500     294.5021   -1328.4285    431.06427    443.12002   -210.77304    34340.171 
   36600    299.37335   -1342.4097     421.4508    441.69788   -396.70995    34340.171 
   36700     304.6444   -1326.4253    446.21744    506.44108    442.80501    34340.171 
   36800     294.1972   -1338.7097    417.10209    417.48887     349.2113    34340.171 
   36900     295.2989   -1307.9042    434.23779    470.44468    390.37897    34340.171 
   37000    288.95406   -1323.9053    438.66942    429.99548   -81.222653    34340.171 
   37100    296.91282   -1306.5987    425.14896    470.00741    744.04675    34340.171 
   37200     303.5672   -1255.5598    455.25346    581.43957    430.60649    34340.171 
   37300    293.04341   -1263.2064    425.79897    496.43734    334.20434    34340.171 
   37400    298.87301   -1295.5535    438.26503    503.09088    59.284228    34340.171 
   37500      300.005   -1295.2356    434.22287    504.51909    93.779933    34340.171 
   37600    292.92246   -1270.7837    400.58847    463.09906    58.858091    34340.171 
   37700    309.59681   -1261.7958    461.06429    608.45937    345.56864    34340.171 
   37800    293.33566   -1292.4163     422.1567    464.91543    295.26858    34340.171 
   37900    317.62652   -1261.9874    425.73414    609.48638    630.06957    34340.171 
   38000    290.91647   -1308.9877     430.4077    445.58362    58.486527    34340.171 
   38100    296.90398   -1323.6157    399.51014    427.31134    288.47265    34340.171 
   38200    293.70153   -1346.0612    419.93639    410.71549   -247.69842    34340.171 
   38300    300.23694   -1328.9259    417.75586    455.41751    111.27118    34340.171 
   38400    297.45436   -1331.6968    433.11229    455.33759   -213.48401    34340.171 
   38500    294.10357   -1303.8929    417.76257    452.54001   -28.898628    34340.171 
   38600    305.52346   -1313.2369    432.63431    510.04757    456.44346    34340.171 
   38700    292.94365   -1285.2486    433.45496    481.59705    673.75393    34340.171 
   38800    304.68294   -1329.6863    433.09246    490.23057    640.84169    34340.171 
   38900    303.29588   -1375.0348    410.66405    416.14016   -51.346015    34340.171 
   39000    298.10287   -1372.0909    416.18972    400.97267    379.60436    34340.171 
   39100    299.78802   -1375.4013    439.00661    428.14949   -65.032037    34340.171 
   39200     312.5145   -1375.1863    422.52487    469.80985   -521.47662    34340.171 
   39300    292.93829   -1370.3851    414.44004    377.42126   -442.31302    34340.171 
   39400    294.94266   -1344.3865     414.7415    412.84461   -142.88289    34340.171 
   39500    297.67656   -1369.3848    420.62125    406.16998   -215.51833    34340.171 
   39600    303.79083   -1363.3407    423.74624    443.16931   -29.561641    34340.171 
   39700    300.45308   -1362.2908    417.81316    423.09375   -172.75977    34340.171 
   39800    297.54093   -1392.2989    426.35943    388.37667    174.78063    34340.171 
   39900    305.70135   -1371.6145    416.95901     436.8044    138.56652    34340.171 
   40000     297.3207   -1340.4639    427.28633    440.13609    308.67273    34340.171 
   40100    298.97289   -1400.6658    424.92834     385.0965    168.50046    34340.171 
   40200    302.43482   -1383.0784    420.36761    413.88091    431.66252    34340.171 
   40300    292.32668   -1400.7244    429.61082    359.46887    157.36595    34340.171 
   40400    307.46223   -1389.4461    431.10431    441.13308    470.54427    34340.171 
   40500    295.31873   -1357.9957    438.78109    424.98675    300.47976    34340.171 
   40600    300.29508   -1376.3143     437.0168    427.55466    130.67866    34340.171 
   40700    293.94703   -1350.0098    428.63322    416.58121    128.42169    34340.171 
   40800    296.28674   -1373.5017    423.10529    398.21099   -293.58291    34340.171 
   40900    294.38186   -1382.9582     450.6092    407.58797   -832.79007    34340.171 
   41000    306.99807   -1326.4322    444.29082    515.22073   -20.952956    34340.171 
   41100    293.86416   -1326.7951    426.67362    437.45909    48.198668    34340.171 
   41200    299.01372   -1308.4287    413.78355    466.37468    670.38193    34340.171 
   41300    297.51161    -1340.589    407.61802    421.21171    236.20987    34340.171 
   41400    290.83164   -1360.5098    415.37571    378.64338    108.05809    34340.171 
   41500    288.63613   -1321.9044    435.74053    427.62033   -15.742286    34340.171 
   41600    303.12585   -1339.8377    427.30561    467.20487     93.20554    34340.171 
   41700    292.77487   -1329.1966    415.50791    418.93378    -671.9839    34340.171 
   41800    307.70427   -1293.5075    469.30222    576.37133   -143.50369    34340.171 
   41900     296.6046   -1302.3918     438.3198     485.9823    101.14108    34340.171 
   42000    310.61647   -1340.6151    443.03352    516.25045    280.07949    34340.171 
   42100     293.6762   -1390.5637    452.82472     398.9861    478.40771    34340.171 
   42200    296.11082   -1369.1098    444.10449    422.80145    496.84425    34340.171 
   42300    292.80789   -1362.6207    447.62494    417.77707    260.95834    34340.171 
   42400    307.09514   -1323.0538    455.22862    529.97884    1100.5296    34340.171 
   42500    298.75862   -1368.9141    467.88313    458.82775    492.99472    34340.171 
   42600    311.40758   -1342.2797    463.83861    538.99183    556.73069    34340.171 
   42700    302.42999   -1312.0447    439.28332    503.80828    389.46594    34340.171 
   42800     298.6922   -1284.1124    467.25457    542.69861     336.0386    34340.171 
   42900    300.89675   -1302.5089    452.23438    519.31626   -556.68569    34340.171 
   43000    297.27524   -1309.2189    444.15292    488.04084   -404.04301    34340.171 
   43100    290.72239   -1342.0835    453.90064    435.09737   -85.207661    34340.171 
   43200    300.33194   -1361.4973    450.83565    456.35828    134.84702    34340.171 
   43300    299.72538   -1301.2151    451.69186    514.73589    241.38473    34340.171 
   43400    299.20353   -1358.4139    474.71315    478.18303     220.9697    34340.171 
   43500    312.92082   -1372.5987    458.07559    509.79768    724.99113    34340.171 
   43600    316.92125   -1403.0367    450.77247    490.26518     643.3747    34340.171 
   43700    291.69435   -1341.2025    455.02538    441.52714    367.87287    34340.171 
   43800    296.34065   -1390.6994    449.80893     407.9623    71.399153    34340.171 
   43900    289.40342   -1390.6962    438.15258    364.73304    582.98574    34340.171 
   44000    298.54376   -1382.5834    430.89053    407.18782    184.62654    34340.171 
   44100    297.03827   -1354.9033    442.68473    439.80966   -108.61204    34340.171 
   44200    300.87339   -1396.2596     415.0012    388.22606    211.39926    34340.171 
   44300     300.9652   -1375.2886    443.41915     438.0329    494.74199    34340.171 
   44400    307.09044    -1392.161    456.20195     461.8236    384.15186    34340.171 
   44500    296.23927   -1408.1431    459.72583    399.97414    363.59722    34340.171 
   44600    302.49495   -1412.2603    461.36646    425.97152    930.59244    34340.171 
   44700    304.89302   -1425.0082    445.63559      408.408    313.90709    34340.171 
   44800     299.8761   -1447.4198    479.19215    396.71743    264.54283    34340.171 
   44900      307.739   -1390.2503    468.57053    479.05488    138.70734    34340.171 
   45000    294.20578   -1371.8581    458.45444    425.73191    277.10724    34340.171 
   45100    306.84647   -1404.6262    450.11896     442.1649    273.42933    34340.171 
   45200    307.73906   -1377.2307    445.81773    469.32198    518.83985    34340.171 
   45300    297.13552   -1366.7162    455.76889    441.52348    413.11833    34340.171 
   45400    304.55003   -1377.3046    460.75849    469.67334    659.78202    34340.171 
   45500    293.51763   -1337.1545    473.75619    472.60503    248.34506    34340.171 
   45600    304.86485   -1353.6077    458.95293    492.99764   -168.84479    34340.171 
   45700    296.15106   -1333.6358    454.36787     468.7219    404.88113    34340.171 
   45800    293.04774   -1391.8499    434.52081    376.53538    320.05997    34340.171 
   45900    300.85309   -1347.6304    456.65965    478.42133    279.22976    34340.171 
   46000    311.85433   -1371.7747    464.22925    511.92098    411.67294    34340.171 
   46100    305.80623    -1374.889    478.79996    495.84823    33.683632    34340.171 
   46200    295.43375   -1363.3925    454.40002    435.73242   -147.50604    34340.171 
   46300    302.35884   -1363.9401    455.09662    467.40234   -52.771915    34340.171 
   46400      301.507   -1340.1981    429.83503    462.00544    201.43222    34340.171 
   46500    292.67143   -1404.4072    468.66858    396.41305   -608.51177    34340.171 
   46600    301.18333    -1416.872    472.50254    426.52575   -327.89541    34340.171 
   46700    293.68702   -1450.4506    439.98998    326.31375   -453.09456    34340.171 
   46800    297.47123   -1379.6135    458.31535    432.70068    102.72383    34340.171 
   46900    296.56575   -1341.4719    447.43422    455.83969   -239.73115    34340.171 
   47000     298.6773   -1338.5599    446.90367    467.83235    25.982211    34340.171 
   47100    302.01023   -1378.1765     456.7743    453.25689   -360.79268    34340.171 
   47200     289.4851   -1407.8948     452.7068    362.46039    163.71674    34340.171 
   47300    297.69773   -1383.8368    442.25075    413.44379    506.76071    34340.171 
   47400    298.40667   -1380.0816    436.61487    414.79006    378.68968    34340.171 
   47500    296.81514   -1396.5611    446.17443    400.62591   -178.75652    34340.171 
   47600    302.40669   -1373.6589     446.6894    449.49415    448.09015    34340.171 
   47700    291.56037   -1394.1497    449.83215    382.77691   -286.20276    34340.171 
   47800    303.57545   -1367.2287     462.5029    477.05766    -58.06985    34340.171 
   47900    304.01298   -1393.9939    455.43744    445.21844   -588.31324    34340.171 
   48000    294.89737   -1376.3937    474.22396    440.11368    187.85134    34340.171 
   48100    297.84553   -1336.1933    450.58321    470.09251    249.42072    34340.171 
   48200    295.48614   -1370.2525    460.65035    435.36123   -162.89095    34340.171 
   48300    303.34153   -1364.3131    466.20138      482.607   -199.57448    34340.171 
   48400    309.65626   -1406.1533    454.55622    457.86434   -347.22096    34340.171 
   48500    310.11181   -1404.6691    459.84256    466.70844   -81.708582    34340.171 
   48600     300.4968   -1363.5057    474.62397    478.88861   -36.559347    34340.171 
   48700    296.85675   -1415.8507    464.23008    399.58131   -475.72565    34340.171 
   48800    295.44327   -1417.0789    460.17271    387.86207   -274.75902    34340.171 
   48900    303.11848   -1394.3757    455.42268    440.75046    75.572655    34340.171 
   49000    295.42339   -1386.0632    466.14924    424.76385   -381.77198    34340.171 
   49100    304.60929   -1421.1469    446.39109    411.73339    -403.1316    34340.171 
   49200    297.97224   -1401.9684    483.81811    438.12907   -279.02908    34340.171 
   49300     296.0916   -1381.1581    486.37082    452.93191   -131.96551    34340.171 
   49400    288.27073   -1384.3677    469.45629    397.20954   -158.23305    34340.171 
   49500    294.88977   -1405.0253    452.33591    389.55942   -135.22206    34340.171 
   49600    306.00335   -1386.8139    488.72257     494.7432     373.4613    34340.171 
   49700    305.04617   -1388.8458    456.44884    456.08073    470.49329    34340.171 
   49800    304.11589   -1381.9392    472.16973    474.47388     46.36804    34340.171 
   49900    307.50865   -1391.4782    462.05081    470.25873   -260.73994    34340.171 
   50000    300.11156   -1408.2335    480.63881    438.42213   -787.99258    34340.171 
   50100    287.25501   -1405.0577    465.11626     367.5563   -808.42659    34340.171 
   50200    296.08569   -1388.4777    472.16134    431.37599    -655.2121    34340.171 
   50300    298.63989   -1368.9419     484.2914    474.66781    55.289218    34340.171 
   50400    312.57528   -1375.2904    475.16011    522.61763    143.34232    34340.171 
   50500    298.20015   -1430.3534    464.87939    391.84271   -30.074278    34340.171 
   50600    301.08526   -1412.3447    468.57024    426.67436    197.04484    34340.171 
   50700    305.26915   -1426.0616    459.68694      423.118    -591.2181    34340.171 
   50800    301.41461   -1344.3609    477.40903    504.99611   -497.89762    34340.171 
   50900    291.16763   -1372.4921    478.31122    431.12597    38.453257    34340.171 
   51000    298.20653   -1380.9036    462.34096    438.78309    95.135099    34340.171 
   51100    306.03623   -1389.2735     462.9088    466.61946    70.317608    34340.171 
   51200    298.34167   -1405.1878    454.99728    407.77033    736.15995    34340.171 
   51300     309.9215   -1420.3678    461.26742    451.56831    521.64122    34340.171 
   51400    307.50891   -1425.3777    459.33308    433.64271    484.12435    34340.171 
   51500    310.45582   -1409.0385    449.93441    453.99675    81.924376    34340.171 
   51600    298.19885   -1402.1615    477.15193    432.30122    486.93021    34340.171 
   51700    295.97935   -1409.3751    438.07039     375.9036   -125.31574    34340.171 
   51800    303.37064   -1399.7646    452.76819    433.85479   -48.109289    34340.171 
   51900    307.45443   -1414.6515    463.03681    447.82471   -82.623581    34340.171 
   52000    298.58849   -1420.3452    469.58333    408.32245   -285.83438    34340.171 
   52100    305.69351   -1368.2933    454.18655    477.31749    132.20365    34340.171 
   52200    287.31603   -1379.7877    478.62119    406.60895    386.34304    34340.171 
   52300    298.70312   -1410.8999     468.1502    416.85642    383.73851    34340.171 
   52400    306.01631    -1397.052    450.11609    445.95762   -31.227023    34340.171 
   52500    293.54786   -1377.9276    437.75774    395.97107    -9.616126    34340.171 
   52600    290.24554   -1437.9556    461.57457    344.72877    111.62218    34340.171 
   52700    291.57693   -1376.8985    457.45388    407.72516    423.21954    34340.171 
   52800    307.55042   -1364.3464    462.31634    497.84626    439.35781    34340.171 
   52900    292.39119   -1370.3369    479.93396     440.4731    349.72323    34340.171 
   53000    306.80965   -1386.3646    483.55762    493.69759    246.57564    34340.171 
   53100    315.32933   -1421.3249    475.24143    489.20005   -139.67115    34340.171 
   53200     300.0966   -1446.4681     454.7636     374.2443    290.76548    34340.171 
   53300    301.48513   -1418.2607    449.96806     403.9763    283.69153    34340.171 
   53400    293.41146   -1407.5305    455.93128    383.92077    298.08713    34340.171 
   53500    303.72736   -1379.9925    462.37763    464.85998   -2.8402763    34340.171 
   53600    304.97006   -1438.7665    460.61077    409.97555    265.42255    34340.171 
   53700    291.97323   -1440.4638    470.13713    358.64702    928.48447    34340.171 
   53800    305.40668   -1410.2329    458.64209    438.52785    897.19006    34340.171 
   53900    291.93946   -1411.2946     456.3082    373.83353    174.73961    34340.171 
   54000     302.4378   -1438.9822    459.18366    396.80668    325.94006    34340.171 
   54100    292.80097   -1461.0594    471.81932    343.50117    648.91303    34340.171 
   54200    304.07504   -1414.3552    461.09093    430.79318    695.92072    34340.171 
   54300     303.3149   -1438.5817    428.36594    370.38173    322.33013    34340.171 
   54400    301.85278   -1440.3638     465.1827    398.76127   -15.544165    34340.171 
   54500    306.05971   -1432.6953    463.46881     423.8646    155.59893    34340.171 
   54600    288.60642   -1423.1545    459.14093    349.63539   -205.99333    34340.171 
   54700    301.53785   -1420.2857    454.03137    406.25459    62.828225    34340.171 
   54800     292.6333   -1347.1759     475.0117    459.81391   -702.28194    34340.171 
   54900     306.4338   -1364.2026    480.96647    511.55761   -953.71517    34340.171 
   55000    295.95845   -1385.1032    468.00333    430.01333   -212.61458    34340.171 
   55100    300.02467   -1420.7186    452.28802    397.19078   -89.001237    34340.171 
   55200    300.83906   -1434.9716    446.25243    380.60907   -696.70721    34340.171 
   55300    303.61487    -1392.941    446.18695    435.20882    -186.2864    34340.171 
   55400    292.17279   -1361.1169    465.92231    434.68737   -138.69074    34340.171 
   55500     303.7455   -1369.4292    453.58073    466.70906    701.34401    34340.171 
   55600     298.9904   -1393.1234    461.89007    429.68038    358.63209    34340.171 
   55700    299.58955   -1377.7934    459.58576    445.43316     400.4286    34340.171 
   55800    303.82018   -1429.0108    459.44074    413.32732   -451.38286    34340.171 
   55900    305.78593   -1403.5258    449.27553    437.59464   -572.33136    34340.171 
   56000    298.14524   -1336.7843    454.82506    475.10752   -300.19665    34340.171 
   56100    296.19835   -1359.5816    466.11618    454.73972   -1139.2425    34340.171 
   56200    294.53927   -1363.7803    433.65331     410.5265   -487.05117    34340.171 
   56300    301.27845   -1389.7344    460.49054    442.08436     -525.925    34340.171 
   56400    300.68406   -1400.4628    494.07581    462.23575   -635.34369    34340.171 
   56500    298.10815    -1403.164    444.54561    398.27955   -664.96934    34340.171 
   56600    303.97859   -1350.8311    466.28526    499.07254   -555.99525    34340.171 
   56700    301.73396   -1420.6954    442.88701    395.59314   -668.29623    34340.171 
   56800    298.90315   -1370.8888    449.97667    439.60445    253.75418    34340.171 
   56900    302.60332   -1356.9611    469.49373    489.89127    470.30254    34340.171 
   57000     291.4057    -1383.829    455.79478    398.35617     369.9958    34340.171 
   57100    295.82024   -1417.8808     439.6473    368.25061    397.63129    34340.171 
   57200    305.18485   -1400.3322    439.31007    428.08675     457.5463    34340.171 
   57300    295.72832   -1430.6745    470.09804     385.4893    39.689008    34340.171 
   57400    299.00496   -1449.3396    453.85204    365.49245    89.105296    34340.171 
   57500    299.56278   -1405.8837    478.72503    436.36032    684.91537    34340.171 
   57600    302.87699   -1393.0137    453.39328    438.98383    237.08879    34340.171 
   57700    299.01312   -1457.6866      450.812    354.14255    437.68407    34340.171 
   57800    296.79106   -1400.1582    448.06772    398.81252    253.27202    34340.171 
   57900    306.69641   -1400.2557    446.50408    442.23753    274.21242    34340.171 
   58000    306.19454   -1422.7432    466.33918    437.30077     325.7057    34340.171 
   58100    302.08977    -1383.181    457.36625    449.20637     705.0646    34340.171 
   58200    295.59398   -1434.4269    455.70234    366.72958    22.849918    34340.171 
   58300    303.01641   -1439.7081    440.10748    379.63829   -47.695371    34340.171 
   58400    299.59525   -1407.0037    461.95178    418.61482    94.891326    34340.171 
   58500    293.77384    -1419.091    442.82077    360.89925   -132.88048    34340.171 
   58600    291.43687   -1421.8544    432.26464    336.94252    296.81841    34340.171 
   58700    292.62764   -1452.4566    424.88279    304.37856    200.72019    34340.171 
   58800    290.46139   -1460.7206    453.04104    314.41263    372.84981    34340.171 
   58900    304.39535   -1432.8997    469.70134    422.31698    126.53923    34340.171 
   59000     308.4997   -1433.4862    447.62873    418.33965    429.46219    34340.171 
   59100    315.82523   -1422.0119    450.44509    465.97387   -183.33698    34340.171 
   59200    291.66441   -1405.5725    451.31075    373.30629     250.1292    34340.171 
   59300    312.09377   -1393.4354    450.70742    477.82832    863.31022    34340.171 
   59400    299.53403   -1435.1561    463.67817    391.91021    1096.1001    34340.171 
   59500    297.05083   -1400.6973    460.67821    412.06626    927.25455    34340.171 
   59600    302.20765   -1401.1542      483.085    457.48846    225.00967    34340.171 
   59700    303.87007   -1395.7417     447.1045    434.48727    472.36435    34340.171 
   59800    307.79327   -1376.8321    473.71927    497.86886    228.12971    34340.171 
   59900    300.73188   -1419.3116    478.19841    427.72714    236.18314    34340.171 
   60000    294.94209   -1406.9294     441.2558    376.81335   -124.32535    34340.171 
   60100    310.54118   -1413.9192    453.38165    452.95181    179.02816    34340.171 
   60200    301.19361   -1502.4437    467.80322    336.30153    448.48613    34340.171 
   60300    286.42681   -1424.2719    463.08799    342.54412    270.42954    34340.171 
   60400    292.98589   -1406.7849    427.36339    354.16147     541.3699    34340.171 
   60500    302.10377   -1411.8951    467.73992    430.92968    680.05837    34340.171 
   60600    310.26077   -1405.8456     482.2656    488.63297   -393.76281    34340.171 
   60700    295.28113    -1428.722    448.89689    364.20506   -381.44368    34340.171 
   60800    304.96567   -1396.6799    459.45443    450.88587   -625.86447    34340.171 
   60900    302.62741   -1394.8912     465.7785    448.35553   -324.83733    34340.171 
   61000    296.18578   -1401.3837    456.16085    402.92508   -7.5050179    34340.171 
   61100    297.09284   -1392.4788    451.84663    411.64441     -1088.71    34340.171 
   61200    297.21221   -1406.3959    460.11122    406.53522   -65.065618    34340.171 
   61300    297.17827   -1438.7932    440.71926    354.59149   -625.84226    34340.171 
   61400    304.77451   -1458.6245    440.69613    369.31283   -490.35933    34340.171 
   61500    285.24612   -1394.4793    443.44129    347.31583   -565.41591    34340.171 
   61600    300.84943   -1408.3808    456.37594    417.37056   -482.54448    34340.171 
   61700    298.92743   -1399.4426    451.70713    412.89157    486.90863    34340.171 
   61800    301.93948   -1421.5015    439.14128    391.97675    305.29109    34340.171 
   61900    291.24658    -1445.032     439.1449    319.77906    -4.259615    34340.171 
   62000    290.35958   -1422.4226    445.09807    344.30431     359.0221    34340.171 
   62100    289.96476   -1418.7186    451.14714    352.26028   -87.049572    34340.171 
   62200     291.0901   -1451.4045    459.15608     332.7055   -215.06617    34340.171 
   62300    306.74275   -1435.5847    464.23139    424.84667    319.16148    34340.171 
   62400    305.37479   -1409.8898    460.45392    440.53764   -160.84546    34340.171 
   62500    289.64102   -1442.0443    441.35569    317.66952    304.52879    34340.171 
   62600    296.81296   -1440.3721    450.67307    361.30361    399.08347    34340.171 
   62700    292.35237   -1414.1515    471.49769    388.04558   -22.495135    34340.171 
   62800    288.34271   -1399.6411    491.44482    404.25239   -400.76415    34340.171 
   62900    295.87673   -1465.7601    470.37842    351.35957   -261.80674    34340.171 
   63000    294.06812   -1419.4676    461.46343    380.50477     220.2083    34340.171 
   63100    305.77003   -1405.7852    429.65454     415.6419   -24.160716    34340.171 
   63200    303.07871   -1428.8565    454.50805    405.17396    2.4658293    34340.171 
   63300     311.4792   -1385.2153    475.20352    507.74712    39.212667    34340.171 
   63400    302.60386    -1386.335    461.55931    452.58542     308.6684    34340.171 
   63500    297.70038   -1422.4963    463.05059    395.59621   -300.88746    34340.171 
   63600    293.23258   -1404.7132     463.0668    393.05946   -333.44927    34340.171 
   63700    301.57334   -1399.1959    467.64959    441.12418   -774.41817    34340.171 
   63800    298.87211   -1403.5702    463.75693    420.56201   -566.24299    34340.171 
   63900    297.88657   -1452.8009    440.63925    343.72771    -519.9612    34340.171 
   64000     309.7892   -1439.7979    459.80986    430.07845   -69.826311    34340.171 
   64100    296.76438   -1424.7185    454.78315    380.84623    20.439375    34340.171 
   64200    300.16521   -1449.3759    454.08385    370.96903     482.7306    34340.171 
   64300    298.32199   -1420.7377    466.29067    403.42427     781.9421    34340.171 
   64400    306.22548   -1443.2205    454.65726    405.28238    672.42379    34340.171 
   64500    303.38639   -1472.5436    457.33135    365.71059    181.09294    34340.171 
   64600    295.16835   -1389.1155    469.72243    424.12386    379.23238    34340.171 
   64700    294.86749   -1438.3969    450.44524    354.19576   -449.01884    34340.171 
   64800    292.02882   -1427.0883    447.16753    349.30587   -532.94209    34340.171 
   64900    295.28023   -1399.4321    457.21171    401.80568   -517.04865    34340.171 
   65000    292.10304   -1382.7817    465.57396    412.35675   -83.478488    34340.171 
   65100     295.3303    -1409.942    448.31636    382.62835   -115.41085    34340.171 
   65200     298.5931   -1435.4241     489.9029    413.58407   -285.73922    34340.171 
   65300    294.45871   -1447.5474     479.3782    372.11758    9.1640177    34340.171 
   65400    303.24759   -1449.4292     451.4013    382.26324    844.62683    34340.171 
   65500    303.34388   -1433.8928     446.8945    393.73109    329.46946    34340.171 
   65600    289.87259   -1439.9219    475.76453    355.25483   -557.12694    34340.171 
   65700    304.20375   -1415.9827     468.3541    437.01473    446.35553    34340.171 
   65800    306.09322   -1423.7893    444.90079    414.35503    542.93902    34340.171 
   65900    310.99405   -1419.4773     463.1297     459.2031    673.70205    34340.171 
   66000    299.30911   -1379.8192    468.98812    451.53325    354.17838    34340.171 
   66100    312.04398   -1351.3767    494.56134    563.51427    352.26909    34340.171 
   66200    305.44962   -1384.6343    482.45843    488.13822   -494.05351    34340.171 
   66300    300.12743   -1397.1196    471.88826    440.85775   -216.91664    34340.171 
   66400     291.5145   -1403.5058    476.30562    399.68553   -667.36041    34340.171 
   66500    307.53349    -1362.406    495.06075    532.45401   -459.82919    34340.171 
   66600     287.1055    -1386.079    474.65851    395.39674   -648.09004    34340.171 
   66700    300.86977   -1427.3865    434.40535    376.48686   -574.63677    34340.171 
   66800    292.04286   -1400.5839    453.70603    382.41276   -408.24219    34340.171 
   66900    304.99012   -1466.1319    460.60206    382.69279    220.09915    34340.171 
   67000    293.64403    -1504.763    461.95398    293.76961    634.96456    34340.171 
   67100    307.42703   -1452.7408     480.2947    426.86856    314.37791    34340.171 
   67200    301.33253   -1483.2681    474.10995     362.4162    971.22141    34340.171 
   67300    303.23773   -1493.4112    475.65621    362.49122     511.1045    34340.171 
   67400    304.94914   -1424.5247    470.61686    434.12824    365.44275    34340.171 
   67500    292.12487   -1424.1441    472.31007    377.82991   -5.3945157    34340.171 
   67600    308.05587    -1450.807    461.09182    412.46181    525.04282    34340.171 
   67700    301.59953   -1477.1187     471.5717    367.24269    631.82435    34340.171 
   67800    292.44368   -1436.4243     458.6004    353.29114    718.56746    34340.171 
   67900    302.75974   -1403.6657    470.43197    444.83687     78.56497    34340.171 
   68000    303.04977   -1385.9346    471.64596    465.10211    756.66402    34340.171 
   68100     299.9867   -1370.2788    468.75986    463.92959    629.52989    34340.171 
   68200    300.07369   -1370.1141    492.70613    488.43648     730.6111    34340.171 
   68300    297.65219   -1398.6456    475.68335    431.86035    1036.5209    34340.171 
   68400     299.3618   -1400.9415    455.71444    417.37714     821.8699    34340.171 
   68500    316.61201   -1385.7298     453.2258    508.61794   -101.01787    34340.171 
   68600    299.19582   -1365.8787    459.63931    455.60936    660.63685    34340.171 
   68700    301.65497   -1425.5438    475.10148    422.59967    752.49635    34340.171 
   68800    301.07499   -1410.9433    472.33703    431.79587    603.64667    34340.171 
   68900    296.94749   -1406.0619    476.96675    422.51984    539.68912    34340.171 
   69000     293.2213   -1410.9812    467.90285    391.57615    415.99939    34340.171 
   69100    288.05249    -1372.344    463.18539    401.96905    197.33467    34340.171 
   69200    304.53385    -1399.575     510.7782    497.34901   -167.32106    34340.171 
   69300    300.62743   -1465.0453     447.3651    350.68477   -35.971532    34340.171 
   69400    288.62688   -1498.9541    456.80044    271.58842    8.6692543    34340.171 
   69500     290.8435    -1447.809    454.78891    330.81138   -393.74881    34340.171 
   69600    298.33604   -1454.1046    477.95972    381.79039    6.3219148    34340.171 
   69700    296.66743    -1413.576    453.46752    390.23171    53.745269    34340.171 
   69800    304.10356   -1384.9691    459.96385    459.18198    828.79756    34340.171 
   69900    294.16332   -1374.4075    477.46686    442.00167    799.31975    34340.171 
   70000    304.82015   -1428.4486    456.12188    415.12224    522.44228    34340.171 
   70100    300.50955   -1413.6367    479.43333    433.62504    -157.4881    34340.171 
   70200    296.80852   -1434.0981    476.91658    393.80086    651.41401    34340.171 
   70300    303.93491   -1440.5205    467.28433    410.18345    320.53616    34340.171 
   70400     296.9595   -1401.7923    476.52341    426.40074    144.19591    34340.171 
   70500     307.3814   -1434.3702    467.30826    432.04503   -356.85521    34340.171 
   70600    297.06279   -1444.1887     471.9407    379.89179   -461.31932    34340.171 
   70700    304.17072   -1427.2695    483.15783    440.38124   -423.80663    34340.171 
   70800    290.94097   -1504.9161    460.27085    279.62984   -290.15018    34340.171 
   70900    294.20502   -1461.0681    485.53795      363.602   -639.52673    34340.171 
   71000    309.39616   -1436.2501    455.17319     427.2007    192.75445    34340.171 
   71100    306.13906   -1440.3639    498.81662    451.90493    -433.6615    34340.171 
   71200    288.65511    -1421.392    466.56577    359.04439   -290.63535    34340.171 
   71300     296.3262   -1453.2629    469.51313    365.03732   -471.19921    34340.171 
   71400    296.13605   -1386.9011    475.78706    436.80755   -876.02066    34340.171 
   71500    286.65138   -1411.8411    472.81921    365.72832    -1079.017    34340.171 
   71600    297.05034    -1423.068    489.17023    418.18539     -229.566    34340.171 
   71700    295.11257   -1361.4548    479.71882    461.52697    217.27503    34340.171 
   71800    294.91705   -1432.0652    470.54951    380.85731    343.28477    34340.171 
   71900    294.00186   -1445.8135    483.41717    375.81098    410.18377    34340.171 
   72000    297.95964   -1389.4294    471.30089    438.09353    805.09001    34340.171 
   72100    300.99717   -1433.4502    460.45363    397.05134     224.9602    34340.171 
   72200     297.7567   -1403.3067    463.97659    415.96814    592.58409    34340.171 
   72300    296.11187   -1429.7715    468.97803    387.01799    479.19144    34340.171 
   72400    308.14068   -1445.9947    497.63747    454.20582    609.19589    34340.171 
   72500    302.38764   -1424.0854    485.13785    437.42938   -150.09406    34340.171 
   72600    298.47255    -1390.658    497.74089    465.63949     192.0021    34340.171 
   72700    297.04071   -1403.0521    478.02234    427.00959   -171.44784    34340.171 
   72800    307.29702   -1388.0154    489.18277    499.89028   -443.28588    34340.171 
   72900    296.41774   -1403.6726    474.58924    420.12029   -644.15547    34340.171 
   73000    296.22058   -1392.3162    471.83284    427.82296   -714.47072    34340.171 
   73100    306.24099   -1411.7444    479.44759     461.6194   -235.00368    34340.171 
   73200    299.84149   -1430.9973    484.16348    417.95379   -252.54348    34340.171 
   73300    303.37872    -1450.277    478.13949    408.75049   -329.39907    34340.171 
   73400    307.29512   -1449.2899     459.6022     409.0266   -479.20086    34340.171 
   73500     297.2795   -1460.8473    479.80231    372.08117   -157.35845    34340.171 
   73600    291.53338   -1411.7776    492.25622    407.45018   -167.39863    34340.171 
   73700    284.97445   -1420.2531    482.83968    359.70393   -9.5424328    34340.171 
   73800    285.41326   -1404.4401    507.39255    402.06706    637.59089    34340.171 
   73900    305.62413   -1413.0314    478.74328    456.82036    17.250185    34340.171 
   74000    300.09045   -1426.9591    475.13757    414.09928     158.7719    34340.171 
   74100     302.7255   -1443.3074    493.98292    428.59021    172.17506    34340.171 
   74200    299.69381   -1446.5495    463.20697    380.77282    970.35897    34340.171 
   74300    294.29473   -1435.9423     467.1136    370.71174    498.15179    34340.171 
   74400     300.8111    -1452.657      473.016       389.56    335.08112    34340.171 
   74500    296.29356   -1466.5081    468.00819    350.13854   -357.65648    34340.171 
   74600    294.76015   -1443.6037    468.44448    366.49964    442.39945    34340.171 
   74700    306.14151   -1441.0594    463.58586    415.98988    69.952796    34340.171 
   74800    291.98429   -1383.8745    513.31503    458.46453   -284.88036    34340.171 
   74900    304.50158   -1391.8137    479.90957     474.0948    107.91852    34340.171 
   75000    302.30257   -1436.5525    463.57141    403.00863     209.3045    34340.171 
   75100    308.98067   -1463.9493    478.60493    421.04197    258.30953    34340.171 
   75200    296.72829   -1463.9352    463.72009    350.40214    175.76338    34340.171 
   75300    303.48264   -1465.6855    475.43151    391.10701   -58.756484    34340.171 
   75400     294.2637   -1449.2558    474.97653    365.11993    -608.5415    34340.171 
   75500    301.21014   -1413.3944    499.66923    457.29211    -147.6644    34340.171 
   75600    299.06845   -1459.1568    496.41611    398.52825     -140.421    34340.171 
   75700    301.27324   -1473.2663    494.30928    392.34743   -463.36271    34340.171 
   75800     301.6483   -1448.5169     482.6966    407.19135   -737.84861    34340.171 
   75900    304.31024   -1478.0972    498.36133    405.39205   -180.74166    34340.171 
   76000    297.02003   -1459.8059    467.27278    359.41204    129.45351    34340.171 
   76100    298.44623    -1440.875    495.62896    413.19076    463.44173    34340.171 
   76200    299.31249    -1493.282    495.28359    364.38136    110.72754    34340.171 
   76300    289.63956   -1485.2771    494.47558    327.54998     811.4039    34340.171 
   76400    288.49099   -1499.8889    480.75098    293.98566    422.42314    34340.171 
   76500      303.001   -1480.6501    512.39023    410.90884    480.83569    34340.171 
   76600    297.95971   -1458.7648    477.40398    374.86147    359.65385    34340.171 
   76700    309.83342   -1432.3702    484.13912    462.03674    650.76183    34340.171 
   76800    290.70971   -1420.5759    487.56175    390.20837    356.22552    34340.171 
   76900    295.79942    -1484.805    471.67772    333.26208   -432.69025    34340.171 
   77000     301.2659   -1456.2675    477.12455    392.12814   -78.175546    34340.171 
   77100    302.45678   -1470.7673    464.67574    370.60001   -157.03019    34340.171 
   77200    295.02247   -1443.8919    481.85778    380.81875     20.77431    34340.171 
   77300    298.08723   -1420.6219    478.58655    414.76739   -374.17381    34340.171 
   77400    299.45983   -1466.6892    459.60443    355.96563   -528.06574    34340.171 
   77500    293.34476   -1440.9047    482.98136    377.29308    247.06465    34340.171 
   77600    296.33503     -1433.34    496.02543    411.51273    143.81385    34340.171 
   77700    303.89206    -1478.523    482.99443    387.69598   -467.52375    34340.171 
   77800    289.41689   -1459.6157    486.71617     344.4384   -317.17256    34340.171 
   77900    299.35254   -1469.3023    467.62126    360.88101   -192.46209    34340.171 
   78000    297.93525   -1472.1621    471.52834    355.47722   -120.39119    34340.171 
   78100    306.37879   -1445.3314    486.54028    435.75231   -149.67436    34340.171 
   78200     302.1088   -1431.1901     478.6419    422.55952    318.49169    34340.171 
   78300     289.7798   -1466.8528    487.16624    339.30324    440.27852    34340.171 
   78400    300.77373   -1482.7672    472.92849    359.19218    379.53516    34340.171 
   78500    313.15927   -1467.5335    488.73497     446.6076    774.22729    34340.171 
   78600    300.84643    -1452.235    515.19103    432.31779    224.87992    34340.171 
   78700    303.76616   -1447.7561    475.72182    410.61723   -61.954448    34340.171 
   78800    298.03747   -1453.3961    491.26537    394.44556   -337.29367    34340.171 
   78900    302.44699   -1483.7212    448.01247    340.93835   -230.48754    34340.171 
   79000    291.18263   -1462.5279    491.48946    354.33668    -528.0665    34340.171 
   79100    294.21008   -1435.3847     495.5955    399.36592    104.13772    34340.171 
   79200    306.20313   -1477.2779    504.43375    420.89973    -78.82315    34340.171 
   79300    306.78753   -1458.3302    516.46606    454.53969    223.83534    34340.171 
   79400    300.72105   -1440.6724    469.90828     398.0269    300.35527    34340.171 
   79500    298.83091    -1440.598    494.20709     413.7968    247.33253    34340.171 
   79600    304.22977   -1439.1967    471.73757    417.30258    232.53808    34340.171 
   79700    292.19019   -1477.7086    485.06851    337.32117   -59.872284    34340.171 
   79800    299.98372   -1492.6999    500.44259     373.1777    582.36996    34340.171 
   79900    290.80841   -1473.1332    522.41678    372.95534    356.38837    34340.171 
   80000    287.89051   -1464.4784     471.8791    317.79106   -44.414881    34340.171 
   80100    306.03348   -1450.0054    512.62132    455.58762    244.45578    34340.171 
   80200    305.32935   -1498.3102    481.94682    373.40328    183.72195    34340.171 
   80300    296.47976   -1465.5192    472.17737    356.14422    58.172512    34340.171 
   80400    303.33682   -1472.9136    487.35616    395.13987   -613.04871    34340.171 
   80500    302.32616   -1458.8321    497.61986     414.8848   -56.081665    34340.171 
   80600    302.09479   -1442.9051    475.84227    407.98107   -316.48792    34340.171 
   80700    303.58215   -1452.6317    468.70298    397.88518   -342.30589    34340.171 
   80800    303.06169   -1415.9015    479.23787    442.78139    54.677901    34340.171 
   80900    308.35539   -1442.1565    495.56794    456.95169    280.96272    34340.171 
   81000    317.68703   -1469.1971    473.11925     449.9372     191.7558    34340.171 
   81100    301.75364   -1421.3307    488.32468    440.48517   -153.26335    34340.171 
   81200    301.55842   -1441.1844    508.29104    439.70922   -561.40365    34340.171 
   81300    308.32784   -1471.8438    499.24809    430.81921   -400.41592    34340.171 
   81400    294.93085   -1447.7244    476.42437     371.1358    -408.3667    34340.171 
   81500    306.15245   -1469.3926    493.47831    417.59889   -12.302333    34340.171 
   81600    300.92341    -1466.015    454.29384    357.99097    517.90528    34340.171 
   81700    296.76433    -1461.809    475.45464    364.42697    807.29849    34340.171 
   81800    300.14379    -1487.264    493.03626    371.93583    571.09536    34340.171 
   81900    306.46393   -1494.3453     485.9425    386.52813   -498.22758    34340.171 
   82000    306.26865   -1459.4053    512.21803    446.85479   -118.74292    34340.171 
   82100     302.5747   -1473.0427    495.22855    399.41414    214.51869    34340.171 
   82200    299.89075     -1475.63      485.686    375.06784    373.64407    34340.171 
   82300    296.49958   -1444.2086     490.3503    395.71792    167.88511    34340.171 
   82400    292.53729   -1461.0874    478.20419    348.65783   -384.01028    34340.171 
   82500    290.66123   -1445.2104    498.26162    376.05308   -355.27147    34340.171 
   82600    303.88783   -1484.6178    508.14901    406.73654   -72.615608    34340.171 
   82700    295.25318   -1458.3337    510.50208    396.07135   -9.7713271    34340.171 
   82800    297.34363   -1423.0602    484.50992    414.86783   -26.009214    34340.171 
   82900    291.59126   -1470.8725    499.37178    355.73435    694.68827    34340.171 
   83000    304.46681   -1505.4806    478.92214    359.28217    777.63581    34340.171 
   83100    303.94737   -1490.3289    520.42654    413.57397     716.2899    34340.171 
   83200    298.89199   -1486.2614    508.75056    382.95488    574.57179    34340.171 
   83300    300.82289   -1486.7335    486.65113    369.17228    281.59055    34340.171 
   83400    300.84527   -1459.6986     465.2725    374.93034    115.55894    34340.171 
   83500    299.22122   -1467.4484    447.47329    341.98919   -191.34201    34340.171 
   83600    294.85959   -1515.7198    486.88542    313.27713    -71.71503    34340.171 
   83700    307.50391   -1499.2551    507.88584    408.29537    107.80006    34340.171 
   83800    303.94165   -1507.2618    497.20295    373.39147    299.81239    34340.171 
   83900    294.59208   -1495.1932    488.34576    334.04643    258.67544    34340.171 
   84000    312.86408   -1457.4655    482.32706    448.92403      370.105    34340.171 
   84100    301.30524    -1484.845    485.88997    372.49515    627.10652    34340.171 
   84200    296.07732   -1502.9717    492.37145    337.05395    190.51257    34340.171 
   84300    305.15421   -1517.5466    495.84144    367.26436   -82.571035    34340.171 
   84400    306.16042   -1435.8707    486.82881    444.50755   -122.30702    34340.171 
   84500    312.40321   -1444.4688    488.96977    466.46571    -532.0611    34340.171 
   84600    300.31456   -1473.7697    494.23654    387.40774   -1484.9776    34340.171 
   84700     295.4851   -1468.3831    468.38693    344.96244   -1313.9508    34340.171 
   84800    296.92307   -1479.4735    487.92204    359.95239    244.68831    34340.171 
   84900    297.99767   -1497.1134    494.11041    353.39204    -200.1164    34340.171 
   85000    298.72333    -1503.864    475.35707    331.19118    388.23106    34340.171 
   85100    298.54463   -1511.0043    490.65902    338.53944     430.2731    34340.171 
   85200    301.81155   -1493.9382    505.21846    385.03498     764.3621    34340.171 
   85300    305.80291    -1483.139    506.61733    415.40048    361.93168    34340.171 
   85400    302.51615   -1450.9058    507.14589    433.20194    97.911786    34340.171 
   85500    285.05316   -1432.1982    516.94723    382.22459   -149.30856    34340.171 
   85600    305.98155   -1476.6531    470.89981    386.98205   -111.64377    34340.171 
   85700    304.69367   -1512.7092    470.26161    344.42565    49.594867    34340.171 
   85800    304.17417   -1507.8739    487.00779    363.64252    607.52888    34340.171 
   85900    298.54792   -1456.0999    485.82129    388.62105   -7.5153324    34340.171 
   86000    298.08075   -1448.4878    508.28656    416.57205   -113.94282    34340.171 
   86100    294.71262   -1467.0396    474.48198    348.88486    1.3936303    34340.171 
   86200    281.22525   -1449.6024    498.70547     329.1552   -391.86858    34340.171 
   86300    311.88242   -1434.8198    500.62504    485.39951   -325.30443    34340.171 
   86400    294.93946   -1452.7165    501.32041    391.07899   -814.15591    34340.171 
   86500    303.82055   -1416.3794    494.67514    461.19478   -534.28657    34340.171 
   86600     300.0024   -1450.0489    505.02282    420.49391   -47.650317    34340.171 
   86700    312.86393   -1484.8506    503.03444    442.24563   -190.43533    34340.171 
   86800    301.43218   -1467.1828    489.61524    394.46032   -157.84243    34340.171 
   86900     297.0304   -1429.4083    501.43297    424.01706   -425.32846    34340.171 
   87000    294.09075   -1470.8679    494.31056     362.0546   -391.67377    34340.171 
   87100    308.07038   -1465.8763     503.8028    440.16949    115.22167    34340.171 
   87200    288.51021   -1471.0703    517.78046    359.92118   -169.93359    34340.171 
   87300    294.99096   -1474.6035    500.13539    368.24134   -142.60934    34340.171 
   87400    297.58209   -1492.6888    487.87954    349.69427     355.9532    34340.171 
   87500    298.31913   -1498.7046    518.88412    378.03777   -274.98737    34340.171 
   87600    290.10048   -1474.6581     486.5404    332.33173   -658.59874    34340.171 
   87700    303.45558   -1463.5224    473.13434     390.8498   -22.023032    34340.171 
   87800    299.17516   -1473.1796    489.06583    377.64084   -628.37229    34340.171 
   87900    308.30451   -1454.2641    487.70929    436.75393    -443.0986    34340.171 
   88000    294.78331   -1468.7178    521.35736    394.40388    343.72844    34340.171 
   88100    293.03596   -1453.3243    501.46013    381.94674    372.68048    34340.171 
   88200    298.58584   -1427.1831    486.03818    417.92731    380.61091    34340.171 
   88300     297.8508    -1486.118    484.06271    353.67132    73.034879    34340.171 
   88400    306.99881   -1465.8821     488.6608    420.14424    -232.1932    34340.171 
   88500    295.64588   -1440.6534    484.24005    389.27709   -451.57452    34340.171 
   88600    307.77288   -1453.1193      485.404    433.17361   -242.27745    34340.171 
   88700    301.79764   -1493.5689    498.21717    378.33969   -129.62687    34340.171 
   88800    295.32791   -1445.1944    507.07428    406.12302    5.0938661    34340.171 
   88900    303.98352   -1464.0008    516.17866    435.81877    450.49865    34340.171 
   89000      293.328   -1478.8278    481.29518    337.60753     176.9324    34340.171 
   89100    289.87823   -1449.1567    505.16657    375.44779   -260.40838    34340.171 
   89200    308.51933   -1459.9602    481.57278    425.89904    16.761605    34340.171 
   89300    296.96673   -1443.7407    496.86742    404.82923   -359.59969    34340.171 
   89400    292.11437   -1426.4229    503.24229    406.43548   -443.64501    34340.171 
   89500    299.55112   -1476.4491    513.10161    400.11848   -143.66549    34340.171 
   89600    288.23517   -1427.5366    497.30544    381.72794    -704.4116    34340.171 
   89700    311.36195    -1391.631    493.77454    519.36879   -231.37606    34340.171 
   89800    295.12126    -1400.387    505.92426    448.83981    261.86403    34340.171 
   89900    307.17899   -1448.8196    505.45501    454.82113    391.60468    34340.171 
   90000    306.20644     -1500.67    487.81161    380.90055    431.11426    34340.171 
   90100    291.76437   -1444.4323    481.32026    364.91099    572.75037    34340.171 
   90200    294.41728   -1419.4809     524.5231    445.14039    980.14318    34340.171 
   90300    308.83846   -1487.3479    519.92204     438.3132    534.62587    34340.171 
   90400    294.73102   -1435.8578    499.23452    404.90302    793.41136    34340.171 
   90500    308.97589   -1440.4949    535.83282     501.7025    1022.2795    34340.171 
   90600    296.96525   -1440.9053    502.43568    413.22622    770.32913    34340.171 
   90700    294.92112   -1426.0409    532.40613    448.75675    461.83161    34340.171 
   90800      300.869   -1445.1071    511.27564    435.63302    483.11309    34340.171 
   90900    297.66655   -1476.0565    499.18095    378.01239    30.313347    34340.171 
   91000    295.51512   -1474.4118    504.74642    375.42994    201.69459    34340.171 
   91100    307.92466   -1482.1621    502.90491    422.32259    122.76179    34340.171 
   91200    293.19971   -1472.6419    509.55808    371.47238   -124.66289    34340.171 
   91300    297.63764   -1447.6206     503.5574    410.69313   -67.118396    34340.171 
   91400    305.46293   -1437.8299    484.74904    437.29381   -166.84181    34340.171 
   91500    296.03884   -1448.1651    479.41564     378.7296   -787.96354    34340.171 
   91600    294.31005   -1446.2713    541.34596    434.68483    -642.5468    34340.171 
   91700    308.76201    -1493.039    511.24938    423.60146   -432.88202    34340.171 
   91800    298.89639   -1454.8271    504.01581    409.67445    -629.4016    34340.171 
   91900    305.60392   -1454.0687     521.4104    458.35815   -1208.1877    34340.171 
   92000    302.62794    -1430.305     481.7077    428.87332   -974.03838    34340.171 
   92100    293.23098   -1539.0286     507.6581    303.32804   -183.49652    34340.171 
   92200    305.95795   -1490.9383    475.84519    377.53481   -588.79846    34340.171 
   92300    290.57973   -1511.0901    515.98587    327.52666    -189.2198    34340.171 
   92400    302.78751   -1504.7619    501.57072    375.00586   -179.96708    34340.171 
   92500    305.54019   -1471.9567    505.13339    423.90308   -152.21205    34340.171 
   92600    307.78623   -1487.4872    502.00695    415.46939    -395.7754    34340.171 
   92700    307.04151   -1483.9952    522.11264    435.67735   -72.132864    34340.171 
   92800    301.00912    -1464.248    517.63775    423.49198   -178.94488    34340.171 
   92900    297.05203   -1495.9321    490.18631    346.34502   -134.71287    34340.171 
   93000    294.93348   -1474.1219    500.39021    368.71612    -171.0175    34340.171 
   93100    293.88801   -1451.0624    502.56483    389.19155    -386.8755    34340.171 
   93200    298.23924   -1484.2164    516.37249    389.65074   -728.70631    34340.171 
   93300    297.93928    -1475.503    490.91326    371.53961     -1022.04    34340.171 
   93400    293.40816   -1476.9505    483.26216    341.81671    -479.4533    34340.171 
   93500    297.81519   -1443.6984    501.88738    413.75346   -431.68152    34340.171 
   93600    295.99106   -1428.6493    515.51579    434.12813   -751.75812    34340.171 
   93700    289.96313   -1453.6343    505.40413    371.59414   -875.52584    34340.171 
   93800    290.72461   -1466.5008     499.6504    356.43992   -710.82904    34340.171 
   93900    305.08547   -1434.8016    519.26686    473.12187   -279.07544    34340.171 
   94000    302.87031   -1430.9737    488.92547    436.52559    429.90524    34340.171 
   94100    302.16708   -1482.3144    536.80973    429.86828   -5.0900503    34340.171 
   94200    291.97351   -1415.0893    507.32637    421.21201   -193.34995    34340.171 
   94300     296.3756   -1443.8191    506.55895    411.75172    72.509218    34340.171 
   94400    292.57285   -1464.8163    506.39763    373.28432   -553.84391    34340.171 
   94500    297.67788   -1479.4485    510.61249    386.10344   -376.68176    34340.171 
   94600    295.11174   -1523.1347    515.53902     335.6635   -202.32243    34340.171 
   94700    298.51408   -1534.0857    516.60376    341.26371     364.3561    34340.171 
   94800    301.42167   -1513.2565    513.74807    372.47165     186.5788    34340.171 
   94900    297.94811   -1510.3289    502.01467    347.85526    739.36877    34340.171 
   95000    286.35538   -1483.3337    518.04017    338.10939    518.74766    34340.171 
   95100    303.12105   -1488.8527      491.598    382.46049    593.93268    34340.171 
   95200    300.21499   -1487.7114     514.5057    393.28197     501.8824    34340.171 
   95300    292.91358   -1489.2727    491.75782    335.73898   -262.66241    34340.171 
   95400    298.42757   -1492.5885    493.02258    358.78589   -206.18187    34340.171 
   95500    298.36257   -1501.3537    504.80439    361.50669   -406.73546    34340.171 
   95600    310.13619   -1503.4973    502.97596    411.12465   -160.94601    34340.171 
   95700    282.72397   -1497.0612    525.67201     315.4846   -591.18711    34340.171 
   95800    305.64673   -1475.5146    496.76562    412.46233    134.37938    34340.171 
   95900     297.6742   -1489.8029    517.62862    382.74844   -323.73516    34340.171 
   96000    295.38144   -1516.0137    508.75582    337.22894     169.4719    34340.171 
   96100    297.04387   -1505.8551    489.79566    335.99425    136.89162    34340.171 
   96200    294.90334   -1514.5402    523.75426     351.5247    2.1182051    34340.171 
   96300    305.25279   -1502.4263    498.62358    385.61543    339.86354    34340.171 
   96400    301.21992   -1500.1331    499.13067    370.05932   -4.9251351    34340.171 
   96500    296.02674    -1466.546    517.12844    398.00641   -155.88464    34340.171 
   96600    293.09284   -1458.9917    504.34065    379.41872   -261.88249    34340.171 
   96700    295.52683     -1470.39    501.94109    376.69964   -395.79936    34340.171 
   96800    304.11741   -1456.4488     497.5196    425.32113    23.032782    34340.171 
   96900    305.80835   -1468.3277    498.07206     421.6913    943.54432    34340.171 
   97000    297.33082   -1425.6111    508.12744    435.87609    560.46083    34340.171 
   97100    299.86968   -1454.1585     527.6888    438.44615    408.87532    34340.171 
   97200    309.07593   -1440.1774    540.35747    507.00002    937.86568    34340.171 
   97300     297.4383    -1441.569    492.56618    404.84616    339.43464    34340.171 
   97400    301.49086    -1450.993    526.54271    447.84472    82.905094    34340.171 
   97500    298.44403   -1414.9358      527.005    470.49604    -376.8069    34340.171 
   97600    292.32857   -1442.2867    479.62777    367.93213   -155.89186    34340.171 
   97700     305.2165    -1424.951    500.85901      465.161    228.14928    34340.171 
   97800    306.74958   -1454.7826    483.30441    424.75293    196.93275    34340.171 
   97900    295.87636   -1446.4348    489.00614    389.31084    65.455555    34340.171 
   98000    313.61999   -1485.3414    489.64071    431.80247    131.02978    34340.171 
   98100    293.74722   -1480.3936    497.30287    353.95763   -278.81375    34340.171 
   98200    299.54317   -1487.6247    500.60447     376.4095   -95.614029    34340.171 
   98300    291.62638   -1489.5152    494.73239    332.61208   -505.64987    34340.171 
   98400    300.13024   -1484.3407    505.23458    386.99578   -435.16422    34340.171 
   98500    294.61557    -1517.212    479.24883    303.03761   -219.97271    34340.171 
   98600    311.66054   -1519.5131    472.31151    371.38272   -43.408789    34340.171 
   98700    293.86998   -1536.4217    502.65336    303.83874     475.5907    34340.171 
   98800    304.62663   -1513.5382    487.52327    360.55313   -84.528773    34340.171 
   98900    301.90785   -1518.4964    491.97385    347.67052    556.49851    34340.171 
   99000    303.78807   -1511.9482    495.85745    366.66047    149.13723    34340.171 
   99100    308.09444   -1534.0401    492.86198     361.1744   -222.80424    34340.171 
   99200    299.28932   -1479.7894    491.69334    374.17824   -619.30083    34340.171 
   99300    293.74724   -1486.2615    516.97213     367.7591   -736.35261    34340.171 
   99400    299.33373   -1514.6664    495.10827    342.91834   -687.89585    34340.171 
   99500    296.81623   -1496.7865    517.94653    372.17763    84.797429    34340.171 
   99600     305.5915   -1551.4562    522.92477    362.42848    164.37937    34340.171 
   99700    312.63048   -1532.8617    515.00795    405.14541     128.4468    34340.171 
   99800    306.85343   -1480.7742     488.4838    404.41342    341.98035    34340.171 
   99900    294.99976   -1519.6642    475.74831    298.83363    368.73009    34340.171 
  100000    301.61006   -1516.0464    528.58979    385.38094    613.99281    34340.171 
  100100    291.74589   -1501.1442    485.10118    311.89589    362.23862    34340.171 
  100200    299.97749   -1511.6222    498.75094     352.5354   -130.54855    34340.171 
  100300    307.04975   -1498.8996    490.34642     389.0442     -53.8704    34340.171 
  100400     301.7723   -1528.9859    476.06023    320.65041   -165.14612    34340.171 
  100500     294.7031   -1516.0599    499.32364      324.663   -13.075764    34340.171 
  100600    302.32062    -1504.036    500.45021    372.48599    229.68297    34340.171 
  100700     302.5232   -1509.7207    508.73087    376.00411    829.07009    34340.171 
  100800    293.92444   -1496.1322    498.61306    340.33587     30.61813    34340.171 
  100900    290.63944    -1492.072    477.43049    308.26117   -112.02035    34340.171 
  101000    302.89289     -1477.75    495.54742    396.47401    167.54307    34340.171 
  101100    289.59171   -1491.0091    487.89165    315.01628     -324.491    34340.171 
  101200    310.73787   -1445.8273     504.9744    473.53166    -198.6618    34340.171 
  101300    297.48441   -1515.0515     516.6289    355.63627   -516.34435    34340.171 
  101400     296.1858   -1521.3644     506.7445    333.52814   -620.38672    34340.171 
  101500    305.47867   -1493.9671    488.58291    385.06212    101.79798    34340.171 
  101600    297.12241   -1502.9931    492.12446    341.54252     363.2926    34340.171 
  101700    298.72027   -1509.8355    504.18323    354.03184    452.85866    34340.171 
  101800    300.92579    -1454.165     510.4517    426.00976     311.2369    34340.171 
  101900    308.03985   -1499.3159     501.7257    404.51385   -546.29868    34340.171 
  102000    293.10031   -1449.8688    483.07401    367.30899   -988.58984    34340.171 
  102100    289.17368   -1480.2637    518.81564    354.78291   -808.82402    34340.171 
  102200    307.66598   -1490.7543    502.68314    412.33117   -163.47994    34340.171 
  102300     299.8797   -1448.2573    482.99775    399.70197    -509.2109    34340.171 
  102400    303.74254   -1463.8045    502.84954    421.58908   -230.49825    34340.171 
  102500    303.20257   -1466.0385    505.58045    419.62817    99.800984    34340.171 
  102600    295.18245   -1504.1518    482.77317    322.20246    156.51257    34340.171 
  102700    301.63734   -1447.2099     483.9558    409.70771    422.66012    34340.171 
  102800    305.01239    -1462.157    497.46262    423.62954    91.656693    34340.171 
  102900    297.87233   -1460.1878    498.79422      394.431   -150.24976    34340.171 
  103000    301.26014    -1470.845    502.77219    403.17201   -8.2889142    34340.171 
  103100    307.62588   -1500.1245    490.96222    391.05748    341.54948    34340.171 
  103200     305.9102   -1495.9866    506.11483    402.53871    266.56247    34340.171 
  103300    303.75032    -1469.406    520.29309    433.46649    993.08885    34340.171 
  103400    305.67951   -1527.4136    498.04438    361.99125    257.58633    34340.171 
  103500    308.75147   -1490.2078    493.86549    409.00082   -200.61659    34340.171 
  103600    300.37389      -1473.1    503.99148    398.10245   -260.50009    34340.171 
  103700    304.08602   -1455.2751    506.49273    435.32501    418.65464    34340.171 
  103800    288.51389   -1500.2066    511.74078    324.76193    192.74992    34340.171 
  103900    310.09532   -1505.8286      530.949    436.58026   -149.00006    34340.171 
  104000    314.36974   -1502.0743    473.96477    402.80621    32.706596    34340.171 
  104100    300.72444   -1493.6841    517.31085    392.43324    41.465173    34340.171 
  104200    304.63193   -1507.5088    501.41496    380.49838   -137.16896    34340.171 
  104300    296.06075   -1495.8713    518.93141    370.63887    40.853507    34340.171 
  104400    300.77583   -1459.3995    506.66004    416.30101    2.3192829    34340.171 
  104500    303.51386   -1462.1835    498.75266    418.07231    164.25722    34340.171 
  104600    302.10967   -1468.2807    492.46474    399.29576    360.64283    34340.171 
  104700    290.40927   -1525.5643    523.89991    320.19059    630.32706    34340.171 
  104800    292.38866   -1492.4821    526.08926    364.47177    698.51583    34340.171 
  104900    294.71213   -1468.8993    527.53408    400.07502    236.89922    34340.171 
  105000    301.88478   -1536.6922     498.5453    335.94113    222.89464    34340.171 
  105100    297.79783   -1479.4364    540.96432    417.01341    87.093125    34340.171 
  105200    300.60544   -1459.7737    503.37122    411.86242    188.21503    34340.171 
  105300    306.70791   -1464.1893    545.04431    476.89644    -778.6909    34340.171 
  105400    312.66559    -1477.085    508.15833    454.23233   -214.60734    34340.171 
  105500    296.86628   -1505.0587    539.56962    385.75631    94.486579    34340.171 
  105600    291.86405   -1516.4072    505.97166    318.04112    549.03358    34340.171 
  105700    305.77046   -1509.0495    505.77337    388.49832   -73.966747    34340.171 
  105800    297.87422    -1519.881    517.03484    352.98703   -26.823269    34340.171 
  105900    296.18735   -1489.5255    524.32243    382.95203    190.32589    34340.171 
  106000     305.9093   -1508.0262    523.40862    407.78886    1058.1027    34340.171 
  106100    306.86999   -1485.4799    553.72342    465.02275       1658.7    34340.171 
  106200    310.99893   -1504.0206    498.90887    410.46117    891.31663    34340.171 
  106300    307.82803   -1466.7691     535.7739    470.14469     390.7884    34340.171 
  106400    305.81035   -1477.0876    547.55559    462.42405   -391.02726    34340.171 
  106500    306.20318   -1459.6025    521.51979    455.66137   -350.01111    34340.171 
  106600    304.91074   -1490.0527    525.76751    423.57612   -350.93782    34340.171 
  106700    298.22814    -1507.572    500.11815    349.99029   -788.47155    34340.171 
  106800    299.78729   -1495.2734    519.16122    388.42876   -784.43624    34340.171 
  106900    303.02816   -1475.6182     538.0351    441.70922   -484.79273    34340.171 
  107000    296.29704   -1481.5264     528.6348    395.76271   -614.54718    34340.171 
  107100    289.63147   -1502.4309    532.61509     348.4989    138.63011    34340.171 
  107200    295.97344   -1558.5912    503.24023    291.83049    197.14282    34340.171 
  107300    305.84098   -1529.2594    521.39119    384.22723     208.0477    34340.171 
  107400    288.91421    -1568.879    520.74257    266.91343    387.78251    34340.171 
  107500    300.45101   -1543.3749    538.08488    362.27189    271.01396    34340.171 
  107600    299.26035   -1563.5691    520.24867    318.82198    304.37641    34340.171 
  107700      307.593   -1541.7313    513.24768    371.58653   -275.25474    34340.171 
  107800    311.49684   -1507.3225    511.85526    422.37197    541.62444    34340.171 
  107900    294.86912   -1490.9266       540.66    391.88825    549.33922    34340.171 
  108000    295.65356   -1565.2673    504.29082    284.74894   -143.59094    34340.171 
  108100    305.69046   -1549.6358    529.47044      371.245    412.65019    34340.171 
  108200    299.26834   -1521.5152    524.71008    365.37371     116.2686    34340.171 
  108300    305.31866   -1477.3084    539.85938    452.26897    411.74756    34340.171 
  108400    311.89519    -1505.474    520.49311    434.67154    722.86165    34340.171 
  108500    304.95552   -1479.7794     528.5121    436.79783    128.04458    34340.171 
  108600     296.8622   -1483.6256    527.02805    394.62923     15.94352    34340.171 
  108700    307.54618   -1523.5497    548.99773    425.30503   -698.72316    34340.171 
  108800    300.47273   -1512.8548    506.81149    361.61747    426.74574    34340.171 
  108900    290.50407   -1524.8937    522.46208    319.85483     143.9342    34340.171 
  109000    296.02908   -1532.2877    509.68306    324.83005   -258.90472    34340.171 
  109100    290.79402   -1524.8846    524.09483    322.81651   -400.71496    34340.171 
  109200    307.34627   -1510.0773    540.06877    428.93858    88.834615    34340.171 
  109300     304.2346   -1586.2892    528.42455    326.91909    175.19401    34340.171 
  109400    302.81281   -1572.8653    508.55424     314.0011   -327.33101    34340.171 
  109500    290.62856   -1521.8331    524.47605    325.49608   -1061.0121    34340.171 
  109600    299.69303    -1542.119    505.91513      327.908   -1108.6809    34340.171 
  109700    305.59634   -1578.5624    512.68775    325.10734   -770.43573    34340.171 
  109800    301.35584   -1536.9019    518.86341    353.64194   -290.24327    34340.171 
  109900    302.81495    -1526.945    500.66124    352.03817    206.42136    34340.171 
  110000    296.62649   -1557.4873    532.43786    325.10444   -151.69606    34340.171 
  110100    293.50305   -1572.7428    531.29935    294.49349    344.11871    34340.171 
  110200    298.84032    -1576.868    532.36425    315.72683    251.78939    34340.171 
  110300     292.1759   -1535.2542    544.09436    338.73629    732.13194    34340.171 
  110400    301.36576    -1558.022    542.59687    356.30049    477.53616    34340.171 
  110500    297.53277   -1535.9338     530.0432    348.38841    447.80178    34340.171 
  110600    300.49988   -1553.5236     559.7962    374.05701    46.557511    34340.171 
  110700     283.4236   -1518.5471    529.12901    300.64024    400.46321    34340.171 
  110800    305.33388   -1530.1231    544.05313    403.71735    499.15896    34340.171 
  110900    293.26422   -1569.2596    522.48976    288.07998    623.14699    34340.171 
  111000    297.66647   -1556.8022    514.83047     312.9158     617.4844    34340.171 
  111100    293.03713    -1548.297    532.20974    317.72891   -94.490205    34340.171 
  111200    305.36152   -1563.0074    529.32494    356.23065    77.302863    34340.171 
  111300     292.9494   -1556.2452    492.42486    269.59649    263.98699    34340.171 
  111400    307.81683   -1567.5604    521.08968    354.61821    809.50805    34340.171 
  111500    311.12837   -1544.5509    548.64991    420.26105    492.42012    34340.171 
  111600    300.10772    -1488.031     513.7491    391.71755   -326.80154    34340.171 
  111700    295.19603   -1483.7233    528.84257    388.76214    -198.0289    34340.171 
  111800    304.41153   -1481.6999    547.38141     451.2705   -629.02062    34340.171 
  111900    299.66267   -1504.9551    502.14885    361.16737   -447.58889    34340.171 
  112000    307.24285   -1502.3514    529.45814    425.58305   -1136.0652    34340.171 
  112100    293.55792   -1503.5465    501.62783    334.26799   -681.54858    34340.171 
  112200    301.35712   -1501.8597    529.84303    399.66962   -40.561477    34340.171 
  112300    297.96447   -1491.7543    524.47494    388.96466    111.04266    34340.171 
  112400    295.34621   -1492.6254    521.44977    373.15086   -348.00797    34340.171 
  112500    307.32643   -1514.3785     511.9544    396.43267   -9.0344658    34340.171 
  112600    300.86112   -1529.0282    521.90153    362.30193    87.282209    34340.171 
  112700    297.40426   -1486.4756    545.18143    412.39993    498.91218    34340.171 
  112800    304.53141   -1494.1536    530.20036    422.18148    954.22678    34340.171 
  112900    299.58622    -1538.213    503.32357    328.73621    1218.9861    34340.171 
  113000    290.54701   -1543.1678    510.78296    290.09713    546.58489    34340.171 
  113100    296.28782   -1485.3955    523.73192    386.94878    404.17441    34340.171 
  113200    295.70275   -1493.1442    516.97206    369.77715    239.02744    34340.171 
  113300    305.78386   -1475.4469     537.8961    454.28469    629.96876    34340.171 
  113400    305.39912    -1469.464    566.82136    487.44158     666.3558    34340.171 
  113500    300.04529    -1510.411    534.39761    389.70186    893.08231    34340.171 
  113600    300.07289   -1479.4979    521.25767     407.6006   -83.252799    34340.171 
  113700    311.05199   -1486.3213    555.66567    485.15879    86.204933    34340.171 
  113800    302.86684   -1461.4484    510.14748    427.25716    221.40854    34340.171 
  113900    295.59925   -1454.6217    508.56245    399.41898    -17.68838    34340.171 
  114000    302.19515   -1493.0955    533.14044    415.54568    32.666424    34340.171 
  114100    302.66468   -1511.5809    520.01481    386.07182   -612.24711    34340.171 
  114200    293.20204   -1495.9665    529.70519    368.30552    102.34247    34340.171 
  114300    307.42133   -1462.5678     521.7591    458.48005    257.62921    34340.171 
  114400    314.81265    -1512.974    519.41286    439.37066    -83.02589    34340.171 
  114500    305.89923   -1486.7507    513.71143     419.3213   -6.3734124    34340.171 
  114600    300.37371   -1524.7153    518.06662    360.56142   -73.835716    34340.171 
  114700    303.68076   -1514.5487    517.99437    385.70849    108.83378    34340.171 
  114800    307.12458    -1476.443     520.7794    442.27439    265.06104    34340.171 
  114900    302.91503   -1517.1693    519.73707    381.34518     180.6887    34340.171 
  115000    302.79204   -1502.9121    536.83846    412.14393    411.64735    34340.171 
  115100    297.58245   -1554.0718    514.66169      315.095     909.4677    34340.171 
  115200    302.89438   -1482.6431    511.70094     407.7412    290.95414    34340.171 
  115300    290.85402   -1515.5213    534.21124    342.56927    288.39306    34340.171 
  115400    300.92129   -1510.3237    523.26125    382.64006     183.9027    34340.171 
  115500    296.85741   -1541.0894     498.2163    308.33186    384.94497    34340.171 
  115600    295.93509   -1499.4732    528.59977    376.13336   -205.19755    34340.171 
  115700    298.77366   -1529.5857    540.85729     371.1987   -381.71894    34340.171 
  115800    300.63566   -1512.0888    504.91496    361.22855   -408.94169    34340.171 
  115900    308.79706   -1487.1297    537.64236    456.06329    -388.9287    34340.171 
  116000     297.9193   -1490.2435    526.80104    392.59588    40.327025    34340.171 
  116100    296.62804   -1478.2038    541.34151    413.29863    609.97131    34340.171 
  116200    308.92471   -1505.8827    524.38641    424.63536    975.39797    34340.171 
  116300     304.9049   -1537.0756    528.87168    379.63075     448.6518    34340.171 
  116400    307.82075   -1506.6309    518.09343    412.56934    1090.0759    34340.171 
  116500    306.65621   -1448.7114    518.76297    465.85775      741.304    34340.171 
  116600    303.89029   -1503.8808    536.38978    415.72544    177.32951    34340.171 
  116700    293.56347   -1481.9483    519.60321    373.86688    92.720312    34340.171 
  116800    312.57978   -1533.5189    514.65361    403.90317   -16.606982    34340.171 
  116900    302.03329   -1490.4336    539.87941    424.20981    417.06322    34340.171 
  117000    304.45616   -1533.7466    518.90982    370.95542    143.26251    34340.171 
  117100    301.31205   -1533.8202    544.54968    382.21062    863.09776    34340.171 
  117200    304.89507   -1544.6424    539.37185    382.51939    498.61838    34340.171 
  117300     301.7891   -1501.1485    513.36698    385.87104    301.96114    34340.171 
  117400    297.45883   -1504.6525    513.46033    362.75034   -113.70496    34340.171 
  117500    293.98545   -1458.4351    528.97456    408.67219   -304.16237    34340.171 
  117600    296.60052   -1477.5604    541.72085    414.19611   -567.14843    34340.171 
  117700    305.36941   -1518.7603    514.97474    386.16351   -465.89998    34340.171 
  117800    294.29821   -1525.1505    499.75441    314.16015   -39.596445    34340.171 
  117900    302.76132   -1435.0289    530.46272    473.51164   -44.970823    34340.171 
  118000    296.83888   -1521.6358    509.90725    339.39206    -79.28888    34340.171 
  118100    295.86881   -1493.5968    532.03028    385.13864   -21.285058    34340.171 
  118200    290.78204   -1457.7622     519.5082    385.29768    -571.4657    34340.171 
  118300    304.70776   -1502.5891    500.63673    384.98496   -193.60434    34340.171 
  118400     301.5063   -1516.0974     524.0327    380.30063   -898.20482    34340.171 
  118500    296.24994    -1522.614    527.74884    353.57477   -569.80857    34340.171 
  118600    299.13347   -1582.2192    511.05941    290.40512    -734.7387    34340.171 
  118700    301.52018   -1553.4937    529.41457    348.34941   -477.18955    34340.171 
  118800      308.364   -1556.3222    509.43057    356.68788   -279.27948    34340.171 
  118900    297.91424   -1572.0378    511.46582    295.44329      443.234    34340.171 
  119000    298.71517   -1569.3119    521.29505    311.64412    1023.8858    34340.171 
  119100    294.90945   -1568.4951    544.20701    318.05036    319.31265    34340.171 
  119200    287.30875   -1523.5103    529.68359    313.91563      634.759    34340.171 
  119300    291.60438   -1550.4679    546.56515    323.39204    522.80512    34340.171 
  119400    302.37597   -1543.5325    514.65588    347.44714    1127.2887    34340.171 
  119500    289.52368   -1542.7171    507.28169     282.3886    62.936691    34340.171 
  119600    282.67434   -1572.4371    543.16579    257.37663   -477.86307    34340.171 
  119700    289.89931   -1526.1475    516.96571    310.35203   -1028.3997    34340.171 
  119800    309.52993   -1555.0575    517.10935    370.93834    -155.8731    34340.171 
  119900    302.83948   -1560.6728    509.72687    327.48764   -169.49385    34340.171 
  120000    305.53166   -1549.0933     531.0764    372.67061    400.22645    34340.171 
  120100    298.73923   -1559.5993    496.96632    297.13747    98.783899    34340.171 
  120200    290.56616    -1558.292    533.04396    297.32108    204.90517    34340.171 
  120300    292.69235   -1527.2215    509.61459    314.64001    6.5756235    34340.171 
  120400    309.42259   -1522.1402    520.25278    406.51047    31.753166    34340.171 
  120500    298.86029   -1502.0462    518.81084    377.08612    32.490813    34340.171 
  120600    298.50227   -1572.5138    509.96975    296.14786   -255.82342    34340.171 
  120700    304.87193   -1521.4059    535.74952    402.02828   -795.18654    34340.171 
  120800    305.08414   -1542.6789    527.32837    373.29999    -154.4448    34340.171 
  120900    308.34273   -1516.4472     504.1591    391.19453   -454.86738    34340.171 
  121000    296.10226   -1482.1399    547.68325    413.31105   -812.15894    34340.171 
  121100    302.47795   -1466.3789    551.17799    461.58712   -281.92469    34340.171 
  121200    294.91734   -1511.6602    534.02294    364.73705   -259.06588    34340.171 
  121300    311.37832   -1503.4089    567.98727    481.87814   -162.03579    34340.171 
  121400     312.0211   -1540.0612     538.0489    418.21322    -234.5215    34340.171 
  121500    303.53964   -1505.2433    543.26648    419.64368    68.814164    34340.171 
  121600    301.91005   -1561.3376    510.23474    323.10021   -430.72787    34340.171 
  121700    296.94041   -1585.4567    525.58981    291.71588   -107.64772    34340.171 
  121800    296.26611   -1548.9546    515.76439     315.3233   -555.20121    34340.171 
  121900    303.86471    -1559.216    543.15117    367.03524   -191.14139    34340.171 
  122000    295.97342   -1536.7806    513.03994    323.44064   -270.04367    34340.171 
  122100    308.46577    -1509.127    521.82823    416.74389   -290.18088    34340.171 
  122200    300.21166   -1502.7036    502.98231    366.75123   -674.01112    34340.171 
  122300     306.6908   -1514.7125    547.73948    428.99056   -718.34144    34340.171 
  122400    302.11889    -1531.896    516.99652    360.25414   -297.14251    34340.171 
  122500     308.3834   -1517.1906    511.47219    397.94932   -228.88891    34340.171 
  122600    297.68204   -1554.0068    527.48627    328.43788   -70.056587    34340.171 
  122700    305.50076   -1581.0603    517.92981    327.41643   -316.21637    34340.171 
  122800    297.36326   -1534.4972    522.56065    341.57091   -197.96373    34340.171 
  122900    297.38593   -1532.4604    515.54901    336.69926   -81.585201    34340.171 
  123000    301.47207   -1523.4694    521.79154    370.53163     21.58853    34340.171 
  123100    295.28372   -1564.6688    555.66641    335.03959   -14.637579    34340.171 
  123200    294.39462   -1557.0844    544.74408    327.65482   -33.321454    34340.171 
  123300    292.15524   -1568.6718    556.15762    317.28793    459.54597    34340.171 
  123400    298.16227   -1537.0225    557.58924    377.71109     481.3637    34340.171 
  123500    301.35225   -1556.4493    533.22641    348.44118    37.170337    34340.171 
  123600     295.6657   -1532.7569    517.01212    330.03586    71.288855    34340.171 
  123700    298.97962   -1527.3979    529.06454     362.5313   -309.80704    34340.171 
  123800    295.79024   -1545.4925    556.34874    357.20376    -621.3513    34340.171 
  123900    290.25278   -1559.2373    536.87257    298.77794   -272.86118    34340.171 
  124000     291.4227   -1511.8089     534.9099    349.56884   -104.88928    34340.171 
  124100    298.14619    -1539.628    545.51877    362.96188    451.17136    34340.171 
  124200    313.71682   -1548.2689    538.17844    417.85348    400.02054    34340.171 
  124300    294.97374   -1537.0788    544.63901    350.19127    66.735882    34340.171 
  124400    301.18005   -1522.9202    523.32285    371.28298    452.95346    34340.171 
  124500    309.67335   -1533.8203    513.12516    388.84413   -243.14643    34340.171 
  124600    305.94529    -1505.752     566.5461    453.36434    172.12904    34340.171 
  124700    299.55771   -1551.4516    530.61986    342.66419    106.02555    34340.171 
  124800    305.70145   -1535.9789    559.27511    414.75658    218.13378    34340.171 
  124900    302.00661   -1537.3145    553.17382    390.50187    135.62343    34340.171 
  125000    307.26864   -1502.3361    520.72153    416.97918     227.3891    34340.171 
  125100    291.05155   -1484.2556    550.35872    390.88155    189.81699    34340.171 
  125200    315.33658   -1504.1741    541.17648    472.31893    321.59383    34340.171 
  125300    295.09555   -1525.4227    515.24934    333.01219    492.49416    34340.171 
  125400    305.46464   -1521.3198    560.59674    429.65937    54.125487    34340.171 
  125500    299.51916    -1493.977    513.05336    382.39685    217.37504    34340.171 
  125600    306.16431   -1526.1182    524.02287    391.47181   -749.61443    34340.171 
  125700    291.79098   -1534.6006      542.065    335.60848   -213.63472    34340.171 
  125800    289.70438   -1539.2011    508.33543    287.78088   -590.92334    34340.171 
  125900    284.82575   -1539.8283    538.29526    294.90741   -53.504315    34340.171 
  126000    305.79375   -1545.9729    537.05994    382.96752    345.89737    34340.171 
  126100    290.64657    -1525.828    539.65162    336.75874    15.043136    34340.171 
  126200    307.23471   -1553.4638    532.27106    377.24654    523.85639    34340.171 
  126300    293.46649   -1568.7493    523.37372    290.39496   -261.88034    34340.171 
  126400    297.86714   -1532.4114    534.46374     357.8533   -157.36669    34340.171 
  126500    311.48352   -1552.6398    507.07295    372.21179    215.57996    34340.171 
  126600    295.02332   -1580.2704    519.52032    282.10672    228.15604    34340.171 
  126700    306.80637   -1533.4498    526.58166    389.62145   -55.669752    34340.171 
  126800    299.84696   -1519.8061    526.46396    371.47034   -183.90974    34340.171 
  126900    285.90396   -1477.1029    553.89343    378.13871   -407.60925    34340.171 
  127000    303.85029   -1482.4845    538.07277    438.62273    182.78779    34340.171 
  127100    303.52468   -1499.5386    543.83867    425.85241    18.297313    34340.171 
  127200    279.92101   -1493.4017    554.35824    335.07211   -458.00339    34340.171 
  127300    302.90647   -1534.9402    516.81223    360.61048   -294.05702    34340.171 
  127400    295.96637   -1536.3765    549.43387    360.20658    -343.7996    34340.171 
  127500    291.45029   -1537.0945    543.90023    333.39916   -260.13951    34340.171 
  127600    295.14439   -1556.0779    528.17176    315.50169     -468.945    34340.171 
  127700    298.55384   -1496.0409    536.25873     399.1444    111.74487    34340.171 
  127800    300.50351   -1512.5029    534.56421    389.86216    166.44412    34340.171 
  127900    303.73091    -1528.454    508.88791    362.92493    382.30028    34340.171 
  128000    289.41707   -1512.2125    544.38348    349.50975    148.39664    34340.171 
  128100     297.7727   -1565.4501    539.24283    329.16386    138.48857    34340.171 
  128200    297.69492   -1512.7422    516.33808    358.61287    401.46495    34340.171 
  128300    303.70672   -1511.1562    557.54534     428.7701    271.12876    34340.171 
  128400    304.05015   -1518.5299    496.15985    361.57407   -12.017135    34340.171 
  128500    294.89573   -1508.8277    517.93166    351.37996     99.42729    34340.171 
  128600    302.14405   -1541.3223    523.92795     357.8738    418.53325    34340.171 
  128700    303.02866   -1529.0349     498.2122    348.47197    548.55588    34340.171 
  128800    290.73794   -1530.0393    506.64593    299.95763   -191.00083    34340.171 
  128900    298.35938     -1575.76    511.72778    294.00923   -433.77662    34340.171 
  129000    292.06923    -1588.988     508.6182    249.04083    10.817715    34340.171 
  129100    297.62296   -1576.1757    518.66667    297.18049    278.51514    34340.171 
  129200    297.23518    -1538.806    495.15336    309.27186   -357.29681    34340.171 
  129300    301.38787    -1530.608    499.55535     340.7736   -270.39937    34340.171 
  129400    301.11983   -1540.9516    501.44457    331.09923   -332.70585    34340.171 
  129500    300.02001    -1554.178    520.30123    331.72335    174.72575    34340.171 
  129600    299.21796    -1552.737    547.48112    356.69362    77.090142    34340.171 
  129700    303.45867   -1574.3003    508.02834    314.97993    -154.9183    34340.171 
  129800    305.84887   -1523.8838     530.8829    399.13044   -109.87372    34340.171 
  129900    292.77229    -1529.634    528.54808    331.52479   -591.80703    34340.171 
  130000    308.24645   -1572.2433    511.51524    342.31636   -473.97619    34340.171 
  130100    295.52084   -1530.1283    521.91257    336.90559   -879.07146    34340.171 
  130200     293.9121   -1501.3853    510.48145    346.89499   -900.69332    34340.171 
  130300       301.38   -1520.4398    518.89437      370.245   -1147.2936    34340.171 
  130400    296.58924   -1516.9563    537.98827    371.01632   -741.77482    34340.171 
  130500    294.09141   -1537.4057    532.80445    334.01373   -275.79678    34340.171 
  130600    299.12495   -1556.0024    518.80572    324.32947      19.6036    34340.171 
  130700    302.00003   -1538.9395    515.11619    350.78931    327.89267    34340.171 
  130800    295.70616   -1521.4358    507.39568    331.92468    993.92901    34340.171 
  130900    301.29004   -1501.6777    524.38567    394.08889    305.08515    34340.171 
  131000    300.28753   -1460.6421    537.03708    443.21279    149.36877    34340.171 
  131100    318.25481   -1410.9045    488.82053    526.51545   -438.52751    34340.171 
  131200    298.71008   -1428.2913    535.34916    466.69564   -320.53988    34340.171 
  131300    294.18067   -1434.3957    539.89554    444.52111    93.263411    34340.171 
  131400    302.74715    -1472.091    543.22716    449.14944   -114.60548    34340.171 
  131500    300.28166   -1438.2561    542.37427    470.90926    262.98029    34340.171 
  131600    293.32176   -1501.3307    501.20316    334.98423   -99.813033    34340.171 
  131700    295.52361   -1487.8487    530.07005    387.35521    347.15462    34340.171 
  131800    305.98731   -1507.7889    527.15288    412.12554   -317.02957    34340.171 
  131900    301.17572   -1517.3334    542.02488     395.5521   -39.590713    34340.171 
  132000    308.99425   -1542.2797     493.4856    357.65407   -200.90902    34340.171 
  132100      294.275   -1520.7823    542.72013    361.38842    -207.5544    34340.171 
  132200    293.72049   -1533.6686    517.22004    320.47809    62.916698    34340.171 
  132300    314.23432   -1549.8495    497.69845    378.14835    527.91472    34340.171 
  132400    302.07148   -1523.5373    558.53698    409.93755     22.28655    34340.171 
  132500    296.45641   -1523.7394    518.61127    344.25157    4.4844981    34340.171 
  132600    294.93751   -1531.4842    554.37063    365.35257   -286.29438    34340.171 
  132700    300.40155   -1511.9329    509.10462    364.50849     261.7793    34340.171 
  132800    297.83622   -1537.0754    515.26743    333.85225    88.836145    34340.171 
  132900     302.8572   -1543.2844    515.75549    350.98523     344.8278    34340.171 
  133000    305.05202   -1514.0673    521.18647    395.62351   -16.937129    34340.171 
  133100    311.07905    -1528.375    520.43335    407.99594   -231.94407    34340.171 
  133200    285.43099   -1546.8289    513.33322    265.69967   -189.63451    34340.171 
  133300    297.47133   -1557.9205    531.80202    327.88083    45.106039    34340.171 
  133400    297.69234   -1575.2376    522.03026    301.79798    201.42279    34340.171 
  133500    305.74954   -1543.8906    531.65315    379.44185   -277.10358    34340.171 
  133600    297.48102   -1566.6998    512.05994    299.40357    319.23545    34340.171 
  133700     304.6679    -1578.954    539.95076    347.75267    166.99571    34340.171 
  133800    291.17231   -1583.3935    539.45944      281.394    167.10047    34340.171 
  133900    305.36407    -1597.139     516.6552    309.44089    502.15815    34340.171 
  134000    296.01479   -1589.4548    552.51927    310.43408    190.34481    34340.171 
  134100    303.15151   -1577.2991     505.2655    307.82021   -375.80674    34340.171 
  134200    304.19325   -1575.2782     518.3792    327.69651   -237.93231    34340.171 
  134300    315.70311    -1601.028    507.52447    343.48133   -193.53803    34340.171 
  134400    302.50157   -1579.7118    485.70717    282.89083    -129.9733    34340.171 
  134500    299.47383   -1576.6444    515.41137    301.88104    49.133053    34340.171 
  134600     310.0312   -1569.7418    523.12531    364.55152   -141.10083    34340.171 
  134700    300.84938   -1532.5807    515.10644    351.90088   -242.54416    34340.171 
  134800    298.75202   -1510.6068    514.92011    364.14192   -908.08168    34340.171 
  134900    298.26349   -1566.8602    526.75112    317.49595   -852.67146    34340.171 
  135000    304.89273   -1573.5094    498.14233    312.41223    -48.47569    34340.171 
  135100    306.10014   -1525.5214    521.45183    389.20555   -580.23378    34340.171 
  135200    294.21268   -1553.9164    502.99323    288.24372   -54.017818    34340.171 
  135300    311.15865   -1589.4995      509.928     336.7284    741.86862    34340.171 
  135400    312.23189   -1574.2365    523.63928    370.58774    183.79223    34340.171 
  135500    300.16584   -1524.9357     499.6994    341.02763    100.52416    34340.171 
  135600    293.47776   -1582.1916    538.01437    291.64456    522.03133    34340.171 
  135700    303.56637   -1584.5754    513.63794    310.80462    756.61449    34340.171 
  135800      302.792   -1528.7203    538.86374    388.36086    913.54242    34340.171 
  135900    308.90067   -1502.6782    525.65189    428.99595    649.51669    34340.171 
  136000    302.18357   -1501.3448    526.28688    400.39012    425.63056    34340.171 
  136100     301.7997   -1523.9226    502.70954     352.4877   -440.64498    34340.171 
  136200    305.71694   -1514.9042    538.99762    415.62432   -220.68773    34340.171 
  136300    288.06952   -1536.2657    502.02112    276.96061   -229.54509    34340.171 
  136400    304.77837   -1528.1703      516.319    375.40741   -195.02246    34340.171 
  136500    304.21759   -1508.9441    537.61272    413.37492    254.56327    34340.171 
  136600    299.47313   -1549.7679     518.1238     331.4668    257.51004    34340.171 
  136700    300.77079   -1520.2933    536.64155    385.36568    429.90806    34340.171 
  136800    293.55986   -1509.7787    529.14873    355.56553    325.74885    34340.171 
  136900    295.26205   -1513.9855    516.66939    346.62725    522.27828    34340.171 
  137000    301.83906    -1505.938    530.49942    398.44131    495.05664    34340.171 
  137100    291.64229   -1574.0945    513.02651    266.39939    15.739467    34340.171 
  137200    299.36619   -1498.9353    523.09577    386.78461   -378.06246    34340.171 
  137300    291.82311   -1530.4803    519.64519    317.45522   -141.37761    34340.171 
  137400    303.89171   -1512.4055     511.9743    382.79176    444.32401    34340.171 
  137500    287.22253   -1505.4492    517.81486    319.71551     470.3965    34340.171 
  137600    300.53031    -1494.351    520.87509      394.447    31.836727    34340.171 
  137700    290.94125   -1515.9643     515.9709    324.28301   -100.98209    34340.171 
  137800    297.36148   -1572.2915    505.85098    287.05883   -32.469332    34340.171 
  137900    290.76217    -1562.268    537.85294    299.04628     297.4504    34340.171 
  138000    309.52676   -1553.5104    530.76218    386.12377    654.36147    34340.171 
  138100    306.00614   -1564.2058    482.65072    311.29216   -182.83246    34340.171 
  138200    295.03052   -1568.2125    499.39395    274.07101   -32.618856    34340.171 
  138300    293.07178    -1606.669    512.07708    239.38195     -28.0226    34340.171 
  138400    296.76715   -1611.5342    509.60596    248.86587   -62.888707    34340.171 
  138500    309.29791   -1578.2313    532.04735    361.64638   -316.79708    34340.171 
  138600    304.73177   -1564.7218    531.41004    353.73488   -660.03544    34340.171 
  138700    306.71719   -1563.2615    500.68951    333.51167   -191.06802    34340.171 
  138800    299.02661   -1556.3863    519.57173    324.26389   -276.62945    34340.171 
  138900    295.21157   -1557.9361    515.41623    301.19373     -415.256    34340.171 
  139000    296.26184   -1564.2045    520.31914    304.60872   -230.74746    34340.171 
  139100     297.0286   -1541.7067    513.09556      323.373   0.64128824    34340.171 
  139200    300.49307   -1549.8272    527.83931    345.76556   -90.568418    34340.171 
  139300    294.68481   -1568.1608     540.4791    313.63432   -435.13647    34340.171 
  139400    311.09303   -1543.0202     527.6415    400.62249    10.645725    34340.171 
  139500    302.94147   -1553.8021    505.74511    330.84073    317.36499    34340.171 
  139600    296.07017   -1519.8565     537.8186     365.5838   -270.17543    34340.171 
  139700    292.81133   -1489.3549     552.9806    396.41415   -252.98071    34340.171 
  139800    306.80787   -1559.8099    531.86149    368.54808   -228.78015    34340.171 
  139900    305.05207   -1543.2244    511.56815     356.8483    256.28325    34340.171 
  140000    289.55097   -1532.1155    525.61065    311.44341    416.34623    34340.171 
  140100    295.57739   -1523.9741     520.2787    341.68337    466.91156    34340.171 
  140200    299.18552   -1529.1731    537.37041    369.99914    233.66376    34340.171 
  140300    292.94013   -1516.9447    542.79596      359.226     148.1017    34340.171 
  140400    300.66586   -1537.1973    506.81912    338.16172   -169.78572    34340.171 
  140500    297.37744   -1508.2331    508.58539    353.92433   -420.03884    34340.171 
  140600    296.41653   -1521.1974     547.6713    375.67215   -886.84016    34340.171 
  140700    313.27413   -1527.1522     500.0372     398.8139   -321.77775    34340.171 
  140800    297.80083   -1528.8623    528.71194    355.34873   -263.16758    34340.171 
  140900    303.37152   -1534.1394    506.34637    353.06217   -717.50423    34340.171 
  141000    305.77494   -1544.3999    541.87717    389.27212   -366.28237    34340.171 
  141100    303.14564   -1601.4513     536.7712    315.14698    -439.0202    34340.171 
  141200    297.81966   -1590.2358    514.66357    280.01261    149.48054    34340.171 
  141300    307.10152   -1582.8155    533.39339    348.41093    338.16073    34340.171 
  141400    301.56754    -1627.026    534.89723    280.51523   -103.40045    34340.171 
  141500    295.06569   -1605.5497    518.35457     255.8545   -140.87561    34340.171 
  141600    292.76729   -1586.7991    523.24087    269.02974    10.112624    34340.171 
  141700    293.50106   -1567.1841    523.28338    292.02714   -353.04241    34340.171 
  141800    294.49116     -1561.18    515.42653      294.681   -38.273125    34340.171 
  141900    302.86979   -1557.2247    564.30248    385.64923    49.529348    34340.171 
  142000    291.81506   -1524.6983    519.28827    322.84371   -270.07561    34340.171 
  142100    297.48012   -1541.4237    540.75165    353.36728   -169.45945    34340.171 
  142200    293.12728   -1574.3739     530.2303    290.08293    543.86512    34340.171 
  142300     306.8832     -1549.22    524.08281    371.70215    1122.3985    34340.171 
  142400     304.1943   -1537.0557    532.80795    380.35252    290.28499    34340.171 
  142500    292.01263   -1585.4734    514.92638    258.60592    137.48468    34340.171 
  142600    305.74931   -1591.1454    543.81288    344.34567   -359.90457    34340.171 
  142700    295.58772   -1589.4667     500.1349    256.09395   -188.99922    34340.171 
  142800    301.60406   -1534.3336     537.8022    376.27893    3.1435945    34340.171 
  142900     294.4516   -1534.1769    501.59288    307.67039    343.47311    34340.171 
  143000    303.79057   -1592.2398     528.3267    318.84948    167.29281    34340.171 
  143100    297.33066   -1544.3326    542.14398    351.17049    194.63916    34340.171 
  143200    294.92876   -1531.6608    531.00772    341.77321   -169.31046    34340.171 
  143300    295.76806   -1476.4782    540.32228     410.0906   -602.56953    34340.171 
  143400     302.0568   -1520.1705    543.61592    398.31637   -503.74446    34340.171 
  143500    293.65842   -1521.7014    532.30878    347.25145   -405.90066    34340.171 
  143600    302.30656   -1535.0703    523.24473    364.18225   -777.10685    34340.171 
  143700    301.25632   -1559.3807    535.51245    347.35918   -421.26902    34340.171 
  143800    296.61611   -1548.7384    488.91565    290.28394   -54.075943    34340.171 
  143900    300.51983   -1557.5321    520.91633    331.25941    686.49137    34340.171 
  144000    298.22203   -1559.8136     519.2308    316.83353   -59.255258    34340.171 
  144100    307.20599   -1544.2781    522.92633    376.95681    -164.5678    34340.171 
  144200    301.35504   -1557.1366    514.72666    329.26684   -580.16898    34340.171 
  144300    288.48477   -1549.7275    521.60732    284.97504   -1054.8802    34340.171 
  144400    300.91011   -1589.4042    513.47133    293.71877   -484.34333    34340.171 
  144500    299.61001   -1531.8039    513.53887    345.46893   -332.53434    34340.171 
  144600    303.54676   -1473.8263    534.27681    442.10339     89.03928    34340.171 
  144700    290.65482   -1521.8369    527.83035    328.96615    572.44291    34340.171 
  144800    294.88482    -1524.555    513.86822    331.53955    363.56689    34340.171 
  144900    293.04692   -1506.0795    541.22869    369.00994    347.70145    34340.171 
  145000    292.35888   -1463.4006    545.91684     413.2453    257.87034    34340.171 
  145100    306.84552   -1479.9827    562.61106    479.29621      398.352    34340.171 
  145200     291.9214   -1492.7464    532.42942    368.42077    -119.3955    34340.171 
  145300    308.19615   -1516.2455    562.61604    449.18599   -77.438533    34340.171 
  145400    294.46187   -1552.2588    509.07855    297.12099     -98.8005    34340.171 
  145500    294.24616   -1511.8848    530.87404    358.30861    93.357485    34340.171 
  145600    302.18545   -1494.8017    536.02711    416.68203   -511.48939    34340.171 
  145700    302.90834   -1490.1249    515.10199    403.72403   -499.68403    34340.171 
  145800    303.60496    -1471.372    551.29774    461.84352   -862.67507    34340.171 
  145900     294.6049   -1472.5176    530.12819    398.56279    -658.0877    34340.171 
  146000    289.41155   -1529.5279    534.59114    322.37691    223.50654    34340.171 
  146100    298.24938   -1517.5082    541.65697     381.6896    192.19147    34340.171 
  146200    311.22983   -1498.6369    522.19479    440.18177    334.78666    34340.171 
  146300    298.32861   -1518.3448    526.10376    365.66044    644.91191    34340.171 
  146400    299.23872   -1508.3796    547.66105    401.32541    724.96609    34340.171 
  146500    293.32421   -1514.2149    527.08582    347.99382    1292.8279    34340.171 
  146600    299.26885   -1468.9938    516.97207    410.15939    5.6478856    34340.171 
  146700    304.47086   -1456.2317    523.92588    453.55321    44.036101    34340.171 
  146800    295.74841   -1512.8207    518.54816    351.88458     47.62012    34340.171 
  146900     298.4279   -1548.1451    546.73366    356.94196    -334.3391    34340.171 
  147000    308.29812   -1538.1198    532.91173    398.07151   -703.96715    34340.171 
  147100    315.38147   -1495.9615    543.01585    482.57524   -344.25309    34340.171 
  147200    290.03057   -1527.9216    533.35074    325.56041   -598.26049    34340.171 
  147300    303.92815   -1546.6333    569.80496    406.56049    68.710202    34340.171 
  147400    306.35384   -1561.2983    525.60891    358.74046    212.00985    34340.171 
  147500    307.89155   -1547.4646    523.92316    377.88754     440.3781    34340.171 
  147600    303.21541   -1530.7034    527.23468    376.67596   -897.32992    34340.171 
  147700    304.05904   -1542.5837    480.90338    322.30425   -801.22753    34340.171 
  147800    310.52255   -1544.0323    529.18714    398.55936   -269.60599    34340.171 
  147900    303.53475   -1532.7642    535.75763    384.59166   -1086.1163    34340.171 
  148000    301.46409   -1549.0769    527.67706    350.77331    -1223.263    34340.171 
  148100    311.06838   -1550.6432    547.27365    412.51942   -497.47964    34340.171 
  148200    295.42042   -1559.3961    538.15102    323.41912   -522.31257    34340.171 
  148300    301.42105   -1533.3198    528.29842    366.95588   -507.75367    34340.171 
  148400    291.81596   -1537.3179    522.61863     313.5585   -253.40113    34340.171 
  148500    294.40566   -1542.7581    518.67814    315.96536   -999.77248    34340.171 
  148600    289.90581   -1537.2404    520.77631    303.09932    200.33688    34340.171 
  148700    309.60547   -1562.1618     528.2727    375.34114    95.023638    34340.171 
  148800    299.18212   -1559.1736    506.15541     308.7682   -206.37853    34340.171 
  148900    290.23235   -1577.5734     516.8935     260.3698    252.33886    34340.171 
  149000    315.53799   -1557.1961    521.29523    400.33247    414.22576    34340.171 
  149100    294.44421   -1553.7879    511.00091    297.43382    -410.2087    34340.171 
  149200    297.00996   -1572.1708    523.37921     303.1078   -176.35738    34340.171 
  149300     300.9404   -1592.7797    532.08528    309.09505   -736.38041    34340.171 
  149400    305.27847   -1551.2276    526.09179    364.39926   -438.31039    34340.171 
  149500    303.39912   -1555.1497    535.65276    361.48394   -194.05296    34340.171 
  149600    294.40483   -1566.7023    505.69048     279.0297   -482.89842    34340.171 
  149700    308.23053   -1557.4194    532.95668    378.50928    134.73141    34340.171 
  149800    297.12451   -1574.9692    502.50854    279.96008   -91.736371    34340.171 
  149900    296.79191   -1569.5076    520.59844    301.99768    72.980025    34340.171 
  150000    316.04801   -1569.6441    535.80878    404.71945    395.48746    34340.171 
  150100    304.91142   -1597.0066     526.8169    317.67465    274.38622    34340.171 
  150200    299.32101   -1586.0958      548.009    324.33172   -415.38468    34340.171 
  150300    292.40179   -1590.0122    504.06117    244.97329    25.934472    34340.171 
  150400    296.80704   -1583.8279    503.08791    270.23575   -163.71052    34340.171 
  150500    304.80072    -1525.072    526.63195    388.92046    489.96702    34340.171 
  150600    305.64315   -1513.8731    514.69138     392.0133    174.37664    34340.171 
  150700    284.05529   -1537.4761    510.21867    265.67614   -656.13436    34340.171 
  150800    297.14812   -1509.0876    533.41602    376.85663   -23.872553    34340.171 
  150900    297.92859   -1500.5819    543.87142    399.37022   -506.58261    34340.171 
  151000    300.19556   -1500.5906    536.10433    401.91295    59.960354    34340.171 
  151100    292.05189   -1506.4571    544.45135    367.32595   -769.77226    34340.171 
  151200    297.33594    -1540.265    529.75422    342.87231   -534.16441    34340.171 
  151300    312.52574   -1521.2403    563.89526    465.17742    164.44932    34340.171 
  151400    294.23002   -1503.8919    512.86161    348.21558    157.94856    34340.171 
  151500     293.9033   -1498.6547    553.49048    392.59453    93.499456    34340.171 
  151600    303.12334   -1497.8024     533.5619    415.48506   -328.44817    34340.171 
  151700    296.37425   -1547.5923    527.67364    329.08708   -430.63759    34340.171 
  151800    294.72171     -1562.59    527.93902    306.83294   -574.52823    34340.171 
  151900    300.97561   -1558.7857    518.47845    329.64256   -668.35498    34340.171 
  152000    295.28086   -1572.4831    525.91429    297.46017   -348.43072    34340.171 
  152100    303.43728   -1537.2965    542.74548    386.60356    47.614293    34340.171 
  152200     302.6097   -1542.6873    539.78337    374.48371    363.81039    34340.171 
  152300    298.39103   -1544.0847    533.87731     347.9781    243.99761    34340.171 
  152400    300.57797   -1569.4245    526.77836    325.49367   -144.68742    34340.171 
  152500    308.00079   -1549.2893    545.37377    398.01074     -120.364    34340.171 
  152600    309.19554   -1574.0964    537.71302    370.98106   -101.90619    34340.171 
  152700    301.36571    -1514.339    539.51033    396.89673    183.57111    34340.171 
  152800    295.05726   -1533.5952    542.17997    351.59602    499.40316    34340.171 
  152900     303.8552   -1505.3482    558.63252    436.34107    811.68604    34340.171 
  153000    309.34354   -1554.9499    545.40482    398.49299    264.94544    34340.171 
  153100    293.90915   -1559.9664    521.26246    299.08145    338.23214    34340.171 
  153200    295.70088   -1597.0997    531.55144    280.39253    412.60325    34340.171 
  153300    300.24565   -1581.7082    552.02115    336.94017   -40.465355    34340.171 
  153400    291.27257   -1547.8532    507.36783    285.29911   -778.67244    34340.171 
  153500    303.21723   -1538.0195    509.92592     352.0594   -1038.9877    34340.171 
  153600    308.02091   -1549.3541    533.28611    385.94981   -800.19918    34340.171 
  153700     292.5736   -1575.3263    537.50776    293.88787   -939.03756    34340.171 
  153800    303.35881   -1597.1273    548.08398    331.75408   -492.84326    34340.171 
  153900    289.09659   -1572.2645    533.79278    277.40838   -524.22991    34340.171 
  154000    309.33251    -1546.677    524.31483    385.62563   -558.23977    34340.171 
  154100    290.89144   -1568.1965    546.12373     301.9769   -640.17655    34340.171 
  154200    297.74906   -1604.2819    560.07654    311.05813   -428.96617    34340.171 
  154300    300.74736   -1538.6953    528.14348    358.35901    462.09511    34340.171 
  154400    308.72277   -1569.5245    530.81621    366.50417     77.12964    34340.171 
  154500    296.26899   -1552.7144      542.421    338.23332    91.743679    34340.171 
  154600    294.49402   -1558.4558    554.30685    336.29862    166.98707    34340.171 
  154700    299.07355   -1544.0157    528.28362    345.56003    -172.1707    34340.171 
  154800    310.42122   -1542.0498    558.23645       429.13   -381.29589    34340.171 
  154900    297.79477   -1527.8006    528.89197    356.56297    117.96144    34340.171 
  155000    317.04829   -1541.0911    512.00902    414.02562    24.364486    34340.171 
  155100    298.96213   -1539.0437    563.19807    384.93939    480.54628    34340.171 
  155200    297.36052    -1558.447    526.48011    321.52801   -7.4920295    34340.171 
  155300    312.94729   -1546.1623    549.56636    427.84525   -128.53609    34340.171 
  155400    300.90934   -1556.1604    550.34324    363.83096   -1030.0336    34340.171 
  155500    303.93812    -1544.994     528.3989    366.83916   -413.37738    34340.171 
  155600      300.023   -1577.7523    548.18085    336.04232   -16.357808    34340.171 
  155700    291.93058   -1567.0256    560.96166    322.71555    615.97116    34340.171 
  155800    298.20752   -1539.9503    540.60975    358.00972    410.77679    34340.171 
  155900    304.32625   -1496.7032    546.34923    434.84688     249.9387    34340.171 
  156000    295.96628   -1564.8322    525.33627     307.6529    -637.2613    34340.171 
  156100    297.46733   -1566.6893    540.64196     327.9338   -274.35803    34340.171 
  156200    299.33061   -1578.5201    531.20373    315.14584    276.92877    34340.171 
  156300    300.02008   -1610.9623     540.7013    295.33951    489.03693    34340.171 
  156400    294.34995   -1604.1269    555.27491    290.93978    501.91223    34340.171 
  156500    296.77521   -1540.1039    543.77086    354.49782    440.87683    34340.171 
  156600    302.40355   -1573.3039    532.50013    335.64551    435.16499    34340.171 
  156700    285.40045   -1555.7485    532.58748    275.89531   -344.55713    34340.171 
  156800    299.02659    -1554.317    565.28767    372.04906    412.90068    34340.171 
  156900    291.03432   -1569.6968    560.28563    315.28889    636.79582    34340.171 
  157000    311.38622   -1575.7218    540.38374    381.99766    353.15179    34340.171 
  157100    298.09063   -1598.1141    537.67551    296.37964    252.54372    34340.171 
  157200     303.7752   -1571.9943    536.71468    347.41303    353.40507    34340.171 
  157300    295.60223   -1565.9689    552.44223    331.96511    639.57037    34340.171 
  157400    301.49892   -1588.5442    518.60018    302.38766   -296.36912    34340.171 
  157500    288.43345   -1590.7184    551.90975    274.05296     159.0023    34340.171 
  157600    297.29916   -1577.2055     540.7194    316.72952   -401.80339    34340.171 
  157700    293.35381   -1563.2933    528.86599    300.83034   -372.58723    34340.171 
  157800    295.42587   -1527.6725    550.73641    367.75293    169.85086    34340.171 
  157900    300.49779    -1555.862    544.95229    356.86521   -594.25209    34340.171 
  158000    297.51771   -1559.4574    567.43271    362.18574    40.306141    34340.171 
  158100    301.12012   -1560.5182    526.26948    336.35882   -382.41001    34340.171 
  158200    295.83449   -1567.7362    527.01249    305.82521   -151.08359    34340.171 
  158300    295.67633   -1607.4501    557.78587    296.16483    160.46541    34340.171 
  158400    292.61371     -1561.91    550.84143    320.82036    153.30912    34340.171 
  158500    303.06188   -1558.7232    543.36351    364.08611    485.67016    34340.171 
  158600    296.93259   -1591.6917    593.53013    353.38564    242.28445    34340.171 
  158700    295.68023   -1563.9856    527.93968    309.80089    161.00804    34340.171 
  158800    297.36875   -1582.2614    567.52836    338.79943   -87.907309    34340.171 
  158900    301.67033   -1604.0437    510.58581    279.65396   -783.45494    34340.171 
  159000    303.10899   -1568.3496    564.81482    376.12548   -362.91865    34340.171 
  159100    306.63672   -1563.1823    539.38633    371.92148    392.55292    34340.171 
  159200    292.95809   -1550.3666    536.57136    319.66121    194.85689    34340.171 
  159300    305.86111   -1578.9725    570.11906    383.33369     840.4318    34340.171 
  159400    281.94141   -1559.1604    547.08476    271.23615   -188.70228    34340.171 
  159500    296.54421   -1572.9916    546.10063    322.88846   -78.941482    34340.171 
  159600    299.14586   -1503.2848    529.95301    388.28949   -313.69173    34340.171 
  159700    286.63385   -1572.2648     535.3782    267.78385   -335.97351    34340.171 
  159800    309.39533   -1558.1822    529.69672    379.78829    25.177781    34340.171 
  159900    300.15433   -1570.1043      515.986    312.09328   -427.02686    34340.171 
  160000    319.23472   -1573.1557    567.77334    447.67733   -61.659773    34340.171 
  160100     297.0827   -1570.9695    570.98128    352.24215     804.5165    34340.171 
  160200     289.2015   -1553.8519    535.49043    297.99609    172.18231    34340.171 
  160300     301.0914   -1559.2146    535.88417    347.14633   -472.95199    34340.171 
  160400    299.04309   -1587.5395    540.43045    314.04444   -622.30629    34340.171 
  160500    304.93573   -1553.4111    545.31501     379.8789   -494.50993    34340.171 
  160600    298.89985   -1526.0039     547.9708    382.46843   -224.89567    34340.171 
  160700    302.82688   -1592.5014     523.1414    309.01616   -256.60391    34340.171 
  160800    290.53168   -1611.8995    535.19892    245.71155   -250.46377    34340.171 
  160900    303.15548   -1561.8035    522.51641     340.5848    555.79985    34340.171 
  161000    301.26649    -1562.956    524.95448    333.27221    791.74298    34340.171 
  161100    298.16678   -1587.3503    520.04782     289.8623   -217.36885    34340.171 
  161200    301.25322   -1525.2954     577.7583    423.67626    414.69491    34340.171 
  161300    318.42364    -1565.941    544.04272    427.46963    743.12241    34340.171 
  161400    305.01154    -1549.738    564.70826     403.2903    518.39813    34340.171 
  161500    298.18794   -1548.2904    530.58821     339.5589    555.63324    34340.171 
  161600    309.66607   -1559.2068    567.79331    418.09257   -261.70123    34340.171 
  161700    305.93573   -1536.9748    537.15326    392.70519   -224.89261    34340.171 
  161800    292.48177   -1550.8579    554.30736    334.73779    189.58986    34340.171 
  161900    309.27778   -1605.2695    535.81714    338.28633   -23.144347    34340.171 
  162000    298.68835   -1557.9403    550.92785    352.52642    229.37354    34340.171 
  162100    303.88897   -1540.4066    516.31749     359.1214    42.997882    34340.171 
  162200    283.63483   -1603.3285    548.34536    236.03661    61.437136    34340.171 
  162300    300.16923   -1579.2086    523.84566    310.91645   -147.91041    34340.171 
  162400     301.5223   -1566.8671    496.68017    302.25119    278.19919    34340.171 
  162500    300.96612   -1591.7878    531.72807    309.84686    146.74679    34340.171 
  162600    311.44548   -1630.5255    535.89395    322.97393    485.28242    34340.171 
  162700    302.26741   -1570.8777    533.85489    338.80687     166.9609    34340.171 
  162800    299.74757   -1600.7345    535.55097    299.17661    264.70437    34340.171 
  162900    302.54401   -1561.0154    527.86156    343.93479    173.66432    34340.171 
  163000     302.1881   -1600.0137    554.36647    329.82144   -23.114718    34340.171 
  163100    297.75036   -1540.6187    534.32332    348.97403   -98.597322    34340.171 
  163200    308.76419   -1555.0908    523.73249    374.04273    177.28112    34340.171 
  163300    296.11492   -1547.5112    569.72933    370.04347    240.08526    34340.171 
  163400    288.89931   -1564.6611    534.43579    284.75675   -13.093273    34340.171 
  163500    293.66518   -1538.0209    546.04696    344.70093    129.70423    34340.171 
  163600    293.65173   -1534.7564    571.60039    373.45762   -107.68161    34340.171 
  163700    305.70073   -1541.7993    524.69543    374.35324    52.301363    34340.171 
  163800    313.00681   -1510.0487    570.53367    485.19718    19.606809    34340.171 
  163900    302.25799   -1531.1344    538.30204     382.9544   -584.90365    34340.171 
  164000    301.88696   -1524.7854    538.62354    387.93615   -324.03706    34340.171 
  164100    295.10023   -1537.5801     515.6557    321.28246   -340.71971    34340.171 
  164200    295.87674   -1510.3603     575.0702    411.45114    -484.9547    34340.171 
  164300    299.82252   -1553.8069    550.59707    361.49141   -738.16771    34340.171 
  164400    305.19683   -1563.6997    528.39289    353.85672    -232.0182    34340.171 
  164500    300.48401   -1562.6317    534.65126    339.73173   -308.59813    34340.171 
  164600    299.35469    -1581.356    518.18226    299.39807   -469.98829    34340.171 
  164700    298.61865   -1547.7592    543.32022    354.78267    486.33588    34340.171 
  164800    300.17217   -1593.2008    527.16904    300.26101     358.2938    34340.171 
  164900    292.89791   -1596.0737    554.24074     291.3496    154.67963    34340.171 
  165000    293.61909   -1585.4101    544.49787    295.55291   -251.19392    34340.171 
  165100    303.79998   -1580.9947    560.71024      362.521    319.14881    34340.171 
  165200    305.02748   -1602.7915    527.74873    313.34985    733.07147    34340.171 
  165300    304.36328   -1579.8695    533.11372    338.61362    738.85332    34340.171 
  165400    312.08865   -1570.0591    529.02699    379.50082    246.19921    34340.171 
  165500    306.09554   -1592.3917    538.34345    339.20588    426.95665    34340.171 
  165600    303.97875   -1566.1776     514.0788    331.52035    254.58153    34340.171 
  165700      298.741   -1542.7887    531.07579    348.06559    276.96009    34340.171 
  165800    301.30098   -1561.2542    521.18865    331.36517   -176.63601    34340.171 
  165900    309.25464   -1550.2091    537.01952    394.44378    -230.5897    34340.171 
  166000    295.27734    -1549.202    520.98563    315.79659    213.82905    34340.171 
  166100    303.01781   -1516.6476    532.91416    395.51183   -387.88946    34340.171 
  166200    298.73003   -1521.2088    539.07312    377.59292   -290.80858    34340.171 
  166300    300.16387   -1515.9866    555.71851    405.98694   -153.55834    34340.171 
  166400    300.39054   -1563.8941    519.14324    322.53587   -772.39133    34340.171 
  166500    305.97065    -1576.678    500.67775    316.68545   -600.50623    34340.171 
  166600    309.83504   -1583.1628    556.77853     383.8909   -300.69814    34340.171 
  166700    302.44011   -1542.6933    519.89786    353.82028   -878.26239    34340.171 
  166800    296.23054   -1544.6738    520.65013    324.32795   -378.54754    34340.171 
  166900    309.06314   -1513.5668    539.29725    432.49222   -569.05044    34340.171 
  167000    298.50308   -1509.7335    546.50957    395.47167   -961.18569    34340.171 
  167100    298.07172   -1535.9522    551.83811    372.61805   -940.99876    34340.171 
  167200    303.00404   -1574.1281    534.32405    339.37852   -1087.6731    34340.171 
  167300    292.04029   -1598.9473    518.63335    248.96497    -882.0072    34340.171 
  167400    302.14739   -1577.0954    527.20603      325.394   -185.47776    34340.171 
  167500    293.76661   -1576.6274    548.89622    309.40544    43.918391    34340.171 
  167600    302.13218   -1603.3348    514.21873    286.09807    266.91423    34340.171 
  167700    306.64402   -1591.7624    526.91562    330.90387   -451.06031    34340.171 
  167800    305.83337   -1572.8277    542.20195     361.4351   -999.76768    34340.171 
  167900    300.14366   -1571.6013    499.90957    294.47128   -475.61966    34340.171 
  168000     302.3242   -1582.0689    535.52923    329.54842   -753.79367    34340.171 
  168100    290.02739   -1590.2241    554.85478    284.74748   -470.74986    34340.171 
  168200    303.66817    -1630.589    503.13751    254.75403   -79.960764    34340.171 
  168300    309.50771   -1583.1232    530.08424     355.7463   -105.00902    34340.171 
  168400    299.15531   -1568.4736    535.78443    328.97519   -11.626033    34340.171 
  168500    303.11798   -1583.0625    533.12797    329.76668   -90.954478    34340.171 
  168600    302.43604   -1606.7452    538.36829    308.22027    130.70712    34340.171 
  168700    299.40911   -1609.3417    527.77432    281.25211    27.281988    34340.171 
  168800     293.3614   -1577.1775    565.66674    323.78142   -452.27946    34340.171 
  168900    298.45393    -1579.951    517.87174    296.39254   -288.87294    34340.171 
  169000     296.2497   -1602.0717    506.85405    253.22122   -181.16031    34340.171 
  169100    296.00761   -1615.2273    542.17847    274.28807    221.39486    34340.171 
  169200    301.11144   -1578.8916    548.40431    340.08071    482.82817    34340.171 
  169300    300.25834   -1581.1634    504.68797    290.20952    277.64049    34340.171 
  169400    299.68031   -1581.0557     551.3238      334.322     746.9275    34340.171 
  169500    306.80504   -1558.7458    553.95697    391.69472    513.13806    34340.171 
  169600    294.33505   -1582.5149    548.48631    305.69536   -284.97108    34340.171 
  169700    298.02924   -1579.5158    543.83545    320.85839   -141.96746    34340.171 
  169800    304.28331   -1587.0776    534.55618    332.48402    262.24238    34340.171 
  169900    297.03882   -1623.1025    522.18436    251.11257   -595.19652    34340.171 
  170000    300.60045   -1593.7546    513.94194    288.42949    219.06985    34340.171 
  170100    301.69383    -1623.015    532.92201    283.12593    40.527875    34340.171 
  170200    294.55544   -1587.0477    531.65126    285.33068    430.74808    34340.171 
  170300    300.61124   -1553.6593    533.90918    348.54111   -589.38871    34340.171 
  170400    304.82214   -1524.8946    513.60881    376.17216   -387.03125    34340.171 
  170500    295.32455   -1527.8887    530.70461    347.04375   -494.62859    34340.171 
  170600    297.91138   -1526.0295    534.97177    364.94457   -289.75088    34340.171 
  170700    303.58585   -1523.4356    529.64212    388.03732    119.32021    34340.171 
  170800    289.37337   -1521.2866    539.37959     335.2329   -295.32606    34340.171 
  170900    300.79712   -1536.9258    531.10996    363.32152   -264.38575    34340.171 
  171000    295.65706   -1544.2028    521.46178    323.00037   -142.47575    34340.171 
  171100    305.07677   -1498.4574    543.62879    433.78837    52.872107    34340.171 
  171200    300.42513   -1557.4792    533.23661    343.20161    138.24275    34340.171 
  171300    301.32503   -1558.5941    541.61478    354.56095    178.61392    34340.171 
  171400    301.66106   -1559.1208    535.37725    349.32624    283.63831    34340.171 
  171500    297.28146   -1547.3866    537.56105    343.30961   -113.49285    34340.171 
  171600    298.22804   -1512.4284    521.73429    366.74956   -261.09686    34340.171 
  171700    296.18527   -1526.2582    544.45775    366.34515   -132.54415    34340.171 
  171800    305.07605   -1473.1254    533.01194    448.50026   -64.336318    34340.171 
  171900    294.35432   -1520.2563    548.79742     368.3528    -13.21122    34340.171 
  172000    296.02506   -1498.5635    560.29624     409.1491   -422.11751    34340.171 
  172100    290.22402   -1493.4877    545.80529    373.32938   -571.71368    34340.171 
  172200    304.80924    -1458.805     546.2435    474.83772   -685.08629    34340.171 
  172300    302.72339   -1458.5169    535.82275    455.21095    465.81844    34340.171 
  172400    290.66444   -1477.3358    529.16894    374.84954   -216.23546    34340.171 
  172500    307.53688   -1504.1378    527.61806    423.29494    719.86464    34340.171 
  172600    300.42023   -1520.2727    544.48124     391.6304    361.37214    34340.171 
  172700    301.30706   -1537.1696    536.67567    370.96451    574.78469    34340.171 
  172800    300.46009   -1484.4367    523.31997    406.48654    243.26294    34340.171 
  172900    306.65436    -1472.307    559.41585    482.90652    -240.4386    34340.171 
  173000    303.36937   -1502.2428    542.88025    421.48293   -262.49803    34340.171 
  173100    298.12625   -1525.9629    513.59867    344.61612   -287.24784    34340.171 
  173200    305.32695   -1522.4228     527.2222    394.55517    459.24054    34340.171 
  173300    305.87386   -1535.0621    539.71212    396.89518    287.18184    34340.171 
  173400    298.69666   -1561.2672    543.39147    341.70095   -42.352603    34340.171 
  173500    304.31176   -1583.9233     546.8553    348.06693    605.93279    34340.171 
  173600     292.0046   -1522.8912    538.17828    344.40356      557.135    34340.171 
  173700    299.43911   -1550.5369    526.79684    339.21598      192.496    34340.171 
  173800    296.21463    -1534.869    543.51776    356.92796     150.0213    34340.171 
  173900    295.39457   -1538.5568    538.02776    344.01756    269.52181    34340.171 
  174000    303.02461    -1526.796    511.65775    364.13798     516.1125    34340.171 
  174100    301.67501   -1550.6802    521.90642    344.35947   -562.04429    34340.171 
  174200    304.71469   -1486.0814    518.71619     419.6037   -713.91528    34340.171 
  174300    297.71274   -1529.5388    542.22893    367.78831   -184.15143    34340.171 
  174400    293.90846   -1507.6212    508.04428    338.20527   -282.64429    34340.171 
  174500     292.1156   -1555.0005    534.70729    309.32842   -566.46297    34340.171 
  174600    311.18916   -1564.5674    526.97711    378.84847    181.30996    34340.171 
  174700    299.91082   -1574.3047    513.96919    304.76759   -214.43513    34340.171 
  174800    295.92661   -1559.1092    524.47217    312.33118   -10.940996    34340.171 
  174900    308.71546   -1561.8088    544.61698     387.9874   -232.86598    34340.171 
  175000    294.72777   -1546.1868    507.08836    302.41304    3.8445674    34340.171 
  175100    292.74993   -1503.8541    499.86114    328.51597   -399.85184    34340.171 
  175200    307.46181   -1503.0718    553.53319    449.93436      235.481    34340.171 
  175300    297.03716   -1550.4249    541.94996    343.54823   -53.103703    34340.171 
  175400    294.58178   -1497.3262    576.84253    420.36333   -122.19955    34340.171 
  175500    310.80884   -1480.5843    533.51522    467.63858    142.12424    34340.171 
  175600    299.36366    -1483.307    547.86466    427.17032   -1100.7266    34340.171 
  175700    307.40619   -1473.9797    546.70364    471.94373   -32.909721    34340.171 
  175800    300.47432   -1530.3381    549.45367    386.78361   -98.170535    34340.171 
  175900    307.35085   -1481.0302    551.59228    469.52996   -532.03633    34340.171 
  176000    309.66686   -1501.6787    533.24944    441.08044   -112.20538    34340.171 
  176100    303.39087   -1527.5453    517.36784    370.76578    330.15582    34340.171 
  176200    297.31368   -1546.4009    520.54891    327.42973    202.99501    34340.171 
  176300    303.25067   -1494.1682    534.81539    420.95232    176.92568    34340.171 
  176400    299.77274   -1473.9159     533.5139    424.07264    494.58771    34340.171 
  176500    294.16101    -1508.134     542.7625    373.56031    22.782968    34340.171 
  176600    311.96721   -1521.8589    508.62404    406.74537   -592.54933    34340.171 
  176700    296.91631   -1555.6328    532.87823    328.71847   -618.57533    34340.171 
  176800    292.97638   -1527.5664    518.04583    324.01909   -582.00381    34340.171 
  176900    308.85256     -1523.68    526.67263    408.79587   -443.28919    34340.171 
  177000    296.78207   -1562.5814    535.68216    323.96278   -193.06605    34340.171 
  177100    292.95871   -1536.2555    511.40932    308.61306   -656.86048    34340.171 
  177200    297.01437   -1534.4145    546.69846    364.20334   -1050.7385    34340.171 
  177300    295.61342   -1566.8822    548.24294    326.90346   -906.39283    34340.171 
  177400    295.17762   -1503.5262    538.24101    378.27388    -771.9048    34340.171 
  177500    294.22939   -1518.7628    534.69869    355.17896   -1480.4394    34340.171 
  177600    303.25346   -1549.9946    524.37552    354.69874   -1221.3438    34340.171 
  177700    300.73977   -1530.4308    532.39976    370.84527    -1229.662    34340.171 
  177800    305.07259   -1514.2231    506.17238    380.54727   -163.46417    34340.171 
  177900    304.49414   -1523.7977    543.37763    405.54496    55.803287    34340.171 
  178000    304.39937   -1574.8081    518.20174    328.92727    288.65678    34340.171 
  178100    308.48174   -1518.4907    547.67493    433.29964    806.50843    34340.171 
  178200    294.50275   -1545.7408    519.04684    313.79332    154.77651    34340.171 
  178300    296.55181   -1586.8909     518.9555    281.87856    422.46395    34340.171 
  178400    299.79207   -1592.6852    519.35799    291.23545    627.89426    34340.171 
  178500    293.22543    -1582.859    535.10342    286.91766    384.13381    34340.171 
  178600    298.51577   -1576.4171    532.12151    314.45775    24.222915    34340.171 
  178700    305.33855   -1573.0821     518.6014     335.3278    362.36475    34340.171 
  178800    305.92452   -1614.7422    505.13027    282.86378    559.17238    34340.171 
  178900    307.66843   -1625.7086    522.73013    297.43495    118.03914    34340.171 
  179000    300.60241   -1575.5435    540.05321    332.76084    84.995182    34340.171 
  179100    295.55458   -1574.9454    554.80869    325.13819    95.801986    34340.171 
  179200    289.35028   -1562.2333    532.77793    287.57939   -108.27903    34340.171 
  179300     308.0979   -1604.7014    501.75739     299.4243    546.58953    34340.171 
  179400    301.05668   -1582.4377    518.33025     306.2113    240.52536    34340.171 
  179500    301.76603   -1603.4975    534.51005    304.56005    365.70772    34340.171 
  179600    287.02239   -1580.1331    542.02448     268.3303   -924.32819    34340.171 
  179700     304.3784   -1578.7692    510.18524    316.85425   -49.783974    34340.171 
  179800    299.44796   -1530.8837    517.12977    349.24242   -639.27038    34340.171 
  179900    302.84687   -1514.7567    558.48677    422.19728   -711.62617    34340.171 
  180000    295.30663   -1538.5798    542.80595    348.37239    -821.6927    34340.171 
  180100    304.22098   -1559.0319    533.92989    359.61967   -378.74923    34340.171 
  180200    304.47041    -1562.294    520.54443    344.10749    241.17923    34340.171 
  180300    298.92497   -1552.5959    520.79916     328.8191   -247.28474    34340.171 
  180400    305.15279   -1544.2699    496.17935    340.87246   -388.90822    34340.171 
  180500    292.36742   -1556.5433    541.01396    315.23853   -369.17559    34340.171 
  180600    294.29637   -1550.5087    529.85919    318.89841   -475.39033    34340.171 
  180700     303.3502   -1614.4313    506.80277    273.12964    19.704691    34340.171 
  180800    305.49406   -1574.3418    526.58665    342.76121    483.70737    34340.171 
  180900    306.36383   -1559.6845    522.85035    357.64121   -315.52513    34340.171 
  181000    303.79094   -1568.2879    525.08319    339.55958   -304.60642    34340.171 
  181100    302.13112   -1565.6446    527.39628    336.96094   -16.612875    34340.171 
  181200    304.68139   -1536.2747    535.06916    385.61176   -127.05967    34340.171 
  181300    299.49579   -1544.8832    519.43382    337.76471   -208.24485    34340.171 
  181400    298.32788   -1577.7968    523.44566    303.54694    182.77557    34340.171 
  181500    300.48701    -1563.853    522.98697    326.85975    248.59919    34340.171 
  181600    298.04369   -1585.9081    524.36235    295.05879     908.7066    34340.171 
  181700    298.33642    -1537.274    530.07799    350.74099    163.30406    34340.171 
  181800    299.30571   -1543.8209    498.36913    316.89716     178.0662    34340.171 
  181900    307.80852   -1556.4136     543.6474    388.28485    514.78465    34340.171 
  182000    297.33658   -1516.5953    534.16815     370.9589   -335.95113    34340.171 
  182100    313.22525   -1560.1383    508.53928    374.10736    423.69916    34340.171 
  182200    295.65912   -1627.1623    524.47758    243.06596   -141.09783    34340.171 
  182300    301.65126   -1596.6245    521.17796    297.57861    71.034696    34340.171 
  182400    298.59587   -1564.5957    510.98178    305.50398   -91.527638    34340.171 
  182500    292.33772   -1580.8531    574.88524    324.66482    419.60785    34340.171 
  182600    296.12013   -1571.6176    503.93349    280.16498    260.20474    34340.171 
  182700    302.72863   -1560.1351    505.97836    323.77222   -125.71744    34340.171 
  182800    296.12055   -1540.4984    531.25338    338.60593    373.74707    34340.171 
  182900    299.00954   -1549.1515    523.52526    335.37456   -401.52336    34340.171 
  183000    304.82016   -1551.6535    536.96951    372.76501   -389.36903    34340.171 
  183100    306.37719   -1530.7781    538.95502    402.71302    265.07112    34340.171 
  183200    304.06858   -1565.7032    518.69401    337.01887   -106.02379    34340.171 
  183300    300.80907   -1520.2537    528.48729    377.42528    227.21888    34340.171 
  183400    302.85357   -1530.0505    520.39311     368.8403   -10.630756    34340.171 
  183500    308.68933   -1537.7227    502.61154    369.94911    494.22289    34340.171 
  183600    297.69192   -1531.9428    503.82385    326.88445    196.65868    34340.171 
  183700    287.94928   -1540.1521      503.524    274.02975    70.523765    34340.171 
  183800    303.40804   -1545.8397     526.2421    361.42388    -238.4679    34340.171 
  183900    306.77324   -1537.3612    509.99663    368.97426   -41.940895    34340.171 
  184000    306.16949    -1559.236     528.4097    362.76439    45.688416    34340.171 
  184100    299.35744   -1566.6417    533.13223    329.07485   -582.07311    34340.171 
  184200    300.51705   -1586.9926     511.5619    292.43187    -733.5735    34340.171 
  184300    300.42886   -1574.5275    507.62941    300.56301   -647.97581    34340.171 
  184400     302.1616   -1563.3191    520.43776    332.46663   -668.17469    34340.171 
  184500    304.32113   -1558.3495    514.25136    341.07942   -438.95238    34340.171 
  184600    301.15062   -1551.3954    526.92267    346.27358   -30.255834    34340.171 
  184700    299.40408   -1556.8647    516.89312    322.82502   -223.78787    34340.171 
  184800    293.02569   -1533.3091    521.29211    321.74718   -363.36775    34340.171 
  184900    305.84819   -1553.4688    515.49081    354.15032   -473.00268    34340.171 
  185000    291.95609   -1556.8492    513.44805    285.49447    41.417173    34340.171 
  185100    290.16128   -1521.6687    545.91951      344.977   -262.09859    34340.171 
  185200    298.32154   -1534.6815    533.59637    356.78411   -260.31237    34340.171 
  185300    295.64662   -1483.8909    542.49895    404.30188    59.416695    34340.171 
  185400    297.42475   -1487.9448    533.19696     399.0395   -151.57247    34340.171 
  185500    291.68554   -1561.0632    515.91864    282.51964   -577.40906    34340.171 
  185600     295.7425   -1536.4426    551.35101     361.0386    -46.75808    34340.171 
  185700    305.35841   -1518.7447    539.55161    410.70581   -217.14783    34340.171 
  185800    306.80076   -1574.2564    505.51749    327.72514   -428.54933    34340.171 
  185900    302.27801     -1545.58    523.41286    353.71075   -370.59142    34340.171 
  186000    309.24724   -1551.2722     521.6021    377.92968   -526.87531    34340.171 
  186100    292.11368   -1526.6891     545.9666    348.89039    -602.3889    34340.171 
  186200    310.47237   -1567.2626    544.42969    390.34325   -172.90791    34340.171 
  186300    302.28706   -1557.7578    541.13041    359.29169    401.95562    34340.171 
  186400    304.73767   -1541.5356    524.19179    369.72973   -141.93056    34340.171 
  186500    293.59003   -1582.3918    545.81309     299.7541    173.13864    34340.171 
  186600    298.03698   -1578.3353    551.53325     329.7719    813.04064    34340.171 
  186700     290.2129   -1575.7894    534.23006    279.40184     123.6126    34340.171 
  186800    305.07302   -1551.1825    515.84873    353.26619    -392.8089    34340.171 
  186900    291.88537   -1544.1742    539.77441    324.17394   -328.23681    34340.171 
  187000    306.16268   -1531.2622     556.6809    418.97837    -830.3595    34340.171 
  187100    302.56574   -1510.5339    558.33846    424.99207   -689.86573    34340.171 
  187200     300.2481   -1548.0071    529.87717    348.50841   -291.63332    34340.171 
  187300    305.32798   -1567.2122    520.18879    342.73703    63.796937    34340.171 
  187400    295.56493   -1597.1018     524.2944     272.5146    66.316988    34340.171 
  187500    304.18213   -1563.8748    528.63957    349.30962   -319.29042    34340.171 
  187600    300.69803   -1583.8316    517.67933    302.53409   0.13553411    34340.171 
  187700    301.99466   -1581.0804    517.48346    310.99122   -237.83701    34340.171 
  187800    312.31817   -1560.9954    530.27376    390.85605    -587.2537    34340.171 
  187900    297.66614   -1547.8184    566.89107     373.9587   -316.66768    34340.171 
  188000     308.5381   -1567.7434    519.51277    356.14131   -497.07246    34340.171 
  188100    302.29304   -1568.4123    520.86697    328.40091   -992.48298    34340.171 
  188200    308.85191   -1547.4708    535.93823    394.26771   -633.41541    34340.171 
  188300    314.52107   -1575.6717    530.69041     386.6233    201.54274    34340.171 
  188400    302.09493   -1574.4712    548.22241    348.79571   -10.306369    34340.171 
  188500    290.48319   -1532.9658    535.95502    325.18068   -150.94956    34340.171 
  188600    301.06432     -1584.14    514.91629    301.12977    142.41141    34340.171 
  188700    299.07142   -1566.9399    540.72564    335.06826   -196.06759    34340.171 
  188800    307.10549   -1529.0696    544.41155    413.19304   -213.85878    34340.171 
  188900    285.94028   -1573.0458    541.99875    270.46651    363.64901    34340.171 
  189000    298.52802   -1562.8901    542.13843    338.05744    174.76808    34340.171 
  189100    297.13329   -1578.3169    520.42868    294.57242   -133.81872    34340.171 
  189200     301.6828   -1536.6897    538.97794    375.45692   -257.81302    34340.171 
  189300    292.26613   -1526.4981    544.98853    348.79727   -150.11578    34340.171 
  189400    300.78458   -1553.9688     551.8379    366.94937    217.13864    34340.171 
  189500    297.38655   -1512.9398    501.28776    341.96145    -468.7424    34340.171 
  189600    298.18954   -1490.1807     535.7143    402.80201    59.404385    34340.171 
  189700    293.51729   -1521.8099    520.72409    334.91593    583.69531    34340.171 
  189800    301.55186   -1526.1488    498.63344    345.05728    300.29723    34340.171 
  189900    294.98132   -1516.8594     531.7433    357.54949   -32.707237    34340.171 
  190000    293.71639   -1558.8464    540.67553    318.73706   -231.55414    34340.171 
  190100    299.88019    -1539.497    562.54233    388.00906    436.70518    34340.171 
  190200    306.21358   -1514.1065    575.26475    454.94968    834.19875    34340.171 
  190300    312.46647   -1516.6714    548.46835    454.04964    829.09637    34340.171 
  190400    291.78102   -1555.0087    548.02793    321.11798    426.41395    34340.171 
  190500    296.71813   -1525.6025     530.5741    355.54265    187.93698    34340.171 
  190600    303.08219   -1538.7733    563.20989    403.97492   -829.56236    34340.171 
  190700     301.5724   -1557.7496    547.01661    361.93317   -248.68726    34340.171 
  190800    298.07697     -1569.21    528.02857    315.57455   -104.40134    34340.171 
  190900    288.25187   -1485.5066    553.97832    380.50688   -592.57656    34340.171 
  191000    295.15007   -1516.1094    522.88716    350.21147   -996.88572    34340.171 
  191100    296.51318   -1562.5393    519.15626    306.25514     117.9738    34340.171 
  191200    298.46338   -1547.2745    552.00531    363.24563    277.38971    34340.171 
  191300    310.24733   -1533.9992    526.83396    404.98665    356.65955    34340.171 
  191400    300.49288   -1548.4127    526.73106    346.07084    380.01934    34340.171 
  191500     300.9465   -1539.5443    553.36297    383.63599    745.84771    34340.171 
  191600    295.06487   -1543.1024    517.40724    317.35071    850.54971    34340.171 
  191700    300.67508   -1520.4159    544.87343    393.03934    353.32278    34340.171 
  191800    303.97127   -1511.3423    530.49469     402.7375   -93.689577    34340.171 
  191900    301.85068   -1498.6815    525.18517    400.43646   -158.29715    34340.171 
  192000    301.58993   -1535.5404    510.65664    347.86221   -465.67482    34340.171 
  192100    305.35758   -1558.6814    527.48417    358.69798   -580.76373    34340.171 
  192200    296.96817   -1519.3326    537.67963    370.05607   -2.7051237    34340.171 
  192300    298.42371   -1525.6231    535.55111    368.26228    -13.55534    34340.171 
  192400    304.48514   -1500.5676    545.32212    430.67858     741.0476    34340.171 
  192500    304.01166   -1507.1779    508.65128    385.24238   -116.72165    34340.171 
  192600    297.51584   -1508.9122    548.34891    393.63869    141.85392    34340.171 
  192700    292.83959   -1525.9976    562.09189    369.01141   -377.29214    34340.171 
  192800    287.11111   -1532.7658    545.82642    319.90337    612.30295    34340.171 
  192900    300.83109   -1512.2682    554.08169    411.10539    151.88658    34340.171 
  193000    293.45268   -1516.5344    524.81259    343.98588    511.60153    34340.171 
  193100    295.71835   -1503.4914    527.42357    369.95254    219.29225    34340.171 
  193200    293.02957   -1506.4932    534.77532     362.0639   -404.68318    34340.171 
  193300    303.91077   -1507.6719    543.41396    419.05179    19.256919    34340.171 
  193400    302.08322   -1512.0333    534.25195    397.20995    258.71408    34340.171 
  193500    307.01989   -1519.1943    546.06759    424.33475   -193.36486    34340.171 
  193600    298.37079   -1507.2256     552.6778    403.54559   -17.612314    34340.171 
  193700    299.71141   -1522.3842    530.04976    371.86108   -269.08987    34340.171 
  193800     309.3643    -1555.155    524.35684    377.33439    56.095627    34340.171 
  193900    305.61973   -1525.4363    542.57048    408.22256   -141.71141    34340.171 
  194000    284.43354   -1536.8557    535.38126    293.18085   -398.73075    34340.171 
  194100    297.65838   -1555.5053    520.83806    320.18348   -268.59057    34340.171 
  194200    297.52491   -1541.8358     536.1219     348.5293   -433.74493    34340.171 
  194300    299.73838   -1546.0816    482.23424    300.47088   -16.370865    34340.171 
  194400    307.60381   -1495.3558    511.43249    416.19604   -52.937662    34340.171 
  194500    293.03786   -1500.7989    553.24871    386.26933   -735.41675    34340.171 
  194600    294.63634   -1516.4824    514.57696    339.18989   -112.55641    34340.171 
  194700     290.1038   -1520.9658     525.7927    325.29146   -33.103572    34340.171 
  194800    291.82062   -1564.6231    525.71273    289.36867   -827.64483    34340.171 
  194900    304.91903   -1544.3268    506.65196    350.22416   -570.86468    34340.171 
  195000    306.75363   -1544.2168    514.57017    366.60288   -312.07117    34340.171 
  195100    297.20264   -1625.6322    522.17203    249.31619    -716.3208    34340.171 
  195200    297.82355   -1587.7273    519.77317    287.64835   -372.04066    34340.171 
  195300    294.39171   -1539.9459    529.35019    329.38615   -64.547542    34340.171 
  195400    304.06472   -1571.7894    525.37912    337.60016    70.454897    34340.171 
  195500    300.49706   -1536.7738     547.1844    378.18214   -287.89653    34340.171 
  195600    299.47668   -1492.7957    530.04166    400.37301    570.11044    34340.171 
  195700    294.80165   -1507.6686    535.33006    369.50927    57.140297    34340.171 
  195800    294.77637    -1562.891    509.83757    288.67929    476.81697    34340.171 
  195900    310.23994   -1568.8373    544.29568    387.57655    639.44133    34340.171 
  196000    307.07573   -1542.0902    538.43212     394.0576    132.28104    34340.171 
  196100    297.79214   -1508.7637    559.01686     405.7127    505.89418    34340.171 
  196200    296.06115   -1559.7824    541.83804     329.6363    22.824547    34340.171 
  196300    293.39583   -1548.5058    532.19546     319.1386   -201.26825    34340.171 
  196400    310.63667     -1555.18    492.29483    351.03883    266.70764    34340.171 
  196500    303.55551   -1583.6592    535.42426    333.45777   -170.88084    34340.171 
  196600    302.04195   -1536.6662    539.96477    378.10199   -25.320844    34340.171 
  196700    308.48309   -1573.5985    508.99504    339.51813   -531.27511    34340.171 
  196800    290.82257    -1601.185    514.32133    236.87258   -280.92834    34340.171 
  196900    300.07433   -1605.7063    559.18667     319.3278   -685.72106    34340.171 
  197000    303.96277   -1573.0734    525.84871    336.32174    347.19082    34340.171 
  197100    309.41054    -1564.521    512.97253    356.79451    689.82885    34340.171 
  197200    301.79767   -1580.5991    537.15207    330.24451    133.36967    34340.171 
  197300    300.67486   -1586.8115    560.73399    342.50333    396.86649    34340.171 
  197400    294.97044   -1565.4337    509.25128    286.43362   -4.1789091    34340.171 
  197500    300.68369   -1536.2377    534.64119    367.02447   -201.10272    34340.171 
  197600    295.09781   -1559.6366    532.12277    315.68192     235.6066    34340.171 
  197700    297.93552   -1555.8356    546.12798    346.40454   -770.00705    34340.171 
  197800    305.21111   -1566.6006    527.83229    350.46013   -206.40619    34340.171 
  197900    313.47976    -1567.446    520.27147    379.69037    199.09883    34340.171 
  198000    302.34225   -1576.2296    516.97399    316.91467   -58.884814    34340.171 
  198100    290.44763   -1575.3384    526.12888    272.82005   -558.60398    34340.171 
  198200    288.36419   -1571.2072    539.39519    280.73439    -454.4137    34340.171 
  198300    302.02285   -1547.2737    538.75244     366.1952   -216.17774    34340.171 
  198400    300.90435   -1570.1053    527.64752    327.16766   -21.846927    34340.171 
  198500    307.47371   -1569.3469    510.89873    341.07898    -586.2776    34340.171 
  198600    308.33647   -1596.2789    537.28711    344.46233   -559.27192    34340.171 
  198700    298.15272   -1598.3458    514.35253     273.1076   -402.91671    34340.171 
  198800    292.11604   -1559.5264    535.77233    305.86959    196.85065    34340.171 
  198900    306.91811     -1604.34    513.52621    306.18441    192.43891    34340.171 
  199000    290.46246   -1568.7617     529.6106    282.94598     1051.741    34340.171 
  199100    302.89189   -1648.1591    526.21008    256.72309    357.76166    34340.171 
  199200    307.09436   -1592.6557    511.07811    316.22292     472.7377    34340.171 
  199300    299.15354   -1557.8665    544.12726    347.91701    304.95688    34340.171 
  199400     294.2237   -1567.3834    502.13494    273.96868    711.63216    34340.171 
  199500    296.78477    -1567.169    574.60045     358.3058   -241.34767    34340.171 
  199600    296.37803   -1561.2627     515.5029    303.26317    111.74877    34340.171 
  199700    302.06956   -1543.5633    525.79937    357.16517   -273.83579    34340.171 
  199800    302.46147   -1511.1575    515.67448    381.22994   -772.96744    34340.171 
  199900    302.52379   -1563.0899    515.71875    329.62547   -592.75812    34340.171 
  200000    298.62364   -1553.6401    540.51153    346.11579    222.20558    34340.171 
  200100    298.44521   -1520.4802    521.61715    359.56908    200.90926    34340.171 
  200200    302.53593   -1576.1338    522.55419    323.47228    184.96192    34340.171 
  200300    301.67577   -1518.4959    552.38111    407.02184    499.73843    34340.171 
  200400    299.76431    -1528.882    533.90506    369.45934    264.23445    34340.171 
  200500    304.07318   -1495.5151    536.43919      424.973    462.11141    34340.171 
  200600    302.29662   -1538.6356    531.15076    368.47778    134.48742    34340.171 
  200700    296.75854   -1547.7875    504.51732     307.4848    315.72376    34340.171 
  200800     301.0389   -1539.6698    524.28771     354.8558    340.47784    34340.171 
  200900    284.00775   -1532.8837    518.77067    278.60411    116.36047    34340.171 
  201000    294.92479   -1519.1436    517.23382    340.49852   -656.02526    34340.171 
  201100    304.20948   -1516.3355    522.97233    391.30615     107.3397    34340.171 
  201200    298.86683   -1508.8156    524.85732    376.39292    58.523005    34340.171 
  201300    301.69731   -1506.6151     536.9845    403.60412   -81.475538    34340.171 
  201400    306.19213    -1564.925    537.51955    366.28835    -540.5828    34340.171 
  201500    298.86671   -1542.1619    510.67167    328.86043    391.74887    34340.171 
  201600    295.65259   -1577.9411    521.34697    289.12689    488.91548    34340.171 
  201700    296.11464   -1567.1962     560.7263    341.35424    302.28378    34340.171 
  201800    306.34936   -1620.1181    545.15332    319.44464    878.03765    34340.171 
  201900    303.19818   -1577.5618     505.9797    308.48414    219.31386    34340.171 
  202000    306.08446   -1619.7522    543.17287    316.62435    375.16162    34340.171 
  202100    298.23271   -1549.8547    527.41888    335.02907     316.8788    34340.171 
  202200    300.38521   -1560.4013    526.17292    333.03411    408.42226    34340.171 
  202300    310.66047    -1610.879    534.32871      337.482    243.78714    34340.171 
  202400    301.37878   -1540.6437    546.88215    378.02329    547.47644    34340.171 
  202500     297.6522   -1568.2353    528.37679    314.96411    286.04291    34340.171 
  202600    297.27054   -1575.7427    512.75538    290.09805    930.97692    34340.171 
  202700    293.07153   -1602.1176    547.84291    279.69809    1046.7799    34340.171 
  202800    310.57745   -1559.6504    536.05396    390.05803    1034.2413    34340.171 
  202900     301.1216   -1574.6477    546.01347    341.98003    845.03174    34340.171 
  203000    300.59037   -1552.4499    541.50381    357.25024    654.31628    34340.171 
  203100    300.49835   -1562.0934     499.5564    305.24041    148.87818    34340.171 
  203200    296.35899   -1549.8802     511.5964    310.65248    246.05404    34340.171 
  203300     291.3817   -1578.5325    523.60849    271.35717    485.14603    34340.171 
  203400    297.87368   -1574.2752    527.93305    309.48852    258.33934    34340.171 
  203500    296.16699    -1576.137    504.27208    276.19741    981.55645    34340.171 
  203600    293.11521   -1589.5077    539.88951    284.55347    726.93145    34340.171 
  203700    286.69055   -1602.3869    511.32615    213.86777    759.41114    34340.171 
  203800    295.59605   -1563.0654    535.82699    318.22527     558.8761    34340.171 
  203900    303.73799   -1558.8656    506.51037    330.16809    136.91499    34340.171 
  204000    295.09859   -1563.8907    504.66357    283.97228   -586.95187    34340.171 
  204100    311.98233   -1575.3133    512.50249    357.23822     27.02791    34340.171 
  204200    303.12685   -1542.0922    513.08885    350.73816   -278.30219    34340.171 
  204300     304.0858   -1547.5057    520.46878    357.06949   -695.42549    34340.171 
  204400    295.99378   -1582.6581    497.78172    262.39764     2.680837    34340.171 
  204500    296.00762   -1544.2932    538.06058    341.10438   -59.954504    34340.171 
  204600    285.55803   -1581.4527    532.05332    250.37423   -64.368606    34340.171 
  204700    303.89108   -1572.7667     510.3005    320.75395   -13.455687    34340.171 
  204800    306.62505   -1566.1457    500.89382    330.41245   -825.49947    34340.171 
  204900    307.78387   -1560.0532    527.36989    368.25561   -645.14435    34340.171 
  205000    296.32852   -1560.7478    498.08544    286.13527    -734.0496    34340.171 
  205100    295.99229   -1560.4715    519.34931    306.14504   -337.27059    34340.171 
  205200    297.21553   -1544.1129    504.85418    313.57634   -1027.1267    34340.171 
  205300    304.77412   -1544.3528    528.17861    371.06525   -582.43827    34340.171 
  205400     301.0589   -1531.9488     529.9281    368.30815   -473.56602    34340.171 
  205500    312.40942   -1542.5462    535.30649    414.75328   -222.16571    34340.171 
  205600    307.03178   -1545.9667    540.42346    391.97235   -184.49188    34340.171 
  205700    310.08417   -1560.2014    526.44354    377.65131   -340.62663    34340.171 
  205800    308.74826   -1570.8163    508.75359    343.26581    143.91726    34340.171 
  205900    297.79789   -1625.5967    499.44797    229.33704      62.9864    34340.171 
  206000     301.4378   -1594.6655    513.47999    290.86802   -180.96958    34340.171 
  206100     312.0753   -1561.1909    524.21967     383.5009   -177.69647    34340.171 
  206200    297.28783   -1552.9958    512.34287    312.51115   -48.696429    34340.171 
  206300    285.17528   -1562.4423    511.92433    247.51352   -418.02498    34340.171 
  206400    295.53763    -1586.228    491.85879    250.82853    -696.1535    34340.171 
  206500    298.42726   -1548.5705    534.70801    344.48795   -415.89945    34340.171 
  206600    288.51175   -1560.8612     543.2936    295.65042   -464.11398    34340.171 
  206700     300.6996   -1608.6975    527.56613    287.56206    -288.7827    34340.171 
  206800    290.74315    -1570.662    504.06558    256.77825    457.94606    34340.171 
  206900    289.47783   -1532.9173    520.79883     305.4969   -578.23024    34340.171 
  207000     305.2214   -1563.9904    491.84594    317.13081    -512.7321    34340.171 
  207100    294.53539   -1558.2677    525.29796    307.66605   -418.05571    34340.171 
  207200    299.39572   -1523.1301    544.41196    384.04047   -105.77507    34340.171 
  207300    303.54848   -1565.2154    527.73772    344.18299    97.393367    34340.171 
  207400    295.45345   -1582.1969    505.47066    268.08826    10.773305    34340.171 
  207500     310.9761   -1549.1549    509.89614    376.21023   -36.759637    34340.171 
  207600    293.67546   -1587.4535    522.47167    271.73985   -608.00224    34340.171 
  207700    308.95647   -1551.0913    503.73406    358.91898   -216.45418    34340.171 
  207800    297.40893   -1498.2004    529.19041    384.70537    292.45685    34340.171 
  207900    304.92352   -1511.8143    532.41009    408.51529   -95.595232    34340.171 
  208000    309.49001   -1555.7566    529.53103    382.47915    308.76094    34340.171 
  208100    292.57101   -1578.4788    522.71032    275.92609   -353.42077    34340.171 
  208200    305.27005    -1523.735    529.50166    395.26346   -405.16737    34340.171 
  208300    300.41279   -1549.5668    514.62516     332.4464   -155.41261    34340.171 
  208400    291.58965    -1526.484    526.76968    327.51342    346.71525    34340.171 
  208500     296.6982    -1563.428    552.95404    340.00634     1555.333    34340.171 
  208600    298.24837   -1587.6708    532.93037    302.79581    623.92149    34340.171 
  208700    299.48192   -1591.4639    510.27962    281.96669    544.70723    34340.171 
  208800    297.57107   -1593.8812    531.18427    291.75641    47.092241    34340.171 
  208900    309.92531   -1590.0374    519.06759    339.71632     236.0661    34340.171 
  209000     302.0683   -1581.1335    517.26781    311.05766   -633.61043    34340.171 
  209100    309.68681   -1590.5069     536.2902    355.38383   -307.86093    34340.171 
  209200    311.03527   -1570.1103    514.49262    360.12063   -18.143514    34340.171 
  209300    287.27594   -1581.6397    529.72259    255.67589   -267.32898    34340.171 
  209400    300.32839   -1579.7619    530.77223    318.01414    386.61124    34340.171 
  209500    302.31794   -1577.7019    523.33013    321.68785    260.24132    34340.171 
  209600    298.76502   -1567.3524    526.01453    318.55001    667.30556    34340.171 
  209700    299.20226   -1545.8158    513.71456    329.77677    482.81701    34340.171 
  209800    290.76892   -1587.8782    534.14539    269.75917    1.2004974    34340.171 
  209900    317.56793   -1538.9006    510.71747    417.28986    54.555546    34340.171 
  210000    307.22271   -1541.8264    530.16924    386.72753    1276.3684    34340.171 
  210100    299.60658   -1588.4949    537.18194    312.40536    293.99472    34340.171 
  210200     312.1765   -1512.1243    517.11827    425.92685    692.94296    34340.171 
  210300    281.26406   -1566.0767    519.59383    233.74585   -26.072916    34340.171 
  210400    302.36376   -1551.3722    510.02538    334.92134    178.80064    34340.171 
  210500    299.31818   -1555.0464    529.11592    336.47517    533.54399    34340.171 
  210600    296.43489   -1544.4238    526.46191    331.31994    444.84496    34340.171 
  210700    298.14101   -1502.5013    535.12927    389.67554    924.79914    34340.171 
  210800    300.71765    -1504.024     518.9006    383.65223    951.07539    34340.171 
  210900    304.82401   -1522.3531    521.92155    387.03493    1138.3405    34340.171 
  211000    306.85092   -1548.6012    518.06858    366.15981    592.36387    34340.171 
  211100    289.41996   -1507.6111    551.27708    361.01798   -84.456123    34340.171 
  211200    311.83705   -1503.6231    539.85825    455.62291   -512.94655    34340.171 
  211300    312.87751   -1494.2103    557.90375    487.81707   -108.26642    34340.171 
  211400    299.33525   -1469.8079     557.2085    449.88399     268.3904    34340.171 
  211500    293.58113    -1519.161    542.40967    359.54104    330.72035    34340.171 
  211600    294.80332    -1539.573    554.13064    356.41306    111.78193    34340.171 
  211700    307.23156   -1554.0153    539.23014    383.63978    303.58913    34340.171 
  211800    294.74896   -1529.0154    569.02905    381.62155    639.61634    34340.171 
  211900    295.70309   -1526.6732    544.75013    364.02775    343.35619    34340.171 
  212000    300.89552   -1526.9829    565.83964    408.44193    950.46189    34340.171 
  212100    303.52406   -1522.7961    541.09363    399.84708    978.53295    34340.171 
  212200    290.86059   -1530.8323    525.66649    318.74349    476.45752    34340.171 
  212300    300.32166   -1541.3703    547.30726    372.91014    541.80392    34340.171 
  212400     303.7512   -1522.7772    534.26809     394.0743    346.52509    34340.171 
  212500    296.30309   -1550.2333     555.5459    353.99453   -60.561073    34340.171 
  212600    304.00929   -1572.4491    536.69078    347.99986    271.83669    34340.171 
  212700    300.62023    -1581.064    527.60479    314.87295    363.42597    34340.171 
  212800    297.39702   -1568.4996    522.02623    307.18774    854.11371    34340.171 
  212900    310.82682   -1542.3756    547.09178     419.5057     443.2775    34340.171 
  213000    302.22212   -1560.5236    536.71065    351.81056    83.627068    34340.171 
  213100    303.60611   -1588.5529    515.16854    308.53869    750.19274    34340.171 
  213200    298.31471   -1617.5802    519.14442    259.40238    164.70569    34340.171 
  213300    283.91684   -1543.0301    571.27726    320.55061    796.65568    34340.171 
  213400      298.841   -1589.6566    527.12414    297.70114    9.8374665    34340.171 
  213500    288.58214   -1581.9156    512.62021    244.24309   -161.79116    34340.171 
  213600    299.77287   -1549.9149    519.43604    333.99643   -125.97074    34340.171 
  213700    296.79321   -1540.9458    541.16701    351.13395   -93.172557    34340.171 
  213800    295.69333   -1588.8826    514.63158    271.65539   -197.50958    34340.171 
  213900    297.54423   -1549.8124    541.15395    345.67277    900.89671    34340.171 
  214000     290.9185   -1533.3179    520.29524    311.15021    247.70858    34340.171 
  214100     299.0938   -1573.4546    529.58708    317.51676    247.98346    34340.171 
  214200    301.96416   -1579.8731    516.53839     311.1146    51.438474    34340.171 
  214300    297.51515   -1534.2249    536.24186    356.21576    264.28707    34340.171 
  214400    295.89837   -1586.0871    512.43758    273.19021    179.65459    34340.171 
  214500    303.10748   -1536.5044    536.75945    379.90838   -1.2106095    34340.171 
  214600    300.33468     -1575.47    526.55726    318.11971   -331.67793    34340.171 
  214700    293.66584   -1524.5427    541.41345    353.54871      360.961    34340.171 
  214800     298.8151   -1548.9853    515.64219    326.77264    262.13751    34340.171 
  214900    294.27689   -1522.4773    524.03438    341.01627    209.21807    34340.171 
  215000    296.32271   -1523.9057    537.41949    362.28496   -356.79497    34340.171 
  215100    299.88507    -1582.658    533.21435     315.5423    42.069175    34340.171 
  215200    304.55292   -1543.8029    516.96448    359.39416   -191.92178    34340.171 
  215300    299.74623   -1598.6094    534.93426    300.67882   -421.66656    34340.171 
  215400    285.23075    -1559.312    516.04531    255.01726    20.564866    34340.171 
  215500     294.7282   -1562.4139    534.76183    313.86139    198.44414    34340.171 
  215600    295.81721   -1570.1612    530.49305    306.80218    99.289375    34340.171 
  215700     303.8905   -1574.3126    523.41486     332.3197     621.6757    34340.171 
  215800    299.20031   -1583.3626    541.25446    319.76103    493.34192    34340.171 
  215900    288.53681   -1561.2789    541.49274    293.54599   -31.755431    34340.171 
  216000    301.85813   -1589.4785    522.74541    307.23364   -272.56623    34340.171 
  216100      315.317   -1570.4042    525.08797    389.91114    -123.7674    34340.171 
  216200    311.44467    -1550.084     530.0012    397.51894   -425.81462    34340.171 
  216300    304.00934   -1541.2395    521.08108    363.59997   -133.60262    34340.171 
  216400    288.54098   -1520.1487    542.00965    335.21206   -296.31345    34340.171 
  216500    301.72329   -1531.4085    593.09667    435.04114    283.02897    34340.171 
  216600    308.84453   -1565.6926    533.62804     373.7022    652.28077    34340.171 
  216700    306.61414   -1554.4569    553.73951     394.8972    239.17982    34340.171 
  216800    300.73272   -1572.5436    555.99197    352.29261     258.7487    34340.171 
  216900    301.58488   -1573.6921    533.98906    333.01991    523.99579    34340.171 
  217000    294.92743   -1634.7729    529.58171    237.22906    130.99055    34340.171 
  217100    310.46079   -1599.9312    545.06326    358.25552    541.52188    34340.171 
  217200    301.32474   -1569.6777    527.59254    329.45373    803.01302    34340.171 
  217300    299.96389   -1567.1019    534.28981    332.53263    198.93072    34340.171 
  217400    299.50192   -1592.2186    527.71705    298.74038   -33.592067    34340.171 
  217500    291.58121   -1568.2593    531.80525    290.73522   -52.064761    34340.171 
  217600     292.2591   -1547.8088    525.48427    307.95036   -15.709411    34340.171 
  217700    300.95031   -1548.2667    533.41135    354.97922   -158.66137    34340.171 
  217800    293.57206   -1498.1321    549.54815    387.66709   -303.37374    34340.171 
  217900    286.76322   -1512.0832    551.71608    344.89212   -200.13818    34340.171 
  218000    299.71742    -1508.478    545.86024    401.60509    135.62288    34340.171 
  218100    292.53048   -1516.4254    528.99087    344.07559   -49.050407    34340.171 
  218200     302.5158   -1502.2388    548.53491    423.25633    -266.9583    34340.171 
  218300    301.94004    -1535.492    550.46195     389.3095    236.22897    34340.171 
  218400    301.75541   -1466.4456    539.30395    446.35752    538.67381    34340.171 
  218500    291.39908   -1526.6932    525.55894    325.22607    685.99947    34340.171 
  218600    305.06641   -1549.3604    567.85546    407.06493    392.81117    34340.171 
  218700    292.41568   -1542.1036    523.52417    312.40814    21.402384    34340.171 
  218800    298.22001   -1542.6709    531.78384    346.52005    918.77197    34340.171 
  218900    310.11165   -1580.8135    543.63021    374.35094    98.269457    34340.171 
  219000    300.43233   -1545.1241    550.88863    373.24142    81.960749    34340.171 
  219100    306.05943   -1534.7913    511.44232    369.74079    632.81408    34340.171 
  219200    308.17951   -1525.5198    546.07102    423.29099    203.05103    34340.171 
  219300    291.90006   -1517.2655    545.80413    357.17925    48.068142    34340.171 
  219400    311.02799   -1564.2342    550.39216    401.86313   -185.85019    34340.171 
  219500    311.33306   -1579.3581    517.09388    354.82953   -409.36638    34340.171 
  219600    297.99473   -1553.5059    514.30182     317.1776   -527.21677    34340.171 
  219700    300.15875   -1553.6868    527.02716    339.57198   -561.95276    34340.171 
  219800    302.13432   -1557.7725    531.85599     349.3073   -56.953438    34340.171 
  219900    288.50618   -1535.5878    529.83804    307.44292    -237.6577    34340.171 
  220000    305.00929   -1491.7962    562.90673    459.42044    11.918732    34340.171 
  220100    297.98385   -1511.2622     560.8318     405.9018    182.35954    34340.171 
  220200    321.64193   -1556.2295      522.909    430.69606   -241.24514    34340.171 
  220300    312.74816    -1527.411    529.59167    425.71547    170.93816    34340.171 
  220400    312.40708   -1550.8994    541.63049    412.71343    117.00595    34340.171 
  220500    295.49449    -1549.964    505.59263    300.62997   -482.65819    34340.171 
  220600    308.23849   -1602.1753    525.11275    325.94562   -667.49303    34340.171 
  220700    294.29068   -1584.9913    549.77301    304.30369    82.650624    34340.171 
  220800    307.79902   -1598.2364    489.38113    292.15253    164.47185    34340.171 
  220900    296.13784   -1541.9042     536.7499    342.77544   -81.354051    34340.171 
  221000    302.24868   -1574.8791    535.15276    336.01808    36.647599    34340.171 
  221100    299.12284   -1555.0511     539.4228    345.88819    904.14809    34340.171 
  221200    291.15796   -1533.2112    539.77527    331.82689    767.73029    34340.171 
  221300    291.14636   -1553.3542    565.34766    337.20347   -87.495996    34340.171 
  221400    299.82022   -1575.6796    548.68509    337.69629   -360.32888    34340.171 
  221500    295.71107   -1518.5308    530.19977    357.65619     43.25159    34340.171 
  221600    301.86576   -1531.4264    553.74355    396.31855    120.44927    34340.171 
  221700    308.71949   -1555.5566    532.83139     382.4723    84.476589    34340.171 
  221800    302.70778   -1516.1368    548.33748    410.03475    558.12047    34340.171 
  221900    303.10898   -1553.2655    520.25462    346.64935   -109.39099    34340.171 
  222000    302.65208   -1577.1029    528.69812    329.17577    104.07157    34340.171 
  222100    302.45786   -1575.6087    542.86018    343.94799    165.39593    34340.171 
  222200    300.58866   -1545.8353    529.23575    351.58896    -263.9525    34340.171 
  222300    306.02386   -1571.1896    507.30547    329.04371  -0.54921536    34340.171 
  222400    296.73836   -1575.3857    528.33903    303.61645   -106.74994    34340.171 
  222500    307.45093   -1567.8133    541.22562    372.83582    -510.8356    34340.171 
  222600    301.63099    -1597.651     524.7105    299.99232    410.95095    34340.171 
  222700    297.72479   -1600.1698    527.33306    282.31631   -936.44704    34340.171 
  222800    311.82139   -1564.4292    531.50843     386.3957   -253.30579    34340.171 
  222900    302.79072   -1514.2931    539.50879    403.42732    147.25293    34340.171 
  223000    308.00779   -1552.8473    544.43819    393.54902   -500.81522    34340.171 
  223100    291.14396   -1558.9188    532.50931    298.78958    23.296585    34340.171 
  223200    307.55715   -1547.1659    535.83394    388.57496    -218.4435    34340.171 
  223300    303.15509   -1527.0951    539.05902      391.834    464.36716    34340.171 
  223400    292.68687    -1563.709    545.49995    314.01282   -176.03176    34340.171 
  223500    301.48131   -1550.4135    515.40835    337.24643    257.53211    34340.171 
  223600    296.67468   -1537.2009     554.5276    367.69993    243.48432    34340.171 
  223700    289.28319   -1532.8349     539.4481    323.34256    718.67602    34340.171 
  223800    298.27954   -1560.3142    542.19964    339.56352     946.3257    34340.171 
  223900    291.11915   -1552.5011    520.41548    293.00052    952.71918    34340.171 
  224000    304.33742   -1528.8024    564.55014    420.99949    929.38241    34340.171 
  224100     291.2686   -1507.3611     573.0108    391.41608   -151.12002    34340.171 
  224200    306.94371   -1601.8618    541.40569    336.65869   -131.16655    34340.171 
  224300    299.42061   -1589.9149     515.7398    288.69681    583.25726    34340.171 
  224400    298.30442   -1577.1269    556.27593     336.9403      -227.23    34340.171 
  224500    304.53492   -1582.1471    514.54406    318.54761   -267.62998    34340.171 
  224600    295.96987   -1553.7758    535.30122    328.69058   -165.89319    34340.171 
  224700    311.82029    -1546.675    549.05955    421.69595    144.71296    34340.171 
  224800    295.69826   -1517.6039    546.29086    374.61583    134.29057    34340.171 
  224900    300.40604   -1537.4061    541.84231    371.79345    536.02824    34340.171 
  225000    299.23963   -1562.5554    518.19181    317.68449   -252.00274    34340.171 
  225100    285.19408   -1531.2501    550.38302    317.24994   -96.148229    34340.171 
  225200    297.37398   -1598.5737    531.54533    286.52784   -130.39672    34340.171 
  225300    298.31027   -1606.3932    554.91406     306.3388    79.447408    34340.171 
  225400    302.30167   -1584.4204    548.51618    340.08136   -86.361824    34340.171 
  225500    307.79976    -1549.848     518.7166    369.87989    821.58193    34340.171 
  225600    299.09512   -1574.6333      542.115    328.87209    368.33119    34340.171 
  225700    300.37404     -1545.36    531.16737    353.01899    334.20508    34340.171 
  225800    306.26666   -1560.7055    547.16961    380.49717    594.15372    34340.171 
  225900    292.14534   -1572.4001    551.17219    308.52912     365.1096    34340.171 
  226000    290.26116   -1571.3475    534.38526    284.21858    817.23556    34340.171 
  226100    304.02116   -1571.7795    574.64394     386.6766    1188.1812    34340.171 
  226200    293.81445   -1573.9866    532.89707    296.26477    547.31717    34340.171 
  226300    303.77267   -1593.5415     555.8844    345.02407    346.10055    34340.171 
  226400    301.30482   -1549.9841    552.70104    374.16518    367.97605    34340.171 
  226500     296.2597   -1552.2171    548.56598    344.83321   -49.059564    34340.171 
  226600    300.35629   -1568.0259    541.36182    340.46675    -176.9968    34340.171 
  226700    294.40625   -1571.9993    551.72584    319.77456   -677.65923    34340.171 
  226800     300.4612   -1601.7344    543.63143    309.50532    373.28982    34340.171 
  226900    301.58601   -1569.2904    555.14736    358.58508    206.09773    34340.171 
  227000    305.91636   -1556.9851    553.25429    388.70781    607.27387    34340.171 
  227100    311.59454   -1557.7437    551.11524    411.65538   -302.79865    34340.171 
  227200    291.68009   -1604.7086    551.53087    274.46165    445.00635    34340.171 
  227300    303.00626   -1588.4165    525.40983    316.18604    815.28633    34340.171 
  227400    302.25109   -1598.1846    541.97182    319.54257    158.66763    34340.171 
  227500    300.79178   -1621.6795    536.60651    284.04007   -31.352024    34340.171 
  227600    286.61205   -1603.9501    550.48081    251.10192   -1183.9552    34340.171 
  227700    305.09225   -1599.5676    545.04959    334.16945    481.21289    34340.171 
  227800    301.72568   -1573.4531    528.89482    328.80555   -3.5369071    34340.171 
  227900    314.28324   -1600.4257    540.02359       370.12   -142.45822    34340.171 
  228000    302.15828   -1577.4754    558.87401     356.7315   -80.832066    34340.171 
  228100     287.4695   -1560.5951     540.6195    288.49843    -594.5194    34340.171 
  228200    310.33133   -1557.9793    529.26748    383.82238   -789.45272    34340.171 
  228300    294.87153    -1586.468    546.70772    302.40554   -627.32346    34340.171 
  228400    303.01504   -1568.2442    511.34152    322.32999    128.16416    34340.171 
  228500    300.77282   -1570.7672    601.37705    399.63657   -130.23207    34340.171 
  228600    306.59465   -1591.1394    533.44111    337.82765    406.68286    34340.171 
  228700     290.2493    -1609.108    522.50951    234.52836    773.43911    34340.171 
  228800    295.45715   -1605.9888    533.73655    272.57913    425.30629    34340.171 
  228900    304.47086   -1560.7859    535.56027     360.6335    872.21403    34340.171 
  229000    307.35164   -1560.2749    520.86281    359.55941    -199.4988    34340.171 
  229100    297.31014   -1536.8953     543.7946    360.16493    450.43882    34340.171 
  229200    300.39715   -1535.4219      539.279    371.17396   -276.21981    34340.171 
  229300    293.32563   -1525.8583    561.85965    371.13071   -366.10116    34340.171 
  229400     302.1489   -1543.4086    546.47614    378.35778    669.27604    34340.171 
  229500    302.23168   -1572.6354    568.98267    372.01424    125.82945    34340.171 
  229600    309.28552   -1584.1166    551.31373    374.97104    311.88987    34340.171 
  229700    295.53767    -1602.718       530.67    273.14987    264.82896    34340.171 
  229800    296.59696   -1577.6797     567.0114    339.35114      215.555    34340.171 
  229900    298.47511   -1564.0858    551.79259    346.27506    777.06743    34340.171 
  230000    304.65245   -1552.7717    548.99608    382.90998     952.3193    34340.171 
  230100     299.0557   -1554.8777    545.65356    351.98676    604.41448    34340.171 
  230200    288.68707   -1537.2171     558.3389    335.13787    822.44886    34340.171 
  230300    287.81044   -1556.1088    569.41026    323.32731    601.39006    34340.171 
  230400    303.44652   -1555.2833    528.18762    354.10089    466.99006    34340.171 
  230500    298.16833   -1539.6748    540.80725    358.30434    148.49548    34340.171 
  230600    302.20901   -1562.8631    524.66134    337.36203    384.76645    34340.171 
  230700    306.85528   -1557.3973    530.33203    369.64698   -23.752882    34340.171 
  230800     301.7386   -1525.9451    555.76372    403.24123   -116.76008    34340.171 
  230900    289.79161   -1535.9915    530.11386     313.1659   -468.37231    34340.171 
  231000    306.37906   -1544.3176    544.45132    394.67841   -655.98895    34340.171 
  231100    309.92485   -1515.7134    560.81531    455.78593   -463.61753    34340.171 
  231200    303.52741   -1532.6741    524.77781    373.66849   -846.96752    34340.171 
  231300     297.6659   -1515.0511    527.63242    367.46634   -1042.3534    34340.171 
  231400    299.23548   -1532.9902    533.16795    362.20701   -98.148223    34340.171 
  231500    302.19161   -1563.0878    537.89995    350.29673   -211.27777    34340.171 
  231600    303.53683   -1578.1789    531.64667    335.07544    695.86902    34340.171 
  231700    292.94852   -1580.6448    522.09554    274.86364    696.97174    34340.171 
  231800    297.97737   -1572.1431    536.58662     320.7462    215.28448    34340.171 
  231900    294.33517   -1581.8043    497.54647    255.46669    26.927228    34340.171 
  232000    311.24139   -1552.7915    505.04308    368.92802    35.154515    34340.171 
  232100    294.48771   -1571.6808    535.17351    303.91151   -242.36553    34340.171 
  232200    297.46484   -1574.9673    504.61827    283.62078   -354.42878    34340.171 
  232300    298.70639   -1544.9209     550.8849    365.58501    14.741112    34340.171 
  232400    294.59244   -1547.1241    524.35947     318.1309   -805.76143    34340.171 
  232500    292.44935   -1539.2505    529.10057    320.99093   -30.083144    34340.171 
  232600    291.47444   -1572.1909    529.48551    283.99796    19.184355    34340.171 
  232700    304.82676   -1544.9582    556.35271    398.87349    509.96748    34340.171 
  232800    304.41503   -1553.6629    537.53339    369.47548     78.19627    34340.171 
  232900    301.72132   -1569.4367    531.49584    335.40319     499.7762    34340.171 
  233000    295.96013   -1576.5315    542.08525    312.67457    336.06067    34340.171 
  233100    301.82719   -1536.7635    530.76451    367.82695    30.225467    34340.171 
  233200    292.51659   -1511.3756    517.49982    337.57111   -197.73198    34340.171 
  233300    289.83505   -1521.1333     542.2134    340.32144    421.65549    34340.171 
  233400     306.5518   -1505.2345    549.36188     439.4583    360.57034    34340.171 
  233500    313.84998   -1521.6124    531.44246    438.38007    253.79947    34340.171 
  233600    307.90341   -1509.4875    543.25605    435.25156     380.9874    34340.171 
  233700    304.51748   -1506.1684    542.59202    422.49487     520.1669    34340.171 
  233800    286.23968   -1523.3236    565.55859    345.11128    88.997638    34340.171 
  233900     297.1441   -1552.7245    540.35745    340.14281    -359.6965    34340.171 
  234000    296.45957   -1542.6414    553.39124    360.14396    216.83981    34340.171 
  234100    295.08452   -1515.2065    559.66602    387.59485    688.68718    34340.171 
  234200    303.87301   -1534.6004    541.06841    389.60584    422.10692    34340.171 
  234300      305.991   -1554.5828    525.89455    364.09008    38.373563    34340.171 
  234400    309.28305   -1534.4329    555.25716    428.58701     104.4005    34340.171 
  234500    293.04354   -1582.3365    534.07827    285.58722   -40.324009    34340.171 
  234600    294.18315     -1588.35    517.73616    268.41874   -60.265292    34340.171 
  234700    303.21608   -1552.9423    536.59029    363.79571    482.13293    34340.171 
  234800    296.51403   -1574.0802    551.94374    327.50554    22.768912    34340.171 
  234900    297.80447    -1563.567    521.22088    313.16963   -187.40655    34340.171 
  235000    294.74493   -1594.4121    521.83211    269.00959    -302.9651    34340.171 
  235100    304.22198   -1579.8443    551.64314    356.52509   -141.53304    34340.171 
  235200    307.73482   -1590.1171    537.31668    347.91529   -264.67591    34340.171 
  235300    290.02903   -1583.2056    537.38431    274.30297      325.841    34340.171 
  235400    302.81203   -1555.0081    534.04465     357.3451    867.10787    34340.171 
  235500     292.3616   -1601.9018    545.82565    274.66525   -468.00344    34340.171 
  235600    297.39316    -1589.515    531.07391    295.20246    318.08733    34340.171 
  235700    298.46886   -1593.2722    562.91104     328.1786   -680.12381    34340.171 
  235800    310.27521   -1581.0018     539.8141    371.09102   -1191.3676    34340.171 
  235900    293.75648   -1584.8557    535.29519    287.53001   -2019.9557    34340.171 
  236000    295.69482   -1558.3293    528.35489    315.93884   -1257.6656    34340.171 
  236100    288.44727   -1570.3899    535.56246    278.09716   -1495.6338    34340.171 
  236200    289.95829   -1563.3514    530.54247    286.99331   -555.68127    34340.171 
  236300    302.03195   -1581.6535    538.51823    331.62262     -66.4904    34340.171 
  236400    305.40252   -1536.1427    545.48955    399.44657    356.47413    34340.171 
  236500    294.73811   -1584.6158    542.12664    299.06933   -98.646197    34340.171 
  236600    291.76113   -1549.3527    552.39417    331.04968   -124.63426    34340.171 
  236700    299.89764   -1555.1153    525.97631    335.90421   -697.07448    34340.171 
  236800    301.42586   -1568.9625    531.63685    334.67349   -138.49701    34340.171 
  236900    300.45978    -1556.037    545.27349    356.83837    139.23186    34340.171 
  237000    306.20553   -1568.3071    514.57972    340.02742    643.68137    34340.171 
  237100    303.22928   -1573.1864    538.36345    345.38477    299.29864    34340.171 
  237200    310.74202   -1541.8537    522.64501    395.19477    194.54178    34340.171 
  237300    293.59517   -1546.8274    544.02558    333.55447    -322.4438    34340.171 
  237400    303.08309   -1586.6907    516.13578    308.98747   -168.43754    34340.171 
  237500    305.12692   -1577.1924    543.62403    355.27694    175.94474    34340.171 
  237600    298.97543   -1569.6535     524.1737    315.36574   -158.50073    34340.171 
  237700    304.43955   -1606.2921    525.82107    305.24559   -309.46577    34340.171 
  237800    301.98388   -1552.2006    532.42626    354.76476   -50.017269    34340.171 
  237900    306.15774   -1558.8523      544.393    379.07801   -525.96904    34340.171 
  238000    297.70479   -1553.3889    541.45602    343.12914   -582.58915    34340.171 
  238100    296.55827   -1566.2867    540.60019    324.15689   -452.41788    34340.171 
  238200    298.71653   -1548.6881    518.35306    329.33211   -328.70722    34340.171 
  238300    303.25692   -1525.2044    543.53606    398.66522    130.29244    34340.171 
  238400    303.42834    -1517.172    534.44999    398.39181   -50.531356    34340.171 
  238500     302.5736   -1552.3986    560.97003    385.79478   -14.194345    34340.171 
  238600    297.72427   -1575.3065    505.25765    285.10178   -500.27226    34340.171 
  238700    301.18997   -1505.5414    568.62131     434.0054   -469.91089    34340.171 
  238800    297.86853   -1547.7442    520.51871     328.5818   -579.41106    34340.171 
  238900    297.10007   -1537.6993     536.2526    350.86281   -459.76423    34340.171 
  239000    301.84095   -1499.3807    532.04518    406.55299   -46.729732    34340.171 
  239100    302.74205   -1499.2877    524.41224    403.11456    637.01462    34340.171 
  239200    294.00866    -1512.679    535.72279    361.28207    81.450588    34340.171 
  239300     291.8552   -1553.9498    578.38792    352.87451    125.79325    34340.171 
  239400    305.24746   -1511.0986    568.06929     446.3646   -90.044401    34340.171 
  239500    303.56723   -1543.0631    526.63877    365.32165   -109.28206    34340.171 
  239600    300.17795   -1542.4658    576.29635    400.14965   -28.757504    34340.171 
  239700    305.63039   -1517.0893    536.71672    410.76428   -91.409848    34340.171 
  239800    304.35544   -1506.0035    552.51242    431.84262   -148.34821    34340.171 
  239900    306.40565   -1480.1353    549.62321    464.15362    357.38619    34340.171 
  240000    297.26711   -1513.2667    543.17545    382.97855   -209.50671    34340.171 
  240100    298.54952   -1577.8718    529.10869     310.1438   -423.97336    34340.171 
  240200    295.78157   -1539.0142    533.12329    340.41712    67.793591    34340.171 
  240300    298.29357   -1535.9162     522.3141    344.13986     470.5806    34340.171 
  240400    301.02765   -1511.1183    555.94308    415.01144    259.96421    34340.171 
  240500    308.58349    -1527.859    537.14401    413.86355    331.66093    34340.171 
  240600    301.32656   -1517.4826    560.52428    414.58891     647.4657    34340.171 
  240700    298.01768   -1605.3649    541.69135     292.8126     519.2894    34340.171 
  240800    299.61329   -1600.1925    505.13774    268.69412     344.4589    34340.171 
  240900    301.10607   -1597.3368    560.29347    333.50022   -245.40264    34340.171 
  241000    297.47549   -1522.0987    544.95679    376.87635   -15.717101    34340.171 
  241100    296.41523   -1524.0623    534.04564    359.17568   -467.76856    34340.171 
  241200    299.44571   -1586.2781    538.96673    315.67472   -749.23235    34340.171 
  241300    295.05624   -1576.4201    542.32221    308.90873    -196.5226    34340.171 
  241400     297.2481   -1541.0291    543.28141    355.23559   -102.84932    34340.171 
  241500     303.4309   -1606.1934    515.44205    290.37414    315.69492    34340.171 
  241600    300.66894   -1562.3991    536.29359    342.44843    126.60439    34340.171 
  241700    306.87861   -1552.4129    528.36553     372.7711    225.09085    34340.171 
  241800    299.44547   -1539.9559    536.82088    359.85005   -196.64801    34340.171 
  241900    296.77802   -1549.7261    542.92403    344.04156   -832.93577    34340.171 
  242000     305.5478   -1532.7981    520.34669    378.30953   -487.74454    34340.171 
  242100    311.50448   -1513.9516    515.72038    419.64281   -427.15596    34340.171 
  242200    304.65209   -1506.2468    524.71399     405.1512    247.18745    34340.171 
  242300    295.42661   -1527.1711    548.78179    366.30313    94.315026    34340.171 
  242400    300.96383   -1517.5966    556.01422    408.31381    452.73239    34340.171 
  242500    302.55838   -1512.8024    579.38246    443.73417    565.44008    34340.171 
  242600    290.16219   -1536.0426    543.22851     327.9163   -52.817253    34340.171 
  242700    302.59626   -1557.4222    542.58689    362.49111    -317.7645    34340.171 
  242800    300.61816     -1515.09    548.24646    401.47928   -471.16498    34340.171 
  242900    302.84007    -1500.612    532.64288    410.46706   -1076.9849    34340.171 
  243000    296.63306   -1527.9035    564.36749    386.64779   -254.69735    34340.171 
  243100    290.12009   -1521.9095    521.29076    319.91996   -291.73667    34340.171 
  243200     302.1462   -1545.1968    555.59197    385.67309    148.32177    34340.171 
  243300    302.20498   -1561.6273    552.46024    366.37845    160.80822    34340.171 
  243400    295.60902   -1509.9001    532.62611     368.2487   -121.14968    34340.171 
  243500    312.49299   -1475.7312    560.21783    506.86006    158.41301    34340.171 
  243600    304.30098    -1547.581     539.2054    376.71025     310.9797    34340.171 
  243700    290.05249   -1561.6091    539.76613    298.38804   -331.57047    34340.171 
  243800      304.515   -1595.0505    537.78645     328.7959    212.86418    34340.171 
  243900    290.02269   -1588.4083    520.85387      252.541   -905.12946    34340.171 
  244000    300.33294   -1580.8142    509.85852    296.06883   -288.15458    34340.171 
  244100    298.40327   -1567.8738     545.4376    335.80508   -207.91776    34340.171 
  244200    303.82039   -1587.3495    525.11938    320.66824   -227.04593    34340.171 
  244300    305.83683   -1550.8092     555.1844    396.45181    287.86765    34340.171 
  244400    295.44604    -1556.858    533.79585    321.71874     -601.812    34340.171 
  244500    306.01777   -1554.4323    536.56649    375.03429   -304.46146    34340.171 
  244600     287.4398   -1547.9218    540.28326    300.70029   -493.52735    34340.171 
  244700    301.81047   -1534.4516     559.8309    399.12914    721.40913    34340.171 
  244800    301.11294   -1542.2761      552.602    380.90076    312.86963    34340.171 
  244900    301.37364    -1543.024    539.17463    367.91208    911.26514    34340.171 
  245000    299.94891   -1524.3236    534.74479    375.69774    350.90838    34340.171 
  245100     292.3896   -1544.9127    534.77187    320.72802    525.96109    34340.171 
  245200    298.28786   -1562.3182    538.83078    334.22851    286.00831    34340.171 
  245300    301.28222   -1554.0763    522.36182    339.63088    -18.26669    34340.171 
  245400    306.61673   -1607.2371    507.48881    295.87813    -458.4264    34340.171 
  245500    293.68435   -1561.2762    531.91041    307.39639   -151.79318    34340.171 
  245600    288.68302   -1585.4792    531.22342     259.7419   -270.61663    34340.171 
  245700    298.80095   -1589.9865    532.80997     302.8748   -816.28459    34340.171 
  245800    310.00078   -1583.3491    527.42194    355.10242    -599.8527    34340.171 
  245900    296.72589   -1610.7886    534.68387    274.50159    49.474766    34340.171 
  246000    297.65501   -1590.3122    529.82056    294.34382    150.98856    34340.171 
  246100    297.77979   -1588.2123     541.4093    308.60037   -79.233165    34340.171 
  246200    296.14572   -1598.0213    547.90867    297.85298   -161.98864    34340.171 
  246300     296.1866   -1586.9124    553.31963    314.55884    217.44909    34340.171 
  246400     307.1604    -1580.178    530.76857    348.69166    258.92476    34340.171 
  246500    295.05919    -1586.035     546.3744     303.3594   -533.70787    34340.171 
  246600    304.02468   -1571.8965    545.28067    357.21241    183.63357    34340.171 
  246700     303.1102   -1566.4464    545.09556     358.3149   -274.70678    34340.171 
  246800    299.97196   -1600.5371    534.64243    299.48677    318.00786    34340.171 
  246900    302.80701   -1603.5821    528.39017    303.09382    168.61534    34340.171 
  247000    302.45975   -1629.1608    548.00505    295.54935    385.67155    34340.171 
  247100    297.73305   -1643.5916    533.56415    245.16312    421.39845    34340.171 
  247200     302.9383   -1660.9346    538.57149    256.52025    591.42859    34340.171 
  247300    305.28605   -1566.5524    556.83219    379.84936    743.88119    34340.171 
  247400    298.12197   -1635.0052    508.58705    230.54275    320.19087    34340.171 
  247500    305.68551    -1590.127    555.88239    357.14315    15.901963    34340.171 
  247600    294.12427   -1550.7119    542.23415    330.28677    503.70655    34340.171 
  247700    297.83319   -1536.9445     571.3524    390.05436    154.83506    34340.171 
  247800    298.21198   -1546.9987    520.26262    330.63445    -474.4591    34340.171 
  247900    310.10341   -1489.6184    538.24144    460.11983   -280.62755    34340.171 
  248000     288.2061   -1545.9161    540.25297    306.16373   -1516.1528    34340.171 
  248100    303.94578   -1585.8018    514.84862    312.51591   -835.16288    34340.171 
  248200    295.31074   -1595.3068    538.36173    287.21995   -394.37607    34340.171 
  248300    303.02609   -1573.0472    517.50664    323.74236   -138.70396    34340.171 
  248400    305.14992   -1575.3061    535.15324    348.79707   -67.494501    34340.171 
  248500    292.47486   -1549.4104    557.52138    339.36788    298.20228    34340.171 
  248600    298.57483   -1585.0683    521.92085    295.87472    566.00218    34340.171 
  248700    302.87205    -1543.264    545.42571    380.74353    440.08395    34340.171 
  248800    303.54564   -1560.4505    562.79284    383.99011    620.08702    34340.171 
  248900    299.08186   -1551.4874    544.37908    354.22172    240.93655    34340.171 
  249000    292.36117   -1575.7842    560.10293    315.05816   -212.33086    34340.171 
  249100    307.37428   -1549.2616    540.18392    389.99689   -652.69223    34340.171 
  249200    308.33555   -1558.8419    529.57706    374.18514    81.502929    34340.171 
  249300    299.67519   -1569.1746    554.55392    349.40999   -840.31921    34340.171 
  249400    305.81337   -1572.0145    542.81898    362.77427   -408.06519    34340.171 
  249500    292.81663   -1548.5762    579.19989    363.43628    -776.6458    34340.171 
  249600    293.91893   -1538.3432     515.1618    314.64849   -129.91208    34340.171 
  249700    306.21109   -1600.8553    573.01636    365.94114    58.975959    34340.171 
  249800    298.35417   -1570.7149    547.61322    334.91606    127.28066    34340.171 
  249900    295.75447   -1599.6838    536.58345    283.08437    167.63035    34340.171 
  250000    300.22087   -1596.4288    540.71609    310.80165     49.38956    34340.171 
  250100    299.75109   -1595.7763    517.48256    286.08232    87.875775    34340.171 
  250200    303.77059   -1603.8676      562.037    340.84104    337.01544    34340.171 
  250300    302.82625   -1600.8182    513.28699    290.84207    662.64368    34340.171 
  250400    307.27629   -1596.2102    537.65187    340.07027    227.77188    34340.171 
  250500     293.8434   -1570.8235    542.71936    309.38193    -337.6194    34340.171 
  250600    301.21433   -1562.2299    574.90086    383.70733    106.80467    34340.171 
  250700    295.61037   -1574.0848    527.29531    298.73929    402.45293    34340.171 
  250800    303.39534   -1575.8667    525.50597    330.60288     454.7683    34340.171 
  250900    302.73096   -1602.7134    561.05094     336.2771    417.84214    34340.171 
  251000    305.39757   -1572.2146    532.26405    350.12668    692.16107    34340.171 
  251100     293.6734   -1567.8285    521.86115    290.74493    98.937706    34340.171 
  251200    304.36238   -1574.9185    548.24926    358.69606    20.712114    34340.171 
  251300    298.28835   -1562.9994    532.20124    326.91996    285.36099    34340.171 
  251400    298.09348   -1560.9027    557.96207    353.89059    280.42926    34340.171 
  251500    302.47626   -1563.9575     572.4594    385.28214    584.13677    34340.171 
  251600    301.96468    -1587.594    528.92607    315.78376    374.40375    34340.171 
  251700    292.73045   -1545.8174    562.88468    349.48755    649.85954    34340.171 
  251800    305.83012    -1526.511    581.05135    446.58633    229.38948    34340.171 
  251900    300.35225   -1547.9565    504.80811    323.96407    283.41815    34340.171 
  252000    302.18298   -1528.0241    542.47412    389.89539    495.47547    34340.171 
  252100    287.61821    -1508.113    536.10665    337.14453     460.2588    34340.171 
  252200    299.15569   -1555.3465    587.48769    393.80724    518.35713    34340.171 
  252300    297.30162   -1595.9144    554.34217    311.65462    684.69499    34340.171 
  252400    306.57002   -1616.2507    523.83966    303.00272    317.81117    34340.171 
  252500    305.22755   -1582.8185    563.22151    369.70631    502.98503    34340.171 
  252600    293.70569   -1587.5707    545.13899    294.42762   -704.56165    34340.171 
  252700    306.10274   -1596.7369    552.19107    348.74106   -41.194903    34340.171 
  252800    297.30684   -1564.2144    550.82616    339.86241    657.27146    34340.171 
  252900    298.52183   -1572.5965    553.60448    339.78889    285.81105    34340.171 
  253000    306.41189   -1540.8217    551.60567    405.47801    161.90935    34340.171 
  253100    292.78998    -1530.613    531.84354     333.9218    367.42153    34340.171 
  253200    303.52977   -1525.0004    547.76844    404.34356    247.57262    34340.171 
  253300     308.5801   -1556.1627    559.46362    407.86404    759.12979    34340.171 
  253400    290.93177   -1613.5899    575.07999     285.7233    123.11877    34340.171 
  253500    294.89143   -1540.0102    548.27789    350.52418    146.86747    34340.171 
  253600    294.37431    -1523.688     575.9481    392.16281   -103.99553    34340.171 
  253700    302.88309   -1555.6056    554.17338    377.19979   -91.942421    34340.171 
  253800    299.29194   -1565.0188    569.31984    366.58732    66.673558    34340.171 
  253900    299.20987   -1571.0005    545.81781    336.72997     159.4239    34340.171 
  254000    291.62449   -1535.7826    578.35321    369.95694   -42.061609    34340.171 
  254100    301.58227   -1526.0785    554.35924    400.99181    18.374264    34340.171 
  254200    290.43024   -1605.0354    577.44567    294.36074    352.94962    34340.171 
  254300    302.38059   -1548.7691    578.71023    406.28592   -116.87163    34340.171 
  254400    290.54362   -1571.0336    548.29308      299.726    -172.7029    34340.171 
  254500    305.23965   -1581.8554    577.67813    385.18108   -539.81491    34340.171 
  254600    312.51594   -1604.5092    564.93638    382.90506   -32.403928    34340.171 
  254700     300.6375   -1605.6227    536.51695    299.30504     362.0501    34340.171 
  254800    311.36598   -1576.1145    539.66057    380.78968    473.81642    34340.171 
  254900    320.46415   -1573.1846    586.00728    471.47834    256.54605    34340.171 
  255000    299.82616   -1578.4898    553.36394    339.59193   -20.991392    34340.171 
  255100    301.86549   -1558.7478    568.01675    383.26915    354.45634    34340.171 
  255200    295.52615   -1566.3062    548.01954     326.8588   -178.59816    34340.171 
  255300    303.60908    -1604.744    595.58671    372.77917   -498.92032    34340.171 
  255400    305.89088   -1600.0731    550.85954    343.10901    458.57853    34340.171 
  255500    292.84591   -1647.2069    544.91535    230.65433     118.0996    34340.171 
  255600    299.05607   -1596.2663    554.21347    319.15978    595.76279    34340.171 
  255700    300.22432   -1606.6889    548.99842    308.83969    533.73311    34340.171 
  255800    295.44373   -1616.6281    535.54802    263.69022    105.33695    34340.171 
  255900    300.93991   -1629.0088    546.17005     286.9485    102.53832    34340.171 
  256000    293.58535    -1613.633    544.79576    267.47429    920.13449    34340.171 
  256100    299.71039    -1647.967    538.56613    254.79003    377.61104    34340.171 
  256200     306.4239   -1657.6348    545.15396    282.26793    737.31059    34340.171 
  256300    301.83212   -1646.1853    557.65236     285.3154    203.95247    34340.171 
  256400    290.90189   -1636.3371    568.67643    256.43656    143.55455    34340.171 
  256500    299.30127   -1641.6511    546.10346    266.78099   -467.20852    34340.171 
  256600    299.21103   -1623.6541    551.80315    290.06701    368.60294    34340.171 
  256700    299.56731   -1640.2355    553.96129    277.26534    285.47453    34340.171 
  256800    304.00653   -1671.3981    557.66708    270.01458     160.6259    34340.171 
  256900    294.89728    -1588.306    543.58737    297.56441   -498.73121    34340.171 
  257000    300.19054   -1574.8026    568.06718    359.64092    118.88504    34340.171 
  257100    291.38262   -1549.2545     551.0437    328.07456   -474.08106    34340.171 
  257200    293.32115   -1592.2275    559.20488    302.08637   -514.44696    34340.171 
  257300    305.64457   -1587.4187    575.80295    379.58575   -301.89986    34340.171 
  257400    306.90163   -1591.7392    549.75101    354.93505   -728.35468    34340.171 
  257500    313.19138    -1621.435    550.67015     354.7874   -202.87392    34340.171 
  257600    303.54657   -1654.0524    529.90592    257.50546   -166.83595    34340.171 
  257700    302.61418   -1625.3123    526.99749    279.09329    353.70615    34340.171 
  257800    308.64698   -1633.0829      556.787    328.57163    193.12861    34340.171 
  257900    295.61908     -1641.94     550.4454    254.07391   -160.89608    34340.171 
  258000     308.3816   -1557.6821    529.68223    375.65971    98.646653    34340.171 
  258100    300.86892    -1549.851    554.78453    374.39764   -165.14855    34340.171 
  258200    304.67046   -1531.2122    582.94686    438.50222   -65.467786    34340.171 
  258300    294.18026   -1564.3761    533.88175    308.52508    252.11491    34340.171 
  258400    302.73258   -1537.0915    561.36363    402.21913    309.86836    34340.171 
  258500    297.13316   -1567.0436    584.28689    369.70338    -520.2821    34340.171 
  258600    304.67158   -1538.4062    574.48214    422.84863   -170.58467    34340.171 
  258700    291.91585    -1541.287     560.5209     347.9464   -320.74224    34340.171 
  258800     301.7483   -1571.2244    540.36285    342.60528   -593.40823    34340.171 
  258900    309.44351    -1556.426    559.03351    411.10057    88.327051    34340.171 
  259000     295.4468   -1578.6711    553.61193    319.72515   -337.70963    34340.171 
  259100    308.12921   -1572.9662    526.07784    355.62243   -266.44829    34340.171 
  259200    295.21379    -1569.406     543.8193    318.13699   -135.86032    34340.171 
  259300    305.21578    -1597.157    521.66008    313.75279   -107.16272    34340.171 
  259400     294.9421   -1575.5845    539.89944    306.80199    126.85656    34340.171 
  259500    305.06506   -1584.6011    532.11937    336.08198   -135.74361    34340.171 
  259600    286.54256   -1588.9264    561.13837    276.46684   -5.1697563    34340.171 
  259700    297.41708   -1570.9845    557.69244    340.46038    116.35712    34340.171 
  259800    299.19541   -1589.4807    543.05037    315.41648    351.26314    34340.171 
  259900    303.03244   -1615.8221     544.2381    307.72784     712.7871    34340.171 
  260000    295.95161   -1587.5978    575.44654    334.93077   -398.84015    34340.171 
  260100    303.34572   -1572.2862    518.80207    327.25368    300.28718    34340.171 
  260200    288.77932   -1555.3191    531.51147    290.62833    567.48574    34340.171 
  260300     304.1489   -1590.4757    565.25975    359.17769    785.76615    34340.171 
  260400    301.83306   -1632.2912    543.05566    284.61706    310.74642    34340.171 
  260500    288.59834   -1583.5245    565.02317    295.11084    470.03093    34340.171 
  260600    298.87855   -1575.3884    547.35349    332.36965    110.59119    34340.171 
  260700    296.29278   -1542.4657    572.78258    378.95187     723.0563    34340.171 
  260800    299.73364   -1575.7461    548.94081    337.49137    164.85307    34340.171 
  260900    297.65592   -1587.7349    537.77701    304.88159    36.773589    34340.171 
  261000    292.76224   -1569.6928     514.0505    276.92267  0.055888882    34340.171 
  261100    300.41377   -1565.7862    535.40553    337.01171    166.75663    34340.171 
  261200    298.61652   -1559.5468    538.67177    338.33682    181.71332    34340.171 
  261300    299.08277   -1568.2336    525.68369    318.78424    193.97861    34340.171 
  261400    299.39991   -1564.9111    553.62845    351.49504    237.38548    34340.171 
  261500    293.39851   -1546.4674    560.98223    349.97589    694.61565    34340.171 
  261600    287.45019   -1608.3883    553.28955    253.28738    459.03417    34340.171 
  261700    288.36006   -1554.3727    551.34285    309.49775   -76.402561    34340.171 
  261800    297.56262   -1594.2019    539.96651    300.17954    -85.71634    34340.171 
  261900    298.21168   -1532.8005    547.53982    372.10852   -521.49243    34340.171 
  262000    292.75879   -1577.5844    539.35358    294.31841   -585.48873    34340.171 
  262100    304.12394    -1609.875    565.21778     339.6228    208.16103    34340.171 
  262200    299.66238   -1561.8675    540.97571    343.08055    187.39899    34340.171 
  262300    296.31362   -1569.7434    569.14083    348.12726    593.07284    34340.171 
  262400    296.05869   -1588.4142    542.55192    301.70712    741.27176    34340.171 
  262500    287.44943   -1589.0054    568.41125    287.78857    295.47077    34340.171 
  262600    292.68056    -1605.182    553.33238    280.34362    407.21743    34340.171 
  262700    301.38224   -1560.8266    569.90257    380.87662   -230.34575    34340.171 
  262800    297.73054   -1602.5932    539.48156    292.06751   -1122.0231    34340.171 
  262900    300.95331   -1601.9186    540.05412    307.98374   -411.87686    34340.171 
  263000    295.89387   -1620.7981    528.18291    254.20405   -525.87128    34340.171 
  263100     301.0244    -1615.492    553.38006    308.05993    390.80729    34340.171 
  263200    292.18351   -1607.7645    553.33272    275.49903    61.330841    34340.171 
  263300    288.72124   -1569.0991    564.30612    309.37865    69.382729    34340.171 
  263400    305.28596   -1620.3213    560.54066    329.78852   -65.047166    34340.171 
  263500    311.48382   -1594.8289    538.82231    361.77332   -55.710084    34340.171 
  263600    297.92367   -1627.8256    534.98917    263.22185   -259.30968    34340.171 
  263700    299.74532   -1627.9415    528.53706    264.94537   -390.37918    34340.171 
  263800    295.95934   -1623.1948    539.08012    263.00252   -564.19348    34340.171 
  263900    306.39387   -1599.0314    571.83556    367.41618   -505.94174    34340.171 
  264000    295.88215   -1630.9431    568.11218    283.93502    232.92503    34340.171 
  264100    318.42603   -1658.2346    537.21643    328.36064    18.407701    34340.171 
  264200     296.0967   -1605.6869    539.93881     281.9943    153.47792    34340.171 
  264300    294.16377   -1578.2603    552.35797    313.04196    30.945065    34340.171 
  264400    305.84582    -1564.324    553.25069    381.04413   -169.42796    34340.171 
  264500    298.99866   -1556.8614    534.81339    338.90326   -255.05514    34340.171 
  264600    305.00428   -1540.0238    551.65342    399.91665   -912.81096    34340.171 
  264700    293.57781   -1595.5324    536.51415    277.25897   -484.44613    34340.171 
  264800    300.11473   -1558.8669    542.18541    349.34983   -362.74202    34340.171 
  264900    300.28257   -1549.8861    540.05546     356.9646   -474.50832    34340.171 
  265000    301.56039   -1566.8637    537.69419      343.442   -523.84075    34340.171 
  265100    303.70532   -1586.3304    528.88638    324.93051   -868.41711    34340.171 
  265200    302.48073   -1566.6543    538.88022    349.02651   -257.67257    34340.171 
  265300    294.04776   -1599.4126    544.23362     283.2373   -54.682172    34340.171 
  265400    286.88841   -1557.2202    561.67503    310.28396   -802.44709    34340.171 
  265500    292.15066     -1630.01    549.41467    249.18598   -179.63573    34340.171 
  265600    301.28977   -1559.5816    537.91396    349.71209     -410.441    34340.171 
  265700     297.4339   -1605.3834    550.88438    299.32993    48.006863    34340.171 
  265800    292.80626   -1584.1934    551.70393    300.27588    370.22113    34340.171 
  265900    290.75692   -1560.6636     543.8372    306.61093   -222.24682    34340.171 
  266000    305.85765   -1562.0641    546.69604    376.80324    54.579399    34340.171 
  266100    296.97201   -1555.2989    580.88113    377.30886    68.037615    34340.171 
  266200     301.1937   -1565.6439    553.03631    358.33482   -231.73746    34340.171 
  266300    310.78605   -1555.6307    543.58527    402.55845   -110.14931    34340.171 
  266400    293.93279   -1560.2391     550.2482    327.90205   -932.72721    34340.171 
  266500    290.37601    -1548.804    555.82553    328.72515   -835.17913    34340.171 
  266600    281.71166   -1587.6017    520.02764      214.692   -892.65255    34340.171 
  266700    302.18746   -1552.9925    527.48642    349.95969   -122.22057    34340.171 
  266800    310.35463   -1570.7069    552.79363    394.72701   -758.24866    34340.171 
  266900    295.23552   -1552.4585    543.96924    335.33335   -259.38329    34340.171 
  267000    303.43429   -1571.1428    539.41299    349.41113   -223.48853    34340.171 
  267100    304.04281   -1550.7078    542.85785    376.06083    213.78884    34340.171 
  267200    294.50434   -1553.4911     571.7923    358.79565    217.88203    34340.171 
  267300    306.15983   -1545.6236    539.75481    387.67797    62.597048    34340.171 
  267400    304.17341   -1523.2637    562.25107    423.49252    259.75176    34340.171 
  267500    304.89458   -1567.1751    546.83517    367.44778    42.771231    34340.171 
  267600    304.70274   -1549.9042    541.46334     378.4737    20.787562    34340.171 
  267700    301.94749   -1551.1607    543.74924    366.96203   -425.52869    34340.171 
  267800    290.38036    -1535.053     576.4665    363.13691    -225.6737    34340.171 
  267900    301.21374   -1570.3101    566.18264    366.90622   -34.981929    34340.171 
  268000     297.1045   -1565.1347    562.00313    349.19806    489.03417    34340.171 
  268100    293.18689    -1493.296    565.40097    406.60285     354.0894    34340.171 
  268200    312.48063   -1583.3751    574.72572    413.66779    6.9714912    34340.171 
  268300     293.8782   -1546.4868    536.15476    327.31246     337.9677    34340.171 
  268400    298.22733   -1527.2404    539.60494    369.80497   -626.79889    34340.171 
  268500    309.99694   -1498.9136    580.78789    492.88642   -601.59301    34340.171 
  268600    296.82249   -1481.2825    572.35535    442.11887    25.093835    34340.171 
  268700    299.36772   -1491.5658     552.5025    423.56785    171.60993    34340.171 
  268800    309.06611   -1529.3334    585.12426    462.56612   -121.62085    34340.171 
  268900    289.63142   -1530.1016    562.81675    351.02963    211.90362    34340.171 
  269000    295.34989   -1518.2204    542.25394    368.37674   -81.173265    34340.171 
  269100    302.80617   -1527.0177    562.07155    413.33578    487.99472    34340.171 
  269200    312.14896   -1556.9608    578.70531    442.55197    550.61288    34340.171 
  269300      308.165   -1531.0237    564.66071    436.31069    454.68644    34340.171 
  269400    291.86982    -1551.961    548.61109    325.15304    824.18902    34340.171 
  269500    299.11115   -1576.3984    532.49402    317.55895    327.15799    34340.171 
  269600    308.72744   -1555.4374    565.78807     415.5844    970.21735    34340.171 
  269700    284.64912   -1584.5017    564.00327    275.13812   -22.591998    34340.171 
  269800    293.23648   -1528.3285    542.91647    349.31156    101.55183    34340.171 
  269900    298.12087   -1641.8936    559.30011    274.36237   -67.764862    34340.171 
  270000    303.55968   -1606.8015    554.95197    329.86207    716.44793    34340.171 
  270100    298.90167   -1558.8343     544.4459    346.12137    477.99459    34340.171 
  270200    284.30876   -1585.3518    555.85938    264.59488    682.74427    34340.171 
  270300    306.42656   -1624.0194    533.72725    304.46867    869.98945    34340.171 
  270400    292.85084   -1626.0979    556.95949    263.82984    918.58856    34340.171 
  270500    317.15927   -1581.9107    560.13578      421.838     792.5345    34340.171 
  270600    294.86169   -1587.2551    568.02792    322.89385   -240.40976    34340.171 
  270700    303.83077   -1550.4176    561.70134    394.22929    99.602188    34340.171 
  270800    301.06803   -1572.7859    533.92458    331.50914    436.75013    34340.171 
  270900    304.81743   -1499.7083    526.19087     413.9191    323.19783    34340.171 
  271000    292.23315   -1536.9172    566.84168    360.08118   -425.14727    34340.171 
  271100    305.87269   -1568.6321    547.39551    371.00318    -245.7083    34340.171 
  271200    296.39709   -1592.2005    549.00614    305.91531    61.408293    34340.171 
  271300    291.78192   -1571.1001    562.04366    319.04648     183.9618    34340.171 
  271400     293.1961   -1651.9437    535.79851     218.3946    98.662964    34340.171 
  271500    298.75946   -1597.6988    562.09857    324.26233    1005.0061    34340.171 
  271600    291.75995   -1576.3502    560.55119    312.20386   -75.302019    34340.171 
  271700    295.99499   -1604.4438    559.63427    302.46994    33.233748    34340.171 
  271800    306.60497   -1632.7052    538.44346    301.31118    124.62975    34340.171 
  271900    301.51685   -1578.5861    549.22925    343.05647    122.90708    34340.171 
  272000    300.41122   -1547.5379    583.39702    403.23997   -454.76149    34340.171 
  272100    304.79844   -1592.3852    556.26778     351.2327   -411.03594    34340.171 
  272200    297.29588   -1588.0564    528.84103    293.98532   -317.37356    34340.171 
  272300    295.47499   -1584.4642    542.16498    302.61335    330.06039    34340.171 
  272400    309.29687   -1625.3706    546.21995    328.67497    450.69732    34340.171 
  272500    297.51145   -1620.1916    565.21078    299.20117    -150.6254    34340.171 
  272600    297.52696   -1595.1224    531.57732    290.70745    100.27653    34340.171 
  272700    304.66898   -1592.6521    545.52235    339.63114    365.06585    34340.171 
  272800    303.21807   -1573.4143    562.35084    369.09328    263.74881    34340.171 
  272900    302.68396   -1607.6606    577.49131    347.55643    356.28029    34340.171 
  273000    293.84166   -1576.8766    537.37948     297.9811    328.84008    34340.171 
  273100    308.09104   -1621.7848    556.87702    337.42929    454.45288    34340.171 
  273200     311.3094   -1590.4892    531.40008    357.89696   -159.43058    34340.171 
  273300    308.28244   -1592.8006    548.66424    359.07192   -282.49572    34340.171 
  273400    294.95782    -1591.293    577.89009    329.15571    118.76581    34340.171 
  273500    310.97814   -1583.3492    538.75423    370.88324    278.82933    34340.171 
  273600     302.2974   -1554.2247    542.00753    363.74898   -25.505779    34340.171 
  273700    296.91478   -1560.2422    538.29214    329.51599    355.79379    34340.171 
  273800    295.21766   -1577.7614    559.25031    325.23028    199.24334    34340.171 
  273900    300.78617   -1555.3046    533.47712    347.26002    525.84826    34340.171 
  274000    299.74733   -1549.4944    600.05342    414.91804   -264.89794    34340.171 
  274100    293.35881   -1541.4329    552.90405    346.75159   -148.24849    34340.171 
  274200    305.64013   -1538.2678    564.31897    417.23237     244.0788    34340.171 
  274300    295.38191   -1549.7191    558.24539    353.01526   -144.20107    34340.171 
  274400    296.55223   -1567.5688    567.00873    349.25581    400.26406    34340.171 
  274500    306.67767   -1572.2871    559.71412    383.33081   -181.90617    34340.171 
  274600    311.59017   -1592.5664    549.50222    375.19987    419.47398    34340.171 
  274700    293.38406   -1552.5982    538.32464    321.12174    180.57057    34340.171 
  274800    296.87812   -1565.9119    562.55997    347.94728   -307.14452    34340.171 
  274900    298.65159   -1596.5566    525.89706    288.71198   -51.019347    34340.171 
  275000    304.43502   -1565.6128    568.51271    388.59582    589.52038    34340.171 
  275100    309.38689   -1557.1635     562.0285    413.10038    891.60729    34340.171 
  275200    290.07867   -1551.2283    543.94515    313.06706    673.84911    34340.171 
  275300    280.66454   -1561.5788    573.61611     289.5373    470.88643    34340.171 
  275400    302.92732   -1572.9255    570.01467     375.9225    1101.0345    34340.171 
  275500    310.29875   -1565.8344     575.2963    421.84781    547.78022    34340.171 
  275600     308.4112   -1526.6513    560.86159    438.00458   -103.94699    34340.171 
  275700    296.17695    -1582.094    534.17578    300.18952   -141.99174    34340.171 
  275800    291.65825   -1531.8017    557.59082    353.32906   -640.66812    34340.171 
  275900    299.36276    -1544.556    576.69831    394.75087    -217.3639    34340.171 
  276000    297.06101   -1519.9336    558.95658    391.15467    440.66034    34340.171 
  276100    295.46318   -1517.4028    545.94324    373.39928   -16.885865    34340.171 
  276200    300.16164   -1542.7594    589.32767    412.81303    322.03945    34340.171 
  276300    305.47348   -1547.3323    569.82334    412.91372     130.8707    34340.171 
  276400    288.14018   -1524.7811    548.68154    335.42717    222.54605    34340.171 
  276500    294.31007   -1541.8333    556.45373    354.23067    99.710437    34340.171 
  276600    306.71327   -1530.7276    555.79224    421.13051    243.19794    34340.171 
  276700    300.85898   -1557.5053    560.35935    372.27297   -282.05216    34340.171 
  276800    299.19081    -1572.814    556.03824    345.05016    465.28758    34340.171 
  276900    294.12671   -1568.2887    582.20548    352.69245    6.8507984    34340.171 
  277000    302.86985   -1547.1791    547.97494    379.36766    63.124192    34340.171 
  277100     290.4907   -1582.1063    549.26537     289.3847    -642.7772    34340.171 
  277200    311.62624   -1566.9001    548.64799    400.17603    114.45901    34340.171 
  277300    300.58676   -1573.3059    582.97432    377.84823   -384.62815    34340.171 
  277400    290.13955   -1552.6483     560.6805    328.65951   -988.88619    34340.171 
  277500    309.41095   -1551.3382    557.19395    414.20057   -502.03772    34340.171 
  277600    298.82103   -1551.0258    560.16655    369.28349    -840.1929    34340.171 
  277700     309.0184   -1582.9732    550.93086    374.51576   -179.07348    34340.171 
  277800    300.39588   -1586.4413    525.63282    306.50255    -312.0356    34340.171 
  277900    305.65148   -1547.4467    597.44888    441.23508    31.123601    34340.171 
  278000    299.68808   -1539.8454    554.62007    378.86399     2.116274    34340.171 
  278100    291.22969   -1553.1823    567.90194    340.30899    338.84424    34340.171 
  278200    295.50803   -1596.2846    548.93767    297.71604     456.4833    34340.171 
  278300    301.95662   -1576.7775    578.82557    376.46313     711.3959    34340.171 
  278400    293.99106   -1546.4941     556.1398    347.80392    197.08928    34340.171 
  278500    303.94097   -1535.4245    558.02368    406.04641    328.60682    34340.171 
  278600    297.55011   -1561.0757    559.22403    352.50623      853.508    34340.171 
  278700    302.90224   -1565.4569    575.01844    388.28073    606.59942    34340.171 
  278800    306.19211   -1583.8616    574.20808    384.04018      462.069    34340.171 
  278900    305.07702   -1581.1542    552.74872    360.21267    633.38214    34340.171 
  279000    305.46297   -1584.4891    562.86833    368.75412    1069.8701    34340.171 
  279100    308.91944   -1583.0285    575.93846    399.01766    873.99592    34340.171 
  279200    302.55968   -1573.7111    547.69403    351.14292    604.14556    34340.171 
  279300     312.1904   -1563.3139    574.59394    432.27608    390.90663    34340.171 
  279400    305.95773   -1598.1896     546.1959    340.63316    -368.3129    34340.171 
  279500    297.45737   -1562.6191    548.87103    340.18772    291.20446    34340.171 
  279600    302.85702   -1573.5525     554.7554    359.71622   -157.61332    34340.171 
  279700    299.45245   -1588.4583    557.55583    332.11434    388.60588    34340.171 
  279800    299.14988    -1597.859     569.8708    333.65142    412.45556    34340.171 
  279900    292.89302    -1527.128    537.95465    343.98691    44.822765    34340.171 
  280000    306.71386   -1571.5402    564.31779    388.84615     36.26088    34340.171 
  280100    298.27094   -1544.2028     558.7335    372.16965    223.62155    34340.171 
  280200      297.541   -1563.1048    561.08992    352.30156   -120.54479    34340.171 
  280300    297.08754   -1618.7638    556.49511    289.98379    164.39454    34340.171 
  280400    299.78834   -1606.7654    578.45907    336.23933    575.51688    34340.171 
  280500    291.35977   -1607.8688    538.71566    257.02824    607.60433    34340.171 
  280600    304.80115   -1604.4748    572.58413    355.47183    829.17399    34340.171 
  280700    296.92201   -1609.9502    534.45919    276.00801    350.30592    34340.171 
  280800    295.62116   -1618.4461    543.66889    270.80078    197.27788    34340.171 
  280900    307.33068   -1629.4387    561.65707    331.09446   -49.938477    34340.171 
  281000    305.79149   -1603.7408    542.26531    330.39471    674.29779    34340.171 
  281100    301.52757   -1624.9245    565.89455     313.4322    200.48876    34340.171 
  281200     300.9866   -1595.1407    548.98711    323.84619    649.14994    34340.171 
  281300    299.04324   -1637.7279     567.4542     290.8805    1008.7249    34340.171 
  281400    292.81696   -1600.5655    544.48393    276.73254    585.00594    34340.171 
  281500    297.26944   -1606.1705    545.80288    292.71281   -57.058507    34340.171 
  281600    298.60327   -1553.4107    549.18073    354.92165   -40.671407    34340.171 
  281700    299.43689    -1609.758    548.31875    301.50676    431.14084    34340.171 
  281800    300.15312   -1575.8788    567.48537    357.81261    403.32522    34340.171 
  281900    289.94203   -1613.8473    564.06927     269.9502     234.6701    34340.171 
  282000     292.8235   -1618.4988    552.13855    266.48357   -94.249401    34340.171 
  282100     307.1579   -1591.5828    516.61733    323.12426   -163.24229    34340.171 
  282200    312.76456   -1607.4464    547.73514    363.89822     361.2963    34340.171 
  282300    306.71561   -1609.4324     561.6542    348.29832    479.26766    34340.171 
  282400    305.90428   -1619.9931    580.08008    352.47055    710.44023    34340.171 
  282500    293.01283   -1649.0561    564.07302    248.72251    300.86601    34340.171 
  282600    283.56842   -1625.7016    538.97338    203.98931   -396.17646    34340.171 
  282700    292.87657   -1590.5724    555.10453    297.61748   -92.811043    34340.171 
  282800    295.48705   -1617.0819    559.18143    287.06703    389.00743    34340.171 
  282900     297.3023   -1598.6235     541.0698    295.67622    85.185711    34340.171 
  283000    294.72509   -1575.6078    572.22165    338.11317    768.53616    34340.171 
  283100    288.77192   -1589.6856    554.56597    279.28268   -406.21431    34340.171 
  283200    308.10138    -1602.043    528.22607     328.5672   -118.89629    34340.171 
  283300    308.47017   -1613.2815    560.84453     351.6257   -409.99942    34340.171 
  283400    302.69699   -1628.8026    537.21756    286.19992    16.860984    34340.171 
  283500    295.26306   -1634.9933    536.56465    245.51926   -159.88405    34340.171 
  283600     295.2648    -1657.324    548.82275    235.45467    533.35925    34340.171 
  283700    299.78426   -1598.2855    540.42947    306.67111    605.76129    34340.171 
  283800    308.29199   -1591.8181    533.95514    345.38878   -305.80599    34340.171 
  283900    306.74513   -1588.2012    538.26052    346.27021     29.99925    34340.171 
  284000    306.12881   -1620.2731    530.41054      303.543   -595.27247    34340.171 
  284100    311.00153   -1623.6775    538.65277    330.56002   -202.05014    34340.171 
  284200     293.9041   -1644.3161    577.60199    271.04831    178.07786    34340.171 
  284300    299.11454   -1664.8734    542.64338    239.24871    15.732249    34340.171 
  284400    307.41718   -1666.4338     532.4131    265.24911   -6.7838104    34340.171 
  284500    303.03877   -1682.8216    530.81183    227.33091   -209.47379    34340.171 
  284600    300.95019    -1615.283      530.759    285.31005   -264.22674    34340.171 
  284700    309.12468   -1658.9666    567.62252    315.69775    67.558387    34340.171 
  284800    306.93975   -1634.7783    517.05599     279.3744   -133.10074    34340.171 
  284900    303.22446   -1655.3955    520.38373    245.17404   -134.59579    34340.171 
  285000     299.7738   -1628.1155    541.57897    277.94296   -181.43309    34340.171 
  285100    310.61695   -1585.0952    555.06934    383.80837    131.77219    34340.171 
  285200    294.52317   -1614.5571    532.17581    258.19892    190.63283    34340.171 
  285300    293.15373   -1603.7354    546.12645    276.73798    283.68784    34340.171 
  285400    297.52759   -1614.0145    551.33881    291.57969    158.18537    34340.171 
  285500    296.85444   -1621.4688    551.23644    280.95909   -132.46497    34340.171 
  285600    306.32224   -1596.8837    541.26283    338.66512   -333.23969    34340.171 
  285700    311.26434   -1629.4547     538.7317    326.05793   -391.32554    34340.171 
  285800    289.82492   -1612.0741    551.16608    258.28717    -853.8943    34340.171 
  285900     309.9665   -1586.2092    525.66773    350.33211   -624.04025    34340.171 
  286000    291.87805    -1574.035    551.59116    306.09656   -734.42957    34340.171 
  286100    293.51232   -1582.2422    533.11882    286.85576   -827.29301    34340.171 
  286200    300.98206   -1592.6847    541.36397    318.65836    49.226659    34340.171 
  286300    304.40399   -1602.4819    547.57355    330.64634    418.82045    34340.171 
  286400    306.29522   -1624.9723    580.52083    349.71155     1.768909    34340.171 
  286500    292.70046   -1587.9095    566.42616    310.80041   -314.96481    34340.171 
  286600    297.20708   -1571.1004    545.92353    327.61972    -1022.431    34340.171 
  286700    292.23478    -1588.131    570.65894    312.69204   -754.17623    34340.171 
  286800    295.43109   -1574.4527     567.5035    337.76354   -1112.3728    34340.171 
  286900    304.38946   -1544.5179    527.60641    368.57712   -876.49697    34340.171 
  287000    295.13741   -1557.0636    535.84026    322.15266    -456.7417    34340.171 
  287100    305.03703   -1556.3861    524.25632    356.30635   -564.46619    34340.171 
  287200    306.81068   -1568.0686    532.49975    360.94034   -775.02782    34340.171 
  287300    295.28176    -1568.244    541.75482    317.54392   -886.53158    34340.171 
  287400    308.56297   -1552.0181    536.34268    388.80971   -728.26207    34340.171 
  287500    303.66179   -1604.8109    543.44392    320.80952    3.1422355    34340.171 
  287600    303.94038    -1613.698    561.96041    331.70694   -399.35585    34340.171 
  287700    293.12211   -1602.9387    545.01551    276.27981   -236.35369    34340.171 
  287800    289.49085   -1573.7188    545.52464     289.4805   -420.85682    34340.171 
  287900    295.97362   -1555.8873        541.8    333.09495   -482.03401    34340.171 
  288000    301.52955   -1578.0656    550.35127    344.75684   -83.677196    34340.171 
  288100    308.62227    -1559.961    544.56004    389.35412   -537.83173    34340.171 
  288200    307.73236   -1552.9218    530.84072    378.62336    184.70207    34340.171 
  288300     308.3177   -1573.6327    563.88465    393.62062   -338.51025    34340.171 
  288400    298.85087   -1558.7445    540.25983    341.79393   -652.62739    34340.171 
  288500    296.82215   -1563.9098    564.53409     351.6688   -300.26202    34340.171 
  288600    300.73452   -1601.3776    527.97966    295.45443    114.76897    34340.171 
  288700    292.37807   -1579.7333    541.73842    292.82146   -34.159646    34340.171 
  288800    295.94783   -1564.3848      542.852    325.53207    336.38389    34340.171 
  288900    292.93821   -1580.1703    567.17183    320.36744    174.09823    34340.171 
  289000    295.61078   -1553.5686    564.50027    356.46232     882.4699    34340.171 
  289100    307.71753   -1543.7295    541.91234    398.81977    116.14186    34340.171 
  289200    300.98266   -1568.7367    529.89505    331.14025    90.753447    34340.171 
  289300    303.42137   -1541.0317    541.50016    381.55057   -322.87889    34340.171 
  289400    297.87932   -1564.2776    550.06895    341.64775    331.07775    34340.171 
  289500      314.246   -1567.0669    518.60554    381.89118    488.54633    34340.171 
  289600    302.84938   -1530.0696    534.70183    383.11083   -556.83473    34340.171 
  289700     309.9577   -1561.3548    549.64558    399.12424   -95.365763    34340.171 
  289800    286.72043   -1599.1882    565.52867    271.40496   -595.94604    34340.171 
  289900    303.14577   -1522.9388    540.19342     397.0823    109.38611    34340.171 
  290000    299.07359   -1484.4874    579.66953     456.4745   -178.79234    34340.171 
  290100    291.57137   -1498.6113    536.05466    364.58784   -852.51982    34340.171 
  290200    302.10203   -1508.9933    550.42073    416.50433   -540.59591    34340.171 
  290300    296.09737   -1536.4719    562.74687    374.02046   -419.53546    34340.171 
  290400    303.23847    -1542.338    524.74484    362.65646    -153.4737    34340.171 
  290500    297.57941   -1569.3042     536.0773    321.26439   -195.67089    34340.171 
  290600    300.12687    -1568.772     544.6514    341.96601   -11.243368    34340.171 
  290700    295.58184   -1565.1747    535.51503     315.7393   -245.75614    34340.171 
  290800    300.60375   -1564.4751    552.04943    355.83152   -487.04777    34340.171 
  290900     292.7727     -1503.45    540.82615    369.98878    329.48768    34340.171 
  291000    305.44667   -1585.0982     492.8229    298.02533     4.275485    34340.171 
  291100    298.94243   -1586.7179    520.71601    294.69341   -308.44808    34340.171 
  291200    297.49852   -1584.7393    530.04235    299.42615   -697.31533    34340.171 
  291300    298.82182   -1547.7227    555.03272    367.45636   -426.66325    34340.171 
  291400    305.02722   -1533.3634    535.20308    390.23113   -624.55689    34340.171 
  291500     297.9582   -1537.8755    543.13771    361.47768   -676.48635    34340.171 
  291600    301.39618    -1545.013    545.88035    372.73144    435.90673    34340.171 
  291700    301.48352   -1546.5348    563.19279    388.91964    435.18752    34340.171 
  291800    294.00642   -1573.7767    540.89153    305.34294    195.95374    34340.171 
  291900    295.81669   -1569.7425     516.4293    293.15479    73.209511    34340.171 
  292000    303.38998   -1535.3879    556.04391    401.59526    198.52503    34340.171 
  292100    293.04654   -1572.5494    539.75701    301.06667   -310.77575    34340.171 
  292200     291.9822   -1571.4167    557.18232    314.78007    45.511689    34340.171 
  292300    314.92117   -1540.3367    530.42815    423.51719   -371.47691    34340.171 
  292400    296.52975   -1557.9912    551.37825    343.10058    678.92967    34340.171 
  292500    297.52044   -1545.7641    561.81061    370.26933    458.81422    34340.171 
  292600    297.30315   -1552.9357    529.49531     329.7935    263.71768    34340.171 
  292700    298.38929   -1550.1787    520.64362    328.64253   -4.2174285    34340.171 
  292800    296.24745   -1576.7359    523.52004    295.21279    -92.34448    34340.171 
  292900    299.21224    -1534.886    542.14085    369.17824   -534.49791    34340.171 
  293000    297.72536   -1569.7503    558.23465    343.63997   -374.83907    34340.171 
  293100    292.47204   -1538.5954    565.92546    358.57413   -88.507318    34340.171 
  293200    302.12374   -1541.3391    527.46852    361.30516    223.60669    34340.171 
  293300    303.46581   -1566.4057    565.75705    380.63579    286.30286    34340.171 
  293400    293.69332   -1566.6971    545.69721    315.80304    407.97775    34340.171 
  293500    294.64351   -1573.0941    526.68838    294.72223    431.45287    34340.171 
  293600    307.78106   -1539.6759    530.24868    391.49895    653.57303    34340.171 
  293700     312.8674   -1589.1678    527.79466    362.70442    799.79045    34340.171 
  293800    299.33662   -1591.7329    534.14766    304.90437    541.70529    34340.171 
  293900    315.25077   -1569.4329    555.66229     421.1554    853.47504    34340.171 
  294000    295.84481   -1574.3424    510.93538    283.18891    515.09381    34340.171 
  294100    301.60068   -1542.3217     544.4887     374.9619    18.291223    34340.171 
  294200    302.21571   -1538.4535    516.71088    353.85171   -597.13429    34340.171 
  294300    296.03972   -1559.4124    554.42417    342.49486    -175.1309    34340.171 
  294400    311.02141   -1586.8271    529.90846    358.75658    437.15522    34340.171 
  294500    297.95899   -1539.6748    526.06584    342.61006    202.52522    34340.171 
  294600    299.41171   -1564.9027    520.07283    318.00146   -626.43435    34340.171 
  294700    301.03315   -1571.5123    519.02289    317.72229   -609.76585    34340.171 
  294800    299.98057   -1531.8826    566.27228    399.81032    334.18013    34340.171 
  294900    289.17422   -1516.6589    524.05219    323.62667    398.52727    34340.171 
  295000    294.79391   -1495.3926    550.05624     396.4762    727.26213    34340.171 
  295100      294.582   -1553.6108    532.75521    319.99244    477.15945    34340.171 
  295200    300.43596   -1569.8894    547.74284    345.34688    459.29323    34340.171 
  295300    301.25014   -1546.2525    529.44442    354.39132   -220.16215    34340.171 
  295400    305.99541   -1530.4665    578.34406    440.67589    803.54876    34340.171 
  295500    299.58897   -1494.1441    547.75367    417.24776    319.46525    34340.171 
  295600     302.6291   -1502.7152     550.8451    425.60582     76.93723    34340.171 
  295700    299.20838   -1549.3263    514.19171    326.77129   -362.46101    34340.171 
  295800    309.25917    -1553.537    530.45779    384.57487    442.46028    34340.171 
  295900     304.4557   -1514.7986    528.66518    399.65671    292.02183    34340.171 
  296000    301.19531   -1556.0272    509.47028    324.39289    408.30038    34340.171 
  296100    307.85902   -1504.3368    529.64887    426.59299   -58.806029    34340.171 
  296200    308.20849   -1530.3365    518.53931    391.07442   -423.53424    34340.171 
  296300     301.8382   -1512.9077    525.32751    386.29581    81.267166    34340.171 
  296400    298.17166   -1556.0354    542.33351    343.48513   -289.03936    34340.171 
  296500    292.09795   -1487.4983    527.64122    369.68425    110.28912    34340.171 
  296600    299.11859   -1472.5967    527.15591    416.05641    130.73524    34340.171 
  296700    305.59198   -1466.4532    552.74795    477.25685    492.18534    34340.171 
  296800    302.62537   -1465.5154    520.96104    432.90459    568.85648    34340.171 
  296900    307.19957   -1511.6614    541.61663    428.23453    498.47845    34340.171 
  297000    303.05242   -1520.7201    536.48353    395.16617    987.88254    34340.171 
  297100    300.47016   -1520.2234    552.01831    399.44406    425.34392    34340.171 
  297200     303.2743   -1503.5679    536.20211    413.04688   -579.33393    34340.171 
  297300    301.16549   -1522.9768     508.4796    356.31678   -552.63782    34340.171 
  297400    293.04764    -1472.129    557.76518    419.50022   -179.06547    34340.171 
  297500    296.88735   -1500.6904    541.11128    391.76218    197.35218    34340.171 
  297600    302.16762   -1483.8992    526.24354    417.71979    474.23139    34340.171 
  297700      297.366   -1474.3788    525.72706    404.86815    -167.3819    34340.171 
  297800     300.8491   -1511.9224    550.22516    407.67672   -592.94819    34340.171 
  297900    302.84696   -1510.4567    503.73779    371.74862   -517.39104    34340.171 
  298000    301.60199   -1497.9211    562.47986    437.35966   -621.38815    34340.171 
  298100    288.18575     -1500.77    514.88388    325.84812   -414.64454    34340.171 
  298200    300.05726   -1552.7325    523.85751    336.89475   -91.506377    34340.171 
  298300    293.12142   -1496.6275    505.78627    343.35863    208.41063    34340.171 
  298400    293.98302   -1505.5244    538.40446    371.00172    -573.4879    34340.171 
  298500    284.35041   -1541.0335    505.08241    258.32586   -737.41103    34340.171 
  298600    304.16558   -1553.9504    561.99302    392.51213   -664.15689    34340.171 
  298700     293.8244   -1532.4058     537.5075    342.50126   -66.360377    34340.171 
  298800    295.51923   -1557.9075    512.58929    299.79574    577.00437    34340.171 
  298900    298.44353   -1550.8564    544.97146    352.53954    749.58389    34340.171 
  299000    298.17075   -1509.4481    526.55437    374.28918    843.22297    34340.171 
  299100    310.05849   -1533.9194    532.08512    409.45797    1368.3011    34340.171 
  299200    301.19626   -1520.7739    529.87922     380.0594    727.87834    34340.171 
  299300     302.1184   -1519.9509    531.62973    386.83016    396.40427    34340.171 
  299400    297.41858   -1521.4341     509.0121    341.33722    -335.5095    34340.171 
  299500    305.01418   -1538.5151    525.90549    375.72249    94.142329    34340.171 
  299600     303.2694   -1531.4166    525.53023      374.504   -186.95939    34340.171 
  299700    294.60214   -1525.1563      543.632    359.41535    198.23542    34340.171 
  299800    302.33801   -1537.8943     529.9042    368.16093   -179.38913    34340.171 
  299900    305.23991   -1504.5822    536.50749    421.28484    930.97816    34340.171 
  300000    299.20499   -1568.7667    526.83465    319.95841    543.20714    34340.171 
  300100    295.57407   -1560.6609    533.12094    317.82363    480.26015    34340.171 
  300200    295.68111   -1517.9168    554.78003    382.71405    199.50223    34340.171 
  300300    296.26291   -1538.0009      535.113    345.61102    32.531447    34340.171 
  300400    293.79207   -1569.3646    521.73324    289.62115    278.21661    34340.171 
  300500     301.6582   -1534.2531    536.08029    374.88386    654.59912    34340.171 
  300600    292.59506   -1565.2765    520.03438    286.56196    344.97209    34340.171 
  300700    295.45978    -1562.167    531.05111    313.72752   -152.53303    34340.171 
  300800    310.27907   -1542.5563    531.05044    400.79044    586.73329    34340.171 
  300900    289.71096   -1542.7004    520.00033    295.97638   -450.20638    34340.171 
  301000    297.05554   -1534.2342    524.33905     342.2116   -312.07703    34340.171 
  301100    292.64781   -1530.5669    548.85626    350.33349   -541.09113    34340.171 
  301200     287.6511   -1521.1433    560.45408     348.6114   -260.26333    34340.171 
  301300    294.18327   -1486.1534    545.30844    398.18813   -214.81254    34340.171 
  301400    295.78582   -1489.7704    500.37097    356.92802    314.73134    34340.171 
  301500     304.2209   -1539.1268    541.46955    387.06405     587.4195    34340.171 
  301600    299.19315   -1533.4518    510.74964    339.13436    947.46566    34340.171 
  301700    293.82308   -1524.7208    530.76558    343.43842    873.22006    34340.171 
  301800    296.92081   -1519.9577    510.10881    341.64464    70.529971    34340.171 
  301900    302.80767   -1539.9164    542.21462    380.58694   -260.96528    34340.171 
  302000    294.75985   -1501.9041      527.383    367.13642    86.866187    34340.171 
  302100    302.99805   -1496.2867    565.99088    448.85951    675.18258    34340.171 
  302200    299.11569    -1529.429    519.63353    351.68849    152.38438    34340.171 
  302300    294.49675   -1497.2667    525.48771    368.68097    333.42486    34340.171 
  302400    295.15781    -1519.716    561.80965    385.56252    137.23337    34340.171 
  302500     300.7915   -1559.4548    509.28002    318.93703    491.25455    34340.171 
  302600    293.07252   -1563.7419    550.61212    320.84749   -4.0111521    34340.171 
  302700     299.2642   -1547.7117    540.18239    354.63062     662.7096    34340.171 
  302800    295.32184   -1569.6034    535.63736    310.24953    222.42491    34340.171 
  302900    300.38473    -1527.783    570.92015    410.39744     379.0111    34340.171 
  303000    294.44368   -1540.2442    549.34962    349.32387   -670.60084    34340.171 
  303100    293.00929   -1529.9447    526.84456    330.58937   -703.37383    34340.171 
  303200    305.64587   -1512.2649    555.56228    434.50472    -295.7009    34340.171 
  303300    305.60327   -1490.5341    548.68158    449.16101     156.6911    34340.171 
  303400    296.12275   -1542.0358    523.86694     329.6921   -588.91213    34340.171 
  303500    305.86034   -1486.7732    532.79674    438.20715   -4.6996155    34340.171 
  303600    303.32467   -1509.3849    550.28333    421.54033   -414.71129    34340.171 
  303700     294.9844   -1478.7854    546.14099     410.0352    462.84686    34340.171 
  303800    302.12055   -1516.6453    555.94192    414.45783    922.25994    34340.171 
  303900    309.57159   -1544.1431    517.06512    381.99806    345.71934    34340.171 
  304000    294.18221   -1516.8198    524.80257    347.01106   -300.73277    34340.171 
  304100    299.05157   -1543.0403    513.33359    331.48543    -185.8364    34340.171 
  304200    289.61959   -1554.7179     542.3512    305.89394   -1121.6274    34340.171 
  304300    298.93908   -1526.3476     538.4718    372.80432   -325.16095    34340.171 
  304400    302.20656   -1533.8359    526.07547    367.79226   -707.93503    34340.171 
  304500    300.28655   -1482.3225    553.25341    437.74424   -284.33677    34340.171 
  304600    289.68389   -1514.8184    540.52407    344.25895   -316.65157    34340.171 
  304700     304.2992   -1476.6187     533.6064    442.06545   -213.77165    34340.171 
  304800    290.97172   -1464.8203    532.86406     392.4588   -174.80723    34340.171 
  304900    308.19075   -1468.8533    564.92089    498.85851     189.6568    34340.171 
  305000    307.56596    -1502.527    535.04755    432.46759    588.47927    34340.171 
  305100    301.52808   -1567.0991    521.86444    327.22975    685.64474    34340.171 
  305200    304.38573   -1524.9322    525.97316    386.51262    628.88018    34340.171 
  305300    307.85112   -1491.9421    533.87585    443.17873    119.20709    34340.171 
  305400    294.01047   -1496.5562    558.55723    400.24759    -91.27167    34340.171 
  305500    299.10438   -1518.7635    525.57525    368.24429   -282.52714    34340.171 
  305600    310.81959   -1529.4104    532.28732    417.63345     647.2225    34340.171 
  305700    296.70973   -1527.8123    549.43267     372.1532   -72.517025    34340.171 
  305800    304.40173   -1552.8313    535.21702    367.93018    170.92989    34340.171 
  305900    299.68542   -1501.8502    511.61498    373.84195    519.50002    34340.171 
  306000    305.33664   -1503.9434    522.01391    407.87035    593.24512    34340.171 
  306100    305.46628   -1514.2096    529.89139    406.07167    116.25131    34340.171 
  306200    295.25181   -1554.1478    558.00578    347.75474    386.88089    34340.171 
  306300    296.13923   -1518.6024    532.32759    361.66124    242.41176    34340.171 
  306400    294.55677   -1499.2997    547.80127    389.23475   -165.64443    34340.171 
  306500    302.96166   -1524.4939       554.92    409.41578     196.1079    34340.171 
  306600    295.99253   -1510.6531    526.42682    363.04207    219.85569    34340.171 
  306700    297.04638   -1557.9234    541.19646    335.33812    111.63069    34340.171 
  306800    310.13362   -1534.5957    525.91722    402.95578    -204.1377    34340.171 
  306900    301.08002   -1514.5754     546.5348    402.38444    599.61269    34340.171 
  307000     298.0044   -1581.6873    515.41257      290.151   -65.332703    34340.171 
  307100    306.22913   -1533.0093    524.99478    385.84766    500.88429    34340.171 
  307200    306.89995   -1506.3439    523.70475     414.2764     213.9001    34340.171 
  307300    297.14787   -1562.4774     501.0167    291.06636   -205.68497    34340.171 
  307400    299.70769   -1517.9526    534.02045    380.24641   -168.20923    34340.171 
  307500    294.29902   -1570.3993    513.71804    282.87869   -535.83211    34340.171 
  307600     307.8811   -1536.2755    545.61729    410.72321    358.16159    34340.171 
  307700    300.97587   -1501.2813    506.62269    375.29237   -458.93347    34340.171 
  307800    303.07153   -1517.8217    528.87152    390.53963   -518.71305    34340.171 
  307900    301.41904   -1507.2279    514.63136    379.37162    -859.7415    34340.171 
  308000    303.60456    -1512.167     536.2992     406.0482   -122.25413    34340.171 
  308100    295.73374   -1470.7757    507.38387    382.69853     296.1768    34340.171 
  308200    294.39479   -1524.3577    552.76051     368.3987   -252.59965    34340.171 
  308300     303.9797   -1549.6271    524.48253    358.47894     -353.445    34340.171 
  308400    304.98866   -1560.2505    520.39953    348.36499   -320.38514    34340.171 
  308500    304.61938   -1531.7106    543.44542     398.2699   -528.58159    34340.171 
  308600    285.90362   -1550.2458    551.11237    302.21321   -280.95575    34340.171 
  308700    299.54923   -1576.2959    523.41278    310.57423     -138.275    34340.171 
  308800    313.90912   -1508.3313    508.00933     428.4972   -16.269353    34340.171 
  308900     305.3827   -1495.0916    528.27199    423.18989    -221.8331    34340.171 
  309000     299.2077   -1502.9456    518.28238    377.23952   -115.18537    34340.171 
  309100    312.07903   -1452.1799    551.98147    520.29072   -31.227386    34340.171 
  309200    299.27962   -1514.3156    509.12174    357.03633   -218.65899    34340.171 
  309300     294.9778   -1534.0372    519.04314    327.65548   -146.56333    34340.171 
  309400    302.12434   -1541.2248    503.71688    337.67049    62.685711    34340.171 
  309500    302.77986   -1513.6157    526.01774    390.56424    312.65555    34340.171 
  309600    293.78499   -1563.5419    524.60053    298.27881    20.212918    34340.171 
  309700    306.28603   -1515.5989    524.69275    403.21501     21.15488    34340.171 
  309800    292.73408   -1524.8293    526.47061    334.07812    265.42792    34340.171 
  309900     295.2394    -1521.762    509.58343    331.66171   -1.6474266    34340.171 
  310000    300.65301   -1473.0497    551.03311     446.4648    104.48976    34340.171 
  310100    291.68369   -1511.3905    510.10647    326.37178     561.2274    34340.171 
  310200    294.90569   -1499.4543    524.50044    367.36752    81.081827    34340.171 
  310300    307.29946   -1531.1882    518.83472    386.38056   -432.58849    34340.171 
  310400    308.17172   -1525.1278    501.90294    379.47941    421.64289    34340.171 
  310500    295.90718    -1518.832    499.95966    328.00742    -320.7745    34340.171 
  310600    305.19125   -1543.9982    523.79023    368.93014    173.59221    34340.171 
  310700    293.26937   -1513.0611    522.14513    343.95731    494.45556    34340.171 
  310800    292.92034   -1544.0599    540.66161    329.88635    46.946365    34340.171 
  310900    304.50435   -1544.0636    529.47383     371.4218    74.304041    34340.171 
  311000    295.55666   -1467.2739    482.18244     360.1929   -232.22657    34340.171 
  311100    294.69996   -1524.0713    546.90901    364.22261   -5.1381275    34340.171 
  311200    296.42825   -1550.3839    508.92265    307.79035   -313.89644    34340.171 
  311300    292.82559    -1518.324    535.90233    350.43169    173.04331    34340.171 
  311400     300.8084   -1516.7022    535.86448      388.351   -611.81214    34340.171 
  311500    303.14124   -1496.9834    523.50794    406.33164   -79.285493    34340.171 
  311600     304.3175   -1509.2395    540.74853    416.67002   -256.60069    34340.171 
  311700    304.39029   -1506.4152    509.78944    388.86656    6.9940194    34340.171 
  311800    295.56052   -1526.8764    518.23143    336.65691   -163.58305    34340.171 
  311900    292.06519   -1472.1636    534.12141    391.35005   -46.963508    34340.171 
  312000    296.67575   -1489.8192    505.40491    365.96383   -368.18805    34340.171 
  312100    294.60457   -1502.7889    548.92746    387.08926      -259.92    34340.171 
  312200    299.77549   -1539.5653    511.86845    336.79035    219.29294    34340.171 
  312300    293.13296   -1550.8812     555.9871    339.35832    1032.1485    34340.171 
  312400    300.88787   -1542.1911     561.6164    388.97573    1740.8856    34340.171 
  312500    300.62909   -1542.1554    517.71524    343.93234    587.99403    34340.171 
  312600    295.53583   -1542.5062    517.27802    319.96136     1006.074    34340.171 
  312700     289.6483   -1546.8917    554.10773     325.6073    602.32978    34340.171 
  312800    296.10263    -1564.394     528.9654    312.34081    821.73097    34340.171 
  312900    288.74018   -1573.6415    492.66427    233.28055    849.54574    34340.171 
  313000    310.84757   -1545.0653    543.00652    412.82511    991.68953    34340.171 
  313100     294.5212    -1567.069    526.42197    299.92423    772.86859    34340.171 
  313200    305.13756   -1550.2681    539.50665    378.13223    694.34418    34340.171 
  313300    305.63401   -1545.0805    512.84851    358.92135    585.36431    34340.171 
  313400    299.07662   -1540.0436    531.91129    353.17385    223.31121    34340.171 
  313500    280.04536   -1534.9828    500.61048    240.30934    17.390726    34340.171 
  313600    301.49856   -1553.0686    533.57649    352.83794    13.201119    34340.171 
  313700    295.85098   -1579.3493    524.57372    291.84838   -94.721415    34340.171 
  313800    293.13295   -1545.3751     507.3517    296.22895   -455.18108    34340.171 
  313900    290.42887   -1571.9409    524.03726    274.04053   -445.13095    34340.171 
  314000    297.43346   -1575.9808    529.86366    307.70986   -112.96353    34340.171 
  314100    291.24685   -1569.1948    523.25615    279.72869    209.14223    34340.171 
  314200    300.40573   -1579.7758    537.88693    325.46701    144.71596    34340.171 
  314300    296.87462   -1573.5807    510.84656    288.54916    74.470802    34340.171 
  314400    296.26683   -1573.7362    521.07194    295.85257   -336.79754    34340.171 
  314500    299.00485   -1557.4714    539.48043    342.98846    639.41484    34340.171 
  314600    305.49068   -1580.9341    531.16107    340.72793    759.83711    34340.171 
  314700    300.85284   -1590.6652    554.95364    333.67934    491.60993    34340.171 
  314800    297.53729    -1621.177    501.20446    234.32704    52.403643    34340.171 
  314900    298.36042   -1598.5197    511.13437    270.66091   -193.21453    34340.171 
  315000    306.36449   -1571.0288    505.48079    328.93032   -834.91183    34340.171 
  315100    312.40958    -1521.325     522.7144    423.38313   -872.28956    34340.171 
  315200    300.75422   -1563.4371    527.74571    333.25071   -725.95117    34340.171 
  315300    298.41601   -1546.6348    542.20365    353.86809   -636.36668    34340.171 
  315400     300.1831   -1523.3195    544.37704    387.40009    -86.20518    34340.171 
  315500    297.19116   -1520.9328    526.01714    357.80841   -323.31289    34340.171 
  315600    301.18912   -1487.7862    556.20766    439.34312   -335.30733    34340.171 
  315700    301.37463   -1471.3526    523.87021     424.2836   -456.52601    34340.171 
  315800    296.56959   -1518.9223     572.1007    403.07326    133.83665    34340.171 
  315900    298.47817   -1487.1905    538.62891    410.02056    822.66417    34340.171 
  316000    299.62657   -1539.2787    545.73509    370.26578   -172.99458    34340.171 
  316100    303.04216   -1504.3055    543.31957    418.37012    152.56072    34340.171 
  316200    294.13794   -1527.8957    587.45195    398.38304   -49.957845    34340.171 
  316300     300.1871   -1578.7677    511.28275    298.87571    -994.2441    34340.171 
  316400    294.96142     -1521.54    537.32538    358.36042   -56.727588    34340.171 
  316500    303.11585   -1538.9787    537.21254    377.92533   -591.72054    34340.171 
  316600    306.16588   -1514.6268    532.62408    411.57161   -427.31229    34340.171 
  316700    299.96999   -1537.8044    536.36147     363.9296    260.56716    34340.171 
  316800    297.68614   -1546.4691    513.50315     322.0112   -94.633008    34340.171 
  316900     285.1035   -1527.6831    550.87298     320.8946   -445.07506    34340.171 
  317000    305.09205    -1540.952    538.59369    386.32828    557.81022    34340.171 
  317100    293.23998   -1538.7871     553.8406    349.79303   -105.26446    34340.171 
  317200    300.73353   -1502.4162    542.67621    409.10786   -19.799128    34340.171 
  317300    298.84059   -1562.2738    537.56884    335.52685    169.06189    34340.171 
  317400    292.48773   -1518.2211    533.00681    346.10124    -499.4832    34340.171 
  317500    308.00913   -1522.9935    557.96047    436.93122    95.393821    34340.171 
  317600     300.5262   -1543.5505    522.56661    346.92025    -461.7507    34340.171 
  317700    299.75152   -1525.3935    546.15579    385.14041    -584.2643    34340.171 
  317800    293.02657   -1557.9256    548.99104    324.83358   -549.14742    34340.171 
  317900    297.91953   -1539.5809    527.55918    344.01768    248.70275    34340.171 
  318000     298.8189   -1545.5166    547.13568    361.75215    484.63061    34340.171 
  318100    292.82665   -1534.3572    526.99459    325.49559    256.68975    34340.171 
  318200    303.76867   -1504.1264     545.0254    423.56192    421.31811    34340.171 
  318300    303.60064   -1522.9002    540.89957    399.89745    978.04713    34340.171 
  318400    290.94775   -1487.5654    551.37254    388.11313    355.08424    34340.171 
  318500    293.52341   -1503.4118    549.04312    381.66093    320.92005    34340.171 
  318600    308.50341   -1505.2629    541.89959     440.8507   -241.53706    34340.171 
  318700    297.29237   -1548.4644    528.84637    333.56669   -695.86361    34340.171 
  318800    301.09395    -1546.104    538.48317    362.86755    236.48235    34340.171 
  318900     297.2696   -1504.6453    522.65241    371.08821   -343.71297    34340.171 
  319000    304.03733   -1556.7287    559.42597    386.58303    316.55704    34340.171 
  319100    306.76625   -1579.8574    542.79856    359.24817   -312.03421    34340.171 
  319200    308.53001   -1572.8484     540.0771    371.56379   -754.16959    34340.171 
  319300    301.84159   -1575.6881     533.5407    331.74402   -715.02565    34340.171 
  319400    298.08952   -1573.8224    524.95285    307.94361   -1164.3105    34340.171 
  319500    299.88058   -1528.0122    541.02092    377.97429   -1069.0297    34340.171 
  319600    291.27018   -1553.0176    540.96748    313.72351   -533.04001    34340.171 
  319700    304.52074   -1565.3699    518.79775    339.51399   -722.16512    34340.171 
  319800    300.62079   -1547.9357    549.01877    369.41774   -499.53471    34340.171 
  319900    299.24587   -1503.1058    549.97235    408.94305   -719.32556    34340.171 
  320000    294.89686   -1512.3038    559.38577    389.36317    86.481632    34340.171 
  320100    292.29167   -1512.5256    551.37538    369.27293    296.54149    34340.171 
  320200    306.19568   -1515.9057    543.17395     420.9782   -94.770407    34340.171 
  320300    294.21896   -1561.7237    542.45192    319.92382    157.57803    34340.171 
  320400    296.28433   -1520.6046    540.36555    368.35746      130.593    34340.171 
  320500    303.22317    -1557.769    534.63208    357.04311   -311.28523    34340.171 
  320600    301.18859   -1555.0717     556.1259    371.97334   -184.28597    34340.171 
  320700    297.06342   -1511.1819    498.94276     339.9035   -294.12772    34340.171 
  320800    308.36936   -1513.2418    559.13112    449.49315   -455.85725    34340.171 
  320900    286.20755   -1493.8188    537.11058     346.0218   -531.76777    34340.171 
  321000    297.33317   -1523.6548    537.66637    367.38206   -365.42528    34340.171 
  321100     300.9468   -1524.9453    549.92408     394.7974   -468.35743    34340.171 
  321200    292.61754    -1553.543    536.49961    314.86296   -652.55671    34340.171 
  321300    302.02081   -1545.5468    532.03699    361.19737   -601.42206    34340.171 
  321400    293.38199    -1529.304    495.68625    301.76816   -1023.8111    34340.171 
  321500     297.0269    -1513.314    529.18086    367.84337   -778.21691    34340.171 
  321600    297.97943   -1488.8054    551.64806    419.15476   -438.76252    34340.171 
  321700     295.6878   -1468.7924    554.87711    431.96595   -529.06992    34340.171 
  321800    300.29975   -1501.6363    570.07374    435.31086   -224.16595    34340.171 
  321900    287.74591   -1498.5174    533.82604    345.04078    44.948925    34340.171 
  322000    294.23569    -1466.764    532.76339    405.27112    531.62366    34340.171 
  322100    296.84548   -1453.0959    534.31478    432.36954    -35.04273    34340.171 
  322200    311.16057   -1476.1406    563.86216    504.03017    297.34343    34340.171 
  322300    296.99137   -1464.5222    539.97469    427.26716   -363.09127    34340.171 
  322400     302.5555   -1474.6091    537.89292    440.42475   -403.54068    34340.171 
  322500     301.3023   -1508.9826    535.90794    398.36211   -436.65284    34340.171 
  322600    293.11005   -1483.5241    525.15738    375.78145   -309.19074    34340.171 
  322700     303.5215   -1433.7539    539.94427    487.72829   -886.05642    34340.171 
  322800    300.97047   -1469.2561    555.47375      456.144   -1545.7474    34340.171 
  322900    306.33229   -1489.8023    547.56842    452.09789   -966.77299    34340.171 
  323000    311.52711   -1491.1505    527.81597     454.6424   -1197.9821    34340.171 
  323100    299.78868   -1550.5813    496.69343    310.65936   -526.95278    34340.171 
  323200    308.07004   -1511.1506    556.75876    447.84958   -778.62674    34340.171 
  323300    290.89027   -1530.0358    513.76744    307.77604   -78.475572    34340.171 
  323400    292.97531   -1538.4316    546.63269    341.73596   -273.19822    34340.171 
  323500    306.92135   -1566.4055    529.57839    360.18583    119.72027    34340.171 
  323600    294.49421   -1558.5097    519.23572    301.17441   -280.82988    34340.171 
  323700    307.88781   -1539.4076     565.3494    427.35375    256.37468    34340.171 
  323800    305.04773   -1557.8642    581.30722    411.92784    1045.6379    34340.171 
  323900    296.90419   -1535.4848    557.37665    373.30974    206.03241    34340.171 
  324000    295.20237    -1531.686    539.16182    351.14752   -289.95921    34340.171 
  324100    306.72543   -1517.9715    516.88859     395.0383   -754.04925    34340.171 
  324200     306.1502   -1499.2756    532.11521    426.34257   -552.86903    34340.171 
  324300    302.68513   -1501.1195    554.83509    431.44656   -601.55505    34340.171 
  324400     301.6993   -1511.2192    549.23782    411.26235     458.5175    34340.171 
  324500    294.88333    -1516.424    528.47265    354.26823     423.4125    34340.171 
  324600    308.02491   -1502.9435    550.84236    449.93489    403.87409    34340.171 
  324700    300.33106   -1494.8407    540.82044    412.99576   -218.17795    34340.171 
  324800     290.4271   -1479.4762    560.80108    403.26106   -345.70624    34340.171 
  324900    300.40144    -1529.841    512.99462    350.48993    132.29208    34340.171 
  325000    293.45918   -1540.1733     532.7926     328.3565   -143.48873    34340.171 
  325100    307.10645   -1589.2844    518.59207    327.16314   -125.76234    34340.171 
  325200    299.88993   -1554.3322    509.34767    320.02361     185.1523    34340.171 
  325300    297.95225   -1596.2418    488.52727    248.47385    957.51317    34340.171 
  325400    295.71171     -1603.48    550.75233    293.26241   -46.738725    34340.171 
  325500    298.00587   -1517.9439     581.5885    420.07705   -20.346683    34340.171 
  325600    293.89458   -1541.9981    543.21242    338.93335    100.02915    34340.171 
  325700    303.04604   -1535.0257    527.92803      372.276    99.681574    34340.171 
  325800    302.13942   -1538.0152    524.34222    361.57409   -43.554305    34340.171 
  325900    305.21025   -1591.1585      514.256    312.32211    107.41819    34340.171 
  326000    305.47679   -1525.1879    551.04195    416.29183    1073.5006    34340.171 
  326100    300.46768   -1571.2318    537.96782    334.37384     436.4922    34340.171 
  326200    301.07451   -1561.9504     546.9175    355.36698    237.69099    34340.171 
  326300    296.34198   -1615.5376    503.39076    236.71206   -190.19046    34340.171 
  326400    292.03313   -1546.4261    517.42785    300.24804   -912.19248    34340.171 
  326500    298.07143   -1594.6764    522.63786    284.69232   -492.56821    34340.171 
  326600    299.11113   -1566.1254    527.81822    323.15608   -335.60127    34340.171 
  326700    301.40165   -1574.5409     537.6386    334.98674   -495.74064    34340.171 
  326800    301.75821   -1591.1884    531.11289    313.43634   -445.78805    34340.171 
  326900    291.08159   -1578.8633    559.51345    305.56536   -578.78219    34340.171 
  327000     289.3828   -1548.3862    530.63048    299.42704   -514.01112    34340.171 
  327100    294.32991   -1549.5361    521.03264    311.19708   -257.42894    34340.171 
  327200    313.37506   -1553.5767    522.58094    395.39253   -158.47548    34340.171 
  327300    295.62548   -1543.1181    504.71605     307.1956   -561.82198    34340.171 
  327400    315.01379    -1574.259     514.9653    374.55358    53.371231    34340.171 
  327500    297.04694   -1553.2112    541.51905    340.37549    531.77426    34340.171 
  327600    307.22364   -1558.2694    558.59423    398.71372    287.29072    34340.171 
  327700    300.17735    -1543.527    521.70256    344.49185   -542.49285    34340.171 
  327800    305.81515   -1516.3873    542.85868    418.44925   -416.80554    34340.171 
  327900    302.98426   -1544.9242    532.11651    366.28479    -13.57954    34340.171 
  328000    303.82861   -1560.1195    540.84561    363.66189   -437.36092    34340.171 
  328100    292.77301   -1541.2012    550.35867    341.77149   -168.08914    34340.171 
  328200    297.79062   -1544.3741    554.28237    365.36089     335.5531    34340.171 
  328300    308.68672   -1552.7898    533.59492     385.8535   -214.73416    34340.171 
  328400    295.42583   -1565.8847    544.86189    323.66604    -34.88418    34340.171 
  328500    296.74707   -1578.4833    533.26699    305.48645     59.97088    34340.171 
  328600    309.97739   -1527.7117    547.18271    430.39421    487.19463    34340.171 
  328700    302.58372   -1506.7731    552.38421    422.88055    155.36725    34340.171 
  328800     297.1468   -1537.1444    520.26021    335.63797   -351.15546    34340.171 
  328900    306.12859   -1552.0898    532.70354    374.01828   -580.02541    34340.171 
  329000    296.66069   -1538.9909    552.75029    364.06889   -202.65128    34340.171 
  329100    301.35473    -1534.728    552.82822    389.77558   -93.576993    34340.171 
  329200    299.29674   -1536.5765    536.91131    362.64289   -338.96229    34340.171 
  329300    307.17447    -1548.455    539.23653    388.94661    255.53406    34340.171 
  329400    307.65243   -1552.7605    534.08487    381.66495    408.55871    34340.171 
  329500     306.0147   -1619.6739    503.75978     276.9721   -217.00334    34340.171 
  329600    293.61418   -1612.9119    515.29042    238.82132   -689.09356    34340.171 
  329700    301.62554   -1597.1032    497.38091    273.18581    85.950743    34340.171 
  329800    297.38503    -1575.116    525.12018    303.61069    333.23023    34340.171 
  329900    305.87389   -1569.2754    552.61899    375.58884   -25.230588    34340.171 
  330000    294.70364   -1589.6876    524.74772    276.46181    250.84087    34340.171 
  330100    300.92479   -1585.4828    536.11819    320.35386    347.62868    34340.171 
  330200    303.53901   -1625.4108    534.49138     290.6982    -261.2105    34340.171 
  330300    284.35563   -1604.2833    548.40818    238.42556    87.239168    34340.171 
  330400     304.2769   -1573.2069    546.75876     358.5281    1074.1421    34340.171 
  330500    289.24358   -1605.2715    526.01393    237.29154    519.07307    34340.171 
  330600    299.37263   -1594.3017    552.49259    320.84435    184.56658    34340.171 
  330700    295.09362   -1588.6706    524.44764    278.95375   -8.7394623    34340.171 
  330800    297.28315   -1564.0694    529.13926    318.21269    61.038402    34340.171 
  330900    301.19719   -1550.0418    531.66023    352.57677   -25.486407    34340.171 
  331000    289.89362   -1528.5709    530.66959    321.60653   -290.47232    34340.171 
  331100    312.55785    -1535.566    535.13518     422.2378   -210.33926    34340.171 
  331200    300.36085   -1537.1847    547.12407    377.09098    144.07245    34340.171 
  331300    305.07426   -1550.7445    535.94581    373.80686   -182.64727    34340.171 
  331400    298.40667   -1587.3396    516.77041    287.68756   -219.14361    34340.171 
  331500    304.64722   -1570.9148    542.12448    357.87149    239.64822    34340.171 
  331600     306.4875   -1589.9115    538.30373    343.43048    82.285143    34340.171 
  331700    309.08549   -1569.8543    548.85598    385.86519    197.93116    34340.171 
  331800    311.70322   -1616.1945    545.25175    347.83583   -154.30292    34340.171 
  331900    298.42233   -1589.4902    533.18587    302.02371     -52.1013    34340.171 
  332000     287.7895    -1590.924    543.73187     262.7384   -663.29644    34340.171 
  332100    287.02837   -1596.3697    529.72777    239.82421  -0.39817761    34340.171 
  332200    308.25364   -1614.7363    534.17136    322.51223   -261.31947    34340.171 
  332300     291.3502   -1539.6152    539.94752    326.47013   -99.221127    34340.171 
  332400    291.80531   -1550.0147    547.10508    325.29978    160.79728    34340.171 
  332500    307.35699   -1580.2369    560.40259    379.16158    714.68553    34340.171 
  332600    300.07432   -1568.0592    552.47374    350.26185     765.5494    34340.171 
  332700    290.18492   -1543.5433    530.76109    308.05158   -18.518436    34340.171 
  332800    303.46028   -1542.4869    567.13296    405.90532    532.38365    34340.171 
  332900    296.05499   -1582.0461    516.88344    282.38998    301.24387    34340.171 
  333000    308.40122   -1573.8678    542.66324    372.54428    -144.6542    34340.171 
  333100    289.27623   -1563.2192    535.63991    289.11841    236.46732    34340.171 
  333200    302.64072   -1573.2436    557.60077      361.886   -259.40739    34340.171 
  333300    298.86451   -1580.7438     549.2915    328.88834   -129.75874    34340.171 
  333400    290.04836   -1574.2303    532.47714    278.45903   -161.12512    34340.171 
  333500    298.27337   -1571.6987    501.69485    287.64616    699.81125    34340.171 
  333600    301.52702   -1592.9508    546.90643    326.41523   -173.57602    34340.171 
  333700    305.32618    -1577.586    546.79247    358.95867   -176.02433    34340.171 
  333800    308.67672   -1573.2677    549.44016    381.17532   -302.18707    34340.171 
  333900     297.4076   -1610.9926    509.66397    252.38063   -222.33026    34340.171 
  334000    289.36344   -1581.9245     525.5885    260.75865   -215.43929    34340.171 
  334100    305.66627   -1597.3134    528.76863    322.75544   -149.36377    34340.171 
  334200     303.0731   -1576.2464    533.49159    336.74214   -699.64351    34340.171 
  334300    300.98855   -1548.1397    522.62426    344.49326   -87.608042    34340.171 
  334400    322.70854   -1544.0415    556.90524    481.73527   -314.05264    34340.171 
  334500    311.98945   -1558.2049     528.9208    390.79728    288.80107    34340.171 
  334600    296.03214   -1554.7836    553.88656    346.55149   -78.017485    34340.171 
  334700    303.52365   -1535.0853    546.16181     392.6242    23.913249    34340.171 
  334800    296.28864   -1562.2581    511.48803    297.84606   -202.16903    34340.171 
  334900    305.82919   -1555.2269    534.18853    371.00341   -774.96201    34340.171 
  335000    305.02514   -1536.0808    528.25332    380.55454   -281.62964    34340.171 
  335100    306.89604   -1548.4502    576.97839    425.42593   -265.39131    34340.171 
  335200    293.31047    -1530.882     515.9064    320.08473   -391.53883    34340.171 
  335300    297.78997   -1544.0071     542.9017     354.3443    79.964384    34340.171 
  335400    289.46009   -1584.4302    538.06672    271.17109    354.16291    34340.171 
  335500     301.6738   -1543.3462    577.36299    407.14443    969.08019    34340.171 
  335600    299.77938   -1529.7525    527.69433    362.44668   -125.17471    34340.171 
  335700    294.41856     -1556.41    540.05291    323.74699    321.37391    34340.171 
  335800    297.57186   -1565.0212    515.37206    304.80782   -262.59761    34340.171 
  335900    300.11603   -1546.8578       537.34     356.5194     151.4487    34340.171 
  336000    298.40255   -1512.0257    538.48111    384.69337   -376.32489    34340.171 
  336100    295.55778   -1541.3495     517.2413    321.18128   -528.64168    34340.171 
  336200    287.52205   -1545.7309    544.83208    307.81442   -182.78054    34340.171 
  336300    290.39135   -1533.5254    544.21095    332.45894     392.5232    34340.171 
  336400    295.26716   -1500.5616    539.39821    382.80325    522.58144    34340.171 
  336500    298.19919   -1528.0323    566.83881    396.11884     429.9238    34340.171 
  336600    292.99142   -1566.6323    540.52381    307.49966    414.56328    34340.171 
  336700    301.38944   -1561.1201    543.63738    354.35066    841.97822    34340.171 
  336800    298.40913   -1557.3839    551.68424    352.56825    633.89562    34340.171 
  336900    298.22532   -1560.6911    557.85613    354.59627     740.2044    34340.171 
  337000    307.35896   -1510.4945    550.96087    439.47122    810.07749    34340.171 
  337100    314.55349   -1533.2472    558.15194    456.65687    27.193629    34340.171 
  337200    296.93852   -1565.4056    526.08861    312.25722    191.25343    34340.171 
  337300    299.33672    -1550.604    539.27959    351.16566    295.84192    34340.171 
  337400    312.77041   -1547.5614    526.42628      402.501    654.24924    34340.171 
  337500      299.373   -1578.9091    534.39198    318.13808    608.03205    34340.171 
  337600    306.40839   -1528.4476    572.56766    438.79818    1155.8451    34340.171 
  337700     294.3185    -1521.362    544.01333    362.29999    1071.9735    34340.171 
  337800    299.39877   -1563.0263    582.12804    381.87425    325.09994    34340.171 
  337900    290.12734   -1546.1911    524.89036    299.27097   -64.023605    34340.171 
  338000    300.77659   -1503.2441    515.93487    381.73468   -204.14688    34340.171 
  338100    304.86957   -1466.0109    523.50647    445.16941    22.879458    34340.171 
  338200    301.53573   -1485.2785    538.90845    426.12915    93.064525    34340.171 
  338300    302.88118   -1506.3269    533.62557    405.92195    -130.0781    34340.171 
  338400    290.45713   -1462.3488    542.53108    402.25506   -155.91111    34340.171 
  338500    296.45713   -1458.1129    509.85481    401.12493   -801.46839    34340.171 
  338600    301.08953   -1429.3069    523.41185    464.57322   -785.49073    34340.171 
  338700    297.16598   -1451.5119    538.48011    439.57772   -972.01673    34340.171 
  338800    302.54342   -1476.1336    536.65678    437.60914    150.24597    34340.171 
  338900    297.75251   -1477.3438    543.84734    421.78268    429.59768    34340.171 
  339000    296.19683    -1531.143    552.87602    369.93127    902.20161    34340.171 
  339100    306.12983   -1451.3669    564.67035    506.71369    1036.9555    34340.171 
  339200    297.41292   -1445.7736    546.62363    454.58355    415.65941    34340.171 
  339300    314.38818   -1456.9877    535.24671    509.25871    39.873076    34340.171 
  339400    304.83669   -1472.1308    525.67584     441.0693    -201.5341    34340.171 
  339500    308.12554   -1478.6718    540.47956    464.30187   -495.09587    34340.171 
  339600    302.02139   -1516.1544    545.00839    403.56383   -904.89204    34340.171 
  339700    300.75155     -1485.63    561.77875    445.07868    389.65104    34340.171 
  339800    300.07357    -1487.917    546.02442    423.95141    -42.07403    34340.171 
  339900    289.99249   -1510.3771    560.95794    370.53882   -601.76766    34340.171 
  340000    305.95067   -1499.7345    561.70602    454.56622    602.30438    34340.171 
  340100    296.16631    -1506.705    558.68066      400.035    712.94297    34340.171 
  340200    297.53454    -1539.711    544.49119    359.06725    1102.7574    34340.171 
  340300    303.54398   -1546.4706    533.09022    368.25981    1305.3324    34340.171 
  340400    297.52206   -1521.6941    537.21025    369.74638    605.02844    34340.171 
  340500    303.87126   -1518.4567    514.81051    379.48374    721.20892    34340.171 
  340600     300.3475    -1560.894    516.51868    322.71545    468.67642    34340.171 
  340700     298.9884    -1524.363    534.63316    371.17478     210.4643    34340.171 
  340800    301.09272   -1459.6869    530.77805    441.57396    -233.3342    34340.171 
  340900    298.53836   -1535.2913    535.31172    358.87663   -72.560748    34340.171 
  341000    294.19078   -1562.6489    545.18163    321.60003    274.52352    34340.171 
  341100     305.0081   -1546.3237    545.64314     387.6239   -298.58784    34340.171 
  341200     301.2174   -1515.0016    545.39767    401.44642   -8.5171364    34340.171 
  341300    309.47279    -1531.224    522.61912    400.02151   -19.183687    34340.171 
  341400    305.93079   -1513.6998    549.09264    427.89711   -412.14342    34340.171 
  341500    304.52595   -1549.2151    517.63155    354.52622   -651.66673    34340.171 
  341600     307.7593   -1547.1731    529.99214    383.64609   -735.69479    34340.171 
  341700    301.04424   -1553.3234    534.11857    351.05736     -640.583    34340.171 
  341800    305.31856   -1589.0782    528.02345    328.66278   -230.83256    34340.171 
  341900    293.26022    -1606.183    525.03908    253.68774    646.75361    34340.171 
  342000    298.76701   -1578.4591    548.21324    329.65098    589.29261    34340.171 
  342100    298.22026   -1607.4762    533.18889    283.12098   -132.80325    34340.171 
  342200    298.25014   -1561.3837    527.02577    323.18634    80.678633    34340.171 
  342300    301.47864   -1569.9826    520.04867    322.30545    152.41387    34340.171 
  342400    304.42308   -1553.4426      564.341    396.54002    70.212659    34340.171 
  342500    302.69027   -1533.6777    532.43762    376.51433    11.615604    34340.171 
  342600      293.497    -1530.624    541.49726    346.78263    414.27977    34340.171 
  342700    305.10011   -1545.3924    565.42474    408.75563    29.975358    34340.171 
  342800    302.13908   -1555.7413    512.20989     331.7141    -201.2141    34340.171 
  342900    293.90082   -1560.5636    534.79875    311.98261   -246.05564    34340.171 
  343000    304.65153   -1564.2052    536.97242     359.4487    53.364763    34340.171 
  343100    299.38908   -1537.5517    512.09493    337.27163    582.27697    34340.171 
  343200    311.15237   -1515.3747    522.16063    423.05725    870.01854    34340.171 
  343300    298.35495   -1521.4034    538.51288    375.13072    277.65662    34340.171 
  343400    301.36448   -1527.1355    548.22571    392.80999    419.39906    34340.171 
  343500    302.14776   -1564.9344    526.13775    336.48844   -596.58418    34340.171 
  343600    299.44678   -1574.0862    536.34384    325.24865    -323.1147    34340.171 
  343700    306.67845   -1600.5483    507.79314    303.15223   -351.80427    34340.171 
  343800      295.437   -1572.2819    529.16708    301.62483   -361.79427    34340.171 
  343900    300.78539   -1550.1731    514.88645    333.79736   -334.09684    34340.171 
  344000     296.4132   -1580.9258    546.05496    314.31222   -960.28682    34340.171 
  344100    296.00622   -1573.9776    523.17877    296.53179    201.25195    34340.171 
  344200    286.42376   -1545.0589    541.55018    300.20541   -4.1033251    34340.171 
  344300    303.98188   -1557.2855    539.99471    366.34261     241.6223    34340.171 
  344400    302.44723   -1574.8655    521.05142    322.83399    1010.8369    34340.171 
  344500    309.52603   -1557.7723    526.70842    377.80486    208.13471    34340.171 
  344600    306.87585   -1531.8244    542.32205    407.30356    138.52682    34340.171 
  344700    294.43541   -1551.9146    527.82465    316.09078   -171.47651    34340.171 
  344800     297.2048   -1555.2684    507.14533    304.66313   -255.16755    34340.171 
  344900    298.86118   -1566.2593     507.6554    301.72158    186.17634    34340.171 
  345000    296.01967   -1589.5751    536.54052    294.35729   -116.61256    34340.171 
  345100    311.38387    -1569.795    488.82133    336.35133   -368.19746    34340.171 
  345200    288.98415   -1585.0262    562.86318    293.20523   -436.80651    34340.171 
  345300    292.36109   -1571.0588    525.49249    285.17275   -996.47138    34340.171 
  345400    286.77961   -1589.4443    516.33675    232.22633   -580.82774    34340.171 
  345500    294.42829    -1567.401    540.47583    313.22312   -313.53495    34340.171 
  345600    306.48739   -1548.5823    544.70575    391.16112   -549.94493    34340.171 
  345700    290.82038   -1627.5453     525.8628    222.04373   -951.64085    34340.171 
  345800    294.99756   -1592.6897    503.66411    253.71389   -860.11447    34340.171 
  345900     311.0138   -1607.2128     541.0283    349.45608   -544.87689    34340.171 
  346000    289.03858   -1600.7043    556.66762    271.57939    54.730272    34340.171 
  346100    306.30112   -1564.1061    507.59889    337.68265     159.2049    34340.171 
  346200    299.97233   -1545.7802    502.57301    322.17592   -12.896353    34340.171 
  346300    307.03084   -1540.2372    540.36432    397.63844    -263.5449    34340.171 
  346400    298.44145   -1599.4625    516.15898    275.11153   -324.34453    34340.171 
  346500    309.52738   -1607.4902    523.34301    324.72759   -158.96459    34340.171 
  346600    306.50217   -1558.8612    519.36091    355.60473    221.85773    34340.171 
  346700    293.83678   -1562.0722    522.39795    297.78173     133.0943    34340.171 
  346800    295.15101   -1573.5176    533.96566    303.88605    239.66452    34340.171 
  346900    295.16561   -1577.6987    528.75272    294.55843   -99.759482    34340.171 
  347000    302.71516    -1605.701      528.343    300.50972   -364.11394    34340.171 
  347100    292.01932   -1581.9332    535.95837    283.20858   -42.139057    34340.171 
  347200    303.88512   -1580.7603    495.14739    297.58007     -143.169    34340.171 
  347300     301.4039    -1551.887     516.1776    336.18986    28.785824    34340.171 
  347400    294.17165   -1562.2506    518.02672    294.75627   -504.44046    34340.171 
  347500    292.23491   -1533.1945    520.61427    317.58457   -813.81509    34340.171 
  347600    301.43335   -1530.9774    519.31555    360.37137   -348.83815    34340.171 
  347700     310.2532    -1527.974    514.50018    398.70473   -494.34269    34340.171 
  347800    296.23165   -1545.6472    513.08077    315.79032   -329.85083    34340.171 
  347900    298.53798    -1533.549    532.16791    357.47335   -144.95383    34340.171 
  348000    299.57808     -1486.76    529.78285    406.61144   -65.933221    34340.171 
  348100    296.50332   -1481.8016    531.74292    399.53456   -781.29424    34340.171 
  348200    303.93705   -1504.2476    513.36338    392.54516   -228.20073    34340.171 
  348300    295.54879   -1509.5788    511.93486    347.60459   -94.215088    34340.171 
  348400    293.67532   -1548.9291    532.40373    320.19575   -542.48868    34340.171 
  348500    295.22615   -1544.0722    550.71109    350.41881   -26.140581    34340.171 
  348600     286.3228   -1563.7933    508.27189    247.73328   -139.82347    34340.171 
  348700    297.95708   -1540.6706    526.00733    341.54706     405.7958    34340.171 
  348800    307.39687    -1531.668    511.36742    378.87677    490.16847    34340.171 
  348900     303.4226   -1575.3789    513.59321    319.30201    154.57054    34340.171 
  349000    306.88794   -1518.2649    523.75755    402.35356   -284.43429    34340.171 
  349100    298.63575   -1500.3072    533.13079    392.12304   -699.87688    34340.171 
  349200    290.32834   -1502.2504    507.01477    326.25095   -158.43183    34340.171 
  349300    303.69521   -1506.8771    538.70671     414.1582    214.40314    34340.171 
  349400    300.37622   -1511.4907    526.57516    382.30597    75.336226    34340.171 
  349500    294.28048   -1539.6871    535.47789    335.26634    -155.4057    34340.171 
  349600    307.20063   -1543.4684    506.72296    361.53869    81.095759    34340.171 
  349700    310.35054     -1527.67    558.87286    443.82446    -23.63781    34340.171 
  349800     295.4668   -1534.3958    506.75593    317.23544   -307.66606    34340.171 
  349900    296.56492   -1537.4599    544.62214    357.03587    318.55154    34340.171 
  350000    303.23303   -1547.7784    518.05868    350.50516    452.00752    34340.171 
  350100    293.11687   -1531.0432    518.96271     322.0987    496.65893    34340.171 
  350200    281.14782   -1530.2852    502.46908     251.8836    189.96173    34340.171 
  350300    303.88961   -1540.9397     518.8257    361.09938     198.7259    34340.171 
  350400    299.30817   -1506.5063    523.76577    379.61952    481.14655    34340.171 
  350500    293.82796   -1496.1954    521.79214    363.01258   -411.34762    34340.171 
  350600    309.55529   -1514.3335    539.35058    434.01892   -472.61386    34340.171 
  350700    295.17205   -1533.0458    519.91944     330.4074   -133.90777    34340.171 
  350800    315.27239   -1549.6831    530.35684    415.69816     505.2533    34340.171 
  350900    299.14334   -1558.1383     523.9082    327.37971    286.42365    34340.171 
  351000    299.72202   -1555.4938    533.43776    342.18777    41.050093    34340.171 
  351100    307.36314   -1528.8214    546.93401    417.13645    16.999157    34340.171 
  351200    307.44533   -1530.3624    509.92493    378.96052    135.07816    34340.171 
  351300    286.95265   -1564.6356    514.19547    255.68136    108.22911    34340.171 
  351400    307.65367   -1568.1328    513.48207    345.69559    762.43103    34340.171 
  351500    288.92577   -1580.7785      502.966       237.29     916.9128    34340.171 
  351600    306.55488   -1592.4369    528.23594    331.14394    5.6916324    34340.171 
  351700    306.89751   -1557.5429    540.73694    380.09848    205.10744    34340.171 
  351800    304.30799    -1585.368    546.15665    345.90646   -79.188976    34340.171 
  351900    292.23598   -1560.5589    493.41195    263.02266   -380.72423    34340.171 
  352000    294.69569   -1549.2152    530.48397    322.63422   -684.13815    34340.171 
  352100    303.90002   -1538.8407    512.52844    356.94851   -760.46848    34340.171 
  352200    299.88659   -1547.8483    540.64816    357.79272   -895.15163    34340.171 
  352300    295.15138   -1559.3121    525.61839    309.74589    648.25287    34340.171 
  352400    307.86157   -1545.7639    546.31367     401.8423    564.89709    34340.171 
  352500    301.41974   -1545.6221    510.79833    337.14757   -105.07485    34340.171 
  352600    297.90091   -1517.3425     499.9211    338.53325    519.34977    34340.171 
  352700     295.9705   -1545.6101    541.49232    343.05022    357.79489    34340.171 
  352800    309.49327   -1530.6571     510.0964    388.15891    390.51317    34340.171 
  352900    293.59845   -1526.4084    496.78388    306.74666    543.96281    34340.171 
  353000    305.60513   -1568.4922    542.32084    364.85061    256.17333    34340.171 
  353100    305.51505   -1519.9305    524.70517    395.38661    454.22768    34340.171 
  353200    308.21463   -1522.4173    553.53878    434.02109    321.95015    34340.171 
  353300    298.33004   -1500.2399    516.71316    374.38117    924.05774    34340.171 
  353400    296.91016   -1517.3721    517.83071    351.90369   -8.0980936    34340.171 
  353500    298.68313   -1536.6611    514.77873    337.63274    249.42884    34340.171 
  353600    297.90876   -1520.2931    520.54768    356.24503   -28.729755    34340.171 
  353700    312.13427   -1542.9108    495.78474    373.61455   -291.79435    34340.171 
  353800    295.00476   -1552.2738    562.85306    353.35154    16.337157    34340.171 
  353900    295.50669    -1577.077    542.31531     310.2952    175.92533    34340.171 
  354000    299.78504   -1607.7905    502.29086    259.03097     -55.2356    34340.171 
  354100    306.99333   -1571.9884    527.66386    353.01609   -145.88566    34340.171 
  354200    289.60887   -1514.8055    536.72324    340.12952    57.131045    34340.171 
  354300    305.71471   -1561.2531    506.36132    336.62893    703.42825    34340.171 
  354400    306.18349   -1573.1216    513.56454    334.09736    327.10454    34340.171 
  354500     298.0026     -1551.88    511.23808    315.77554    433.26038    34340.171 
  354600    300.87712   -1544.9923    534.41173     358.9209    191.62888    34340.171 
  354700    301.95407   -1573.9454    513.09157    313.54964   -201.87708    34340.171 
  354800    303.95558   -1566.7187     496.5531    313.34806     -439.043    34340.171 
  354900    302.00358   -1548.8361    539.97594    365.76861   -271.57125    34340.171 
  355000    293.78322   -1550.9573    535.82868    322.08354   -587.15585    34340.171 
  355100     301.9984   -1560.2654    515.14142    329.48121   -964.83645    34340.171 
  355200    288.31221   -1512.3079    483.74967    283.75156   -579.53193    34340.171 
  355300    295.99461   -1555.3499    524.29014    316.21798   -990.84996    34340.171 
  355400    300.85195   -1500.3098    538.73809     407.8152   -1549.7922    34340.171 
  355500    298.56689   -1533.8876    522.17657    347.27495   -1256.5071    34340.171 
  355600    298.08694    -1528.537    522.55656    350.82092      -532.87    34340.171 
  355700    293.94007   -1549.4716    558.23996    346.69453   -445.81494    34340.171 
  355800    289.72445   -1547.8959     519.0655    289.90749    -85.67647    34340.171 
  355900    299.51914   -1559.5898     521.1365    324.86706   -118.72564    34340.171 
  356000    305.04417    -1579.713    526.68753    335.44313    712.31488    34340.171 
  356100    299.21348   -1591.5333    515.59205    285.98783   -91.367711    34340.171 
  356200    307.27002   -1622.5281    513.16475    289.23664   -421.15855    34340.171 
  356300    306.66823   -1558.3726    549.64644    387.13473   -581.10623    34340.171 
  356400    292.66491   -1581.1771    504.17504     255.1199   -750.01769    34340.171 
  356500    304.51985   -1568.2117    496.51292    314.38328   -411.53602    34340.171 
  356600    312.37954   -1511.9784    530.44589     440.3245   -826.30175    34340.171 
  356700    292.50959   -1487.0631    497.85245    342.20435   -811.86443    34340.171 
  356800    298.93058    -1502.061    530.67955    389.25993   -106.44682    34340.171 
  356900    295.72266   -1536.5178    501.55216    311.07432    385.45269    34340.171 
  357000     310.0837    -1532.321    505.62618    384.71222    277.40203    34340.171 
  357100    305.53403   -1521.1869    546.83278    416.34416    55.131838    34340.171 
  357200    294.16101   -1546.0231    499.16048    292.06915   -176.67827    34340.171 
  357300    303.36041   -1536.6124    545.14369    389.33592    864.43987    34340.171 
  357400    293.63427   -1538.6108    506.85279     304.7762    388.32605    34340.171 
  357500     299.5431   -1564.1108    519.92955    319.24819    235.26123    34340.171 
  357600    299.54269    -1518.601    530.47059    375.29713    282.38997    34340.171 
  357700     301.3158   -1598.6348     493.4115     266.2749   -117.20837    34340.171 
  357800    307.77399   -1530.1313    521.23771    392.00038    -297.6043    34340.171 
  357900    296.74031   -1544.4361    515.35416    321.59003   -1238.4515    34340.171 
  358000    290.11458   -1526.2488    523.73548    318.00029   -1066.0955    34340.171 
  358100    289.78111    -1524.325    551.58604    346.25684    -1072.015    34340.171 
  358200    302.38489   -1533.5174    506.76957    349.61658   -196.30565    34340.171 
  358300    300.46734    -1538.553    507.80284    336.88611    -699.8412    34340.171 
  358400    287.85684   -1493.0311    523.27198    340.47801   -21.109468    34340.171 
  358500    296.81408   -1519.7481    541.13797    372.39762    190.19971    34340.171 
  358600    294.03745   -1492.6623     558.1304    403.83743   -192.69315    34340.171 
  358700    301.82392   -1520.3238     529.4819    382.96909    182.15503    34340.171 
  358800    300.05323   -1503.2621    540.00864    402.49793    53.457332    34340.171 
  358900    298.48089   -1502.4286    549.26955    405.43553    634.53487    34340.171 
  359000    298.72115   -1531.2404     531.2167    359.66447    368.18445    34340.171 
  359100    309.82026   -1506.7184    503.10255    406.59203    119.33763    34340.171 
  359200    305.53807   -1476.7098    564.49454    478.50149    29.962677    34340.171 
  359300    303.16406   -1494.0031    525.07664    410.98451   -261.96462    34340.171 
  359400    287.71169   -1495.2403    518.54118     332.8773   -380.48607    34340.171 
  359500    298.26947   -1465.8185    531.70911    423.52287    -92.34479    34340.171 
  359600      300.435     -1494.97    525.06168    397.58076    383.76318    34340.171 
  359700    295.59255   -1494.5175    564.52463    415.45489    115.92053    34340.171 
  359800    306.63145   -1539.5591    554.55129    410.68567   -68.283431    34340.171 
  359900    300.14432   -1515.8221    517.65521    367.99911   -134.40545    34340.171 
  360000    295.77271   -1509.3139     535.6983    372.65211   -89.890406    34340.171 
  360100    302.79812   -1553.6763    511.49145    336.06042   -610.66604    34340.171 
  360200    295.04101   -1548.1718    516.24736    311.01281   -387.90095    34340.171 
  360300    298.22975    -1505.991    529.45648     380.9169    157.22803    34340.171 
  360400    299.01361   -1570.9953     523.2769    313.30097    409.12974    34340.171 
  360500    311.95963   -1548.2878    530.25117    401.90901   -62.323761    34340.171 
  360600    303.14288   -1556.8664    517.02366     339.9718   -398.61754    34340.171 
  360700    302.50088   -1532.8022    520.21738     364.3075   -809.85036    34340.171 
  360800    303.12826   -1555.6369     561.8126    385.92367   -66.348657    34340.171 
  360900    294.35137   -1529.8926    517.13404    327.03969    407.98828    34340.171 
  361000    296.56613   -1589.0682    508.64741    269.45841    250.80782    34340.171 
  361100    307.85339   -1537.5094    524.91731    388.66321    -32.37272    34340.171 
  361200    300.36309   -1540.2542    531.62075     358.5283   -823.39414    34340.171 
  361300    310.02058   -1534.3883    532.51436     409.2458   -62.764467    34340.171 
  361400    301.27036   -1536.7021    544.88147    379.47076   -122.89345    34340.171 
  361500    303.11526   -1527.3334    522.07391    374.42934    139.47238    34340.171 
  361600    299.53824   -1534.1414    516.67732    345.94316    420.56494    34340.171 
  361700    306.63194    -1547.242     564.0071    412.46075    1449.4833    34340.171 
  361800    297.29495   -1557.0779    531.83748    327.95605    1071.2971    34340.171 
  361900    316.37761   -1587.4099    530.76562    383.41076    717.41683    34340.171 
  362000    300.51267   -1562.9564    521.24874    326.13499    203.14491    34340.171 
  362100     303.4524   -1562.4612    525.74796    344.51011    1406.8438    34340.171 
  362200    305.25538   -1524.8036    530.04168    394.66806    561.93765    34340.171 
  362300    300.05165   -1519.1034    509.55224    356.19304    439.42264    34340.171 
  362400    306.86132   -1542.3584    504.58533    358.96666   -44.328086    34340.171 
  362500    300.30391   -1555.9674    533.59053    344.51555    103.91241    34340.171 
  362600    310.45676    -1561.709    539.56377     390.9598    615.83459    34340.171 
  362700    296.95548   -1547.1825    524.73997    329.20879    638.33097    34340.171 
  362800    297.37571   -1572.1178    505.35581    286.80209     945.3631    34340.171 
  362900    298.63557   -1576.7986    511.18394    293.68395    505.15901    34340.171 
  363000    300.03102   -1540.7614    537.02457    361.91341    789.13867    34340.171 
  363100     305.2131   -1575.3541    518.48529    332.36878    421.83249    34340.171 
  363200    296.72733   -1556.0228     539.9265    334.51658   -278.90073    34340.171 
  363300    299.63927   -1566.4308    507.90139    305.33774   -869.00292    34340.171 
  363400    295.49322   -1530.7244    519.93464    334.20581   -459.36557    34340.171 
  363500    298.97659   -1558.3228    556.76089    359.28893   -566.80451    34340.171 
  363600    294.01511   -1539.7556    526.01337    324.52541    377.50418    34340.171 
  363700    310.62389   -1523.3635    537.25709    427.75934     125.2529    34340.171 
  363800    290.37942   -1504.8789    532.85519    349.69545     42.63693    34340.171 
  363900    302.43182   -1525.0231    536.56045    388.11529    138.51585    34340.171 
  364000    288.36786   -1505.6448     540.9286    347.84689  0.032855339    34340.171 
  364100    299.54163   -1523.9637    527.51007    366.96907   -268.44648    34340.171 
  364200    303.64115   -1476.8796    542.17233    447.37522   -192.14902    34340.171 
  364300    302.35886   -1532.8691    525.95365    369.33043    -318.6133    34340.171 
  364400    289.02346   -1518.3371    518.84486     316.0549    122.96094    34340.171 
  364500    303.85436   -1535.3221    507.26012    354.99102   -355.78801    34340.171 
  364600     300.4507   -1521.8399    520.42071    366.14137   -182.31764    34340.171 
  364700    294.84076   -1501.7498    528.74933    369.02529    72.263781    34340.171 
  364800     304.0106   -1516.3336    518.01568     385.4462   -78.919294    34340.171 
  364900    292.55009   -1515.9968     533.9398    349.54233   -611.73167    34340.171 
  365000    297.96235   -1506.0544    537.86349     388.0434    -134.4303    34340.171 
  365100    301.86051   -1508.4294    512.84523    378.39343   -17.772689    34340.171 
  365200    292.69115   -1511.0395    524.22255     345.4245    404.44546    34340.171 
  365300    298.67514   -1511.1693    543.38689    391.69632    414.86294    34340.171 
  365400    303.23811   -1536.8436    512.58253    355.98695    6.0555846    34340.171 
  365500    301.32898   -1514.0161    530.75297    388.29511    318.44187    34340.171 
  365600    286.12627   -1533.5564    536.88567    305.68936    391.35784    34340.171 
  365700    298.21322   -1587.0664    533.03705     303.3468    418.86296    34340.171 
  365800    298.45094   -1558.6347      498.904    298.72757     520.3252    34340.171 
  365900    302.02549   -1570.9759    530.90349     334.6561   -253.39996    34340.171 
  366000    296.76034    -1512.129    520.09161    358.72578    -824.9282    34340.171 
  366100    294.59202   -1515.2963    517.79607    343.39338   -904.50942    34340.171 
  366200    302.70051   -1533.3821     514.6551    359.07404   -698.64661    34340.171 
  366300    297.88997   -1549.5895    515.19159    321.50693    68.722509    34340.171 
  366400    286.82026   -1562.6341    522.23961    265.12441    -355.9609    34340.171 
  366500    301.99644   -1558.0734     542.8198     359.3427   -17.814804    34340.171 
  366600    308.10066   -1536.7035    524.08719    389.76449   -425.29936    34340.171 
  366700    292.68401    -1534.413    523.12922    320.92509    -127.4056    34340.171 
  366800    302.40189   -1561.3215    540.48582     355.6061   -58.775509    34340.171 
  366900    295.92739   -1558.6289    530.86176    319.20465    906.78698    34340.171 
  367000    301.23602   -1557.2662     530.6053     344.4742    644.37588    34340.171 
  367100    295.22898   -1541.2043     512.5684    315.15698   -78.643626    34340.171 
  367200    291.89515   -1498.5504    548.94081     379.0087   -93.640922    34340.171 
  367300    305.73946   -1521.1684    551.19077     421.6558    454.50638    34340.171 
  367400    303.82578   -1500.7848    527.55366    409.69178     367.2507    34340.171 
  367500    308.64005   -1573.2925    531.53416    363.07769    81.167673    34340.171 
  367600     308.5496   -1573.5836    543.12156    373.96228    716.94846    34340.171 
  367700    310.65065    -1565.938    520.80741    368.85704    667.89229    34340.171 
  367800    296.02023   -1607.1974     520.3856    260.58259   -221.87237    34340.171 
  367900    288.30772   -1549.2451    528.00915     291.0534   -878.54967    34340.171 
  368000    303.76749   -1542.5392    496.42764    336.54601     -278.509    34340.171 
  368100    304.55113    -1585.781    522.96102    323.40448   -473.60251    34340.171 
  368200    294.51654   -1620.2205     491.1034     211.4329   -659.04516    34340.171 
  368300    296.16874   -1582.5308    518.98401    284.52356   -61.877384    34340.171 
  368400    314.53801   -1593.8118    516.09114    353.96103    739.44497    34340.171 
  368500    297.77964   -1592.2929    521.02978    284.13959    348.83083    34340.171 
  368600    300.99603    -1606.489    547.64019    311.19393    747.68054    34340.171 
  368700    310.86384   -1580.0254    511.55821    346.49082    1176.5028    34340.171 
  368800    305.21161   -1600.3389    538.16468    327.05651    49.147249    34340.171 
  368900    301.12322   -1577.8258    540.20414    332.99999    26.923525    34340.171 
  369000    302.38981   -1562.1051    520.73322    335.01494    637.57209    34340.171 
  369100    299.77137   -1570.9726    527.31092    320.80669    90.905075    34340.171 
  369200    313.16055   -1543.7443     548.4461    430.11367    203.61289    34340.171 
  369300    294.40101    -1571.888    542.33441    310.47053   -362.65922    34340.171 
  369400    299.51449    -1544.795    554.62286    373.12706   -248.87684    34340.171 
  369500    304.39593   -1473.9493     517.6076    429.17634     700.4458    34340.171 
  369600    296.26088   -1524.3061      554.532    378.71566    183.37627    34340.171 
  369700    299.55664   -1547.5144    516.17951    332.15615   -259.10593    34340.171 
  369800    295.73812   -1531.4439    511.75276    326.41919   -397.82854    34340.171 
  369900     301.3638    -1533.628    551.89893     389.9876   -260.84767    34340.171 
  370000    299.85316   -1530.8305    556.91203     390.9222    240.95836    34340.171 
  370100    293.78449   -1521.0704    523.36568    339.51327   -80.938218    34340.171 
  370200    297.81337   -1528.2115    541.57874     368.9234   -37.545632    34340.171 
  370300     306.7589   -1527.7327    529.17388     397.7147    127.41839    34340.171 
  370400    293.98788   -1494.2632    545.48131    389.36183   -467.54702    34340.171 
  370500     300.0633   -1561.1029    519.03397    323.72823    173.40749    34340.171 
  370600    304.14338   -1540.6297    545.04842    388.78723    237.63357    34340.171 
  370700    306.39832   -1553.7442    548.23045     389.1185   -318.34908    34340.171 
  370800    296.94654   -1591.0514    512.17098    272.73019   -285.40464    34340.171 
  370900    310.85644    -1557.669    527.24439    384.49974   -552.08374    34340.171 
  371000    300.04795   -1553.4319    543.36848    355.66389   -534.96785    34340.171 
  371100    300.59565   -1568.4015    535.26302    335.08185    -34.45968    34340.171 
  371200    292.20334   -1541.2814    533.52976    322.26942   -25.416559    34340.171 
  371300    308.06099   -1601.8869    547.48725    347.80058    182.31952    34340.171 
  371400    308.40011   -1584.8159    542.26082    361.18877    378.01886    34340.171 
  371500    306.81611   -1520.4848    547.28527    423.33443     840.2772    34340.171 
  371600    289.83364   -1531.8627    543.30446    330.67664    357.61996    34340.171 
  371700    302.48249   -1537.4065    534.11852    373.52061   -20.757112    34340.171 
  371800    299.59323   -1542.1638    537.35402    358.84788   -627.32486    34340.171 
  371900    297.44005    -1538.378    521.68953    337.16845   -855.24087    34340.171 
  372000    299.27958   -1529.8856    520.78773    353.13206   -683.71685    34340.171 
  372100    294.86371   -1559.6336    521.26824    303.76493   -176.14878    34340.171 
  372200    311.55096   -1539.5824     510.3314    388.83458     179.8993    34340.171 
  372300     297.4188   -1528.8124    534.16118      359.109    354.23092    34340.171 
  372400    311.50358   -1581.5511    536.05437    372.37313     240.4586    34340.171 
  372500    291.13504   -1546.6179    536.23063    314.77116    6.3034032    34340.171 
  372600    296.76092    -1564.598    495.61564    281.78339   -39.449087    34340.171 
  372700    312.62748   -1560.4264     559.4987    422.05788   -144.96968    34340.171 
  372800    302.36832   -1545.4879    511.77641    342.57742    91.658479    34340.171 
  372900    303.46518   -1566.8439    529.82708    344.26473    594.94238    34340.171 
  373000    294.45444   -1563.7573    538.66488    315.17495    377.42712    34340.171 
  373100    308.25562   -1553.8669    557.91482     407.1341    697.35338    34340.171 
  373200    295.69959   -1516.8056    543.31182    372.44114    261.81312    34340.171 
  373300    309.32374    -1521.606    532.18798    418.52994    284.19736    34340.171 
  373400    308.70068   -1482.7099    525.26834    447.67036    652.56675    34340.171 
  373500    294.12776   -1507.5503    549.94257    381.17272     188.2867    34340.171 
  373600    296.14559   -1536.7675    526.43483    337.63229    171.14085    34340.171 
  373700    296.25196   -1525.3559    530.27238    353.36566    420.37401    34340.171 
  373800    293.36632   -1521.8209    554.69072    368.18436      1007.18    34340.171 
  373900    301.53708   -1497.2554    535.13962    410.38965      251.773    34340.171 
  374000    299.21083   -1501.6451    549.17089     409.4428    590.22879    34340.171 
  374100    307.42056   -1482.9088    538.85524    455.23164   -16.390275    34340.171 
  374200    301.25288   -1502.7857    530.74357    399.16965   -373.04444    34340.171 
  374300    292.87944    -1504.668    516.78943    345.21989    256.61388    34340.171 
  374400    298.83976   -1486.7004    523.09737    396.62495    107.25848    34340.171 
  374500    294.55363   -1524.7594    524.47035    340.42985   -156.07761    34340.171 
  374600    290.85034   -1565.8411     534.9622    292.98365   -405.42542    34340.171 
  374700    294.17892   -1594.2208    548.38356    293.17601   -513.59078    34340.171 
  374800     295.9594   -1560.2936    530.66283    317.48677   -411.96528    34340.171 
  374900    299.07987   -1549.9831    531.31951     342.6573    -409.4999    34340.171 
  375000    305.48345   -1508.0086    535.60715    418.06667    -388.5611    34340.171 
  375100    300.34533   -1532.8913    515.80086    349.99045   -106.72501    34340.171 
  375200    301.30719   -1532.3406    545.95954    385.07796    293.73619    34340.171 
  375300    294.16563   -1523.9165    526.76944    341.80576   -107.25014    34340.171 
  375400    302.15831   -1547.6881    533.38827    361.03325    48.686992    34340.171 
  375500    291.85326   -1525.1006    532.63834    335.96535    505.37561    34340.171 
  375600    292.89592   -1593.2828    522.96106    262.85176    248.36006    34340.171 
  375700    301.29999   -1553.1202    504.35222    322.65831    179.43663    34340.171 
  375800    305.96649   -1562.5083    546.44354    376.60193    456.68597    34340.171 
  375900    299.35706    -1546.414    523.71652    339.88515     474.9448    34340.171 
  376000    297.92044   -1538.4232    540.35458    357.97491    392.29208    34340.171 
  376100     306.3362   -1580.0373    557.13695    371.44921    490.98402    34340.171 
  376200    305.64849   -1570.5601    544.64289    365.30208    1037.0005    34340.171 
  376300    294.43962   -1532.1096    512.61714    320.70746    10.160712    34340.171 
  376400    293.38067   -1512.6196    561.53411     384.2944   -364.27533    34340.171 
  376500    303.29794    -1500.703     536.8963    416.71362   -508.55197    34340.171 
  376600    307.79467    -1504.944    538.78622    434.83028    430.04508    34340.171 
  376700    309.46606   -1524.7025    523.95331     407.8465   -414.12005    34340.171 
  376800    300.66648   -1518.9076    518.13044    367.76552    399.79244    34340.171 
  376900    293.88528   -1462.0705    545.91448    421.52067    608.76151    34340.171 
  377000    302.93652   -1484.1912    521.70551    416.38952    298.34401    34340.171 
  377100    295.42933   -1517.4071    527.41871    354.71638    461.52046    34340.171 
  377200     306.7693   -1525.1523    558.15638      429.325    114.47161    34340.171 
  377300     295.6096   -1544.7106    518.39187    319.20661    331.16659    34340.171 
  377400    297.00158   -1521.4455    562.99438    393.41005    105.56307    34340.171 
  377500    294.98475   -1528.3904    543.97003    358.26084   -487.04608    34340.171 
  377600     304.1802   -1568.4947    527.01305    343.05447   -195.24487    34340.171 
  377700    300.91668   -1545.6141    546.50539    370.57281    6.6739624    34340.171 
  377800    309.48057   -1528.6343    544.30463    424.33215    193.36722    34340.171 
  377900    300.81279   -1525.0813     539.7956    383.92298   -210.86497    34340.171 
  378000    310.13475   -1534.6471    536.65636    413.64867     -713.221    34340.171 
  378100    293.02263   -1523.7102    557.51089    367.55093   -596.50004    34340.171 
  378200    298.70066   -1541.3588    509.99756    328.23362    -314.2485    34340.171 
  378300    292.60843   -1534.9381     491.5007    288.42751      713.001    34340.171 
  378400    308.53975   -1548.1865    571.69113    427.88408    1031.4987    34340.171 
  378500    301.57943   -1571.7715    522.67342     323.6001    760.43812    34340.171 
  378600    299.68213   -1556.7797    500.79283    308.07535    349.83842    34340.171 
  378700    304.48432   -1556.3104    506.63131    336.24125    282.25006    34340.171 
  378800    301.41031   -1530.7832    533.06253    374.20773    239.84847    34340.171 
  378900    312.24119   -1538.8193    515.77954    398.18749    581.82631    34340.171 
  379000    300.83688   -1507.2467    547.33021    409.40181     502.1572    34340.171 
  379100    290.41678   -1526.8313    499.81756    294.87544   -204.48632    34340.171 
  379200    286.38201   -1498.5447     532.5933    337.57266   -389.20859    34340.171 
  379300    301.13876   -1494.4448    524.32556    400.57316   -302.72477    34340.171 
  379400     303.9234   -1544.1455    512.56244    351.78417    352.02042    34340.171 
  379500    293.12246   -1501.1482    513.62357    346.68002    291.62115    34340.171 
  379600    307.29451    -1509.168    509.76946    399.31289    381.24933    34340.171 
  379700    303.11025   -1518.2921    519.12974    380.50361   -434.58856    34340.171 
  379800     307.9033   -1508.0987     525.6838    419.06759    -364.9368    34340.171 
  379900    309.11516   -1545.7028    540.18304    401.47871     608.1912    34340.171 
  380000     298.1489   -1529.5178    561.52875    389.09445    -91.82949    34340.171 
  380100    301.90574   -1496.0463    528.24433    406.38142   -152.26466    34340.171 
  380200    293.97099   -1470.4214    542.03897    409.68447   -44.603032    34340.171 
  380300    290.55438   -1543.8015    522.83094    301.54496     262.0877    34340.171 
  380400    297.19376   -1515.1107    530.14522    367.77045   -695.12788    34340.171 
  380500     307.0997   -1526.9511    524.07436    394.94799   -797.43545    34340.171 
  380600    291.87241   -1466.3409    551.75618    413.93003   -128.61111    34340.171 
  380700    297.76249   -1447.0065    525.86948    434.18761   -99.732114    34340.171 
  380800    309.09138   -1500.3404    557.03689    463.58674    19.917003    34340.171 
  380900    299.15274   -1485.3436    520.64207    396.95102    -618.8241    34340.171 
  381000    293.00242    -1502.819    529.25891    360.09819   -187.74865    34340.171 
  381100    288.17981    -1499.198    542.75665     355.2658   -95.273469    34340.171 
  381200       291.08   -1516.1087    552.78062    361.57988   -446.96769    34340.171 
  381300    294.96892   -1514.7927    542.88249    370.69893    360.60814    34340.171 
  381400    307.86775   -1550.9926    529.23097    379.55903    556.32609    34340.171 
  381500    302.13753   -1526.0457    528.96648    378.15929    679.62245    34340.171 
  381600    299.36014   -1531.9663     522.3412    352.97158    361.04579    34340.171 
  381700    299.60298   -1561.8514    515.94593    317.79645    662.33659    34340.171 
  381800    309.59293   -1514.6789    538.77867      433.273    403.82715    34340.171 
  381900    304.24661   -1513.6514    519.45397    390.64091    167.97117    34340.171 
  382000    297.48459   -1509.5346    523.83704    368.36218     144.2943    34340.171 
  382100    298.96105   -1551.8306    553.91539    362.86493    337.43729    34340.171 
  382200    299.65829   -1571.5306    519.29205    311.71518     363.5853    34340.171 
  382300    297.99821   -1549.4616     517.2221    324.15806    41.643608    34340.171 
  382400    299.27385   -1548.4518    522.94884    336.70092    403.57064    34340.171 
  382500    296.64752   -1588.8518    506.27323    267.67108    96.972185    34340.171 
  382600    293.65846   -1575.9033     524.3829    285.12392    36.755598    34340.171 
  382700    309.03656   -1556.8226     526.0199    375.83811   -90.647182    34340.171 
  382800     297.2265   -1564.0548    517.18735    306.01749    218.39862    34340.171 
  382900    299.91466    -1545.671     543.7817    363.23137    181.00052    34340.171 
  383000    292.90795   -1522.0076     512.0611     323.2817   -19.298365    34340.171 
  383100    296.86642    -1541.907    518.93816    328.27708   -197.33788    34340.171 
  383200    294.37395   -1552.3343    512.15942    299.72617   -59.372834    34340.171 
  383300    306.00626   -1594.0559    518.57657    317.36843   -700.89761    34340.171 
  383400    318.36282   -1571.9742    520.43747    397.55429   -595.13521    34340.171 
  383500    305.40711   -1550.4658    525.91327    365.56809   -238.32011    34340.171 
  383600    290.15832   -1532.2802    537.55124    325.98381    419.75574    34340.171 
  383700     314.6038   -1602.9489    521.65989    350.69215    354.11535    34340.171 
  383800    310.21272   -1586.4689     508.0638    333.58919     351.5471    34340.171 
  383900    301.83644   -1562.9936     530.8702    341.74466   -145.90452    34340.171 
  384000    301.07731   -1608.8685    506.28214    267.82632   -8.7247337    34340.171 
  384100    310.24482   -1578.2598    519.49379    353.37444    613.81218    34340.171 
  384200    305.83997   -1589.0185    486.90164      289.974    180.20456    34340.171 
  384300    308.34535    -1577.864    517.57617    343.20678   -624.29234    34340.171 
  384400    302.05837   -1566.0782    514.13222    322.93217   -786.82523    34340.171 
  384500    291.85331   -1552.9116    498.62595    274.14212     85.21423    34340.171 
  384600    303.10572   -1552.4948    511.22459    338.37514    414.80897    34340.171 
  384700    303.82247   -1545.7184    511.97042    349.15988     248.2083    34340.171 
  384800    299.21189    -1562.559    515.21751    314.58036    734.95653    34340.171 
  384900    304.84513   -1555.6816    496.43361    328.31466     894.7167    34340.171 
  385000     298.7084   -1557.5051    501.92413    304.04912    929.65331    34340.171 
  385100     309.1636   -1558.5383    531.49993    380.18067    672.71956    34340.171 
  385200    303.00141   -1534.1811    512.21702    357.20651    454.05976    34340.171 
  385300    295.51772   -1557.6174    513.14456    300.63428    299.00189    34340.171 
  385400     305.8013    -1539.031    517.91898    370.80281     38.90016    34340.171 
  385500    298.32085   -1525.1973    538.41359    371.08239   -270.19489    34340.171 
  385600     305.6442   -1548.7883    529.04314    371.45465   -608.38722    34340.171 
  385700     303.6654   -1599.3708    510.41789    293.23991    223.45345    34340.171 
  385800    294.52684   -1575.6445    505.32073    270.27319   -206.82459    34340.171 
  385900    313.36306   -1600.9508    512.23002    337.61288    36.832833    34340.171 
  386000    299.97436   -1591.4816    526.12552    300.03626    208.52965    34340.171 
  386100    304.66201   -1565.7982    545.79954    366.73046   -64.474279    34340.171 
  386200    299.32001   -1583.7009    516.40799    295.12111   -222.77543    34340.171 
  386300     302.2729   -1596.6114    518.55603    297.79927   -145.04891    34340.171 
  386400    302.71173   -1580.5137    530.60993    327.94825    356.42333    34340.171 
  386500    303.48085    -1585.051    515.54313    311.84504    145.17248    34340.171 
  386600    297.94375   -1566.4878    541.89343    331.55526   -138.60262    34340.171 
  386700    294.00999   -1561.1877    536.89868    313.95538    427.36534    34340.171 
  386800    311.51333   -1545.9121    558.01728    430.01944    521.60147    34340.171 
  386900    299.85273   -1552.6653     526.4921    338.66561    291.44389    34340.171 
  387000    308.76945   -1532.8545    560.44394     433.0144    513.02129    34340.171 
  387100    297.44293   -1521.5173    543.62344    375.97621    490.16795    34340.171 
  387200    303.53517    -1576.598    543.42673    348.42888    727.77918    34340.171 
  387300    300.68693   -1563.7988    528.70878    333.54579    777.82617    34340.171 
  387400    313.89011   -1543.6227    529.89532    415.00527    130.72769    34340.171 
  387500    306.88742   -1520.7161    545.82358    421.96602   -217.06799    34340.171 
  387600    304.98767   -1513.6962    535.81504     410.3303   -344.80175    34340.171 
  387700    298.88407   -1527.1046    539.00509    372.33022   -988.75202    34340.171 
  387800    299.43419   -1550.5898    527.30588    339.64979   -86.264047    34340.171 
  387900    291.72868   -1582.0636      517.438    263.23495    111.12089    34340.171 
  388000    306.28653   -1581.9245    518.27104    330.47005    759.03251    34340.171 
  388100    303.13021   -1576.9639    532.78155     335.5745    1104.9281    34340.171 
  388200    314.12491   -1512.1451    542.70271    460.35899    600.33435    34340.171 
  388300    298.55628   -1518.0706    500.32446    341.19156    64.467811    34340.171 
  388400    293.87926   -1538.5478    551.23655    350.33802   -21.903076    34340.171 
  388500    302.70878   -1537.3158    525.38556    365.90837   -351.93646    34340.171 
  388600    305.37905   -1553.7986     530.5902    366.78448     488.5924    34340.171 
  388700    297.24914   -1504.1558    529.78225    378.61445    -45.35354    34340.171 
  388800    303.05963   -1545.3538      541.992    376.07382    151.97603    34340.171 
  388900    294.41086   -1556.2096    526.08067    309.94005    -258.8682    34340.171 
  389000      294.834   -1515.2247    542.71767    369.48795    199.74915    34340.171 
  389100    296.34459    -1460.932     572.3459    460.28462    211.44369    34340.171 
  389200    299.44967   -1556.6048    549.03212    355.43147    354.10133    34340.171 
  389300    295.43024   -1596.9426    532.75557    280.52191    339.37502    34340.171 
  389400    296.23046   -1587.1322    522.86851    284.08759    215.87453    34340.171 
  389500    300.63951   -1518.6836    533.84598    383.58233    246.68544    34340.171 
  389600    310.85913   -1563.9603    519.54679    370.52306   -26.539693    34340.171 
  389700    292.86784   -1557.7549    540.34341    315.63418   -132.73165    34340.171 
  389800    294.73754   -1579.2108    533.07819    295.42339    128.52045    34340.171 
  389900     298.1838   -1555.4032    527.49434    329.33346    87.128511    34340.171 
  390000    284.45388   -1561.2879    537.44915    270.90913     175.3882    34340.171 
  390100    304.94943   -1586.9979    515.54234    316.58185   -401.35387    34340.171 
  390200    291.45593    -1578.794    543.75233    291.57744    284.52379    34340.171 
  390300    313.23624   -1565.0085    522.77489    383.52285    152.66816    34340.171 
  390400    292.34564    -1510.846    558.84392    378.66666    24.659394    34340.171 
  390500    304.85499   -1553.2529    552.85503    387.20971   0.92840158    34340.171 
  390600    299.20645   -1504.8643    533.66818    390.70095    64.367017    34340.171 
  390700    299.64881    -1548.476    519.37274    334.80728    216.81272    34340.171 
  390800    298.35166   -1516.7862    530.22496    371.44505    260.94927    34340.171 
  390900     298.6073   -1504.1691    539.99159    394.99238    120.18449    34340.171 
  391000    301.82623   -1566.8307    519.99046    326.98126    290.15544    34340.171 
  391100    295.71347   -1533.0648    540.60482    353.53818    105.71742    34340.171 
  391200    305.99239   -1575.6531    547.16112    364.29259   -255.33183    34340.171 
  391300    296.89564   -1570.2327    548.71602    329.86227    202.17022    34340.171 
  391400    304.44136   -1587.5889     538.9964    337.13231   -302.53213    34340.171 
  391500    303.55347   -1513.6783    514.59493    382.60005   -582.98541    34340.171 
  391600    295.30078   -1544.1375      534.086    334.06813   -331.90728    34340.171 
  391700    297.19417   -1578.1687     528.6942     303.2633   -181.22273    34340.171 
  391800    297.32909   -1596.7869    537.07219    293.63722   -798.04489    34340.171 
  391900    297.56509   -1600.2804     538.6341    292.77986    35.469599    34340.171 
  392000     294.3135   -1590.5782    541.78737    290.83508    377.84682    34340.171 
  392100    307.00242   -1590.4545    538.16197    345.08946   -359.03976    34340.171 
  392200    300.10929   -1611.0834    548.38403     303.3072   -515.02351    34340.171 
  392300     296.7748   -1596.8538    531.09959     285.0747    165.85264    34340.171 
  392400    285.94658   -1611.1614     547.3403    237.72111   -63.080357    34340.171 
  392500    306.65772   -1605.9887     559.4695     349.2938    383.24931    34340.171 
  392600    309.22817    -1608.147    541.88764    341.25355    97.418703    34340.171 
  392700    311.43122     -1550.84     579.1046    445.80514   -179.67873    34340.171 
  392800    299.86939   -1588.8259    534.74477    310.83347   -456.62181    34340.171 
  392900    297.23203   -1547.2842    577.09645    382.72238    -25.06361    34340.171 
  393000    298.10338   -1568.9847    524.11533    312.00691    -358.6905    34340.171 
  393100    296.96055   -1549.4445    538.46602    340.69599   -715.28576    34340.171 
  393200    298.64391   -1544.6899     509.7151    324.36179   -589.44776    34340.171 
  393300    290.19832   -1551.8729    537.72261    306.74446   -141.76109    34340.171 
  393400     314.6605   -1583.5498    538.22764     386.9171   -571.32663    34340.171 
  393500     290.8584   -1589.5962    544.68311    278.98617   -600.92408    34340.171 
  393600    302.47262   -1579.3093    537.93682    335.39119   -1009.4208    34340.171 
  393700    305.55762   -1557.6004    543.49082    376.69611   -583.16473    34340.171 
  393800    297.12756   -1604.8843    506.25541    253.80571   -462.00915    34340.171 
  393900    304.77244   -1587.3007    539.17802    339.10909    204.71041    34340.171 
  394000    300.24443   -1558.8344     550.3524    358.13968     451.3439    34340.171 
  394100    295.84279   -1556.1882    542.53575    332.93426     489.1935    34340.171 
  394200    307.40581   -1552.1567    542.12739    389.18875    182.13826    34340.171 
  394300    300.47225   -1580.7308    577.20288    364.13066     252.5756    34340.171 
  394400    306.36834   -1592.4376    527.00117    329.05943    132.12151    34340.171 
  394500    307.70811   -1561.5501    518.97734    358.02128    428.59097    34340.171 
  394600    296.22753    -1559.283    540.82991    329.88486    250.10947    34340.171 
  394700    298.22185   -1578.3841    512.53412    291.56546    386.32308    34340.171 
  394800    305.97512   -1585.2414    537.52124    344.98584   -307.24555    34340.171 
  394900    292.31468   -1586.3557    507.16553    251.33773    155.10503    34340.171 
  395000    307.95258   -1528.5126    535.00566    408.19985    42.663775    34340.171 
  395100    305.83784   -1544.8847    551.65867    398.85515   -156.58128    34340.171 
  395200    292.68513   -1548.9643    560.09212    343.34187  0.007736416    34340.171 
  395300    293.71573   -1574.2844    533.15813     295.7787    185.65249    34340.171 
  395400    298.40753   -1536.4955    535.62858    357.39376   -41.231456    34340.171 
  395500    307.87241   -1522.6126    547.93863    426.66788   -223.97671    34340.171 
  395600    309.49351   -1555.6312    538.27017    391.35961   -274.43363    34340.171 
  395700    303.32708   -1579.4561     520.6233    321.82012   -105.74263    34340.171 
  395800    296.86517   -1584.4196    529.60416    296.42486     -340.511    34340.171 
  395900    295.08879   -1572.1346      537.127    308.14717   -792.44516    34340.171 
  396000    295.41656   -1598.2389    538.02337    284.43112   -1036.5783    34340.171 
  396100    305.51135   -1555.0217    514.73188    350.30525    225.18395    34340.171 
  396200    306.45922   -1584.3958    565.48571    375.99941   -37.820284    34340.171 
  396300     300.3025   -1570.4603    517.11987    313.54557    110.57708    34340.171 
  396400    307.46396   -1589.7633    537.34873    347.06825   -98.311426    34340.171 
  396500     289.8472   -1593.9553    529.72859    255.06993   -76.825833    34340.171 
  396600    291.55477   -1582.1824    553.59868    298.48527   -307.82281    34340.171 
  396700    292.95414   -1537.0207     561.8988    358.31653    24.708504    34340.171 
  396800    295.21824   -1533.3884     550.4201    360.77562   -117.36352    34340.171 
  396900    299.42859   -1563.4174    538.62905    338.11983    213.92611    34340.171 
  397000    299.83113   -1565.2216    533.77464    333.29351    -450.0206    34340.171 
  397100    299.31543   -1528.9233    547.61167    381.08149   -400.97183    34340.171 
  397200    294.53937    -1518.066    563.96225     386.5502   -387.55979    34340.171 
  397300    300.58142   -1530.0969    523.21601     361.2746    117.48011    34340.171 
  397400    302.27306   -1572.4423    545.11862    348.53169    256.99991    34340.171 
  397500    292.74605    -1533.265    544.37218    343.59843    229.00603    34340.171 
  397600    298.76533   -1503.9221    538.93675    394.90384   -483.24875    34340.171 
  397700    299.19875   -1502.6268    534.82417     394.0594   -357.68894    34340.171 
  397800    295.70555   -1548.3154    534.18671    331.83336    140.58938    34340.171 
  397900    307.28079   -1556.3259    535.59001    377.91316    418.32037    34340.171 
  398000    311.46376   -1556.1616    523.20297       384.73   -4.9155021    34340.171 
  398100    313.65578   -1540.9706    555.22813    441.92361   -972.93663    34340.171 
  398200    290.81164   -1546.9805    527.75607    304.46201    -986.8466    34340.171 
  398300     295.2449    -1579.636    538.19942    302.42873   -1065.1816    34340.171 
  398400    297.04703   -1580.0126    531.58639    303.64188    -616.6164    34340.171 
  398500    291.49415   -1566.0523    533.93263    294.67338   -332.85958    34340.171 
  398600    297.27036   -1565.5439    549.63392    337.17463   -255.68727    34340.171 
  398700    286.15529   -1551.4538    500.81337    251.85171   -60.062609    34340.171 
  398800    299.64538   -1599.8366    536.84563    300.90393    14.523131    34340.171 
  398900    304.55363   -1588.1735    562.33795    360.40032    431.78052    34340.171 
  399000    295.27584   -1537.9434    532.42561    338.48829    444.60129    34340.171 
  399100    313.14412   -1537.5237    533.72765    421.54104    1044.6824    34340.171 
  399200    303.67891   -1537.4994     561.3062    406.06114    1211.7334    34340.171 
  399300    299.10071    -1561.258    547.80515    347.96296    868.53551    34340.171 
  399400    293.54612   -1532.8454    548.63224    351.91979     249.4194    34340.171 
  399500    297.13393   -1552.2372      560.534    360.76043    801.13235    34340.171 
  399600    304.56029   -1508.2236    543.50211    421.54471   -4.7683079    34340.171 
  399700    304.83446   -1544.8786    560.15783    402.79336   -89.130436    34340.171 
  399800    290.91306   -1559.8242    531.73745    296.06139   -24.403111    34340.171 
  399900    299.79268   -1558.7769    533.97652     339.7651   -390.84539    34340.171 
  400000    306.64242   -1600.4995    528.92689    324.17075   -108.91969    34340.171 
  400100     310.4527    -1556.293    533.26328    390.05683   -524.03182    34340.171 
  400200    295.51088   -1556.5507    523.81346    312.33877   -786.32099    34340.171 
  400300     304.3104   -1538.6121    559.37705    405.89369   -935.77057    34340.171 
  400400    296.91337   -1536.2561    529.81608    345.01969   -1068.3373    34340.171 
  400500    302.42721    -1553.419    571.02512    394.16311   -459.57563    34340.171 
  400600    304.79106   -1581.8131    541.05705    346.56045   -622.66084    34340.171 
  400700    294.57645   -1554.8362    564.69336    350.67988    272.82195    34340.171 
  400800    292.36714    -1559.476    560.50467    331.79526    974.56053    34340.171 
  400900    298.36719   -1566.7442    561.02249    352.35532    334.94307    34340.171 
  401000    315.21982   -1533.2293    561.93785    463.49361    965.03227    34340.171 
  401100    304.09875   -1554.2965    557.55569    387.42454    548.23077    34340.171 
  401200    297.58151   -1598.2376    530.16964    286.43292    458.63862    34340.171 
  401300    305.49135   -1542.3519    539.93982    388.09191    48.748237    34340.171 
  401400    292.44837   -1589.6258    562.43652    303.94708   -805.38592    34340.171 
  401500    294.24893   -1529.6477    537.45656    347.14084   -1399.7132    34340.171 
  401600    299.09905   -1569.8855    544.80932    336.33208   -751.40011    34340.171 
  401700    301.10024   -1569.7231     525.3021    326.09603   -485.89788    34340.171 
  401800    297.93657   -1571.6015    547.74029    332.25575    -382.6502    34340.171 
  401900    292.35771   -1590.9432    560.61233    300.39288    -398.4001    34340.171 
  402000     294.7338   -1555.2261    562.37656    348.68941   -143.38377    34340.171 
  402100    295.25894   -1578.8177    560.75796    325.86943   -811.10019    34340.171 
  402200    308.56401   -1561.6515    545.36987    388.20824   -408.27214    34340.171 
  402300    298.77955   -1558.2981     557.4421    359.09797   -407.54259    34340.171 
  402400    296.44318   -1538.4288    557.87102    368.76176    186.76458    34340.171 
  402500    301.97139   -1590.5503    566.60759    350.53949    -453.8981    34340.171 
  402600    289.78503   -1531.9295    543.63434    330.71847    -194.3369    34340.171 
  402700    298.31714   -1593.4697     544.7768    309.15629   -426.53893    34340.171 
  402800    296.87252   -1545.6507    519.88988    325.51297   -157.47522    34340.171 
  402900    311.85664   -1551.6128     517.6594    385.52353    -751.8963    34340.171 
  403000     300.8594   -1569.3423      539.637    339.71551   -746.82904    34340.171 
  403100    298.55539   -1561.5571     566.3314    363.70799    336.43142    34340.171 
  403200    291.34134   -1612.4748    542.77217    256.39492    526.61022    34340.171 
  403300    289.61387   -1606.1984    572.52118    284.55738    527.19695    34340.171 
  403400    298.74857   -1595.6755    537.97327    302.11075    254.82732    34340.171 
  403500    303.56524   -1596.8134    561.08134    346.00492    29.929507    34340.171 
  403600    282.62054   -1556.6988    549.79743    279.50174   -380.46659    34340.171 
  403700    300.23718   -1566.6148    548.75516      348.729   -217.44664    34340.171 
  403800    308.70581   -1575.9734    551.38491     380.5468    522.43537    34340.171 
  403900    300.28808   -1565.2619    569.61535    371.17382    335.29531    34340.171 
  404000    302.81417   -1584.9617    526.88557     320.2422   -128.25592    34340.171 
  404100    295.14177   -1580.9976    509.05276     271.4511   -109.58784    34340.171 
  404200    311.07838   -1584.5094     563.2377    394.66287   -311.81861    34340.171 
  404300    298.20926   -1549.0718    505.09592     313.3823    167.09379    34340.171 
  404400    302.72341   -1587.3636     533.6478    324.18942    160.58561    34340.171 
  404500    298.70591   -1592.5461    521.73984    288.81254    136.61357    34340.171 
  404600    297.69881    -1636.351    529.48538    248.16919   -26.045464    34340.171 
  404700    300.26803   -1579.0199    543.36097    331.07014    448.36008    34340.171 
  404800    298.77781    -1568.784    538.72475    329.88678    202.87121    34340.171 
  404900    304.49274   -1614.9735    531.00891    301.99407    258.16575    34340.171 
  405000    301.25806   -1592.8897    551.67075    330.01642    579.48744    34340.171 
  405100    296.57956    -1568.402    553.57058    335.10882    -176.0536    34340.171 
  405200     306.5441   -1557.5553    537.67806    375.41856   -674.99486    34340.171 
  405300    284.16776   -1521.9461    552.61314    324.11253    -159.8067    34340.171 
  405400     304.2446   -1498.5499    550.91291    437.19221   -333.90931    34340.171 
  405500    301.11202   -1560.4924    560.39871    370.47694   -161.50369    34340.171 
  405600    313.03034    -1530.422    557.60697    452.00426    13.429673    34340.171 
  405700    305.53949   -1571.7615    533.92408    352.88568   -512.65387    34340.171 
  405800    295.46551   -1488.1068    562.73924    419.50196   -316.42111    34340.171 
  405900     306.0838    -1500.367    575.00206     467.8358   -137.61139    34340.171 
  406000    305.22273   -1511.8116    535.85025    413.32004   0.54816159    34340.171 
  406100    295.77439   -1516.4741    550.40735    380.20864   -344.50791    34340.171 
  406200    296.75254   -1546.7128    511.07064    315.08549   -902.57605    34340.171 
  406300    290.69163   -1510.8479    588.49288    400.78516   -812.17133    34340.171 
  406400    308.00753    -1533.484    547.74826    416.22115   -477.24712    34340.171 
  406500    295.96192   -1582.3138    549.29282    314.10792    -169.9992    34340.171 
  406600    297.54155   -1578.6059    547.42545    323.13856    -614.6185    34340.171 
  406700    296.26225   -1605.6167     574.5358    317.41511   -70.558415    34340.171 
  406800    297.47019   -1631.9225    530.97535    253.04701   -755.86237    34340.171 
  406900    305.16442   -1588.6084    533.46522    333.87279   -441.86002    34340.171 
  407000    307.80128   -1549.7682    562.66086    413.91074   -646.63098    34340.171 
  407100    300.67159   -1563.2646    562.67862    367.97992   -519.88557    34340.171 
  407200    301.60295   -1551.2553    560.85323    382.40313   -115.39384    34340.171 
  407300    307.61512   -1548.9407    555.31195    406.54204    532.59292    34340.171 
  407400    294.11906   -1540.8359    552.37406    350.27901     61.71768    34340.171 
  407500     302.8773   -1586.7609    553.88374    345.72856   -123.32052    34340.171 
  407600    296.37143   -1571.9296    536.83029     313.8936    415.78104    34340.171 
  407700    301.58198   -1591.5314    560.51125     341.6896    705.94459    34340.171 
  407800    296.29705   -1535.0218    559.05112    372.68369     570.7098    34340.171 
  407900    307.60321   -1561.4758    542.81757    381.45836    1242.4318    34340.171 
  408000     304.6952   -1571.3433    534.21225    349.74914    1221.4542    34340.171 
  408100    297.36758   -1562.0764    560.80651    352.25725    451.57736    34340.171 
  408200    300.27407   -1554.4045    566.54808    378.90016    694.13011    34340.171 
  408300    297.25469   -1574.7967    524.04743    302.26396    714.47191    34340.171 
  408400    295.34729   -1588.5904    524.64224    280.38317    297.19874    34340.171 
  408500    303.79968   -1552.2038     562.3802     392.9805    187.07968    34340.171 
  408600    306.76007   -1524.0874    556.07127    428.26273    903.92684    34340.171 
  408700     290.2424   -1578.7788    549.08103    291.39768    824.49148    34340.171 
  408800    305.79489   -1566.2399     525.4191    351.06491    811.54619    34340.171 
  408900    307.70349   -1564.4481    545.25446    381.37944    596.55332    34340.171 
  409000     295.0164   -1577.7182    530.40585    295.51294    611.42001    34340.171 
  409100    307.66014   -1585.8107    566.74251     381.3075    521.04873    34340.171 
  409200     300.9821   -1579.3329    531.48056    322.12698    475.60982    34340.171 
  409300    308.41155   -1566.1969    545.84818    383.44722    142.69249    34340.171 
  409400    304.90198   -1578.4602      537.561    346.92218   -28.135177    34340.171 
  409500    300.10819   -1597.9102    558.83864    326.92995    205.27837    34340.171 
  409600    302.45014   -1607.6071    556.58215    325.63641    564.90839    34340.171 
  409700    300.82799   -1568.8092    529.91131       330.38    118.79858    34340.171 
  409800    298.97536   -1571.5682    541.37929    330.65629     481.4329    34340.171 
  409900    286.75357   -1561.9317    539.98878    283.27247   -295.60502    34340.171 
  410000    309.29481   -1570.9482    557.52976     394.3978    175.03684    34340.171 
  410100    308.90767   -1565.1739    540.73021    381.61038   -333.71921    34340.171 
  410200    293.93694   -1563.9383    529.39212    303.36568    523.67137    34340.171 
  410300    305.65641    -1617.776    581.20303    354.68237    701.98614    34340.171 
  410400    294.16386   -1570.6065    548.46757    316.80579    696.52411    34340.171 
  410500    301.15899    -1520.941    561.36102    411.20444    915.11556    34340.171 
  410600     295.6548   -1543.0326    560.24419    362.94264    736.86649    34340.171 
  410700    298.75441   -1554.4187    535.17922    340.60007    1647.6033    34340.171 
  410800    303.42086   -1555.8817    560.41156    385.60967    341.97026    34340.171 
  410900     317.2682   -1568.4573    566.73204    442.38341    10.777918    34340.171 
  411000    289.64445   -1588.9983    537.46292    266.83839   -205.28771    34340.171 
  411100    297.08753   -1595.7719    563.14291    319.62343    100.66077    34340.171 
  411200    289.39886   -1572.1093    529.02595    274.17257    187.79563    34340.171 
  411300    302.19467   -1534.3074     553.8243    395.01545    253.71347    34340.171 
  411400    296.51998   -1548.6771    561.56555    362.55748    639.17382    34340.171 
  411500    294.65043   -1569.7304    553.25239    324.68146    47.883315    34340.171 
  411600    314.03672   -1577.9255    575.14459     426.6191   -122.51369    34340.171 
  411700    298.48936   -1582.1315    521.29466    297.79623    -205.4873    34340.171 
  411800    299.83972   -1609.7962    537.04587    292.02928    13.169979    34340.171 
  411900    308.15344   -1637.4469    505.38126    270.55546    244.40385    34340.171 
  412000    291.92677   -1608.9796    542.17652    261.95912   -4.1704852    34340.171 
  412100    307.99488   -1612.6538    541.25179    330.49739    390.68982    34340.171 
  412200    300.59162   -1604.1858      531.661    295.67712    503.26575    34340.171 
  412300     302.4131   -1584.6397    533.58056    325.43366    599.76176    34340.171 
  412400    298.47108   -1577.1786    567.64619    349.01746    153.97253    34340.171 
  412500    292.78001   -1549.5703    550.74574    333.82133   -996.49985    34340.171 
  412600    294.16627   -1567.2183    541.44456    313.18194   -113.44419    34340.171 
  412700    297.42377    -1604.922    562.00614      310.867   -108.58304    34340.171 
  412800     302.4101   -1575.0589    560.85044    362.27063    178.62825    34340.171 
  412900    307.51022   -1571.5975    534.31387    362.40966   -154.22145    34340.171 
  413000    297.97531   -1599.8664    532.79984    289.22677   -235.87666    34340.171 
  413100    302.26664   -1630.2143    513.64689    259.25877   -50.253131    34340.171 
  413200    305.59353   -1597.0858    552.66926    346.55258   -233.63439    34340.171 
  413300    306.17461    -1564.096    549.67853    379.19656    245.65942    34340.171 
  413400    301.60191   -1630.2404    538.07671    280.63675   -231.13773    34340.171 
  413500    303.37179   -1586.6471    531.43359    325.64293   -216.74885    34340.171 
  413600    300.95011   -1614.7594    537.90257    292.97685   -192.48216    34340.171 
  413700    307.61059   -1575.0404    561.18653     386.2963    205.10581    34340.171 
  413800    309.86991   -1624.9324    533.10983    318.61129    311.97727    34340.171 
  413900     299.1795   -1577.7123    551.48256    335.54466    124.69927    34340.171 
  414000    305.53205   -1546.0915    543.23016    387.82798    253.05162    34340.171 
  414100    305.66314   -1565.9306     537.1627     362.5181   -161.17301    34340.171 
  414200     283.6534   -1563.8155    522.83698    250.12583    196.21702    34340.171 
  414300    302.96851   -1568.2399    535.82993    346.61086    261.62447    34340.171 
  414400    309.98704   -1571.1619    533.48723    373.29243    629.43908    34340.171 
  414500    296.83667    -1519.246    542.85163    374.71614    1154.7364    34340.171 
  414600    306.57612    -1604.371    551.25737    342.32795    437.07156    34340.171 
  414700    294.43254    -1608.021    515.53168    247.67839    298.23091    34340.171 
  414800    301.41506   -1606.1948    546.01897    311.77415    484.08928    34340.171 
  414900    295.03019   -1603.9415    512.24143    251.18791    17.592327    34340.171 
  415000    301.29007   -1571.8442    523.71382    323.25078    261.03732    34340.171 
  415100    306.00274   -1563.4855    526.28263    355.62889    112.45913    34340.171 
  415200     299.7934   -1604.4966    514.38296    274.45508    64.137714    34340.171 
  415300    294.16467   -1537.9232    554.15139    355.17666     247.6029    34340.171 
  415400    310.19676   -1579.0704    518.27481    351.12603   -382.56452    34340.171 
  415500     298.1611   -1533.0978    541.09651    365.13764   -214.49719    34340.171 
  415600    294.39641   -1546.2265    588.78488    382.56164    62.473585    34340.171 
  415700    301.39496   -1547.8649    512.70195    336.69558    184.63972    34340.171 
  415800    294.54536   -1533.5967    543.58726    350.67178   -233.58712    34340.171 
  415900    298.95321    -1573.775    517.74705    304.71645   -67.999284    34340.171 
  416000    307.60104   -1574.8913    522.84676    348.06216   -509.36612    34340.171 
  416100    297.99366   -1606.4419     539.4042    289.33917   -727.07857    34340.171 
  416200    298.27331   -1612.4326    519.63273    264.84984   -565.76552    34340.171 
  416300    303.72592   -1619.3655    525.57781    288.68061   -352.04974    34340.171 
  416400    302.42063   -1595.8609     522.7964    303.46251   -577.51856    34340.171 
  416500    310.41485   -1564.3835    527.04939    375.58021   -498.46716    34340.171 
  416600    294.01762   -1590.9444    513.51606    260.85075   -178.96416    34340.171 
  416700    299.22182   -1536.5146    542.33678    367.78919   -802.78922    34340.171 
  416800    305.64278   -1545.3235    495.91394    341.78376   -654.28469    34340.171 
  416900    289.97161   -1530.9465    533.31491     322.2313   -756.80518    34340.171 
  417000    303.16259   -1548.8101    544.77196     375.8661   -507.40657    34340.171 
  417100     305.8052   -1567.2528    520.19486    344.87464    106.24202    34340.171 
  417200    296.28901   -1584.7824    537.14004    300.97538    41.624099    34340.171 
  417300    299.13719   -1557.5324    528.90245    332.95193    370.24672    34340.171 
  417400    311.93791   -1542.6675     527.7831     404.9624    820.53246    34340.171 
  417500     293.9136   -1579.7816    528.33849    286.36247    472.33969    34340.171 
  417600     306.9721   -1584.2876    525.87265    338.82902    -202.5934    34340.171 
  417700    308.53323   -1569.6097    517.01517    351.75518     193.8701    34340.171 
  417800    307.68501   -1559.6874    538.09394    378.89549    185.27197    34340.171 
  417900    293.60886   -1548.5023    534.97227    322.88855    511.55327    34340.171 
  418000    298.81917   -1593.1087    537.49981    304.52543    157.15803    34340.171 
  418100    308.26003   -1565.5755    515.22195    352.75269    244.71283    34340.171 
  418200    294.68686   -1578.8399    537.09165      299.577     739.3467    34340.171 
  418300    304.17164   -1522.8173    520.52035    382.20018   -67.932177    34340.171 
  418400     307.8173   -1506.3621    508.77542    403.50434   -230.87494    34340.171 
  418500    305.65023   -1536.2426    543.50218    398.48675   -756.39619    34340.171 
  418600    302.93769   -1521.3461    506.80414    364.33858   -309.59161    34340.171 
  418700    301.78031   -1581.4976    538.16453    330.27945    -421.5476    34340.171 
  418800     303.3639   -1599.5426    526.45348     307.7314   -144.25824    34340.171 
  418900    295.08968    -1553.142    534.90647    324.92329   -87.491486    34340.171 
  419000    292.45269   -1557.3342    542.23518    316.05704   -262.13447    34340.171 
  419100    292.77555   -1565.2783    501.03079     268.3781    170.81337    34340.171 
  419200    304.61533   -1513.2331    567.79312    441.07667     340.1574    34340.171 
  419300    304.23945   -1471.6628    542.82964    455.97259    36.771516    34340.171 
  419400    304.58715   -1557.2756    503.95125    333.06408   -324.76972    34340.171 
  419500    305.05583   -1536.2698    540.05438    392.30627   -510.49673    34340.171 
  419600    301.81065   -1521.0882    537.12522    389.78764   -364.40313    34340.171 
  419700    302.06829   -1537.9273    527.76296    364.75901    160.74386    34340.171 
  419800    297.15813   -1526.7979    537.81914    363.59495   -177.37926    34340.171 
  419900    299.47513   -1532.2599    540.78402    371.64412   -240.03331    34340.171 
  420000    309.24986   -1579.4368    545.71759    373.89242    179.97733    34340.171 
  420100    298.78478   -1543.5269    533.57869    350.02953    88.727156    34340.171 
  420200    296.76608   -1532.7637    519.73253    337.75807    95.783659    34340.171 
  420300     294.0148   -1560.4294    508.41094    286.24778    731.09323    34340.171 
  420400      306.965   -1557.9538    555.96702     395.2249    682.28342    34340.171 
  420500    291.81197    -1552.807    520.33971    295.77233    476.47976    34340.171 
  420600    298.58638   -1560.6077    537.51796    335.98499    575.03164    34340.171 
  420700     315.0547   -1575.1332    503.22719    362.12753    182.46481    34340.171 
  420800    298.43236   -1507.9162    560.61528    411.07269    13.195084    34340.171 
  420900    300.48164   -1564.7303    533.88001    336.85109   -39.952388    34340.171 
  421000    300.59149   -1534.1889    545.08696    379.09947   -562.68976    34340.171 
  421100     303.9054   -1548.0309    539.49299     374.7474   -763.75151    34340.171 
  421200    311.88734   -1521.8126    534.48326    432.28733   -360.57414    34340.171 
  421300    290.73521   -1521.5403    539.29494    341.09318    13.676591    34340.171 
  421400    298.29866   -1542.2271     532.2098    347.74776    633.12584    34340.171 
  421500     303.5072   -1518.7848    547.98611    410.67413    443.43664    34340.171 
  421600    312.66276   -1518.1549    527.23647    432.22773    524.96961    34340.171 
  421700    291.97728   -1582.3235    521.77912    268.44773    449.30422    34340.171 
  421800    287.19478   -1577.5966    557.87799    287.50506    553.12535    34340.171 
  421900    303.67043   -1539.9398    558.70204    400.97802    528.45976    34340.171 
  422000    304.74567   -1566.3546    523.24103    343.99635    305.10193    34340.171 
  422100    302.96401   -1615.2221    545.07363    308.85185    246.24809    34340.171 
  422200    298.90952   -1571.7842    544.11317    332.87456    342.23387    34340.171 
  422300    299.95531   -1610.8823     525.2896    279.71297   -574.50714    34340.171 
  422400     300.1299   -1561.4064    529.38516    334.07915   -464.28397    34340.171 
  422500    310.96586   -1576.7563    534.82685    373.49294   -307.58798    34340.171 
  422600     301.0516   -1607.2908    533.13673     296.1416    1.9761727    34340.171 
  422700    300.10985   -1650.0752    547.69269    263.62652     263.9402    34340.171 
  422800    296.74927   -1622.0539    541.28826    269.94712    134.64396    34340.171 
  422900    292.75802   -1594.3524    507.77103    245.96438    115.73849    34340.171 
  423000    292.71727   -1629.7785      514.141    216.72283   -353.72574    34340.171 
  423100    306.37719   -1599.2889    523.84538    319.09256   -540.68216    34340.171 
  423200    297.00427   -1609.4737    515.23472    257.63444   -97.385789    34340.171 
  423300    302.73645   -1631.9789    516.67554    262.66118   -794.59581    34340.171 
  423400    301.03671   -1607.7692    512.70715    275.16582    -717.6894    34340.171 
  423500    304.31107    -1555.559    538.70208    368.27487   -965.45845    34340.171 
  423600    302.56833   -1547.4946    542.42409    372.12882   -155.90321    34340.171 
  423700     285.0738    -1510.172    540.08461    327.48214    121.49532    34340.171 
  423800    303.60984   -1488.9125    531.39105    424.41857   -425.98254    34340.171 
  423900    301.83222   -1507.8331    520.77281    386.78847    59.734636    34340.171 
  424000    295.37884    -1496.806    579.25155     426.9205    8.5568486    34340.171 
  424100    301.98449   -1538.8572    535.10099    370.78571    532.93029    34340.171 
  424200    300.33568   -1531.9059     536.4377    371.56876    276.59558    34340.171 
  424300    301.54791   -1546.9963    565.14038    390.69875     386.5706    34340.171 
  424400    304.88707   -1578.6481    519.31816    328.42365   -381.23441    34340.171 
  424500    296.92582   -1570.7435    516.09072    296.86356    76.575121    34340.171 
  424600    299.57888   -1565.4937    537.48759    335.58619    273.41248    34340.171 
  424700    304.31451   -1556.1681    551.48355    380.46285   -22.555627    34340.171 
  424800    298.28417   -1641.3398    513.82417    230.18349   -138.41644    34340.171 
  424900    287.43469   -1566.8778    529.94158    271.37937    944.32005    34340.171 
  425000    290.21934   -1600.3158    535.84399    256.51862    923.40981    34340.171 
  425100     292.9895   -1592.8848    507.15177    247.86638    434.26337    34340.171 
  425200    307.98562   -1552.5991    535.68094    384.93908    832.20631    34340.171 
  425300    308.67984     -1555.87    547.30381    396.45089   -177.55931    34340.171 
  425400    305.33175   -1574.1403    529.92838    345.56569   -118.72505    34340.171 
  425500    305.02734   -1580.3856    538.61022    346.61669    181.34956    34340.171 
  425600    303.72068   -1570.5627    560.98644    372.86818    299.96159    34340.171 
  425700    312.88973   -1557.9278    526.81576    393.06721    63.367321    34340.171 
  425800    300.99402   -1594.9665     517.3702    292.43722    398.60354    34340.171 
  425900     307.2596   -1586.7178    543.67306    355.50787   -412.31268    34340.171 
  426000    298.77193   -1597.1154    548.66126    311.46514   -60.940398    34340.171 
  426100     315.0592   -1608.6776    542.26345    367.63987   -978.76064    34340.171 
  426200    295.26935   -1618.9477    534.90105    259.92996   -636.31166    34340.171 
  426300    292.84393   -1595.1849    534.00411    271.75597    104.96689    34340.171 
  426400    302.39518   -1597.6611    499.71934    278.46949   -189.00381    34340.171 
  426500    303.19777   -1561.1137    551.76201     370.7127    147.59584    34340.171 
  426600    306.07703   -1595.9072    522.33037    319.59307    295.32607    34340.171 
  426700    295.82318   -1592.0549    521.98656    276.42918    567.26268    34340.171 
  426800     307.2907   -1553.8311    535.64139    380.50446    827.59781    34340.171 
  426900    301.29517     -1597.73    491.13297    264.80728    354.43392    34340.171 
  427000    302.13844   -1595.3913    535.30149    315.15282    149.01472    34340.171 
  427100     292.2111   -1522.8892    522.23053    329.39766     454.0375    34340.171 
  427200    290.81165   -1569.2754    532.64251    287.05367    268.91711    34340.171 
  427300    304.35087   -1608.4359    512.85377     289.7308    668.48978    34340.171 
  427400    299.14243    -1585.081    527.66623    304.19091     620.1033    34340.171 
  427500    301.14828   -1539.9045    524.19803    355.02928    420.59464    34340.171 
  427600    297.48112   -1535.6367    522.12247    340.52972    80.758241    34340.171 
  427700    294.78519   -1528.7068    529.70912    342.77516    269.76361    34340.171 
  427800    297.30682   -1537.6598    525.94288    341.53364    125.40462    34340.171 
  427900    294.61182   -1548.1164    524.13441    317.00173   -407.11345    34340.171 
  428000    298.46177   -1531.7405    537.27811    364.04513   -504.12838    34340.171 
  428100    295.46409   -1540.4748    514.48192    318.87017   -221.23689    34340.171 
  428200    298.41113   -1547.9547    546.30105    356.62332    75.409307    34340.171 
  428300    297.01777   -1492.4005    528.03538    387.56981   -369.48139    34340.171 
  428400    298.44922   -1530.2636    532.26634    360.45313    444.61883    34340.171 
  428500    288.58411    -1547.138    512.56222    278.97167     595.7394    34340.171 
  428600    302.44753   -1499.3828    506.34414    383.61087   -575.21865    34340.171 
  428700    306.49864   -1506.5688    538.48175     427.0019    188.92363    34340.171 
  428800    298.72299   -1546.9994    506.11132    318.80842   -787.35327    34340.171 
  428900    308.93947   -1502.1678    541.67322    445.70422   -370.39625    34340.171 
  429000    291.22607   -1532.3857    532.84495      326.032   -495.43344    34340.171 
  429100    304.58304   -1518.0518    552.55251    420.87043    132.64873    34340.171 
  429200    302.60561   -1550.8621    539.48884    365.99575    -207.8684    34340.171 
  429300    297.85585   -1566.9304    519.39031    308.20953    26.181474    34340.171 
  429400    289.33114   -1569.3144    533.76571    281.39901    7.5523231    34340.171 
  429500     299.7467   -1552.0076    535.90275    348.25135   -283.50856    34340.171 
  429600    309.84909    -1587.407    518.92609    341.85827   -528.57559    34340.171 
  429700    304.47226   -1544.5412    514.80255    356.12677   -153.11976    34340.171 
  429800    302.99265   -1542.1999    509.68018    346.61105   -75.979403    34340.171 
  429900    296.02701   -1541.8318    558.19716    363.79059    189.45128    34340.171 
  430000    289.57665   -1545.7301    519.70809    292.04312    764.03484    34340.171 
  430100    289.55558   -1536.8033    543.59868    324.76462    394.93792    34340.171 
  430200     295.1005   -1563.4453    551.00543    330.76823   -190.13564    34340.171 
  430300    303.14818   -1508.9833    500.30282    371.15815   -67.357238    34340.171 
  430400    305.75654   -1542.9333    545.65048    394.42828   -416.06919    34340.171 
  430500     295.4382   -1555.3936    522.09053    311.44207   -742.29725    34340.171 
  430600    303.52904   -1553.4707    564.81104    392.91253   -42.968731    34340.171 
  430700    298.99897   -1572.0644    514.99272      303.881    318.61381    34340.171 
  430800    302.29754   -1612.5371    525.03198    288.46167    459.06111    34340.171 
  430900     307.3244   -1564.9396    551.12124    385.02912    351.59802    34340.171 
  431000    295.92049   -1555.6583    542.88162    334.16368    219.58677    34340.171 
  431100    299.64341   -1539.6919    524.69686    348.89098     325.0807    34340.171 
  431200    306.79307   -1541.2816    540.31225    395.45974   -587.26494    34340.171 
  431300    293.06265   -1584.6676    536.42136    285.68614   -857.81506    34340.171 
  431400    313.82071   -1581.6217    543.26009    390.05516   -602.49314    34340.171 
  431500    290.84948   -1568.8581     525.4016    280.40217    -348.9097    34340.171 
  431600    302.58809   -1584.8727    509.31423     301.7308    76.252088    34340.171 
  431700     303.3629   -1565.0014    559.32903     375.1436    99.480549    34340.171 
  431800     297.3577   -1574.4301    535.68094    314.73296   -411.89486    34340.171 
  431900    292.43286   -1590.9973    544.93156    285.00002   -75.303313    34340.171 
  432000    293.04415   -1546.1121    542.83346     330.5695    226.46706    34340.171 
  432100    310.93421   -1546.6202    538.71864    407.37671   -47.744899    34340.171 
  432200    296.83105   -1538.7511    554.40678    366.74069    -92.74233    34340.171 
  432300    300.76232   -1531.0159    518.18932    356.15234    501.21625    34340.171 
  432400    304.90741    -1536.514    522.60169    373.93386    573.85832    34340.171 
  432500    297.05793   -1514.8265    543.84297    381.13413    314.97532    34340.171 
  432600    291.60552   -1547.6135    540.77557    320.46203    393.80719    34340.171 
  432700    292.76783   -1560.6948    530.43598    302.33159    577.63031    34340.171 
  432800    300.71818    -1558.203    523.90023    334.47525    996.79721    34340.171 
  432900    299.57143   -1596.3816    512.43768    279.61439   -37.832271    34340.171 
  433000    291.23116   -1581.4362    531.94463    276.10435   -466.12461    34340.171 
  433100    307.91811   -1520.8998    525.53145    406.18155   -247.91009    34340.171 
  433200    302.46826   -1548.7233    514.26943    342.28999    -140.3549    34340.171 
  433300     295.6749   -1561.7565    552.54325    336.60931    -247.9827    34340.171 
  433400    303.08155   -1568.3871    487.11285    298.26108   -258.72065    34340.171 
  433500    297.76599   -1523.9792    530.88168    362.24302   -698.91414    34340.171 
  433600     300.9494   -1548.9665    545.56734    366.43133   -1820.7914    34340.171 
  433700    297.21723    -1546.208    497.36979    304.00459    -669.3459    34340.171 
  433800      292.787   -1580.1372    532.84536    285.38583    -371.4992    34340.171 
  433900    307.07228   -1542.2674    550.38272    405.81532   -965.29907    34340.171 
  434000    292.82927   -1521.0885     526.7118    338.49339   -497.38326    34340.171 
  434100    309.77569   -1533.1397    555.91791    432.78323   -220.55322    34340.171 
  434200    293.66447   -1541.4883    534.89946    330.08277    166.62238    34340.171 
  434300    299.26144   -1536.3995    518.25439    344.00231   -479.11588    34340.171 
  434400     290.5411   -1549.2341    561.02114    334.24211   -133.84607    34340.171 
  434500    294.13793   -1517.0949     544.9538    366.68564   -407.54789    34340.171 
  434600    300.37897   -1515.9441    529.82298    381.11296     181.2063    34340.171 
  434700     299.3411   -1529.8791    533.80208    366.43298    49.342789    34340.171 
  434800    304.13362   -1529.7087    542.14274    396.75814     517.4716    34340.171 
  434900     309.9448   -1544.0746    526.14975    392.84988    647.22397    34340.171 
  435000    288.39334   -1564.4951    528.18014    276.36412    4.5150129    34340.171 
  435100    289.88056   -1587.9863    554.13138    285.59358    98.487759    34340.171 
  435200    303.14582   -1565.9534    540.22817    354.10267   -452.21483    34340.171 
  435300    294.28973   -1535.1987    537.46969    341.78868   -108.20552    34340.171 
  435400    301.62739   -1540.5199    507.31453    339.71109    633.50861    34340.171 
  435500    299.99084   -1548.1763    530.12855    347.41965    165.16855    34340.171 
  435600    300.82955   -1593.5546    526.51684    302.24717    375.56354    34340.171 
  435700    306.41973   -1615.0847    507.99303    287.63807    905.13681    34340.171 
  435800    287.34674   -1602.1766    517.51847    223.25716    347.47799    34340.171 
  435900    296.83499   -1589.4098    537.08679    298.77985   -53.635587    34340.171 
  436000    293.65797   -1544.6187    527.74952    319.77288   -774.05603    34340.171 
  436100    294.29223   -1597.7139    516.89235    258.70753   -204.19791    34340.171 
  436200     306.0199   -1563.4598    518.54428    347.99437   -406.82863    34340.171 
  436300    299.65159   -1550.4355      540.374    353.86171    -110.5736    34340.171 
  436400    303.42878   -1587.9441    501.06732    294.23909   -898.83503    34340.171 
  436500    303.20374   -1529.7983    555.61381    405.90707    300.05451    34340.171 
  436600    295.31489   -1524.1851    521.01291    341.01172    84.708114    34340.171 
  436700    305.03492   -1543.5293    562.13298    407.03021    120.92043    34340.171 
  436800    292.12155    -1511.688    523.39609    341.35691    332.12673    34340.171 
  436900    294.36724   -1502.8044    504.45159    341.51761   -165.55173    34340.171 
  437000    305.23947   -1549.7793    517.09436    356.67262   -181.32125    34340.171 
  437100    290.74889   -1556.6266    528.12888    294.90309    697.19237    34340.171 
  437200    308.71762   -1586.0698    527.79388    346.91308    1165.2095    34340.171 
  437300    306.74647   -1566.9598    543.32035     372.5775    684.56211    34340.171 
  437400     294.5813   -1575.2672    515.99779    281.57542    280.10103    34340.171 
  437500    297.76719   -1537.5873    526.67755     344.4362    167.58523    34340.171 
  437600     306.0313   -1514.0996    543.83303    422.69514    247.49539    34340.171 
  437700    302.02229   -1517.2294    523.15421    380.63878    247.07521    34340.171 
  437800    296.10288   -1528.2763    522.51856    342.01288    87.800048    34340.171 
  437900    309.98342   -1564.1129    541.81715    388.65487      965.633    34340.171 
  438000    305.45304    -1559.917    514.89548    345.30816    116.02519    34340.171 
  438100    300.48436    -1561.035    524.03701    330.71582    378.69025    34340.171 
  438200    301.58892   -1562.1921    549.01925     359.5685     180.3465    34340.171 
  438300    297.11933   -1516.1764    493.04698    329.26767    -360.5154    34340.171 
  438400    300.32606   -1500.7555    552.54454    418.78221   -296.92437    34340.171 
  438500    304.90719   -1536.0969    490.62232    342.37055   -44.649769    34340.171 
  438600    293.80665   -1553.9076    524.92097    308.33222   -499.07474    34340.171 
  438700    295.87722   -1594.2442    510.48739    262.98664   -498.43444    34340.171 
  438800    308.51954   -1579.8737    532.54752     356.9613   -285.75307    34340.171 
  438900    298.10718   -1543.3048     524.5054    338.09417    3.3997039    34340.171 
  439000    297.25931   -1540.1462    538.33841    351.22652     171.4735    34340.171 
  439100    306.58639   -1536.5965    534.49859    393.39041    233.88183    34340.171 
  439200    290.58793   -1516.5864    532.89206    338.97389    60.724101    34340.171 
  439300    296.83899   -1556.0756    586.57709    381.62257    215.36772    34340.171 
  439400    298.65234   -1503.9635    538.22185    393.63328   -585.73488    34340.171 
  439500    298.82709   -1533.8708    514.32577    340.62537     302.5207    34340.171 
  439600    300.02819    -1525.193    569.76387    410.20825    13.301319    34340.171 
  439700    287.81517   -1499.4954    555.12087    365.67289   -341.29574    34340.171 
  439800    296.97978   -1522.0703    553.87883    383.57049    243.33381    34340.171 
  439900    304.37038   -1535.5088    515.61136    365.50435   -47.464244    34340.171 
  440000    305.78383   -1542.1472    519.57799    369.26606    744.14848    34340.171 
  440100    303.41672   -1550.4644    525.90038    356.49693    41.947683    34340.171 
  440200    308.94066   -1515.6338    533.24932     423.8198   -311.51209    34340.171 
  440300    299.54508   -1531.0869    536.16666    368.51822    32.201868    34340.171 
  440400    292.42619   -1564.3736    517.98536    284.64711    397.98316    34340.171 
  440500    292.68501   -1563.6789      546.155    314.68954   -181.22804    34340.171 
  440600    303.37103   -1529.5619    542.64432    393.93539   -545.12967    34340.171 
  440700    309.91445   -1511.6154    554.05971    453.08092   -985.50459    34340.171 
  440800    308.01971   -1482.2938    557.94615    477.66467   -391.26366    34340.171 
  440900    310.23131   -1515.3229    524.64765    421.40361   -401.30007    34340.171 
  441000     289.2361   -1535.4257    529.50307    310.59244    55.620668    34340.171 
  441100    302.68886    -1514.565    528.31875     391.5017   -667.74647    34340.171 
  441200    307.19074   -1494.2697    519.87401    423.84346   -920.37251    34340.171 
  441300    303.87239   -1522.5321    540.58029    401.18324   -657.64333    34340.171 
  441400    289.71432   -1522.6565    542.11998    338.15526   -819.56166    34340.171 
  441500    313.30374   -1530.1792    531.60283    427.48731    -713.3643    34340.171 
  441600    307.25392   -1556.2303    537.05055    379.34698   -184.35245    34340.171 
  441700     304.9687   -1528.9711    509.51268     368.6667    -704.9581    34340.171 
  441800    290.38803   -1530.9909    523.45895    314.22632   -431.89377    34340.171 
  441900    289.68451   -1530.3007     561.3435    349.59886     -208.278    34340.171 
  442000    290.54257   -1514.8424    522.99702    330.61634   -252.31789    34340.171 
  442100    308.97449   -1536.7376    534.53735    404.15794    386.86333    34340.171 
  442200    294.12575   -1501.9853    557.07875    393.86473    75.869773    34340.171 
  442300    302.15433   -1494.8081       567.91    448.41679    105.25085    34340.171 
  442400    295.06032    -1490.719    551.03592    403.34205   -797.32034    34340.171 
  442500    297.36141   -1488.3507    535.43283    400.58113   -120.59376    34340.171 
  442600    303.10799   -1517.1039    530.06316    392.61496   -420.48425    34340.171 
  442700     298.0625   -1527.9018    556.16906    384.95745    53.760537    34340.171 
  442800    298.35958   -1534.6089    529.06442    352.49788    -814.5846    34340.171 
  442900     296.8204   -1511.7522    548.73022    388.01454   -106.43287    34340.171 
  443000     299.0513   -1568.0479    521.75232    314.89531   -13.109936    34340.171 
  443100     299.2246   -1539.3652     534.7709    357.38543   -713.84968    34340.171 
  443200    307.47088   -1566.5438    534.27607    367.24659   -981.40712    34340.171 
  443300    306.27557   -1543.3116     513.9277     364.6897   -1073.2554    34340.171 
  443400    297.96557   -1549.5242    509.21227    315.93701   -208.70207    34340.171 
  443500    313.18275   -1540.3693     536.6511    421.79478   -543.79131    34340.171 
  443600     304.0582   -1579.3692    531.12736    335.73893    77.030932    34340.171 
  443700    288.58965   -1539.8429    558.50681    332.23656   -473.94677    34340.171 
  443800    291.69472   -1563.9175    556.91074    320.69922    75.616429    34340.171 
  443900    305.67184   -1579.5264    536.18715    347.98633    16.806959    34340.171 
  444000     299.1888   -1633.6096    537.18737    265.39446    71.560477    34340.171 
  444100    306.16899   -1590.2082    524.12685     327.5071   -77.351108    34340.171 
  444200    307.44668   -1591.3336    535.16163     343.2322   -316.46303    34340.171 
  444300    295.37627   -1568.9377    562.10757    337.63317   -330.32656    34340.171 
  444400    303.49592   -1532.9567    519.76366    368.22842    132.42963    34340.171 
  444500    306.82624   -1570.3768    538.25863    364.46187  -0.25586375    34340.171 
  444600    309.83971   -1528.3139    543.09811    425.08061    483.99116    34340.171 
  444700    303.31602   -1560.7475    561.88796    381.74311    500.81219    34340.171 
  444800    299.82909   -1564.2976    537.24182    337.67538    109.23508    34340.171 
  444900    301.78258   -1544.5693    529.30037    358.35388   -212.42918    34340.171 
  445000    283.80236   -1543.7971    524.61711    272.60228   -616.03446    34340.171 
  445100    307.75939   -1526.1018    535.94483    410.67049   -799.70419    34340.171 
  445200    306.16838   -1542.2087    528.02709    379.40408   -563.51932    34340.171 
  445300    296.92364   -1527.1529    558.88652    383.24006   -636.58106    34340.171 
  445400     303.4911   -1544.7532     529.6361    366.28244    302.27517    34340.171 
  445500    296.71739   -1592.8175    508.92188    266.67206    305.32334    34340.171 
  445600     299.9936   -1566.3868    505.05505    304.14818    109.76217    34340.171 
  445700    297.83854   -1547.2224    558.92515     367.3735   -213.45301    34340.171 
  445800    295.76935   -1532.5006    552.25812    366.00998   -121.89869    34340.171 
  445900    294.75533   -1520.8503    532.43723    353.22391    573.79215    34340.171 
  446000     310.0794   -1507.7996    556.57263    460.16052    350.17792    34340.171 
  446100    294.41016   -1530.9959    521.25772    330.32766   -286.42667    34340.171 
  446200    295.22756   -1504.8094    521.63077     360.6078   -503.98804    34340.171 
  446300    291.72606   -1493.8424    545.23731    379.24351   -308.64392    34340.171 
  446400    292.71768   -1495.1908    527.19834    364.36971   -597.56657    34340.171 
  446500    302.33872   -1528.8308    536.11081    383.43427   -742.26064    34340.171 
  446600    301.24808   -1534.4235    513.96693    350.73346   -576.59833    34340.171 
  446700    296.59117   -1530.0009    504.16052    324.15279   -122.08154    34340.171 
  446800     300.5191   -1514.5827    526.36196    379.65118   -311.67751    34340.171 
  446900    312.73689   -1525.8805    513.13418    410.73726   -82.980829    34340.171 
  447000    296.94466   -1564.2807    511.57466    298.89609    241.87063    34340.171 
  447100     297.6353   -1543.1364    538.82245    350.43168    161.43536    34340.171 
  447200    292.01845   -1507.9024    529.09806    350.37511    394.82908    34340.171 
  447300    310.68734   -1522.0295    533.05411    425.17921    296.96427    34340.171 
  447400    294.88185   -1508.8599    528.15451    361.50741    89.708837    34340.171 
  447500     297.4888   -1511.9149    507.29218    349.45614    179.20123    34340.171 
  447600     304.5985   -1487.9949    550.99332    449.43852    227.97178    34340.171 
  447700     290.4907   -1522.1406     530.2294    330.31446   -190.78363    34340.171 
  447800    309.22781   -1509.4847    541.97372    440.00033    510.78913    34340.171 
  447900    302.03251   -1563.8901    541.42041    352.29077    23.114101    34340.171 
  448000    301.90952   -1536.7318    515.02984    352.49873    10.170824    34340.171 
  448100    297.67453   -1532.5809     522.7137    345.05704    682.31145    34340.171 
  448200    291.37561   -1539.9006    494.37024    280.72318   -241.80959    34340.171 
  448300    282.05303    -1516.126    546.72928    314.42322   -587.46263    34340.171 
  448400    296.58286   -1528.5642    552.93925    374.33032   -222.82015    34340.171 
  448500    299.53256   -1529.9447    553.58289    387.01959    61.061439    34340.171 
  448600    290.46486     -1524.89    531.99496    329.21297   -157.08381    34340.171 
  448700    305.00951   -1563.3816    547.40486    372.33407    61.699122    34340.171 
  448800     295.1447   -1576.0175    520.33792    287.72968    1070.3242    34340.171 
  448900    309.29719   -1536.7782    513.45626    384.50516      1407.54    34340.171 
  449000    296.40751   -1564.1554    539.55049    324.55222     1175.091    34340.171 
  449100    300.29395   -1546.9116    540.93133    360.86677    1133.9542    34340.171 
  449200    315.86732   -1502.1644    554.01576     489.5837    527.58754    34340.171 
  449300     298.4036   -1497.4264    538.56282     399.3792   -405.78252    34340.171 
  449400    295.47054   -1500.4048    530.45126    374.93882    -74.39386    34340.171 
  449500    292.91659   -1525.2201    519.86368    327.91116   -510.67505    34340.171 
  449600    307.54687    -1518.992     537.3295    418.19765   -427.12749    34340.171 
  449700    309.05563   -1508.0429    542.25875    440.94349   -573.12948    34340.171 
  449800    299.02718   -1507.8608    531.76025    384.98059   -796.88487    34340.171 
  449900    296.07509   -1531.4467    524.92083    341.11822   -471.45194    34340.171 
  450000    299.43248   -1541.5374     515.8613     337.2498   -308.02013    34340.171 
  450100    298.97835   -1556.0075    516.69366    321.54503   -248.70514    34340.171 
  450200    312.10351     -1534.59    571.67856    457.68916   -674.13975    34340.171 
  450300    292.92793   -1537.9754    494.95248    290.29624   -625.80158    34340.171 
  450400    309.49648   -1484.9552    535.41617    459.19514   -23.808245    34340.171 
  450500    301.37049   -1548.9373    528.46534    351.27518    293.66861    34340.171 
  450600     302.0461   -1532.9035    525.19458    367.11335    811.73476    34340.171 
  450700    303.01802   -1562.7845    508.09023    324.55188    643.30961    34340.171 
  450800     299.9441   -1559.1175    561.39072    367.52785    813.29962    34340.171 
  450900    292.58335   -1537.2254    525.86625    320.39159    268.39022    34340.171 
  451000    298.17355   -1563.4421    526.47145    320.22499   -271.33973    34340.171 
  451100    307.41398   -1534.2917    526.89654    391.86006    183.84038    34340.171 
  451200    298.45164   -1568.0255    546.36792    336.80379    410.35683    34340.171 
  451300    308.17288   -1585.8287    502.72684    319.60768    86.611733    34340.171 
  451400    289.70533   -1529.8491    513.85435    302.65608    192.73634    34340.171 
  451500    307.27281   -1569.1445    514.86119    344.32942    -108.1012    34340.171 
  451600    288.76416   -1541.8947    523.78069    296.25299   -810.09617    34340.171 
  451700    295.27567   -1587.9807    512.91505     268.9397   -797.47689    34340.171 
  451800    295.45991   -1615.9484    505.80713    234.70271    291.29428    34340.171 
  451900    301.83691   -1536.1251    552.64202    390.38706    592.47964    34340.171 
  452000    305.69182   -1544.9605    533.52687    379.98296    738.75448    34340.171 
  452100    289.01202   -1575.2262    530.97148    271.24034     480.3484    34340.171 
  452200    301.93703   -1613.0716    509.19381    270.44811    -69.51458    34340.171 
  452300    300.91859   -1584.1259      533.497    319.06134     269.4732    34340.171 
  452400    301.88807   -1590.5099     511.3395    294.93265   -107.99717    34340.171 
  452500     287.1558   -1597.0646    517.89398    227.87559     108.7508    34340.171 
  452600    304.08716   -1534.7396    523.26521    372.63821   -261.64201    34340.171 
  452700     304.7978   -1595.4256    514.91526     306.8369    789.49561    34340.171 
  452800    296.68798   -1606.5006    507.82736    251.76056    104.58241    34340.171 
  452900    302.42874   -1592.8469    513.94224    297.65928    455.52766    34340.171 
  453000    296.67387   -1579.9648    511.62328    282.02799     45.14185    34340.171 
  453100    310.02745   -1534.1532    533.01548    410.01329    21.835138    34340.171 
  453200    300.15191   -1595.5336    545.99408    316.66098    434.93144    34340.171 
  453300    305.09199   -1552.4415    534.69714    370.94198    149.63475    34340.171 
  453400    298.12082   -1543.8108    520.17639    333.32122    11.603206    34340.171 
  453500    301.04301   -1551.8305    526.42429    344.85031    259.34216    34340.171 
  453600    302.52947   -1557.4436    552.45284     372.0317    397.67622    34340.171 
  453700    308.68087    -1565.188    522.55924    362.39297    295.72614    34340.171 
  453800    290.87977   -1518.1816    571.42713    377.24208    451.37223    34340.171 
  453900    297.93492   -1524.1656    521.62338    353.56722    191.67224    34340.171 
  454000     294.6548   -1532.8627    531.30695    339.62356     317.0417    34340.171 
  454100    291.76475   -1523.6798     538.0839    342.42882    169.17877    34340.171 
  454200     294.8082   -1537.7945    537.81137    341.89441    4.7294111    34340.171 
  454300     292.3229   -1556.7616    537.95838    311.76206    183.47682    34340.171 
  454400    306.06931   -1539.1944    537.45742    391.39773   -924.63228    34340.171 
  454500    298.12364     -1523.22    532.81899    366.56743   -28.799565    34340.171 
  454600    304.09297   -1543.0221    523.91581    365.03272    -415.2794    34340.171 
  454700    299.28909   -1569.1874    528.22848    321.31427   -403.48976    34340.171 
  454800    294.19666    -1529.306    516.35316    326.14113   -485.03215    34340.171 
  454900    308.83208   -1542.5357    516.40169    379.57604   -59.311237    34340.171 
  455000    306.61227    -1537.557    545.81804    403.86715    7.4185271    34340.171 
  455100    303.77138   -1535.8198    527.36194    374.21744    517.27312    34340.171 
  455200    304.30411   -1536.8848    526.74008    374.95539   -23.718329    34340.171 
  455300    292.67824   -1494.1531    533.04743    371.07699    228.36331    34340.171 
  455400     308.1757   -1488.8653    561.36638    475.22346    502.45527    34340.171 
  455500    305.55963   -1557.1402     532.4008    366.07544    222.54769    34340.171 
  455600    301.93741   -1534.0996    557.38346    397.61144   -576.73681    34340.171 
  455700    298.00446   -1554.6103    547.47718     349.2929    -610.1695    34340.171 
  455800    299.81038   -1516.8505    533.23955    381.03505    180.68387    34340.171 
  455900    296.13807    -1498.777    539.24184    388.39554   -96.901722    34340.171 
  456000    298.06832   -1552.2799    522.45255    326.88929    296.05203    34340.171 
  456100    308.17198   -1546.0182    545.08872    401.77601   -164.47252    34340.171 
  456200    299.11485   -1499.4884    511.82548     373.8172     165.3054    34340.171 
  456300    297.10056   -1538.6838    543.10473    356.73262   -462.93556    34340.171 
  456400    292.09268   -1527.9284    554.42429     356.0132   -352.40493    34340.171 
  456500    292.28211   -1546.0336    535.78909    320.13502   -389.20852    34340.171 
  456600    297.30131   -1495.7145    535.96009    393.47107    28.092481    34340.171 
  456700    308.54125   -1529.1713    533.28444    408.49946    208.65565    34340.171 
  456800     298.1001   -1537.3196    529.43515    348.97686   -12.974451    34340.171 
  456900    294.89658   -1498.6321    536.68702    380.33477    478.42549    34340.171 
  457000    296.48729   -1480.3595    542.41128    411.57205    268.28256    34340.171 
  457100    298.60825   -1496.3881     547.7952    410.58139   -136.11101    34340.171 
  457200    301.33412   -1513.5921    529.49958     387.4891    474.82628    34340.171 
  457300    292.15598   -1523.0467    524.88882    331.64762    341.44045    34340.171 
  457400     301.3062   -1524.0647     518.7702    366.16001    278.34392    34340.171 
  457500    308.72978   -1507.7009    546.78603    444.32951    717.89213    34340.171 
  457600    302.82197   -1532.6651    520.25898    365.94772    588.66672    34340.171 
  457700    298.23374   -1512.9087    535.18586    379.74672    603.97614    34340.171 
  457800    302.77772   -1516.5932    524.96205    386.52128    622.72325    34340.171 
  457900    312.82134   -1536.0833    544.01044    431.79508    329.76336    34340.171 
  458000    309.53432   -1525.7734    515.34198    398.47498    568.40974    34340.171 
  458100    297.94121   -1516.1303    545.70566    385.71345   -133.15275    34340.171 
  458200    310.56395   -1500.2498    526.96298    440.30613   -1.9932727    34340.171 
  458300    294.01158   -1467.0894    534.72753    405.88968     523.7788    34340.171 
  458400     309.4736   -1510.9933    522.61937     420.2561   -62.670061    34340.171 
  458500    306.78137   -1509.4063    532.59456    419.56405    149.47538    34340.171 
  458600    297.35153   -1496.4706    532.68161    389.66505    829.09275    34340.171 
  458700    304.19945   -1557.4433     560.8419    388.02234    541.35466    34340.171 
  458800    302.94295    -1524.267    521.06198    375.69949    897.72518    34340.171 
  458900    311.20668   -1527.3073    538.46972    427.68087    215.97707    34340.171 
  459000    305.93307   -1552.3582    516.68015    356.83656    597.13006    34340.171 
  459100    296.68244   -1525.8714    541.10852    365.64566     314.0578    34340.171 
  459200    312.50592   -1572.0943    542.73178    393.06967    1349.9252    34340.171 
  459300    302.67212   -1547.2746     548.4616     378.8588    726.94889    34340.171 
  459400    295.28594   -1549.0302    496.54844    291.57035     378.2098    34340.171 
  459500    291.37883   -1586.1203    531.01373    271.16159    640.28172    34340.171 
  459600    291.70465   -1595.8274    530.74288    262.66666    267.86757    34340.171 
  459700     294.7031   -1553.1258     557.8109    346.08432   -40.145093    34340.171 
  459800    299.50935   -1544.2723    522.63969    341.64318   -120.09079    34340.171 
  459900     297.0138   -1562.3089    520.49791    310.10578   -45.421183    34340.171 
  460000    289.81099   -1534.8521    558.12234    342.40199   -343.25972    34340.171 
  460100    303.53609   -1547.6558    529.17583    363.12435   -36.145023    34340.171 
  460200    303.32434   -1549.4172    514.00675    345.23001    407.47639    34340.171 
  460300    292.65938   -1549.4641    550.94396    333.57667   -239.26504    34340.171 
  460400    305.12169   -1521.0507    551.74033    419.51113   -268.69879    34340.171 
  460500    297.46162   -1523.3462    540.75188     371.3608   -844.83543    34340.171 
  460600    298.92489   -1513.2697    559.48643    406.83222   -246.95829    34340.171 
  460700    291.79053   -1549.2806    519.40205    298.26352   -916.59069    34340.171 
  460800    302.33806   -1547.3857    526.21632    354.98189   -353.05609    34340.171 
  460900    299.10997   -1542.4233    532.89442    351.92902   -513.62618    34340.171 
  461000    306.44394   -1523.3411    519.15423    390.65312   -257.23618    34340.171 
  461100    288.55052   -1564.2004    541.00615    290.20027   -612.11134    34340.171 
  461200    290.24575   -1542.1756    550.26111    329.19615    -19.44656    34340.171 
  461300    303.87855   -1513.9344    528.27354    397.50226   -192.40788    34340.171 
  461400     302.4716   -1557.9756    560.00168    378.78514   -405.92671    34340.171 
  461500    303.37214   -1538.3253    521.93256    364.46529    407.31089    34340.171 
  461600    305.43996   -1543.9932    521.13579     367.4127    284.04447    34340.171 
  461700    297.50089   -1535.8383    520.51715    338.81275   -775.30271    34340.171 
  461800    298.11159     -1467.81    563.45099     452.5546    90.300081    34340.171 
  461900    297.58542   -1504.1105    523.76869    374.17685   -118.66757    34340.171 
  462000    296.92926    -1533.282    551.55664    369.80661    66.116636    34340.171 
  462100     296.6277   -1531.0571    553.03686     372.1392    28.707472    34340.171 
  462200    298.00331   -1509.8591    552.38516    398.94678    55.322858    34340.171 
  462300    311.63636   -1549.6702    549.09631    417.90034    46.881019    34340.171 
  462400    308.75161   -1545.5631    524.19061    383.97126    492.40546    34340.171 
  462500    299.02317   -1526.3808    548.88687    383.56889    49.280316    34340.171 
  462600    285.30935   -1525.1501    555.09257    328.58417   -281.13988    34340.171 
  462700    305.34225   -1510.6601    560.93574    440.10105    91.797325    34340.171 
  462800    302.56826   -1520.6363    540.35625      396.919   -1009.4886    34340.171 
  462900    310.71602   -1510.9361    547.62991    450.97894   -787.03965    34340.171 
  463000    290.48737   -1557.6767    556.29872    320.83247   -481.15519    34340.171 
  463100    298.10267    -1513.272    508.38067    351.98167   -266.54065    34340.171 
  463200    303.70171   -1521.7555     534.6694    395.27209   -522.25959    34340.171 
  463300    308.94113   -1515.2431    515.54964    406.51298   -396.73371    34340.171 
  463400    306.94294   -1466.2047    551.52976    482.43628   -579.58728    34340.171 
  463500    297.43727   -1491.1226    577.43587    440.15755    24.989002    34340.171 
  463600     299.9725   -1485.6831    570.95823    450.65909   -460.29723    34340.171 
  463700    294.72716   -1479.7907    543.76172    405.47978   -234.47943    34340.171 
  463800    293.21331   -1534.4849    533.55331    333.68655   -231.66414    34340.171 
  463900    295.33724   -1484.8685    559.55397    418.97111   -292.03923    34340.171 
  464000    294.01506   -1504.2338    557.82535    391.85903   -302.73992    34340.171 
  464100    299.98519   -1518.0178    558.36389    405.78778    84.223644    34340.171 
  464200    298.40297   -1541.4828    558.81613    375.57318    103.55528    34340.171 
  464300    295.49914   -1590.8432    533.55443    287.73377    -66.51078    34340.171 
  464400    303.06081   -1632.5134    531.34357    278.27119    545.25094    34340.171 
  464500    305.45116   -1603.0321    571.54672    358.83572    1270.2951    34340.171 
  464600    307.42216   -1550.1512    546.19998    395.34128    526.45833    34340.171 
  464700    292.57205   -1587.9546    529.48479    273.22955    903.47711    34340.171 
  464800    302.45281   -1636.2213    530.24358    270.69575    333.74559    34340.171 
  464900    288.60518    -1609.728    552.87117    256.78651   -502.98431    34340.171 
  465000    291.94417   -1603.6035     510.5703    235.80815   -401.27581    34340.171 
  465100    294.54413    -1599.714    543.13134    284.09299    -625.5861    34340.171 
  465200    303.10033   -1540.3106    554.09679    393.40701   -685.55817    34340.171 
  465300     295.8824   -1531.3396    528.98406    344.41154   -815.30024    34340.171 
  465400    306.77613   -1539.8618    529.76736    386.25757   -1008.9855    34340.171 
  465500    309.52835    -1565.807    536.38171    379.45397   -399.79127    34340.171 
  465600     288.5764   -1552.7814    535.02258    295.75351   -682.18568    34340.171 
  465700    308.74398    -1595.413    551.71095    361.60694   -133.19064    34340.171 
  465800     300.4337   -1566.7977    572.46212    373.14754   -94.017862    34340.171 
  465900    302.30697   -1553.8282    544.51379    366.69526    332.41486    34340.171 
  466000    306.98216   -1565.1778    550.32992    382.44191    338.73807    34340.171 
  466100    309.70024   -1559.5388    540.37476    390.49762    611.09947    34340.171 
  466200    311.37314   -1614.5174    545.62119    348.37999    1693.6109    34340.171 
  466300    297.86985   -1603.9339    541.21776    293.09717    710.70897    34340.171 
  466400    309.07765   -1581.9733    543.27718    368.13162    825.55014    34340.171 
  466500    295.90357   -1558.7739    549.40186    337.49135   -131.32795    34340.171 
  466600    302.05716   -1583.0241    540.87366    332.72224    7.3935952    34340.171 
  466700     304.4445   -1551.6146    538.19796    372.32244   -7.2058223    34340.171 
  466800    286.35768   -1519.8254    539.49938     323.0873   -581.76574    34340.171 
  466900     301.8672   -1543.7254    566.17379    396.45641     -539.328    34340.171 
  467000    302.26787   -1560.5778    533.85478    349.10871   -60.040668    34340.171 
  467100    303.29995    -1522.496    548.55855    406.59196    154.31887    34340.171 
  467200    316.52201   -1571.8219    532.60696    401.49733   -356.59959    34340.171 
  467300    309.71425   -1520.1523    549.36933    438.94248   -61.990005    34340.171 
  467400    302.44573   -1571.9978    535.84983     340.4933    26.965286    34340.171 
  467500    292.71934   -1573.6097    528.22171    286.98178   -327.48776    34340.171 
  467600    298.54853   -1602.4451    516.72459    273.18189    95.718271    34340.171 
  467700    305.55432   -1555.9354    539.80715    374.66241   -82.158645    34340.171 
  467800    302.38608   -1569.5538    533.69007    340.50607    58.256905    34340.171 
  467900    294.78689   -1626.3146    535.99003    251.45599    387.14986    34340.171 
  468000    296.36345   -1604.7181    523.65101    267.88948    290.87261    34340.171 
  468100    305.17091   -1576.7221    574.67494    386.99836    543.85185    34340.171 
  468200    296.21361   -1577.8062    523.79234    294.26072    362.57162    34340.171 
  468300    297.64075   -1569.8636    544.04303    328.94992     113.7008    34340.171 
  468400    296.27552   -1534.3231    542.02596    356.25921    417.91983    34340.171 
  468500    302.99117   -1577.0641    520.13791    322.19784    594.79108    34340.171 
  468600    307.16559   -1541.8807    533.59292     389.8369   -157.99789    34340.171 
  468700    292.14737   -1546.7562     543.8176    326.82775   -38.808915    34340.171 
  468800    303.89486   -1530.6741    539.68701    392.25026   -632.16776    34340.171 
  468900    307.56983   -1529.2192    522.99796    393.74345   -328.34044    34340.171 
  469000    305.64545   -1517.8743    546.93362    420.26481   -478.55134    34340.171 
  469100     299.9969    -1486.773    574.89617    453.61819   -456.60908    34340.171 
  469200    299.60755   -1548.6974    531.45026    346.47566   -647.07025    34340.171 
  469300    295.57063   -1563.1715    524.45876    306.63521   -299.27591    34340.171 
  469400    299.78912   -1547.7444    540.55745    357.36232   -56.094125    34340.171 
  469500    300.62505   -1565.4848    531.66411    334.53344   -828.47896    34340.171 
  469600    308.00441   -1519.1401    526.04128    408.84392       -464.5    34340.171 
  469700    300.02451   -1517.0491    555.11127    403.68285   -876.64067    34340.171 
  469800    310.28725    -1520.643    526.68781    418.37831   -893.06964    34340.171 
  469900    302.72981   -1576.2972    531.92658    333.56376    -557.1244    34340.171 
  470000    302.77956   -1533.0882    526.23386     371.3064   -466.07674    34340.171 
  470100    304.04407   -1540.9213    545.02146    388.01659   -244.73501    34340.171 
  470200    297.24328   -1578.4089    540.96161    315.51408   -296.05448    34340.171 
  470300    296.13887   -1588.5464    561.42529    320.81332    280.05099    34340.171 
  470400    318.45363   -1568.9966    516.14082    396.64865    610.01688    34340.171 
  470500     295.0633   -1554.2479    541.57788    330.36867    1128.2792    34340.171 
  470600    290.47799   -1562.9066    541.59946    300.86062    253.83677    34340.171 
  470700    301.10869   -1533.9499    542.24309    378.84865    179.79735    34340.171 
  470800    299.96677   -1534.3925    545.13301    376.09833    447.18403    34340.171 
  470900     317.2944   -1547.2448    529.76113    426.74425    -359.9632    34340.171 
  471000    292.01942   -1537.8895    540.31121    331.60563   -374.27712    34340.171 
  471100    297.91138   -1554.4549     526.5403    328.08777   -105.19114    34340.171 
  471200    291.08909   -1519.7119    527.06303    332.30042    52.597356    34340.171 
  471300    304.39334   -1538.8955    540.39687    387.00761    315.88478    34340.171 
  471400    287.27153   -1495.2146    548.94222    361.30058    71.756726    34340.171 
  471500    293.74903   -1515.7162    559.93711    381.27747   -32.272864    34340.171 
  471600    304.24679   -1507.1308    532.03811    409.74653   -189.29414    34340.171 
  471700    311.74001   -1534.9833    519.68017    403.64291      -68.035    34340.171 
  471800    295.85944   -1538.5048    524.34155    332.49923   -138.19429    34340.171 
  471900    298.42644    -1533.729    544.34255    368.96029   -35.389125    34340.171 
  472000    301.41246   -1528.6687    553.79077    397.06028   -827.69079    34340.171 
  472100    310.63173   -1539.5902    558.32849    432.63978   -209.77391    34340.171 
  472200    302.63723   -1580.0599    519.81728    317.27036    19.789069    34340.171 
  472300    297.17601   -1578.1482     548.6937    323.20068    253.71299    34340.171 
  472400    292.91947   -1570.0481    524.40278    287.63532     389.4027    34340.171 
  472500    304.49711   -1568.8764    526.81498    343.91713   -461.55547    34340.171 
  472600    300.90022   -1555.9439    511.97328    325.63599   -645.34418    34340.171 
  472700    298.83011   -1523.9335    548.45824    384.70885   -443.84453    34340.171 
  472800    308.63958   -1533.0366    535.22567    407.02287     576.5395    34340.171 
  472900    308.07445   -1544.0187    546.78013    405.02297    567.27421    34340.171 
  473000    291.21238   -1539.4051    542.58279    328.68816    554.01944    34340.171 
  473100    294.05651   -1565.6379    512.67004     285.4883    1246.5917    34340.171 
  473200    299.61128     -1521.27     558.3722    400.84195      542.095    34340.171 
  473300    304.45198   -1551.9617    544.16969    377.98113    338.03537    34340.171 
  473400    300.31757   -1570.9169    521.62322    317.66089    221.69813    34340.171 
  473500    306.80549   -1557.5687    551.51996    390.43691   -476.09725    34340.171 
  473600    302.25342   -1543.7505    539.10226    371.11772     -227.775    34340.171 
  473700    303.84546   -1553.3519     534.4458    364.10638   -629.84893    34340.171 
  473800     301.9358   -1508.0662    552.27806    418.53209   -448.90506    34340.171 
  473900     291.8174   -1575.6804     540.7636    293.34755   -426.98803    34340.171 
  474000    303.66171   -1527.7252    547.17741    401.62834   -253.79315    34340.171 
  474100     307.3123   -1541.9215    542.51538    399.38635   -241.35122    34340.171 
  474200    303.50381   -1523.3329    525.89743    384.02192      2.99361    34340.171 
  474300    288.07949   -1553.2165    530.85375    288.88776    442.07755    34340.171 
  474400    295.57958   -1546.2469    562.89361     362.0354     832.6379    34340.171 
  474500    291.54846   -1549.5691    539.02234    316.49345    23.237999    34340.171 
  474600    293.02701   -1559.9303    543.61813    317.45797    364.88998    34340.171 
  474700     300.2133   -1548.4359    513.62074    331.66476    439.52151    34340.171 
  474800    296.48984   -1537.5042     547.2867    359.31438    748.59003    34340.171 
  474900    298.63691   -1532.0178    530.14354    357.43043    723.95839    34340.171 
  475000    299.87967   -1530.3147    563.54921    398.19588    37.954848    34340.171 
  475100    295.51482   -1489.5208    538.11244    393.68552    190.95608    34340.171 
  475200    311.01232   -1548.6369    566.04687    433.04378    384.38843    34340.171 
  475300    298.08768   -1537.9327    541.52137    360.39345     28.48642    34340.171 
  475400    295.03023   -1526.5879    549.33516    365.63542   -479.83213    34340.171 
  475500    307.34297   -1537.1486    554.33881    416.12223    -823.7529    34340.171 
  475600    308.37115   -1564.9218    537.62885     376.3191   -1149.4586    34340.171 
  475700    301.82788    -1523.467    529.61501    379.97701    -244.4137    34340.171 
  475800    301.94752   -1476.1884    555.36918    453.55439   -650.75018    34340.171 
  475900    301.40594   -1490.1291    508.14936    389.92874   -70.629289    34340.171 
  476000    316.10158   -1524.0453    558.75987    473.51312   -120.37626    34340.171 
  476100    297.52068   -1521.0319    542.63999    375.83208    -291.3808    34340.171 
  476200    290.43121    -1542.504    559.37233    338.82322   -112.77472    34340.171 
  476300    299.46853   -1548.2561    543.05439    357.88826   -216.99002    34340.171 
  476400    300.89938   -1550.7634    523.52615    342.36551    -130.9951    34340.171 
  476500    303.24475   -1553.0713    542.53333     369.7402    165.72667    34340.171 
  476600    299.66001    -1556.357    511.22122    318.82575   -246.97209    34340.171 
  476700    295.09124   -1538.6756    508.39619    312.88647    88.250185    34340.171 
  476800    305.85407   -1522.1711    562.00284    431.98678    729.66386    34340.171 
  476900    296.85351   -1508.3089    558.15979    401.03811    292.02034    34340.171 
  477000    297.97641   -1509.9218    554.65262     401.0292    651.69666    34340.171 
  477100    310.90674   -1496.4636    568.47606    487.16568    1241.4512    34340.171 
  477200    297.81952   -1532.4684    570.61352    393.72931    722.98749    34340.171 
  477300    291.55144   -1541.5025     546.7519    332.30317    565.29141    34340.171 
  477400    301.35017   -1519.9446    540.45692    392.16692    464.74819    34340.171 
  477500    300.21595   -1526.7998    528.20447    367.89663    569.92537    34340.171 
  477600    307.29816   -1545.9342    523.28895    376.08284    89.698886    34340.171 
  477700    293.63963   -1557.1437    544.09648     323.5114    404.79065    34340.171 
  477800     287.5556   -1499.7094    562.50389    371.66042    293.70379    34340.171 
  477900    292.46102    -1526.722    510.46906    314.94105    636.55296    34340.171 
  478000    313.19732   -1551.5642    514.91789    388.93291    192.20395    34340.171 
  478100    306.73404   -1510.0521    518.43206    404.54038   -384.43286    34340.171 
  478200    288.76299   -1545.9703    540.42744    308.81873   -1067.4712    34340.171 
  478300    298.84293   -1541.3847    525.88235    344.74007    -524.2159    34340.171 
  478400     298.2332   -1552.9408    516.98036    321.50668   -41.241876    34340.171 
  478500    302.59463   -1546.7832    558.77352    389.30942   -339.96889    34340.171 
  478600    299.91038   -1557.9735    508.95923    316.08689   -370.73774    34340.171 
  478700    307.28429   -1528.0173    544.10727    414.75493    -571.6102    34340.171 
  478800    290.62037   -1523.7652    516.52815    315.57881   -836.52706    34340.171 
  478900     299.2989   -1515.5406    527.79433    374.57165   -818.09503    34340.171 
  479000    307.20764   -1544.7729    529.17857    382.72178   -274.55947    34340.171 
  479100    296.04425   -1573.1682    532.04264    306.37812   -91.375173    34340.171 
  479200    298.80234    -1530.872    518.37669    347.56239    438.32778    34340.171 
  479300    295.43024   -1547.9058    524.80587    321.60902   -9.0478794    34340.171 
  479400    294.48395   -1536.1055    526.59462    330.89079   -115.73619    34340.171 
  479500    303.79836   -1495.4149    532.26821    419.65135    179.53021    34340.171 
  479600    309.31638   -1523.3339     535.4133    419.99383   -17.470528    34340.171 
  479700    305.64249   -1531.1575    529.81102    389.84551   -473.84271    34340.171 
  479800     300.5108    -1547.725    543.82757    363.93668    -112.6456    34340.171 
  479900    296.77534   -1526.3335    534.98596    359.48385    318.61751    34340.171 
  480000    304.44841   -1553.6715    539.80137    371.88676    817.49208    34340.171 
  480100    296.19072   -1564.8885    525.09391    308.37577    967.35134    34340.171 
  480200    304.27745   -1516.7812    570.04402    438.24153    684.51321    34340.171 
  480300    298.49686   -1552.1203     522.3527    328.89964    257.40321    34340.171 
  480400    290.85591   -1527.3989    528.85231    325.34137    46.155666    34340.171 
  480500     299.6652   -1512.1163    521.69149    373.56039    352.09285    34340.171 
  480600     308.3986   -1489.1392    527.14254    441.74026   -665.35029    34340.171 
  480700    303.40961   -1551.6657    519.97322    349.33617   -205.98288    34340.171 
  480800    300.85171   -1540.1474    527.76798    357.00633   -267.23182    34340.171 
  480900     305.1989   -1535.0404    521.39092    375.52343   -607.47389    34340.171 
  481000    304.43956   -1552.4862    529.64482    362.87526   -342.31577    34340.171 
  481100    295.62594   -1561.7627    541.13275    324.96979   -490.45743    34340.171 
  481200    308.22098   -1546.8348    540.23175    396.32546   -159.55611    34340.171 
  481300    297.08398   -1538.3957    527.76067    341.60116   -123.29163    34340.171 
  481400    300.48701   -1552.3223    538.50792    353.91144   -100.81182    34340.171 
  481500    291.60423   -1507.9972    532.43095    351.72781   -1053.1519    34340.171 
  481600    299.70718   -1548.8284    509.12265    324.47046   -879.44038    34340.171 
  481700    293.24463   -1514.9797    522.62368    342.40467   -166.09265    34340.171 
  481800    291.56244   -1511.6662    554.88399     370.3217   -660.14784    34340.171 
  481900     314.7893   -1531.3231    512.18144    413.68383    17.311189    34340.171 
  482000    295.31533   -1533.9708    524.75279    334.96786   -226.50845    34340.171 
  482100    289.98398    -1534.315    534.15222    319.75639    39.450577    34340.171 
  482200    306.51378   -1529.0929    523.97238    390.03728    543.94556    34340.171 
  482300    296.02832   -1559.7673    536.37391    324.03775    458.97775    34340.171 
  482400    291.10858   -1571.3919    534.08369    287.72979    572.48093    34340.171 
  482500    295.73126   -1550.7228    521.21632    316.57258   -37.494714    34340.171 
  482600    302.78459   -1561.2562    537.73202    354.65955   -492.42294    34340.171 
  482700     300.5181   -1572.4705    523.01887    318.41566   -690.60124    34340.171 
  482800    302.97514   -1488.8674    537.03757    427.22119    333.08035    34340.171 
  482900    299.83889   -1538.6342    522.42206    348.56366   -267.58011    34340.171 
  483000     296.1387   -1501.4391    505.76726    352.26177   -498.78179    34340.171 
  483100    300.85663   -1509.1757    508.11752    368.35003    -142.4329    34340.171 
  483200    293.79072   -1484.4627    550.61085     403.3945   -619.86735    34340.171 
  483300    291.00151   -1506.1715    551.74016     370.1193   -758.68994    34340.171 
  483400    303.00997   -1510.2398    535.16964    404.13937     145.1677    34340.171 
  483500    297.49061   -1510.5408    545.92216    389.46849    73.698114    34340.171 
  483600    296.17015   -1487.2486    506.72999    367.55815   -42.460766    34340.171 
  483700    308.66671   -1482.5816     536.7744    459.15015   -422.26583    34340.171 
  483800    293.89301   -1512.2929    552.94717    378.36616   -471.58524    34340.171 
  483900     294.5081   -1494.4316    531.10173    377.18176   -401.92184    34340.171 
  484000    289.16942   -1437.6955    556.95495      435.471   -215.59552    34340.171 
  484100    295.30392   -1446.8981    523.72654    420.96239   -758.88138    34340.171 
  484200    300.30596   -1446.1654    536.62583    457.36213   -48.549714    34340.171 
  484300    301.11336    -1503.583    558.35034    425.34408   -801.17509    34340.171 
  484400    295.61204   -1494.9354    531.96041    382.56142   -458.48691    34340.171 
  484500    304.15786   -1504.7481    508.74475    388.43108   -581.17804    34340.171 
  484600    298.80987   -1511.8568    536.07218    384.30742   -414.72816    34340.171 
  484700    308.58776   -1527.4802    535.29457    412.41231    200.53758    34340.171 
  484800    297.28952   -1517.5971    531.28912    366.86378    928.33771    34340.171 
  484900    316.01771   -1571.8519    530.76697    397.33195    175.51861    34340.171 
  485000    309.13161    -1594.245    528.16707    340.99547    673.78887    34340.171 
  485100     308.7006   -1573.8364    540.80633    372.08151    265.32116    34340.171 
  485200    300.87345   -1555.7054     531.4601    345.23951    33.458648    34340.171 
  485300     295.8658   -1568.3068    514.73994     293.1246   -101.95522    34340.171 
  485400    309.55659   -1558.5823    552.23848    402.66396   -592.32309    34340.171 
  485500    295.91583   -1599.4154    504.12019    251.62398   -868.30485    34340.171 
  485600    297.66856   -1538.8393     533.5381    349.59581   -1116.6125    34340.171 
  485700    291.32423   -1555.4563    537.83478    308.39812   -512.71532    34340.171 
  485800    290.10522   -1572.7686    526.70147    274.40394   -162.16428    34340.171 
  485900    295.01487   -1577.7335    515.56827    280.65301   -483.84758    34340.171 
  486000    297.23695   -1559.7896    530.72925    323.87215   -571.19064    34340.171 
  486100    301.41193   -1610.1489    550.07189    311.85875   -921.91928    34340.171 
  486200    299.24261   -1562.4046     553.9527    353.60977    382.90961    34340.171 
  486300    295.74628   -1528.0345    529.25861    347.37153    763.37588    34340.171 
  486400    305.65177   -1538.9663     560.1169    412.38481    1055.5511    34340.171 
  486500    300.45409   -1525.9362    559.99914    401.63897    1185.5669    34340.171 
  486600    302.14776   -1570.9437    515.06423    319.40561    450.99896    34340.171 
  486700    302.84238     -1535.93    546.98408    389.50082    411.22319    34340.171 
  486800    293.34579   -1553.9984    526.00868    307.23143   -104.49347    34340.171 
  486900    303.45588   -1551.9115     514.6926    344.02025    332.77499    34340.171 
  487000    295.05434   -1515.8934    546.25679     373.3613    51.330878    34340.171 
  487100    289.57065   -1565.6025    517.45457    269.88997    -127.8257    34340.171 
  487200    307.05157   -1516.7294    545.78115    426.65741    352.82244    34340.171 
  487300    301.58108   -1564.0846    517.24562    325.86677    155.00483    34340.171 
  487400    296.56042    -1525.032    544.47034    369.29152    415.75676    34340.171 
  487500    304.38404   -1510.7612    531.59102    406.29369   -210.62345    34340.171 
  487600    308.27105   -1524.9691    580.47327    458.66051    176.13679    34340.171 
  487700    295.66204   -1547.0068    549.87711    348.63435    63.404329    34340.171 
  487800    301.25633   -1537.7049    559.85543    393.37802   -258.91779    34340.171 
  487900    303.54479   -1550.5979    526.59687    357.64293   -515.34555    34340.171 
  488000     314.7135   -1531.0839    544.93649    446.33305   -86.950683    34340.171 
  488100     294.1473   -1542.8579    537.94337    333.95482   -596.33718    34340.171 
  488200    286.75451   -1541.0749    538.10478    302.24948   -368.59965    34340.171 
  488300    299.05431   -1557.3656    533.46365    337.30263   -422.29236    34340.171 
  488400    293.82394   -1545.9301    510.21613    301.68362   -813.12241    34340.171 
  488500    297.89282   -1506.7407    504.91312    354.09031   -928.31732    34340.171 
  488600    307.88184   -1565.7713    515.36655    350.98011   -699.24263    34340.171 
  488700    304.80416   -1533.0989    500.71681    354.99407    -554.5385    34340.171 
  488800    305.76522   -1561.0249    527.28875    358.01443   -96.040999    34340.171 
  488900    291.50944   -1572.4034    524.99706    279.45633    386.06854    34340.171 
  489000    310.20805   -1592.0591    573.46927    393.38319    402.99284    34340.171 
  489100    289.27174   -1560.6952    534.95836    290.94048    771.87898    34340.171 
  489200    301.89137   -1576.7519    529.76002    327.12618    91.839021    34340.171 
  489300    305.81601   -1565.5707    537.98637    364.39746   -103.93134    34340.171 
  489400    297.86294   -1557.1099    523.83517    322.50714   -853.83603    34340.171 
  489500    294.94113   -1513.5097    540.08491    369.05779   -353.56643    34340.171 
  489600    308.82447   -1530.6329    518.75458    393.79707   -599.97677    34340.171 
  489700    294.49939   -1513.4289    515.16257    342.20562   -227.57164    34340.171 
  489800    301.78324   -1505.6042    549.06081    417.08244    791.17373    34340.171 
  489900    293.87186   -1516.9054     539.1088    359.81904     466.5579    34340.171 
  490000    307.51346   -1510.4685    543.20342      432.443    677.42717    34340.171 
  490100    298.65387   -1513.1176     522.0349    368.29917    210.37079    34340.171 
  490200    301.86556    -1510.036    531.05191    395.01649   -150.40011    34340.171 
  490300    298.41728   -1560.2047    530.83478    328.93515   -182.59119    34340.171 
  490400    296.56156   -1517.9833    514.28526    346.16028    507.41939    34340.171 
  490500    300.15269   -1557.4224    538.48073    347.26242    892.12907    34340.171 
  490600     295.1249   -1524.4673    541.15036     360.0022    1101.6245    34340.171 
  490700    301.98544   -1518.5739    529.37516    385.34746   -252.68085    34340.171 
  490800    297.10996   -1538.7945     532.9426    346.50264    46.629112    34340.171 
  490900    302.56154   -1577.8087    509.05669    308.41646   -745.44108    34340.171 
  491000    294.19528   -1518.1527    531.15571     352.0908   -546.11386    34340.171 
  491100    299.55565    -1562.554    520.11405    321.04659   -386.36924    34340.171 
  491200    305.02103   -1552.3021    520.86846    356.92967    49.850735    34340.171 
  491300    302.75117   -1554.5842    515.09633    338.54369   -457.26061    34340.171 
  491400    309.98011   -1563.4094    513.96545    361.49159    99.329617    34340.171 
  491500    302.95045    -1540.653    522.92364    361.20927    277.13806    34340.171 
  491600    291.43098   -1550.5708    549.01909    324.95376   -358.13521    34340.171 
  491700    304.47795   -1510.8441    538.99711    414.04432    502.96302    34340.171 
  491800    296.98971   -1519.8666    525.15899    357.09956   -169.93202    34340.171 
  491900    298.84575   -1488.2818    559.09819    431.07163   -265.15277    34340.171 
  492000    290.13746   -1521.8832    517.04225    315.77687   -775.19317    34340.171 
  492100       309.32   -1542.1242    537.70295    403.50968   -549.59754    34340.171 
  492200    303.25075   -1532.0061    546.91485    395.21425   -325.74195    34340.171 
  492300    305.42676   -1538.1486    548.56289    400.62436    757.37628    34340.171 
  492400    292.59294   -1541.6327    554.63103     344.7927    198.45689    34340.171 
  492500    296.97244   -1584.1409    535.72933    303.31697   -725.72481    34340.171 
  492600    299.30975   -1550.2736    530.00706    342.10068   -388.22686    34340.171 
  492700    306.90062   -1547.7016    515.35425    364.57127    257.28818    34340.171 
  492800    299.15132   -1581.5927    540.54135    320.59481    261.56098    34340.171 
  492900    292.53534   -1556.1219     539.3444    314.75466    247.10701    34340.171 
  493000    307.08122   -1570.3076    514.99331    342.42638    356.51613    34340.171 
  493100    297.67562   -1584.6238    531.45774    301.76311     358.1476    34340.171 
  493200    293.18253   -1579.9526    530.96643    285.49188     141.7548    34340.171 
  493300    307.54173   -1559.4075    506.30715    346.73641    80.882853    34340.171 
  493400    305.34911   -1594.7189    511.42657    306.56427   -439.57888    34340.171 
  493500    308.48736   -1576.2389    523.95734    351.85939    63.648856    34340.171 
  493600    307.02647   -1585.8688    545.45223    357.07491     363.6187    34340.171 
  493700     301.3556   -1579.3941     522.1732    314.45846    709.20984    34340.171 
  493800    311.81123   -1581.3791    538.38468    376.27583     782.8448    34340.171 
  493900    298.47043   -1544.6834    534.05479     347.9183    88.460968    34340.171 
  494000    306.14725   -1564.9074    546.18745    374.76952    224.39437    34340.171 
  494100     303.1594   -1574.3558    514.08199    319.61586    535.75688    34340.171 
  494200    300.45386   -1584.9098    525.67344    308.33849    738.53995    34340.171 
  494300    310.65118    -1586.267     512.3007    340.02374    335.72049    34340.171 
  494400    304.09996   -1596.3621    531.76297    319.57175    500.66961    34340.171 
  494500    306.03454   -1616.8212      533.785    309.94027   -465.77239    34340.171 
  494600    305.79525   -1613.9126    514.61981    292.59456   -284.88133    34340.171 
  494700     290.8355   -1586.2495    525.30697    262.85251   -445.79305    34340.171 
  494800    296.59358   -1577.1283    523.23586    296.11164   -705.74329    34340.171 
  494900    299.49945    -1560.353    512.16614    315.04387   -622.26453    34340.171 
  495000    296.26631    -1556.961     514.0344     305.5879   -647.67251    34340.171 
  495100    298.45415   -1599.4562    538.69144    297.70806   -594.42027    34340.171 
  495200     301.6919   -1543.7167    495.77577    325.26914     136.1321    34340.171 
  495300    305.01692   -1555.4028    545.75992    378.70174    325.46142    34340.171 
  495400    308.48513   -1547.6622    542.78997    399.25863    197.03273    34340.171 
  495500    297.01748    -1567.902    530.45183    314.48335   -175.75033    34340.171 
  495600    304.56682    -1541.162    538.23159    383.36543   -259.41601    34340.171 
  495700     290.0639    -1550.677    533.45102      303.057    84.212376    34340.171 
  495800    291.77154   -1567.3147    516.63604    277.37696   -30.223142    34340.171 
  495900    303.00909   -1585.5587    514.91527    308.56212    145.18071    34340.171 
  496000    294.50278   -1560.5896    532.46181     312.3596    204.08763    34340.171 
  496100     297.2257   -1529.1981    549.21351     372.8967   -47.850771    34340.171 
  496200    302.43188   -1575.8227     535.2919    336.04743   -114.13561    34340.171 
  496300    301.18426     -1568.26     528.2334    330.87286   -598.38415    34340.171 
  496400    309.62281   -1577.0921    520.27109    352.48815   -714.95362    34340.171 
  496500    297.58187   -1570.8221    525.58303    309.26346    -618.5541    34340.171 
  496600    292.62676    -1556.821    531.33628    306.46365   -730.01469    34340.171 
  496700    308.73723   -1553.6961    569.77644    421.35868   -305.20954    34340.171 
  496800    292.59223   -1579.6587    517.53733    269.66978   -140.86681    34340.171 
  496900    299.25528   -1530.7897    521.08017    352.40983   -388.08739    34340.171 
  497000    298.77303   -1540.3097    536.82572    356.44037    -737.6788    34340.171 
  497100     300.5252   -1540.9603    508.88339    335.82277   -446.14872    34340.171 
  497200    304.47291    -1542.284    529.30269    372.88713   -874.59297    34340.171 
  497300    307.65758   -1551.3122    529.51222    378.56405   -572.79261    34340.171 
  497400    302.27017   -1519.8085    515.41522    371.44893   -61.768578    34340.171 
  497500    295.96209   -1549.0046    492.54066    290.66578   -22.905276    34340.171 
  497600    300.92716   -1553.3149    511.40402    327.81833    294.58068    34340.171 
  497700    295.85927   -1526.4311    544.50293     364.7336   -141.43524    34340.171 
  497800    296.82856   -1557.0864    542.67279    336.66002    820.52128    34340.171 
  497900     298.4583   -1527.7306    514.42198     345.1831   -444.48548    34340.171 
  498000    287.50849   -1537.1078     511.9514     283.4951   -940.77207    34340.171 
  498100    313.49318   -1547.5967    520.11946    399.44869   -1012.6474    34340.171 
  498200     297.1821   -1538.4827    540.22619    354.42635   -1107.0794    34340.171 
  498300    295.15239   -1565.1926    539.33993     317.5916   -653.13354    34340.171 
  498400    294.41954   -1542.4765    542.81296    340.44495   -806.58472    34340.171 
  498500    300.40595   -1547.7317    549.52077    369.14592   -509.66124    34340.171 
  498600    308.52811   -1538.0146    546.68758    412.99944    71.464287    34340.171 
  498700    290.52902   -1519.2678    537.25757    340.38982   -131.00936    34340.171 
  498800    324.78716   -1518.6924    502.87081    462.51114    250.59336    34340.171 
  498900    247.94401   -1534.9835    577.17031    170.75276   -148.54862    34340.171 
  499000    331.30443   -1478.1178    542.79293    572.67251    814.67712    34340.171 
  499100    319.03817   -1516.2411    492.03289    427.95689    301.91306    34340.171 
  499200    295.80758   -1535.4974    527.01775    337.94685    443.70043    34340.171 
  499300    299.51659     -1524.59    559.28542    398.00421    400.41835    34340.171 
  499400    307.08383   -1520.7487    544.47401    421.47785   -360.99726    34340.171 
  499500    299.72962   -1469.2573    535.79289    430.81396    292.33951    34340.171 
  499600     289.7366    -1527.488     544.7545    336.05974    256.49237    34340.171 
  499700    298.07099   -1501.9223    515.14985    369.95635   -20.850035    34340.171 
  499800    301.06967   -1510.1548    555.50829    415.73136   -257.88827    34340.171 
  499900    293.92554   -1586.5972    540.29534    291.55816    178.34832    34340.171 
  500000    303.61343   -1576.3187    535.48949    341.12714    422.89362    34340.171 
  500100    302.03349   -1533.9156    523.47135    364.32062    684.40909    34340.171 
  500200     293.2244   -1545.3952    535.74098    325.01441   -107.52437    34340.171 
  500300    304.97058    -1510.786    552.99508     430.3427    488.88677    34340.171 
  500400    305.45592    -1505.416    532.66654    417.59329    558.73156    34340.171 
  500500    296.52154   -1517.1996    525.64758     358.1242    328.29478    34340.171 
  500600    300.04099   -1517.6682     551.1813    399.20871    36.289069    34340.171 
  500700    305.24307   -1524.5315    523.15282    387.99529   -351.13325    34340.171 
  500800    300.77846   -1537.1924    509.31706    341.17701   -715.12615    34340.171 
  500900    298.92122   -1506.7404    511.69387    365.55231   -792.01869    34340.171 
  501000    301.35443   -1534.1923    546.81222    384.29394   -256.52464    34340.171 
  501100    296.87895   -1530.7879    548.07078    368.58583   -560.75937    34340.171 
  501200    295.69845   -1526.9392    550.44787     369.4384    -425.0491    34340.171 
  501300    308.93216   -1539.2006    533.08411     400.0491    -49.11314    34340.171 
  501400    297.31389    -1529.057    549.39276    373.61851   -352.46898    34340.171 
  501500    302.38333   -1512.0293    539.67812    404.00611   -873.67284    34340.171 
  501600    297.92041   -1461.8183    496.02213    390.24729   -615.68791    34340.171 
  501700    309.64089   -1466.2588    559.49787     502.6306   -270.45209    34340.171 
  501800    294.42779   -1519.9634    519.25525     339.4379    160.20901    34340.171 
  501900    294.22555   -1573.4444    527.86734    293.64846   -167.16741    34340.171 
  502000    294.10969   -1593.5222    545.44423    290.62025    47.645091    34340.171 
  502100     301.1457   -1537.4018    544.18276     377.5049   -452.09929    34340.171 
  502200    303.05596   -1572.3193    538.82769    345.92729     361.0619    34340.171 
  502300     303.4013   -1556.8296    538.40187    362.56297    392.79681    34340.171 
  502400    293.12102   -1605.1559    528.12919    257.17135    82.637325    34340.171 
  502500    310.38037   -1585.4921    535.61169    362.87696    -4.443197    34340.171 
  502600    298.72498   -1581.2754    565.22177    343.65191    1080.2281    34340.171 
  502700    301.29902   -1579.2453    545.20773    337.38428    423.84446    34340.171 
  502800    298.88016   -1583.7407    537.62782    314.29907   -114.16105    34340.171 
  502900    300.60938   -1595.4343    519.65324    292.50171    128.34567    34340.171 
  503000    293.00176   -1539.9327    533.41175    327.13428    110.97839    34340.171 
  503100    297.92101   -1598.6873    534.48741    291.84619    178.46402    34340.171 
  503200    290.00857   -1610.8433    513.75605    222.94382    123.56081    34340.171 
  503300    300.11605   -1651.4958    551.34386    265.88534   -278.28729    34340.171 
  503400    291.64836   -1608.5247    524.49083    243.46107    260.50406    34340.171 
  503500    306.81862   -1586.7801    515.06781    324.83304    233.58972    34340.171 
  503600     294.7667   -1578.8725    513.35725    276.17345   -439.90038    34340.171 
  503700     307.5131   -1580.0837    541.10975    360.73245   -746.45143    34340.171 
  503800    307.68476   -1580.7702    533.20974    352.92729   -1255.6885    34340.171 
  503900    298.67968   -1552.6206    527.78583    334.66458   -1035.5952    34340.171 
  504000    297.70003   -1569.6049    524.57739    310.01282   -343.90477    34340.171 
  504100    293.29233   -1562.6924    521.77518    294.06063   -881.70269    34340.171 
  504200    309.32761   -1595.2143    519.58644    332.33773   -46.923746    34340.171 
  504300    292.95884   -1562.0127    509.69347    281.14063   -298.46869    34340.171 
  504400    302.71519   -1542.6855    505.70382    340.88616    412.53019    34340.171 
  504500    295.66409   -1596.6298    527.23103    276.37455    188.87951    34340.171 
  504600    303.15913   -1601.9848    522.17448    300.07815   -60.502129    34340.171 
  504700    307.10271   -1572.0066    533.46591    359.29775    528.71305    34340.171 
  504800    303.87987   -1587.1581    518.77334    314.78433    6.8737695    34340.171 
  504900    301.43081   -1574.5768     514.0065    311.45143     311.0694    34340.171 
  505000    299.59535   -1561.8777    543.46095    345.25052    278.16747    34340.171 
  505100    295.44614   -1611.3975    526.45524    259.83908    79.175701    34340.171 
  505200    296.14001   -1564.1518    526.32333    310.11111   -165.60513    34340.171 
  505300    295.95002   -1564.9205     537.7157    319.87003    38.930852    34340.171 
  505400    301.22563   -1569.6727    497.58842    299.00346   -565.02041    34340.171 
  505500    312.34871   -1557.1699    490.21605     354.7628   -640.14863    34340.171 
  505600    298.45211   -1581.1497    533.01849    310.33239   -70.245962    34340.171 
  505700    299.57386    -1550.626    513.81147    326.75488   -545.33095    34340.171 
  505800    292.61612    -1541.907    526.12107    316.11398     136.3426    34340.171 
  505900     292.5687   -1534.2196    540.79344    338.25787    -287.5521    34340.171 
  506000    301.83844   -1547.7012    531.88388    358.05975    605.03864    34340.171 
  506100    304.18551    -1562.407    534.22045    356.37369    103.78113    34340.171 
  506200    299.77387   -1504.5633    529.40781    389.32436    716.61403    34340.171 
  506300    292.47554   -1548.1156    556.74731    339.89173    803.61852    34340.171 
  506400    305.47846   -1595.2772    562.58571    357.75388     172.8891    34340.171 
  506500    299.78611   -1597.0977    518.84302    286.28088    567.53818    34340.171 
  506600    298.71746   -1572.9638    540.02955    326.73707    762.85694    34340.171 
  506700    303.84645   -1579.4472    509.78712     313.3569    364.72637    34340.171 
  506800    294.47342   -1538.0897    528.37955    330.64358    201.05871    34340.171 
  506900    303.48683   -1525.5024    526.24576    382.12346    228.73802    34340.171 
  507000    305.92126   -1547.2116    521.84203    367.09129    587.71774    34340.171 
  507100    282.62347   -1519.8464     550.3914    316.96139    468.80822    34340.171 
  507200    307.15815   -1519.0059    524.54527    403.63013     564.2775    34340.171 
  507300    308.35087   -1536.8925    524.71176    391.33892   -16.034834    34340.171 
  507400      299.727   -1539.5759    510.50193    335.19248    593.58184    34340.171 
  507500    301.31225   -1551.4233    509.47832    329.53712   -166.46412    34340.171 
  507600    309.54411   -1491.1393    511.52402    429.33563   -270.45663    34340.171 
  507700    294.68611   -1501.3747    514.27293    354.22012    -996.4743    34340.171 
  507800    299.58981   -1486.6657    534.26602    411.24238   -132.28894    34340.171 
  507900    301.51178   -1524.3667    513.89438    361.91796    413.44934    34340.171 
  508000    298.87192   -1512.9671    548.40905    395.81637    397.29184    34340.171 
  508100    296.44917   -1553.3697    539.90817    335.88524   -118.02132    34340.171 
  508200    298.74349   -1522.7656     520.2422    357.26637   -124.84442    34340.171 
  508300    298.52368   -1537.2949     503.4749    324.96931   -119.34262    34340.171 
  508400     296.8273   -1532.9436    527.73759    345.86188    98.930983    34340.171 
  508500    294.57588   -1456.8661    534.68042    418.63442   -91.124863    34340.171 
  508600    305.34487    -1473.733    541.19385    457.29817   -302.55035    34340.171 
  508700    291.58171   -1492.3747    529.86646    364.68333   -849.03786    34340.171 
  508800    298.11317   -1502.7197    542.18575    396.38687   -320.06068    34340.171 
  508900    294.35531   -1487.9744    501.55481    353.39656   -6.7665864    34340.171 
  509000    302.46887   -1495.8139    557.71817    438.65087   -503.19748    34340.171 
  509100    302.20866   -1500.1268    532.41077    407.84623   -749.20771    34340.171 
  509200    303.01046   -1526.8973    552.00273    404.31721    46.807598    34340.171 
  509300    308.12459   -1491.7351    529.54183    440.29652   -355.52836    34340.171 
  509400    301.84348   -1518.3186    528.12778    383.70918   -843.98319    34340.171 
  509500    311.76112   -1499.8836    523.38669    442.54525   -151.44131    34340.171 
  509600    291.13271   -1489.7246    523.04565    358.46889   -477.43304    34340.171 
  509700    311.80321   -1489.5591    513.54541    443.22001     311.9721    34340.171 
  509800    295.15347   -1530.5066     538.0332    350.97578     433.4635    34340.171 
  509900    304.44788   -1517.5276    515.17747    383.40436    637.73605    34340.171 
  510000    302.68166   -1504.7378    528.87378    401.85121    594.16129    34340.171 
  510100     300.4658   -1516.8825    523.85211    374.59889    -9.411476    34340.171 
  510200    295.20128    -1547.137    496.66177    293.19147   -515.60602    34340.171 
  510300    292.91466   -1506.8753    522.76435    349.14783   -334.94006    34340.171 
  510400    299.21313   -1499.2986      510.533    373.16184   -111.37208    34340.171 
  510500    298.00266   -1545.5835    532.20007     343.0344    846.85557    34340.171 
  510600    298.41509   -1525.0522    546.37756    379.62041    497.69118    34340.171 
  510700    291.46031   -1524.9234    523.14825    324.86386    100.45324    34340.171 
  510800    299.68655   -1524.9604    536.08018    375.20218    185.93023    34340.171 
  510900    295.39514   -1556.7609    476.81349    264.60174   -10.902644    34340.171 
  511000    311.27277   -1561.4003    520.47487    375.89388   -158.05013    34340.171 
  511100    299.55246   -1587.7168    530.16584    305.92107    31.423368    34340.171 
  511200    294.16482    -1587.254    510.91251    262.60766    122.93086    34340.171 
  511300    292.74373   -1589.9195    509.07292    251.63414    543.59891    34340.171 
  511400    312.42896   -1584.3885    502.47392    340.16734    250.05762    34340.171 
  511500    293.90836   -1566.2436    507.69459    279.23279   -335.22309    34340.171 
  511600    308.46788   -1540.4665    511.07118    374.65694   -777.50903    34340.171 
  511700    310.38358   -1585.6979    503.72399    330.79808   -376.08276    34340.171 
  511800     301.2572   -1510.1016     522.2152    383.34511   -20.983918    34340.171 
  511900    302.02858   -1517.1626    552.65116     410.2311    -299.7488    34340.171 
  512000    287.80649    -1522.027     520.4607    308.44162     -77.7413    34340.171 
  512100    299.03774   -1536.2286     515.8469    340.74749   -781.69779    34340.171 
  512200    302.71092   -1545.8603    515.50134    347.48943    49.220213    34340.171 
  512300    305.08019   -1513.6387    502.80928    377.80315   -470.97242    34340.171 
  512400     294.5907   -1513.6545    529.42192    356.65502   -543.81938    34340.171 
  512500    295.30932   -1561.4651    498.04119    280.73462   -467.87591    34340.171 
  512600    300.26542   -1532.6955    514.24579     348.2675   -1009.8099    34340.171 
  512700    312.33834   -1552.9252    531.55266    400.29695    -616.2327    34340.171 
  512800     300.0717   -1561.6103    511.77962    316.00476   -400.58139    34340.171 
  512900    306.78933   -1590.7471    514.74588    320.41084   -135.67702    34340.171 
  513000    293.79188   -1584.0494     516.7396    269.94174    293.29466    34340.171 
  513100    307.94925   -1572.0121    489.94153    319.62111    805.25875    34340.171 
  513200    289.54645   -1606.9094    545.60372    256.62201    738.83679    34340.171 
  513300    308.88189   -1567.9953    514.96584    352.90731     643.1591    34340.171 
  513400    293.86918   -1584.3143    544.31725    297.60638    56.752582    34340.171 
  513500    301.15971    -1579.844    529.42291    320.36667    271.47707    34340.171 
  513600     291.6852    -1575.963    526.73455     278.4342    571.55634    34340.171 
  513700    294.69356   -1538.2665    525.81432    328.90361    37.203699    34340.171 
  513800    302.04457   -1575.5978    532.02005    331.23756    689.78315    34340.171 
  513900    298.51232   -1592.1208    520.57165    287.18841     205.3895    34340.171 
  514000    314.29719    -1631.888    512.95348    311.65109    52.853984    34340.171 
  514100    299.70863    -1586.448    538.82679    316.56165    527.38217    34340.171 
  514200    306.57424   -1553.1162    496.68193    338.99874   -112.49055    34340.171 
  514300    293.95577   -1534.9394    513.05259     316.1108   -68.104803    34340.171 
  514400    294.43202   -1514.4921     543.4343    369.10747     149.6779    34340.171 
  514500    300.79696   -1494.0641    528.95214    404.02461    224.42907    34340.171 
  514600    293.29214   -1475.5421    523.56101    382.99583    546.21975    34340.171 
  514700      292.899   -1476.8573    499.27425    355.60445    324.97686    34340.171 
  514800    306.31462   -1547.8723    523.66813    370.04718    516.32541    34340.171 
  514900    295.10506    -1540.505    523.97034    326.69413     346.2941    34340.171 
  515000    305.46006   -1496.5247    559.23372    453.07062    440.99963    34340.171 
  515100    300.14513   -1515.1705    525.17707    376.17627    219.79088    34340.171 
  515200    301.73438     -1493.22    526.98601    407.16947    324.00473    34340.171 
  515300    298.04935   -1494.0864     539.5213    402.06522   -18.367433    34340.171 
  515400    297.89635   -1519.9996    551.73877    387.67305    312.09384    34340.171 
  515500    294.07219   -1594.1218    515.63204    260.03768    702.20899    34340.171 
  515600    296.00971   -1532.0626    541.57681    356.86065    510.54443    34340.171 
  515700    312.97563   -1563.0669     557.7491    419.25242    186.59579    34340.171 
  515800    294.40066   -1563.9353    518.10532    294.19265    27.768735    34340.171 
  515900    303.00298   -1529.0683     518.8988    369.00826   -590.11654    34340.171 
  516000    297.89233   -1549.7987    510.00722     316.1241   -264.44698    34340.171 
  516100    306.39529   -1523.5727    523.12133    394.16714   -1096.5244    34340.171 
  516200     293.2148   -1507.1041    505.95075     333.4715   -523.90515    34340.171 
  516300    301.89904   -1523.3651    525.70552    376.49332  -0.84520579    34340.171 
  516400    292.05319   -1533.1637     533.1296    329.30355    -78.99839    34340.171 
  516500    305.60323   -1550.2502    515.30611    356.06918     680.8852    34340.171 
  516600    300.23261    -1536.847    517.81629    347.53718    301.46126    34340.171 
  516700    295.76264   -1542.2808    518.09122    322.03236    4.1313549    34340.171 
  516800    303.01299   -1540.4123    539.70523    378.51619    297.20181    34340.171 
  516900    292.17108   -1554.2341    551.32144    326.96151    360.30856    34340.171 
  517000    296.59053   -1591.6028    496.76969    255.15707   -108.75421    34340.171 
  517100    306.56666   -1560.4616    521.14699    356.08385    270.80736    34340.171 
  517200    293.22712   -1558.1763    500.74359     277.2483   -219.57144    34340.171 
  517300    308.28975   -1490.8623    521.61039    433.98967   -455.75555    34340.171 
  517400    300.20454   -1573.9964    521.85086     314.2946   -120.88731    34340.171 
  517500     303.3594   -1558.8784     531.7158    353.63741    31.085856    34340.171 
  517600    310.25427   -1560.2696    539.64783    391.56168    575.57578    34340.171 
  517700     303.2979   -1527.7444    526.13059    378.90632    462.74395    34340.171 
  517800    297.60912   -1558.2516    541.75448    338.12938    237.92108    34340.171 
  517900    299.54426   -1558.6096    520.56767    325.39278    51.329314    34340.171 
  518000    291.52001   -1590.4548    520.36969    256.82567   -73.905171    34340.171 
  518100    305.20912   -1568.2739    507.45301    328.39858   -162.45249    34340.171 
  518200    306.20416   -1547.3019    519.64711    366.09379    193.61543    34340.171 
  518300    299.27788   -1550.8492    512.31506    323.68803    487.89775    34340.171 
  518400    297.17883   -1582.5022    529.85323    300.01899    437.58143    34340.171 
  518500    303.79933   -1596.7669    541.23901    327.27456    376.76635    34340.171 
  518600     299.7522   -1568.0936    512.50514    308.79272    237.22808    34340.171 
  518700    304.10107   -1539.1831    542.56615    387.55893    799.28114    34340.171 
  518800    305.69484   -1548.1724    516.83016    360.08803    527.85422    34340.171 
  518900    292.67014    -1569.795    500.54728    262.89803   -625.65687    34340.171 
  519000    303.54461    -1580.325    524.71893    326.03697    223.47168    34340.171 
  519100    305.43289   -1555.8682    519.00673    353.37644    78.074247    34340.171 
  519200    300.45619   -1513.3465    492.68853    346.92753   -326.14249    34340.171 
  519300    300.79896   -1558.1865    498.28312    309.24231   -449.64274    34340.171 
  519400    307.07192   -1578.6567    516.86743    335.90903   -159.98598    34340.171 
  519500    310.06903   -1582.8147    500.70107    329.22666    12.866711    34340.171 
  519600     313.7917   -1529.7094    537.34772    435.92301   -105.36411    34340.171 
  519700    291.30762   -1530.0844    515.85645    311.71607   -200.93912    34340.171 
  519800    292.43548   -1582.5421    515.47492    264.01054   -16.324886    34340.171 
  519900    294.90557   -1519.7025     507.3569     329.9752    48.022258    34340.171 
  520000    304.86382   -1523.2453     507.7886    372.19098   -395.66577    34340.171 
  520100    296.33381   -1511.1337     530.3028    367.99076   -661.95103    34340.171 
  520200    302.91367   -1564.3706    496.39969    310.80032   -484.73944    34340.171 
  520300    305.12752   -1548.2265    534.30587    374.92741    117.26974    34340.171 
  520400    294.02453    -1518.556    549.48095    369.23555    206.59649    34340.171 
  520500    293.79506   -1499.3963    519.02903    356.89884   -366.69119    34340.171 
  520600     301.4906   -1543.9875     549.8646    378.17093   -270.31941    34340.171 
  520700    299.82343   -1538.9455    532.99113    358.75101   -613.67729    34340.171 
  520800    309.41977   -1569.5533    524.16692     362.9986   -627.97023    34340.171 
  520900    300.95337   -1566.2219    512.63809    316.26474   -700.22903    34340.171 
  521000    312.11439   -1546.5451    528.93604    403.04106   -619.25556    34340.171 
  521100    297.17232   -1531.1699    540.05827    361.52674   -131.76846    34340.171 
  521200    308.13526    -1513.592    509.85956    398.80594   -175.43779    34340.171 
  521300    306.45774   -1543.1389    530.70527    382.46919    173.34017    34340.171 
  521400    294.96334   -1527.8707    543.46813    358.18114   -512.31823    34340.171 
  521500    296.26079   -1510.8666    523.01043    360.63317    410.76647    34340.171 
  521600    302.33384   -1549.7962    501.38976    327.72558   -17.818375    34340.171 
  521700    305.74528   -1553.4021    513.56906    351.82678   -172.66221    34340.171 
  521800    305.81085   -1560.0103    525.02381    356.97187    12.284072    34340.171 
  521900    309.59217   -1532.7979    521.87856    398.25035        283.9    34340.171 
  522000     300.2664   -1493.4912    533.54414    406.77455   -83.516313    34340.171 
  522100    307.83519   -1502.0779    517.99945    417.09405    548.31977    34340.171 
  522200    297.60813   -1506.3603    536.72455    384.98626    181.08181    34340.171 
  522300    295.56133   -1497.4092    547.76895    395.66537    302.95846    34340.171 
  522400    291.28862   -1511.7528     526.0826    340.18731    76.299697    34340.171 
  522500    299.67605   -1515.5543    541.39089     389.8711    105.68247    34340.171 
  522600    292.78263   -1516.7246    519.33322    335.26647    605.80334    34340.171 
  522700    309.01875   -1511.2518    520.15537     415.4633    990.48519    34340.171 
  522800    305.52387   -1583.0332    526.09086    333.70972    310.19028    34340.171 
  522900    293.21219   -1562.4035     505.7463    277.95585   -206.02319    34340.171 
  523000    298.43868   -1529.5262    530.21999    359.09618    492.89296    34340.171 
  523100    303.72467   -1561.1327    514.71703      336.047   -275.40883    34340.171 
  523200     291.3847    -1570.447    527.49522    283.34308    -43.79216    34340.171 
  523300    301.90229    -1525.441    523.48419    372.21094    224.07315    34340.171 
  523400    300.85722   -1555.5133    519.08944    332.98703    99.138586    34340.171 
  523500    298.04608    -1530.101    525.76348    352.27795    349.24756    34340.171 
  523600    292.94954   -1528.3405    511.95058    317.02758   -21.877845    34340.171 
  523700    305.98689   -1483.0799    534.68011    444.35977    77.970688    34340.171 
  523800    301.33527   -1482.6599     526.8267    415.75363   -539.13241    34340.171 
  523900    295.76881   -1543.7308    521.10366    323.62279   -546.45891    34340.171 
  524000    296.08436   -1551.6342    534.91918    330.97123   -90.021882    34340.171 
  524100    292.93551   -1540.5342    528.71254    321.53202    101.41455    34340.171 
  524200    299.99203   -1553.8679    523.66786    335.27278   -192.92837    34340.171 
  524300    289.87824    -1562.202    550.22849     307.4644    125.66594    34340.171 
  524400    291.57489   -1523.4248    549.20771    352.94345    311.81373    34340.171 
  524500    307.66947   -1497.5195    525.66937    428.56809     126.9339    34340.171 
  524600    300.90957   -1482.5835    552.58658    439.65228    633.90176    34340.171 
  524700    290.06147   -1555.4991    522.95366    287.72651    302.09854    34340.171 
  524800    300.08175   -1535.1557    568.46164    399.18716   -286.32472    34340.171 
  524900    297.25362   -1543.8602    535.85662    345.00482   -409.95114    34340.171 
  525000    305.00903   -1507.2752    522.27904    403.31247   -100.74577    34340.171 
  525100    297.54177   -1512.2409    523.66383    365.74289   -972.26747    34340.171 
  525200    316.86643    -1503.745    518.61846    457.15341   -284.06763    34340.171 
  525300    305.33635   -1567.5473    535.32734    357.57856   -1174.2019    34340.171 
  525400    312.80434   -1491.8509    544.38341    476.32309   -190.96004    34340.171 
  525500    304.62019   -1511.2002    504.38609    379.72473    27.867742    34340.171 
  525600    291.38809   -1523.9209    544.38853    346.77789   -89.794758    34340.171 
  525700    293.10689   -1530.7024     530.9601    334.39144   -26.583971    34340.171 
  525800    309.03865   -1553.3743    541.79978     395.0758   -245.12814    34340.171 
  525900    309.41112   -1530.9855    537.60445    414.96457   -34.291963    34340.171 
  526000    293.68654   -1525.9548    536.41739    347.23475    382.51739    34340.171 
  526100    303.73951    -1511.366    518.54522    389.70945    351.45886    34340.171 
  526200    297.09522   -1518.5909      530.461    364.15757    104.70373    34340.171 
  526300    307.38719   -1514.5156    526.03283    410.65055    -178.1588    34340.171 
  526400    305.42562   -1544.0523    520.02457    366.17715    64.718553    34340.171 
  526500    296.31116   -1532.6823    528.44422     344.4805    863.93562    34340.171 
  526600     300.5656   -1561.3425    530.36884    337.10989    541.97733    34340.171 
  526700    297.83778   -1551.6109    536.26058    340.31696    746.48368    34340.171 
  526800    296.95372   -1535.5297    542.74518    358.85883    196.70464    34340.171 
  526900    303.97097   -1576.9127     551.1575    357.82855    420.86959    34340.171 
  527000    288.68672   -1531.8504     511.1759    293.33993   -207.95464    34340.171 
  527100    296.04493   -1493.7636    491.70301    345.44616   -615.32488    34340.171 
  527200    306.81121     -1518.55    526.94455    404.90622   -353.65369    34340.171 
  527300    303.36067   -1522.6762    523.43462    381.56426   -773.61657    34340.171 
  527400    305.88467   -1566.5926    497.60718    323.30888   -398.80782    34340.171 
  527500    310.28829   -1529.9614    528.85198    411.22883   -73.082543    34340.171 
  527600    297.72109   -1566.1427    519.47203    308.46546    91.155084    34340.171 
  527700    295.34037   -1584.1796    528.92814    289.04839   -242.10452    34340.171 
  527800    298.60579   -1540.4104    535.89399    354.64665   -317.06425    34340.171 
  527900    287.13889   -1536.7635    519.31702    289.52269   -148.54208    34340.171 
  528000    287.63062   -1503.4425    568.12896    373.89389    5.7624077    34340.171 
  528100    308.91857   -1481.7145    495.69968    420.08886   -436.56944    34340.171 
  528200    295.80616   -1466.1145    583.75083    464.05633   -714.15783    34340.171 
  528300     303.8084   -1529.9422    538.76426    391.66588    281.70131    34340.171 
  528400    305.82524   -1519.4107    546.12442    418.73749    82.757785    34340.171 
  528500    302.83393   -1492.5865    523.54081    409.36261    364.25404    34340.171 
  528600    288.45659   -1527.8713    541.88348    326.97915    420.05969    34340.171 
  528700     302.5557   -1536.3213    529.82085    370.64137   -85.889861    34340.171 
  528800    301.92024   -1568.1516    537.06501    343.16288    357.02647    34340.171 
  528900    302.02999   -1521.4175    500.71278    354.04427    569.45636    34340.171 
  529000    294.69826   -1525.8693    547.48961    362.99749    342.26043    34340.171 
  529100    310.57725   -1532.5627    549.42165    430.51242    26.686258    34340.171 
  529200    308.14219   -1496.7543    543.82435    449.63985    461.34845    34340.171 
  529300    295.11189    -1555.804    532.88285     320.3388    472.87212    34340.171 
  529400    299.30512   -1514.4284     542.0354    389.95323    919.10626    34340.171 
  529500    292.76581   -1507.9226    558.06244    382.72105    649.45181    34340.171 
  529600    295.60257   -1444.9378    533.17276    433.72827    366.68793    34340.171 
  529700    303.18442   -1472.2117    536.40807    444.19995     590.3404    34340.171 
  529800    295.84222   -1569.3444    534.75989     311.9996    301.12588    34340.171 
  529900    299.34935   -1522.3667    501.31192    341.49277   -306.62159    34340.171 
  530000    302.98129   -1525.0027    535.67911    389.75546    -193.4919    34340.171 
  530100    301.41437    -1555.989    558.73827    374.69617    -913.6934    34340.171 
  530200    294.08198   -1577.8556    532.47393    293.19034   -362.20122    34340.171 
  530300    289.06041   -1569.7498    531.94353     277.9091   -70.034063    34340.171 
  530400     299.5972   -1518.2446    532.15164    377.58265    67.453839    34340.171 
  530500    293.04121   -1510.9636    547.42712    370.29825    177.89052    34340.171 
  530600    310.46975   -1506.5559    553.20343    459.81176   -22.538062    34340.171 
  530700    293.36722   -1511.5278    524.51151    348.30237    287.45982    34340.171 
  530800    302.35667   -1522.0348    505.58551    359.78665    82.506209    34340.171 
  530900    293.48053   -1517.8717    526.58914    344.55187    -557.9371    34340.171 
  531000    307.54146   -1572.2253    536.87524    364.48541    46.474344    34340.171 
  531100    284.84122   -1565.8056    523.94083    254.64615    219.79709    34340.171 
  531200    300.40723   -1509.6457    544.15038    401.86735    724.38333    34340.171 
  531300    299.14939   -1505.1711    525.23293    381.69917     446.1088    34340.171 
  531400    293.61894   -1513.4646    533.81139    356.81126   -607.54293    34340.171 
  531500     305.5308   -1497.3957     535.9992    429.28713    152.85873    34340.171 
  531600    288.80501   -1481.5475    543.62915    376.63455    52.886444    34340.171 
  531700    293.08707   -1494.1667    519.98294    359.85972   -460.62448    34340.171 
  531800    302.46228   -1494.9705    579.11935    460.86551   -360.28984    34340.171 
  531900    302.08224    -1517.299    529.63632    387.32412    209.96936    34340.171 
  532000    298.19195   -1520.7634    513.05481    349.57078    89.358339    34340.171 
  532100    304.14506   -1561.2901    534.51854    357.60458   -112.04294    34340.171 
  532200    303.81433   -1522.6875    541.99321    402.17646    -456.7749    34340.171 
  532300    295.86585   -1496.7134    512.81963    362.79791   -475.12366    34340.171 
  532400    296.03299   -1472.2571    507.11657    382.31188   -671.78836    34340.171 
  532500    298.46457   -1453.2253    548.95079    454.24575    -510.5307    34340.171 
  532600    293.44981   -1477.1756    489.21987    347.73892   -121.22684    34340.171 
  532700    299.68165   -1502.3666    538.76353    400.45693    186.64549    34340.171 
  532800    304.75015   -1480.3619    534.20976    440.97824    366.94305    34340.171 
  532900    297.11762   -1414.7091    520.24435    457.92462    689.39357    34340.171 
  533000    300.10175   -1463.5854    523.43854    425.82535    491.17626    34340.171 
  533100     290.7438   -1480.2519    533.61216    376.73789    256.51466    34340.171 
  533200    301.95482   -1512.2655    519.50955    381.65083   -169.98319    34340.171 
  533300    301.12985   -1449.4058    543.03382    464.27985    166.18064    34340.171 
  533400    303.30264   -1457.2578    517.37043    440.65436   -344.67061    34340.171 
  533500    297.20231   -1466.3677    518.98597    405.39307   -66.394673    34340.171 
  533600    291.33363   -1477.5522     526.8532    375.36343   -282.92792    34340.171 
  533700    300.01322   -1462.1786    528.03044    431.42104    -547.0779    34340.171 
  533800    299.59077   -1496.8388    521.78822    388.59579   -527.49308    34340.171 
  533900    306.80734   -1468.4707    518.29486    446.31814   -508.78714    34340.171 
  534000    314.33683   -1495.5113    530.86125    466.11591   -344.92021    34340.171 
  534100     297.1859   -1481.5721    531.81081    402.93883    3.4270856    34340.171 
  534200    310.58279   -1484.1452    539.95821    469.49173    433.44472    34340.171 
  534300     302.3612   -1506.8023    537.00422    406.45845    194.15318    34340.171 
  534400    294.71076    -1518.115    483.88582    307.20493   -125.02156    34340.171 
  534500    299.27295   -1500.6484    514.84452     376.3959    -731.5925    34340.171 
  534600    306.90622   -1498.7165    537.49226    435.71987   -387.52218    34340.171 
  534700    295.82947   -1455.7654    530.51597     421.2767   -225.42834    34340.171 
  534800    292.79513   -1447.0696    527.70538    413.35045   -592.04099    34340.171 
  534900    298.91193   -1476.9414     497.6364    381.25153    -225.8278    34340.171 
  535000    302.67821   -1496.8804    548.36243    429.18145   -392.04576    34340.171 
  535100    296.95837   -1510.4778    550.70183    391.88848    222.11541    34340.171 
  535200     295.3476   -1475.4806    530.64577    399.49788    94.845042    34340.171 
  535300     295.8702   -1481.0056    510.90877    376.61468   -89.451288    34340.171 
  535400    295.72394   -1514.1714    504.65873    336.53306    167.89976    34340.171 
  535500    295.36971   -1503.4095    537.93047    378.95433    473.85061    34340.171 
  535600     299.7954   -1514.7627    541.03739    390.85247   -569.55401    34340.171 
  535700    302.55726   -1562.0564     494.7516    309.84412   -165.38085    34340.171 
  535800    310.27165   -1545.2018     521.3304    388.39113    -763.9154    34340.171 
  535900    293.57458    -1485.465    528.01813    378.81564   -659.16394    34340.171 
  536000    298.74598   -1523.3091     490.0186    326.51066   -651.02324    34340.171 
  536100    305.89721   -1524.7274    505.60613    373.23016    -504.3287    34340.171 
  536200    299.01397   -1466.4088    510.12542    404.73763   -879.94596    34340.171 
  536300    293.90027   -1466.2022    531.23631    402.77901   -236.90401    34340.171 
  536400    294.06631   -1509.4784    527.49498    356.51734    489.88613    34340.171 
  536500    297.14774   -1529.5531    522.68658    345.65993    197.64808    34340.171 
  536600     295.8869    -1507.215     529.0667     368.6392    401.25581    34340.171 
  536700    287.69791   -1504.5504    539.73575      344.699    845.26909    34340.171 
  536800    302.28028   -1524.0992    507.61778    359.40686     394.4689    34340.171 
  536900    303.03109    -1515.637    535.78107    399.44973    576.10034    34340.171 
  537000    300.41854   -1495.5795    525.80495    397.63958    101.81371    34340.171 
  537100    300.86838   -1543.8575    498.24842    323.85261   -242.95757    34340.171 
  537200    304.71256   -1519.7536    536.44141      403.647   -508.10653    34340.171 
  537300    309.51298    -1520.133    531.24522    419.92148   -115.64533    34340.171 
  537400    305.60263     -1511.43    514.70608    394.28661   -713.05502    34340.171 
  537500    306.02972   -1512.2973      517.415    398.07226    -774.7625    34340.171 
  537600    293.33345   -1522.7903    519.32203    331.69667   -302.49303    34340.171 
  537700    295.18357   -1483.6906    530.81379    390.70934   -431.32865    34340.171 
  537800    301.20033   -1506.8757    543.77145    407.86842   -962.35521    34340.171 
  537900    307.49207   -1516.9698    502.80604     385.4469   -528.11157    34340.171 
  538000     303.1952   -1477.9958    515.60587     417.6627   -593.25441    34340.171 
  538100    309.67055   -1474.0419    518.99949    454.48411   -9.4589943    34340.171 
  538200    301.45001   -1503.0119    518.42505    387.52222   -628.50818    34340.171 
  538300    298.89559   -1494.4809    515.16978    381.17105   -266.20722    34340.171 
  538400    304.15284   -1509.1015    509.24428    384.55429   -183.10371    34340.171 
  538500    298.88572   -1489.5137    544.83915    415.76264   -29.291176    34340.171 
  538600    290.57122   -1470.8355    546.70352    398.46012   -270.57993    34340.171 
  538700    294.74939   -1511.7837    511.72207    341.54828    296.17744    34340.171 
  538800    298.21028   -1546.0155    527.59699    338.94437   -355.39841    34340.171 
  538900    305.61086   -1554.5266    505.85684    342.37829    99.500183    34340.171 
  539000    286.19491   -1566.1158     520.0761     256.6328    -475.3348    34340.171 
  539100     309.1732   -1512.2672    506.42271    401.41824    60.657898    34340.171 
  539200    304.13259   -1489.6462    488.08662    382.75975   -322.68624    34340.171 
  539300    288.66179   -1490.9357     504.1777    327.14294   -835.42047    34340.171 
  539400    298.27004   -1535.0262    486.27145    308.88008    -911.3295    34340.171 
  539500    293.92079   -1501.6398    504.13528    340.33381   -519.18743    34340.171 
  539600    298.29226    -1489.602    518.15576    386.28975    251.38185    34340.171 
  539700    289.53814   -1519.7069     517.6597    315.84272    224.46038    34340.171 
  539800    302.47197   -1525.3123    499.58329    351.03171    568.95595    34340.171 
  539900     309.3496   -1550.4407    485.31538    342.94034    468.17732    34340.171 
  540000    305.80789   -1521.2088     516.6685    387.40455    172.59883    34340.171 
  540100    298.26949   -1536.7843    508.09274    328.94077    545.86437    34340.171 
  540200    300.42192   -1565.4423    518.59605    320.58324    204.72429    34340.171 
  540300    307.03683    -1543.134    520.15418    374.55877    948.98214    34340.171 
  540400    290.71591    -1537.343    508.01647     293.9242    551.17414    34340.171 
  540500    304.39168   -1524.8629    518.54873    379.18454    844.14808    34340.171 
  540600    306.48909   -1512.4432    508.40649    391.00876     672.0588    34340.171 
  540700     295.9389   -1534.0707    507.57252    320.52601   -87.864725    34340.171 
  540800    307.66472   -1503.3676     487.4225    384.45146    31.816208    34340.171 
  540900     292.6513   -1493.9934    491.82251    329.88919    246.70166    34340.171 
  541000     306.1959   -1517.9659    491.32419    367.06924    490.83752    34340.171 
  541100    289.01782   -1519.5811    519.61878    315.55926    118.92706    34340.171 
  541200    306.91907   -1482.3455    497.08032     411.7374    620.81092    34340.171 
  541300    302.46671   -1522.0755    517.14152    371.80282    766.97663    34340.171 
  541400    304.17714   -1524.1245    518.71106    379.10868    887.84146    34340.171 
  541500    301.41668   -1510.0543    503.17007    365.07316    530.66133    34340.171 
  541600     293.5895   -1527.0183    509.79845     319.1106    168.61354    34340.171 
  541700    290.77515   -1523.3371     528.8204    329.00367    708.24444    34340.171 
  541800    303.53122   -1527.2747    503.67224    357.97966    415.92879    34340.171 
  541900     296.9688   -1553.4347    512.32593    310.60326    283.20224    34340.171 
  542000    297.33012   -1502.2531    538.97012    390.07366    -119.6809    34340.171 
  542100    302.24037    -1522.823     505.9518    358.83534    58.223684    34340.171 
  542200     306.0028   -1523.4204    500.61275    370.02437    235.59213    34340.171 
  542300    291.75121   -1525.3427    504.10176    306.72216    255.94009    34340.171 
  542400    299.96912   -1564.8968    502.31292    302.78468    486.23442    34340.171 
  542500    305.11197   -1571.8222    507.91092    324.86594    123.41384    34340.171 
  542600    293.17576   -1525.6874    504.07585    312.83562    -295.6762    34340.171 
  542700    287.91621   -1539.2638    535.32716    306.57076    259.83259    34340.171 
  542800     308.1091   -1510.0262    522.95314     415.3462    684.71495    34340.171 
  542900    304.36321   -1530.4279     494.5612    349.50237    173.07978    34340.171 
  543000    302.36211   -1508.9719    539.92241    407.21122    251.93885    34340.171 
  543100    298.22758   -1504.4541    512.23116    365.21859   -292.57742    34340.171 
  543200    297.60516   -1463.5354    513.81381    404.88692    494.53357    34340.171 
  543300     300.2205   -1479.4352    497.42659    384.50414    414.40768    34340.171 
  543400     293.4171   -1465.2322    530.82588    401.13936    648.57144    34340.171 
  543500    295.76731   -1456.0161    521.96943    412.19651    1068.7622    34340.171 
  543600     307.0494   -1488.7881    536.80854    445.61627    897.27071    34340.171 
  543700    314.89674   -1485.1903    503.28952    451.41375     818.1745    34340.171 
  543800    297.31842   -1454.8777    522.48263    420.90832   -62.003187    34340.171 
  543900    305.80794   -1478.5201    519.61526    433.04022      122.587    34340.171 
  544000    290.52874    -1525.743    512.34037     308.9962    451.72762    34340.171 
  544100    302.92466   -1536.3535    518.94186    361.40958    273.08783    34340.171 
  544200    302.97299   -1526.1418    525.37798    378.27737    184.00805    34340.171 
  544300    296.80285   -1528.1201    503.38367    326.22025   -327.25965    34340.171 
  544400     293.4952   -1476.5496     529.1601     388.5117   -558.51409    34340.171 
  544500    298.11249    -1483.617    517.68461    390.98533    105.88203    34340.171 
  544600    296.83857   -1466.3699    514.04526     398.7946     -371.831    34340.171 
  544700    302.26244   -1525.0769    524.59328    375.32341   -334.67261    34340.171 
  544800    292.36532   -1502.9473    512.33557    340.14665   -267.36012    34340.171 
  544900    287.58436   -1505.7479     542.0965    345.34543   -702.20862    34340.171 
  545000    298.46569   -1492.5139    508.00595    374.01747    -433.9241    34340.171 
  545100    297.90967   -1480.0553    547.78347    423.72268    107.13739    34340.171 
  545200    301.18895   -1482.2523    506.65635    395.32484    178.37879    34340.171 
  545300    291.87791   -1470.0099    507.36799    365.89785    14.441425    34340.171 
  545400    296.73727   -1460.9788    526.31738    415.99669   -502.94954    34340.171 
  545500    291.69001   -1467.8209     536.7586    396.62226   -416.11376    34340.171 
  545600     295.3721   -1420.6497    514.16115    437.95569   -200.29707    34340.171 
  545700    288.35444    -1458.714    513.53311    367.32114   -269.49739    34340.171 
  545800    302.46242    -1495.491    539.66097    420.88731   -555.05327    34340.171 
  545900    304.46723   -1502.7851    520.16633    403.22381   -973.33071    34340.171 
  546000    301.58787   -1522.4131    521.51667    371.84014   -1013.5044    34340.171 
  546100    289.29039   -1542.6684    519.39702    293.49077   -1137.3967    34340.171 
  546200    305.73819   -1493.5839    514.17543    412.21909   -162.66165    34340.171 
  546300    298.32779   -1507.4082    524.30959    374.79912    249.99791    34340.171 
  546400    296.32278   -1490.2249    506.84834    365.39495   -160.56636    34340.171 
  546500    298.79212   -1478.9874    519.73467    400.75851    731.06401    34340.171 
  546600    297.73363   -1483.7002    522.12758    393.62064   -359.94483    34340.171 
  546700    290.78139   -1515.6816    505.89516    313.76234   -438.49106    34340.171 
  546800    288.48497   -1509.5223    526.94235    330.51623   -487.07975    34340.171 
  546900    290.23834   -1463.5984    538.91679    396.39535   -97.982615    34340.171 
  547000     301.2873   -1501.9856    516.72593    386.10877     396.0109    34340.171 
  547100    301.54341   -1501.4638    536.27452    407.34494   -161.51089    34340.171 
  547200    280.74322   -1490.3383    531.56145    319.08124   -30.378984    34340.171 
  547300     297.5525   -1464.4667    523.99439    413.89648   -742.15101    34340.171 
  547400    290.84304   -1480.6891    525.73556    368.87581   -11.252932    34340.171 
  547500    291.24065   -1457.2473    548.98588     417.3778   -110.58202    34340.171 
  547600     297.2439   -1478.3315    533.14508    407.77779   -285.58058    34340.171 
  547700    302.07699   -1480.8707    527.61104    421.70323    86.881569    34340.171 
  547800    302.69131   -1496.2275    517.88412    399.41576    6.7485307    34340.171 
  547900    294.91179    -1481.962    518.54465    378.93173   -252.64956    34340.171 
  548000    293.60043   -1465.6854    531.63705    402.33185   -37.324297    34340.171 
  548100    298.93579   -1453.9557    521.40669    428.11614    285.14956    34340.171 
  548200    296.11387    -1534.393    492.52229    305.94989    -631.6575    34340.171 
  548300    303.19015   -1515.1138    518.18928    383.10513   -279.63811    34340.171 
  548400    301.38108   -1505.5195    521.03069    387.30652   -911.45889    34340.171 
  548500     308.9646   -1497.8789    507.86706    416.30139   -247.50001    34340.171 
  548600    294.92018   -1534.8232    515.58262    323.14668    252.30307    34340.171 
  548700    293.43293   -1501.8826    545.76857    379.50368    450.49093    34340.171 
  548800    299.62819   -1476.1792    518.20142    405.83898    593.19333    34340.171 
  548900    306.09442   -1493.3673    543.18383     443.0655    306.11473    34340.171 
  549000    298.00668   -1490.8473    511.69128    377.28006    550.63226    34340.171 
  549100    306.07379   -1440.4486    515.73387    468.44041   -100.33724    34340.171 
  549200    303.26176   -1477.1269    515.21445    418.44316   -274.73634    34340.171 
  549300     304.8859   -1460.1125    516.08811    443.72382    481.61127    34340.171 
  549400    310.01563   -1461.7417    535.43275    484.78826    14.202822    34340.171 
  549500     292.4832   -1450.8117    517.90208    398.38525   -452.64354    34340.171 
  549600    306.30632   -1453.3407    538.12368    478.99652   -191.39193    34340.171 
  549700    300.56048   -1494.9739    505.64279    378.72912   -407.79986    34340.171 
  549800    304.94211   -1469.2906    516.82514    435.53866   -399.97284    34340.171 
  549900    302.56943   -1470.4474    533.37304    440.13001   -256.28507    34340.171 
  550000    302.62586   -1509.7343    499.58132    367.30823   -628.73862    34340.171 
  550100    295.18938   -1485.0554    535.64768    394.20485    305.12681    34340.171 
  550200    290.57777   -1532.4481    526.15641    316.33024    211.49156    34340.171 
  550300    299.68151   -1510.7324     517.3268    370.65383     283.2929    34340.171 
  550400    306.23937   -1486.9211    517.41046    424.39817    499.42695    34340.171 
  550500    297.40763   -1484.0523    528.34275    397.99985     1012.185    34340.171 
  550600    305.03018   -1492.7207    505.56956     401.2538    601.36127    34340.171 
  550700    304.43786   -1483.2694    517.09487    419.53434    75.238114    34340.171 
  550800    300.79585   -1516.4363    504.39625    357.09155   -59.704487    34340.171 
  550900    309.18409   -1478.8958    519.67137    448.08787    544.62881    34340.171 
  551000    283.13609    -1538.383    526.11246    276.47918   -326.11218    34340.171 
  551100    300.21361   -1497.3316    541.74315    410.89293    -305.3577    34340.171 
  551200    305.90202   -1521.5942    530.09264    400.87172    316.52266    34340.171 
  551300    305.19983   -1554.1694    513.46343    348.47118   -596.16672    34340.171 
  551400    310.29139   -1516.0918    526.93022    423.19077    -97.50123    34340.171 
  551500    303.30712   -1543.6861    496.92525    333.80125   -269.91943    34340.171 
  551600    299.11117   -1510.6436    526.72339    377.54313   -203.86932    34340.171 
  551700     294.2772   -1528.1192    494.46025    305.80169   -107.89428    34340.171 
  551800     296.0914   -1488.5377    521.36741      380.548    163.26797    34340.171 
  551900    292.99249   -1508.4393    511.12983    336.30354    278.33861    34340.171 
  552000    295.53491   -1522.2369    505.67653    328.62496   -184.27116    34340.171 
  552100    303.66375   -1520.6703    541.67358    403.18865   -350.59361    34340.171 
  552200    294.71066   -1475.6778     505.2806    371.03641   -144.04451    34340.171 
  552300    295.26468   -1474.8285    498.88442    368.01131    -38.79232    34340.171 
  552400    298.52293    -1500.541    536.53101    394.77594   -496.95137    34340.171 
  552500    283.16263   -1538.1053    535.88217    286.64731   -1229.9716    34340.171 
  552600    293.43653   -1499.2869    506.80541    343.15269   -1162.1212    34340.171 
  552700    293.48982   -1471.7872    515.67562    379.76516   -825.65166    34340.171 
  552800    295.50769   -1474.4751     531.1323    401.71867   -634.23827    34340.171 
  552900    299.60639    -1514.391    538.21529    387.54175    119.65553    34340.171 
  553000    304.51493   -1540.1919    516.22603    362.09376   -131.75877    34340.171 
  553100    304.41684   -1512.9858    539.40789    412.03529   -229.62106    34340.171 
  553200    295.03502   -1525.7535    548.33627    365.49279    617.30323    34340.171 
  553300    305.15011   -1533.0825    520.53326    376.40157    670.16037    34340.171 
  553400    297.64176   -1506.0053    504.72809    353.49789    142.29112    34340.171 
  553500    303.96561   -1522.9423    549.95619    410.57324    184.40204    34340.171 
  553600    291.83705   -1549.6758    517.54271    296.22071    204.11647    34340.171 
  553700    296.34549   -1499.1113    499.96721     349.7308      341.607    34340.171 
  553800    298.26326   -1541.0739    525.46065    341.99069   -12.921764    34340.171 
  553900     301.7245   -1543.5706    519.50047     349.2884    328.56717    34340.171 
  554000    302.35827   -1521.9788    511.55717    365.82157    303.92861    34340.171 
  554100     310.4146    -1552.097    550.98576     411.8019    704.27408    34340.171 
  554200    297.10395   -1543.7361    531.21603     339.8071    553.19508    34340.171 
  554300    304.47764   -1534.8562    523.36707    374.40083    -142.6897    34340.171 
  554400    303.79357   -1510.7775    538.42688    410.42564    765.36269    34340.171 
  554500    302.93615    -1524.671    526.94969    381.15219    54.483078    34340.171 
  554600    297.89546   -1513.6824    525.87247    368.11995    336.34868    34340.171 
  554700    292.46195   -1527.0221    519.03028    323.20633   -12.930755    34340.171 
  554800    300.43047   -1522.0492    520.66685    366.08613   -261.78729    34340.171 
  554900    306.73355   -1578.7087    516.80922    334.25863     593.9386    34340.171 
  555000     289.7892   -1526.2694    530.28864    323.05184     487.2186    34340.171 
  555100    304.15268    -1458.629    527.46445    453.24628    927.38987    34340.171 
  555200    306.40496    -1506.959    525.35746    413.06101    217.27394    34340.171 
  555300    309.46907   -1500.8972    508.40234    416.11455    923.80641    34340.171 
  555400     306.7227   -1504.5623    534.73547    426.28198    353.12101    34340.171 
  555500     313.7581   -1463.6607    543.65959     508.1307    633.58534    34340.171 
  555600    288.10443   -1509.7622    492.02467    293.62656   -448.07862    34340.171 
  555700    308.40349   -1494.3872     528.3228    437.69479    -495.7236    34340.171 
  555800    299.27678   -1499.3172     506.7429    369.64293   -312.87118    34340.171 
  555900     307.8179   -1498.1594    514.20641    417.14078     -585.739    34340.171 
  556000    289.27515   -1441.8315    527.51097    402.37225   -123.73794    34340.171 
  556100    306.75689   -1525.4934    497.33393    368.10488    70.270384    34340.171 
  556200    296.25307   -1512.0772    527.43186    363.80884   -281.97477    34340.171 
  556300    315.00605   -1524.6569     504.5946    413.74974   -525.46512    34340.171 
  556400    305.60674   -1524.1096    523.47452     390.3942    76.905902    34340.171 
  556500    289.99175   -1512.9879    520.34406     327.3107   -597.61026    34340.171 
  556600    295.43595   -1468.1131    506.96547    383.58727   -918.82177    34340.171 
  556700    303.21604   -1508.0724    508.08815     380.1633   -615.03351    34340.171 
  556800    297.42877   -1457.8304    511.01077      406.986   -70.826438    34340.171 
  556900    303.17118   -1499.7243    493.49866    373.71769   -362.69895    34340.171 
  557000     305.8177   -1495.1443    505.86538    402.71054    17.635297    34340.171 
  557100    293.08996   -1507.3451    517.69558    344.40719   -50.488329    34340.171 
  557200    300.92689   -1533.2999    513.74409    350.17226    681.35804    34340.171 
  557300    298.39862   -1504.2242    529.32717    383.32309    599.54513    34340.171 
  557400     290.0539   -1484.3188    504.83924    340.75792     37.73856    34340.171 
  557500    291.93738   -1479.8162    506.31309    355.30735   -767.89825    34340.171 
  557600    296.98698   -1464.0766    522.05799    409.77614   -635.11033    34340.171 
  557700    306.23286   -1484.7922    516.65828     425.7453   -778.66597    34340.171 
  557800    294.00658    -1554.549    507.45624    291.13613   -711.99201    34340.171 
  557900    301.45602   -1502.8915    510.30592    379.55086    50.063683    34340.171 
  558000    302.05363   -1503.8257    534.97139    406.00228   -453.63302    34340.171 
  558100    293.94837   -1487.6272    517.27792    367.61464   -599.29421    34340.171 
  558200    293.83608   -1500.5622    522.52281    359.41342   -745.87577    34340.171 
  558300    305.99364   -1505.9559    512.57089    399.40534    370.51924    34340.171 
  558400    300.48412   -1483.6598    516.77849    400.83137    90.098292    34340.171 
  558500     310.8895   -1490.3588    503.57412    428.29011    66.647336    34340.171 
  558600    312.89172   -1482.0405    527.78215    469.92998    315.66321    34340.171 
  558700    307.32754   -1447.7453    523.14494    474.26147   -78.516239    34340.171 
  558800    294.18249   -1475.8592    504.07631    367.24666    663.17031    34340.171 
  558900     299.6139   -1545.0995    494.06255    312.71476      532.621    34340.171 
  559000    301.57608   -1503.2398    509.48191    378.92507    588.71119    34340.171 
  559100    296.64572   -1468.6599    527.85329    409.43487    71.910856    34340.171 
  559200    306.71044   -1493.6056    513.32014    415.76753   -231.12834    34340.171 
  559300    290.70897    -1512.052    514.90523    326.07235    30.926486    34340.171 
  559400    298.15586   -1508.2116    513.46776    362.37132   -160.65173    34340.171 
  559500    299.57643    -1507.467    516.71416    372.82834    50.312963    34340.171 
  559600    301.55524   -1522.1934    503.17066    353.56534   -71.734924    34340.171 
  559700    297.00664   -1501.0108    513.99551    364.86889    71.408407    34340.171 
  559800    303.61725   -1490.2223    527.81283    419.56429    276.08534    34340.171 
  559900    294.64989   -1490.7568    516.84671    367.24687      82.3876    34340.171 
  560000     297.6415   -1538.7398    514.63358    330.66769   -21.698903    34340.171 
  560100    297.96089   -1571.7212    496.05275     280.5592     295.1565    34340.171 
  560200    301.29787   -1539.9356    511.51005    342.99107      492.386    34340.171 
  560300    289.82197   -1583.8073    512.30623    247.68067     469.8764    34340.171 
  560400    304.37815   -1538.1225    507.83516    355.14973    692.05492    34340.171 
  560500     304.4747   -1524.2481    507.84265    369.47112    254.95448    34340.171 
  560600    303.34652   -1532.5503    505.62098    353.81216    671.06148    34340.171 
  560700    294.85407   -1541.6227    525.16412    325.62778    260.26205    34340.171 
  560800    304.98227   -1507.7591    510.13713    390.56493    677.98886    34340.171 
  560900    307.38432   -1495.9101    525.30091    428.51112    199.78822    34340.171 
  561000    294.11366   -1515.7364    500.39237    323.37218   -222.39232    34340.171 
  561100    300.28163   -1529.8427    500.85059    337.79883    13.014239    34340.171 
  561200    313.16261     -1488.63    522.16594    458.95726    135.85298    34340.171 
  561300    296.52407   -1468.9088    488.97648    369.75539    22.048121    34340.171 
  561400     288.9465   -1489.0875    528.66428    354.77368    300.05292    34340.171 
  561500    297.32805   -1468.3447    522.80513     407.8076   -195.37051    34340.171 
  561600    301.30373   -1457.7765    491.24633    404.91313    632.36891    34340.171 
  561700    305.41901    -1489.188    520.73615    421.72292    271.61555    34340.171 
  561800    306.50338   -1492.6977    523.24733    425.66011    547.27646    34340.171 
  561900    291.70095   -1489.6061    516.38553    354.51373    131.75154    34340.171 
  562000    293.52936   -1521.8593    531.63594    345.83337   -330.63878    34340.171 
  562100    310.12744     -1505.25    495.21689    401.57303   -578.47837    34340.171 
  562200    292.28433   -1498.7317    516.78412    348.44215   -235.27727    34340.171 
  562300    309.56106   -1506.7593    532.54151    434.81041    82.705846    34340.171 
  562400    299.94922   -1529.3356     520.6785    356.62088    229.90815    34340.171 
  562500    294.18902   -1485.3387    510.20002    363.92057     1053.459    34340.171 
  562600    305.70055    -1538.251    534.17491    387.38018    239.91384    34340.171 
  562700    293.86343   -1493.5074    510.19495    354.26483    633.14003    34340.171 
  562800    309.33911   -1498.3885    513.00902    422.63837    425.43223    34340.171 
  562900    290.03457   -1477.9467    523.58878    365.79159    146.34733    34340.171 
  563000    294.82106   -1537.1668    511.26847     316.0378    23.177008    34340.171 
  563100    306.43643   -1492.2027    511.72883    414.33188    284.04182    34340.171 
  563200    290.34343   -1468.0555    532.55652    386.05632    571.03358    34340.171 
  563300    299.03096   -1477.3877    537.78027     421.4909    147.70074    34340.171 
  563400     301.8795   -1464.0965    489.12137    399.08889    314.60371    34340.171 
  563500     303.9089   -1465.2698    512.32599    430.35743    455.69641    34340.171 
  563600    306.46612   -1477.8837    529.62757     446.6848     553.8119    34340.171 
  563700    293.82364   -1477.1834    526.56689     386.7797    625.11004    34340.171 
  563800    297.87821    -1457.725    501.22276    399.34906     423.2391    34340.171 
  563900     303.1723   -1482.5497    514.23111    411.62989     357.2698    34340.171 
  564000    301.42735   -1460.1005    535.24281    447.14829    256.05361    34340.171 
  564100    294.50654   -1467.4369    537.22466    410.29234    527.41524    34340.171 
  564200    315.19463   -1447.4681    547.57563      534.778     446.7815    34340.171 
  564300    305.01315   -1512.5758    493.65863     369.4103    595.22706    34340.171 
  564400    302.44067   -1506.6867    486.85404    356.78564    412.87364    34340.171 
  564500    313.01105    -1493.339    527.56934    458.96178    169.01077    34340.171 
  564600    305.25018   -1488.5586    530.61039    431.45816    58.118528    34340.171 
  564700    294.94496   -1484.8741     534.5334    392.15933   -131.23382    34340.171 
  564800    308.11004   -1498.9282    506.11392    409.60922    280.53198    34340.171 
  564900    289.36899   -1486.7681    522.01887    352.37078    717.10437    34340.171 
  565000    311.79045   -1508.5601    518.16876    428.78437   -141.68809    34340.171 
  565100    306.68929   -1467.7077    539.31691    467.56596    368.28005    34340.171 
  565200    290.93494   -1487.4221    490.68291    327.50842    690.61487    34340.171 
  565300    293.06429     -1494.08    500.69896    340.55878    127.82665    34340.171 
  565400    304.53794    -1486.976    501.74473    400.93313    542.05106    34340.171 
  565500    291.29681   -1493.7175    492.51816    324.69544    401.40284    34340.171 
  565600    304.44465   -1529.5201    514.93084    371.15051    812.82958    34340.171 
  565700    298.52829   -1497.3121    499.79379    361.29202    1296.0969    34340.171 
  565800    300.33757   -1548.8334    500.51885    318.73105    503.01932    34340.171 
  565900    301.65908   -1553.8443    507.63991    326.85629    662.19807    34340.171 
  566000    298.07992   -1534.8046    500.16396    322.12878    22.890159    34340.171 
  566100    295.70153   -1503.4348    524.15986    366.66884    464.42408    34340.171 
  566200    301.58302   -1514.2848    514.69177    373.12152    639.60155    34340.171 
  566300     288.3309   -1479.3061    541.54015    374.62888    588.43573    34340.171 
  566400    290.38883   -1523.4517     505.0589    303.36912   -361.90475    34340.171 
  566500    298.80577   -1535.2397    495.47267    320.30629   -99.629206    34340.171 
  566600    303.10842   -1463.3927    518.41704    434.68201   -294.95738    34340.171 
  566700    304.64864   -1453.6877    532.87025    465.85082   -78.681286    34340.171 
  566800    313.99713   -1500.3256    515.02693    443.92107   -11.983004    34340.171 
  566900    297.26356   -1478.3691    519.88898    394.57355   -256.12532    34340.171 
  567000    295.75094   -1486.1858    532.05219    392.03502    -345.1708    34340.171 
  567100    300.61252   -1482.6704    515.89117    401.51781   -483.61411    34340.171 
  567200    299.36499   -1490.2598    536.28998    408.64892   -70.030097    34340.171 
  567300    307.34301   -1478.5309    506.57696    426.97836    175.70414    34340.171 
  567400    288.91887   -1506.1084    509.78495    318.74772   -34.404774    34340.171 
  567500    302.92496   -1482.0935    513.57884    410.30802    -270.9036    34340.171 
  567600    292.44472   -1517.0848    498.22452    312.25942   -575.70966    34340.171 
  567700    303.74091   -1549.8786     508.3824    341.04041    -111.1646    34340.171 
  567800    292.06674    -1498.228    546.02065    377.19198     -46.1104    34340.171 
  567900    291.69008    -1499.339    519.64172    347.98756    358.74795    34340.171 
  568000    298.68142    -1542.187    520.52141    337.84176    523.95761    34340.171 
  568100    297.59714   -1552.6956    522.72233    324.59871    616.89953    34340.171 
  568200    301.96277   -1517.1626    533.82493    391.10535    544.54137    34340.171 
  568300    308.19101   -1494.8343    530.09239    438.05022   -180.88063    34340.171 
  568400    300.29473   -1515.5768    510.83123    362.10504   -199.56353    34340.171 
  568500     286.1536    -1502.636    519.74413    319.59258   -166.62815    34340.171 
  568600    302.12575   -1447.9832    523.43555    450.63725   -53.425094    34340.171 
  568700    294.29535   -1495.3095     489.6397    333.87345   -348.16584    34340.171 
  568800    306.29827   -1495.2683    536.24807    435.15665    -591.7944    34340.171 
  568900    294.11716    -1532.495    507.57109    313.80826   -515.31228    34340.171 
  569000    293.71567   -1517.1741    523.54789    343.27853    -122.6483    34340.171 
  569100    302.95513   -1509.0721    524.58759    394.47542    425.34156    34340.171 
  569200    296.64657   -1504.7233    534.88093    380.40286   -91.504885    34340.171 
  569300    294.70823   -1518.7509    498.27288    320.94458    110.15792    34340.171 
  569400    307.06467    -1479.582    517.31445    435.39779    127.67018    34340.171 
  569500    305.18772   -1510.1576    524.76271    403.72709    492.48878    34340.171 
  569600    298.92501   -1477.8344    533.22288    416.00451    6.6974988    34340.171 
  569700    293.31993   -1479.4442    512.05038    367.70961   -274.94306    34340.171 
  569800    288.71339   -1497.7552    518.10215    334.48281   -301.88981    34340.171 
  569900    294.93063   -1509.3706    502.70056    335.76481    79.979842    34340.171 
  570000    305.45102   -1511.9479    517.31585    395.68849    89.237904    34340.171 
  570100    299.96438   -1493.3991    516.64754    388.59542    -482.2644    34340.171 
  570200    305.22733   -1488.4649    512.39862    413.23604   -279.80713    34340.171 
  570300    301.84442   -1474.4666    496.66296    396.10064   -187.18938    34340.171 
  570400    296.10805   -1502.6662     524.2824    369.41026    27.714065    34340.171 
  570500    312.36475    -1474.188    533.67061    481.27231    83.005322    34340.171 
  570600    308.14097    -1473.568    536.09956     465.0959    150.61496    34340.171 
  570700    297.38549   -1472.3365    504.34113    385.61325   -448.87854    34340.171 
  570800    300.93786   -1458.4222    531.77589    443.13161    35.045714    34340.171 
  570900    293.43212   -1479.3839    487.64052    343.87075   -481.99233    34340.171 
  571000    296.81008   -1499.3842    485.69928     337.3046    -118.8759    34340.171 
  571100    299.68121   -1478.9658    514.24178    399.33401   -273.00622    34340.171 
  571200    299.31214   -1501.1275    522.62554    383.87621    104.38511    34340.171 
  571300     307.0743   -1531.3457    535.57092    401.93437   -68.879606    34340.171 
  571400    309.78293   -1492.6855    482.72705    400.07955   -47.421086    34340.171 
  571500    291.97622   -1517.5871    520.62614    332.02633    -23.46047    34340.171 
  571600    311.01424    -1510.782    512.11045    416.97104     -554.502    34340.171 
  571700     294.2249    -1526.637    503.43254    316.01805   -237.33661    34340.171 
  571800    302.71207   -1513.6319    532.35238    396.57406    942.45233    34340.171 
  571900    308.91985   -1559.7748    480.84962    327.18431    670.63937    34340.171 
  572000    288.90255   -1522.6939    538.54822    330.85121    405.40096    34340.171 
  572100    293.62857   -1520.5758    504.44069    320.37316    954.05974    34340.171 
  572200    292.43383   -1522.6137    523.92573    332.38217    1494.7348    34340.171 
  572300    296.50208   -1496.1441    545.69666    399.14017    702.49243    34340.171 
  572400    295.74009   -1470.9814    509.96976    385.10756    791.23399    34340.171 
  572500    296.51548   -1490.1267     496.7765    356.29847    138.11406    34340.171 
  572600    306.94638   -1481.9069    538.39198    453.61201    254.89797    34340.171 
  572700    298.14032   -1476.1961    548.14056    428.98883    251.36628    34340.171 
  572800    292.56263   -1481.5439    523.77797    373.89046    186.12372    34340.171 
  572900    305.05084   -1481.7422    491.77551    398.53232    23.380339    34340.171 
  573000    295.69831   -1507.8318    495.35581     333.4531    -284.5765    34340.171 
  573100    300.83331     -1522.19    517.38334    364.49544      201.215    34340.171 
  573200    290.19549   -1516.3764    492.29803    296.80352    178.74164    34340.171 
  573300    295.51621   -1500.6038    530.31533    374.81174    91.296772    34340.171 
  573400     297.0911    -1536.603    513.58876    329.25444   -524.69636    34340.171 
  573500    291.79151   -1494.8195    500.26828    333.59528   -334.92768    34340.171 
  573600    307.03178   -1511.9781    521.99488    407.53239    130.15272    34340.171 
  573700    308.73266   -1519.2836    515.00193    400.97586    99.655604    34340.171 
  573800     300.8405      -1483.6    522.03452    407.76935    -644.7008    34340.171 
  573900    296.94818   -1505.4192    500.56424    346.76316   -428.31658    34340.171 
  574000    301.22437   -1534.3972    520.55002    357.23489   -576.21785    34340.171 
  574100    300.02146   -1519.1421    513.00676    359.47146    505.76823    34340.171 
  574200    300.90023   -1517.8165    511.76949    363.55967    926.64931    34340.171 
  574300    304.77913   -1562.1782    522.46467    347.54878     294.0714    34340.171 
  574400    302.73511   -1539.2357    479.57937    318.30209   -444.61269    34340.171 
  574500    307.53275   -1499.3707     512.9714    413.39662   -566.95689    34340.171 
  574600    299.10395    -1481.731    508.24288     387.9424   -675.34073    34340.171 
  574700    306.42562   -1547.9677    514.29595    361.08479    493.01495    34340.171 
  574800    293.20685   -1510.9252    492.60803    316.27152    47.556022    34340.171 
  574900    297.56881    -1514.906    486.43149     325.9685   -352.64337    34340.171 
  575000    287.07741   -1484.4933    495.06317    317.25927   -809.80847    34340.171 
  575100    302.07228   -1489.6951    475.95858      361.205    -1053.656    34340.171 
  575200    304.44703   -1514.5778    501.98677    373.15958   -792.08922    34340.171 
  575300    310.46558   -1547.8703    474.01713    339.29211   -652.56435    34340.171 
  575400    300.90955   -1558.6029    491.33007    302.37622   -806.17055    34340.171 
  575500    301.80574   -1496.7495     540.3483    417.32704    12.674633    34340.171 
  575600    296.52169   -1515.2612    523.69335    358.10905   -205.64397    34340.171 
  575700    296.16483    -1498.313    466.27243    316.01197   -218.59202    34340.171 
  575800    288.90335   -1559.5697    499.86802    255.29877   -23.401731    34340.171 
  575900    294.68478   -1498.9466    512.04922    354.41842     491.7522    34340.171 
  576000    307.45456   -1496.1622    494.37006    397.64787    571.26712    34340.171 
  576100    299.03934   -1451.8414    528.53855    437.83363   -88.615041    34340.171 
  576200    303.22175   -1486.6789    516.82326    410.31784   -165.68813    34340.171 
  576300    307.52504   -1484.5224    511.19908    426.43749   -202.06429    34340.171 
  576400    285.81126   -1477.3623    504.93852    328.50246   -864.17535    34340.171 
  576500    304.85468   -1500.1536    492.84131    380.29383    12.041983    34340.171 
  576600    304.19076    -1495.143    523.91132    413.35248    465.34699    34340.171 
  576700    311.84628   -1475.7175    500.97612    444.68837    111.51726    34340.171 
  576800    305.84779   -1500.4211    525.94442     417.6498   -830.73938    34340.171 
  576900    300.43248   -1478.4697    508.23819    397.24608   -787.75335    34340.171 
  577000    303.84719   -1468.1138    532.69119    447.59774   -255.39761    34340.171 
  577100    301.51797   -1468.0232    535.62496    440.02015   -504.37765    34340.171 
  577200    298.40544   -1487.4095    508.93082    379.77247    -438.2556    34340.171 
  577300    309.83748   -1513.0682    506.31008    403.52815   -371.22297    34340.171 
  577400     298.8633   -1476.9989    518.97092    402.30718   -579.63756    34340.171 
  577500    308.98754   -1470.4058    497.09636     433.1082   -186.68219    34340.171 
  577600    301.30812   -1473.8561    520.48003    418.08713   -311.12089    34340.171 
  577700    302.97901    -1496.783    501.58232     383.8679   -27.005001    34340.171 
  577800    293.80057   -1497.9755    498.29765     337.6133   -20.175306    34340.171 
  577900    294.60624   -1464.3267    484.31147    360.94312   -79.885308    34340.171 
  578000    301.17566   -1509.6891    505.44328    366.61453     367.0001    34340.171 
  578100    296.49815   -1473.3065    514.47428     390.7375    313.50465    34340.171 
  578200     306.0848   -1481.0438    535.06338     447.2248    82.764195    34340.171 
  578300    297.76875   -1499.3746    509.24706    365.22561   -305.12207    34340.171 
  578400    297.77016   -1466.5442    503.20328    392.01866   -551.14945    34340.171 
  578500    298.22364    -1492.471    503.81573    368.76833   -1.1769208    34340.171 
  578600    303.83519   -1487.0848     519.4992    415.38011    227.18692    34340.171 
  578700    292.03483   -1492.7261    527.28858    363.81648    392.31999    34340.171 
  578800    300.92586   -1482.0868    490.76939    378.40592    168.50091    34340.171 
  578900    305.30246   -1525.7683    504.83054    368.70647    290.01266    34340.171 
  579000    304.94779     -1513.23    526.49555    401.29553    -85.56439    34340.171 
  579100    300.93896   -1497.5115    527.11088     399.3823    304.79139    34340.171 
  579200    303.89926   -1506.6788    512.11705    388.69562    133.54631    34340.171 
  579300    293.65815   -1479.6441    514.97803    371.97687    147.98453    34340.171 
  579400    297.89115   -1559.0701    500.08747    296.92764   -275.10411    34340.171 
  579500     293.8417   -1486.0684    488.30984    339.71979   -432.73326    34340.171 
  579600    310.33777   -1486.6933    514.46805    440.33824   -31.843945    34340.171 
  579700    295.95546   -1475.9259    520.82298    391.99666   -176.57732    34340.171 
  579800    308.35715   -1486.8385    517.71839    434.42816    363.58571    34340.171 
  579900    300.57519    -1493.528    525.41259    400.01172    706.74127    34340.171 
  580000    290.70416   -1502.4674    512.29719      333.027     435.8022    34340.171 
  580100    291.51845    -1501.954    532.68633    357.63603   -234.65552    34340.171 
  580200    294.00409    -1479.751    503.75901     362.2255   -333.01706    34340.171 
  580300    296.52314    -1509.163    524.71933    365.23979    254.00337    34340.171 
  580400    294.45678   -1506.0054    523.54833    357.82096    387.94978    34340.171 
  580500    293.48614   -1512.2449    506.92335    330.53835    113.41293    34340.171 
  580600    292.09647   -1497.4218    505.52477    337.63755    -399.1027    34340.171 
  580700    292.47619   -1528.5665    492.25632    294.95282    695.76091    34340.171 
  580800    294.53604   -1541.2296     496.8017    296.21091    317.87979    34340.171 
  580900    312.95789    -1492.321    504.46121     436.6297    4.4652793    34340.171 
  581000    296.24549   -1498.3774    525.88813    375.93038   -227.51762    34340.171 
  581100    306.73381   -1514.5368    521.30377    402.92629    65.406632    34340.171 
  581200    303.87984   -1507.7668    547.94303    423.34519    223.38891    34340.171 
  581300    292.71002   -1531.8396    501.42965    301.91738     111.2973    34340.171 
  581400    287.06809   -1523.8577    526.35528    309.14456   -527.49253    34340.171 
  581500      298.327   -1493.3381    514.72056    379.27653   -364.72641    34340.171 
  581600    292.34801   -1484.0992    507.66053    354.24094    -103.0296    34340.171 
  581700    301.61763   -1481.6186    534.40605    425.65949    228.67773    34340.171 
  581800    294.57732    -1473.974    508.43592    375.28865    817.14056    34340.171 
  581900    292.16176   -1494.2761    521.78057    357.33633    862.04369    34340.171 
  582000    308.89271   -1556.2351    504.59586    354.34677    618.81379    34340.171 
  582100    302.38591    -1520.264    511.58572    367.69075    538.16265    34340.171 
  582200    302.01823    -1504.496      523.932    394.13146    323.34541    34340.171 
  582300    302.57091   -1517.4161    522.75917    382.55415    884.86717    34340.171 
  582400    313.49431   -1486.6103    514.78916    455.10998    1087.9326    34340.171 
  582500    298.27842   -1482.8877    516.14081    390.92601    1138.3543    34340.171 
  582600    301.49741   -1555.4845    522.43422    339.27459    404.00258    34340.171 
  582700    302.32572   -1537.7432    518.30136    356.65317    349.05996    34340.171 
  582800    293.89034   -1496.5569    537.50274     378.6456   -18.852658    34340.171 
  582900    295.22713    -1494.166    495.49415    345.11259    213.02846    34340.171 
  583000    291.03042   -1528.7677    493.68787    289.60248   -507.19455    34340.171 
  583100    299.72211   -1510.2164     523.8206     377.8484   -699.46106    34340.171 
  583200    294.12146    -1483.259     511.9754    367.46816    47.310655    34340.171 
  583300    307.54969   -1552.4535    485.88787     333.3073      42.9298    34340.171 
  583400    304.81545   -1507.3769    543.05825    423.10887    17.661449    34340.171 
  583500    295.22142    -1550.744    490.58843    283.60288   -266.62312    34340.171 
  583600    299.52324   -1506.5061    531.08326    387.91617   -713.97931    34340.171 
  583700    301.44283   -1527.9637    484.22271    328.33539    190.87094    34340.171 
  583800    293.17204   -1517.1577    526.26469    343.53723    474.77919    34340.171 
  583900    294.15924   -1540.8257    506.36342    304.46145     317.4592    34340.171 
  584000    292.83978   -1605.6597    522.49539    249.75367   -392.90656    34340.171 
  584100     300.4723   -1490.4172    494.94031    372.18197   -939.92439    34340.171 
  584200    304.62356   -1495.4028    525.93481    417.08615    -756.2884    34340.171 
  584300    295.65944   -1524.5806    526.57198     347.7436   -433.96752    34340.171 
  584400    313.01022   -1533.5961    530.49792    421.62949   -99.079531    34340.171 
  584500    297.12413   -1514.3854    522.68589    360.71946   -273.14424    34340.171 
  584600     301.3146   -1514.3892    517.46306     374.5666   -145.31095    34340.171 
  584700    305.53412   -1487.7644    500.41283    403.34713   -260.18302    34340.171 
  584800    296.20673   -1517.3141    523.95908    354.88828   -74.903461    34340.171 
  584900    305.07866   -1491.3817    517.78499    415.02887    834.68613    34340.171 
  585000    300.59522   -1520.4585    501.32674    349.08656    317.39019    34340.171 
  585100    297.37606   -1485.5312    507.76401    375.79852    197.97845    34340.171 
  585200    291.70143     -1494.29     527.6379    361.08442    350.89531    34340.171 
  585300    305.81807   -1475.4326    529.82954    446.38811     1068.199    34340.171 
  585400    307.54951   -1478.9043    522.40356     443.3714   -122.55356    34340.171 
  585500    298.04155   -1470.0955    514.15669    400.65598    -147.3707    34340.171 
  585600    298.83908   -1466.1615    520.66283    414.72628   -346.32635    34340.171 
  585700    298.02029   -1462.3072    521.79218    415.98301   -404.95464    34340.171 
  585800    290.14601   -1456.9622    527.74109     391.4356   -239.17026    34340.171 
  585900    307.07744   -1488.7228    534.95428    443.95489    403.70723    34340.171 
  586000    294.58248   -1493.5277    522.09969    369.42216    818.51759    34340.171 
  586100    302.50132   -1512.1653    545.28818     410.0172     314.3809    34340.171 
  586200    300.10414   -1506.9604    506.03036    365.05302    881.01711    34340.171 
  586300    311.47962   -1489.5614    530.95708    459.15653    409.94614    34340.171 
  586400    304.51493   -1509.0342    534.70148    411.72695   -59.708297    34340.171 
  586500    293.33219   -1526.9745    502.25376    310.43848     476.6099    34340.171 
  586600    296.40184   -1530.2985    511.79791    330.63077    317.78416    34340.171 
  586700    287.35124   -1554.0706    521.01279    274.87796    890.52461    34340.171 
  586800    295.69709   -1520.1194     537.5342    363.33834   -47.797319    34340.171 
  586900     301.5509   -1515.2213    531.69912    389.04609   -258.55907    34340.171 
  587000    297.44407   -1531.4805    505.09892    327.49366    683.87368    34340.171 
  587100      304.534   -1507.7021    517.44224    395.88665   -312.64195    34340.171 
  587200    295.54056   -1514.0637    514.19182    345.33919   -29.677504    34340.171 
  587300    297.56692   -1519.2469    546.66395    381.85147   -187.28227    34340.171 
  587400    300.77819   -1512.9049    522.69908    378.84532    178.47985    34340.171 
  587500    303.86945   -1513.0483    508.08594    378.15934   -180.69129    34340.171 
  587600     295.5635   -1528.1933    522.40273    339.52491   -513.06842    34340.171 
  587700    296.74765    -1516.811    532.24929    366.14366   -44.964337    34340.171 
  587800    296.69575   -1491.1169    522.64829    382.00055   -240.57393    34340.171 
  587900    292.30903   -1480.7288      524.192    373.96529    -736.7369    34340.171 
  588000    298.46895   -1505.3663    548.21483    401.38875   -984.60905    34340.171 
  588100    291.57428   -1527.0922     524.5932    324.65877   -593.02652    34340.171 
  588200    306.34946   -1548.8232    514.77784    360.36457   -604.95768    34340.171 
  588300    292.48989   -1558.6798    527.45153    300.09706   -117.47563    34340.171 
  588400    298.76853   -1560.8262    516.53574    315.61331   -300.51685    34340.171 
  588500    302.89737   -1538.8926    507.92154    347.72594   -236.74038    34340.171 
  588600    292.86321   -1499.7993    526.41875      359.644    463.12022    34340.171 
  588700    305.65727   -1539.5674    512.85712    364.54901    50.901397    34340.171 
  588800    297.09734   -1500.2535    510.44079    362.48433    14.432761    34340.171 
  588900    289.14679   -1535.4942    523.02179    303.63616   -495.91284    34340.171 
  589000    311.84407   -1523.4255    495.39254    391.38672    613.25856    34340.171 
  589100    296.36291    -1531.575    495.49376    312.87297    841.11064    34340.171 
  589200    293.98267    -1529.861    536.50808    344.76714    258.82717    34340.171 
  589300    301.57464   -1490.9665    511.48986    393.19969    172.63052    34340.171 
  589400    313.49094   -1544.8967    522.59611    404.61519    297.02665    34340.171 
  589500    298.40167   -1505.7683    530.89206     383.3577    367.74499    34340.171 
  589600    300.46653   -1523.0441     537.9349    382.52337    278.32299    34340.171 
  589700    313.94337   -1549.4968    491.08509    370.56336    70.856424    34340.171 
  589800    292.95854    -1513.099    532.75572    353.11517   -71.254433    34340.171 
  589900    305.19598   -1536.1074    528.95943    382.01159    -91.28415    34340.171 
  590000    291.01629   -1533.5623    532.04944    323.10509   -57.265587    34340.171 
  590100    304.35087   -1540.1983    529.47528    374.58988   -948.69287    34340.171 
  590200    302.56387   -1524.3826    521.03006     373.8265   -1173.1346    34340.171 
  590300    297.00005   -1537.1723     542.8974    357.57936   -234.28976    34340.171 
  590400    293.06367   -1546.5127    534.72978    322.15405     94.36614    34340.171 
  590500    303.32331   -1555.9949    523.40786    348.04869    51.496275    34340.171 
  590600    289.94129   -1594.8384     510.7591     235.6456    25.268194    34340.171 
  590700    303.53417   -1518.9985    531.90625    394.50326    584.11218    34340.171 
  590800    298.40378   -1519.9706    536.03342    374.30642    236.83899    34340.171 
  590900    296.96419   -1508.3808    537.26594     380.5762   -51.970901    34340.171 
  591000    294.96536   -1535.3295    535.94227    343.20566    134.82973    34340.171 
  591100    304.27739   -1476.4988    557.38613    465.86576    139.10306    34340.171 
  591200    291.49281    -1478.924    515.82852    363.69144    31.525127    34340.171 
  591300    295.15317   -1501.1902    527.47723     369.7348    122.54822    34340.171 
  591400    294.62977   -1515.8269    549.81545      375.054    304.64074    34340.171 
  591500     304.0061   -1538.0888    503.46332    349.11818   -338.20436    34340.171 
  591600    297.68195   -1528.6715    491.10732    317.39386    301.64201    34340.171 
  591700    291.75067   -1485.3964    567.11632    409.68057    38.207845    34340.171 
  591800     301.8292   -1490.1318     516.1732    399.87646   -527.67067    34340.171 
  591900    301.65779   -1525.8146    488.97032    336.21054    -1236.401    34340.171 
  592000    290.07847   -1496.5534    511.88469    335.68062   -1065.6957    34340.171 
  592100    294.78308   -1461.5834    538.98406    419.16393   -121.67652    34340.171 
  592200    303.10724    -1491.624    555.61494    443.64325   -5.3467282    34340.171 
  592300    303.49497    -1521.287    519.25442    379.38456    222.66688    34340.171 
  592400     307.6218   -1484.8367    508.99253    424.35706    524.31879    34340.171 
  592500    305.38166   -1506.2494    533.83809     417.5935    248.53745    34340.171 
  592600     293.9963   -1493.9829    523.79783      367.997   -301.46539    34340.171 
  592700    300.89604   -1489.8967    540.04559    419.73648   -721.05423    34340.171 
  592800    305.93023   -1514.8182    524.77767    402.46114   -178.90597    34340.171 
  592900    301.37487   -1473.9559    552.29916     450.1103    -35.54346    34340.171 
  593000    302.21099   -1485.3632    557.00416    447.21382    58.356824    34340.171 
  593100    302.58653   -1504.5928    532.07261    404.76197    754.04364    34340.171 
  593200    297.11496   -1505.2892    547.30977     394.3978    275.04095    34340.171 
  593300    295.37641   -1476.5463    556.71896    424.63654    260.07816    34340.171 
  593400    308.25017   -1473.5853    529.56187    459.03794    282.97978    34340.171 
  593500    297.78128   -1477.6891    546.72052    424.44156   -15.758166    34340.171 
  593600    296.55699   -1522.9552    536.90494     363.7873   -500.81799    34340.171 
  593700    293.15711   -1477.6456    550.64318    407.35991   -614.48659    34340.171 
  593800    306.29311   -1460.5259    539.94008    473.56758   -361.64047    34340.171 
  593900    299.27646   -1484.1507    518.42266     396.4877   -187.52878    34340.171 
  594000     295.3924   -1507.1076    539.94451    377.37353    456.37714    34340.171 
  594100    300.64674   -1482.3942    533.09377    419.15241    308.45847    34340.171 
  594200    293.30453   -1518.7398    521.85035    338.14387    255.54597    34340.171 
  594300    289.00124   -1506.8553     545.3364    353.92713    431.90495    34340.171 
  594400    295.21232   -1522.1103    532.99749    354.60424    500.59981    34340.171 
  594500    300.18006   -1559.8013    528.90983    335.43717    663.74391    34340.171 
  594600     305.0093   -1560.4813    531.59977    359.42838    561.46056    34340.171 
  594700     307.6821   -1524.6653    525.19938    401.00981    242.83524    34340.171 
  594800     314.6416   -1506.8826    522.28194    447.55256    135.48295    34340.171 
  594900    296.73405   -1517.7345    554.12813    387.03706    86.496088    34340.171 
  595000    307.32457   -1535.5306    559.25626    422.57398   -793.26388    34340.171 
  595100    306.20466   -1544.3397     527.9461    377.35726    395.08306    34340.171 
  595200    297.70188   -1558.3238    532.17069    328.89565    252.36146    34340.171 
  595300    288.21817   -1549.4173    532.92324    295.38775    183.24329    34340.171 
  595400    297.82201   -1558.2281    515.52842    312.89588    31.010665    34340.171 
  595500    300.65926    -1573.748    521.04413    315.80593   -9.4716888    34340.171 
  595600    298.47901   -1576.6354    504.21757    286.16817   -433.78804    34340.171 
  595700    295.16483   -1560.9671    528.45268    310.98646   -201.63499    34340.171 
  595800    300.69951   -1549.2808    510.26372    329.67593   -537.67947    34340.171 
  595900    292.10082   -1523.8874     525.1647    330.83175   -149.12359    34340.171 
  596000     299.7219    -1550.463    564.16522     377.9455   -120.91336    34340.171 
  596100    308.16822   -1606.9901    527.64536    323.34363    708.47994    34340.171 
  596200    302.44064   -1553.7765    532.22169    355.06337   -48.810339    34340.171 
  596300    298.13893   -1525.5039    556.92017    388.45437   -228.82142    34340.171 
  596400    303.09199   -1522.5029    514.78721     371.8672    -552.5068    34340.171 
  596500    303.75687   -1543.2002    526.85746    366.26646    422.78147    34340.171 
  596600    290.85868   -1562.9589    512.26649    273.20814    745.16182    34340.171 
  596700    295.12946    -1573.197    574.90675    345.04963    180.60173    34340.171 
  596800    294.81648   -1557.9226    524.06241    308.05514    357.70998    34340.171 
  596900    296.86854   -1536.4516    554.79895    369.60297   -185.56739    34340.171 
  597000    303.87221   -1537.7624    532.33992    377.71171    312.48887    34340.171 
  597100    291.72269   -1514.5625    559.74181    373.01255    234.35544    34340.171 
  597200    293.81428    -1529.498    544.30769    352.16326   -421.05837    34340.171 
  597300    298.54486   -1509.5175     548.2118    397.58004    156.53025    34340.171 
  597400    307.77144   -1535.5389    572.96803    438.31147   -139.02997    34340.171 
  597500    296.22815   -1513.1702    532.16808    367.33865     269.4833    34340.171 
  597600    302.01377   -1499.7965    554.89013    429.76872     84.16762    34340.171 
  597700    296.84124   -1541.1077    562.67679    372.70045   -464.34373    34340.171 
  597800    305.68463   -1548.3933    523.67207    366.66257   -418.91786    34340.171 
  597900    297.02378   -1530.4607    536.51816    358.01965   -877.44844    34340.171 
  598000    298.32777   -1563.6794    533.05949    327.27771   -993.00452    34340.171 
  598100    296.91743   -1583.0565    529.44428    297.86595   -1082.7304    34340.171 
  598200    301.96557   -1594.3826    545.34926     325.4224   -555.09017    34340.171 
  598300    299.35871    -1537.811    509.48939     334.2685    78.581471    34340.171 
  598400     299.6946   -1576.1056    537.88217    325.89553   -18.505089    34340.171 
  598500    300.79556   -1553.3123    554.28435     370.1023    103.84066    34340.171 
  598600    290.67247   -1551.2637    545.86458    317.65392    363.04146    34340.171 
  598700    302.25876   -1504.7514    541.17342    412.21227    73.684756    34340.171 
  598800    303.74991   -1516.5595    538.99611    405.01421   -117.03264    34340.171 
  598900    288.89569   -1571.1758    527.68788     271.4777   -632.42297    34340.171 
  599000    299.63021   -1533.3417    526.17933    356.66355    252.92151    34340.171 
  599100    307.23282   -1558.4112    530.89801    370.91747     170.2135    34340.171 
  599200    301.61667   -1553.9506    528.68327    347.60035   -93.717619    34340.171 
  599300    297.88485   -1553.7784    537.15317     339.2564    90.278801    34340.171 
  599400    296.11909   -1536.8656    526.61105    337.58979   -160.59958    34340.171 
  599500    308.42382   -1597.3795    518.26061     324.7329     404.9698    34340.171 
  599600    302.42747   -1572.6589    523.56046    327.45981   -143.98226    34340.171 
  599700    291.91117   -1540.2291    530.18579    318.64785   -495.80412    34340.171 
  599800    307.30137   -1568.7151    530.41184    360.43944    78.084921    34340.171 
  599900     307.0488   -1548.6458    523.62442    372.57173    287.40795    34340.171 
  600000    305.22005   -1575.0509     550.6903    364.90858   -137.08082    34340.171 
  600100    299.42017    -1560.745    523.73038    325.85531    477.24029    34340.171 
  600200    296.38166   -1586.3067    516.85388    279.58664     189.9807    34340.171 
  600300    306.58286   -1536.2909    522.00833    381.18968    145.82856    34340.171 
  600400    288.63512   -1541.1048    553.81148    326.48627    774.00158    34340.171 
  600500    305.78897   -1545.8415    513.44673    359.46397    789.70543    34340.171 
  600600    305.20604   -1576.3302    525.02838     337.9036    629.19688    34340.171 
  600700      300.449   -1586.5487    527.41105    308.41512    -59.36929    34340.171 
  600800    292.02671   -1574.9871    535.18882    289.41883    89.738202    34340.171 
  600900    287.54437   -1580.1336     519.1461    247.82738     29.07569    34340.171 
  601000    297.08016   -1539.5004    515.02663     327.7451    290.93443    34340.171 
  601100    304.72987    -1519.507    526.44314    393.97419   -133.53141    34340.171 
  601200    312.84038   -1531.7759    487.03916    379.21789   -243.10937    34340.171 
  601300       303.82   -1557.8171    526.68987    351.76935    267.49711    34340.171 
  601400    299.93506   -1549.7028    518.35389    333.86457    262.68936    34340.171 
  601500    296.89724   -1510.6757      542.231    382.94156   -121.15025    34340.171 
  601600    310.70687    -1481.262    508.33232    441.31387    488.06791    34340.171 
  601700    291.35208   -1505.4305    507.10949    327.82536   -376.40768    34340.171 
  601800    302.97938   -1539.7251    537.08312    376.42834   -412.73709    34340.171 
  601900    298.78879   -1515.3281    498.31748     342.9854   -295.11118    34340.171 
  602000    303.56369   -1527.9288    553.29708    407.09819   -559.38715    34340.171 
  602100    297.92494   -1493.9455    521.49708    383.61567   -1025.6156    34340.171 
  602200    293.35344    -1518.562    541.87529    358.56928   -989.23533    34340.171 
  602300    310.32909   -1514.7214    489.28797    387.09058   -944.16147    34340.171 
  602400    303.97803   -1563.3917    538.02366    358.24786   -347.65202    34340.171 
  602500     292.2576   -1560.0417    510.27158    280.49793   -50.016844    34340.171 
  602600    302.20396   -1586.9142    507.18628     295.8129    28.534435    34340.171 
  602700    303.65709   -1600.1692    510.90772    292.89354   -181.13268    34340.171 
  602800    300.48257   -1579.2967    497.30538    285.71422   -604.62498    34340.171 
  602900    299.92213   -1541.6427    546.67899    370.19091    376.12846    34340.171 
  603000    303.59355   -1576.2173    510.01622    315.66469    232.81041    34340.171 
  603100     294.5176   -1573.6152    522.46729    289.40695    635.27315    34340.171 
  603200    303.46685   -1548.2544    522.29059    355.32531    254.82393    34340.171 
  603300    308.80726   -1529.3776    498.72265    374.94209   -51.212975    34340.171 
  603400    299.41743   -1515.6339    521.84561    369.06912   -778.32747    34340.171 
  603500     302.1868   -1526.0907    523.51868    372.89074   -227.49195    34340.171 
  603600    302.11381   -1528.8925    539.72472    385.96273   -226.62059    34340.171 
  603700    302.00511   -1570.6905    552.18549     356.1307   -139.41073    34340.171 
  603800    294.91831   -1600.7336    510.76646    252.41164   -188.24521    34340.171 
  603900    291.52734   -1558.4916     513.1762    281.62875   -371.71299    34340.171 
  604000    296.67689   -1571.3793    524.83618    303.84015   -376.58786    34340.171 
  604100    298.12772   -1581.0921    548.14998    324.04494    193.61275    34340.171 
  604200    324.45112   -1559.3551    549.28721    466.73527    202.44413    34340.171 
  604300    295.61061   -1579.7627    486.20961    251.97682   -126.51074    34340.171 
  604400    288.93866   -1587.0417    529.58921    257.70878   -348.18863    34340.171 
  604500    293.02994   -1609.5222    524.00864    248.26988    202.42452    34340.171 
  604600    299.92519    -1570.722    507.76521    302.21178    326.34417    34340.171 
  604700    296.16647   -1563.6714    509.28301    293.67159   -378.49499    34340.171 
  604800    291.97346   -1596.0243      510.571    243.52142    151.36702    34340.171 
  604900    308.30001   -1585.0438    513.77569    332.02008   -484.30917    34340.171 
  605000    303.34385   -1559.8281    522.48593    343.38715   -387.50482    34340.171 
  605100    308.65875   -1592.4972    556.43697    368.86087    91.146751    34340.171 
  605200    304.43247   -1598.8389    523.87125    310.71666    134.44525    34340.171 
  605300     302.7712    -1588.644    535.80429    325.28308    63.408483    34340.171 
  605400    295.33986   -1605.3148    503.68762    242.67041   -325.81289    34340.171 
  605500    294.36009   -1534.3075    553.19839    358.72881   -243.93723    34340.171 
  605600    295.62205   -1531.5045    540.18722    354.26475   -483.98613    34340.171 
  605700    304.39157   -1524.4378    547.35789    408.41827   -278.01075    34340.171 
  605800    304.30055   -1534.4787    535.59215    386.19733   -328.85102    34340.171 
  605900    301.63566   -1552.6217    543.98575    364.31813   -63.523368    34340.171 
  606000    295.39183    -1566.165    508.59555    286.96467   -473.11566    34340.171 
  606100    286.96971   -1591.1311    518.62157    233.68961     117.9617    34340.171 
  606200    288.35756   -1579.2116    533.67434    266.97892   -288.28284    34340.171 
  606300    311.48141   -1553.1982    549.50676    414.07749   -209.98075    34340.171 
  606400    301.50622   -1530.2223    535.85495    377.99758    -159.6175    34340.171 
  606500      301.716   -1532.6374     515.9448    356.62722   -364.57881    34340.171 
  606600    301.63847   -1542.4349    544.43327    374.96527    -330.0927    34340.171 
  606700    287.94501   -1535.5611    543.99965    319.07698   -171.48922    34340.171 
  606800    300.10754   -1538.1249    534.88556    362.75923    234.22795    34340.171 
  606900    308.65373   -1558.5631    543.68998    390.02518    571.58328    34340.171 
  607000    301.66077    -1545.342    542.29796    370.02437    589.68579    34340.171 
  607100    305.16808   -1544.4774    531.80523    376.36043    849.04447    34340.171 
  607200    294.51133   -1555.7036    485.37241    270.19518    263.14173    34340.171 
  607300    310.54305   -1549.6299     555.1208    418.98871    497.04688    34340.171 
  607400    299.29936   -1505.8534    506.97868    363.44532    349.14676    34340.171 
  607500    300.36322   -1534.0437    570.90729    404.02594    837.41322    34340.171 
  607600    299.08902   -1513.2684    514.61388     362.7081    702.27893    34340.171 
  607700    302.98518   -1508.2339    559.71339    430.57619      293.076    34340.171 
  607800    303.52747   -1571.4516    504.87496    314.98839    242.28545    34340.171 
  607900    308.23895   -1582.5458    579.17276    399.63727    60.175567    34340.171 
  608000    290.51153   -1558.6943    524.74163    288.36773    642.70172    34340.171 
  608100    298.70801   -1579.0121    540.12503    320.74128    358.11355    34340.171 
  608200    298.63237   -1574.8522    532.05422    316.48603    572.77128    34340.171 
  608300     297.7212   -1575.2342     534.1256    314.02805    600.34945    34340.171 
  608400    292.86129   -1533.8827    518.52188    317.65496    50.939823    34340.171 
  608500    299.30762   -1520.8159    532.39435    373.93604    -452.3921    34340.171 
  608600    303.05446   -1520.9977    541.44931    399.86367   -112.39316    34340.171 
  608700    297.04964    -1546.663    523.50896    328.92595   -334.48279    34340.171 
  608800    297.25655   -1542.7752     544.5047    354.75126   -4.5803425    34340.171 
  608900    301.69871   -1569.8303    520.19935     323.6102   -14.789531    34340.171 
  609000    309.24857   -1565.9006    511.24781    352.95297   -172.19122    34340.171 
  609100    299.59065   -1588.2587    521.51331     296.9004   -830.09718    34340.171 
  609200    301.52445   -1550.1047    502.41612    324.75936    56.417797    34340.171 
  609300     291.0999   -1537.8001    537.52571    324.72418   -26.715905    34340.171 
  609400    294.74768   -1605.3885    514.92077    251.13442   -52.716003    34340.171 
  609500    290.93851   -1602.0221    504.83704    227.07888   -606.48531    34340.171 
  609600    309.27439   -1567.0154    528.34801    369.05593     395.5316    34340.171 
  609700    308.06986   -1543.4518    526.20855    384.99734   -145.55686    34340.171 
  609800    297.44784   -1553.2792    501.27547     301.8887    180.96111    34340.171 
  609900    302.02169    -1604.944    513.23402    283.00124    363.43124    34340.171 
  610000     300.8729    -1565.093    512.71324    317.10252    556.21594    34340.171 
  610100    308.27933   -1535.4325    530.51998    398.28154   -566.78903    34340.171 
  610200    310.69777   -1565.1754    532.51766    381.54436    170.27694    34340.171 
  610300    299.91925   -1523.1678    553.40377    395.37747   -90.723118    34340.171 
  610400    295.59507   -1531.3344    498.93943    313.06419   -186.49223    34340.171 
  610500    309.08092   -1530.3988    524.31845    400.76233    307.22986    34340.171 
  610600    295.87888   -1534.7128     541.2661    353.30429    173.38728    34340.171 
  610700    308.15042   -1564.5779    506.81681    344.84628    822.19808    34340.171 
  610800    301.13206   -1524.9163    538.03619    383.78182   -41.511122    34340.171 
  610900    296.35297   -1499.4808    546.56948    395.99758    414.43626    34340.171 
  611000    297.94044   -1497.5788    539.48597     398.0418    632.39218    34340.171 
  611100    301.87627     -1518.22    563.25732    419.08667    349.43466    34340.171 
  611200    296.95889   -1517.4324    528.17477    362.40928     483.4516    34340.171 
  611300     309.3363   -1517.5377    520.51714    410.98451    534.69903    34340.171 
  611400    301.92408   -1511.4613    518.50451    381.31008    353.84697    34340.171 
  611500    304.74683   -1529.9881    543.95418    401.08131      522.563    34340.171 
  611600    301.82396   -1499.2502    532.77898    407.33997   -47.011782    34340.171 
  611700    301.32788   -1526.2309    513.00039    358.32267   -286.87408    34340.171 
  611800    293.39293   -1510.6786     535.8782    360.63527   -197.97141    34340.171 
  611900    294.10885   -1530.2893    537.63448    346.03955    24.163579    34340.171 
  612000    297.76598   -1493.4849    535.56711    397.42275   -435.60498    34340.171 
  612100    293.52701   -1469.2343    533.12267    399.93435   -798.20271    34340.171 
  612200    307.64449   -1478.7432    540.17735    461.73863   -688.04813    34340.171 
  612300    293.45893    -1481.186    525.43983    379.98992    -839.3691    34340.171 
  612400    297.25857   -1520.5384    528.78789    361.28041   -440.50871    34340.171 
  612500    299.49293   -1499.2118    512.31163    376.30087   -204.84099    34340.171 
  612600    291.55146    -1467.992    524.44083    383.50267   -290.11723    34340.171 
  612700    301.35839   -1506.1642    519.41417    384.94204   -390.81223    34340.171 
  612800    294.58794   -1499.7112     531.2881     372.4519   -1002.2596    34340.171 
  612900    305.82885   -1519.5431    496.54913    369.04623   -599.57871    34340.171 
  613000    313.31557   -1532.0457    500.15931    394.23114    153.49557    34340.171 
  613100    310.00016   -1565.1482    519.95395     365.8325    70.929886    34340.171 
  613200    309.20608    -1580.063    511.48512    338.83444    28.551166    34340.171 
  613300     295.8812   -1534.3687     516.1614    328.55426   -499.80721    34340.171 
  613400     288.1151    -1560.811    516.57706    267.17872   -958.41616    34340.171 
  613500    298.40732   -1602.8542    501.65627    257.06174   -620.35761    34340.171 
  613600    300.20749   -1590.8111    519.45686    295.09927   -241.88121    34340.171 
  613700    301.90537   -1542.9061    517.28604    348.56168   -353.67893    34340.171 
  613800    295.73632    -1558.075    509.36215    297.38924    1.6836342    34340.171 
  613900    292.55313   -1587.5883    547.37511    291.40001   -238.48593    34340.171 
  614000    303.52423   -1535.1112    504.33762    350.77676    120.65978    34340.171 
  614100    294.30284   -1575.2015    508.56999    272.94582    635.60046    34340.171 
  614200    294.85099   -1566.6474    535.44318    310.86817    398.40244    34340.171 
  614300    307.28887   -1546.4648    528.84373     381.0647    440.26795    34340.171 
  614400    310.06956    -1544.416    528.23433    395.16098    279.83075    34340.171 
  614500    307.92589   -1553.0001     522.3499    370.93515    399.61211    34340.171 
  614600    296.72739   -1527.6541    522.23172    345.19071    342.11265    34340.171 
  614700    304.57308   -1526.5403    520.41509    380.19914    870.85645    34340.171 
  614800    293.96102   -1517.2094    533.60603    354.41806    317.09052    34340.171 
  614900    296.76773   -1547.3431    503.45526    306.90896      516.452    34340.171 
  615000    307.63786   -1571.4611    509.99469    338.80792   -165.83134    34340.171 
  615100    294.06742   -1542.1618    527.27651    323.62048    191.25865    34340.171 
  615200    303.87348   -1568.8635    521.44236    335.71885    264.66385    34340.171 
  615300    310.42783   -1528.3624    518.12662    402.73767    464.52729    34340.171 
  615400    300.49944   -1556.5919    523.11949    334.30991   -157.60809    34340.171 
  615500     295.1267   -1565.4691    506.99984    284.85802    122.39648    34340.171 
  615600    298.95761   -1585.2297    517.16022    292.69496    324.87385    34340.171 
  615700    314.54703    -1572.907    522.67625    381.49203    65.147194    34340.171 
  615800    301.15687   -1524.3262    523.81493    370.26352    -320.6413    34340.171 
  615900    308.07932   -1513.7878    532.34824    420.84417    114.31489    34340.171 
  616000    299.67966   -1532.8186    553.41834    384.65076   -644.86407    34340.171 
  616100    284.40087   -1556.9246    547.63348     285.2155   -568.04635    34340.171 
  616200    298.49754   -1564.3833    525.54439    319.83149   -124.57749    34340.171 
  616300     298.9818   -1572.8549    515.13664    303.15629    -296.1883    34340.171 
  616400    305.55067   -1596.8511    508.52367    302.44659    337.53036    34340.171 
  616500    298.40926   -1541.6567    535.64226    352.25407   -493.92809    34340.171 
  616600    306.87083   -1561.4549     526.3301    361.65828    122.58785    34340.171 
  616700    290.65081   -1548.0368    527.63472    302.55237   -400.92314    34340.171 
  616800    299.55344   -1520.5761    528.38545    371.28586   -312.84463    34340.171 
  616900    300.50963   -1529.5629    527.11519    365.38105    430.10333    34340.171 
  617000    302.04741   -1523.9382    540.08052    390.97062    306.37734    34340.171 
  617100    301.81899   -1513.0094    513.80745    374.58663     93.51419    34340.171 
  617200    296.38593   -1514.3087    508.04864    342.79888    -423.9801    34340.171 
  617300    299.98747   -1519.2333    527.99956    374.21834   -282.98408    34340.171 
  617400    299.82469    -1518.553    504.98378    351.14191   -51.587713    34340.171 
  617500    306.09446   -1518.4843    531.89596    406.66083     175.1642    34340.171 
  617600    305.87864   -1540.0864    526.55683    378.73732    177.57113    34340.171 
  617700      308.299   -1552.6835    516.94119     367.5413   -94.160125    34340.171 
  617800    301.12885   -1521.6914    534.99294    383.94875    399.26806    34340.171 
  617900    293.52827   -1506.7088     523.9777    353.32069    1063.2023    34340.171 
  618000    292.14919   -1523.0846    537.83448    344.52451    576.96282    34340.171 
  618100    299.11491    -1505.254    528.35094    384.57734    1014.9915    34340.171 
  618200    285.88389   -1546.2114    510.42325    265.46872    749.06754    34340.171 
  618300    304.00479   -1509.5665    509.09228    383.26346    484.63474    34340.171 
  618400    304.74055   -1486.7229    525.49092    425.85472    293.48531    34340.171 
  618500    302.84353   -1527.4185    523.90468    374.93813   -242.00284    34340.171 
  618600     299.1089   -1499.5234    522.05511    383.98481    504.75041    34340.171 
  618700    300.24857   -1493.2672    549.16233    422.53557   -104.18585    34340.171 
  618800    300.42979   -1486.9462    519.00863    399.52781     623.7646    34340.171 
  618900    304.39671   -1501.6584    532.41295     416.2761    37.625949    34340.171 
  619000     307.8564   -1527.7033    522.97588    396.54166   -811.32875    34340.171 
  619100    303.86175   -1534.9747    522.54434    370.65629   -664.25548    34340.171 
  619200    295.99288    -1508.543    538.19506    376.92197   -1132.2112    34340.171 
  619300    303.34447    -1489.841    533.36139    424.25254   -359.90059    34340.171 
  619400      291.166   -1514.3717    514.90831    325.83601    269.64284    34340.171 
  619500    297.47072   -1517.3888     534.8297    371.43742   -389.10048    34340.171 
  619600    311.77952   -1536.5455    534.97992    417.56034   -298.72008    34340.171 
  619700    297.35313   -1514.7384    518.73508    357.45805   -93.282967    34340.171 
  619800    302.10865    -1450.788    542.18346    466.50251    425.27377    34340.171 
  619900    295.00014   -1433.9512    540.29353    449.09352    674.54818    34340.171 
  620000     302.5064   -1497.1529    531.78281    411.54737   -147.14113    34340.171 
  620100    303.07468   -1468.2812    531.95336    443.17626    212.63519    34340.171 
  620200    294.16251   -1475.2745    534.32109    397.98514   -902.86178    34340.171 
  620300    298.81687   -1474.5542    501.98941    387.55905   -186.86323    34340.171 
  620400    295.62448   -1473.4673    529.22459    401.35033   -678.38712    34340.171 
  620500    299.48483   -1510.0653    534.81288    387.91171     -670.235    34340.171 
  620600    296.81224    -1511.994    499.37674    338.38209   -283.76963    34340.171 
  620700    292.33049    -1532.196    541.62941    340.03326   -920.69674    34340.171 
  620800    298.56325   -1520.0144    538.19333    377.14841   -720.55833    34340.171 
  620900    299.36399   -1552.6113      525.055    335.05787   -80.009076    34340.171 
  621000    307.15457   -1513.8858     522.7585     406.9472   -283.60089    34340.171 
  621100    305.44982    -1489.212    513.55834    414.66135   -147.14376    34340.171 
  621200      303.073   -1536.9277    524.78192    367.35063   -177.50575    34340.171 
  621300    299.70124   -1519.6483    533.24685    377.74775   -101.39478    34340.171 
  621400    290.92054   -1497.2763    483.83915    310.74493   -215.45804    34340.171 
  621500    293.64688   -1486.6205    521.22627    371.19738    449.32142    34340.171 
  621600    296.71754   -1532.9264    535.94873    353.59063    -125.6636    34340.171 
  621700     307.8349   -1539.6332    475.56498      337.103    470.73983    34340.171 
  621800     299.1178   -1533.0827    526.62195    355.03285   -318.03371    34340.171 
  621900    298.73517    -1532.254    529.96485    357.46286    316.21142    34340.171 
  622000    294.45331   -1533.2689    532.96246    339.95579    591.50892    34340.171 
  622100    300.78565   -1539.0302    518.99452    349.04952    6.4405241    34340.171 
  622200    302.79965   -1521.4461    527.87822    384.68442    141.08892    34340.171 
  622300    301.37977   -1556.7906    515.30824    330.30703   -796.63493    34340.171 
  622400    292.99417   -1590.4298    526.01356    269.20447    227.33289    34340.171 
  622500    301.74896   -1577.4138    515.14967    311.20563    48.422551    34340.171 
  622600    298.60007   -1566.1837    530.83038    323.78369   -182.84122    34340.171 
  622700    301.68129   -1581.3194    514.87686     306.7193   -256.87405    34340.171 
  622800    294.46438    -1572.082    509.83956    278.07018    118.46487    34340.171 
  622900      301.885   -1545.5439    544.94013    373.48525    -59.72313    34340.171 
  623000    301.96503   -1565.9728    507.88075    316.36128   -697.43825    34340.171 
  623100    300.84189   -1593.5802    498.65987    274.42078   -293.98207    34340.171 
  623200    301.20531   -1586.0891      523.675    308.58123   -239.21427    34340.171 
  623300    304.94003   -1551.2372    512.97334    349.73071   -788.68299    34340.171 
  623400    295.07383   -1567.5577    534.80872    310.33764   -282.89662    34340.171 
  623500    296.94261   -1577.1943    515.43545    289.83394    412.74541    34340.171 
  623600    299.53145   -1563.8764     516.7725    316.27246    298.52993    34340.171 
  623700    312.36362   -1523.5441    512.66029     410.9007    279.92992    34340.171 
  623800    299.54227   -1522.8038    525.66275    366.28458    199.33528    34340.171 
  623900    289.95936   -1490.6397    522.40966     351.5771   -210.45155    34340.171 
  624000    306.62215   -1524.5582    526.18958    397.28248   -208.46118    34340.171 
  624100    304.04505   -1533.5595    516.22965    366.59107    175.10956    34340.171 
  624200    300.16874    -1515.968    539.43435    389.74349    1238.4587    34340.171 
  624300    312.70547   -1490.5769    530.04442    462.80803    1433.5027    34340.171 
  624400    306.26469    -1515.842    536.88479    415.06688    286.56862    34340.171 
  624500    302.24422   -1520.7499    538.07019    393.04439    434.52227    34340.171 
  624600    293.56054   -1508.3411    521.71094    349.56846    38.373709    34340.171 
  624700    300.64701   -1505.6437     532.4608    395.27117   -315.63278    34340.171 
  624800    288.67406   -1512.6617    528.24382      329.539   -151.63833    34340.171 
  624900    293.09889   -1499.7656    529.76996    364.10164   -712.04486    34340.171 
  625000    292.66062   -1482.9497    520.51682    369.66957   -697.59031    34340.171 
  625100     301.8149   -1520.2007    519.23268    372.80196   -481.44244    34340.171 
  625200    293.21162   -1537.1591    514.79502    312.24629   -358.56505    34340.171 
  625300    300.25782   -1528.7778    539.59208    377.49688   -1163.7226    34340.171 
  625400    305.56375   -1489.2917    519.59834    421.14018   -338.31424    34340.171 
  625500     314.7838   -1499.1661    519.02002    452.65435    90.972285    34340.171 
  625600    305.97517   -1492.0444    527.39919    428.06102    1080.4555    34340.171 
  625700     290.8254   -1533.4247     524.8086    315.13298    90.106517    34340.171 
  625800    296.27238    -1541.868    536.72441    343.39853   -355.19009    34340.171 
  625900    293.32037   -1526.0822    517.84724    326.87045   -588.31377    34340.171 
  626000    308.34963   -1481.4233      501.682    423.77278    28.819313    34340.171 
  626100    297.21193   -1515.3646    507.80891    345.26299   -125.77271    34340.171 
  626200    308.61472   -1492.6965    509.65687    421.68107    37.240629    34340.171 
  626300    289.37052   -1501.5965    565.48411    381.01447   -159.81558    34340.171 
  626400    303.68872   -1449.2415    533.56605    466.62354    335.46168    34340.171 
  626500    303.23109   -1479.0199    551.03744    452.23357    393.20234    34340.171 
  626600    293.57147   -1474.3764    526.49069    388.36266    523.13667    34340.171 
  626700    295.46704   -1530.5258    541.80459    356.15523    255.29772    34340.171 
  626800    305.85628   -1524.3739    527.71284    395.50408     155.2477    34340.171 
  626900    293.14421   -1503.0323     513.7845    345.05581    439.01766    34340.171 
  627000    300.64258   -1460.1883    542.92764    451.17324    192.83433    34340.171 
  627100    307.05535   -1485.5203     513.4529    425.55548    69.229506    34340.171 
  627200    310.61489   -1578.2667     520.0167    355.57484      442.691    34340.171 
  627300    295.95384   -1541.7437     542.5109    347.85941    697.50468    34340.171 
  627400    304.60956   -1547.4276    534.04297    373.10575    1018.8625    34340.171 
  627500    301.64255   -1562.7161    494.92621    305.19557     398.2926    34340.171 
  627600    301.33015   -1505.9141    536.79841    402.44784    602.32906    34340.171 
  627700    301.67015   -1561.3306     529.6552    341.43566    106.55764    34340.171 
  627800     308.7311   -1526.7429    540.06862    418.57617    537.05951    34340.171 
  627900    304.45283   -1530.2411    528.70223    384.23816   -19.936679    34340.171 
  628000    297.40243   -1519.5868    531.94979     366.0487   -33.909128    34340.171 
  628100    306.68959    -1532.606    537.95688    401.30891   -359.66239    34340.171 
  628200    307.56243   -1540.3709    526.30328    385.86342    24.328895    34340.171 
  628300    299.04579   -1512.1674     521.5169    370.51531   -788.41817    34340.171 
  628400    306.54322   -1536.3967    519.49341    378.38851   -901.28393    34340.171 
  628500    295.91512   -1574.6969    514.66477    286.88377   -78.941989    34340.171 
  628600    303.72446   -1563.5962    525.32207    344.18756    -480.4921    34340.171 
  628700    307.21158   -1535.9432    523.90986    386.30064   -110.04909    34340.171 
  628800    287.62956   -1551.7837    539.49524    296.91415    134.76616    34340.171 
  628900    300.10702   -1513.5146    515.89444    368.37607     875.1178    34340.171 
  629000    299.13582   -1504.6083    566.88934    423.85662    273.07893    34340.171 
  629100    299.17699   -1554.5373    522.18236    329.40804   -218.68354    34340.171 
  629200    295.75309   -1491.2751    520.49132     375.3947   -792.50243    34340.171 
  629300    300.05985   -1486.5949     559.1307    438.31729   -717.99899    34340.171 
  629400    294.41188   -1519.7847    532.66878    352.95771   -917.97416    34340.171 
  629500    302.17138   -1506.7731    520.25326    388.87273   -180.99086    34340.171 
  629600    307.23943   -1524.2246    537.98298    412.21917    370.72103    34340.171 
  629700      297.813   -1549.8518    571.92094    377.62366    366.57646    34340.171 
  629800    298.63933   -1538.4004    538.11118    359.02652   -195.47659    34340.171 
  629900    292.74627   -1552.4453    543.35641    323.40345   -1177.9729    34340.171 
  630000    294.72895   -1538.0526    559.78199    363.24628   -396.34293    34340.171 
  630100    296.37805   -1528.4798    532.88059    353.42389    152.69077    34340.171 
  630200    301.11886    -1513.934    539.99689    396.66473    269.73647    34340.171 
  630300    301.68893   -1541.4892     541.4059    373.11328    550.20466    34340.171 
  630400    299.04928   -1575.0877    532.86601    318.96001    362.59279    34340.171 
  630500    299.90115   -1526.4166    533.63955    372.28207   -33.924148    34340.171 
  630600    312.17572   -1499.3059    532.49861    454.12192    162.64426    34340.171 
  630700    301.45851    -1551.384    539.78866    360.55245    41.361067    34340.171 
  630800    306.98782   -1577.6086    518.90785    338.61481   -167.99451    34340.171 
  630900    297.83886   -1561.1048     540.7306      335.298    135.39406    34340.171 
  631000    292.12196   -1558.0575    564.68149    336.27458   -198.51591    34340.171 
  631100    310.33268   -1553.8669    525.01474    383.68816    619.59688    34340.171 
  631200    295.92717   -1592.8207    542.90015    297.05022   -503.01665    34340.171 
  631300    294.78975   -1605.0519    535.05171     271.7934    159.81583    34340.171 
  631400    309.95857   -1585.6138    545.89396    371.11769   -115.09189    34340.171 
  631500    293.82217   -1611.7366    532.45152     258.1044    686.91532    34340.171 
  631600    292.83585    -1621.434    533.76397    245.23008    643.34083    34340.171 
  631700    291.70715     -1556.82    530.73852    301.68099    438.60353    34340.171 
  631800    299.22854   -1573.8642     563.9821    352.11554   -170.75527    34340.171 
  631900    306.33516   -1563.8287     541.6861    372.20224   -48.313195    34340.171 
  632000    295.60046   -1556.2809    561.51676    350.71958    -291.6162    34340.171 
  632100    296.59273   -1549.6005     503.1698    303.56951   -327.72357    34340.171 
  632200    294.10948   -1560.2296    562.10212    340.56978   -339.68314    34340.171 
  632300    289.25004   -1550.5222    545.98061    312.03699   -87.638581    34340.171 
  632400    307.27534   -1569.1063    531.11649    360.63446   -5.6057909    34340.171 
  632500    287.40062   -1556.3084    543.06098    294.91308    120.17702    34340.171 
  632600    293.62848    -1598.721    558.39088     296.1778   -231.18408    34340.171 
  632700    295.27932   -1634.9385    537.32823    246.41172    634.31147    34340.171 
  632800    293.28626   -1613.3797    539.11644    260.68687    514.34273    34340.171 
  632900    308.43736   -1616.5721    547.54652    334.88776     1282.549    34340.171 
  633000    307.08006   -1632.8261    535.62421    300.53349    755.17997    34340.171 
  633100    298.52186   -1527.7438    535.26002     366.2973    591.14954    34340.171 
  633200    301.01061   -1563.7076    551.29046    357.69191    339.15609    34340.171 
  633300    302.58788   -1562.8216    539.28564    353.75235    282.21083    34340.171 
  633400     305.1461   -1554.5195    553.91981    388.33291    118.02355    34340.171 
  633500    311.00535   -1593.3485    554.49827    376.75187   -354.31695    34340.171 
  633600    302.68646   -1584.8566    533.35021    326.23063    -118.0277    34340.171 
  633700    297.28467   -1560.4104    552.91549    345.65486    272.05517    34340.171 
  633800    306.06509   -1577.6988    526.89474    342.31144    95.226504    34340.171 
  633900    297.01208   -1559.1123    523.88326    316.67994    1011.0061    34340.171 
  634000    303.68558   -1557.1535    536.52384    361.65503    1114.7967    34340.171 
  634100    306.10359   -1570.9007    538.92967    361.31972    199.26228    34340.171 
  634200    296.14521   -1556.2099    552.00219    343.75554    223.22628    34340.171 
  634300    301.73559   -1560.4476    534.88955    347.85095   -602.75841    34340.171 
  634400    297.29947   -1546.4309    509.46366    316.24984   -503.35381    34340.171 
  634500    292.36782   -1581.6418    522.41918    271.54712    -866.9686    34340.171 
  634600    301.49496   -1566.8365    565.27965    370.75683    -305.6477    34340.171 
  634700    300.17784    -1534.145    531.06491    363.23845    350.53074    34340.171 
  634800    294.69397   -1573.4002    543.34122    311.29867   -67.747162    34340.171 
  634900     308.6872   -1572.8544    559.79789    391.99404    444.07619    34340.171 
  635000    302.93567   -1533.9653    539.27998    384.18603    320.01032    34340.171 
  635100    294.36791    -1604.148    514.38933    250.11481   -495.53486    34340.171 
  635200    296.16635   -1565.0874    544.69445    327.66646   -453.17086    34340.171 
  635300    292.11473   -1567.1721    544.18337      306.629   -306.42557    34340.171 
  635400    296.63032   -1574.8906    541.12134    316.40206    92.804615    34340.171 
  635500    300.11269    -1534.719    522.63746    353.94049   -154.04057    34340.171 
  635600    293.31289   -1527.0309    589.51257     397.5531    45.285892    34340.171 
  635700    298.24835   -1566.3175    570.52003    361.73867    357.53597    34340.171 
  635800    297.19737      -1591.9    522.49896    283.35131   -200.49518    34340.171 
  635900    307.44836   -1602.4841    536.33368    333.26134    729.68324    34340.171 
  636000     294.4036   -1620.6323    514.16994     233.5736    190.96745    34340.171 
  636100     296.0293   -1575.4218    531.49598    303.50982    391.30543    34340.171 
  636200    300.42199   -1571.6684    530.13764    325.89909    374.71474    34340.171 
  636300     295.7124    -1570.717    559.90628    335.18248    1127.7326    34340.171 
  636400    298.80739   -1542.4971    548.41239    365.99596    551.19926    34340.171 
  636500    297.05592   -1568.1529    537.31183    321.26747    345.40355    34340.171 
  636600     298.9393   -1545.4634    537.76767    352.98535    640.15669    34340.171 
  636700    299.23998   -1581.9584    536.69252    316.78381    213.81718    34340.171 
  636800    299.58236   -1571.7957    520.36835    312.18074   -332.74391    34340.171 
  636900    295.92604   -1553.0653    560.97725    354.87756   -299.45319    34340.171 
  637000    290.79978   -1565.9001    538.21393    295.94631    165.31175    34340.171 
  637100    290.80467   -1553.4015    549.17978    319.43299    658.92533    34340.171 
  637200    301.99171   -1535.2361    537.08268     376.4213    31.967498    34340.171 
  637300     312.5817   -1546.5552    557.26826    433.49024   -12.346523    34340.171 
  637400    309.70516   -1540.8986     542.5254    411.31086   -170.91757    34340.171 
  637500    305.43694   -1552.3047      533.748    371.69969    383.54426    34340.171 
  637600    302.46112   -1548.3267    545.97676    374.36146   -246.08847    34340.171 
  637700    302.14806   -1545.3188    537.22262    367.19022    -29.15515    34340.171 
  637800    290.27842   -1515.5278    536.13191    341.86355   -54.901604    34340.171 
  637900    306.96438   -1512.4612    549.12858    433.87624   -312.21182    34340.171 
  638000    303.45747   -1538.3622     546.9186    389.80286   -54.324337    34340.171 
  638100    302.99313   -1514.3867    543.91994    408.66618   -256.61516    34340.171 
  638200    298.38014   -1532.2152    558.26024    384.18102    594.77494    34340.171 
  638300    293.22663   -1523.4734    545.52446    356.72979    145.54162    34340.171 
  638400    297.34587   -1575.3447    535.10295    313.18652     170.0364    34340.171 
  638500    292.04047   -1569.4334    530.71014    290.55639    453.33798    34340.171 
  638600    306.18771   -1530.9738    563.18028    425.88011    1241.0741    34340.171 
  638700    291.96031   -1579.6398    529.37438    278.64944    346.57513    34340.171 
  638800    287.45687   -1587.6044    559.02447    279.83665    798.45103    34340.171 
  638900     295.5594   -1592.4658    550.00848    302.83952    644.87391    34340.171 
  639000    303.03229   -1554.5073    531.70776    356.51167    204.00884    34340.171 
  639100    300.72009   -1570.2214    543.55484    342.12015     182.2024    34340.171 
  639200    302.71553   -1553.3063    510.68251    335.24563   -496.93851    34340.171 
  639300    295.03356   -1561.1958    539.47399    321.18156   -956.80572    34340.171 
  639400    298.17909    -1544.666    510.57465    323.12948   -551.13239    34340.171 
  639500    310.98262   -1572.4369    539.54121    382.60296    203.20321    34340.171 
  639600    299.42178   -1587.7738    538.36834     313.4717    643.85845    34340.171 
  639700    307.40209   -1606.9974    535.59946     327.8032    1327.9721    34340.171 
  639800    305.87755   -1559.1181    556.82699    389.97081    557.21358    34340.171 
  639900    305.53017   -1565.2462    532.90415    358.33872    542.71969    34340.171 
  640000    302.03072   -1557.7587    552.34439    369.33803   -239.75304    34340.171 
  640100    293.30679   -1556.1538    519.90204    298.79185   -449.82395    34340.171 
  640200    297.59371   -1539.5104    510.98266    326.02868   -754.18201    34340.171 
  640300    309.33543   -1549.0161    542.58848     401.5735    -215.4364    34340.171 
  640400    305.96713    -1535.195    541.58654    399.06119    324.23229    34340.171 
  640500    303.71312   -1552.4083    586.06758     416.0693    874.04794    34340.171 
  640600    316.44507   -1495.0022    518.59331    463.95316    980.26508    34340.171 
  640700    296.23436   -1522.9808    558.64829    384.03647    668.41998    34340.171 
  640800    307.60552   -1527.9463    555.52538    427.70621    11.111451    34340.171 
  640900    304.17682   -1507.0643    562.90258    440.35903    637.67934    34340.171 
  641000    298.13804   -1519.3335     536.7652    374.46572   -204.70971    34340.171 
  641100    296.98614   -1492.3839    558.29962    417.70664    79.452402    34340.171 
  641200    287.92617   -1493.0259    557.96155    375.48828    322.66787    34340.171 
  641300    302.80322    -1498.623    554.62861    434.27409      290.746    34340.171 
  641400    293.83379   -1496.7089    561.43837    402.17186   -388.41145    34340.171 
  641500     295.7222   -1506.7786     552.9664    392.22564   -184.29619    34340.171 
  641600    301.12531   -1497.2781    540.87887    414.23197   -158.23981    34340.171 
  641700    312.74924   -1505.4904    551.15448    469.20386   -42.893008    34340.171 
  641800    307.48794   -1529.0817     545.6989    416.20913   -716.96983    34340.171 
  641900    295.74962   -1513.1907    519.42562     352.3976   -542.85408    34340.171 
  642000    302.40159   -1549.0316    565.26912     392.6779     94.31547    34340.171 
  642100    294.95216   -1531.9307    537.22726    347.82937   -217.63141    34340.171 
  642200    313.58967   -1563.0652    541.98132    406.28127    150.01005    34340.171 
  642300    302.96053   -1546.0458    533.05647    365.99521    -261.4373    34340.171 
  642400    299.58971   -1509.9957    549.69004    403.33588    192.28896    34340.171 
  642500    298.50739    -1523.443     543.3254    378.59757   -231.48646    34340.171 
  642600    298.23821   -1506.6719    553.28879    404.10684    -262.0113    34340.171 
  642700    303.88817   -1511.6368    556.35727    427.92727   -226.03568    34340.171 
  642800    308.25661   -1508.9525    543.91764    438.05586    -802.7999    34340.171 
  642900    295.81982   -1549.4676    553.64223    350.65682   -901.38377    34340.171 
  643000    291.33635   -1552.2899     536.2008    309.98563   -733.72505    34340.171 
  643100    298.05433   -1551.5483     559.5984    364.70311    14.373451    34340.171 
  643200    295.72109   -1505.1651    553.48337    394.35102    276.11964    34340.171 
  643300    296.47991   -1531.0222     558.2647    376.72922    508.46228    34340.171 
  643400    304.61965   -1553.2715    549.65558    382.92044    542.39398    34340.171 
  643500    302.97588   -1576.8301    496.71212    298.93643    444.02133    34340.171 
  643600    296.88145   -1532.6123    533.03479    351.73686    488.61957    34340.171 
  643700    297.85338   -1527.4975    539.27509    367.51594    886.36678    34340.171 
  643800    303.31089   -1542.2443     547.3849    385.71986    1032.5785    34340.171 
  643900    297.77829   -1571.6206    508.31676    292.09265    480.11577    34340.171 
  644000    299.26891   -1588.5333    540.45595    314.10403    980.05965    34340.171 
  644100    308.96812   -1582.5758    521.62969    345.38319     585.5047    34340.171 
  644200     296.9589   -1558.0559    559.15837    352.76939    416.96851    34340.171 
  644300    293.02028   -1547.0002    556.62062    343.35989   -518.79456    34340.171 
  644400    302.34201   -1559.3774    561.53817    378.32995   -534.39762    34340.171 
  644500    296.70996   -1601.5502       543.79    292.77364   -478.29086    34340.171 
  644600    296.81055   -1585.8818    516.11956    281.22943   -284.28952    34340.171 
  644700    298.22934   -1605.1413    529.87523    282.18347    -447.3996    34340.171 
  644800    301.76279   -1565.5944    527.41128    335.34969    195.12387    34340.171 
  644900    296.47192   -1587.0648    526.60401    288.98951    681.72114    34340.171 
  645000    306.66754   -1591.3995    521.00743    325.46567     503.4677    34340.171 
  645100    293.88446   -1586.3682    535.82213    287.12695    184.09565    34340.171 
  645200    300.14662   -1543.5998    540.49863    363.07525    419.60885    34340.171 
  645300    297.09984   -1565.1708    507.84487    294.98249   -66.183235    34340.171 
  645400     308.4993   -1515.8383    547.45727    435.81432   -698.74112    34340.171 
  645500    300.03067   -1530.0973    527.10524    362.65662   -792.42613    34340.171 
  645600    301.28801   -1505.1855    550.24367    416.42989   -528.61193    34340.171 
  645700     300.3585   -1516.6242    545.05174    395.56846   -493.75092    34340.171 
  645800    299.75878   -1509.3945    537.58088    392.59754   -902.36579    34340.171 
  645900    298.69449   -1544.1681    542.88924    358.28796   -1345.6501    34340.171 
  646000    306.47274   -1564.8919    520.47988    350.55898   -601.64321    34340.171 
  646100    299.88185   -1567.2477    552.27635    349.99991     951.1925    34340.171 
  646200     303.1868   -1579.1073     527.8847    328.79181    1754.6801    34340.171 
  646300      309.596   -1607.6672    507.03142    308.55134    875.63817    34340.171 
  646400    301.98878   -1563.0938    552.27551    363.74313    344.72011    34340.171 
  646500    296.88641   -1608.6774    542.25098    284.91055    178.40245    34340.171 
  646600     296.6283   -1593.1456    522.52366    279.54015   -341.41527    34340.171 
  646700    296.99641   -1598.0622    508.41941    262.19488   -121.05015    34340.171 
  646800    306.71059   -1565.3409     551.6665    382.37929   -410.78842    34340.171 
  646900    304.86456   -1582.9573    531.50297    336.19673   -428.26768    34340.171 
  647000    305.10566   -1588.2003      553.838    354.38614    400.61432    34340.171 
  647100     292.6003    -1543.243    554.45816    343.04302    261.67444    34340.171 
  647200    303.82847   -1538.0315     531.3276    376.23119    435.82859    34340.171 
  647300    298.68854   -1578.3774    570.31045    351.47283    743.13062    34340.171 
  647400    302.06224   -1591.3282    562.54041    346.10796    545.38948    34340.171 
  647500    303.42595   -1613.2571     547.7623    315.60822    711.84134    34340.171 
  647600    305.80947   -1602.9316    542.07115    331.09162    935.82296    34340.171 
  647700    299.24891   -1575.2054    564.34065     351.2256   -102.69917    34340.171 
  647800    296.70511   -1558.4289    532.48305    324.56587    3.9231461    34340.171 
  647900    298.60723   -1574.2016    533.11074    318.07874    -302.9167    34340.171 
  648000    296.40397   -1576.8974    576.00511    348.24872   -202.17768    34340.171 
  648100    295.48627   -1550.0981     565.4552    360.32105   -436.37211    34340.171 
  648200    309.44822   -1553.2061    528.91147    384.21991   -260.82534    34340.171 
  648300    292.65174   -1535.8113    557.61296    353.86372   -390.50412    34340.171 
  648400    297.28268      -1543.7    536.32345    345.76413   -602.33151    34340.171 
  648500    294.87457   -1561.8786    543.87025    324.17131   -510.97278    34340.171 
  648600     292.4298   -1551.1037    541.55538    321.50356    18.312128    34340.171 
  648700    302.52555   -1588.3287     550.7012    339.37712    790.63231    34340.171 
  648800    301.50113   -1571.7465    529.69657    330.29185    165.32586    34340.171 
  648900    300.97515   -1556.4575    561.94143    375.43155   -20.855847    34340.171 
  649000    303.04023   -1537.3227    536.46547     378.4901    123.96387    34340.171 
  649100    307.91536   -1520.1752    549.61557    430.97782    456.19055    34340.171 
  649200    296.83734   -1528.0622    540.39942    363.45084    545.54931    34340.171 
  649300    307.15492   -1512.2822    578.98719    464.78113   -155.66591    34340.171 
  649400    295.17096   -1514.3218     544.8133    374.02025   -1027.5893    34340.171 
  649500    292.18626   -1528.5182    525.56457    326.98969   -532.76181    34340.171 
  649600    291.12581   -1505.4394    554.96616    374.64325   -391.48595    34340.171 
  649700    299.81253    -1547.958     548.0495    364.74733   -384.21874    34340.171 
  649800    303.11268   -1534.2056    517.23454    362.70601   -352.68787    34340.171 
  649900    306.99664   -1530.3061    549.69455    416.74413   -452.45645    34340.171 
  650000    303.16201   -1567.6212    520.80423    333.08462    -597.5326    34340.171 
  650100    291.96375   -1546.2598    540.27246     322.9432    374.65979    34340.171 
  650200    306.99302   -1561.6141    558.72241    394.44753    -83.21624    34340.171 
  650300    300.98782   -1598.3203    531.03521    302.72028   -11.860676    34340.171 
  650400    281.23427   -1563.8476    555.16032    271.40588    240.62515    34340.171 
  650500    290.87663   -1556.1432    529.58724    297.42634    320.74319    34340.171 
  650600    300.85202   -1536.4933    530.65832    363.55222   -637.99908    34340.171 
  650700    291.60396   -1520.3168    545.58747    352.56352    -868.0429    34340.171 
  650800    299.74642   -1495.2575     548.7046    417.80198   -148.92589    34340.171 
  650900    301.48956   -1528.4114    530.60137    374.47905   -464.07795    34340.171 
  651000    285.53425    -1516.409    534.20649     317.4629   -447.83236    34340.171 
  651100      297.141   -1538.6348    522.96864    336.82965   -131.86219    34340.171 
  651200    305.70182   -1528.1375    543.50572    406.83024    124.91457    34340.171 
  651300    299.29782   -1551.4377    553.75537    364.63063    -835.9124    34340.171 
  651400    291.49873   -1519.4941    530.35067    337.67042   -781.23898    34340.171 
  651500    310.06868   -1535.9538    513.44601     388.8309    96.951235    34340.171 
  651600     297.2309   -1559.0471    564.72894    358.58682   -53.815595    34340.171 
  651700    303.57834   -1555.1282    534.75729    361.42566    323.42628    34340.171 
  651800    300.86428    -1547.173    549.14479    371.41478    163.23631    34340.171 
  651900    304.15634    -1570.416    548.70879    362.72026    514.66039    34340.171 
  652000    294.82427   -1532.9016    546.50341    355.55258    245.66361    34340.171 
  652100    302.75265   -1587.5999    525.92026    316.35863    138.65331    34340.171 
  652200    307.41291   -1586.1325    536.65708    349.77497   -384.33598    34340.171 
  652300    306.21481   -1559.6883    536.73401    370.84272   -542.26568    34340.171 
  652400    289.87148   -1588.3179    512.25634    243.34557   -732.00952    34340.171 
  652500    296.56654   -1568.3509    532.38566    313.91578   -647.11742    34340.171 
  652600    297.41761    -1569.725    534.43125    318.46107   -892.10443    34340.171 
  652700    308.29819     -1596.23    513.79357    320.84343   -148.90265    34340.171 
  652800    305.66431   -1525.2165    537.35938    403.43418    1.5465934    34340.171 
  652900    309.40104   -1546.6867    542.76089    404.37394    289.67739    34340.171 
  653000    296.31669   -1594.1653    505.33913    259.91766   -363.31799    34340.171 
  653100    303.65313   -1605.2089    548.14139    325.06951    642.89037    34340.171 
  653200    297.94195   -1588.6433    515.51267    283.01086    262.36297    34340.171 
  653300    295.13417   -1608.8427    548.07748    282.59606   -182.27437    34340.171 
  653400    303.10428   -1548.2542    528.93134    360.31598    584.31334    34340.171 
  653500    307.70008   -1544.5542    572.78286    428.78616    230.95659    34340.171 
  653600    305.96949   -1545.6565    559.43133    406.45523    668.18005    34340.171 
  653700    295.03313   -1559.4577     543.7049     327.1486    723.11758    34340.171 
  653800    297.12703   -1547.4673    524.74298    329.70791    670.10516    34340.171 
  653900     292.0696    -1529.446    533.54012    333.50641    319.91602    34340.171 
  654000     293.2934    -1569.018    524.51455     290.4792     498.6848    34340.171 
  654100    305.31197   -1573.9845    530.26145    345.96451     73.55791    34340.171 
  654200    308.51366   -1541.7774    529.14727    391.63059   -112.56347    34340.171 
  654300    308.52463   -1535.7527    513.37776    381.93569    -545.6921    34340.171 
  654400    302.13374   -1493.2276    514.90964    396.90325   -1087.3177    34340.171 
  654500    303.89437   -1533.3089    557.78942    407.71558   -794.08145    34340.171 
  654600    309.67183   -1518.2347    530.86187    422.15954    -54.22738    34340.171 
  654700    298.55943    -1500.021    570.41647    429.34746    -589.6382    34340.171 
  654800     313.1388   -1518.4196    508.67408    415.56742   -936.13671    34340.171 
  654900    293.14756   -1484.3882    511.71799    361.64863   -639.36909    34340.171 
  655000    305.59938   -1509.5274    533.12794    414.59636   -659.75023    34340.171 
  655100    312.29214   -1487.9062    542.58197    476.13489    166.86728    34340.171 
  655200    300.83337   -1511.9674       544.51    401.84496    116.32975    34340.171 
  655300    303.47888   -1549.8844    529.94635    361.40581    365.68904    34340.171 
  655400    290.92036   -1487.8216    555.67859    392.03826    -133.9439    34340.171 
  655500    294.50982   -1540.3033    545.19658     345.4127    -269.5056    34340.171 
  655600    308.06953   -1534.8643     529.2701     396.6449    -236.3253    34340.171 
  655700    298.08756   -1547.4226    510.88725    320.26886    276.83997    34340.171 
  655800    297.37206   -1591.3079    533.70627    295.94587    533.42385    34340.171 
  655900    301.03248   -1590.1159    557.08137    337.17412    123.05931    34340.171 
  656000    295.68066   -1575.9308    534.37407    304.29205    105.21561    34340.171 
  656100     306.5422   -1579.1659    556.00781    372.12908    633.44494    34340.171 
  656200     302.0653   -1569.7759    552.69585    357.82969     405.0962    34340.171 
  656300    299.29337   -1573.6374    558.52615    347.18144    615.32379    34340.171 
  656400    286.89438   -1553.4221    545.87846    298.31263    71.202734    34340.171 
  656500    307.15523     -1556.32    560.39392    402.15143    461.27532    34340.171 
  656600     307.5484   -1568.2768    532.43352    364.02388   -754.12824    34340.171 
  656700    297.92286   -1548.9265    539.19796      346.326   -290.91817    34340.171 
  656800    311.56346   -1572.8643    507.88782    353.16601   -432.99218    34340.171 
  656900    301.72049   -1575.8762    525.67615    323.14022    -678.5483    34340.171 
  657000    293.90992   -1524.7936    540.52913    353.52441    21.770281    34340.171 
  657100    300.66718   -1545.0578    517.51505    341.00316   -635.70067    34340.171 
  657200    293.70643   -1571.5549    547.53191    312.83965   -613.01034    34340.171 
  657300      292.861   -1548.3986    516.07753    300.69344   -591.69603    34340.171 
  657400    305.63276   -1574.2681     529.1384    346.01799   -87.465214    34340.171 
  657500    306.47129   -1575.9704    547.58225    366.57624    134.49472    34340.171 
  657600    295.79725    -1549.212    549.52072    346.68821    343.63684    34340.171 
  657700    295.95301   -1550.1187    535.51725    332.48698    443.75139    34340.171 
  657800    294.80088   -1530.7503    518.41325    329.50723   -145.77933    34340.171 
  657900    304.82787   -1525.7693    511.92677    373.64159    236.23644    34340.171 
  658000    293.77148   -1545.4086    526.55149    318.30159    724.01245    34340.171 
  658100    297.22145   -1514.7779    546.94423    385.02833   -114.14639    34340.171 
  658200    300.91686   -1534.7397    534.44623    369.38893    1.7737954    34340.171 
  658300    303.92182   -1534.6201    529.12962    377.86954   -561.30547    34340.171 
  658400      307.824   -1498.3231    524.80488    427.60335    116.89327    34340.171 
  658500    302.55729   -1550.4543    550.95062    377.64542    8.4270404    34340.171 
  658600    292.66034   -1585.8329     542.9366    289.20492   -88.603646    34340.171 
  658700    297.02279   -1596.0291    524.47323    280.40187   -350.72974    34340.171 
  658800    305.00509    -1525.144    529.25702     392.4038    179.59322    34340.171 
  658900    302.25626   -1574.9166    541.44611    342.30838    109.60708    34340.171 
  659000    295.80839   -1549.6833    569.94008     366.6869   -130.38893    34340.171 
  659100    298.92283   -1558.5408    525.54547    327.61081    276.47401    34340.171 
  659200    302.38888   -1521.9697    534.74947    389.16231   -938.63774    34340.171 
  659300    296.84722   -1569.9117    547.37208    328.61894   -201.05484    34340.171 
  659400    290.67076   -1555.6172    557.19228    324.62031   -196.87876    34340.171 
  659500    304.25495   -1604.8624     526.1368     306.1507    59.803662    34340.171 
  659600    297.75828   -1585.7504    506.37693    275.93201   -244.60342    34340.171 
  659700    299.96534   -1554.9727    533.92942    344.30808    38.326787    34340.171 
  659800    307.91314   -1563.8036    549.77798    387.50163    248.25698    34340.171 
  659900    293.04825   -1545.6138    535.30277    323.55576    -15.84994    34340.171 
  660000    303.10074   -1547.9079     517.6191    349.33391    245.60411    34340.171 
  660100    304.74889   -1543.3087    529.37044    373.18633    400.60216    34340.171 
  660200    306.58618   -1567.7399    494.94593     322.6934    251.98886    34340.171 
  660300    305.72296   -1564.1162     551.1095    378.55153     1049.887    34340.171 
  660400    287.09041   -1563.2704    518.08124    261.55938    895.75166    34340.171 
  660500    307.10655   -1558.4532    533.61977    373.02258    920.19746    34340.171 
  660600    308.10341   -1576.1688    557.04135    383.26591    626.93402    34340.171 
  660700    302.53829   -1545.6312    534.70976     366.1412   -330.43157    34340.171 
  660800    306.52444   -1507.1787    548.80105    436.82866    145.38805    34340.171 
  660900    298.40028   -1521.3077    528.63586    365.55577    748.54943    34340.171 
  661000    307.87669   -1523.2471    554.02549    432.13976    804.83031    34340.171 
  661100    298.85459   -1515.2641    534.08879    379.12025   -65.594635    34340.171 
  661200    303.46483   -1514.2766    538.49761    405.50091   -130.99815    34340.171 
  661300    291.73872   -1526.1225    542.91114     344.6949    24.101064    34340.171 
  661400    298.10626   -1502.0373    524.90855    379.76058    123.66615    34340.171 
  661500     293.1353   -1491.5155    527.34599     370.0935   -51.876423    34340.171 
  661600    299.06563   -1534.5943    536.47026    363.13212     256.9743    34340.171 
  661700    295.65434   -1508.3359    541.22725     378.6203    946.63682    34340.171 
  661800    297.02069    -1580.519    520.43239    291.86156    776.96882    34340.171 
  661900    297.82317   -1574.2506    552.28274      333.633    816.23978    34340.171 
  662000    298.93379    -1559.246    555.61948    357.02947    868.64799    34340.171 
  662100    296.06879   -1549.0718    502.84029    301.38394     180.5812    34340.171 
  662200    288.59594   -1564.8178    530.86027    279.64374    312.91761    34340.171 
  662300    308.81052   -1576.0785    506.45283    335.98627    208.77567    34340.171 
  662400    307.08832    -1569.615    510.27279    338.43074    544.69933    34340.171 
  662500     294.6728   -1576.1754    537.58869    302.67459    12.795391    34340.171 
  662600    304.39079   -1535.7241    510.91001    360.68056   -44.323095    34340.171 
  662700    296.20723   -1546.4764    532.33149    334.10064   -364.33405    34340.171 
  662800    303.19568   -1540.6219    528.70853    368.14154   -746.54544    34340.171 
  662900    294.88158   -1542.4385    519.36239    319.13549   -339.03963    34340.171 
  663000    301.93491   -1562.7289    529.80389    341.39124   -127.80393    34340.171 
  663100    305.06866   -1545.3182    548.57316    391.83501    54.475814    34340.171 
  663200    298.43289   -1523.7472    545.16136    379.79025    438.56448    34340.171 
  663300    305.37982   -1545.1595    517.87463    362.71155    466.02285    34340.171 
  663400    306.56971   -1551.7916    527.51886    371.13968    167.92472    34340.171 
  663500    299.78746   -1569.8178    509.77251    304.49639   -184.84904    34340.171 
  663600    295.26554   -1557.1724    518.36805     305.1549   -1133.3499    34340.171 
  663700    293.26054   -1581.2803    522.24989    275.80269   -712.20907    34340.171 
  663800    301.02387   -1580.2245    539.64551    329.59047   -855.47764    34340.171 
  663900    295.78575   -1567.8041    529.96413    308.48714   -635.46635    34340.171 
  664000      306.674    -1599.473    522.64845    319.06253   -603.60628    34340.171 
  664100    300.16499    -1606.737    518.68668    278.20974   -857.21482    34340.171 
  664200    288.47918   -1557.8799    539.47917    294.66908   -141.51437    34340.171 
  664300    305.49722   -1562.9244    524.90396    352.51031    127.67482    34340.171 
  664400     294.7991    -1551.981    550.09414    339.94929    668.91531    34340.171 
  664500    298.37016     -1559.46    525.00519    323.63577     665.0022    34340.171 
  664600    304.77914   -1569.0511    544.01301    362.22414    116.08299    34340.171 
  664700    291.86837   -1562.5028    540.11942    306.11297    448.50098    34340.171 
  664800    294.04199   -1577.0737    496.91694    258.23329    298.50372    34340.171 
  664900    289.92586   -1629.5283    513.03141    203.15775     661.4937    34340.171 
  665000    306.14267   -1577.5568    524.07347    339.98529    1086.2562    34340.171 
  665100    311.86286    -1544.066    529.26735    404.70661    593.82376    34340.171 
  665200    305.16958   -1599.1287    518.34628    308.25699    1067.8466    34340.171 
  665300    301.25888   -1559.5181    531.85211    343.57313   -355.00495    34340.171 
  665400    288.33746   -1533.3132    531.29634     310.4079   -265.59971    34340.171 
  665500    301.57156   -1555.9375    504.52825    321.25313   -88.949384    34340.171 
  665600    318.31342   -1530.0213    548.01786    466.86278   -29.341482    34340.171 
  665700    299.13606    -1534.827    548.69247    375.44211   -15.577545    34340.171 
  665800    300.19151   -1540.3272    536.88529    362.93884   -630.49874    34340.171 
  665900    310.29576   -1513.9948    537.66387     436.0414   -381.31903    34340.171 
  666000    291.11883   -1553.1177    526.04508    298.01207   -673.30406    34340.171 
  666100     296.7569    -1517.797    530.60363    363.55411   -216.76305    34340.171 
  666200    302.13127   -1540.4503    523.60099    358.36067    -124.1618    34340.171 
  666300    293.11033   -1499.6235    550.16249    384.68834   -482.53972    34340.171 
  666400    289.70695   -1506.2283    542.02016    354.45005   -396.89345    34340.171 
  666500    309.54054   -1546.2905      494.537    357.18122    5.9698521    34340.171 
  666600    309.45986   -1583.2971     544.2878    369.55816    30.406106    34340.171 
  666700    293.25073   -1618.3247    506.76089    223.22464    397.40675    34340.171 
  666800    308.28395   -1625.4989    518.66886    296.38505    798.96598    34340.171 
  666900    296.27367   -1598.9205    533.68725    283.31472    637.30187    34340.171 
  667000    307.05471    -1612.592    513.72283    298.75082    298.40196    34340.171 
  667100    301.11592   -1572.4202    480.71871    278.88692   -694.14585    34340.171 
  667200    292.83392   -1586.4787    516.22255    262.63514   -913.21788    34340.171 
  667300     303.0794    -1596.255    509.29644    292.56701   -936.01156    34340.171 
  667400     292.4059    -1604.153    523.75745    250.54753   -870.60192    34340.171 
  667500    300.18203   -1560.7574    513.63678    319.21703   -29.100114    34340.171 
  667600    299.23192   -1570.4799    516.66978    308.20295     405.9747    34340.171 
  667700    299.67361   -1561.2512    534.10884    336.88104   -25.549218    34340.171 
  667800     311.2147   -1516.0798     537.2741    437.74933   -124.15717    34340.171 
  667900    304.55616   -1566.5294    496.66321    316.38111   -663.64657    34340.171 
  668000    297.50299   -1541.2461    546.71126     359.6086   -379.71946    34340.171 
  668100    303.29388   -1566.7435    533.35207    347.11037   -529.11486    34340.171 
  668200    308.22062   -1520.3591    551.50413    434.07189   -278.46854    34340.171 
  668300    313.68985   -1540.0927    507.83791    395.56633   -769.14629    34340.171 
  668400    308.30464   -1560.4904    530.69829     373.5172   -459.80849    34340.171 
  668500    303.64794    -1506.837    543.85645    419.13283   -512.05494    34340.171 
  668600    302.08791   -1553.0298      519.259    341.24178   -175.88038    34340.171 
  668700    317.77962   -1534.4386    522.45429    434.45218    809.90475    34340.171 
  668800    296.63684   -1570.2348    521.84822    301.81437    281.75667    34340.171 
  668900    296.14787   -1552.1549    550.31385     346.1343    488.32276    34340.171 
  669000     302.9607   -1546.2718    532.50588    365.21937    289.13448    34340.171 
  669100    294.60282    -1569.258    529.93938    301.62411    48.121721    34340.171 
  669200    300.60885   -1591.9478      524.137     300.4696   -265.67369    34340.171 
  669300    295.68762   -1553.2592    526.98321    319.60441   -220.43473    34340.171 
  669400    293.58947   -1508.4618    497.70742    325.57592   -424.67022    34340.171 
  669500     297.6576   -1544.3324    508.19525    318.71007   -742.40604    34340.171 
  669600    297.89039   -1522.4294    543.77561    377.25301   -616.39239    34340.171 
  669700    302.43989   -1575.2039    549.84759    351.25846    75.615606    34340.171 
  669800    292.83191   -1563.4787    500.55362    269.95707    217.49995    34340.171 
  669900    293.20646   -1512.0544    507.77631    330.30889   -706.31009    34340.171 
  670000    305.26666   -1542.3643    526.82912    373.94613    -425.2054    34340.171 
  670100    304.00623    -1538.285    521.96879    367.42807   -579.85718    34340.171 
  670200    306.32795   -1539.0995    550.64446    405.85696   -398.05542    34340.171 
  670300    304.05717   -1567.4434    521.95877    338.49145   -864.61754    34340.171 
  670400    293.44589   -1531.8637    537.34396      341.157   -636.09785    34340.171 
  670500    304.54079   -1523.0939    515.36698    378.45049   -601.27593    34340.171 
  670600    292.14398   -1547.5499    519.54607    301.74707   -687.20774    34340.171 
  670700    293.18305   -1543.0585    524.25914    315.68106   -456.96529    34340.171 
  670800     305.8803   -1522.8634    548.71536    418.12635    357.04508    34340.171 
  670900    284.39563   -1519.1805     519.5929    294.89509   -143.81054    34340.171 
  671000    303.55225   -1492.6858    532.84028    421.83234   -489.52238    34340.171 
  671100    296.16391   -1500.8207    532.49317    379.72085   -191.95649    34340.171 
  671200    294.56822   -1510.4579     560.3149    390.64226   -129.83455    34340.171 
  671300     305.5175   -1484.5049    532.72399    438.84214   -94.046784    34340.171 
  671400    298.94508   -1517.5338    523.23576    366.40936    -287.9209    34340.171 
  671500    308.20872    -1534.437    514.43917    382.87489    180.89373    34340.171 
  671600    300.57169    -1579.784    524.77365    313.10086    -72.48032    34340.171 
  671700    299.74182   -1588.1767    534.97362    311.13081    1040.6695    34340.171 
  671800    295.84361   -1527.7124    529.37566    348.25368    218.57077    34340.171 
  671900    296.29023   -1550.3278    527.15088    325.44642   -79.930148    34340.171 
  672000    301.94455   -1607.0224    503.02867    270.36632   -353.06844    34340.171 
  672100    308.12754    -1588.012    507.03418    321.52532   -38.649669    34340.171 
  672200    315.05207   -1593.9954    508.72712    348.75327   -35.413111    34340.171 
  672300    301.87289   -1530.7122    553.85436    397.17605   -39.568625    34340.171 
  672400    303.36283   -1539.6001    520.13915    361.35469   -760.51766    34340.171 
  672500    304.85099    -1540.038    511.03747    358.58885    -367.6587    34340.171 
  672600    293.43522   -1495.5856    522.51898    362.56161   -593.88325    34340.171 
  672700    308.58828   -1531.7655    527.90714    400.74202    254.29607    34340.171 
  672800    306.66586   -1553.6213    530.66378    372.89255    25.972017    34340.171 
  672900    305.22756   -1565.8501    527.14507    350.59832    958.29601    34340.171 
  673000    297.15665   -1548.0321    544.96915    349.50411    673.14481    34340.171 
  673100    296.79804   -1511.7188    544.56768    383.78356    424.52995    34340.171 
  673200    286.35453   -1535.8675    541.34159    308.87317    296.56851    34340.171 
  673300    299.37853    -1529.596    566.25801    399.34234    1.7552082    34340.171 
  673400    302.89338   -1487.6917    513.83895    404.82613     477.4231    34340.171 
  673500    302.00784    -1475.533    550.17241    449.28757     187.6896    34340.171 
  673600    284.88708   -1538.3942    493.60095     251.9264    79.279815    34340.171 
  673700    296.95634   -1559.8438    518.64103    310.45247   -215.30317    34340.171 
  673800    292.10198    -1554.325    512.65118    287.88589    89.438871    34340.171 
  673900    301.12988   -1574.0091    510.10046    306.74328    492.59405    34340.171 
  674000     295.6239   -1516.9768    551.12021    379.73378    613.88717    34340.171 
  674100    296.04902    -1539.592    553.75616    361.68961    226.32933    34340.171 
  674200    301.43246   -1546.9406    524.01964    349.10827    217.36718    34340.171 
  674300    299.89187   -1554.0645    505.97204    316.92446     252.4641    34340.171 
  674400    297.02243   -1577.1582    528.83407    303.63195    426.76615    34340.171 
  674500    302.65285   -1569.0928    509.67804    318.16925    356.13581    34340.171 
  674600    302.71127   -1591.1356    534.46284    321.17717   -328.87418    34340.171 
  674700    288.72446   -1544.1926    548.63549    318.62916   -304.03503    34340.171 
  674800    295.80674   -1548.5939     539.3504    337.17912    116.92266    34340.171 
  674900     297.3241   -1573.7855    516.48896     296.0326   -283.68514    34340.171 
  675000     303.2903   -1587.7646    554.46601    347.18692    316.53451    34340.171 
  675100    305.14298   -1606.8405    542.93112    325.00897   -569.80733    34340.171 
  675200    304.77671   -1572.5091    506.41185    321.15396   -807.57561    34340.171 
  675300    304.21311   -1580.5291    526.55741    330.71426   -432.51859    34340.171 
  675400    302.85502   -1599.5724     534.6357    313.56758    162.68878    34340.171 
  675500     306.5238   -1573.9346    503.75785     325.0267   -110.26357    34340.171 
  675600    306.27097   -1569.8356    533.05452    357.27158   -443.68124    34340.171 
  675700    307.16626   -1583.7295    491.36642    305.76462    91.448588    34340.171 
  675800    297.29476   -1596.1374     513.6729     270.7311   -775.59887    34340.171 
  675900    293.83569   -1623.8587     504.0455    217.63784    -912.1447    34340.171 
  676000    294.69697   -1586.4092    527.86841    282.83054   -209.90639    34340.171 
  676100    297.94816    -1593.287    526.51115    289.39382   -152.87753    34340.171 
  676200    308.42118   -1584.1117     517.8943    337.62236    -51.60936    34340.171 
  676300    302.90254   -1570.8489    517.73715    325.60875   -520.82905    34340.171 
  676400    299.42181    -1549.454    540.55037    353.97367   -667.97665    34340.171 
  676500    296.23124   -1549.5767     504.8753    303.65342    26.341847    34340.171 
  676600     293.8354   -1592.8494    526.04481    270.64506   -879.83127    34340.171 
  676700    312.16559    -1588.023    519.99979    352.85998   -443.90225    34340.171 
  676800     295.9906   -1588.3934    501.11173    259.97784   -1393.1794    34340.171 
  676900    293.47214   -1578.3828    528.43058    285.84402   -1059.9603    34340.171 
  677000    293.32353    -1576.514    514.69842    273.30424   -821.07068    34340.171 
  677100    300.15959    -1571.999    551.07781    345.31427    -582.4187    34340.171 
  677200    296.71605   -1622.5595    471.21169     199.2137   -104.96754    34340.171 
  677300    300.29601   -1607.5009    497.92526    257.28078   -70.565847    34340.171 
  677400    298.51152   -1565.0572    528.14426    321.82107   -8.1868616    34340.171 
  677500    294.47438     -1555.44    532.85905    317.77714    342.49705    34340.171 
  677600    296.87492   -1607.9634    522.42102     265.7423    201.65112    34340.171 
  677700    301.56549   -1564.2034    544.93007    353.36141    968.18092    34340.171 
  677800    302.11846   -1561.1775    525.19177    339.16596    1159.4194    34340.171 
  677900    298.46018    -1583.462    541.11785    316.15615    623.49519    34340.171 
  678000    314.30403   -1615.6195    492.80973    307.80696    35.143081    34340.171 
  678100     303.4848   -1606.7975    527.55213    302.12551   -1.2226733    34340.171 
  678200    294.48268   -1607.7796      521.397    254.01336    89.811602    34340.171 
  678300     296.5469   -1568.6273    520.09151    301.25585    38.548314    34340.171 
  678400     300.2722   -1612.9092    524.09413    277.93297   -298.98052    34340.171 
  678500    290.73809   -1589.6281    517.10808    250.83162    412.45133    34340.171 
  678600    290.05105   -1610.3099    511.03352    220.94816   -409.64173    34340.171 
  678700    299.02118   -1585.8964    524.58338    299.74078   -59.758257    34340.171 
  678800    291.75474   -1574.6424    519.13912    272.47584   -321.88056    34340.171 
  678900    296.31579    -1559.077    513.69778    303.36049    262.94247    34340.171 
  679000    296.70563   -1564.0689     536.9141    323.35925   -162.92975    34340.171 
  679100    297.14395   -1532.6498    526.39964    346.25906      816.535    34340.171 
  679200    301.55115   -1579.8225    530.24434    322.99128   -100.95175    34340.171 
  679300     305.5061   -1540.6113    531.85682    381.81665    537.59519    34340.171 
  679400    288.41872   -1560.9572    531.32289    283.16026    753.07539    34340.171 
  679500    283.95991   -1558.6027    532.16249    266.05924    476.89691    34340.171 
  679600    298.71666   -1554.7118    511.75485    316.71078    634.22974    34340.171 
  679700    287.86822   -1546.9423    535.96587    299.31246    637.93774    34340.171 
  679800    301.13292   -1541.2616     506.4944    335.89861    338.00943    34340.171 
  679900    300.61499   -1536.5356    519.83303    351.60577   -152.20522    34340.171 
  680000    306.92606   -1529.8679    539.81058    406.97708   -267.41789    34340.171 
  680100    301.23949   -1538.3601    531.73533    364.52607    111.75903    34340.171 
  680200    294.21181   -1521.3043    526.12657    343.98528    186.31072    34340.171 
  680300    306.80184   -1555.0374    531.04086    372.47244    433.19688    34340.171 
  680400    288.02883      -1522.4    538.86585    327.48577   -483.68693    34340.171 
  680500    304.63842   -1508.7958    530.60297    408.42892   -39.045668    34340.171 
  680600     292.2192   -1523.7133    525.97783     332.3578     177.7129    34340.171 
  680700     310.2474   -1524.8894    533.05826    420.32107    140.94687    34340.171 
  680800    301.22158   -1493.9701    512.63732    389.73656   -38.274813    34340.171 
  680900    310.84245   -1491.1169    542.69695    466.44069    211.25325    34340.171 
  681000    291.55419   -1488.4002    520.70339    359.36947   -1124.6667    34340.171 
  681100     296.9909   -1509.7674     545.2604    387.30558   -691.47258    34340.171 
  681200    288.45243   -1492.3169    567.14621    387.77734   -692.27246    34340.171 
  681300    300.35281   -1497.6702    557.15238    426.59713   -416.19337    34340.171 
  681400    304.47392   -1532.9705    517.22665    370.12916    248.02836    34340.171 
  681500    308.49661   -1549.4909    529.50695    384.19916    406.82714    34340.171 
  681600    304.98265   -1598.4834    538.24466    327.94985    767.53389    34340.171 
  681700    303.79018   -1562.5967    548.64515    368.80924    344.60485    34340.171 
  681800    300.93587   -1566.0019    534.58232    338.34929    575.85455    34340.171 
  681900    302.40983   -1572.0097    544.30924    348.77748    693.85706    34340.171 
  682000    294.25966   -1561.3785    540.59839    318.60069     242.7864    34340.171 
  682100     313.4315    -1596.523    498.92923    329.05149    612.73869    34340.171 
  682200    293.98606   -1635.3516    543.25173    246.03563    694.28361    34340.171 
  682300    305.95285   -1577.7217    547.89863    362.78156     718.2367    34340.171 
  682400    303.27685   -1574.4331    546.52911     352.5203    1213.6578    34340.171 
  682500    296.96359   -1574.7938    534.15553    311.04997    415.16148    34340.171 
  682600     303.6239   -1554.1643    528.10892    355.94859    468.14765    34340.171 
  682700    311.08823   -1586.9707    525.31633      354.325    220.54294    34340.171 
  682800    297.99368   -1559.7578    554.02167    350.64084   -32.837999    34340.171 
  682900     289.6806   -1558.9317    541.85918    301.46576    145.73144    34340.171 
  683000    305.20791   -1566.3851     525.9062    348.73499    1319.8078    34340.171 
  683100    305.71221   -1563.7644    553.09139    380.83636      778.831    34340.171 
  683200    308.56398   -1569.7469    534.74731    369.49013    390.98532    34340.171 
  683300    295.35591   -1535.0312    517.86375    327.20313   -10.916883    34340.171 
  683400    301.79339   -1544.8505    546.24382    375.06536   -284.17868    34340.171 
  683500    304.80676   -1525.8016     546.3016    407.88804  0.036306396    34340.171 
  683600     297.3282   -1575.6453     536.6261    314.32863   -138.78215    34340.171 
  683700    292.99446   -1558.3557    522.05238    297.31873   -44.752803    34340.171 
  683800    298.66601    -1576.677    547.60587      330.366   -413.89546    34340.171 
  683900    294.01236   -1546.2078     555.2775    347.32484   -1076.4957    34340.171 
  684000    300.97701    -1573.925    524.04727    320.07837   -1328.9147    34340.171 
  684100    312.45842   -1534.9246    529.22605     416.5175   -662.05236    34340.171 
  684200    306.47616   -1589.1952    507.41791    313.20928   -477.22119    34340.171 
  684300     295.3943   -1627.0432    548.02194    265.52414    461.33647    34340.171 
  684400    298.36473   -1585.4647    538.91237    311.51348    178.32011    34340.171 
  684500    298.55043   -1583.4744    543.06132    318.49799  -0.30160007    34340.171 
  684600    309.62779   -1565.1938    544.58931    388.72739    351.07171    34340.171 
  684700    293.33199   -1592.7868    541.91259    284.28416    66.198683    34340.171 
  684800    306.60344   -1623.3917    534.69299    306.86727    239.94923    34340.171 
  684900    289.85755   -1622.3351     513.7121    210.72074    144.46712    34340.171 
  685000    306.83352   -1572.7947    507.54231    331.36077     613.8377    34340.171 
  685100    296.00924   -1667.4425    540.25736    220.15918    872.25591    34340.171 
  685200    298.72513   -1610.3315    536.50695    285.88172    336.56518    34340.171 
  685300    302.62002   -1547.1729    538.98558    369.24735    359.67138    34340.171 
  685400    302.59257   -1567.1749    555.81027    365.94504   -550.55658    34340.171 
  685500    311.35642   -1580.5821    522.32097    358.93896   -8.8668046    34340.171 
  685600    301.55016   -1563.6653    537.67112    346.57076    -134.5462    34340.171 
  685700    288.91599   -1557.7678    530.47578    287.76597   -224.94015    34340.171 
  685800    302.44132   -1535.4973    534.92206    376.04595   -406.72369    34340.171 
  685900    300.01542    -1521.144    520.36847    364.80381    164.65897    34340.171 
  686000    311.74489   -1553.5352    534.73514    400.16817   -393.59084    34340.171 
  686100    312.35806   -1547.9887    521.96128    395.73182    541.65792    34340.171 
  686200    307.13916   -1537.5799    534.01104    394.43548    457.78777    34340.171 
  686300    300.50672   -1571.6118    524.18484    320.38858    233.10898    34340.171 
  686400    302.82395   -1536.8434    529.75176    371.27121    158.99094    34340.171 
  686500    303.13201   -1527.8266    550.40302    402.34143    261.61535    34340.171 
  686600     303.9299   -1493.8602    545.26679    434.80336   -116.66554    34340.171 
  686700    303.35103   -1522.2117    548.94905    407.49934    451.91021    34340.171 
  686800    298.78421   -1518.2052    534.45557    376.22553   -78.088935    34340.171 
  686900    307.05266    -1536.893    552.48084    413.19855    122.54927    34340.171 
  687000    289.56422    -1526.693    532.63021    323.94572   -136.22824    34340.171 
  687100    292.18089   -1477.4955    540.02601    392.44936   -735.67381    34340.171 
  687200    308.23821   -1529.9424    533.16587    406.23042   -272.23484    34340.171 
  687300    296.25606   -1500.5133    511.83297    359.78742   -89.441495    34340.171 
  687400    296.80547   -1522.6266    614.61503    442.95701    105.80841    34340.171 
  687500     293.4966   -1545.3529    522.59402    313.14869    279.28367    34340.171 
  687600    299.03084    -1525.693    526.82395     362.2287   -208.92772    34340.171 
  687700    309.53426   -1528.3208    537.07704    417.66243    250.98484    34340.171 
  687800    290.27948   -1537.0666    544.74178    328.93939   -491.41411    34340.171 
  687900    303.42232   -1542.6946      526.652    365.04387   -731.48298    34340.171 
  688000    293.92533   -1547.6453     526.1118    316.32549    51.887799    34340.171 
  688100    309.24141   -1518.0843    558.52247    448.01131    148.22345    34340.171 
  688200    293.33295   -1493.8891    530.81575    372.08931   -53.761305    34340.171 
  688300    297.58837   -1531.0228     564.8393    388.34863   -314.87967    34340.171 
  688400    298.02555   -1508.0787    522.78114    371.22443   -31.905505    34340.171 
  688500    303.01677   -1525.8583    558.60776       411.99   -471.58095    34340.171 
  688600     286.9759   -1541.4058    572.21873    337.04024   -958.36546    34340.171 
  688700    295.27504   -1501.1111    518.04515    360.93659   -117.95858    34340.171 
  688800    298.31102   -1527.3317    572.75089    403.24054   -108.90673    34340.171 
  688900    292.91981   -1557.4942    519.25813    295.04611    84.396319    34340.171 
  689000    298.32251   -1548.6998    563.34198    372.51586   -325.55646    34340.171 
  689100    300.37009   -1527.4056    529.57534    369.36334    185.95813    34340.171 
  689200    293.41108   -1564.0838    519.75376    291.18832    611.44438    34340.171 
  689300    297.17193    -1619.748    551.48732    284.37589   -129.88191    34340.171 
  689400    298.00122    -1599.914    517.95459    274.45181   -152.04958    34340.171 
  689500    297.97652    -1561.545    514.17866    308.93252    73.421293    34340.171 
  689600    298.93934    -1540.581    545.06978    365.17006   -154.31779    34340.171 
  689700    306.16311   -1558.1706    526.09651    361.48756   -117.84694    34340.171 
  689800    297.19338   -1507.9329     499.3067    344.10803    151.93982    34340.171 
  689900    306.04706   -1502.1773    548.82138    439.67749    310.02642    34340.171 
  690000    296.90288   -1530.7951    548.09571    368.71256   -252.04454    34340.171 
  690100    297.11269   -1514.1564    521.93635    360.14688    146.35986    34340.171 
  690200    287.94035   -1481.4926    554.59052    383.71511    249.57267    34340.171 
  690300    304.05758   -1550.1594      536.161    369.97959   -246.93955    34340.171 
  690400    292.67969   -1559.3192     519.2793    292.14937    663.56805    34340.171 
  690500    303.50763   -1533.6109    528.50991    376.37382    273.82494    34340.171 
  690600    313.50126   -1554.9469    520.16859    392.18441   -541.85742    34340.171 
  690700    295.18605   -1555.7322    544.67717    332.54238    31.785108    34340.171 
  690800    302.38459   -1558.6316     534.5251    352.25651   -336.30507    34340.171 
  690900    294.69736   -1562.7303    533.89255    312.53532    374.65917    34340.171 
  691000    295.17407   -1541.4772    516.37727    318.44297    213.55842    34340.171 
  691100    291.36684   -1544.7304     551.7957    333.27886    88.673415    34340.171 
  691200    301.84184   -1493.3654    558.98359    439.51075    327.61651    34340.171 
  691300    300.62006    -1498.419    546.87558    416.78794    460.90253    34340.171 
  691400    299.19978   -1509.0315    546.05719     398.8924    607.94502    34340.171 
  691500    299.81482    -1554.874    534.29531    344.08754    152.11296    34340.171 
  691600    304.70925   -1509.5358     529.0833    406.49169     532.0719    34340.171 
  691700    300.03686   -1569.5915    542.63973    338.72505   -379.86612    34340.171 
  691800    290.16757   -1572.6424    537.70003    285.81248    169.49533    34340.171 
  691900    294.38137   -1560.8539    510.22216    289.30301   -377.87375    34340.171 
  692000    292.15068   -1551.8914     536.9693    314.85928   -371.64872    34340.171 
  692100    300.96332   -1534.5732    499.64225    334.96285   -91.424645    34340.171 
  692200    302.50506   -1511.3709    525.26111    390.80156   -315.80718    34340.171 
  692300      300.911   -1545.9368    556.65237     380.3712    13.763089    34340.171 
  692400    293.41651   -1549.4638     523.2548    309.33407   -324.05066    34340.171 
  692500    312.09028   -1561.2989    548.69396     407.9355    175.87081    34340.171 
  692600    293.99715   -1531.4025    513.90893    320.69239    233.32883    34340.171 
  692700    302.74284   -1572.3429    540.87754    346.52835    644.72398    34340.171 
  692800    297.71708   -1494.6344    565.99349    426.47703    961.13007    34340.171 
  692900    302.81926   -1491.3402    528.85699    415.85826    905.70671    34340.171 
  693000    299.69382   -1529.8827    552.61859    386.85135    63.492572    34340.171 
  693100    302.18918   -1498.3487     536.4925    413.61739    72.461517    34340.171 
  693200    304.12593   -1534.1596    536.56025    386.68967   -458.41431    34340.171 
  693300    301.34352   -1528.6567    508.32064    351.28829   -273.56741    34340.171 
  693400    300.19803   -1511.7816    567.06245    421.69133   -171.22974    34340.171 
  693500    296.78157   -1521.5631    545.71828    375.01494   -857.63267    34340.171 
  693600    295.44623   -1529.3158    504.46333    319.92921   -631.42368    34340.171 
  693700    297.20909   -1523.5299    525.88343    355.15919   -509.06741    34340.171 
  693800    301.45855   -1560.9411    526.33419    337.54105     -395.243    34340.171 
  693900    291.54066   -1543.1476    525.66768    309.52477    549.52964    34340.171 
  694000    309.69158   -1565.1437    548.06408    392.54257   -45.495167    34340.171 
  694100    295.45433   -1533.1134    561.71196    373.41713     632.8437    34340.171 
  694200    306.00931   -1522.3816    567.21032    437.69036    571.37052    34340.171 
  694300    288.55794   -1560.6144    555.90573    308.71969    -309.9328    34340.171 
  694400    304.99731   -1533.2213    551.65382    406.68783    489.40525    34340.171 
  694500    296.29784   -1483.9529    542.30749    407.01259    265.71744    34340.171 
  694600    301.65284   -1553.5547    543.79685    363.27446    189.48334    34340.171 
  694700    301.87783   -1521.8614    520.34721     372.5422   -10.523453    34340.171 
  694800    300.18468   -1520.5964    533.40528    379.15859    239.57603    34340.171 
  694900    311.27167    -1547.156    492.29901     361.9573   -60.451523    34340.171 
  695000    306.49647    -1515.206    514.75256     394.6256   -247.64797    34340.171 
  695100    303.46342   -1472.6401    549.10119    457.73463   -1115.5079    34340.171 
  695200    307.55767   -1527.6574    535.55353    407.80542   -1518.8953    34340.171 
  695300    298.68883   -1566.4322    532.74408    325.85287   -1154.8927    34340.171 
  695400    293.65406   -1561.1819    539.27482    314.71722   -260.98213    34340.171 
  695500    297.83716   -1554.0532    560.86002     362.4713   -395.75541    34340.171 
  695600    306.58831   -1552.3756    510.68816    353.80962    439.27687    34340.171 
  695700    301.91772   -1506.5954    519.93608     387.5787    430.07571    34340.171 
  695800    289.65917   -1508.1061    521.96282    332.29743    130.20338    34340.171 
  695900    305.87074   -1510.9269    546.55761    427.86159    392.35695    34340.171 
  696000    298.90507   -1527.3322    507.55548     340.7486    1223.1384    34340.171 
  696100    298.14706    -1538.042     565.9886    385.02163    830.59434    34340.171 
  696200     307.5718   -1514.3167    547.59269    433.24956     11.97673    34340.171 
  696300    305.05106   -1520.7267    548.22259    415.99589   -334.82778    34340.171 
  696400    293.93369   -1513.4157    527.27986    351.76129   -300.02069    34340.171 
  696500    300.83929   -1507.7915    546.61285    408.15067    380.04694    34340.171 
  696600    294.15692    -1524.963    559.80126    373.75141    174.67775    34340.171 
  696700    298.72496   -1476.0275    523.50844    407.18642    120.33204    34340.171 
  696800    292.17972   -1497.7393    521.87733    354.05154    76.734111    34340.171 
  696900    294.21309   -1541.1628    510.79326    308.79931    598.89346    34340.171 
  697000    308.56162   -1527.5006    521.15213    398.13056    292.03204    34340.171 
  697100     313.1244   -1489.6881    537.76004    473.31934    108.08388    34340.171 
  697200    287.21752   -1517.1311    516.25237    306.44839    103.99099    34340.171 
  697300    304.21391   -1539.7354    551.08075    396.03486    669.05776    34340.171 
  697400     299.2837   -1503.2836    533.81297    392.77803     -193.595    34340.171 
  697500     303.6133   -1497.4359    557.76569    442.28547   -95.524014    34340.171 
  697600    309.32935    -1511.469    525.63614    422.14057    434.41855    34340.171 
  697700    301.11787   -1562.4251    534.11533    342.28752   -414.07361    34340.171 
  697800    310.62388   -1521.7917    524.81295    416.88703   -307.11738    34340.171 
  697900    299.94864   -1521.5146     551.2684    395.02907   -71.605746    34340.171 
  698000    299.27353   -1555.0732    536.17199     343.3012    463.67613    34340.171 
  698100     300.8199   -1560.5371    567.11842    375.82235    1033.6972    34340.171 
  698200    296.84789   -1574.3886    534.20142    310.97448    970.14803    34340.171 
  698300    299.60466   -1584.4858    549.75003    328.97379    373.98978    34340.171 
  698400    300.26037   -1515.0573    542.73987    394.37679    965.26673    34340.171 
  698500     300.1935   -1532.1303    488.91152    323.17102   -353.24363    34340.171 
  698600    296.81256   -1540.2995    561.59678    372.29806   -31.421972    34340.171 
  698700    303.04566   -1575.5577    529.53558    333.34984   -1020.7009    34340.171 
  698800    308.61374    -1591.069    525.60483    339.25209   -93.521662    34340.171 
  698900    305.64969   -1566.0491    522.69055    347.86624   -674.30935    34340.171 
  699000    296.31842   -1591.2793     547.9573    305.42962   -193.15376    34340.171 
  699100     292.8165   -1587.2416    509.08083    254.65118   -44.281864    34340.171 
  699200     299.2412   -1567.8761    559.04435    353.22354    428.91969    34340.171 
  699300    291.82805   -1593.2916    510.31797    245.33923    414.66218    34340.171 
  699400    300.37368   -1575.9757    495.27153    286.50581    976.31967    34340.171 
  699500    303.52165   -1553.5009    524.71566     352.7533    526.99686    34340.171 
  699600     289.5561   -1566.2813     529.0466     280.7369    725.39638    34340.171 
  699700    305.97007   -1566.5376    516.37193    342.51733    915.17918    34340.171 
  699800    303.55743   -1582.3709    517.82775    317.15824    52.824672    34340.171 
  699900    292.90994   -1564.7933    521.23588    289.67982    852.82253    34340.171 
  700000    309.31281   -1577.3611    530.48468    361.02178    702.36922    34340.171 
  700100    300.68095   -1550.0037    521.30335    339.90818    552.41877    34340.171 
  700200     305.3955   -1536.0877    564.78537    418.76538    475.97848    34340.171 
  700300    309.55027   -1582.8472    529.23367    355.36553   -119.36008    34340.171 
  700400    295.95533   -1555.0375    527.18941    319.25085   -41.255912    34340.171 
  700500    301.97155   -1586.5493    517.38086     305.3145    231.51545    34340.171 
  700600    299.62861   -1538.0426    549.26012    375.03617    73.196704    34340.171 
  700700    301.53416   -1546.4458    525.24064    351.28693    245.37118    34340.171 
  700800    303.61756    -1545.859    575.22209    411.33824    287.16581    34340.171 
  700900    290.45273   -1524.3219    524.36822    322.09916   -362.67228    34340.171 
  701000    306.82591   -1541.1103    543.14989    398.61815    101.74835    34340.171 
  701100    301.18939   -1494.6803    532.52729    408.76985   -113.06059    34340.171 
  701200    302.62853    -1571.233    505.72035     311.9607   -48.050073    34340.171 
  701300    297.59843   -1555.3138    526.15277    325.41683   -257.98013    34340.171 
  701400    294.31006   -1542.8889    489.54522    286.26656   -282.10539    34340.171 
  701500    299.20523   -1548.6838    541.14381     354.3516    158.40377    34340.171 
  701600    296.52481   -1573.8464    522.22188    298.06657    436.94576    34340.171 
  701700    317.32003   -1555.4542    514.63272     403.5231    265.36318    34340.171 
  701800    301.82061   -1549.2416    516.70334    341.25769    1117.4769    34340.171 
  701900    301.72572   -1548.7237    531.14931    355.78961    1099.4344    34340.171 
  702000    303.65892   -1595.6866     480.1687    266.64548    136.61142    34340.171 
  702100     301.4658   -1520.8062    562.59135     413.9661    1197.3153    34340.171 
  702200    303.77334   -1535.6861    520.24951    367.24756    1123.0056    34340.171 
  702300    291.48328   -1562.1331    535.29774    299.90827    935.99191    34340.171 
  702400    291.75609   -1568.2957    522.65456    282.34414    271.03869    34340.171 
  702500    299.19959   -1549.4998    536.18744    348.55348   -233.54348    34340.171 
  702600    299.79754   -1499.9066    533.82695    398.50791   -229.52536    34340.171 
  702700    298.57126   -1557.0873    508.85939    310.77795   -227.21435    34340.171 
  702800    292.73382    -1538.106    527.98541    322.31507   -2.6178935    34340.171 
  702900    307.95495   -1536.3383    526.94201    392.32126    395.19781    34340.171 
  703000    298.30517   -1522.7603    536.72672    371.76117   -169.45319    34340.171 
  703100    301.27627   -1576.6024    527.40726    322.12313    333.64126    34340.171 
  703200    288.80336   -1556.0877    536.99285    295.45057   -69.879146    34340.171 
  703300    295.92177   -1524.6211    551.57811    373.90319    459.36239    34340.171 
  703400    306.02509   -1513.1692    546.22888    425.99314    137.94643    34340.171 
  703500    294.50756   -1530.8104    524.33586    334.03463     9.935183    34340.171 
  703600    287.29499   -1509.8938    556.43451    354.22043     620.3228    34340.171 
  703700    312.73095   -1502.5802    540.43877    461.31511    -103.1272    34340.171 
  703800    297.01961   -1533.9383    540.24068    358.24561    -264.3913    34340.171 
  703900    284.51249   -1519.9641    568.10063    343.15111   -715.39285    34340.171 
  704000    298.81401   -1534.0752    562.91655    388.95215   -310.02729    34340.171 
  704100     307.4037   -1541.9082    543.67306    400.97334   -78.467541    34340.171 
  704200    307.09904   -1508.0432    539.97244    429.75101    240.77529    34340.171 
  704300    312.92521    -1525.171    517.34295    416.51263   -249.05127    34340.171 
  704400    298.50977   -1544.4208    517.29337    331.59861   -191.80188    34340.171 
  704500    305.39753   -1560.0573    564.61775    394.63738    596.71129    34340.171 
  704600    295.07183   -1577.0315    534.39882    300.44486    474.29552    34340.171 
  704700    284.25981   -1497.7836    533.51436     329.5953    150.58126    34340.171 
  704800    292.58899   -1533.5447    546.86419    345.09584    -201.5603    34340.171 
  704900      306.965   -1542.3817    505.64215    360.47214   -341.61045    34340.171 
  705000    295.66892   -1583.7732    532.57651    294.59862   -711.48064    34340.171 
  705100    312.11081   -1566.8542    540.73363    394.51325   -502.67119    34340.171 
  705200    306.82059   -1560.0326    545.07555    381.59725   -684.99173    34340.171 
  705300    306.56027   -1562.8853    544.66024    377.14438    234.57593    34340.171 
  705400    302.13988   -1523.7876    565.44455     416.9061   -53.919154    34340.171 
  705500    303.11127    -1544.086    539.13557    374.72018    -1266.858    34340.171 
  705600    294.96913    -1540.317    530.45873    332.75185   -531.67321    34340.171 
  705700    308.17053   -1548.4091    529.74692    384.03666   -328.73919    34340.171 
  705800     295.6035   -1517.2999    515.41854    343.61615    -409.1505    34340.171 
  705900    305.70602   -1555.3591    532.42769    368.54971    127.16886    34340.171 
  706000    299.17436   -1509.9115    539.87468    391.71421    306.41504    34340.171 
  706100    294.69395   -1536.5344    531.55905     336.3822    1257.6638    34340.171 
  706200    299.16302   -1540.1091    568.34031     389.9306    756.73395    34340.171 
  706300    298.21065   -1579.2182    535.11042    313.25674    860.18788    34340.171 
  706400    306.18661   -1567.7327    511.27498    337.21101    968.15457    34340.171 
  706500     295.9424   -1556.6659    551.12532    341.49953    681.53273    34340.171 
  706600    292.28378   -1578.8568    522.21126    273.74163    514.94733    34340.171 
  706700    307.07846    -1584.503    519.85784    333.08289    372.01361    34340.171 
  706800    300.13355   -1570.4772    554.10561    349.74538    521.13429    34340.171 
  706900    304.08394   -1562.0019    531.93562    354.03168    393.26379    34340.171 
  707000    300.37347    -1581.322     512.5548    298.44186   -236.69651    34340.171 
  707100    287.24258   -1581.0562    543.08559    269.47057   -33.112734    34340.171 
  707200    295.33703   -1538.5554    540.99453    346.72381   -202.31131    34340.171 
  707300    294.23042   -1551.7137    524.47393    312.00795   -248.33763    34340.171 
  707400    306.37341   -1542.6162    539.73024      391.633   -120.74791    34340.171 
  707500    294.74065   -1520.6918    544.97211    365.85038   -280.17611    34340.171 
  707600    306.80109   -1541.7837    530.12179    384.80366    250.82002    34340.171 
  707700    293.50243   -1574.0943    507.64403    269.48385   -72.423708    34340.171 
  707800    300.77588   -1541.3713    527.31214    354.98144   -269.36457    34340.171 
  707900    301.50486   -1521.3969    528.05875    379.02064    343.33482    34340.171 
  708000       297.28   -1551.5999    495.60356    297.13207    -427.2204    34340.171 
  708100    311.37629   -1550.8935    552.24056    418.63758   -685.82364    34340.171 
  708200    306.31912   -1539.9554    533.04351    387.35996   -264.43469    34340.171 
  708300    291.33183   -1538.4324    502.62651     290.2483   -553.58108    34340.171 
  708400    301.81619   -1547.6325    538.71312    364.85641    47.877045    34340.171 
  708500    306.26673   -1527.5658    545.09594    411.56352    107.63375    34340.171 
  708600    298.64248   -1550.8744    550.35952     358.8152     13.49522    34340.171 
  708700    300.87754   -1564.3408    540.38565    345.54817    -188.6345    34340.171 
  708800    293.97265   -1592.6096    537.43372     282.8985   -521.15146    34340.171 
  708900    302.96038   -1582.8719    530.15644    326.26836   -63.925319    34340.171 
  709000    305.50155   -1578.4696    538.45066    350.53148    362.49821    34340.171 
  709100    297.10252   -1568.9449    530.06019    313.43594    203.73948    34340.171 
  709200    301.04196   -1547.3719    564.13915    387.01902      413.093    34340.171 
  709300    301.93668   -1565.4516      541.283    350.15563    714.54179    34340.171 
  709400    310.88469   -1584.7934    565.44308    395.70254    126.52008    34340.171 
  709500    303.56824   -1553.2953    546.15792    374.61327   -160.79057    34340.171 
  709600    297.88427   -1568.6596    526.08276    313.30205   -488.35724    34340.171 
  709700    300.01872   -1544.9818    563.65131    384.26375   -639.71519    34340.171 
  709800     304.9931   -1558.3028    522.87968    352.81304   -453.89112    34340.171 
  709900     306.6828   -1527.4542     527.4796    395.95255    25.963303    34340.171 
  710000    306.66759   -1542.0812     530.3799    384.15665   -201.12677    34340.171 
  710100     306.5986   -1565.5713    546.70338    376.67597    35.241833    34340.171 
  710200    308.81517   -1544.3111    542.63743    403.95943    134.99643    34340.171 
  710300    303.69789   -1549.9235    529.38638    361.80366    39.629452    34340.171 
  710400     300.2327   -1570.8017    520.90258    316.66917    255.65917    34340.171 
  710500    299.56568   -1520.9827    558.24848    400.79799    578.16471    34340.171 
  710600    304.81159   -1524.4988    545.47012    408.38129   -40.836698    34340.171 
  710700    294.57517   -1479.2694    552.22713     413.7746    107.69724    34340.171 
  710800    301.00147   -1548.5636    499.77215    321.27607    8.9689058    34340.171 
  710900    297.03713   -1530.0584    548.23765    370.20227    26.629444    34340.171 
  711000    302.92242   -1546.9638     544.5279    376.37514    107.05242    34340.171 
  711100    297.06235   -1505.7487    557.95389    404.34298    679.38251    34340.171 
  711200    303.45753    -1515.983     524.6444    389.90809    498.07136    34340.171 
  711300    297.40627   -1530.0066    536.12708    359.82371    800.68523    34340.171 
  711400    301.77856   -1563.4435    550.42339    360.58444    417.56179    34340.171 
  711500    297.26553   -1530.9717    514.75818    336.84909    258.76441    34340.171 
  711600     299.6855   -1547.1396     551.6161    368.55405   -270.94209    34340.171 
  711700     300.5132   -1547.8648    574.01475    393.99497   -110.04217    34340.171 
  711800    297.09842   -1506.3548    547.69502    393.64218    112.97543    34340.171 
  711900    298.45956   -1514.1118    606.38371    450.76939     169.9842    34340.171 
  712000    290.53682   -1555.7763    515.55348    282.21273    229.28154    34340.171 
  712100    304.54261    -1539.398    555.24554     402.0332    182.94032    34340.171 
  712200    285.60146    -1584.917    518.92833    233.98263   -342.60399    34340.171 
  712300    297.14787   -1575.3131    547.24454    324.45852    230.53015    34340.171 
  712400    293.43002   -1571.5715    565.23167    329.26468    -146.6646    34340.171 
  712500    293.59697   -1548.8057    562.02347    349.58216   -264.00104    34340.171 
  712600    307.68434    -1526.244    529.08675     403.3286    -679.9218    34340.171 
  712700    301.50782   -1525.0026    539.87503    387.24469    -378.1075    34340.171 
  712800    306.72048    -1553.064    541.04741    384.08206   -65.270655    34340.171 
  712900    305.71216   -1580.6274    510.68096    321.56268   -375.88358    34340.171 
  713000    307.08569   -1549.3196    537.07833    385.51976    293.13927    34340.171 
  713100    296.69525   -1537.4899    556.79494    369.77192    1109.3872    34340.171 
  713200    283.86773   -1553.2875    560.00554    298.79791    437.68781    34340.171 
  713300    301.23579   -1536.2136    537.92282    372.84321    264.62257    34340.171 
  713400    304.85325   -1499.4406    499.76658    387.92557    140.67866    34340.171 
  713500    297.67945   -1506.0345    541.10767    390.01979   -137.47661    34340.171 
  713600    295.95827   -1519.8476    562.01573    389.28049   -90.546536    34340.171 
  713700    299.07596   -1439.4249    558.22673      480.105    204.83047    34340.171 
  713800    308.55428   -1477.3787    546.05798    473.12487   -114.88224    34340.171 
  713900    303.51596    -1476.844    569.03407    473.70274    496.85299    34340.171 
  714000    296.88059   -1487.3744     550.2736    414.20963    293.82597    34340.171 
  714100    302.76711   -1483.6183    540.70746    435.19334    324.41751    34340.171 
  714200    304.63507   -1502.0522      554.021    438.57533    78.669253    34340.171 
  714300    298.12708    -1557.801    546.44472    345.62787    466.83639    34340.171 
  714400     305.4858   -1549.7511    548.86111    389.58883    1256.2818    34340.171 
  714500    307.60803   -1549.8273    563.33693    413.64813    1351.7734    34340.171 
  714600    297.29645   -1568.1254    528.42071    313.49865    571.29057    34340.171 
  714700    295.41935   -1561.6889    527.99099    310.96148    281.78766    34340.171 
  714800    301.57726   -1542.9145     534.1338    363.90757   -11.960823    34340.171 
  714900    315.27556   -1540.8653    527.39231     421.5658   -229.09687    34340.171 
  715000    295.96336   -1547.0396    557.30705    357.40301   -55.415028    34340.171 
  715100    309.89506   -1533.4268    550.04774    427.16935    387.98597    34340.171 
  715200     294.6673   -1558.1814    551.83935    334.89419    352.87733    34340.171 
  715300     304.2159   -1546.9188    525.11426    362.89406    374.36347    34340.171 
  715400    298.28875   -1543.8696     541.0041    354.85453     147.6553    34340.171 
  715500    301.89078   -1541.8302    550.64998    382.93512   -132.93837    34340.171 
  715600    299.63036   -1538.3121     538.4952    364.00974   -342.21883    34340.171 
  715700    301.11426   -1531.1313    536.55842    376.00799    603.45434    34340.171 
  715800    304.67617    -1562.298    533.83274    358.32835    72.796687    34340.171 
  715900    294.17796   -1581.8195    534.40195    291.59141    40.564055    34340.171 
  716000    302.53435   -1562.5485    523.63812    338.13425    431.93227    34340.171 
  716100     292.4222   -1572.8282    508.07017    266.25921    73.916934    34340.171 
  716200    296.20049    -1569.879    522.28506     300.6209    85.483493    34340.171 
  716300     291.9985   -1569.8299    533.40034    292.65917     980.0229    34340.171 
  716400    300.27329   -1535.9255    541.82266    372.65018    371.00605    34340.171 
  716500    302.54569    -1538.494    551.69824    390.30051    419.36084    34340.171 
  716600    303.11804   -1565.9928    559.16871    372.87741    191.34154    34340.171 
  716700    298.84253   -1536.0626    553.73696    377.91499    282.42791    34340.171 
  716800    305.48487   -1547.7356    518.37616    361.11512    586.38546    34340.171 
  716900    300.77735   -1530.8976    559.81954    397.96926    178.62115    34340.171 
  717000    291.04901   -1524.8625    556.23888    356.14332    653.33015    34340.171 
  717100    301.35079   -1522.7501    525.52345    374.43085     757.0276    34340.171 
  717200    299.42366    -1559.443    532.32096    335.76369    426.54261    34340.171 
  717300    298.22171   -1493.2885    522.38603    386.51236    850.18692    34340.171 
  717400    295.26681   -1543.7023    515.32565    315.58834    629.06431    34340.171 
  717500    302.22442   -1557.1985    595.27797    413.71344    941.78826    34340.171 
  717600     299.2551    -1533.702    532.78524    361.20175     318.8961    34340.171 
  717700    308.42087   -1575.5877    557.01996    385.27059    507.57642    34340.171 
  717800    297.80704   -1608.0564    520.80633    268.27738    484.21853    34340.171 
  717900    293.17468   -1567.9054    536.46945    303.00632    411.71272    34340.171 
  718000    291.66604   -1557.1389    553.47202    323.90857    103.28464    34340.171 
  718100    306.49226   -1541.0996    513.44685    367.40708    275.03305    34340.171 
  718200    292.06497   -1552.9941    540.32142    316.71855   -197.52234    34340.171 
  718300    299.39451   -1565.0997    511.63193    309.28529   -82.309254    34340.171 
  718400    289.60225   -1549.8554    557.70839    326.03468   -565.86662    34340.171 
  718500    301.00097   -1497.1533    548.54541     421.4573   -805.01884    34340.171 
  718600    299.59229    -1526.504     543.5426    380.69196    -1411.388    34340.171 
  718700    308.28942   -1564.1959    528.02076    367.06492   -991.01671    34340.171 
  718800    292.56158   -1623.7219    531.45977     239.3895   -773.78995    34340.171 
  718900    310.51536   -1582.7454    531.99436    362.62078    294.26377    34340.171 
  719000    300.81428   -1566.7355    553.62063    356.10061    134.48465    34340.171 
  719100    310.69845    -1533.244    546.32425    427.28548    48.694065    34340.171 
  719200    295.26122   -1558.5285    543.86455    329.27563   -152.09476    34340.171 
  719300    304.69928   -1548.4003    517.21114    355.70961   -263.15545    34340.171 
  719400    295.66944   -1536.1933    559.38844    368.99283    35.642477    34340.171 
  719500    294.62294   -1526.0139    553.91346    368.93384    269.16236    34340.171 
  719600    309.54989   -1491.1227     553.2132    471.06782    497.63276    34340.171 
  719700    298.46331   -1499.0517    554.97813    414.44095    448.16459    34340.171 
  719800    295.06782   -1462.8447    554.25583    434.47045    209.01816    34340.171 
  719900    300.30261   -1508.6555     545.5598    403.79077    261.12636    34340.171 
  720000    314.58271   -1503.4744    538.66748     467.0782   -266.17604    34340.171 
  720100    297.87691   -1542.4553    542.96639    356.35657    157.23008    34340.171 
  720200    301.24607   -1547.3882    536.35245    360.14508    227.09732    34340.171 
  720300    294.31811   -1549.2267    548.94489    339.36504   -215.58211    34340.171 
  720400    296.89559   -1538.0714    522.70112    336.00848   -593.56831    34340.171 
  720500    300.74861   -1551.9413    569.61279    386.58804    -409.9594    34340.171 
  720600    299.48438   -1564.3472    561.57005    360.38501   -596.21654    34340.171 
  720700    290.77631   -1534.5415     550.7597    339.74383   -306.38261    34340.171 
  720800     297.3402   -1553.5587    536.79277    336.63658   -100.77673    34340.171 
  720900    302.60968   -1548.4809    544.80785    373.71449   -129.39773    34340.171 
  721000    291.49962   -1558.0503    529.47639    298.24405   -252.80914    34340.171 
  721100    297.63024   -1518.6366    557.58753     393.6736    78.868186    34340.171 
  721200     299.3913   -1589.2857    560.51127    333.96401   -471.66638    34340.171 
  721300    304.46096   -1602.7453    558.30701    341.37575    -162.9665    34340.171 
  721400    295.44412   -1522.5651    511.78223    333.98917   -376.54465    34340.171 
  721500    309.61494   -1567.3759    564.38529    406.28277   -86.850402    34340.171 
  721600    301.66656   -1572.5451    520.86229    321.41197   -417.53322    34340.171 
  721700    306.18495   -1569.7778    544.95589    368.83922   -448.59294    34340.171 
  721800    299.85025   -1603.5634    557.56467    318.82875    363.08655    34340.171 
  721900    303.91648   -1567.1844       552.43    368.58131   -125.15229    34340.171 
  722000    306.35843   -1562.5863    551.52229    383.38673    6.0202422    34340.171 
  722100     289.6293   -1567.6406    528.88487    279.54907     118.9011    34340.171 
  722200    297.93239   -1562.9744    509.57652    302.70002   -7.5982484    34340.171 
  722300    307.05708   -1570.9847    559.80602    386.45209    -378.6745    34340.171 
  722400    297.45716   -1555.8389    543.88612    341.98202   -513.52932    34340.171 
  722500    295.50737   -1571.5319    551.42389      324.952   -167.93859    34340.171 
  722600    285.24733   -1592.2112      531.873    238.02125   -481.80391    34340.171 
  722700    296.35987    -1605.782    550.63933    293.79765   -629.96579    34340.171 
  722800    294.94854   -1587.0385    514.92883    270.40668    -684.1548    34340.171 
  722900    298.65309   -1611.5911    518.42003    266.20735   -782.47998    34340.171 
  723000    288.61866   -1598.0722    541.16505    256.79751   -673.44405    34340.171 
  723100    304.87939   -1566.3455     538.8593    360.23236   -650.38879    34340.171 
  723200    300.57621    -1558.614    558.38228    367.90014    7.3053715    34340.171 
  723300    293.97255   -1554.7997    523.37788    306.65212   -259.31366    34340.171 
  723400    290.94974   -1568.0449    563.96795    320.23815   -232.69803    34340.171 
  723500    309.16026   -1553.3746    509.41732    363.24652    59.680705    34340.171 
  723600    289.35815   -1553.6595    536.22316    299.63423   -148.83388    34340.171 
  723700    307.69272   -1544.8603    541.56725    397.23097    176.60315    34340.171 
  723800    306.08353   -1517.5859    559.50927    435.12282    41.297187    34340.171 
  723900     306.6801   -1542.6394    542.79912    396.07453   -339.60525    34340.171 
  724000    311.36868    -1585.609    536.69351    368.34039   -87.032666    34340.171 
  724100    302.28025   -1543.7536    570.49295    402.62744   -868.41968    34340.171 
  724200    294.46239   -1538.1516    542.76948    344.92146   -516.71347    34340.171 
  724300    300.63225   -1528.8862    534.56448     374.0652   -638.91764    34340.171 
  724400    300.12141   -1561.1426    542.10703    347.02613   -265.68772    34340.171 
  724500    312.38767   -1534.5872    544.38184    431.68858   -205.70481    34340.171 
  724600    303.39268   -1549.5896    557.34879    388.71074   -74.876909    34340.171 
  724700    302.58845   -1552.7834    553.78982    378.29739   -30.929302    34340.171 
  724800    308.52308   -1518.7203    555.51363    441.09691     304.8814    34340.171 
  724900    297.15079   -1579.4008    541.03984    314.17942    416.67096    34340.171 
  725000    298.72704   -1560.2529    569.59334    369.05537    572.63786    34340.171 
  725100    308.74103   -1512.8784    552.49351    444.91073    660.42391    34340.171 
  725200    300.11235   -1487.0957    530.83221    409.75695    -263.4264    34340.171 
  725300     307.4438   -1537.2855    539.68343      401.789   -161.86072    34340.171 
  725400    295.57144   -1552.8672    553.11658    345.60102   -598.47609    34340.171 
  725500    290.13868   -1540.8371    538.74258    318.52884   -147.01623    34340.171 
  725600    296.34095   -1563.7598    549.77133    334.86568   -804.33916    34340.171 
  725700    308.46836   -1545.8282    556.06839    414.29472   -260.94706    34340.171 
  725800    305.07364   -1553.8715    524.32519    359.05644   -591.70512    34340.171 
  725900     315.8504   -1580.4635    555.26152    412.45332   -274.90427    34340.171 
  726000    303.37658   -1576.8129    519.96736    324.03267   -372.61871    34340.171 
  726100    306.94239   -1559.3012    549.67371     387.4812    -396.4933    34340.171 
  726200    301.12018    -1535.175    551.03806    386.47085    570.65496    34340.171 
  726300    295.92136   -1577.6198    539.87194    309.19652    166.25805    34340.171 
  726400    298.08604   -1568.3989    549.41747    337.81585     228.7565    34340.171 
  726500    297.14295   -1568.4918    513.30654    297.31946   -103.91888    34340.171 
  726600    310.67455   -1558.9445     545.6751    400.82696    292.42713    34340.171 
  726700    293.36246   -1552.0173    553.84673    337.12643   -85.575558    34340.171 
  726800    294.78106   -1553.6427    537.64968    325.76104    85.136331    34340.171 
  726900    306.00336   -1539.0727    552.23008    405.99194    225.01204    34340.171 
  727000     302.1591   -1521.8475    547.44896    400.93809    81.078496    34340.171 
  727100    294.47344   -1539.2175    530.58073    331.71714   -314.60135    34340.171 
  727200    309.31734   -1552.2943    547.01659    402.64108   -270.80834    34340.171 
  727300     293.4383   -1563.3138    549.46698    321.79536   -52.287631    34340.171 
  727400    299.70407   -1561.2091    602.11945    405.07249    379.14185    34340.171 
  727500    290.10423   -1576.1032    516.39822    260.76154   -433.63212    34340.171 
  727600    313.92247   -1591.0385    550.76585    388.60724    96.158797    34340.171 
  727700    299.53685   -1619.4834    517.03721    260.95483   -368.66021    34340.171 
  727800    301.87082   -1548.2156    555.37141    381.18027   -664.00832    34340.171 
  727900    309.37172   -1558.4837    566.39335      416.076    235.65557    34340.171 
  728000    301.69045   -1574.4252    544.36501    343.14332    307.11187    34340.171 
  728100     304.6212   -1560.2692    545.09083    371.36496    345.27607    34340.171 
  728200    288.55988   -1540.3722    537.87514    310.94009   -201.77452    34340.171 
  728300     312.1276    -1558.474    507.02006    369.25626   -401.70991    34340.171 
  728400    301.40452   -1512.0617    559.71926    419.55962   -729.73487    34340.171 
  728500    302.01047   -1534.3397    540.46289    380.78335   -375.61038    34340.171 
  728600    305.01555   -1485.5726    547.32395    450.08972   -332.12964    34340.171 
  728700       301.87   -1536.5179    539.60964    377.11247    -224.4886    34340.171 
  728800    303.27998   -1550.7724    527.72917    357.39535   -762.09048    34340.171 
  728900     298.6045   -1526.8273    569.39928    401.72914   -693.62136    34340.171 
  729000    301.31321   -1548.2283    524.37294    347.63103    79.051804    34340.171 
  729100    302.21414   -1537.0683    559.71429    398.23319    128.30442    34340.171 
  729200    298.72465   -1586.0526    544.03746    317.68893     71.33104    34340.171 
  729300    296.68178   -1565.2676    567.27367    352.41158    513.52534    34340.171 
  729400    298.90426   -1539.2399    529.84564     351.1274     100.6249    34340.171 
  729500     305.3012   -1541.2262    529.04672    377.45909    -37.68476    34340.171 
  729600    303.29035   -1549.5673    538.28171    369.20019    69.752449    34340.171 
  729700    308.59806   -1570.7003    543.78765     377.7322    280.75658    34340.171 
  729800    301.42293   -1582.0802     532.0763    321.98196   -401.65077    34340.171 
  729900     306.6798   -1565.6242    542.33058    372.61995   -327.82871    34340.171 
  730000    297.21786   -1549.7006    569.72686    372.87183    55.498717    34340.171 
  730100    287.50842   -1533.1559    554.13468    329.63003   -397.46551    34340.171 
  730200    307.87279   -1536.9407    547.67613    412.07901     -354.257    34340.171 
  730300    310.55749   -1551.4769    551.42956    413.51626   -559.53509    34340.171 
  730400    296.89238   -1588.4588    532.70646    295.61176   -743.26761    34340.171 
  730500    293.65289   -1568.7544    528.76391    296.62845   -646.14988    34340.171 
  730600    297.89789   -1562.7373    547.82009    341.02369   -1042.5687    34340.171 
  730700    298.00008   -1591.7299    548.60952    313.28571   -949.81468    34340.171 
  730800    300.14578   -1554.3703    510.95428    322.75658   -750.99325    34340.171 
  730900    303.14363     -1543.46    520.26026    356.61821   -794.33385    34340.171 
  731000    296.84776   -1534.6097    528.43194    344.98326   -876.39551    34340.171 
  731100    308.10686   -1581.2874    557.21428    378.33592   -133.33508    34340.171 
  731200    308.14962   -1534.5647    540.72904    408.76798    325.89898    34340.171 
  731300    288.62217   -1525.5067    534.34663    322.56053   -111.22308    34340.171 
  731400    302.98722   -1523.4973    566.21749     421.8262    112.96143    34340.171 
  731500     302.4256   -1517.2687    535.79823    395.07924    77.221905    34340.171 
  731600    293.50361   -1561.8072    543.89738    318.02966   -188.20214    34340.171 
  731700    309.21114    -1536.704      542.888    413.61936   -447.95896    34340.171 
  731800    304.12779   -1508.7979    556.15932    431.65892    23.450012    34340.171 
  731900     299.3669   -1536.2218     543.5632    369.96883    -289.3836    34340.171 
  732000    307.44079   -1516.0041    556.77796    440.15112    95.484545    34340.171 
  732100    304.68499   -1531.2144    534.77445    390.39379   -412.27571    34340.171 
  732200    296.90753   -1512.0041    540.19602    379.62504   -439.65003    34340.171 
  732300     304.1348   -1513.7265    553.44799    424.05092    101.65258    34340.171 
  732400     294.2494    -1557.009    551.81538    334.14051    464.39965    34340.171 
  732500    294.72216   -1527.7161    569.92319    383.69307    374.24597    34340.171 
  732600    304.05761   -1549.4556    551.80082    386.32332    450.19328    34340.171 
  732700    295.10991   -1518.1329    553.04442     378.1624     94.95815    34340.171 
  732800    291.89368   -1523.1346    553.62065     359.0976   -147.97638    34340.171 
  732900    291.55057   -1515.9649    544.42599    355.51094   -85.538145    34340.171 
  733000    299.43996   -1548.2642    582.34599     397.0418    188.71085    34340.171 
  733100     306.8401   -1565.2366    540.21447    371.62099    50.267141    34340.171 
  733200    293.43291   -1508.1099    576.60404    404.11186   -16.974152    34340.171 
  733300    302.13074   -1507.3784    556.61818    424.44739   -193.11194    34340.171 
  733400    295.48067   -1550.3158    540.90909    335.53177   -42.006199    34340.171 
  733500    307.72056   -1530.8525    543.29701    413.09526   -230.95013    34340.171 
  733600    295.26206   -1539.8622    563.93997    368.02119   -53.081937    34340.171 
  733700    301.82849   -1527.9151    549.21446     395.1312   -447.63744    34340.171 
  733800    307.23651   -1533.1123     541.4152    406.75033     332.9921    34340.171 
  733900    297.44467   -1563.7757    573.59424    363.69654    374.97081    34340.171 
  734000    300.18744   -1594.9975    538.96057    310.32533    64.570736    34340.171 
  734100    290.17582   -1606.5951    567.35359    281.55083    79.124066    34340.171 
  734200    302.48457    -1576.745    578.09143    378.16446    799.53475    34340.171 
  734300    302.14041   -1548.4942    560.41667    387.17405    550.92302    34340.171 
  734400    296.86369   -1557.7929    581.03298    374.47364    271.56471    34340.171 
  734500     307.7807   -1541.4287    563.05394    422.54971    399.57685    34340.171 
  734600    304.35708   -1532.3772    564.04523    417.00921    159.03795    34340.171 
  734700    291.89857   -1535.7563    538.37449    331.25203    -279.2734    34340.171 
  734800    307.56109   -1566.7035    560.84907    394.07043   -146.24449    34340.171 
  734900    301.63726    -1548.874    545.77111    369.85855   -540.87972    34340.171 
  735000    290.84985   -1540.1052    539.67634    323.43147   -514.45428    34340.171 
  735100    305.94453   -1562.1155    572.93161    403.38293   -381.51293    34340.171 
  735200    312.99939   -1551.2949    557.78244    431.16593    375.70614    34340.171 
  735300    299.27277   -1593.2837    554.88074    323.79594   -776.86303    34340.171 
  735400    300.00266   -1571.6224    573.53994    367.43876   -562.00758    34340.171 
  735500    308.45661   -1573.3402    544.15684    374.81763   -509.88804    34340.171 
  735600    306.10305   -1554.8403    543.13421    381.58225   -671.35571    34340.171 
  735700    304.53931   -1580.6843    547.36166    352.84801    312.47173    34340.171 
  735800    291.76675   -1571.7563    538.88708    295.16454    83.058578    34340.171 
  735900    307.63219    -1553.154    543.25871    390.35325    960.88054    34340.171 
  736000    306.01308   -1647.4742    541.67379    287.07841    532.25805    34340.171 
  736100    310.40913   -1617.0502    507.54779     303.3859    231.16807    34340.171 
  736200    303.46807   -1615.6356    537.05518    302.71429    425.78372    34340.171 
  736300    308.35449   -1601.4428    542.25389     344.3473    615.73547    34340.171 
  736400    299.99182    -1645.321    566.17547    286.32634    322.56538    34340.171 
  736500     298.1611   -1661.4041    546.53262     242.2675   -137.31301    34340.171 
  736600    297.23236   -1595.2747    543.18241    300.81935    626.37839    34340.171 
  736700    300.15293   -1587.2626    551.54292    330.48546    1005.1604    34340.171 
  736800    308.58436   -1606.6162    543.85202    341.81835    745.77977    34340.171 
  736900    299.46539   -1583.7827    590.97395    370.26696    582.63544    34340.171 
  737000    298.85811   -1600.0002    528.39844    288.70975   -68.208831    34340.171 
  737100    291.25873   -1607.0258     569.9555    288.65116    25.363238    34340.171 
  737200     297.4847   -1604.9626    571.33457    320.43221     518.0456    34340.171 
  737300    294.71799    -1624.658    535.32721    252.13622    623.75389    34340.171 
  737400    309.28061   -1591.1393    566.63252    383.24478   -94.168326    34340.171 
  737500    298.98072   -1622.8604    547.00786     285.0171   -36.386952    34340.171 
  737600    307.21288   -1640.2143    550.24969    308.37532    284.36295    34340.171 
  737700    292.64684   -1645.3326    569.98731    256.69441    114.92489    34340.171 
  737800    306.41197   -1618.8159    552.52232    328.40084    232.78785    34340.171 
  737900    299.71648   -1598.1034    547.27755    313.39277   -1.0196784    34340.171 
  738000    305.04393   -1599.9736    533.48204    321.97594   -550.83337    34340.171 
  738100     294.3782   -1577.8691    527.20186    289.25316   -194.18543    34340.171 
  738200     305.2949   -1562.0633    546.48971    374.03622   -184.26247    34340.171 
  738300    310.38169   -1581.4969    555.70697     386.9735   -314.21278    34340.171 
  738400     291.6158   -1540.1161    547.11651     334.3471    329.37167    34340.171 
  738500    308.60808   -1581.7926    525.93218    348.83005    182.75888    34340.171 
  738600    297.91446    -1577.651    563.91122    342.27659    -23.83755    34340.171 
  738700    290.87145   -1562.5313    587.31025    348.73766   -341.95245    34340.171 
  738800    293.10704   -1527.4123    578.77057    385.49272   -100.71248    34340.171 
  738900    306.38976   -1524.3961    558.56546    428.76273   -234.74387    34340.171 
  739000    298.99925   -1525.1892    530.40051    366.16522   -564.80407    34340.171 
  739100    290.52473   -1564.8577    598.11259     355.6354   -927.45712    34340.171 
  739200    298.41872   -1543.9536    532.35506    346.71305    -413.2491    34340.171 
  739300    312.05992   -1535.2513    584.58033    469.73124    -227.6337    34340.171 
  739400    302.54673    -1519.088    556.72789    414.74095   -172.40482    34340.171 
  739500    306.78004   -1529.8916    579.51658    445.99477   -91.220169    34340.171 
  739600    306.53038   -1534.3707    544.46742    405.33015   -363.06292    34340.171 
  739700    289.29541    -1584.337    552.59446    285.04257   -552.13461    34340.171 
  739800    286.94413   -1552.9063    584.16636    337.34275    -925.7934    34340.171 
  739900    298.28522   -1590.3804    553.43911    320.76264   -473.36286    34340.171 
  740000     295.8353   -1598.5729    528.88686    276.86663   -650.82854    34340.171 
  740100    314.74563   -1554.6459    551.00622    428.98705   -110.15168    34340.171 
  740200    299.36838   -1517.8357    586.84767    431.64609    179.34117    34340.171 
  740300    299.31603   -1528.3835    554.90834    388.92066    386.68718    34340.171 
  740400    293.11136   -1593.8239    573.45873    313.78894    84.511929    34340.171 
  740500    294.12646   -1542.5828    557.99541    354.18712   -218.52779    34340.171 
  740600    292.80529   -1565.6877    554.96635    322.03963   -410.46273    34340.171 
  740700    303.00513    -1569.304    551.38552    361.26899    234.08173    34340.171 
  740800    303.81059   -1553.8298    549.65366    378.67763     156.8376    34340.171 
  740900    297.80573   -1576.0749    520.37859    299.82513   -341.80865    34340.171 
  741000    300.68417   -1545.2211    532.77334    356.17551   -480.72093    34340.171 
  741100    295.39867   -1594.9972    519.89023    269.45829   -557.67701    34340.171 
  741200    303.25342   -1586.9108    533.67098    327.07782    52.207493    34340.171 
  741300    303.27118   -1612.8772    549.40522    316.92656   -391.12267    34340.171 
  741400    295.12637   -1588.1114    540.50888    295.72332   -850.09555    34340.171 
  741500    295.52889   -1539.2747    550.31341    356.19664   -227.20349    34340.171 
  741600    301.61445   -1572.2178    556.27567    356.91543    947.21371    34340.171 
  741700    300.83395   -1616.2604    554.16978    307.21435    499.05741    34340.171 
  741800    298.11603   -1594.3354    538.30238    300.90085   -71.639683    34340.171 
  741900    300.50225   -1599.1625    545.38898    314.02161    238.95425    34340.171 
  742000    294.88585   -1577.5654    562.13496    326.80061   -806.47797    34340.171 
  742100    299.39878   -1561.5282    527.94772    329.19204   -873.76122    34340.171 
  742200    302.99283   -1549.7266     551.0502    380.45517   -753.83015    34340.171 
  742300     298.7222   -1567.8256    540.95723    332.82454   -596.00834    34340.171 
  742400    303.19913   -1566.7853    551.59107    364.87629   -930.24399    34340.171 
  742500    308.44699   -1533.0449    541.58856    412.50083    -214.2163    34340.171 
  742600    298.62194   -1597.5631    536.94684    298.62028    -226.5405    34340.171 
  742700    303.26772   -1588.8106    557.00306    348.57524    563.51068    34340.171 
  742800    295.12828   -1650.9367    513.07092    205.46873    197.30419    34340.171 
  742900    301.43049   -1612.3543    527.28312    286.94909   -242.93677    34340.171 
  743000    299.39034   -1600.6901    549.12809    311.17212   -114.90136    34340.171 
  743100    298.91141   -1605.1582    529.10321    284.49919   -374.40585    34340.171 
  743200    306.19985   -1619.9493    557.31307    331.09269    9.4204826    34340.171 
  743300    306.84008   -1617.9298    548.57623    327.28952    640.66947    34340.171 
  743400    299.13855   -1604.5292    542.90882    299.96759    289.29419    34340.171 
  743500    311.45177   -1620.2085    524.94123    322.36686    -55.34886    34340.171 
  743600    289.06197   -1588.5653    550.90199     278.0592    -98.15659    34340.171 
  743700    305.28749   -1610.1479     541.9497    321.37799   -193.28493    34340.171 
  743800     305.9478   -1578.4675    546.19375    360.30791   -216.16543    34340.171 
  743900    301.52379   -1523.9323    541.46114    389.97379   -258.19696    34340.171 
  744000    310.46363   -1544.6518    548.41592    416.90055   -67.856253    34340.171 
  744100    296.06513   -1581.9654    558.26216    323.89548   -19.195584    34340.171 
  744200    302.72772   -1537.5487     561.9249    402.30108    331.25963    34340.171 
  744300    300.66741   -1558.0321    568.48323    378.99808    508.70256    34340.171 
  744400    297.55774   -1578.8555     545.2112    320.74838    885.81946    34340.171 
  744500    296.23698   -1590.9431    533.77687    291.21475    419.10809    34340.171 
  744600    293.25362   -1570.0138    573.29175    338.07953     451.7664    34340.171 
  744700    300.89489   -1569.8401    548.47215    348.21437    509.97032    34340.171 
  744800    306.78679    -1558.467    563.89524    401.82872    391.66243    34340.171 
  744900    298.32036   -1556.6908    547.57721    348.75025    53.417526    34340.171 
  745000    300.00959    -1559.704    550.83999    356.68874    123.17351    34340.171 
  745100    295.87644   -1541.5159    553.10003      358.324    272.16573    34340.171 
  745200    298.10327   -1554.4802    564.35755    366.75308    336.93856    34340.171 
  745300    294.98285   -1547.8507    571.21053    366.03234    337.30185    34340.171 
  745400    305.16503   -1547.2132    588.75612    430.56164    737.73962    34340.171 
  745500    294.29804   -1590.4084    563.11109    312.25824   -30.288175    34340.171 
  745600    296.22072   -1591.9546    541.90266    298.25498    658.56539    34340.171 
  745700    291.15543   -1547.3244    550.68283    328.60967    462.47365    34340.171 
  745800    303.34757   -1530.9857    577.92901    427.68951    439.29306    34340.171 
  745900     294.7388   -1544.1218    539.83527    337.27516    426.91253    34340.171 
  746000    298.32483   -1541.4822    549.73083    366.13281   -532.80055    34340.171 
  746100    303.78044    -1535.225    550.48274    397.97427   -959.61224    34340.171 
  746200    304.83194   -1536.0239    531.26498    382.74364   -467.94603    34340.171 
  746300    299.62586   -1591.5426    569.45161    341.71515   -580.93736    34340.171 
  746400    300.06415   -1581.4282    565.65985    350.03274   -71.998735    34340.171 
  746500      309.297   -1606.5518    532.68134    333.95575    337.61461    34340.171 
  746600    295.11617   -1543.5476    589.08607    388.81781   -95.995783    34340.171 
  746700    304.74367   -1550.9321    552.74995    388.91864     -138.457    34340.171 
  746800    302.74157   -1526.1344     568.3834    420.23684    151.77315    34340.171 
  746900    304.74647   -1493.8088    539.57847    432.88325   -137.73162    34340.171 
  747000    291.41598   -1492.4837    566.21984    400.17332    143.47436    34340.171 
  747100    308.38982   -1551.8562     531.5733    383.41406    846.24639    34340.171 
  747200    294.33329   -1536.3507    556.12727    359.49249    179.73764    34340.171 
  747300    299.10069   -1528.2157     580.2611    413.46114    164.91631    34340.171 
  747400    294.82463   -1506.4246    541.14491    376.67268    285.61728    34340.171 
  747500    299.43168   -1535.1828    572.95072    400.69018   -264.27679    34340.171 
  747600    300.50051   -1552.7058    542.39963    357.48108   -71.038397    34340.171 
  747700    297.84609   -1534.2056    578.81883    400.31835    29.767014    34340.171 
  747800    298.49123   -1553.0426    565.91046    371.50951   -310.79543    34340.171 
  747900    311.32415   -1536.6471    538.60583    419.01191   -837.87772    34340.171 
  748000    298.58181    -1540.339    547.59599    366.31093   -686.79511    34340.171 
  748100    295.51698   -1541.9103    561.41881    364.61222   -544.83541    34340.171 
  748200    291.49175   -1610.2351     548.0495    264.59656    314.27569    34340.171 
  748300    304.20564   -1599.3312    527.82332    313.14404    -233.0307    34340.171 
  748400    297.56135   -1650.2908    528.69238    232.81066    538.48046    34340.171 
  748500    293.64174   -1626.6299    543.32833     253.2666    808.47423    34340.171 
  748600    296.85755    -1613.378    567.26752    305.09511    684.43666    34340.171 
  748700    299.84935    -1603.844    543.00496    303.98433    653.29997    34340.171 
  748800    307.22954   -1586.7464    568.04592    379.71528    519.80569    34340.171 
  748900    309.77024   -1588.9061    527.28947    348.36367    190.74173    34340.171 
  749000    313.34639   -1560.4202    561.88583    427.72341   -251.80305    34340.171 
  749100     311.9473   -1607.5606    537.74615    350.07512    199.82167    34340.171 
  749200    294.87145   -1596.3279    546.58729    292.42488   -203.05117    34340.171 
  749300    302.06534   -1558.5376    550.37582    366.74808   -930.76484    34340.171 
  749400    303.59232   -1546.7172    552.62256    387.76564    -582.2498    34340.171 
  749500     306.6532   -1559.7653    552.85758    388.88472   -1059.1823    34340.171 
  749600    296.01599   -1540.7031    518.93559    325.60755   -160.08534    34340.171 
  749700    293.73399   -1576.9365    546.55039    306.60201   -289.58721    34340.171 
  749800     290.8903   -1622.1958    547.82548     249.6742    194.24399    34340.171 
  749900    308.59927   -1646.1304    537.95072    296.47063   -229.52733    34340.171 
  750000    301.60746   -1588.5697    553.83691    338.09299   -688.78436    34340.171 
  750100    293.90022   -1578.4683    554.03818    313.31462   -570.22364    34340.171 
  750200    287.80473   -1602.9186    554.99426    262.07554   -48.630648    34340.171 
  750300    293.28737   -1562.3975     544.2332     316.7909   -181.04419    34340.171 
  750400    301.55743   -1553.3442    551.13555    370.38942   -515.58625    34340.171 
  750500    299.95184   -1591.0326    541.58781    315.84503   -119.02276    34340.171 
  750600    302.81349   -1543.2202    537.02929    372.12432    104.64356    34340.171 
  750700    302.20378    -1601.595    553.35677     327.3018   -361.66301    34340.171 
  750800    299.96224   -1571.7688    593.44232     387.0107   -381.14549    34340.171 
  750900    294.20298   -1550.5527    555.57072    344.14078     -256.437    34340.171 
  751000    303.63791   -1563.8235    559.10003    377.34426    413.01988    34340.171 
  751100    295.53745   -1568.4011    548.00926    324.80509    659.00365    34340.171 
  751200    291.67914   -1548.3527    547.91764    327.20004   -420.03145    34340.171 
  751300    306.48335   -1568.8277    560.86937      387.061   -147.82349    34340.171 
  751400    291.84311    -1595.552    545.12339    277.95275    298.38752    34340.171 
  751500    300.14664   -1585.0569    540.97002    322.08968    322.59243    34340.171 
  751600     308.9663   -1557.7039    534.99897    383.61599    551.99028    34340.171 
  751700    306.73171   -1551.0707     545.4556    390.53473       150.92    34340.171 
  751800    303.06464   -1611.9319    552.64034    320.16687    911.24553    34340.171 
  751900    315.03218   -1582.5419     551.7315    403.12061    735.00961    34340.171 
  752000    301.15408   -1617.3647    535.72809     289.1255   -204.72622    34340.171 
  752100    296.50425   -1610.5414    568.67548    307.73158   -173.85876    34340.171 
  752200    290.10781   -1610.0577    535.81088    246.23599    326.93868    34340.171 
  752300    301.01304   -1595.6234     554.4942    328.99088    192.06069    34340.171 
  752400    292.34143   -1573.2981    568.80285    326.15437    489.76898    34340.171 
  752500    285.67658   -1596.1734    558.99875    263.13859    21.044231    34340.171 
  752600    297.02877   -1572.6927    563.92118    343.21348   -79.053675    34340.171 
  752700    302.88027    -1582.138    547.38633    343.86751   -368.40913    34340.171 
  752800    308.00921   -1582.2705    543.39882    363.09292   -341.56399    34340.171 
  752900    294.33171    -1626.841    546.48952    259.35732   -158.65942    34340.171 
  753000    311.67582   -1571.2335    511.03261      358.453    381.47746    34340.171 
  753100    303.27063   -1566.3585    547.51405    361.55159    168.99718    34340.171 
  753200    303.33881   -1565.6693    552.86076    367.89783   -347.82064    34340.171 
  753300     306.3482   -1594.3199    524.47521    324.55954    209.08176    34340.171 
  753400    299.67272     -1573.03    547.34463    338.33402   -255.77744    34340.171 
  753500    301.97008   -1575.3577    527.44803    326.56667   -75.287864    34340.171 
  753600    300.76491   -1590.6497    557.45438    335.79543    83.812567    34340.171 
  753700    295.82461   -1599.4153    548.77971    295.86835   -181.08084    34340.171 
  753800    294.11884   -1579.6377    550.31744    309.41953   -506.20953    34340.171 
  753900    307.38433   -1534.0398    555.93029    421.01086    196.94904    34340.171 
  754000    297.72136    -1581.308    531.82268    305.65207   -337.43957    34340.171 
  754100    304.82978    -1581.876    551.13685    356.75366   -302.15576    34340.171 
  754200    291.69944   -1575.6429    557.89148    309.97599    60.921457    34340.171 
  754300    304.99274   -1562.2151    580.01398    406.03338   -35.810274    34340.171 
  754400    307.31546   -1552.9802    555.08405    400.91071    164.84358    34340.171 
  754500    295.01348   -1554.7217    546.46646    334.55674   -87.550168    34340.171 
  754600    300.46526   -1539.2075      542.039    370.45825   -328.65084    34340.171 
  754700     288.3931    -1539.137    542.98572    316.52669    118.04873    34340.171 
  754800    303.60336   -1579.3915    552.06027     354.5792    580.37844    34340.171 
  754900    296.26907   -1563.7499    531.97504    316.75218     189.0834    34340.171 
  755000    301.28761   -1512.6425    542.75099     401.4784   -670.51193    34340.171 
  755100    302.24608   -1521.3908    548.43844    402.78018   -303.49754    34340.171 
  755200    299.81778   -1563.7625    531.11356     332.0307   -801.32628    34340.171 
  755300    307.47923   -1547.3327    543.37511    395.59468   -489.46328    34340.171 
  755400    303.00883   -1553.2848    521.11092    347.03043   -272.32017    34340.171 
  755500    306.33218   -1537.2645    530.71757    387.78436    324.82204    34340.171 
  755600    307.27481   -1577.1835    541.69301    363.13136     237.6871    34340.171 
  755700    299.79919   -1569.1809    537.23213    332.64622    410.85629    34340.171 
  755800    306.61357   -1589.3912    550.81488    357.03568    167.00522    34340.171 
  755900    293.80965    -1566.957    540.06536    310.44085   -58.979308    34340.171 
  756000    310.17882   -1543.8829    566.82643    434.78352    725.36593    34340.171 
  756100    306.89294   -1567.1854    522.42616    352.12438   -164.69642    34340.171 
  756200    297.20831   -1525.3361    547.82502    375.29103   -212.59427    34340.171 
  756300    298.12151   -1600.7947    551.87805    308.04213    -20.18368    34340.171 
  756400     307.1318   -1564.3843    551.92432     385.5109    596.05127    34340.171 
  756500    299.07175   -1603.3815    546.82769    304.73021   -33.480572    34340.171 
  756600    297.62889    -1597.599    570.34732    327.46486    558.50651    34340.171 
  756700    307.51225   -1564.9876    535.66356    370.37852    602.15247    34340.171 
  756800    295.00573   -1573.0639    538.61262    308.32538    451.18533    34340.171 
  756900    305.81403   -1568.0338    523.96346    347.90243    109.96777    34340.171 
  757000    304.41754    -1602.678    561.05868    343.99703    337.48989    34340.171 
  757100    301.79276   -1575.0115    575.28338    373.94103    229.66558    34340.171 
  757200     305.7862   -1534.6503    534.60268     391.7985    187.06294    34340.171 
  757300     290.3786    -1586.076    558.31076    293.95012   -89.707994    34340.171 
  757400      305.823   -1590.3657    535.06072    336.70869   -365.94483    34340.171 
  757500    287.58464   -1567.0892    537.11343    279.02234   -723.86891    34340.171 
  757600    303.30467    -1543.873    562.25165    398.92955   -642.12672    34340.171 
  757700    316.44951   -1534.4705     552.2448    458.15656   -399.59576    34340.171 
  757800    292.21655   -1569.9509    557.28839    317.41861   -762.19124    34340.171 
  757900    297.82066    -1539.625    563.80123    379.76563    -532.0366    34340.171 
  758000    299.48752   -1552.2274    549.08398    360.03303   -909.75167    34340.171 
  758100    302.07171   -1572.7749     529.5213    331.68528   -70.602028    34340.171 
  758200    297.50681   -1604.8118    539.53958    288.88861   -154.70785    34340.171 
  758300    299.37334   -1584.0491    546.43293    325.04054   -294.62698    34340.171 
  758400    307.72074   -1570.9643    534.25886    363.94611    335.83565    34340.171 
  758500    298.38959   -1539.8266    532.64583    350.99823   -156.44651    34340.171 
  758600    302.10217   -1532.8507    542.82698     385.0538   -110.50867    34340.171 
  758700    296.40853   -1504.0674    570.72611    415.82049   -361.54918    34340.171 
  758800    299.10268   -1504.2765    570.04853    427.19673    135.76974    34340.171 
  758900    309.16161   -1561.2705    555.81922    401.75862   -108.14506    34340.171 
  759000    290.24607   -1556.3287    544.17974    308.96317   -290.90645    34340.171 
  759100    297.28726   -1538.2515    544.10725    359.01729     283.2946    34340.171 
  759200    293.60755   -1543.9226    565.59996    358.08998    177.58488    34340.171 
  759300    296.38025   -1569.8976    542.87658    322.01202     263.6873    34340.171 
  759400    297.78595   -1579.8149    556.53767    332.15418   -127.13962    34340.171 
  759500    292.67402   -1576.1711    554.28342    310.27578    211.59271    34340.171 
  759600    294.98382   -1536.1974    538.46632    344.94591    421.53278    34340.171 
  759700    296.38404   -1567.3121    528.57321    310.31148    890.66211    34340.171 
  759800    306.17959   -1560.7094    536.08775    369.01505    777.15036    34340.171 
  759900     306.5354   -1528.0044    563.19286     430.4447   -45.812502    34340.171 
  760000    301.27546     -1471.13    567.30645    467.49098    312.64226    34340.171 
  760100    287.73238   -1509.4439    563.91266    364.13941   -103.93407    34340.171 
  760200    291.04767   -1537.1927    578.25848    365.82655   -465.57148    34340.171 
  760300    291.87258   -1531.9027    534.45658    331.06939   -988.12856    34340.171 
  760400    310.50728   -1520.7951    523.03654    415.57643   -1320.3886    34340.171 
  760500    285.61347   -1517.2784    538.17087    320.91845   -1068.6004    34340.171 
  760600    300.94086   -1522.6282    542.51303     389.6764   -710.99996    34340.171 
  760700    293.89332   -1509.8797    526.79867    354.63232   -993.79538    34340.171 
  760800     301.7569   -1537.6461    576.02462    411.88445   -900.95906    34340.171 
  760900    294.15107   -1518.5396    523.23568    343.58262   -571.43091    34340.171 
  761000    302.18628   -1541.1201    558.68389    393.02414     -789.626    34340.171 
  761100    293.26578   -1488.2898    541.90897    388.47613   -283.79659    34340.171 
  761200    309.74188   -1523.3103    524.43813    410.97896    65.703571    34340.171 
  761300    301.74131   -1515.6066    574.23013    432.05851    646.94634    34340.171 
  761400    293.97579   -1534.1148    488.65786    292.63182    95.672391    34340.171 
  761500    298.06872   -1528.3293    567.24682    395.63598   -251.62498    34340.171 
  761600    290.51655   -1522.3651    534.31779    334.29601    93.933424    34340.171 
  761700    301.32808   -1546.1359    552.65713    378.07534    209.04911    34340.171 
  761800    309.48744   -1576.5579     547.5967    379.73187    839.22126    34340.171 
  761900    307.72671   -1545.1487    523.45145    378.98146    407.32225    34340.171 
  762000    309.31329   -1548.9294    570.68504    429.65602    381.08017    34340.171 
  762100    295.26464   -1550.7016    559.08991    352.34342      200.181    34340.171 
  762200    293.51984   -1539.5764    560.28279    356.71968   -943.19302    34340.171 
  762300    296.88375   -1551.0594    546.32068    346.58614   -1092.4939    34340.171 
  762400    307.79751   -1538.3721    545.43312    408.06205   -684.35566    34340.171 
  762500     295.0521   -1543.7054     529.5429    328.82528    313.86381    34340.171 
  762600    297.10867   -1552.6433    551.62484    351.33016    310.19124    34340.171 
  762700    303.56024   -1538.6112    531.45115    374.55412    641.14545    34340.171 
  762800    306.22021   -1555.3768     521.8118    360.25659    267.24262    34340.171 
  762900    311.36677   -1552.7585    536.63429    401.12296    199.80475    34340.171 
  763000    300.40426   -1552.5504    517.05357    331.85235   -393.25981    34340.171 
  763100    292.85575   -1550.5688    516.07666    298.49844   -692.55653    34340.171 
  763200    294.50555   -1564.3266    556.28688    332.46025   -1143.7836    34340.171 
  763300    301.59733   -1536.9823    513.00769     348.8051   -127.38163    34340.171 
  763400    297.66387    -1563.769    530.13681    321.24357   -459.43062    34340.171 
  763500    294.76536   -1568.5118    551.74774    324.91851    326.41033    34340.171 
  763600    306.54112   -1606.6049    533.85191    322.52932    404.95993    34340.171 
  763700    309.08432   -1538.8149    535.01079    403.05405    1292.2649    34340.171 
  763800    305.24613   -1580.6342     560.6853    369.43896    164.52522    34340.171 
  763900    299.77641    -1574.172    512.60324    302.92259    722.78952    34340.171 
  764000    305.34678   -1588.7696     576.5374    377.61379     323.0633    34340.171 
  764100    299.31301   -1559.6649    548.21615    350.93332    135.20485    34340.171 
  764200    294.27493   -1537.7785    550.94281    352.61461    181.49217    34340.171 
  764300    308.95588     -1578.38    553.88093     381.7745    477.32651    34340.171 
  764400    303.08036   -1577.8015    540.52255    342.25095    158.89817    34340.171 
  764500     310.4955   -1571.0992    549.19276    391.37503   -310.41405    34340.171 
  764600    285.37243   -1552.2035     551.5032    298.22846    -422.6456    34340.171 
  764700    304.64006   -1543.1581    544.86853    388.33964    249.80054    34340.171 
  764800    297.32165   -1527.7047    528.26259    353.87598    237.04272    34340.171 
  764900    304.80349   -1547.4701    547.40221    387.30522    25.076055    34340.171 
  765000    301.00785   -1525.9902    549.26473    393.37103    212.81405    34340.171 
  765100    300.63823   -1548.0897    554.29882    374.62328    202.59021    34340.171 
  765200    311.63475   -1499.7979    560.10116    478.77024    25.629386    34340.171 
  765300    310.77222   -1594.8049    544.84395    364.58005    608.14973    34340.171 
  765400    295.85629   -1577.2199    562.40893    331.83716    323.83987    34340.171 
  765500    307.79909   -1596.0367    530.72303     335.6945    565.06419    34340.171 
  765600    291.78786   -1589.9406    540.10016    278.28948    353.04357    34340.171 
  765700    313.41479    -1593.729    545.02478    377.86489    577.71694    34340.171 
  765800    292.20907    -1573.966     552.6094    308.69047    516.58559    34340.171 
  765900    304.80088    -1555.383     551.1292    383.10748    197.84625    34340.171 
  766000    288.28946   -1581.1804    554.52021    285.54611    300.49737    34340.171 
  766100    298.20281   -1633.2078     511.4358    235.55681    829.30058    34340.171 
  766200    309.57359    -1584.794     527.0035    351.29467    417.62674    34340.171 
  766300    293.28112   -1571.1186    535.03273    298.84093    360.39243    34340.171 
  766400    299.05717   -1577.2546    575.00048    358.96356    818.90592    34340.171 
  766500    287.39193   -1565.1752     550.5024    293.44822    252.23939    34340.171 
  766600     307.7856   -1549.3311     556.3766    407.99231   -352.95625    34340.171 
  766700    291.73436   -1602.0173    547.49012    273.35919    69.374133    34340.171 
  766800    295.61162   -1574.4667    563.75073    334.81853   -255.92273    34340.171 
  766900    298.78722   -1566.0804     547.3124    341.22091   -611.73731    34340.171 
  767000    302.19504   -1586.4476    540.78693    329.83956    -404.5966    34340.171 
  767100    300.86859   -1565.0043    526.36283    330.82112   -812.60581    34340.171 
  767200    296.88435   -1579.1735    514.01253    286.16664   -486.50089    34340.171 
  767300    303.95627   -1509.6967    580.06986       453.89   -513.20811    34340.171 
  767400    296.76282   -1534.6716      518.959    335.06184   -100.44212    34340.171 
  767500    298.50578   -1538.5071    526.37619    346.57695    26.147467    34340.171 
  767600    293.28539   -1585.2275    537.85518    287.57385   -310.29801    34340.171 
  767700     300.7414   -1570.3632    512.12533    310.64579   -428.39021    34340.171 
  767800    311.25228   -1556.8233    547.95389    407.85671   -599.83241    34340.171 
  767900    299.28484   -1574.5266    532.53182    320.25917   -369.87522    34340.171 
  768000    291.50577   -1600.1101    547.51743    274.25326     81.66987    34340.171 
  768100    295.29228   -1598.7052      538.652    284.02774    463.60248    34340.171 
  768200    308.98059   -1623.7967    542.85383    325.44313    471.73411    34340.171 
  768300    294.02655   -1615.4935    526.24967    249.07591    50.438252    34340.171 
  768400    297.88398   -1551.9531    572.02149    375.94603   -532.24261    34340.171 
  768500    303.27048   -1595.0245    514.05129     299.4221   -84.874256    34340.171 
  768600    299.65492   -1562.1803    561.02303    362.78108   -127.42039    34340.171 
  768700    305.47493   -1591.1709    547.59926    346.85771   -542.39409    34340.171 
  768800    295.90494   -1541.3227    535.56067    341.10764   -1133.8316    34340.171 
  768900    291.79654   -1543.1091    546.31078    331.37108   -891.69661    34340.171 
  769000     303.3164   -1538.5002    548.77172    390.87587   -751.19039    34340.171 
  769100    303.10963   -1520.4915    544.46561    403.63731   -471.48095    34340.171 
  769200    309.54445   -1510.6222    521.62526     419.9556    -228.5958    34340.171 
  769300    306.21302   -1502.8878    558.00451    448.90555   -917.51669    34340.171 
  769400    304.59941   -1520.7931    550.58553    416.23661   -439.58074    34340.171 
  769500    293.17352   -1548.6267     545.9543    331.76462   -916.34106    34340.171 
  769600    297.89882   -1497.7841    554.61771    412.77873   -93.677487    34340.171 
  769700    303.14027   -1548.3907    518.75396    350.16587   -131.13992    34340.171 
  769800    303.46483   -1510.1869     542.8074    413.90039    675.78952    34340.171 
  769900    295.05673   -1549.2707    536.98013    330.71824    923.20548    34340.171 
  770000    298.41601   -1549.3069    538.08652    347.07887     746.8926    34340.171 
  770100    307.33927   -1561.4707     553.8709    391.31542    1366.2194    34340.171 
  770200    304.23301   -1562.9453    544.31795    366.14912    904.53578    34340.171 
  770300    309.14276   -1567.5051    525.94287    365.56195    1032.3407    34340.171 
  770400    299.21647    -1566.263    547.46957    343.14931    622.86797    34340.171 
  770500    295.17005   -1583.2546    555.84361    316.11359    506.46768    34340.171 
  770600    296.49025    -1554.273     521.1528     316.4136    199.14235    34340.171 
  770700    305.28464   -1544.2242    537.18533    382.52433    136.06261    34340.171 
  770800    308.52379    -1540.933    558.21713    421.59097    -898.1606    34340.171 
  770900    304.77358   -1547.5815    549.48911    389.14459    -1218.481    34340.171 
  771000    288.98669   -1556.7569    527.01206    285.63502   -1139.5536    34340.171 
  771100    303.48251   -1557.3135    525.50259    349.54951   -734.01627    34340.171 
  771200    301.61429   -1528.4743    556.42977    400.81229   -694.19298    34340.171 
  771300    301.87881   -1517.1953    538.63315    395.49865   -119.75403    34340.171 
  771400    296.33896   -1556.2746    518.11104    310.68159   -212.82324    34340.171 
  771500    307.84528   -1560.0708    545.39651    386.54408   -526.62938    34340.171 
  771600    308.14435   -1581.6383    540.25623    361.19763   -305.76733    34340.171 
  771700    291.47474   -1575.9466     527.4081    278.16613    179.05957    34340.171 
  771800    295.43088   -1534.9319    533.27545    343.05534   -156.17358    34340.171 
  771900    314.77949   -1581.5756    562.79967    414.00489    38.799747    34340.171 
  772000    281.69747   -1552.8507     539.7051    269.05593   -929.86186    34340.171 
  772100    303.46537   -1560.0859     540.4336    361.63007   -859.47745    34340.171 
  772200    300.78357   -1572.3743    529.86145    326.56282   -497.57733    34340.171 
  772300    303.59361   -1624.9124    552.21768    309.17144    6.6606775    34340.171 
  772400    292.08415   -1546.9248    570.63941    353.19315   -290.13364    34340.171 
  772500    297.95068   -1517.6938    543.49936    381.98672   -304.11402    34340.171 
  772600      299.136      -1584.8    541.25966    318.03611   -336.52742    34340.171 
  772700    303.13646   -1562.7309    552.12248    369.17688   -225.19266    34340.171 
  772800    304.00458   -1524.2384    537.41538     396.9137    109.06241    34340.171 
  772900    302.52043   -1553.5117    530.87194    354.34153    503.20542    34340.171 
  773000    284.54255   -1528.1757    544.27536    311.25112     252.4736    34340.171 
  773100    289.28228    -1497.956    504.13869    322.90797   -380.34959    34340.171 
  773200    302.77022   -1516.7175    539.23272    400.63347    180.61439    34340.171 
  773300    302.58271   -1517.0768    545.21845    405.40646     342.7232    34340.171 
  773400    307.04838   -1528.4334    540.85276    410.01048    447.58467    34340.171 
  773500     292.7288   -1551.9404    536.35176     316.8241    676.66186    34340.171 
  773600    300.63512    -1537.928    531.31017    361.78217    116.89142    34340.171 
  773700    309.50244   -1554.0067    531.15961    385.91424    480.88949    34340.171 
  773800    301.82386   -1585.0461     532.4086    321.17322    691.21674    34340.171 
  773900    306.18152    -1542.503    526.28801     377.4305    532.66957    34340.171 
  774000    293.92682   -1545.2188    516.03231    308.67928     71.12089    34340.171 
  774100    312.77088   -1526.2384    575.20914    472.60903   -498.62151    34340.171 
  774200    307.53695   -1583.6295    522.83222    339.01774    68.211433    34340.171 
  774300    301.56567   -1560.6264    514.99905    327.00816   -90.888897    34340.171 
  774400    293.35128   -1589.9573    520.88512    266.17396    -204.1529    34340.171 
  774500    291.17238   -1584.2304    514.96115    256.05918   -1003.1307    34340.171 
  774600    294.08585   -1595.2145    534.92091    278.29608   -1426.9057    34340.171 
  774700    296.55253    -1609.174    518.27561    258.91887   -845.31587    34340.171 
  774800    292.46087   -1609.8951    531.13975    252.43788    4.1152917    34340.171 
  774900    288.79574    -1583.627    552.89448    283.77817   -21.554942    34340.171 
  775000    302.66958   -1573.0704    549.98068     354.5705   -476.97609    34340.171 
  775100    299.42252   -1557.6701    524.63603    329.84651    18.804181    34340.171 
  775200    295.07356   -1506.4899    570.41555     407.0111   -626.53679    34340.171 
  775300    295.00716    -1556.958    533.68409    319.50925   -906.79948    34340.171 
  775400    300.34863   -1568.8709    526.69423    324.91931   -642.80059    34340.171 
  775500    305.01743    -1550.422    533.45398    371.37891   -651.56451    34340.171 
  775600    289.07899   -1549.8871    530.92834    296.84119   -1052.5555    34340.171 
  775700    301.72143    -1536.758    540.10302    376.68951   -730.45933    34340.171 
  775800    306.52294    -1546.715    527.09902    375.58353    73.917401    34340.171 
  775900     296.8532    -1562.219    536.49359    325.46043   -275.40186    34340.171 
  776000    306.33224   -1513.5446    538.26666     419.0536   -540.44357    34340.171 
  776100    296.77227   -1525.2731    487.38624    312.93058   -685.26901    34340.171 
  776200    308.82424   -1538.3462    526.29481    393.62294   -488.20232    34340.171 
  776300    293.87226   -1550.2012    550.13303    337.54928    195.01143    34340.171 
  776400    306.27575   -1566.5134    557.94533    385.50632   -88.875155    34340.171 
  776500    290.29036   -1562.8079     553.3905    311.89631   -111.27942    34340.171 
  776600    298.96118   -1571.3817    550.56397      339.963   -369.72847    34340.171 
  776700    298.64744   -1606.5875    547.60041    300.36558    63.565219    34340.171 
  776800     299.8626   -1572.4671    532.96673    325.38329    922.26155    34340.171 
  776900     300.7997   -1609.8034    536.69549    296.04115     617.3961    34340.171 
  777000    299.58665   -1612.4477    528.77738    279.95733    482.03202    34340.171 
  777100    307.29079    -1581.851    551.66846    368.51201   -61.312556    34340.171 
  777200    296.72939   -1547.5775    585.26534     388.3101     -482.066    34340.171 
  777300    299.28438   -1594.0652    528.91544    297.10201   -168.89541    34340.171 
  777400    293.02615   -1606.9463     541.1986    268.01853    191.22657    34340.171 
  777500    300.51514   -1538.9183    553.86362    382.79917    838.11764    34340.171 
  777600    296.59818   -1565.8279    494.09506    278.29217   -430.62945    34340.171 
  777700    301.56214    -1533.357    544.73746    383.99993   -485.12495    34340.171 
  777800    302.14639   -1528.1472    546.98949    394.12112   -268.23152    34340.171 
  777900     295.6968   -1529.2491    574.50557    391.17874    118.06587    34340.171 
  778000    295.68795   -1558.3129    526.12315     313.6922   -7.0312885    34340.171 
  778100    293.10676   -1541.0399    566.99666    360.08988    611.33979    34340.171 
  778200    310.51412    -1562.392    538.54379    389.51795    938.27886    34340.171 
  778300    293.19013   -1565.6725    523.72675    292.56687   -59.326746    34340.171 
  778400    299.21413   -1574.5852    549.37008    336.71692    -228.6294    34340.171 
  778500    288.48773   -1533.8412    558.18332    337.45081   -297.24834    34340.171 
  778600    293.77326   -1548.1963    535.36817    324.33876   -478.43761    34340.171 
  778700    295.58269   -1557.4528    555.58682    343.53682   -543.64174    34340.171 
  778800    312.08938   -1524.9945    510.07261    405.61435    -155.5659    34340.171 
  778900    295.34478   -1554.4377    549.80409    339.68633    99.536375    34340.171 
  779000    296.26425    -1556.657    534.81289    326.66093     353.1479    34340.171 
  779100    299.02772   -1553.9174    516.84051    324.00672    101.20049    34340.171 
  779200    306.93907   -1564.6661    569.52556    401.95311   -486.86889    34340.171 
  779300    286.28139   -1557.6296    539.63136    285.06788   -169.19787    34340.171 
  779400    286.54227   -1533.1839    543.02295     314.0926   -250.45691    34340.171 
  779500    296.44549   -1557.7833    539.51571    331.06244   -849.50836    34340.171 
  779600    300.28004    -1555.554    532.97192    344.20169   -1102.1536    34340.171 
  779700    297.40999   -1559.0084    504.30491    299.01669    171.88124    34340.171 
  779800    301.20984   -1578.5896    528.71217    321.13854    679.24878    34340.171 
  779900    296.63481   -1562.0725    558.57462    346.69392    609.53436    34340.171 
  780000    292.17653   -1556.2931     535.9745    309.58048    793.81118    34340.171 
  780100     292.5036    -1560.316    546.81597    317.88773   -26.921072    34340.171 
  780200    295.39354   -1589.6092    559.88539    314.81806    -208.3029    34340.171 
  780300    299.29777   -1555.0102    534.63149    341.93402   -620.67058    34340.171 
  780400    308.91729    -1560.405    534.71059    380.40345   -57.522505    34340.171 
  780500    299.19539   -1537.6787    586.80767    410.97574   -588.76434    34340.171 
  780600    288.67745   -1527.5342    514.17477    300.61283   -519.93045    34340.171 
  780700    306.17429   -1497.0964    567.76089    464.27703    371.20163    34340.171 
  780800    299.71259   -1577.3118    560.43571    347.32483    452.39716    34340.171 
  780900     317.9814   -1586.4407     530.8658    391.78007    287.82498    34340.171 
  781000    298.73426   -1571.9805    587.15778    374.92511    1329.7559    34340.171 
  781100    301.55381    -1562.146    558.40546    368.84097    366.87481    34340.171 
  781200    307.02931   -1590.1826    556.78127    364.10302    760.16768    34340.171 
  781300    299.18736   -1576.0747    528.46407    314.19953    259.97998    34340.171 
  781400    302.06171   -1576.4661    546.99355    345.42081   -831.84594    34340.171 
  781500    299.44449   -1542.3658     522.9553    343.57005   -1293.9655    34340.171 
  781600    301.51694   -1583.4015    547.97106    336.98324   -135.14216    34340.171 
  781700    305.73688   -1608.0564     558.5508      342.116   -291.75368    34340.171 
  781800    294.12385   -1570.2179    508.14557    276.69026   -206.40934    34340.171 
  781900    300.86206   -1533.2967    544.02059    380.15682    693.78633    34340.171 
  782000     293.1245   -1584.4205    551.33653    301.12997    623.60521    34340.171 
  782100    311.47117    -1575.889    567.26674    409.10014    269.78912    34340.171 
  782200    293.95057   -1566.3891    531.63629    303.22113    685.36989    34340.171 
  782300    296.01902   -1550.1646    547.46444    344.68871    157.04014    34340.171 
  782400    299.28328   -1536.2416    526.23072    352.23588     102.3753    34340.171 
  782500     300.3274   -1552.4284    536.82501    351.39592   -360.86356    34340.171 
  782600    306.83688   -1585.1328    555.33427       366.83   -831.01955    34340.171 
  782700     305.3003    -1567.626    524.27518    346.28357    -724.6724    34340.171 
  782800    297.83391   -1571.8602    545.30129    329.09075   -466.58158    34340.171 
  782900    302.75355   -1571.2736    544.29446    351.06325   -456.77694    34340.171 
  783000    304.76252    -1542.657    573.04067    417.57033    323.33683    34340.171 
  783100    299.91068   -1539.3679    508.57242    334.30706   -926.68583    34340.171 
  783200    303.86332   -1542.5904    535.39136    375.89476   -720.73162    34340.171 
  783300     311.3618   -1561.5351    508.39362    364.08305   -135.01895    34340.171 
  783400    296.32305   -1532.6105    519.87803    336.04025   -343.88001    34340.171 
  783500    296.10496   -1524.7203    540.08586     363.1456    222.46154    34340.171 
  783600    296.75409     -1537.18    535.63348    349.18813   -98.581466    34340.171 
  783700    303.33704   -1549.7768    553.78852    384.71003     203.7558    34340.171 
  783800    292.05778   -1574.2314    551.89003    307.01716   -108.57107    34340.171 
  783900     301.5285   -1551.9202    521.94963    342.49573    65.857915    34340.171 
  784000    304.85044   -1583.0578    531.51529    336.04428    397.93544    34340.171 
  784100    292.41277   -1522.2201    525.37803    334.13222    332.11019    34340.171 
  784200    307.13007    -1523.275     541.1846    415.87264   -231.95661    34340.171 
  784300    297.44746   -1512.4423    558.56384    400.01228   -247.34495    34340.171 
  784400    293.74991   -1510.6742    532.92885    359.31527   -486.02927    34340.171 
  784500     295.3952   -1495.2952    547.11042     396.3646    226.00679    34340.171 
  784600    304.76105    -1525.353    531.30624    393.13313   -241.44431    34340.171 
  784700    300.94048   -1532.3303     529.8639    367.32344   -190.74477    34340.171 
  784800    306.82977   -1545.6094    515.48655    366.47325   -617.72421    34340.171 
  784900    298.81722   -1507.0022     530.2413    383.36454     -354.697    34340.171 
  785000    304.66923   -1561.1836    522.68794    348.26631   -623.06687    34340.171 
  785100    294.27404   -1579.5669    520.28593    280.16531   -658.83049    34340.171 
  785200    293.81366   -1552.7279    500.94355     285.5664   -464.21836    34340.171 
  785300    297.04787   -1530.4192    521.54435    343.19698   -379.81462    34340.171 
  785400    309.84019   -1544.2842    514.52446    380.53892   -469.69168    34340.171 
  785500    300.66761   -1527.7022    510.58411    351.42975    164.64597    34340.171 
  785600    304.37726   -1540.4824    532.91465     377.8653   -16.610246    34340.171 
  785700    289.90699   -1518.0976    546.13495    347.60616    154.81877    34340.171 
  785800    310.70806   -1518.6386    528.64842    424.25873    166.28028    34340.171 
  785900    300.68161   -1536.7212    524.55235    356.44265    458.94755    34340.171 
  786000    306.92678   -1496.4172    557.07932    457.69983    174.05731    34340.171 
  786100    303.08945   -1454.6966    552.66269    477.53739   -4.9344147    34340.171 
  786200    305.55006   -1535.1596    517.53697    373.14863    567.41183    34340.171 
  786300     292.3066    -1553.348    542.10854    319.25155    195.30067    34340.171 
  786400    305.28118   -1540.7787    521.42023    370.18896    604.20152    34340.171 
  786500    304.17215   -1554.3559    515.36822    345.51176    79.472402    34340.171 
  786600    300.86874   -1560.1825     526.9566    336.23741    156.90813    34340.171 
  786700    300.23197   -1529.2075    503.52626    340.88364    821.41077    34340.171 
  786800    293.61588   -1549.6081    537.48531    324.32774    383.56038    34340.171 
  786900    308.11166   -1539.9986    510.51775    372.95008    779.19195    34340.171 
  787000    298.27383   -1505.3194    528.19485    380.52758   -15.285956    34340.171 
  787100    311.86897   -1539.5521    549.65961    429.64058    363.55433    34340.171 
  787200    295.59404   -1534.2669    531.88931     343.0769   -300.06562    34340.171 
  787300     295.7428   -1538.1123    518.83966    326.85901    55.685517    34340.171 
  787400    292.45948   -1559.3315    544.30091    316.15639    1009.3556    34340.171 
  787500    305.86375   -1509.1581    520.97034     404.0113    676.06201    34340.171 
  787600    301.96511   -1506.8899    554.92139    422.48519    68.509929    34340.171 
  787700    291.53013   -1528.8805    525.92693    324.00318    135.28345    34340.171 
  787800    283.60439   -1516.3532    549.34774    323.87575   -943.09224    34340.171 
  787900    303.15615   -1493.4591    528.91652    415.33233   -107.25433    34340.171 
  788000    298.62248   -1490.9488    530.82353    399.11371    200.55423    34340.171 
  788100    309.63709   -1467.1874    552.65999    494.84681    685.90599    34340.171 
  788200    298.03659   -1504.2785    518.48776    370.78145    421.53964    34340.171 
  788300    312.66258     -1501.67    545.94127     467.4166   -23.748585    34340.171 
  788400    297.37974   -1534.7496    525.13122     343.9641    217.63577    34340.171 
  788500    305.29566   -1537.9956    526.95616    378.57388    -15.74478    34340.171 
  788600    295.63653   -1582.8179    522.60964    285.43958    147.66523    34340.171 
  788700    295.46451   -1560.1067    546.70638    331.46452    57.817821    34340.171 
  788800    298.29429   -1547.8869    533.41297    343.27129   -398.74011    34340.171 
  788900    301.23727    -1538.874    542.55749    374.82427   -301.04076    34340.171 
  789000    299.15878   -1558.7031    527.17168    330.14867   -417.24396    34340.171 
  789100    299.08973   -1502.7454    548.01344    406.63384   -132.78628    34340.171 
  789200     291.8719   -1544.7324    532.54046    316.32054    -346.8276    34340.171 
  789300    306.73945    -1517.462    520.27448     398.9975   -686.69482    34340.171 
  789400    297.26928   -1542.4766      534.767    345.37001   -529.88707    34340.171 
  789500    308.36417   -1518.4877     525.7279    410.82045   -222.89887    34340.171 
  789600    302.42351   -1575.1789    523.06408    324.42534   -292.49134    34340.171 
  789700    294.39544   -1580.1674    517.17942    277.01083   -904.25538    34340.171 
  789800     289.6619    -1549.031    545.70198    315.12421   -572.03672    34340.171 
  789900    304.44169   -1564.2467    513.11091    334.59055   -720.92373    34340.171 
  790000    293.78026   -1571.5073    517.37564    283.06708   -86.695161    34340.171 
  790100    310.40998   -1530.1436    527.52828    410.27684    418.97532    34340.171 
  790200    299.16243   -1533.0133    496.52878    325.21214   -103.77246    34340.171 
  790300    301.52317   -1574.5315    558.39117    356.30177    561.30953    34340.171 
  790400    294.61121   -1583.6765    551.97863    309.28306    283.55446    34340.171 
  790500    293.37808    -1540.785    515.55208    310.13525    182.58195    34340.171 
  790600    299.43754   -1518.1208     526.0179    370.84609    -480.0073    34340.171 
  790700    299.53649   -1558.0751    500.43163    305.75581   -248.39817    34340.171 
  790800    300.21121   -1544.1347    536.70236    359.03811   -112.75515    34340.171 
  790900    309.99646   -1571.7813    534.68238    373.91098    363.70812    34340.171 
  791000    298.36907   -1545.6224    523.98646    336.44963    616.63892    34340.171 
  791100    297.20011   -1574.0708    535.52573    314.21976   -136.02328    34340.171 
  791200    292.57556   -1552.3786    536.18144    315.51814   -372.30286    34340.171 
  791300    297.46269   -1602.9893    502.79682    253.76758   -117.72292    34340.171 
  791400    311.19508   -1604.7617    520.78491    332.48892   -341.11388    34340.171 
  791500    298.46579   -1573.7065    502.24397    287.06329    372.27884    34340.171 
  791600    306.39907   -1537.4283    524.87139    382.07883    251.94149    34340.171 
  791700     289.1894   -1589.7393    508.54698    235.11016    784.82293    34340.171 
  791800    290.85328   -1558.1537    530.92201    296.64428    424.97061    34340.171 
  791900    302.05837   -1533.1167    518.95905    360.72054   -128.06187    34340.171 
  792000    300.38367   -1552.9554    530.87715     345.1772    197.79042    34340.171 
  792100    302.96985   -1539.3725    524.33525    363.98965   -446.50045    34340.171 
  792200    288.31088   -1534.9259    542.64007    320.01789   -888.87249    34340.171 
  792300    298.67621    -1496.905    515.76596    378.34457    73.008618    34340.171 
  792400    299.52296   -1565.7507    525.19974    322.78679    -475.4468    34340.171 
  792500    295.69421   -1525.6184    501.68344    321.97541    33.301984    34340.171 
  792600    300.54141   -1490.2947    531.70975    409.38848    603.10232    34340.171 
  792700     302.3666   -1496.2414    555.45419    435.49388    679.11542    34340.171 
  792800    303.12004   -1506.1676    561.21305    434.75603    890.08116    34340.171 
  792900    291.34825   -1543.2175    533.81522    316.72668    904.38342    34340.171 
  793000    300.29383   -1506.2601    546.54431    407.13069     807.5369    34340.171 
  793100    301.63094   -1527.0529    531.30091    377.18067    897.50615    34340.171 
  793200      300.524   -1521.9199    512.46964    358.44395     925.8014    34340.171 
  793300    308.91299   -1552.0178    550.86202    404.92257    212.39177    34340.171 
  793400    292.49214   -1527.1991    516.38706    320.52352    536.63833    34340.171 
  793500    293.16642   -1530.5845    530.90416     334.7244    414.57828    34340.171 
  793600    287.75693   -1561.6116    561.42788    309.59863    149.84808    34340.171 
  793700    302.15388   -1559.3667    563.10813    379.05428    634.44372    34340.171 
  793800    292.38694   -1557.1142    536.94328    310.68579    112.08797    34340.171 
  793900    295.50395   -1509.6952    548.21838     383.5676    328.22579    34340.171 
  794000    295.11754    -1499.425    522.73654     366.5972   -83.026073    34340.171 
  794100    317.18671    -1517.578    548.28172    474.44147   -487.86509    34340.171 
  794200    302.63444   -1560.9683    526.95556    343.48746     61.34078    34340.171 
  794300    300.51406   -1549.8207    522.82451    340.85279   -370.07447    34340.171 
  794400    295.96115    -1549.741    529.01915    326.40358   -704.88499    34340.171 
  794500    308.08756    -1525.823    528.39648    404.89473    59.114431    34340.171 
  794600    308.98972   -1555.0044    521.73022    373.15336     31.89193    34340.171 
  794700    303.53695   -1532.7385     531.4613    380.33104    10.220061    34340.171 
  794800    299.86956   -1528.4309    531.05165    367.53615   -86.531038    34340.171 
  794900    291.02339   -1527.6297    549.07451    346.09509    367.51393    34340.171 
  795000    297.52274   -1558.8879    500.46065    295.80605    424.73026    34340.171 
  795100    299.85841   -1557.2457    543.20604    350.82494    312.43164    34340.171 
  795200     296.5504   -1565.4925    527.87437    312.18937    217.40565    34340.171 
  795300    301.70275   -1532.7536    515.98602    356.49194    171.15499    34340.171 
  795400    296.27245   -1557.0318    562.48975    354.00042    114.16607    34340.171 
  795500    295.77051   -1526.6585    548.84945    368.44864   -78.234818    34340.171 
  795600    316.68175   -1529.7967    526.48642     438.1291   -285.54201    34340.171 
  795700    293.80674   -1548.1723    502.79511    291.94205   -315.20855    34340.171 
  795800    295.86352   -1548.3937    550.80199     349.0894   -797.52289    34340.171 
  795900    303.12074   -1527.4685    538.12291    390.36818   -874.15897    34340.171 
  796000    300.08617    -1536.339    520.85623    350.41847   -532.97059    34340.171 
  796100    292.80559   -1534.2141    542.24093    340.78909   -994.41461    34340.171 
  796200    283.99581   -1543.3106    505.80924    255.16154    -875.3589    34340.171 
  796300    296.03179   -1547.5274    524.81611    324.73568   -443.38729    34340.171 
  796400    300.64668   -1539.0783     542.2621    371.63639    579.61424    34340.171 
  796500    299.35836   -1537.4839     529.5059    354.61058    684.34211    34340.171 
  796600    298.20892   -1528.6795    524.63647    353.31357   -220.58418    34340.171 
  796700     298.5676   -1526.5476    537.37962    369.82123     315.6191    34340.171 
  796800    297.94618   -1533.4129    526.24725    348.99502    484.57018    34340.171 
  796900    301.76313   -1551.9711     499.9476    321.51078    373.58821    34340.171 
  797000    295.70731   -1535.5072    554.67295    365.13586    444.16075    34340.171 
  797100    290.73359   -1579.8875    554.32319    297.76685    626.45953    34340.171 
  797200    303.19578   -1531.1492    529.97994      378.886    218.67005    34340.171 
  797300    307.32478   -1508.0059     578.0331    468.87648   -126.47322    34340.171 
  797400    303.92202   -1502.9642    529.33555    409.73231    308.62137    34340.171 
  797500    287.83227   -1545.8319    547.60656    311.89997   -148.98763    34340.171 
  797600    302.51397    -1530.244    544.96901    391.67689     265.5093    34340.171 
  797700    302.56477   -1531.7448    554.55875    399.99714    335.51461    34340.171 
  797800    310.19317   -1520.0773    542.76648     434.5945    232.20817    34340.171 
  797900    307.09625   -1549.2516     536.0421    384.59953     96.04057    34340.171 
  798000    301.41952   -1498.4236    565.33424    438.88099   -118.16853    34340.171 
  798100    300.13844   -1549.5631    531.01848     347.5946   -150.30114    34340.171 
  798200    295.99734   -1508.3033    577.37068    416.35759    203.55437    34340.171 
  798300    298.10946   -1537.9152    530.33965    349.32837    545.24589    34340.171 
  798400    301.13508   -1534.9343    538.13465    373.87598    528.98829    34340.171 
  798500    310.95607   -1500.7674    551.22306    465.83343    873.58993    34340.171 
  798600    300.02044   -1511.1479    543.66535    398.11959    744.46965    34340.171 
  798700    289.97431   -1513.2963    525.04491    331.62375    518.25895    34340.171 
  798800    295.32914   -1511.2753      546.573    379.54645    157.11348    34340.171 
  798900    301.73833   -1558.2882    534.39406    349.52733    599.98576    34340.171 
  799000    294.96371   -1508.4955    517.40698    351.49693    258.08858    34340.171 
  799100    290.79449   -1558.8214    553.88715    318.67415    91.558795    34340.171 
  799200    292.83814   -1574.7074    531.19549    289.39854    447.78133    34340.171 
  799300    307.02765   -1535.2522    505.02871    367.27336    101.99502    34340.171 
  799400    289.79674     -1552.68    561.71605    328.10299   -71.995972    34340.171 
  799500    293.04118   -1541.6998    504.99109    297.12591   -72.601673    34340.171 
  799600    298.16553   -1546.1705    570.15877    381.14742    547.94132    34340.171 
  799700    291.22875   -1576.4373    535.52728    284.67505     82.77673    34340.171 
  799800    295.19571   -1561.9078    529.91828    311.65187    314.52241    34340.171 
  799900    301.27491   -1512.7147    531.89501    390.49236    643.01689    34340.171 
  800000    309.57004   -1535.1512    545.45827    419.37608   -115.96283    34340.171 
  800100    305.84935   -1546.2809    523.06042    368.91311   -345.37631    34340.171 
  800200    295.56168   -1542.4418    531.62655    334.49196    -96.46663    34340.171 
  800300     298.3741   -1510.6037    558.14834    405.65313   -108.07031    34340.171 
  800400    302.91303    -1519.675    550.23255    409.32584    402.05452    34340.171 
  800500    298.66042   -1579.0334    512.95744    293.33573    19.000811    34340.171 
  800600     311.3962   -1578.4065    547.53142    386.50607    443.01861    34340.171 
  800700    295.59377   -1604.5895      524.937    265.80078    201.94328    34340.171 
  800800    298.77497   -1605.9573    513.17407    267.14984    1019.0229    34340.171 
  800900    298.71386   -1598.3152    516.97445     278.3142    452.46916    34340.171 
  801000    294.63634   -1578.0042    513.61646    276.70758    71.282218    34340.171 
  801100    304.50901   -1579.4296    511.64767    318.25081    677.09467    34340.171 
  801200    292.82335   -1582.4835    529.19362    279.55331    9.2944863    34340.171 
  801300    295.21716   -1559.5217    513.57568      297.793    561.53075    34340.171 
  801400    289.36821   -1590.1275    538.71354    265.70248    -568.9595    34340.171 
  801500    306.46834   -1560.5101    521.07896    355.51986     28.29427    34340.171 
  801600    302.65223   -1534.4283    539.27655    382.42949    235.97596    34340.171 
  801700    312.78831   -1523.0746    527.13627    427.77924    83.666043    34340.171 
  801800    302.10642   -1556.7462    514.43995    332.79062    -277.8737    34340.171 
  801900    306.85905   -1516.5632    558.03667    438.20286   -453.66656    34340.171 
  802000    298.89392   -1553.5234     517.2358    324.18695   -378.72596    34340.171 
  802100    301.22438   -1540.9624    550.05979    380.17947   -156.64701    34340.171 
  802200     301.0126   -1538.1857    506.42046     338.3529   -409.20855    34340.171 
  802300    304.17151   -1548.6874    533.34297    369.15206   -238.84083    34340.171 
  802400    289.06485   -1526.2084    560.08977    349.61696    -201.4801    34340.171 
  802500     305.2688   -1524.1147    519.26906     384.6454    142.29781    34340.171 
  802600    302.63469   -1517.4646    517.23234    377.26918     163.1356    34340.171 
  802700    292.53465   -1553.5342    568.97617    346.97112      530.527    34340.171 
  802800    310.17858   -1539.9515    539.56788    411.45526    970.72154    34340.171 
  802900    301.85324   -1556.0868    535.07294    352.93063    372.57844    34340.171 
  803000     300.3161   -1562.9992    536.86359    340.81224    515.60887    34340.171 
  803100    296.30948   -1584.9877    529.15718    292.88044    45.847878    34340.171 
  803200    298.91516   -1580.5807    529.41672    309.40724    451.63763    34340.171 
  803300    300.11254   -1588.6699    555.93415    333.28561    1161.1866    34340.171 
  803400    300.22604   -1576.0715    507.57135    298.03779    101.02017    34340.171 
  803500    298.16663   -1559.7478    514.35832    311.77468   -209.66596    34340.171 
  803600    298.73524   -1580.7819    546.02697    324.99734    320.63263    34340.171 
  803700    295.62126   -1566.5129    497.76603    276.83153    114.31567    34340.171 
  803800    301.87222   -1580.9577    538.48589    331.55906   -50.609484    34340.171 
  803900    299.64928   -1585.0131    515.74028    294.63984    29.961409    34340.171 
  804000    303.08035   -1563.5474    519.81919    335.80173     33.01768    34340.171 
  804100    302.06724   -1558.3051    509.54353    326.15696    300.08559    34340.171 
  804200    302.85329   -1577.6469    515.68296    316.53247    200.59068    34340.171 
  804300    289.52401     -1540.17    530.55573    308.21124    485.32103    34340.171 
  804400    299.87016   -1559.1004    530.56305    336.38071    187.91156    34340.171 
  804500     301.2006   -1595.6738    532.51175    307.81187    385.91949    34340.171 
  804600    301.15562   -1551.7727    527.63195    346.62831    365.04559    34340.171 
  804700    305.82231   -1546.4081    513.60244    359.20475   -279.65302    34340.171 
  804800     300.6763   -1552.0028    544.28058    360.86515   -748.21894    34340.171 
  804900    304.60797    -1567.951    526.65848    345.19069    61.886073    34340.171 
  805000    295.38072   -1525.2289    552.25306    371.50769    282.35302    34340.171 
  805100    290.40423   -1546.3402    527.41739    302.90922    279.49148    34340.171 
  805200    283.89232   -1538.8686    535.32612    288.64936   -3.2009869    34340.171 
  805300    291.51193   -1553.3383    545.62518    319.16083    286.23854    34340.171 
  805400    308.40161   -1552.9173    542.10317     392.9365     146.3389    34340.171 
  805500    302.12737   -1534.8794    563.68088     403.9937    457.68219    34340.171 
  805600    304.70445   -1532.9436    525.19162    379.17033    259.88016    34340.171 
  805700    305.50685   -1559.9147    516.66683    347.32675     1195.997    34340.171 
  805800    301.87367   -1557.2126    552.75804    369.58287    56.371812    34340.171 
  805900    298.66803   -1531.8296    511.59952    339.21627    9.3858569    34340.171 
  806000    305.41008   -1549.0209    539.05782    380.17108   -543.78706    34340.171 
  806100     293.5979   -1540.2522    550.04397    346.16044   -263.39962    34340.171 
  806200    301.78941   -1524.7272     530.4305    379.35723    62.359396    34340.171 
  806300    301.54912   -1507.8785    540.04695    404.72869    139.77623    34340.171 
  806400    297.81144   -1510.5776    566.04943    411.01919   -253.63821    34340.171 
  806500     302.0308   -1527.9935    527.06206    373.82124    5.9571994    34340.171 
  806600    303.21717   -1519.4842    544.25555    404.92399    62.386778    34340.171 
  806700     295.4387   -1502.0861    552.76848    395.42981   -190.78606    34340.171 
  806800    302.29858   -1527.0802    535.35427    384.24557   -73.908735    34340.171 
  806900    308.10352   -1565.2178    569.52672    406.70276    163.28312    34340.171 
  807000    300.79254   -1546.3387    534.58988    357.36772    -438.9007    34340.171 
  807100    300.43922   -1529.2425    552.67392    390.93966   -467.63813    34340.171 
  807200     301.8021   -1545.1946    523.53992    352.05707   -1280.2318    34340.171 
  807300    290.79007   -1530.5595    539.03039    332.05914   -609.45024    34340.171 
  807400    293.66306    -1542.492    571.29797    365.47119   -10.862263    34340.171 
  807500     295.9276    -1510.972    545.90323    381.90394   -2.3938187    34340.171 
  807600    306.18542   -1548.1533    551.61759    397.12757    86.508127    34340.171 
  807700    305.57537   -1565.8942     573.5942    398.58653    73.043723    34340.171 
  807800    297.15634   -1574.5608    531.78225    309.78712   -383.13426    34340.171 
  807900    300.42477   -1575.4304    512.98661    304.99876   -516.32839    34340.171 
  808000    312.64342    -1538.017    505.13597    390.17709   -987.37796    34340.171 
  808100    305.69588   -1527.4593    526.84806    390.82377   -677.33882    34340.171 
  808200    289.49022   -1546.8875    546.86435    317.64863   -241.55517    34340.171 
  808300     315.5294   -1515.9654    564.68105    484.90983    132.49958    34340.171 
  808400    296.25264   -1509.9286    543.77117    382.29482   -311.37416    34340.171 
  808500     309.1773   -1513.9421    571.60902     464.9483   -451.40222    34340.171 
  808600    299.58592   -1543.5479    534.14941    354.22586   -388.27872    34340.171 
  808700    308.08822   -1535.0765    541.69292    408.94066   -613.44507    34340.171 
  808800    297.45604    -1570.707    565.38567    348.60839    -638.4757    34340.171 
  808900     290.4616   -1539.5789    536.74515    319.25942   -353.35286    34340.171 
  809000    304.15715   -1539.2577    517.25822    362.43163   -609.64906    34340.171 
  809100    287.99762   -1582.4341    541.83982    270.28359    -850.9536    34340.171 
  809200    298.51815   -1582.1222    549.88431    326.52625   -66.333657    34340.171 
  809300    305.85285   -1549.6203    541.63989    384.16914   -383.59657    34340.171 
  809400    292.45324   -1519.1331    536.60675    348.63217    114.70774    34340.171 
  809500     297.6835    -1549.585    533.85717    339.23731   -129.98688    34340.171 
  809600    300.48004   -1607.2809    553.19966    313.61283   -459.49396    34340.171 
  809700    302.00762   -1594.4714    491.58112     271.7569   -596.06623    34340.171 
  809800    300.14759   -1591.1607    543.24621     318.2664   -561.69141    34340.171 
  809900    309.22574   -1542.2582    534.59182     399.8355   -141.20956    34340.171 
  810000    304.45042   -1567.8023    528.65711    346.62087   -594.95503    34340.171 
  810100    294.12826   -1566.3429    516.94598    289.38575   -652.47988    34340.171 
  810200    292.76119   -1567.6329    531.34026     296.2676   -252.04157    34340.171 
  810300    302.60843   -1566.2825    554.35714    365.45653   -55.407664    34340.171 
  810400    314.67203   -1577.4235    525.80779      380.676     49.54256    34340.171 
  810500    306.06423   -1549.3071    535.20716     379.0117    277.49198    34340.171 
  810600    297.69376   -1524.7525    536.98333    367.24256    4.5826255    34340.171 
  810700     293.7819    -1543.951    548.75617    342.01133    -128.6571    34340.171 
  810800     300.6468   -1551.7973    555.40967    372.06545   -461.26147    34340.171 
  810900    303.02204    -1543.449    531.63666    367.45216   -661.61308    34340.171 
  811000    293.21556   -1557.8448    573.22472    350.00825   -209.67472    34340.171 
  811100    299.54651   -1617.2333    527.54473     273.7564   -86.799985    34340.171 
  811200    297.65634   -1581.0281    535.02313    308.83642    473.08275    34340.171 
  811300    304.96601   -1573.7004    535.12844     349.5409   -356.24551    34340.171 
  811400    295.70192   -1498.0115    554.82997    402.76399    201.98664    34340.171 
  811500    304.90486   -1533.3634     574.8316    429.30268   -340.88796    34340.171 
  811600    296.12363   -1586.0233    538.57424    300.41594   -636.10008    34340.171 
  811700    294.16189   -1543.8701    537.15095     332.2166   -766.45749    34340.171 
  811800    294.37131   -1530.4049    538.64426    348.12834   -1119.2792    34340.171 
  811900    302.02253   -1551.1679    541.54797    365.09512   -573.03688    34340.171 
  812000     296.5181   -1557.1343    544.16456    336.69073   -296.41026    34340.171 
  812100    295.48665   -1555.5226    536.11898    325.56205   -44.595785    34340.171 
  812200     307.3032   -1587.3812    541.17369     352.5435     590.3757    34340.171 
  812300    303.63146   -1554.1244    534.34166    362.25566    21.171467    34340.171 
  812400    303.17382   -1584.7664    539.52819    334.71709     108.9344    34340.171 
  812500    312.39916   -1562.3959    565.53382    425.08425    232.92425    34340.171 
  812600    291.64484   -1570.5195    559.45466    316.41413    296.44443    34340.171 
  812700    300.75192   -1529.4203    556.13806    395.64933   -36.781608    34340.171 
  812800    294.07765   -1537.3427    522.84832    324.05802   -790.79608    34340.171 
  812900    298.97245   -1501.7745    570.18259    429.24013   -315.29905    34340.171 
  813000    299.08353   -1507.1294     568.7711    422.97934   -403.95292    34340.171 
  813100    292.42189   -1505.7875      539.648    364.87636    254.14308    34340.171 
  813200    296.03847   -1530.2852    554.65631    371.84845   -214.09914    34340.171 
  813300    306.23184   -1530.6081    547.42028    410.68673   -469.61547    34340.171 
  813400     289.8044   -1521.7398     559.7733    357.13531   -198.02253    34340.171 
  813500    305.33221    -1580.109    560.58578    370.25651    16.720137    34340.171 
  813600    298.22888   -1580.3246    532.30891    309.43176     321.2081    34340.171 
  813700    298.40879   -1582.9704    555.23243    330.52842     654.5036    34340.171 
  813800    293.09989   -1566.1689    562.94267    330.87568    439.78005    34340.171 
  813900    311.83487   -1555.4724    545.30017    409.20556    648.91314    34340.171 
  814000    304.53502   -1538.8861     549.6218    396.88684    460.85043    34340.171 
  814100    288.47461   -1514.2986    559.89643     358.6468    -23.26236    34340.171 
  814200    300.72049   -1493.7303     550.8279    425.88612    179.99663    34340.171 
  814300    291.37324   -1550.5674    565.32303    340.99834     88.73578    34340.171 
  814400    308.36165   -1548.3701    546.32917    401.52781    568.66408    34340.171 
  814500    299.08115   -1585.3817    542.88935    318.83442   -151.13865    34340.171 
  814600    300.97133   -1593.6596    550.57674     326.8474    -104.4423    34340.171 
  814700    297.08866   -1583.8762     522.8044    291.18573   -313.93735    34340.171 
  814800    302.43272   -1578.0745    532.57893    331.08658   -163.51345    34340.171 
  814900    306.63565   -1556.1528    534.77985    374.33958   -79.802674    34340.171 
  815000    303.66448   -1542.5083    516.32782    356.00826    -670.0723    34340.171 
  815100    295.04126   -1541.0262    522.35903    324.27125   -657.02983    34340.171 
  815200    300.20912   -1557.8279    547.51426    356.14736   -849.03403    34340.171 
  815300    297.47138   -1586.4106    510.75784    278.34681   -518.53652    34340.171 
  815400    303.74805   -1581.7063    557.90566    358.76838   -12.643734    34340.171 
  815500    305.03086   -1568.2337    615.29262    435.46696   -14.845695    34340.171 
  815600    298.15809   -1580.0786    544.16425    321.21085   -64.832991    34340.171 
  815700    298.34013   -1555.6655     577.0283     379.3167    556.44783    34340.171 
  815800    297.71376   -1556.5907    552.12422    350.63631    369.79435    34340.171 
  815900    301.71114   -1594.8416    552.23501    330.69114     558.2463    34340.171 
  816000    300.80849   -1597.9069    545.21943    316.50167    229.72303    34340.171 
  816100    296.80737   -1577.0591    554.70047    328.61855    635.38793    34340.171 
  816200    312.81466   -1599.0302    530.66761    355.47492    681.16854    34340.171 
  816300    319.50446   -1594.0181    545.84927    406.11864    916.06532    34340.171 
  816400    317.44215   -1565.5758     549.5304    428.85508    860.46438    34340.171 
  816500    291.65091   -1620.8445    537.40472    244.06673   -21.606184    34340.171 
  816600    297.06121   -1610.4299     559.1225    300.82519   -500.72177    34340.171 
  816700     293.9547   -1649.1148     522.4649    211.34287   -126.61836    34340.171 
  816800    301.17649   -1637.2695    540.92599    274.52059    197.01419    34340.171 
  816900    301.44761    -1630.792    523.88847    265.19461   -279.96143    34340.171 
  817000    312.84641   -1623.1204    529.89871     330.7604    119.97297    34340.171 
  817100    286.93331   -1665.2151    545.05253    185.87088   -299.47515    34340.171 
  817200    309.93587   -1577.2179    533.49506     367.0113    -307.3352    34340.171 
  817300    301.31377   -1579.3203     548.4618    340.63049    -58.60908    34340.171 
  817400    304.00202   -1549.0586    544.72386    379.39029   -389.18577    34340.171 
  817500    294.05478   -1560.9499    550.74866    328.24698     -1106.22    34340.171 
  817600    299.90138   -1544.2009    526.54484    347.40411   -775.96949    34340.171 
  817700    312.11509   -1559.0524    543.17352    404.77444   -368.44601    34340.171 
  817800    306.32724   -1577.6786    547.87673    364.50687    187.65506    34340.171 
  817900    306.33174   -1545.9497    542.11712    390.49667    324.28931    34340.171 
  818000    305.32359   -1601.6717    553.97179    342.04058    861.55664    34340.171 
  818100    299.62195   -1590.7243    536.63306    309.69712    816.59915    34340.171 
  818200    300.39985   -1583.5508    542.52835    326.30659    805.75465    34340.171 
  818300    308.99157   -1562.9977    558.96762    402.40595    516.54104    34340.171 
  818400    299.30235   -1544.7113    553.64405    371.26636    387.90411    34340.171 
  818500    291.97624   -1528.4843    565.90935    366.41244   -370.36153    34340.171 
  818600    299.99375   -1537.5664    552.40718    380.32143   -530.71479    34340.171 
  818700    302.61155   -1539.4979    527.08148    364.97962   -1101.8898    34340.171 
  818800    297.35206   -1555.2445    533.22379    331.43574   -868.55056    34340.171 
  818900    297.58139   -1578.3157    540.94904    317.13365   -442.09635    34340.171 
  819000    304.95127   -1579.7522    579.37612    387.66971   -80.684445    34340.171 
  819100    298.58184    -1576.705    554.43139    336.78042    186.43696    34340.171 
  819200    298.16424   -1592.7774    552.86689    317.24277    771.00925    34340.171 
  819300    309.17508   -1597.2806    532.02159    342.01225    586.16347    34340.171 
  819400    290.67594   -1568.2778    533.60517     288.3962    730.04376    34340.171 
  819500    309.41146   -1588.4387    541.62042    361.52895    542.41469    34340.171 
  819600    312.38359   -1579.0921    535.17523    377.95859    43.046659    34340.171 
  819700     301.2471   -1564.6067    538.79739    345.37618   -103.64474    34340.171 
  819800    313.28968   -1550.0664    549.08563    425.01894   -492.05685    34340.171 
  819900    293.00916   -1544.9549    515.19248    303.92648   -539.13593    34340.171 
  820000    297.00805   -1538.6695    533.70179    346.92288   -86.911327    34340.171 
  820100    301.21237    -1579.328    539.45355    331.15297   -543.08176    34340.171 
  820200    293.95126   -1596.7674    526.03138    267.24101    -962.6889    34340.171 
  820300    303.86583    -1606.839    536.78217     313.0483   -161.64701    34340.171 
  820400    306.88238   -1584.9491    538.87217     350.7587    173.46844    34340.171 
  820500     300.6484   -1598.2583    553.33543     323.5375   -139.26225    34340.171 
  820600    299.05186    -1587.235    523.70638    297.66487    -31.23106    34340.171 
  820700    296.23433   -1610.9434    558.35741    295.78293    248.71182    34340.171 
  820800    291.99857   -1584.0047    519.80714    264.89148     499.5937    34340.171 
  820900    298.96402   -1587.6826    550.38642    323.49742    107.98657    34340.171 
  821000    291.82515   -1690.3058    555.40088    193.39471    54.879347    34340.171 
  821100     302.7688    -1624.387    533.81754    287.54236    76.430737    34340.171 
  821200    298.84752   -1567.8172      563.987    356.43318    190.71976    34340.171 
  821300    296.52533   -1575.3338    543.49395     317.8536   -552.42215    34340.171 
  821400    297.32615    -1559.054    536.47982    330.76435   -618.43397    34340.171 
  821500    293.60178   -1567.0439    550.55339     319.8958   -78.401706    34340.171 
  821600    307.64245   -1574.0815    494.20655    320.42027   -259.14815    34340.171 
  821700    303.24136   -1543.8338    509.98084    346.40982    -418.7417    34340.171 
  821800    300.66885   -1538.8456    535.71959    365.42753   -407.81355    34340.171 
  821900    302.14908   -1579.4701    558.97077    354.79172     278.9611    34340.171 
  822000    302.99551   -1559.2598    527.36407    347.24806    208.68618    34340.171 
  822100    291.78439    -1604.056    552.29666    276.35482   -217.04178    34340.171 
  822200    306.98502   -1577.6917    525.68218    345.29328   -411.01826    34340.171 
  822300    299.88638   -1575.5711    541.20962    330.63043    734.84015    34340.171 
  822400    297.91506   -1578.1822    553.06195     330.8988    255.70437    34340.171 
  822500    293.63692   -1562.5847    547.19511    321.15671   -305.20141    34340.171 
  822600    302.44761   -1526.3243    508.33215    358.65775    16.593614    34340.171 
  822700     303.1444   -1555.7436    551.61997    375.69778    235.97057    34340.171 
  822800    288.24795   -1560.3909     539.4042    291.03063    214.51735    34340.171 
  822900    314.01481   -1573.4522    548.40012    404.24821    463.45962    34340.171 
  823000     304.3054   -1536.3827    568.53016    417.25338    431.92573    34340.171 
  823100    299.61806   -1526.7237    548.57476    385.62167   -24.602003    34340.171 
  823200    307.29825   -1550.5688    537.81413    385.97378    261.93116    34340.171 
  823300    318.56638   -1579.1853    554.69046    425.52274    802.37371    34340.171 
  823400    292.35714   -1575.8037    538.75084    293.66826   -194.17448    34340.171 
  823500    294.80759   -1597.0965    513.06401     257.8423    15.117967    34340.171 
  823600    302.21364   -1591.9472    512.46047     296.0982    154.96135    34340.171 
  823700    306.84802    -1602.746    522.37454    316.30778    362.73923    34340.171 
  823800    299.62654   -1570.6225    529.48905    322.67577   -264.77153    34340.171 
  823900      295.141   -1587.0019    533.50153    289.89202    26.412946    34340.171 
  824000    289.19111   -1590.3276    567.23327    293.21594  -0.65335972    34340.171 
  824100    299.46297   -1579.1866    542.75657    326.63466   -55.158249    34340.171 
  824200    307.69558   -1589.9225    528.46312    339.07758    321.99303    34340.171 
  824300    305.27764   -1604.5486    524.17698    309.15965    244.17662    34340.171 
  824400    295.59904   -1630.6287    494.81428    209.66283    314.45414    34340.171 
  824500    303.73059   -1609.3103    530.99465    304.17393    94.494725    34340.171 
  824600    291.04897   -1588.3047    528.41613    264.87809    253.15543    34340.171 
  824700    302.67842   -1605.7192    532.22201    304.20329    880.47128    34340.171 
  824800    296.69512   -1560.7024    524.28165    314.04553    303.12117    34340.171 
  824900    316.81268   -1581.3311     536.1661    396.87025    871.11786    34340.171 
  825000     305.1884   -1588.2677    537.25787    338.11524    1011.2508    34340.171 
  825100    307.86178   -1588.6694    492.16536    304.78946    906.44751    34340.171 
  825200    307.68741   -1571.7493    536.98696    365.73751    108.76883    34340.171 
  825300    300.73326    -1559.594    551.06423    360.31685    158.68054    34340.171 
  825400    297.54042   -1574.0473    538.82856    319.09508      328.176    34340.171 
  825500    304.91917    -1580.989    510.67227    317.58296   -31.394585    34340.171 
  825600    303.53622   -1598.9011    509.41077    292.11459   -297.08362    34340.171 
  825700    297.08063   -1560.5756    526.96018    318.60559   -533.81579    34340.171 
  825800    285.30257   -1566.3907    523.71569    255.93578    272.38847    34340.171 
  825900    300.67114   -1578.3079    530.27386    320.52982   -412.84044    34340.171 
  826000    295.20687   -1592.5356    531.75512    282.91173   -566.34281    34340.171 
  826100    306.28512   -1595.8337     501.8937    300.17706    231.29499    34340.171 
  826200    303.55636   -1579.8421    555.12038    356.97484   -332.62455    34340.171 
  826300    290.10979   -1593.9616    555.01694    281.54716    -608.5997    34340.171 
  826400    308.39753   -1590.9871    552.15667    364.90166   -836.01275    34340.171 
  826500    299.95779   -1599.4319    508.08691      273.972   -826.67358    34340.171 
  826600    306.34377   -1622.8577    522.99505    294.52135   -26.472412    34340.171 
  826700    295.52615   -1627.6182      541.966    259.49327   -11.844228    34340.171 
  826800    310.39058   -1575.9511    516.09589    352.94871    70.238578    34340.171 
  826900    298.57963   -1540.5088    527.22835    345.76356    797.59223    34340.171 
  827000     299.5995   -1565.9577    527.41746    325.14591    852.18005    34340.171 
  827100    296.93469   -1552.8442    559.62079    358.33328    749.48694    34340.171 
  827200    292.51126   -1596.7802    545.32354    279.96593   -261.55776    34340.171 
  827300    305.29531   -1606.7428    505.78915    288.65809    184.91802    34340.171 
  827400    309.07523   -1534.1516    530.21171    402.87686   -459.43846    34340.171 
  827500    297.92694     -1534.28     496.4142    318.20731    -373.5537    34340.171 
  827600    307.25877   -1588.3656    550.28097    360.46421    342.21111    34340.171 
  827700    293.83294   -1561.7655    519.97204      295.645   -40.904564    34340.171 
  827800    303.66799   -1565.5848    540.63117    357.25104    583.64681    34340.171 
  827900    310.21159   -1591.6667    534.56353    354.88594    76.043861    34340.171 
  828000    294.04273   -1562.1645    562.65784    338.88678   -209.83189    34340.171 
  828100    285.32794   -1545.8946    496.39144    249.22315    43.079597    34340.171 
  828200    293.94877    -1547.442    530.69254    321.21631    41.579252    34340.171 
  828300     303.6045   -1578.6464    545.08258    348.35188   -302.64682    34340.171 
  828400    302.34737   -1549.6979    514.54628    341.04203    64.789624    34340.171 
  828500    315.26407   -1566.8454    526.69373    394.83483    237.85976    34340.171 
  828600    291.03062   -1552.4762    524.86297    297.06995   -183.78327    34340.171 
  828700    298.77596    -1578.573    510.56137    291.92604   -652.20087    34340.171 
  828800    300.77332   -1541.0738      533.243    361.19822   -435.57341    34340.171 
  828900     298.8669    -1600.506    528.41794    288.26354   -49.376609    34340.171 
  829000    296.98165   -1567.1716    509.17676    293.77568    135.74383    34340.171 
  829100    299.73576    -1553.176    527.26222    338.39255    240.39706    34340.171 
  829200     298.6839   -1575.2301    525.19516    309.48364    405.35946    34340.171 
  829300    306.67192   -1590.1709    511.25646    316.96317   -33.759054    34340.171 
  829400     300.5092   -1606.4247    510.31493    271.71706    406.36512    34340.171 
  829500    304.17356   -1612.7028    526.84263    298.64565    406.38999    34340.171 
  829600    301.58949   -1570.6419    543.55937    345.66148    583.98101    34340.171 
  829700     296.7319   -1555.3517    531.83516    327.11718   -203.65218    34340.171 
  829800    307.78846   -1491.7588    530.54048    439.74146   -64.287974    34340.171 
  829900    289.95798   -1535.7061    517.07508    301.16983   -45.732468    34340.171 
  830000    306.80921   -1549.0647    532.99322    380.43104    22.351863    34340.171 
  830100    299.84121   -1559.8003     542.1719    347.15792   -203.35193    34340.171 
  830200    294.63206   -1538.6977    506.29128    308.66946   -243.03912    34340.171 
  830300    305.08004   -1514.9375    549.50901    423.20344    -893.4261    34340.171 
  830400    293.37281   -1517.7964    508.48742    326.03509   -1388.5153    34340.171 
  830500    308.43202   -1556.4656    516.95434    364.37783   -1122.2063    34340.171 
  830600    288.07953   -1535.0468    546.16877    322.37274   -1232.7421    34340.171 
  830700    295.90371    -1559.057    517.04243    304.84948   -656.58057    34340.171 
  830800    307.32276   -1496.9515    544.06821    445.95677   -775.96807    34340.171 
  830900    302.18298     -1504.21    529.89337    401.12874   -490.42012    34340.171 
  831000    311.15503   -1573.6469    536.51406    379.15053   -628.25767    34340.171 
  831100     287.9166    -1523.307    542.23515    329.43726   -539.62296    34340.171 
  831200     293.1186   -1530.8236    544.05032    347.41375    -465.7121    34340.171 
  831300    294.22216   -1512.2568    512.98955    339.94281   -649.32653    34340.171 
  831400    303.68035   -1487.4172    540.66477     435.5085   -431.02798    34340.171 
  831500    314.64174   -1491.1353    536.57935    477.59787   -90.437458    34340.171 
  831600    295.46377    -1506.175     523.8859    362.57243   -367.31508    34340.171 
  831700    308.95663   -1507.4108    509.46595    408.33205    592.48079    34340.171 
  831800    303.25688   -1533.2573    555.54437     402.6205    43.483183    34340.171 
  831900    294.52479   -1492.1865    545.01931    393.42043    330.07654    34340.171 
  832000    295.55886   -1533.1304    512.37736    324.54129   -170.94177    34340.171 
  832100    308.09582    -1515.103    538.53476    425.79058   -459.31517    34340.171 
  832200    306.56403   -1524.7923    542.88148    413.47572   -692.65393    34340.171 
  832300    309.31127   -1527.4968    547.93868    428.33302   -252.13406    34340.171 
  832400    301.79557   -1568.2924    528.04457    333.43415   -318.98271    34340.171 
  832500    299.14803   -1552.9167    515.56247    324.27692    82.794392    34340.171 
  832600     297.2114   -1575.3184    526.67232    304.17011    253.13731    34340.171 
  832700    302.64118   -1576.2823    508.52913     309.7778    1027.7521    34340.171 
  832800    295.02822   -1566.2392    564.43264    341.07248     116.4022    34340.171 
  832900    294.29749   -1561.0199    548.28033    326.81338    644.20733    34340.171 
  833000    294.13737    -1576.361    524.52563    286.98883   -212.03124    34340.171 
  833100     301.5088   -1516.2081    531.00652    387.17507    84.458212    34340.171 
  833200     291.3048   -1564.1299    532.90873    294.70998     404.9137    34340.171 
  833300    292.22229   -1572.3351    546.61507    304.38732    787.83816    34340.171 
  833400    296.30265   -1558.1813    551.12494    341.62346    1265.8688    34340.171 
  833500    299.21257   -1548.5392    535.75826    349.14401    493.88721    34340.171 
  833600     298.6242    -1531.708    556.19665    383.73553   -90.692689    34340.171 
  833700    298.95584   -1539.9373    537.87071    358.68977     -402.498    34340.171 
  833800    296.78608   -1515.7992    532.07396    367.15509    83.748971    34340.171 
  833900    299.27568   -1548.4394    539.95231    353.72515   -596.16566    34340.171 
  834000    309.22436   -1570.5307    524.98106    361.94592   -771.69819    34340.171 
  834100     303.7584   -1574.1189    517.53398    326.03126   -238.43215    34340.171 
  834200    308.12002   -1585.9534    513.29239    329.80796   -620.57068    34340.171 
  834300    311.16118   -1552.3742    522.49075    386.42796    130.43596    34340.171 
  834400    300.07368   -1594.7409    494.36335    265.46693   -110.53052    34340.171 
  834500     307.2839   -1592.0879     557.4795    364.05474   -355.52457    34340.171 
  834600    293.23882    -1585.804    541.21114     290.1414   -190.36122    34340.171 
  834700    304.89084   -1566.6463    547.84283    368.96727   -144.96992    34340.171 
  834800    304.50822   -1590.6097    534.38356    329.80299   -430.48843    34340.171 
  834900    303.07505    -1583.901     497.1286    292.73343   -680.87264    34340.171 
  835000    294.00805   -1568.2945    530.44666    300.38768   -445.79236    34340.171 
  835100    292.30615    -1537.166    533.23598    326.55899   -190.05006    34340.171 
  835200    293.99434   -1564.3134    522.98113    296.84084   -307.88938    34340.171 
  835300    292.73312   -1534.1421    505.71309    304.00347     -190.779    34340.171 
  835400    292.93974   -1517.4629      538.847    354.75701    217.18517    34340.171 
  835500    299.10575   -1525.4619    533.93505    369.91186   -129.96919    34340.171 
  835600    293.76439    -1535.483    559.08946    360.73294    61.514545    34340.171 
  835700    299.87627   -1546.4353    521.53449    340.04512    12.260025    34340.171 
  835800    292.92592   -1553.3957    544.02839    323.94277   -240.56688    34340.171 
  835900    295.96934    -1562.101    515.86026      300.922    10.201241    34340.171 
  836000    298.02007   -1498.6338    550.86227     408.7255    425.12697    34340.171 
  836100    299.06151   -1562.5818    517.02099    315.67654    380.15188    34340.171 
  836200    303.58022   -1554.1014    519.91206    347.61584   -280.73582    34340.171 
  836300    306.67874   -1533.9354    522.17657    384.14982    232.93486    34340.171 
  836400     304.1263    -1526.989    540.82847    398.13019   -243.32803    34340.171 
  836500    306.05894    -1512.556    530.66078    411.19232   -597.59245    34340.171 
  836600    298.26003   -1540.6632     509.4454    326.37145   -451.76477    34340.171 
  836700     310.5643    -1554.853    522.78545    381.52705    121.57269    34340.171 
  836800    305.93397    -1558.258    517.94819    352.20892    483.72908    34340.171 
  836900    305.84754     -1548.92     509.2351    352.44043    610.48286    34340.171 
  837000    296.24688   -1526.1411    536.70975    358.99467    703.76941    34340.171 
  837100    287.09452   -1526.4068    540.79275    321.15319     560.1795    34340.171 
  837200    297.34766   -1520.0901    525.26091    358.60726    261.95164    34340.171 
  837300    292.08004   -1569.2991    549.39595    309.55675    535.97065    34340.171 
  837400    298.80176   -1590.4488    542.82423    312.43054    580.46397    34340.171 
  837500    302.91357   -1580.6364    533.68655    331.82093    582.54068    34340.171 
  837600    300.59574   -1551.4249    531.84474    348.64055    807.96891    34340.171 
  837700    291.52747   -1517.8413     534.1146    343.21802    655.11371    34340.171 
  837800     290.7253   -1562.2122    524.92487    286.00607   -165.97957    34340.171 
  837900    306.69773   -1582.2791    535.38884    349.10485    526.46847    34340.171 
  838000    303.20744   -1610.5303     515.2815    284.85963    35.216984    34340.171 
  838100    298.39243   -1599.8906    531.82478    290.12612   -266.59237    34340.171 
  838200    303.02547   -1571.5523    538.31566    346.04345   -453.53658    34340.171 
  838300    304.93185   -1559.3113    523.26999    351.91603   -729.76518    34340.171 
  838400    300.82099    -1542.687    544.84783    371.40682   -442.41698    34340.171 
  838500    305.73277    -1573.457    497.74278    315.88865    140.16321    34340.171 
  838600    298.30042   -1567.6991    493.54915    283.62318   -3.5729544    34340.171 
  838700     303.5563   -1561.8278    511.10883    330.97733     34.96449    34340.171 
  838800     296.0096   -1549.7731    510.34879     307.9217    237.58612    34340.171 
  838900    304.77599   -1559.7658    524.02683    351.50901    113.08159    34340.171 
  839000    299.69343    -1561.634    498.68669    301.16636      173.976    34340.171 
  839100    306.75377   -1563.9085    518.87328    351.21498    282.28621    34340.171 
  839200    299.44839   -1540.4577    532.67075    355.21139    404.02588    34340.171 
  839300    301.48159   -1572.9665    519.66684    318.95318    202.23223    34340.171 
  839400    300.05844   -1535.8418    528.66052    358.59377    384.81291    34340.171 
  839500    301.60239   -1563.3718    531.44173    340.87257   -257.87497    34340.171 
  839600    302.53042   -1584.9128     518.1704    310.28436   -474.10112    34340.171 
  839700    294.91172   -1521.1652    550.46442    371.64803    -408.0923    34340.171 
  839800    301.61653   -1530.6188    546.02271    388.27097   -63.239476    34340.171 
  839900    295.47901   -1569.5982    533.75079    309.08347    14.789017    34340.171 
  840000    291.57246   -1578.5754    507.80784    256.38196    -868.6476    34340.171 
  840100    304.08549   -1594.0865    522.48473    312.50318   -511.40293    34340.171 
  840200    297.98932     -1576.69    516.48761    296.15468   -383.46864    34340.171 
  840300    297.95994   -1549.5969    542.22317    348.84959   -157.72964    34340.171 
  840400    295.66593   -1557.9108    544.47649    332.34736    70.192074    34340.171 
  840500    295.97886   -1546.5252    508.64754    309.32839   -193.61311    34340.171 
  840600    291.32322   -1550.4618    528.64979    304.20295   -828.65459    34340.171 
  840700    296.73032   -1545.3738    544.07894    349.33164    -167.2591    34340.171 
  840800    298.54515   -1490.8649    547.47481    415.49692   -381.93372    34340.171 
  840900    305.52802   -1516.7269    560.83722    434.78129   -457.80327    34340.171 
  841000    301.17634   -1557.5204    539.77699    353.12005   -552.21358    34340.171 
  841100    296.80004   -1503.6952    526.26746    373.51608   -863.59777    34340.171 
  841200    300.92803   -1516.2624    539.64221    393.11301   -1070.8841    34340.171 
  841300     311.5875   -1518.4396    539.14415     438.9564   -1037.7709    34340.171 
  841400    299.58705    -1546.953    547.31812    363.99459   -789.19455    34340.171 
  841500    297.79289   -1547.5777    519.11375      326.999   -569.14217    34340.171 
  841600    287.61736   -1527.3954    530.56963    312.32122   -456.86815    34340.171 
  841700    287.40651   -1526.8574    538.36976    319.69966   -637.80768    34340.171 
  841800    310.31333   -1512.1033    549.67888    450.02784   -69.870474    34340.171 
  841900    301.71346   -1538.7723    542.20855    376.74446   -241.76134    34340.171 
  842000    305.35522   -1496.8037    552.19538    445.27615   -1000.6548    34340.171 
  842100    296.52661   -1539.7606    536.52168    346.46036   -176.87999    34340.171 
  842200     296.1854   -1556.9152    504.18178    295.41276    166.91078    34340.171 
  842300    301.27498   -1542.8831    536.87475    365.30404    440.03283    34340.171 
  842400    303.81698   -1581.9233    528.23945    329.19897    329.84148    34340.171 
  842500    290.21848   -1514.9538    511.59198    317.62472    482.31205    34340.171 
  842600    305.28223   -1517.4962    540.97063    413.02664    49.598938    34340.171 
  842700     299.8464   -1466.1771    548.94585    447.57873    -101.8821    34340.171 
  842800     306.6665   -1527.9379    511.88235    379.79741    466.28956    34340.171 
  842900    298.27859   -1521.3661    556.62684    392.93451    874.85042    34340.171 
  843000    296.64874   -1514.4594    547.14636     382.9421    381.40349    34340.171 
  843100    311.36283   -1501.0523    532.54307       448.72    555.40907    34340.171 
  843200    301.64801   -1512.5974    552.84456    413.25748   -17.094126    34340.171 
  843300    286.14474   -1512.7169    518.77352     308.5008   -276.08046    34340.171 
  843400    288.84211   -1472.8044    550.99892    392.91627   -182.29644    34340.171 
  843500    303.91643   -1529.4558    530.12665    384.00635    28.535859    34340.171 
  843600    290.16472   -1513.9603    530.65845    337.44006   -191.67548    34340.171 
  843700    295.24974   -1499.0228    540.24199    385.10656   -376.82563    34340.171 
  843800    301.83682   -1511.2215    528.99568    391.64395   -314.05212    34340.171 
  843900    307.96717   -1531.8214    505.87913    375.83097   -238.37289    34340.171 
  844000    307.35423   -1563.4344    514.95491    350.50382   -19.353699    34340.171 
  844100    294.70873   -1545.1313    518.79459     315.0881    333.18982    34340.171 
  844200    305.21584   -1556.3403    538.73603    371.64573   -97.755139    34340.171 
  844300    296.37665   -1558.2978    536.50192     327.2208     105.2029    34340.171 
  844400    289.91562    -1494.807    529.71549    354.51656   -214.58577    34340.171 
  844500    302.40095   -1501.5128    521.37022    396.29492   -567.27061    34340.171 
  844600    306.64055   -1555.4432    540.72912    381.02073    229.59555    34340.171 
  844700    308.44914   -1549.1415    550.57042    405.39589   -545.17799    34340.171 
  844800    302.55557   -1539.5432    522.50156    360.09962   -635.51357    34340.171 
  844900    294.63865   -1500.4673    529.63991    370.27848   -420.81452    34340.171 
  845000    300.75678    -1521.753    524.36384    371.56454   -762.38236    34340.171 
  845100    297.94276   -1509.2277    532.63095    379.54845   -1275.5892    34340.171 
  845200    307.53416   -1508.9805    523.41163     414.2334   -457.50936    34340.171 
  845300    291.33056   -1518.3935    558.33627    365.99122   -243.44825    34340.171 
  845400    298.65152   -1543.0198    524.94615     341.2976   -32.932434    34340.171 
  845500    301.48828   -1531.6268    542.71985    383.37638      398.817    34340.171 
  845600    294.20009   -1546.1687     531.5875    324.52844    273.73343    34340.171 
  845700    295.51173   -1549.6989    529.89914    325.28006    -12.11343    34340.171 
  845800    313.44191   -1582.4026    526.81841    371.10845   -648.01152    34340.171 
  845900    301.64272   -1534.9032    520.10841    358.19141     -461.935    34340.171 
  846000    298.51543   -1520.9466    515.15578    352.96091    313.00617    34340.171 
  846100    301.54442   -1521.8515    552.26707    402.95434    334.03014    34340.171 
  846200    306.36254   -1515.9405    543.70195    422.23089    373.30371    34340.171 
  846300    300.28765   -1529.0997    514.37257    352.09127    188.18934    34340.171 
  846400    289.79925   -1513.1041    545.67518    351.64943   -143.86997    34340.171 
  846500    303.20248   -1526.8754    538.26591    391.47636   -552.25292    34340.171 
  846600    300.29232   -1525.3636    536.93117    378.40723    14.332006    34340.171 
  846700    304.20831   -1524.0072     528.8917    389.54858   -17.498862    34340.171 
  846800    307.55235   -1543.8011      522.764    378.84795   -466.76034    34340.171 
  846900    309.54721   -1540.1996    516.10293    384.86845   -381.40553    34340.171 
  847000    297.79705   -1505.4773    510.51971    360.52429   -290.36167    34340.171 
  847100    294.61445   -1524.4743    517.90848     334.4299     5.085761    34340.171 
  847200    303.75617   -1537.5852    551.13782    396.15864   -176.77002    34340.171 
  847300    300.77632   -1555.6317     537.0796    350.49055   -84.555202    34340.171 
  847400    310.58441   -1566.8978     537.8223    384.61056    486.40076    34340.171 
  847500    297.62482   -1542.9276    514.73138    326.50173    445.61115    34340.171 
  847600    303.59265   -1521.5157     509.1306    369.47668    68.307037    34340.171 
  847700    298.03144   -1552.7838     535.4407    339.20564    -145.8126    34340.171 
  847800    305.48791   -1537.2483    538.95961    392.19976   -668.37197    34340.171 
  847900    293.83699   -1563.6213    533.15425    306.98988   -518.80123    34340.171 
  848000    299.45847   -1541.7289    536.18235    357.49764   -880.25712    34340.171 
  848100    293.57113   -1577.2369    529.22226    288.23215   -1615.7264    34340.171 
  848200    294.61523   -1531.7944    552.26272    361.46752   -986.53453    34340.171 
  848300    305.92499    -1516.737    545.06738    420.80818   -830.94811    34340.171 
  848400    309.04558   -1503.4054     518.4077    421.68407   -432.50231    34340.171 
  848500    292.79023   -1483.9809    538.99798    387.70945     177.2814    34340.171 
  848600    300.20193   -1450.8346    560.77714    476.37073    43.242602    34340.171 
  848700     288.3498   -1504.5821     531.2095    339.10836    10.660447    34340.171 
  848800    305.81076    -1510.299    576.91533    458.57424   -398.00271    34340.171 
  848900    301.99246   -1531.9324    532.68927    375.33506   -399.63923    34340.171 
  849000    297.49465   -1522.5822    516.06674    347.59001   -745.24618    34340.171 
  849100    296.30149   -1526.2767    512.95331    335.35125    -604.7231    34340.171 
  849200    307.32477    -1538.402    557.85892    418.30617    -417.3026    34340.171 
  849300    295.04098    -1527.553    530.96407    346.34818   -41.353967    34340.171 
  849400    295.60088   -1572.8031    510.57005     283.2526   -1206.7047    34340.171 
  849500    286.89167   -1524.6477    519.37101    300.56721   -343.42932    34340.171 
  849600    308.63813   -1527.1697    519.17286    396.83041   -570.38686    34340.171 
  849700    295.45623   -1524.8927    544.02816    363.96272   -211.06856    34340.171 
  849800    304.01414   -1501.9565     536.3298    418.15354   -66.754843    34340.171 
  849900     301.9767   -1509.3198    542.38012    407.56676    239.81258    34340.171 
  850000    301.63792    -1517.723     529.0418    384.28321    553.29666    34340.171 
  850100    305.45102    -1532.833      546.827    404.31447    75.683556    34340.171 
  850200    299.32145   -1549.6799    520.54063    333.28126   -608.92107    34340.171 
  850300    298.48998    -1533.409    512.54041    337.76732   -496.04952    34340.171 
  850400    296.26221   -1544.4385     525.2103     329.2676   -792.25668    34340.171 
  850500    298.16604   -1556.4332    550.61817    351.34642   -253.16278    34340.171 
  850600    301.72051   -1546.2176    564.13849    391.26125    452.06686    34340.171 
  850700     297.7333   -1512.7396    541.05489    383.50701    775.81524    34340.171 
  850800    295.47449   -1552.6542    526.84219    319.09833    820.72411    34340.171 
  850900    293.22571   -1520.0656    533.98555    348.59451    1232.1799    34340.171 
  851000    299.85459   -1522.4359    519.85161    362.26289   -76.299436    34340.171 
  851100    292.29955   -1499.6273    542.80618    373.63784   -151.32688    34340.171 
  851200    303.48053   -1497.8661    524.86314    408.34846   -680.64149    34340.171 
  851300    304.61816   -1501.0841     538.6424    424.08785   -485.55202    34340.171 
  851400    308.49631    -1462.919    544.20861    485.47129   -9.5617127    34340.171 
  851500    294.39324   -1512.0275    530.76814    358.72949    -10.17811    34340.171 
  851600    298.14459   -1464.5496      550.118    442.63223    189.02523    34340.171 
  851700    308.92061   -1486.6799    517.47556    436.90865    57.552421    34340.171 
  851800    302.86309   -1465.1539    555.26034    468.64739    270.18255    34340.171 
  851900     293.9204   -1466.1134    525.03608    396.75929    315.42443    34340.171 
  852000    296.86748   -1456.5155    524.75801    419.49332   -5.2879812    34340.171 
  852100     299.4438   -1478.3557    556.73063    441.35235    313.63553    34340.171 
  852200    306.59078   -1477.7469    550.18676     467.9482    356.27743    34340.171 
  852300     303.2787   -1493.7369    533.61431    420.31017    550.89314    34340.171 
  852400    292.56243    -1493.126    517.09686    355.62637    795.08462    34340.171 
  852500    312.57574   -1461.2358    550.63363    512.14785    209.64517    34340.171 
  852600    308.85185   -1507.2669     527.8578    426.39091   -307.69419    34340.171 
  852700    286.34803   -1543.1632    551.22971    311.43601    -225.5428    34340.171 
  852800    306.05912   -1562.0522    509.77581    340.81201   -659.48587    34340.171 
  852900    293.52545    -1553.701    531.84279    314.18066    22.399402    34340.171 
  853000    311.11661   -1537.0959    571.00691    450.01947    392.10315    34340.171 
  853100    300.99569   -1564.1889     512.7781    318.63035    845.21683    34340.171 
  853200    293.50115   -1524.1504    514.44032    326.21822    11.966734    34340.171 
  853300    297.85958   -1530.8246    519.38333    344.32522   -411.76885    34340.171 
  853400    301.67824   -1525.5466    529.78889    377.39023    -110.1859    34340.171 
  853500     299.4639   -1554.4236    527.54274    336.18802    479.18033    34340.171 
  853600    298.69982   -1541.3243    531.72755    349.99428    715.62016    34340.171 
  853700    304.88846    -1547.773    527.23111    367.21797    794.00013    34340.171 
  853800    295.40412   -1551.9804    518.15389    310.76351    1098.1454    34340.171 
  853900    302.76732   -1571.4564    530.13377    336.78244    216.80706    34340.171 
  854000    290.93813   -1536.9295    515.55328    302.88594   -74.047346    34340.171 
  854100    295.46489   -1491.8204    517.41327    370.45947   -960.46273    34340.171 
  854200    303.19693   -1497.7839    548.36645     430.6431   -403.04616    34340.171 
  854300    305.94384   -1512.5817    541.44898    421.43093   -600.47892    34340.171 
  854400    295.62369    -1561.936     526.1368    309.79026    -453.3184    34340.171 
  854500    315.28839   -1598.6046    505.56504    342.05767    -383.7971    34340.171 
  854600    307.37022   -1532.3897    530.45673     397.1231   -510.61941    34340.171 
  854700    308.94077   -1518.4316    510.34884    398.12195   -50.517281    34340.171 
  854800    315.32628   -1497.9732    513.59516    450.89161   -6.8613541    34340.171 
  854900    302.45442   -1501.6337    527.81219    402.85936   -69.205483    34340.171 
  855000    292.84551    -1524.049    550.12773    359.02279   -198.51159    34340.171 
  855100    294.09162    -1523.736    529.30368    344.18365   -990.26964    34340.171 
  855200      296.216   -1555.1665     511.0373    304.15619    -470.0523    34340.171 
  855300    304.41191   -1530.8249    523.80186    378.56769   -501.61841    34340.171 
  855400    303.35444   -1512.0707    535.69187    404.39865   -531.12475    34340.171 
  855500    310.46038   -1533.6771    519.68034    399.12478   -687.73091    34340.171 
  855600    296.41149   -1521.3424    525.33489    353.16777   -381.15128    34340.171 
  855700    287.85462    -1544.441    501.54763    267.33362   -494.23624    34340.171 
  855800    293.68818    -1523.076    552.86104    366.56463   -1040.7648    34340.171 
  855900    313.35426   -1534.8972    530.79292    422.18932   -256.07342    34340.171 
  856000    310.37229   -1513.6442    500.69982     399.7762    -370.3298    34340.171 
  856100    289.46393   -1555.1259    514.35205     276.7782    255.14135    34340.171 
  856200    291.68542   -1490.9251    532.23702    368.97552    543.58671    34340.171 
  856300    293.94272   -1480.3567    535.23139    392.81285    871.85847    34340.171 
  856400    299.75887   -1506.6716    527.36336    385.10325    793.34242    34340.171 
  856500    294.78109   -1499.3461    520.26444     362.6725    469.44946    34340.171 
  856600    305.98457   -1453.7737    528.25671    467.23206      219.648    34340.171 
  856700    288.50174   -1487.6933    507.73818    333.21732    275.37382    34340.171 
  856800    298.16986   -1495.6602    501.10543     362.6241   -32.120208    34340.171 
  856900     300.9676   -1487.0734    548.57209    431.41199   -158.88645    34340.171 
  857000    301.82161   -1507.4508    511.97728      378.327    -24.00121    34340.171 
  857100      300.297   -1510.5701    548.36767     404.6585    132.31113    34340.171 
  857200    300.03967   -1535.0805    516.62765    347.23679   -707.29436    34340.171 
  857300    290.38536   -1507.4283    522.38583    336.70365   -317.82904    34340.171 
  857400    309.76928   -1485.5701    550.58169    474.98747    215.28385    34340.171 
  857500    313.29311   -1516.1024    502.80516    412.71801    680.28381    34340.171 
  857600    304.30857   -1521.0775    538.44484    402.48766   -96.286049    34340.171 
  857700    296.70595   -1507.1086    501.17389     344.5809   -40.224762    34340.171 
  857800    292.90915   -1523.5134    507.67557    317.39579    227.83305    34340.171 
  857900    304.88174   -1522.0507    532.94386    398.62249    216.21585    34340.171 
  858000    289.63736   -1531.1091     517.7481    304.98047    19.904349    34340.171 
  858100     308.6849   -1505.0214    543.19925    443.21794   -52.923082    34340.171 
  858200    299.00465   -1552.2897    520.89545     329.5843    310.15461    34340.171 
  858300    306.48179   -1522.2605    500.09092    372.84261    659.16743    34340.171 
  858400    308.39769   -1503.9087    501.81702    401.64119      327.599    34340.171 
  858500    302.96929   -1493.5772    519.64672    405.09393   -472.83426    34340.171 
  858600    288.95113    -1497.514    512.03321    329.73719    -743.8096    34340.171 
  858700    290.19235   -1526.9435    503.24416    297.16826    -117.2221    34340.171 
  858800    294.79107   -1547.2589    504.30013    298.84089    454.60576    34340.171 
  858900    293.41128   -1534.6615    499.60226    300.45995   -406.65162    34340.171 
  859000    305.75234    -1520.088    512.66691    384.27092   -184.70163    34340.171 
  859100     296.1328    -1576.975    485.07246    256.00424   -399.01241    34340.171 
  859200     296.0015    -1507.158    505.21346    345.36457     141.5299    34340.171 
  859300    293.74833   -1555.7709    523.07898    304.36147   -313.34832    34340.171 
  859400    304.78969   -1495.7136    510.75397     402.3507    296.28192    34340.171 
  859500    310.35825   -1506.9363     505.6896    411.40997    382.08231    34340.171 
  859600    305.77429   -1543.2423    535.86916    384.41871    1098.7616    34340.171 
  859700     291.6211   -1512.8851    503.34207    317.82788    1071.2814    34340.171 
  859800    298.61812   -1498.2816    490.97193    351.90949    845.42487    34340.171 
  859900    304.50644   -1461.9806    519.09306    443.13346    850.05115    34340.171 
  860000    307.83109   -1459.7349    538.64618    480.06514   -310.28872    34340.171 
  860100    289.72348   -1493.0977    513.42942    339.06523    288.61424    34340.171 
  860200     301.9648   -1504.4644    502.98961    372.97749    200.50087    34340.171 
  860300    298.18535   -1524.6069    519.22363    351.86604    135.94848    34340.171 
  860400    298.90957   -1515.8519    525.12757    369.82139   -75.879001    34340.171 
  860500    307.16182   -1541.3707     512.7995    369.53632    -319.9506    34340.171 
  860600     306.8351   -1508.7741    487.23029    375.07652    28.026889    34340.171 
  860700    295.44099   -1502.8511    523.16476    365.07152    -172.1968    34340.171 
  860800    306.01596   -1530.2461      521.969    384.61481    77.929126    34340.171 
  860900    301.03098   -1490.1967    519.15216    399.15723     3.135106    34340.171 
  861000    290.26774   -1519.7592    537.02509    338.47663    129.44438    34340.171 
  861100    296.87396   -1485.7761    541.06818    406.57235    461.92354    34340.171 
  861200    297.92087   -1494.9151    547.81381     408.9442    321.61952    34340.171 
  861300    293.64267   -1546.7345     521.4687    311.30668     717.2015    34340.171 
  861400    306.07704   -1519.0991    517.27284    391.34362    617.47789    34340.171 
  861500    301.86914   -1500.7594    506.26494    379.52235    116.70025    34340.171 
  861600    296.81904   -1499.0303    487.50729    339.50731   -667.07793    34340.171 
  861700    296.16573   -1528.9429    516.27639    335.39018   -585.06043    34340.171 
  861800    285.92235   -1499.1535    550.26598     352.5444   -357.00727    34340.171 
  861900     296.1853   -1551.2945    513.43983    310.29106   -398.30191    34340.171 
  862000    298.94528   -1505.0199    536.99348    392.68189   -732.22638    34340.171 
  862100     303.8227   -1547.0452    517.22225    353.08586   -1105.1777    34340.171 
  862200     303.1636   -1553.8217    500.85995    326.94713   -902.68185    34340.171 
  862300     296.3389   -1562.6383    503.23205    289.43866    33.325327    34340.171 
  862400    292.75683   -1536.2963    520.38566    316.62973    496.22234    34340.171 
  862500    294.06324    -1494.183    531.69542    375.99916    463.20882    34340.171 
  862600    287.95921   -1487.8388    541.23983    364.10413    722.77107    34340.171 
  862700    298.43928   -1481.5682    542.61234    419.44927      734.066    34340.171 
  862800    298.30753   -1524.1476    547.87964    381.53752   -306.30438    34340.171 
  862900    300.75867   -1543.4087    537.39138      362.945    681.02075    34340.171 
  863000    313.23997   -1525.3534    524.90756     425.3276    783.18332    34340.171 
  863100     307.2943   -1473.9939    539.20022    463.91691    790.42482    34340.171 
  863200    291.99225    -1504.212    542.18224    367.03046    172.73189    34340.171 
  863300    305.04611   -1564.4552    549.78532    373.80755    342.86229    34340.171 
  863400    293.21227    -1504.969    521.04407    350.68851    326.72934    34340.171 
  863500    312.16667   -1487.3914    511.05578    444.55244    534.95648    34340.171 
  863600    296.03863   -1528.2063    522.62774    341.89953    584.62221    34340.171 
  863700    293.32451   -1513.4435    521.54444     343.2252     105.9293    34340.171 
  863800    299.17291   -1512.1029    524.54994    374.19146    40.362994    34340.171 
  863900    298.87809   -1485.4116    533.51658    408.50748    659.12772    34340.171 
  864000    305.89274   -1490.3642    509.64838    411.61522    686.97457    34340.171 
  864100    299.27882   -1490.8319    524.60645    396.00108    423.41481    34340.171 
  864200     309.2899   -1519.7592    532.89584    420.93049    436.05492    34340.171 
  864300    296.98366   -1559.8617    513.75476    305.67271   -119.70814    34340.171 
  864400     302.4899   -1479.1939    533.32634     430.9748    79.234385    34340.171 
  864500    308.27593   -1530.1409    526.50576    399.54346    264.56015    34340.171 
  864600    309.85547   -1517.3801    517.04265    410.03075    401.36905    34340.171 
  864700    298.83088   -1531.5586    510.96121     339.5902    483.90219    34340.171 
  864800    301.07238   -1569.2383    523.70347    324.85544   -255.14303    34340.171 
  864900    298.81572   -1479.1573    538.47613    419.43746   -320.23048    34340.171 
  865000    300.24291   -1522.7431    500.17744    344.04913   -275.24739    34340.171 
  865100     296.2535   -1526.9566    521.10948      342.609   -305.13873    34340.171 
  865200    303.51781   -1513.4868    513.74341    381.77771   -202.08954    34340.171 
  865300    301.55818   -1508.0829    495.76142    360.28003   -307.96269    34340.171 
  865400    304.65858   -1528.3449    554.67899    413.04759   -140.06478    34340.171 
  865500    297.04333   -1504.1722    512.04932    359.92829   -600.23337    34340.171 
  865600    303.53595   -1504.0738    518.77117    396.30103    -538.3281    34340.171 
  865700    293.49315   -1469.2372    541.08349    407.73816   -150.37977    34340.171 
  865800    301.60233   -1517.4128    531.05294    386.44259    116.53791    34340.171 
  865900    303.61351   -1533.2064    514.30549    363.05582    495.61761    34340.171 
  866000    308.29676   -1541.4371    523.71115    385.54747    11.709205    34340.171 
  866100    304.36579    -1515.879    529.64249    399.14438    224.77692    34340.171 
  866200    300.51315   -1533.5514    525.63578    359.92922   -4.5749923    34340.171 
  866300    293.40246   -1547.1533    482.95049    271.27625   -460.05552    34340.171 
  866400    298.06931   -1538.8036    517.53419    335.45173   -1067.5607    34340.171 
  866500    298.43504   -1562.4313    510.24872    306.20327   -449.97976    34340.171 
  866600    304.84386   -1525.1302    520.28689    382.71358    -79.49837    34340.171 
  866700    305.20752   -1489.3607    517.79213    417.64356    304.42992    34340.171 
  866800     302.3258   -1512.9335    550.58289     413.7448    19.068109    34340.171 
  866900    290.72483   -1522.4828     548.0778    348.88629   -1.9271833    34340.171 
  867000    304.01357   -1477.6405    526.92789    433.06501   -12.106594    34340.171 
  867100    297.35846    -1496.512    559.63089    416.60446   -549.31179    34340.171 
  867200    308.14612   -1484.4602    521.53436    439.66195   -468.10059    34340.171 
  867300    293.55148   -1517.2953     532.9376    351.79969   -307.38784    34340.171 
  867400    291.71071   -1550.5369    526.93159    304.17345   -11.075216    34340.171 
  867500    307.98085   -1556.3328    515.82921    361.33192    33.855793    34340.171 
  867600    287.61172    -1555.775    517.65486    271.00119    18.014181    34340.171 
  867700    308.07158    -1564.361    520.75468    358.64213    227.90137    34340.171 
  867800    307.31032   -1584.3547     516.7959     331.2246     16.78199    34340.171 
  867900    310.41911    -1571.542    505.68339    347.07508     386.2848    34340.171 
  868000     298.8696   -1536.3398    516.67815    340.70218    557.00028    34340.171 
  868100    304.95469   -1568.0577    512.39966    332.40328    769.76451    34340.171 
  868200     313.4984   -1528.7053     558.3674    456.61182    118.16091    34340.171 
  868300    297.02797   -1501.1989    524.46682    375.24925   -132.79903    34340.171 
  868400    305.66194   -1523.3593    526.97394    394.89519    331.35782    34340.171 
  868500     296.4985   -1506.4117    539.64749    382.80715    462.15752    34340.171 
  868600    291.53958   -1519.5218    525.16457    332.64261    472.82243    34340.171 
  868700    307.66998    -1479.004    522.84471    444.26122    180.44118    34340.171 
  868800    297.37523   -1511.5969    523.25721     365.2223    63.599014    34340.171 
  868900    293.69135   -1539.6397    540.53564    337.68998    90.009013    34340.171 
  869000    294.87894   -1499.1439    534.13747    377.19313    171.21838    34340.171 
  869100    293.97341     -1522.06    506.03623    322.05407   -269.33942    34340.171 
  869200    293.57156   -1514.9926    504.82427    326.08042   -248.80125    34340.171 
  869300    300.45729   -1542.1355    544.03197    369.48697   -168.50629    34340.171 
  869400     307.3898   -1509.4117    516.96513     406.6986   -484.83929    34340.171 
  869500    308.72956   -1543.5551    523.86692    385.55519   -426.15654    34340.171 
  869600    286.97696   -1515.8657    519.20791    309.57436   -442.95982    34340.171 
  869700      297.796    -1496.992    537.53335     396.0185   -726.55633    34340.171 
  869800     297.4685   -1523.3064    518.10721    348.78726   -677.93314    34340.171 
  869900    300.75339    -1534.378    505.32157    339.88186   -373.17502    34340.171 
  870000    302.72822   -1520.9693    520.33493    377.29276   -449.32268    34340.171 
  870100    294.19868    -1503.687    505.71764    341.13389     -768.724    34340.171 
  870200    295.93234   -1511.9542    536.39051    371.43059   -155.21064    34340.171 
  870300    300.10138   -1517.8663    544.48028     392.5845   -224.25387    34340.171 
  870400    308.03078   -1538.2206    506.03772    369.87991   -1.2368169    34340.171 
  870500    302.63545   -1523.6121    519.24771    373.14041   -587.89559    34340.171 
  870600    297.01726   -1504.0431    525.17933    373.06879   -619.49878    34340.171 
  870700    292.84072    -1538.133    496.44496     291.2342   -43.102049    34340.171 
  870800    298.33087   -1518.5255    526.70623    366.09241   -403.18835    34340.171 
  870900    321.18751   -1492.0079    530.12981    500.07013   -196.21388    34340.171 
  871000    299.58519   -1497.0552    531.54158    398.10737    169.26763    34340.171 
  871100    293.36884   -1529.7786    540.67896    346.22638   -105.32133    34340.171 
  871200    289.83413   -1525.5084    534.00682    327.73554    631.42134    34340.171 
  871300    313.65654   -1530.5577    514.26285    411.37466    797.41011    34340.171 
  871400    299.14594   -1526.8569    553.68604    388.45079   -8.9940303    34340.171 
  871500    304.09222   -1534.8902    526.29801    375.54338   -190.93945    34340.171 
  871600    301.00017   -1518.5833    519.36716    370.84543   -6.3289104    34340.171 
  871700    293.01987   -1521.8344    533.17332     345.0766    430.47309    34340.171 
  871800    304.11292   -1504.6992    543.87847    423.40913   -443.88235    34340.171 
  871900    299.83011    -1525.334    515.17404    354.57581   -410.29624    34340.171 
  872000    308.02842   -1521.3425     515.3617    396.07122   -481.58264    34340.171 
  872100    298.95197   -1493.2574    532.54097    400.02234   -613.68804    34340.171 
  872200    316.18233   -1506.3825    546.90328    479.68691   -330.08326    34340.171 
  872300    297.84894   -1495.7581    542.87162    402.83164   -442.64252    34340.171 
  872400    308.81194   -1463.2187    510.84645    453.24612   -240.00568    34340.171 
  872500    303.06263   -1493.1749    537.09785    423.37221   -555.73872    34340.171 
  872600    298.74143   -1529.4414    530.25932    360.59842   -1069.4173    34340.171 
  872700    304.41775   -1503.0586    530.08358    412.64233   -724.82996    34340.171 
  872800    300.09545   -1520.5191    512.67519    358.09961   -777.70724    34340.171 
  872900    293.37445     -1492.54    522.03407    364.84561    50.283159    34340.171 
  873000    294.67499   -1490.1405    558.27616    409.40693    91.658991    34340.171 
  873100    300.18768   -1494.8641    530.19234    401.69163   -632.96172    34340.171 
  873200    302.27989   -1526.7728    495.44875    344.56242    94.290212    34340.171 
  873300    292.66853   -1523.2559    529.16997    338.05253   -453.37293    34340.171 
  873400      293.794   -1491.4467    502.96525    348.77985   -262.27229    34340.171 
  873500    308.91369   -1512.5389    510.41603    403.95867   -71.527579    34340.171 
  873600    298.68042   -1540.0535    521.33017    340.77941   -501.24996    34340.171 
  873700    293.25478   -1501.3597     535.0377    368.48491   -255.73879    34340.171 
  873800    305.53017   -1533.6258    532.13805    389.19301   -129.78417    34340.171 
  873900    290.63831   -1483.5649    524.84187    364.17443    115.49708    34340.171 
  874000    301.29848   -1490.6869     530.1859     410.9184   -526.59569    34340.171 
  874100    296.35369   -1508.1152    546.44495    387.24191   -306.49752    34340.171 
  874200    293.42067   -1525.0285    515.96549      326.499    50.144687    34340.171 
  874300    308.78515   -1469.8704    557.97132    493.59739   -104.26716    34340.171 
  874400    293.51103   -1469.3371    553.02565    419.66181   -719.40391    34340.171 
  874500    299.00022   -1478.7791     539.2152    421.39448   -318.78855    34340.171 
  874600    304.51043   -1504.4799     543.9215    425.48083   -772.04697    34340.171 
  874700    300.97326   -1471.5396    507.57556    405.97504   -160.72529    34340.171 
  874800    306.50458   -1505.8776    539.81691     429.0553   -100.90448    34340.171 
  874900    299.10336   -1563.9647    531.18957    328.65268    39.898029    34340.171 
  875000    314.44488   -1551.4695    525.76281    405.55114    811.70955    34340.171 
  875100    296.46014   -1470.0138    534.95165    414.33459    381.55062    34340.171 
  875200    296.98902   -1480.7797    548.23537     419.2597   -811.88872    34340.171 
  875300    299.02615   -1505.9838    519.90065    374.99325   -1045.8978    34340.171 
  875400    305.43494   -1543.3358    517.10665    364.01807   -1362.6835    34340.171 
  875500    302.79278   -1532.3967    503.84242     349.6667   -753.93739    34340.171 
  875600    300.96717   -1542.0607    516.56263    344.41326   -546.92877    34340.171 
  875700    297.38956   -1537.9462    533.69523    349.37617   -122.18155    34340.171 
  875800    296.30618   -1521.8623    536.40126    363.23492    84.268594    34340.171 
  875900    286.04055   -1528.8965    548.98464    322.05803    517.39332    34340.171 
  876000    294.76024   -1503.3861    545.04153    383.31474    1065.0202    34340.171 
  876100    290.12263   -1540.1081    534.63334    315.07551    481.86543    34340.171 
  876200    306.69626   -1537.4318    509.61608    368.17277     48.66117    34340.171 
  876300    307.48729   -1513.9364    560.24933     445.9019   -89.932095    34340.171 
  876400    313.41789   -1502.4106    516.89258     441.0652   -3.4863357    34340.171 
  876500    306.29884   -1533.0758    534.36315     395.4668    95.705219    34340.171 
  876600    296.61994   -1512.8261     527.3332    364.63114   -457.02536    34340.171 
  876700    301.60886   -1499.2981    545.45374    418.98773   -567.91119    34340.171 
  876800    295.20994   -1510.4479     503.0771    336.33536   -411.58047    34340.171 
  876900     307.1591    -1490.659    544.98538    452.42157   -352.94917    34340.171 
  877000    294.07819   -1515.7667    530.73841     353.5265   -317.28352    34340.171 
  877100    302.98346   -1533.6183    528.75699    374.22759    740.64168    34340.171 
  877200    294.92427   -1526.9684    525.60757    341.04502    66.863944    34340.171 
  877300    292.67325   -1516.5442    497.12487    312.74062   -48.770495    34340.171 
  877400    305.85256   -1483.8797    518.00579    426.27427   -265.40794    34340.171 
  877500    299.85889   -1497.4864    544.32158    411.70202     -497.692    34340.171 
  877600    311.53765   -1514.6374    538.34214    441.72973    104.01737    34340.171 
  877700    308.37517   -1546.0945    511.25363    368.78944   -211.37489    34340.171 
  877800    304.42824   -1580.9242    515.36911    320.10994    48.116966    34340.171 
  877900    291.31657   -1517.1337    525.60232    334.45341   -132.02015    34340.171 
  878000    293.87362    -1523.697    524.43169    338.35836    300.81123    34340.171 
  878100    314.82379   -1504.0268    527.59747    456.55311    230.42075    34340.171 
  878200    299.67716   -1505.9667    530.32528    388.39814    626.41329    34340.171 
  878300    295.45654    -1499.102    534.87255    380.59918   -159.68027    34340.171 
  878400    291.86538   -1516.4212    519.97865    332.04021   -425.41061    34340.171 
  878500    291.66846   -1514.7718    515.71442    328.52904   -446.71328    34340.171 
  878600    302.13726   -1529.8866    525.97504    371.32568   -328.07564    34340.171 
  878700    301.77933   -1522.8498    518.81823    369.57646    565.59298    34340.171 
  878800    301.19655   -1504.5669    519.59515    385.98361    120.49106    34340.171 
  878900    301.68926   -1466.7365    547.73132    454.19293    741.06197    34340.171 
  879000    303.06199   -1464.6832     520.0092    434.77237    928.26704    34340.171 
  879100    295.98847     -1487.05     525.4799    385.67974    453.99432    34340.171 
  879200    303.53619   -1501.2548    518.21933    398.56925   -18.372111    34340.171 
  879300    302.01872   -1485.7941     532.4267    421.33027   -151.36646    34340.171 
  879400    310.35942   -1487.5081    528.23949     453.3934    305.04146    34340.171 
  879500    295.25895   -1443.2069     524.9751    425.69744    404.72029    34340.171 
  879600    303.32193    -1498.056    529.66062    412.23411   -50.537547    34340.171 
  879700     297.2327   -1508.3269    554.07508    398.66141    120.08433    34340.171 
  879800    309.88228   -1457.2508    522.74286    475.98234    -207.7846    34340.171 
  879900    302.81435   -1483.6699    561.21452    455.86382   -307.12528    34340.171 
  880000    300.59876   -1482.8749    519.92005    405.27965    135.13705    34340.171 
  880100    309.29595   -1512.0019    554.24514    450.06462     241.9454    34340.171 
  880200     293.0696   -1541.1048    539.00421    331.86343    359.63393    34340.171 
  880300    298.29736   -1508.7903    558.50381    407.47263    257.97861    34340.171 
  880400    302.76978   -1517.2664    542.26199     403.1119     167.0848    34340.171 
  880500    306.90821   -1489.9258    551.19019    458.21753    119.51468    34340.171 
  880600    299.81169   -1554.1002    520.38773    330.93955   -150.88349    34340.171 
  880700    307.53385   -1549.7427    542.25488    392.31308   -388.85414    34340.171 
  880800    303.99498   -1524.5691    541.23278    400.35668   -246.19949    34340.171 
  880900    304.27707   -1522.6288    536.21052    398.55876   -345.28356    34340.171 
  881000    303.66175   -1519.1773    516.02774    379.02668   -248.02835    34340.171 
  881100    306.91482   -1521.9162     563.7539    438.82097   -60.124316    34340.171 
  881200    299.98131   -1527.3341    529.63281    367.72273    52.904412    34340.171 
  881300    296.09567   -1585.2495    527.79732    290.28553   -63.959971    34340.171 
  881400    303.76177   -1544.7169    504.88589     342.8005    155.64423    34340.171 
  881500    297.20522   -1574.6731    524.59643    302.71137   -570.78937    34340.171 
  881600    299.37111   -1555.3406    508.23863    315.54459   -715.68484    34340.171 
  881700    296.70045   -1559.4619    538.70333    329.73197   -449.79243    34340.171 
  881800    303.82824    -1524.409    557.99087    416.51594   -32.305768    34340.171 
  881900    289.43343   -1538.0814    526.72834    306.06017    73.179466    34340.171 
  882000    299.98276   -1528.6383    518.10772    354.90001    488.26875    34340.171 
  882100    294.35429   -1560.1367    510.32078    289.99566   -219.68551    34340.171 
  882200    300.96414   -1545.8902    538.67404    362.68135   -546.49977    34340.171 
  882300    290.73508   -1550.0054    529.04423    302.37686   -322.96999    34340.171 
  882400    302.65056   -1550.5049    561.94747    389.01625   -296.73905    34340.171 
  882500    303.52149   -1498.7626    540.97052    423.74575    123.22471    34340.171 
  882600    304.67263   -1529.1247    518.74271    376.39549   -320.46737    34340.171 
  882700    301.82941   -1506.7709    532.22995    399.29508   -116.34411    34340.171 
  882800    292.29251   -1512.8976    533.38753    350.91686   -156.00111    34340.171 
  882900    294.69159   -1491.8436    539.32025    388.82342    555.02058    34340.171 
  883000    299.17328   -1516.8351    517.11296    362.02391    108.83592    34340.171 
  883100    302.58699   -1498.7512    566.31152    444.84467    184.25046    34340.171 
  883200    304.19684   -1499.0156    527.17264    412.76886    -247.4766    34340.171 
  883300    304.10204    -1534.826    552.37027    401.72461    365.72092    34340.171 
  883400    293.52617   -1563.1607    527.94524    300.82669    16.268126    34340.171 
  883500    300.93202   -1586.3957    543.56198    326.91767   -468.67426    34340.171 
  883600    299.30826   -1555.5721     522.2475    329.03586    156.37365    34340.171 
  883700    301.45581   -1589.0088    533.07684    316.20358    110.75184    34340.171 
  883800    305.46413   -1578.8475     526.7286    338.26124    528.28667    34340.171 
  883900    295.27207   -1574.6989    525.14759     294.4377    313.26866    34340.171 
  884000    301.41833   -1533.1236    534.91465     373.7559    558.74852    34340.171 
  884100    296.63424   -1582.6725    528.88132    296.39798    778.44211    34340.171 
  884200    299.03451   -1592.9744    507.56474    275.70481    851.81688    34340.171 
  884300    305.36326   -1550.5458    530.48304     369.8583    515.19745    34340.171 
  884400     289.8797   -1594.2773    530.67989    255.84718   -379.25223    34340.171 
  884500    304.48955   -1614.1361    533.68735    305.49541    -295.1784    34340.171 
  884600    294.67582   -1567.4113    510.84625    284.70995    198.46752    34340.171 
  884700    314.54353   -1524.0949    504.84377    412.45569    721.14541    34340.171 
  884800    308.77953   -1564.4019    511.77155    352.84053    229.17919    34340.171 
  884900    303.60509   -1574.2846    523.96654    331.60036    37.387277    34340.171 
  885000    296.02697   -1575.7776    511.05582    282.70326    484.84324    34340.171 
  885100    303.11248   -1577.6701    533.45546    335.46145    176.24511    34340.171 
  885200    296.64099   -1560.5361    489.57469    279.25843    75.382619    34340.171 
  885300      296.337   -1533.2114    534.92062    350.54538   -199.31334    34340.171 
  885400     301.6597   -1562.5236    540.60442    351.14434    154.83882    34340.171 
  885500    305.07591   -1592.1695    528.11656    324.56011    181.17621    34340.171 
  885600    301.78528   -1552.1535    527.14021    348.62182   -335.01555    34340.171 
  885700    298.52668   -1539.0232     515.3918    335.17158    -817.2812    34340.171 
  885800    318.21668   -1575.5177    548.20547    421.11368   -502.00927    34340.171 
  885900    293.60315   -1572.3084    506.47893    270.56312   -791.28673    34340.171 
  886000    301.98782   -1537.5096     510.8163    347.86377   -312.75667    34340.171 
  886100      309.274   -1562.2647    518.87919    364.33598   -452.19869    34340.171 
  886200    299.24862   -1586.4112    528.64929    304.32709   -460.23286    34340.171 
  886300     301.0871   -1591.3456    534.01621     313.1278    117.50596    34340.171 
  886400    302.78301   -1563.0006    524.66855    339.84451    200.95709    34340.171 
  886500    296.93581   -1573.3272     528.8985    307.13314    416.59623    34340.171 
  886600    300.17544   -1561.9311    508.06152    312.43803    158.81317    34340.171 
  886700    297.96248   -1540.4786    515.35729    331.11359   -356.02878    34340.171 
  886800    307.12802   -1599.9546    528.85942     326.8585   -218.57665    34340.171 
  886900     282.4483   -1554.9778    540.98995    271.63119    254.21059    34340.171 
  887000     293.3363   -1622.5325    516.48831    229.13369   -543.06777    34340.171 
  887100    298.73673   -1564.3092    526.95004    322.39993   -58.851651    34340.171 
  887200    293.85577   -1537.4949    546.14005    346.18754   -476.48852    34340.171 
  887300    293.77099   -1561.6455    516.06327    291.57431   -80.816927    34340.171 
  887400    289.17453   -1572.7819     525.0771       268.53    270.08025    34340.171 
  887500    293.53333   -1553.3387    536.72159    319.45763    846.47025    34340.171 
  887600    299.10153   -1534.5202    526.92315    353.82244     793.4198    34340.171 
  887700    294.07091   -1574.5841    511.90208    275.83962    745.98372    34340.171 
  887800     302.0607   -1562.3096    527.68207    340.26123    547.80571    34340.171 
  887900    290.40744   -1585.8313     516.0385    252.05383    93.064751    34340.171 
  888000    291.72338   -1579.9882    545.38924    293.23751    568.53711    34340.171 
  888100    298.71743   -1547.8227    566.41495    378.26342    744.71824    34340.171 
  888200    299.03328   -1565.2507    537.14254    333.00076     245.7666    34340.171 
  888300    303.75424   -1554.8124    537.07845    364.86322   -517.46773    34340.171 
  888400    301.42198   -1577.3895     537.2855    331.87746   -226.49123    34340.171 
  888500    297.93683   -1535.7921    510.04993    330.37599   -478.70598    34340.171 
  888600    304.59264   -1541.3699    527.90739    372.95088   -711.76497    34340.171 
  888700    298.26803   -1575.0499    526.98775    309.56358   -367.11857    34340.171 
  888800    307.54406   -1554.2025    525.75064    371.39547    310.59365    34340.171 
  888900    296.11798   -1549.9496     517.5379    315.42763    300.85231    34340.171 
  889000     305.1992   -1536.5623    548.22565     400.8376     282.9901    34340.171 
  889100    290.22664   -1553.4742    537.28557    304.83512    117.19966    34340.171 
  889200    292.78521   -1536.0295     524.7576    321.39767   -939.81052    34340.171 
  889300    298.23071   -1496.5181    535.43219    396.36992   -203.14216    34340.171 
  889400    299.31189   -1520.1239    550.59601    392.84911    79.117134    34340.171 
  889500    294.44488   -1524.7993    531.74271    347.16728    972.09982    34340.171 
  889600    310.81288   -1568.6121    525.23904      371.353    464.35285    34340.171 
  889700    307.27062   -1564.0658    545.54325    380.08014    216.37702    34340.171 
  889800     285.6111   -1528.1808    514.92549    286.75984    626.63242    34340.171 
  889900    297.02198   -1520.8377    548.36482    379.48121    622.11802    34340.171 
  890000     307.5921   -1557.6372    536.71951    379.14829    320.44015    34340.171 
  890100    292.00611   -1540.2254    532.95063    321.84854    491.75677    34340.171 
  890200    297.52383   -1550.8414    517.52813    320.92506    582.97265    34340.171 
  890300    286.85633   -1566.1086    511.75323    251.32773    394.53078    34340.171 
  890400    296.89904    -1559.024    497.10001    289.47046    287.53641    34340.171 
  890500    299.58124   -1534.0294    552.04946    381.62309    214.89272    34340.171 
  890600    292.84133   -1628.6132    501.45813    205.76992    36.304723    34340.171 
  890700    300.36964   -1568.9116    562.80411    361.08412    122.72738    34340.171 
  890800    304.72129   -1581.7876    551.10831    356.31961    183.81437    34340.171 
  890900    303.20812   -1529.2794    531.20288    382.03494    170.23424    34340.171 
  891000    298.07764   -1485.7142    548.82116     419.8661   -797.14461    34340.171 
  891100    304.05481    -1538.935    539.79376    384.82411   -351.63706    34340.171 
  891200    294.27856   -1517.7589     512.7402    334.44814   -380.33596    34340.171 
  891300    301.52652   -1490.6949    536.90554    418.66803   -897.09645    34340.171 
  891400     293.0675   -1525.2541    539.53757     348.2379   -233.36662    34340.171 
  891500    297.27944   -1548.6828    512.10389      316.547    26.991152    34340.171 
  891600    312.01026   -1501.3544    538.85484    457.67661   -417.29915    34340.171 
  891700    292.44671   -1546.2876    533.76694    318.60812    -298.7612    34340.171 
  891800    300.70337   -1467.3001     541.6606    443.07114    319.95226    34340.171 
  891900    305.75094   -1551.5618    527.47528    367.59911   -337.94332    34340.171 
  892000    292.76911   -1567.1913    510.63528    276.04023    48.540169    34340.171 
  892100    303.46702   -1542.5114    545.64811    384.42665   -122.17957    34340.171 
  892200    312.38921   -1529.9304    487.78039    379.75102   -18.163825    34340.171 
  892300    297.96699   -1462.5853    537.88575    431.55586   -242.88604    34340.171 
  892400    305.06011   -1545.4258    510.79225    353.90765   -653.89588    34340.171 
  892500     311.7255   -1536.9391    519.63536     401.5762   -362.04701    34340.171 
  892600    298.29715   -1520.1967    554.22444    391.78595    297.76197    34340.171 
  892700    298.94853   -1519.4714    538.33406     379.5858     700.4868    34340.171 
  892800    299.32838   -1541.7169    514.07057    334.80576    192.79729    34340.171 
  892900     297.9628   -1525.5551    539.88506    370.56636    665.44657    34340.171 
  893000    297.84688   -1556.7468    519.86308      318.825     719.5117    34340.171 
  893100    294.16095   -1522.7599    554.92785    371.09943    295.42724    34340.171 
  893200    289.24077   -1536.6992    587.00376     366.8409    339.16167    34340.171 
  893300    302.65284   -1567.1761    546.96435    357.37227    76.282927    34340.171 
  893400    298.40474   -1592.2689    537.72122    303.70022    294.52747    34340.171 
  893500    300.27055   -1557.8464     519.9321    328.82621   -245.15627    34340.171 
  893600    302.32276   -1549.6979    528.67795    355.06162    -178.1198    34340.171 
  893700    298.17098   -1529.4128    540.89644     368.6676     111.2384    34340.171 
  893800    301.77188   -1568.1959    502.62718    308.00545   -410.74911    34340.171 
  893900    301.14733   -1527.1853    554.90482    398.45087   -407.42655    34340.171 
  894000    309.87284   -1575.3837    501.59522    336.65874     656.9174    34340.171 
  894100    300.80934   -1539.3278    535.57794    365.44313    881.75875    34340.171 
  894200    297.23735   -1512.8561    548.61738    388.69563    94.262095    34340.171 
  894300    292.91913    -1531.125    516.44992    318.60402    376.30849    34340.171 
  894400    309.09419   -1519.4835    525.04754    412.46715    540.69912    34340.171 
  894500    307.88516   -1476.0371    546.04683    471.40966   -558.77954    34340.171 
  894600    304.21281   -1514.7713    545.21576    415.12898   -578.31378    34340.171 
  894700    299.46224    -1570.486    517.80892    310.38427    -807.0277    34340.171 
  894800    289.50618   -1520.1812    533.86909    331.43228   -280.71163    34340.171 
  894900     301.1777   -1526.2969    552.05786     396.6306   -768.15276    34340.171 
  895000    302.42125   -1465.5509    568.80096    479.77988   -243.93216    34340.171 
  895100    298.39726   -1469.7398    532.82153    421.29565   -620.28971    34340.171 
  895200    296.48086   -1504.4198    535.85243    380.92369   -139.27545    34340.171 
  895300    310.81885   -1545.9993    534.08841    402.84231   -627.07325    34340.171 
  895400    296.01159   -1489.5656    504.53642    362.32592   -729.93654    34340.171 
  895500    304.82291   -1453.0196    531.15036    465.59229   -1082.8802    34340.171 
  895600    304.33133   -1531.3503    544.35461     398.2283   -648.02645    34340.171 
  895700    297.57263   -1582.4306    499.59473    271.62456   -695.16687    34340.171 
  895800    310.10997   -1560.0433    552.58298    404.06626    -817.1666    34340.171 
  895900    300.20208   -1574.5917    528.33354    320.17067   -618.80175    34340.171 
  896000    297.64534   -1571.3864    550.09536    333.50031   -832.41477    34340.171 
  896100    297.50247   -1564.6392    545.30991     334.8118   -980.73173    34340.171 
  896200     300.8863   -1541.0865    513.49786     341.9546   -838.67311    34340.171 
  896300    299.91977   -1565.3057    540.50044    340.33866   -263.40714    34340.171 
  896400    298.33739   -1584.9549    513.82841    286.81485     211.7083    34340.171 
  896500    293.43115   -1557.3366    525.80381    304.07687    307.21985    34340.171 
  896600     308.5264   -1560.7017    544.78922    388.40617   -77.381836    34340.171 
  896700    290.87219   -1521.3306    496.16769     298.7992    97.212177    34340.171 
  896800    307.37048   -1566.2715    506.62446    339.41022   -126.03946    34340.171 
  896900    299.32345   -1543.5722    546.96551    365.82297   -325.73355    34340.171 
  897000    308.49003   -1555.4295    536.60478    385.32836   -451.44301    34340.171 
  897100    299.59341   -1553.6393    526.52979    336.54895   -682.08027    34340.171 
  897200    310.11823   -1557.8096    507.15242    360.90701   -467.35376    34340.171 
  897300    309.51728   -1560.1713    528.52613    377.18364   -363.55253    34340.171 
  897400    301.59545   -1612.8052    514.25006     274.2159   -406.77114    34340.171 
  897500    304.88031   -1572.6798    536.14046    351.18345    18.648876    34340.171 
  897600    306.22852   -1589.6627    515.12284    319.31959   -409.60111    34340.171 
  897700    300.55095   -1561.4409    500.88606    307.46204   -35.306852    34340.171 
  897800    300.10819   -1548.7758    520.17855    337.40431   -337.48962    34340.171 
  897900    296.72735   -1599.4242    497.10905    248.29785    -973.6405    34340.171 
  898000    294.98816   -1583.1502    511.59054    271.13701    218.06319    34340.171 
  898100    292.71146   -1606.9966    514.85942     240.1966      148.387    34340.171 
  898200    306.06586   -1614.9113    523.43233    301.64009   -510.47908    34340.171 
  898300    294.36009   -1562.5012    521.90616     299.2429     192.7761    34340.171 
  898400    287.46961   -1579.3598    524.72429    253.83907    -54.88693    34340.171 
  898500     297.2587   -1525.4862    537.22708    364.77242    425.02818    34340.171 
  898600    287.99471   -1547.5208    540.77782    304.12168    27.679223    34340.171 
  898700     299.8021   -1536.0944    549.41477    377.92871    23.842156    34340.171 
  898800    295.44209   -1521.9471    525.88116    348.69689   -203.87737    34340.171 
  898900    292.40748   -1540.0993    534.63739    325.48829   -291.85721    34340.171 
  899000    305.45421   -1540.6216    529.37207    379.08549   -686.11166    34340.171 
  899100    302.76738   -1486.1439    532.34278    424.30425   -1076.4708    34340.171 
  899200    300.56265    -1527.461    533.57758    374.18665   -933.33189    34340.171 
  899300    316.64108    -1534.206    511.89684    418.94507   -1468.2679    34340.171 
  899400    294.76555   -1517.9098    548.95455    372.72817   -842.93099    34340.171 
  899500    291.61641   -1542.0751    549.11815    334.39263   -301.51519    34340.171 
  899600    291.12952   -1590.0381    517.27862     252.3738    211.38935    34340.171 
  899700    300.93413   -1545.4498    505.24866    329.55977    431.41764    34340.171 
  899800     308.6695   -1586.6285    556.48206    374.82357    185.78015    34340.171 
  899900    306.08647     -1579.78    513.38455    326.81745    1220.0881    34340.171 
  900000    318.60966   -1550.4664    519.72165    419.46987     534.1025    34340.171 
  900100    294.79471   -1558.6153    564.20054    347.40148    317.19945    34340.171 
  900200    298.75062    -1565.059    534.08538    328.84865    514.33538    34340.171 
  900300    300.23024   -1553.3421     522.8311    336.04608   -575.64561    34340.171 
  900400    297.12569    -1578.285    530.24186    304.38294   -866.56963    34340.171 
  900500    307.24392   -1570.8613    512.77801    340.39788   -755.73856    34340.171 
  900600    300.91614   -1535.4317    531.58936    365.83669   -479.71044    34340.171 
  900700    310.64753   -1572.3517    527.85803    369.47978    514.95076    34340.171 
  900800     289.1971   -1554.0579    548.80417    311.08385    659.94119    34340.171 
  900900    298.39184   -1579.9062    532.05886     310.3419    228.03771    34340.171 
  901000    309.47854   -1524.4908    508.42471    392.58651   -624.74507    34340.171 
  901100    304.54924   -1542.9034    527.74051    371.05293   -72.199592    34340.171 
  901200    299.28567   -1566.9803    527.97049     323.2479    95.462885    34340.171 
  901300    310.45106   -1571.6559    535.50145    376.92468    347.27703    34340.171 
  901400    308.80498   -1557.7446     529.8489    377.69094    -12.65407    34340.171 
  901500    308.25942   -1588.5963    519.32642    333.83359    164.24104    34340.171 
  901600    291.02555   -1586.2302    489.18004    227.60997    412.48221    34340.171 
  901700    299.80829   -1565.3591    554.94769    354.22506    237.56454    34340.171 
  901800    298.14505    -1573.334     498.4543    282.18617    567.28006    34340.171 
  901900    304.47974   -1547.6411    529.52446     367.7829    644.23259    34340.171 
  902000     286.8432   -1575.7791    560.43903    290.28324     604.3502    34340.171 
  902100    305.44053   -1577.0477    508.75264    321.97769    935.82029    34340.171 
  902200    297.31971   -1582.6851    514.17012    284.79424    175.85811    34340.171 
  902300    312.36126   -1580.2426     502.6959    344.22706    393.82354    34340.171 
  902400    297.82786   -1574.9807    513.05674     293.6982    144.57008    34340.171 
  902500    310.47418   -1597.9336    530.75334    346.00412     46.74307    34340.171 
  902600    293.20806   -1556.0474    515.12196    293.66882    431.31792    34340.171 
  902700     296.8607   -1557.2484    537.34743      331.319   -290.03002    34340.171 
  902800    292.93018   -1553.8675    518.87006      298.332   -831.43004    34340.171 
  902900     303.5344   -1541.5409    511.12689    351.18254   -1193.5049    34340.171 
  903000    292.35665   -1545.2183    533.91383    319.41447   -1014.1885    34340.171 
  903100    297.38191   -1578.5372    501.15559     276.2107   -528.06221    34340.171 
  903200    294.39992   -1583.9804    542.56794    298.60681   -450.42409    34340.171 
  903300    288.35389   -1564.1784    542.59783    290.91892    -441.2997    34340.171 
  903400    297.88128   -1559.2627    513.51628    310.11886    -84.41409    34340.171 
  903500    309.53227   -1531.1732     499.0792    376.80312    268.01989    34340.171 
  903600    301.70186   -1532.3311    540.50171    381.42608    50.938718    34340.171 
  903700    297.60966   -1574.8532    510.45468    290.23042   -224.55893    34340.171 
  903800    295.00074   -1557.7703    508.21139    293.19506    320.31697    34340.171 
  903900    305.04755   -1525.0056    561.68984    425.16826    764.36604    34340.171 
  904000    314.89227    -1557.508    507.53007     383.3163    937.92057    34340.171 
  904100    304.76946   -1538.2422    495.96972    344.94571    353.91923    34340.171 
  904200    297.98876   -1495.8212    519.63787    380.17124     751.0797    34340.171 
  904300    303.95285   -1519.8968    521.61884    385.22332    328.99648    34340.171 
  904400    296.12205   -1528.8373    524.28676    343.30727   -515.35865    34340.171 
  904500     301.2539   -1544.6366    507.20987    333.78971   -221.30208    34340.171 
  904600    298.15897   -1487.8748    510.49613    379.75063   -474.74387    34340.171 
  904700    296.75992   -1504.6733    528.71639    374.80429   -144.59313    34340.171 
  904800    303.36918   -1547.0149    528.12651    361.95619   -559.93724    34340.171 
  904900    301.59666   -1517.8661    530.01812    384.92865   -31.670299    34340.171 
  905000    299.49477   -1507.9168     527.1427    382.43535    178.56581    34340.171 
  905100    309.26515   -1494.6378    519.75447    432.79794    435.63396    34340.171 
  905200    287.62775   -1475.7803    531.02501    364.43911    248.00471    34340.171 
  905300    299.35595   -1489.3838    512.32833    385.52209    506.99015    34340.171 
  905400    292.16083   -1512.8165    519.45693    336.46798   -202.40572    34340.171 
  905500     300.5979   -1491.3583    539.51683    416.38909    213.30634    34340.171 
  905600    314.54897   -1531.8396    530.64639    430.53838    299.79199    34340.171 
  905700    298.47781   -1553.2058    544.90623    350.28095    553.74917    34340.171 
  905800    297.86943    -1529.631    507.47602    333.65638    895.71401    34340.171 
  905900    301.24688   -1558.9297    551.09299    363.34781    742.08682    34340.171 
  906000    310.17057   -1542.3788    522.44462    391.86826    169.07655    34340.171 
  906100    299.94566   -1553.3734    518.42208    330.31046   -146.81005    34340.171 
  906200    311.83192   -1533.2718    507.71875    393.81135   -350.06309    34340.171 
  906300    300.64691    -1526.155    536.67138       378.97   -201.20426    34340.171 
  906400     299.1079   -1564.5177    532.85179     329.7826    -706.9567    34340.171 
  906500    309.11686   -1546.4424    514.19435    374.75816     683.3499    34340.171 
  906600    300.27348   -1514.8846    556.13106    408.00033    280.09285    34340.171 
  906700    290.86748    -1557.064    570.70087    337.57753   -210.26176    34340.171 
  906800    296.47862   -1539.0016    523.69682    334.17602     58.22167    34340.171 
  906900    300.67755    -1532.137    560.52119     396.9773    171.49795    34340.171 
  907000    298.70659    -1548.723    523.50239    334.40129   -104.94322    34340.171 
  907100    304.41075   -1524.3869    568.45861    429.65718   -22.386363    34340.171 
  907200     297.7333   -1535.0078    506.41074    326.59462    35.992487    34340.171 
  907300    306.67839   -1560.5337    528.00316    363.37654    503.71568    34340.171 
  907400    308.06035   -1576.3039    521.17312    347.06652    281.23835    34340.171 
  907500    302.15216   -1557.3449     550.3606    368.32074    173.50118    34340.171 
  907600    291.13673    -1600.854    548.99245    273.30464    414.01444    34340.171 
  907700    295.15902   -1605.5009    512.94003    250.91354    11.601041    34340.171 
  907800    302.74074   -1522.3814    549.03701    404.63973   -446.39895    34340.171 
  907900    294.72895   -1530.6089    548.40704    359.31496   -1027.2226    34340.171 
  908000    311.26306   -1499.8476    542.08148    459.00896    -401.4445    34340.171 
  908100    300.62574   -1499.6778    566.74088     435.4203   -270.38668    34340.171 
  908200    290.25339   -1524.5717    544.04128    340.61506      101.794    34340.171 
  908300    295.80644   -1543.3768    529.61922    332.66364    85.058034    34340.171 
  908400    310.40016    -1501.214    535.54334     447.1768    133.77366    34340.171 
  908500    305.37033   -1511.9943    550.12409    428.08298    338.73094    34340.171 
  908600    304.18663   -1531.2904    539.58741    392.86238    297.69377    34340.171 
  908700    295.19298   -1484.9213     544.7101    403.41775    104.51502    34340.171 
  908800    299.21236   -1522.9979    552.01513    390.94123    240.82526    34340.171 
  908900    298.63672   -1537.8228     521.0594    342.54042    75.657514    34340.171 
  909000    305.13729   -1526.8444    532.34973    394.39774    51.599799    34340.171 
  909100    310.93563   -1558.1891    530.64886    387.74456    3.1953462    34340.171 
  909200     300.6699   -1545.3046     530.4048     353.6585   -493.21149    34340.171 
  909300    290.42164    -1507.714    530.62438    344.82167   -419.21754    34340.171 
  909400    286.79813   -1555.5147    578.53614    328.43959   -196.93278    34340.171 
  909500     299.4828   -1490.7034    541.06559    413.51719   -294.97605    34340.171 
  909600    303.69428   -1493.7347    531.74413    420.33376   -34.819844    34340.171 
  909700    302.82938   -1533.5552    530.38817    375.22057    151.29247    34340.171 
  909800    302.91204      -1530.3    509.18873    357.65258   -27.309497    34340.171 
  909900    295.21231    -1551.176    504.70593    297.24686     100.7006    34340.171 
  910000    287.37952   -1541.2337    541.19623    308.02695   -64.169161    34340.171 
  910100     297.2122    -1544.641    546.12498    354.30386   -286.75112    34340.171 
  910200    311.33851   -1544.4586    514.46841    387.12831   -346.62428    34340.171 
  910300      297.795   -1541.0208    554.45484    368.90662   -286.84852    34340.171 
  910400    307.10643   -1547.2312     533.6897    384.31392    161.02861    34340.171 
  910500    304.39536   -1563.1166    535.87811     358.2769   -41.838866    34340.171 
  910600    306.42966   -1580.3226    529.54863      344.001    14.479542    34340.171 
  910700    305.42065   -1555.3867    550.23994     385.0355    160.11988    34340.171 
  910800    303.36888   -1556.6391    539.46202    363.66617   -55.337625    34340.171 
  910900    305.65228   -1578.1733    562.27708    375.34033   -260.79319    34340.171 
  911000    310.65405   -1544.3928    519.70006    389.31039   -287.03987    34340.171 
  911100    303.63099   -1567.3732    548.81196    363.47498    -95.61948    34340.171 
  911200     304.6137    -1597.332    547.50467    336.68197   -153.32087    34340.171 
  911300    304.40923   -1572.8023    537.86625    350.64254   -524.82459    34340.171 
  911400    302.78218   -1572.2881    517.02729    322.91196   -406.25435    34340.171 
  911500    295.77865    -1608.414    544.65549    282.53621    29.212683    34340.171 
  911600     296.3112   -1603.7653     535.8618    280.81529   -155.62328    34340.171 
  911700    297.73441   -1611.2726    552.63797    296.56219    86.467658    34340.171 
  911800    298.81193   -1617.5414    529.58863    272.14858     44.77249    34340.171 
  911900    296.13436   -1660.6931    549.38886    236.60961    378.19477    34340.171 
  912000    291.35543   -1614.4203    548.60805    260.34935   -588.70802    34340.171 
  912100    294.62543   -1588.4392    541.08501    293.69151   -930.69743    34340.171 
  912200    304.94276   -1576.7787    545.81757    357.04586   -611.31227    34340.171 
  912300    295.93992   -1547.5369    557.97217    357.46407   -743.82122    34340.171 
  912400    290.87554   -1588.4058    569.70243    305.27399   -363.14626    34340.171 
  912500    308.58336     -1559.27    583.00593    428.31388    435.57138    34340.171 
  912600    304.62936   -1531.2093    546.28069    401.65192    589.44039    34340.171 
  912700    297.65276   -1540.7921    532.47579    346.50879    367.31345    34340.171 
  912800    305.25209   -1564.9935    552.42389    376.84536    781.01432    34340.171 
  912900    292.24567   -1559.3152    537.46369    308.36218    370.35631    34340.171 
  913000    298.58305   -1550.7467    572.61159     380.9245   -4.0850532    34340.171 
  913100    296.21028   -1541.4039    537.62266    344.47821   -420.01553    34340.171 
  913200    308.04638   -1579.7156    550.92449    373.34265   -643.33098    34340.171 
  913300    301.72368   -1560.1307    536.04344    349.26753   -417.84511    34340.171 
  913400    295.06455    -1602.263     533.7648    274.54627   -780.42474    34340.171 
  913500    298.55635   -1605.2155    552.70887    306.43142   -98.190601    34340.171 
  913600    303.95573   -1570.6574    522.27478    335.13176   -602.77577    34340.171 
  913700     287.8028   -1548.7788    525.66306    286.87543    61.681332    34340.171 
  913800    305.11981   -1556.7416    531.37793    363.44927   -500.37178    34340.171 
  913900    300.66242   -1601.5571    541.90065    308.86779    127.15862    34340.171 
  914000     305.0225   -1578.8492    561.68275    371.20356   -16.369196    34340.171 
  914100    308.26363   -1549.2839    540.89241    394.73109   -397.25411    34340.171 
  914200    302.88343   -1554.1778    518.03208    342.48784    262.48454    34340.171 
  914300    294.38899   -1564.0974     534.4758    310.34791    768.84167    34340.171 
  914400     305.3861   -1551.3134    552.71106    391.42266    911.36585    34340.171 
  914500    297.46909   -1514.0314    549.32697     389.2847   -280.25719    34340.171 
  914600    293.18943   -1576.5643    525.65089    283.59606    -179.9775    34340.171 
  914700     303.6724   -1530.0047    541.56751     393.7876   -539.86207    34340.171 
  914800    292.96908   -1541.6235     558.1823    350.06521    427.23273    34340.171 
  914900    311.32903   -1558.1876    533.54775    392.43552   -430.00754    34340.171 
  915000    296.97954    -1575.578    527.86135    304.04423   -26.433231    34340.171 
  915100    306.91177   -1522.7293    535.65751    409.89759    189.39617    34340.171 
  915200    293.70202   -1571.8481    524.58333    289.57786   -574.97065    34340.171 
  915300    302.72998   -1578.5357    523.71593    323.11538   -208.56415    34340.171 
  915400    297.13456   -1544.6753    530.30024    338.09142   -787.61698    34340.171 
  915500    293.58271   -1517.8091    533.45737    351.94778   -220.82527    34340.171 
  915600     302.3265    -1554.401    515.60554    337.30309    -46.66831    34340.171 
  915700    310.79301   -1537.0778    525.07626    402.63407    414.48348    34340.171 
  915800    294.04394   -1566.5859    549.45459    321.26764    139.86699    34340.171 
  915900    301.58372   -1527.7994    551.16461    396.08291    367.62575    34340.171 
  916000     307.5646   -1559.7983    511.23443    351.37701    482.85961    34340.171 
  916100      294.451   -1528.5702    543.97308    355.65457    718.16622    34340.171 
  916200     293.1314   -1514.5411    540.31119    360.01537    178.75715    34340.171 
  916300    305.13483   -1549.2624     532.0448    371.66361   -180.05364    34340.171 
  916400     306.7637   -1574.8657    524.09323    345.52294    -429.6102    34340.171 
  916500    299.97811   -1554.0261    528.92183    340.30519    27.401641    34340.171 
  916600    301.09569    -1603.389    541.98245    309.08976    19.214942    34340.171 
  916700    293.34269   -1569.3102    529.57336    295.47014   -613.84251    34340.171 
  916800    301.38677   -1541.0443    544.97358    375.75046    474.21837    34340.171 
  916900    290.78544   -1563.0688    514.16781    274.66623   -36.086588    34340.171 
  917000    288.35185   -1561.2573    539.63661    290.86956    537.18642    34340.171 
  917100    298.67853   -1631.1142    532.18138    260.56134    796.55465    34340.171 
  917200    297.34372    -1608.152    529.29198    274.55844    368.62586    34340.171 
  917300    299.18801   -1559.8877    520.34262    322.26808   -118.73375    34340.171 
  917400    285.68334   -1537.2165    560.75276    323.88027    92.332129    34340.171 
  917500    303.26181   -1550.9657    513.99551    343.38561    310.08991    34340.171 
  917600    302.44706   -1519.4488    513.24031    370.43885   -89.975321    34340.171 
  917700     296.4026    -1567.125    508.53891    290.54867   -417.46488    34340.171 
  917800    301.19363   -1546.0089    538.36463    363.29792   -327.62621    34340.171 
  917900    297.72629   -1564.7664    524.86923    315.26268   -793.77565    34340.171 
  918000    303.74119   -1554.5122    553.28316    381.30882   -559.52813    34340.171 
  918100    306.77557   -1586.5708    521.86839    331.64702    133.70075    34340.171 
  918200    303.19019   -1605.6646    497.13704     271.5023    -48.50546    34340.171 
  918300    297.97672    -1571.842    538.99007    323.44782   -57.528102    34340.171 
  918400    299.16961   -1601.9468    523.33216    283.11476   -238.37805    34340.171 
  918500    303.06863   -1567.3547    524.51953    336.64137    -430.3879    34340.171 
  918600    307.47275   -1572.4394    517.35297    344.43628    571.68665    34340.171 
  918700    291.80388   -1565.9574    522.75407    284.99954     327.6343    34340.171 
  918800    293.13113   -1612.2035    527.34004     249.3806    464.66708    34340.171 
  918900    286.08217   -1559.5826    520.17641    262.75314    709.64322    34340.171 
  919000    302.87136   -1519.1007    540.07727    399.55517   -133.68778    34340.171 
  919100    310.96369   -1485.7744    549.11405    478.75216    369.33158    34340.171 
  919200    301.04812   -1534.0129    518.74996    355.01692   -250.57724    34340.171 
  919300    291.10234   -1476.3317    543.60867    392.28663   -456.64151    34340.171 
  919400    304.69119   -1529.2503    528.88569    386.49734   -568.72066    34340.171 
  919500    299.76763   -1586.6039    538.51465    316.36218    97.540414    34340.171 
  919600    299.03513   -1567.2406     532.0228    325.89953   -335.48425    34340.171 
  919700    291.06383   -1506.4342    532.16535    350.56551    99.754022    34340.171 
  919800    295.14244   -1589.4734    517.24431    271.16986    220.81138    34340.171 
  919900    294.06138   -1548.8136    544.01092     333.6756    596.22216    34340.171 
  920000    304.90867   -1580.6646    530.78364    337.97092    34.543875    34340.171 
  920100     303.5517   -1550.4821    539.49961    370.69286    52.047208    34340.171 
  920200    301.23685   -1520.3098    542.06194    392.89102    611.90574    34340.171 
  920300    298.92729   -1527.0639    553.35102    386.91355   -81.011644    34340.171 
  920400    297.32942    -1522.411    536.38675    367.32915   -72.728022    34340.171 
  920500    297.56827   -1544.0745    544.48311    354.84914   -610.94057    34340.171 
  920600    294.28667   -1532.0676    536.21136    343.64753   -721.03014    34340.171 
  920700      307.348   -1520.3756     541.1366    419.71591     65.06321    34340.171 
  920800    289.64198   -1541.2246    534.94815    312.08612   -730.44345    34340.171 
  920900    300.06072   -1526.5779    514.31197     353.5196   -656.18433    34340.171 
  921000    300.91984   -1537.9135    519.40309     351.1855   -348.35134    34340.171 
  921100     296.2734   -1518.7699    532.76581    362.54266    -265.5892    34340.171 
  921200    306.85588   -1533.7212    522.51208     385.5059   -352.63908    34340.171 
  921300    300.78369   -1537.0504    524.35718    356.38295   -190.11525    34340.171 
  921400    298.06892   -1505.3428    518.67419    370.05075   -233.18683    34340.171 
  921500    289.26458   -1548.0015    525.71006    294.35323   -122.95056    34340.171 
  921600    307.34321   -1529.9483    523.96367    392.94845    419.38397    34340.171 
  921700     302.0261   -1559.5379     558.3605    373.55388   -327.92675    34340.171 
  921800    295.29182   -1530.2051    534.74823    348.62197   -644.91678    34340.171 
  921900    297.39266   -1554.2607    522.27734    321.65792   -520.97199    34340.171 
  922000    297.61686   -1524.7859    522.18019    352.05602   -249.50308    34340.171 
  922100    306.12442   -1517.6628    531.53316    407.25589   -266.43155    34340.171 
  922200    292.19475   -1557.0695    548.45741    321.36988      85.4628    34340.171 
  922300    288.82152   -1576.8415    527.48098    265.26746    400.90543    34340.171 
  922400    303.87587   -1540.1719    544.27907    387.25801    780.80248    34340.171 
  922500    299.53081   -1510.4756    547.64088    400.53872    719.86288    34340.171 
  922600    299.13396   -1492.3621    559.81345    429.01853    1936.4073    34340.171 
  922700    303.43243   -1573.9762    560.35867    367.51489    1059.0929    34340.171 
  922800    293.69158   -1564.6389    520.46105    292.61718    840.35445    34340.171 
  922900    301.68686   -1552.9959    540.35809    360.54932    1010.4259    34340.171 
  923000    287.07271   -1529.9707    560.30731    337.00456    647.47488    34340.171 
  923100    299.69369   -1564.5569    537.85451    337.41244    582.57191    34340.171 
  923200    294.24245    -1536.915    543.91428    346.30174    702.93793    34340.171 
  923300    305.98406   -1522.6317    551.31219    421.42722    716.69453    34340.171 
  923400    289.78592   -1522.3383    559.87392    356.55327    936.56067    34340.171 
  923500    304.72558   -1517.3868    573.23209    442.86382     384.9729    34340.171 
  923600    306.45132   -1529.7517    529.22523    394.34707    -360.2994    34340.171 
  923700    301.83364   -1549.2567    528.93456    353.53312   -42.391083    34340.171 
  923800    313.26217   -1525.9501    500.98365    400.90801   -430.10346    34340.171 
  923900    303.85539   -1518.3914    546.96279    411.62907   -124.51577    34340.171 
  924000    303.16118   -1524.4956    513.20582    368.60808    248.27503    34340.171 
  924100    295.57638   -1498.5213    530.54555    377.39837    420.31689    34340.171 
  924200    294.17244   -1559.4217    517.60625    297.16838    79.619478    34340.171 
  924300    299.14945   -1544.8296    548.39516    365.20314    236.46465    34340.171 
  924400    294.81381    -1525.143    513.00466    329.76476    -138.8136    34340.171 
  924500     303.8888   -1509.3262     544.9781    418.86166    182.69476    34340.171 
  924600    299.01312   -1486.9925    524.32781    398.35244   -66.751468    34340.171 
  924700    310.38544   -1518.0899    547.53037    442.22093     146.0743    34340.171 
  924800    295.71817   -1502.4823     534.6885    378.22565   -134.05737    34340.171 
  924900    305.49883   -1568.1066    550.98701    373.41856   -898.83248    34340.171 
  925000    293.55109   -1566.4598    534.45334    304.14917   -555.45911    34340.171 
  925100    315.93111   -1497.3709     535.1823    475.83409   -108.47185    34340.171 
  925200     296.0659   -1502.1311    526.04948    371.52062   -338.29648    34340.171 
  925300    300.67394   -1485.0253    560.12893    443.68026   -787.36307    34340.171 
  925400    293.58982   -1497.7577    520.81864    359.39281   -658.54573    34340.171 
  925500    307.51257   -1492.7827    534.93341    441.85469   -603.01259    34340.171 
  925600    307.79025   -1518.3869    550.67149    433.25256   -790.74681    34340.171 
  925700    302.67428   -1515.8696    527.94887    389.76086   -411.86594    34340.171 
  925800     299.3427   -1513.3483    543.47084    392.63981     15.93624    34340.171 
  925900    298.29908   -1584.3923    516.06885    289.44354   -244.79028    34340.171 
  926000    302.66966   -1574.0062    527.66308    331.31748    291.79599    34340.171 
  926100    302.24052   -1568.1117    532.90809    340.50365    703.36086    34340.171 
  926200    299.21979   -1560.7738    549.89995    351.08395    823.98532    34340.171 
  926300    296.13514   -1541.4465    532.66121    339.13217    696.46532    34340.171 
  926400    300.57307   -1527.2503    566.21255    407.07976    321.26988    34340.171 
  926500    297.72593   -1521.4946    536.01849    369.68207    459.59433    34340.171 
  926600    308.75074   -1540.3181    518.96634    383.98801   -231.49167    34340.171 
  926700    298.84942    -1556.905    515.66738    319.03434   -144.35958    34340.171 
  926800    305.43163   -1527.0247    530.52958    393.73713    145.92568    34340.171 
  926900    311.20726   -1510.6458    526.08484    431.96016    1135.8198    34340.171 
  927000    295.90589   -1498.8208    531.53163     379.5848    109.87602    34340.171 
  927100    302.94427   -1510.9741    532.70127    400.63767    32.123551    34340.171 
  927200     299.2511   -1535.8189    541.93163    368.21302   -227.82911    34340.171 
  927300    295.95232   -1464.6822    525.09431    407.49738   -368.27666    34340.171 
  927400    303.22068   -1517.3478    553.15303    415.97387   -23.915963    34340.171 
  927500    297.26214   -1593.8798    505.30427    264.47165    -675.8464    34340.171 
  927600    295.22996   -1524.8779    546.69329    365.61272   -156.34361    34340.171 
  927700    302.81916   -1520.7201    540.10256    397.72352    409.43257    34340.171 
  927800    297.39977   -1551.2094    540.42713    342.89135     360.0301    34340.171 
  927900    294.05449   -1509.3189    528.90308    358.03112    344.10089    34340.171 
  928000    305.40475   -1519.6863    534.20226    404.62587    365.33657    34340.171 
  928100    299.52739   -1501.1335    534.28714    396.51158    697.11757    34340.171 
  928200    310.04057   -1526.7192    538.87855    423.37001     641.0109    34340.171 
  928300    293.69755   -1474.6515    542.15691    404.32762    100.00716    34340.171 
  928400     297.9381   -1492.8341    528.39672    391.68659   -505.44549    34340.171 
  928500    299.48873   -1498.0056    561.44716     426.6235   -622.26551    34340.171 
  928600    295.70171    -1504.465    550.79716    392.27672    28.724521    34340.171 
  928700     304.6107   -1528.8273    529.49531    387.16357   -6.4512782    34340.171 
  928800    304.52002   -1519.4886     535.3671    401.96133    133.41759    34340.171 
  928900     308.5228    -1496.975    546.84664     454.1739   -74.008321    34340.171 
  929000    298.17082   -1497.2867     521.5072    381.40374     325.5439    34340.171 
  929100    292.91523   -1530.6798     539.4891    342.07065    133.47099    34340.171 
  929200    302.18408   -1565.9639    521.56988    331.05639   -88.529192    34340.171 
  929300    300.82333   -1541.8567    520.60983    348.00975     -454.636    34340.171 
  929400    292.83423   -1541.1689     521.7092    313.43297   -754.81544    34340.171 
  929500    303.93951   -1550.3437     526.3651    359.46194   -404.76097    34340.171 
  929600    298.49614   -1542.1654    529.61077    346.10934   -3.0630227    34340.171 
  929700     301.4923    -1505.477    511.86123    378.68582   -270.06051    34340.171 
  929800    299.81417   -1523.0221    548.62834    390.26952    192.76598    34340.171 
  929900    300.29459   -1553.5164    551.93909    365.27265   -323.13312    34340.171 
  930000    302.63767   -1541.8487    526.25305    361.91933   -325.14856    34340.171 
  930100    289.61389   -1500.9577    525.41123    342.68815   -409.25013    34340.171 
  930200    303.68373   -1462.4115    539.27728    459.14205   -240.95287    34340.171 
  930300    291.39188   -1527.0093    510.22703    309.54522   -1052.3822    34340.171 
  930400    299.23135   -1540.2312    542.22126    364.00043   -231.86128    34340.171 
  930500    298.57462   -1521.0224    543.95105    381.94983   -415.90216    34340.171 
  930600    302.27004   -1548.8879    527.83979    354.79353    192.92248    34340.171 
  930700    288.38452    -1534.637    531.78746     309.7894    -66.46988    34340.171 
  930800    312.37231   -1523.3373    539.31566    437.80252   -83.325497    34340.171 
  930900    310.63116   -1573.9689    524.89155    364.82158   -104.19762    34340.171 
  931000      295.135   -1546.0983     505.4732    302.73994   -76.359539    34340.171 
  931100    302.97373   -1572.0966    532.72229    339.67031     403.9235    34340.171 
  931200    307.06164   -1541.9112    520.68876     376.4291     659.8089    34340.171 
  931300    299.43353   -1530.3221    532.32203    364.93058    150.16767    34340.171 
  931400    301.24981   -1587.2866    531.87172    315.78294    883.27703    34340.171 
  931500    296.10858   -1596.2776    528.44628    279.96517    893.96789    34340.171 
  931600    299.85286   -1617.2459    521.91599    269.50945    310.68358    34340.171 
  931700    295.77708   -1602.4185    517.56025    261.42943    277.80478    34340.171 
  931800    300.26163   -1583.4947    525.51748    308.72269    208.63781    34340.171 
  931900    302.04267    -1528.213    542.76872    389.36242    59.036866    34340.171 
  932000    290.55917   -1571.2466    531.36013    282.65081   -374.09118    34340.171 
  932100    309.20683   -1555.2804    531.65662    383.79202   -352.02522    34340.171 
  932200    306.92131   -1573.9694    530.18145    353.22488   -229.56317    34340.171 
  932300    291.09435   -1544.9248    507.58912    287.63761    163.65402    34340.171 
  932400    300.07122    -1564.497     517.5303    318.86653   -168.02097    34340.171 
  932500    300.38966   -1545.1884    529.85223    351.94653   -419.78444    34340.171 
  932600    309.00713   -1496.5232    535.67017    445.65376   -230.64718    34340.171 
  932700    293.61957   -1525.9386    526.81184    337.34053   -1208.7003    34340.171 
  932800    298.90919   -1535.4703    533.34658     358.4203   -610.99401    34340.171 
  932900    301.77059   -1523.8484    527.84634    377.56625   -733.73266    34340.171 
  933000    290.15943   -1499.8579    522.31559    343.17544   -289.12682    34340.171 
  933100    298.50571   -1559.5999    527.10404    326.21166    -201.6316    34340.171 
  933200     303.9408   -1528.2227    526.39927    381.62295    712.49385    34340.171 
  933300    303.26182   -1554.7272    545.60441    371.23313    807.54691    34340.171 
  933400    308.99906   -1543.9708    508.64422    371.14356    619.26765    34340.171 
  933500    296.05934   -1545.2984    510.21784    312.49183    64.222514    34340.171 
  933600     296.3048   -1566.9114    513.08794    294.86621    244.38718    34340.171 
  933700     290.8197   -1550.3759    522.92903    296.27624   -507.97609    34340.171 
  933800    298.03602   -1553.7846     531.4516    334.23667    55.805038    34340.171 
  933900    307.73591   -1567.6331    527.64682    360.73427   -53.937262    34340.171 
  934000    301.95042   -1503.2333     508.2255    379.37899    225.79359    34340.171 
  934100    290.99341   -1558.4696    556.58407    322.62827    228.85855    34340.171 
  934200    302.83878   -1535.5201    530.49199    373.40228    41.108062    34340.171 
  934300    310.94872   -1555.0384    482.50361    342.80957   -355.96312    34340.171 
  934400    307.39259   -1564.4111    516.71224    351.45904    361.88459    34340.171 
  934500    308.32674   -1533.9132    536.31128    405.80794    269.37411    34340.171 
  934600    293.13383   -1529.7849    517.16458    321.63602    606.07387    34340.171 
  934700    292.86473    -1532.982    547.97089    348.02038   -113.07313    34340.171 
  934800    304.71716   -1528.8368    538.01426    396.15763    202.48375    34340.171 
  934900    294.16422   -1534.1021    544.24196    349.08622    453.41383    34340.171 
  935000    311.11587   -1580.5346    511.63093    347.20146    439.34887    34340.171 
  935100     297.7264   -1592.9788     536.2591    298.44068    472.82811    34340.171 
  935200    295.64117   -1580.3262    538.24139    303.58421    48.850496    34340.171 
  935300    296.60384   -1525.0362    527.26675    352.28134    413.30422    34340.171 
  935400    306.20997   -1533.1032    523.73467    384.40649    100.69074    34340.171 
  935500    305.30415   -1580.7837    541.77732     350.6456    75.831026    34340.171 
  935600    293.39148   -1559.0805    528.47443    304.82307    333.92576    34340.171 
  935700     290.8703   -1540.0463    521.21926    305.12641    305.95753    34340.171 
  935800    305.93661   -1528.5784    555.21478    419.16708    154.88857    34340.171 
  935900    291.93396   -1545.4728    523.40925    306.73138    430.86178    34340.171 
  936000     302.6916    -1550.156     523.8123     351.4167    980.00889    34340.171 
  936100     291.9902   -1489.1024    561.55282    401.50134    377.26069    34340.171 
  936200    299.48525   -1553.3457    548.02484     357.8452    166.74281    34340.171 
  936300    293.15576   -1568.9412    510.31886    275.73385    261.46479    34340.171 
  936400    299.21893   -1514.9078    548.96095    396.00702   -156.46495    34340.171 
  936500    289.26891   -1559.2567    504.23484    261.64259   -525.68414    34340.171 
  936600    300.89252   -1569.8961    536.50515    336.18059   -393.76727    34340.171 
  936700    304.13792   -1565.5099    528.02918    346.86299   -907.29987    34340.171 
  936800    305.55047   -1578.8203    543.45144    355.40426    145.36844    34340.171 
  936900     296.1992   -1590.5218    551.73952    309.42672    177.86364    34340.171 
  937000    286.07873   -1618.0049    548.94162    233.08039   -304.53857    34340.171 
  937100    297.53585    -1576.062    519.06793    297.29894    128.59627    34340.171 
  937200    304.52559   -1563.1374     531.0613    354.03205    14.704739    34340.171 
  937300    296.74008   -1563.5738    533.44314    320.54019   -318.69126    34340.171 
  937400    300.24134   -1559.9745     542.2473     348.8804   -552.22574    34340.171 
  937500    295.38092   -1578.2478    520.96627    287.20292   -174.14694    34340.171 
  937600    307.95501   -1552.8879    522.29223     371.1222   -138.86092    34340.171 
  937700    299.85069   -1537.1143    547.36201    375.07713    422.71777    34340.171 
  937800    303.35894   -1527.6115    549.41388    402.60038    614.58378    34340.171 
  937900     292.2042   -1570.0195    549.84226    309.84768    576.96832    34340.171 
  938000    301.30863   -1574.0478    544.13137    341.54912    999.45159    34340.171 
  938100    295.28612   -1493.3326    559.64447    410.36481    630.43255    34340.171 
  938200    298.64663   -1512.6773    570.33999    417.01162   -308.32156    34340.171 
  938300     298.9221   -1533.8698    531.17179    357.90485   -255.37257    34340.171 
  938400    290.72124   -1518.2584     563.6918    368.70841   -669.95835    34340.171 
  938500    297.69378   -1549.3227    542.52297    348.21216    -594.7987    34340.171 
  938600    297.57868   -1557.4009    523.96881    321.05585   -98.754911    34340.171 
  938700    308.36969   -1519.1066    521.48303    405.98176   -249.28119    34340.171 
  938800    286.98297   -1526.8466    540.71637    320.12931   -162.78163    34340.171 
  938900    297.85731   -1558.1362     560.8956    358.51561    110.53073    34340.171 
  939000     294.3778   -1560.1711    552.00111    331.74851   -11.471153    34340.171 
  939100    294.45545   -1567.6931    521.48636    294.06528    114.69895    34340.171 
  939200    304.02604   -1543.8001    533.48107    373.51541    75.114889    34340.171 
  939300    291.31295   -1491.2369    540.12304    374.85444    167.96696    34340.171 
  939400    302.85488   -1551.9623      524.942    351.48331    157.33389    34340.171 
  939500    297.83291    -1543.578    533.85766    345.92479   -89.785946    34340.171 
  939600    295.52877   -1533.0423    527.06646    339.18154   -684.02881    34340.171 
  939700    311.07009   -1500.2286     539.8681    455.53625   -355.26526    34340.171 
  939800    307.33808    -1499.337    533.29555    432.86837    32.198731    34340.171 
  939900    304.02964    -1537.635    560.76062    406.97638    365.65076    34340.171 
  940000    304.30538   -1526.1432    553.80551    412.76816    198.50611    34340.171 
  940100    298.87558   -1535.9935    534.76641    359.16397    81.524126    34340.171 
  940200    305.01021   -1531.1112    521.49884    378.70163    14.998918    34340.171 
  940300    301.52982   -1527.5727    552.97756    397.87727    491.01553    34340.171 
  940400    298.92155   -1532.9574    555.62214    383.26506     419.5039    34340.171 
  940500    301.23157     -1543.68     589.6166    417.05138    449.38059    34340.171 
  940600    303.33723   -1524.6067     532.3463     388.4388    -125.0762    34340.171 
  940700    292.28167   -1563.2492    568.40718     335.5356   -103.93251    34340.171 
  940800    296.44696   -1505.4654    511.37255    355.24388   -372.86923    34340.171 
  940900    297.48987   -1541.7731    564.34425    376.65491   -133.84727    34340.171 
  941000    305.65505   -1551.1976    541.29717    381.34871   -406.91058    34340.171 
  941100    304.97752   -1505.9996     519.1219    401.28756   -93.024361    34340.171 
  941200    308.38123   -1503.4437    554.12172    454.33591   -351.29855    34340.171 
  941300     297.5193   -1521.9558    532.54204    364.80396     332.7654    34340.171 
  941400    289.41175   -1562.1473    537.23531    292.40263   -235.13798    34340.171 
  941500    311.18077   -1576.4816    529.90135    369.82035    221.64811    34340.171 
  941600    294.93669   -1545.8594    543.06945    339.67243    911.19007    34340.171 
  941700    302.34405   -1539.1209    555.83052    392.88808    182.23524    34340.171 
  941800    306.27938   -1543.1882    538.59838    389.50109    321.95935    34340.171 
  941900    298.04233   -1545.5016     528.4957    339.59246    242.81562    34340.171 
  942000    296.65422   -1531.6108    523.81387    342.48313   -363.52577    34340.171 
  942100    304.01967     -1538.23    525.80725    371.38264   -432.67896    34340.171 
  942200    299.07792   -1535.5687    520.99551    346.73887   -371.20566    34340.171 
  942300    288.05978    -1521.993    532.59008    321.75787   -59.582091    34340.171 
  942400    308.21142   -1533.4655    518.98522     388.4047    408.24629    34340.171 
  942500    310.25146   -1551.0054    534.15891    395.32414   -326.60569    34340.171 
  942600    307.05648   -1585.6808    514.38829    326.33551    341.32561    34340.171 
  942700    302.67419   -1555.2974    531.55197    353.93581   -19.835446    34340.171 
  942800    292.51754   -1504.5704    533.01097    359.89172   -219.28945    34340.171 
  942900    290.61515   -1534.9623    554.83756    342.66736    -365.1979    34340.171 
  943000    294.30163   -1613.0686    552.83222    279.33545   -640.33692    34340.171 
  943100     300.8755   -1604.7378    541.92398    306.68025   -201.02383    34340.171 
  943200    303.94535   -1566.4271    530.13463    347.17464   -739.03194    34340.171 
  943300    306.63267   -1554.1416    528.63242    370.18985    285.77971    34340.171 
  943400    309.25252   -1587.4011    547.98956    368.21222     155.1805    34340.171 
  943500    293.44649   -1561.9034    531.56319    305.33931    133.95368    34340.171 
  943600    303.53576   -1517.6574    548.66571    412.61109   -79.326191    34340.171 
  943700    302.76811   -1514.7645    558.53129     421.8755    99.422155    34340.171 
  943800     302.2676   -1538.6887    565.65566    402.79744    285.87398    34340.171 
  943900    302.96702   -1529.5148    526.73222    376.23154    370.49019    34340.171 
  944000     292.9827    -1544.321    545.54396    334.79139    126.37053    34340.171 
  944100    287.21714   -1560.0782    518.44077    265.68797    296.28667    34340.171 
  944200    291.17807    -1545.628    534.34198    314.06826    62.504847    34340.171 
  944300    302.46648   -1557.2291    520.06009    339.56669    457.65626    34340.171 
  944400    304.89322   -1558.0003    536.08274    365.86404   -232.46266    34340.171 
  944500    301.39537   -1541.1809    521.98798    352.66748   -564.52854    34340.171 
  944600    295.67634    -1503.979    557.89928    399.74941   -786.33219    34340.171 
  944700    316.89033   -1563.3985    501.59677    380.58708   -784.56038    34340.171 
  944800    301.81459   -1541.8979    536.94655    368.81723   -244.05476    34340.171 
  944900    294.75224   -1536.3577    533.64972     338.9149    151.55016    34340.171 
  945000    303.24503   -1552.7663    533.52249    361.03564   -41.579617    34340.171 
  945100    302.40406   -1539.2874    531.35214    368.51643    136.98626    34340.171 
  945200    300.82941   -1534.9419    548.70872    383.05114   -75.256652    34340.171 
  945300    290.18289   -1509.7817    545.38702    356.42988    417.09661    34340.171 
  945400    297.99414   -1526.1604    524.81044    355.02909    1074.4666    34340.171 
  945500    294.22943   -1559.2339    540.05129    320.06065    385.84183    34340.171 
  945600    288.39801   -1488.9844    562.87121    386.58714    656.62291    34340.171 
  945700    298.41307   -1539.2192    534.97993    354.04658    53.923987    34340.171 
  945800    299.97081     -1546.37    494.58932    313.59554    43.501847    34340.171 
  945900    304.19239   -1521.6543    579.39294    442.33021    212.01964    34340.171 
  946000    295.53992   -1528.0654    544.80003    361.94285    600.46427    34340.171 
  946100    304.74346   -1521.7594    531.44581     396.7863    882.09251    34340.171 
  946200    309.64553    -1508.142    570.89267    472.16325    718.86672    34340.171 
  946300    301.54747   -1521.3205    532.26667    383.49883    1047.9957    34340.171 
  946400    295.53951   -1583.9553    503.09757    264.34854    621.60153    34340.171 
  946500    299.25156   -1536.1186    558.67023    384.65402    596.23351    34340.171 
  946600    303.91001   -1553.5574    537.81815    367.56699    681.00361    34340.171 
  946700    293.86342   -1498.1082    554.20852    393.67756    657.38857    34340.171 
  946800    295.44628   -1532.8257    531.07129     343.0275    468.16752    34340.171 
  946900    299.58621   -1568.8793    501.51919     296.2655    481.03438    34340.171 
  947000    300.70158   -1508.1646    540.33277    400.87061    336.48722    34340.171 
  947100    294.24949   -1516.9632    538.49407    360.86531   -218.48313    34340.171 
  947200    308.23261   -1541.4304    531.76437    393.31536   -475.56279    34340.171 
  947300    292.55657   -1566.6841    507.59425    272.53894   -581.51536    34340.171 
  947400    310.24037   -1576.8388    523.19905    358.48039   -186.51813    34340.171 
  947500    302.34265   -1549.2768    518.47017    345.36546   -659.50655    34340.171 
  947600    294.79018   -1534.6864    518.36977    325.47889   -458.11729    34340.171 
  947700    291.51526   -1560.3087    514.27666    280.85707   -174.59626    34340.171 
  947800    303.60525    -1552.659    524.04278    353.30292    375.43506    34340.171 
  947900    303.93213   -1563.1693      501.394    321.63163   -367.40701    34340.171 
  948000    294.04911   -1575.0489    534.77387    298.14745    -660.2402    34340.171 
  948100    289.67084   -1553.2178    508.38077    273.65688    59.430159    34340.171 
  948200     298.6307   -1555.0433    522.44726    326.68045   -258.32398    34340.171 
  948300    298.46999   -1617.6181    513.37688    254.30369    239.05412    34340.171 
  948400    304.22938   -1570.3053    532.14849    346.60315    471.55337    34340.171 
  948500     288.6904    -1576.386    541.91669    279.56188    867.20506    34340.171 
  948600    304.58751   -1530.2034    544.56178    400.74847    429.11984    34340.171 
  948700    291.82752   -1566.4869    542.04355    303.86711     932.7449    34340.171 
  948800    284.40274   -1554.7831    562.16239    301.89436   -136.71093    34340.171 
  948900    292.02462   -1545.7758    515.13383    298.56562   -342.84372    34340.171 
  949000    303.59934   -1545.8793    519.25858    355.27153   -329.72543    34340.171 
  949100    307.30617   -1541.3784    527.17296    384.55913     -327.874    34340.171 
  949200    310.37218   -1552.6964    505.42912     365.4528   -114.62508    34340.171 
  949300    307.97689   -1559.2408    516.95762    359.53434    280.04503    34340.171 
  949400    298.83321   -1551.4888    520.25851    328.96792   -252.02743    34340.171 
  949500    308.35108   -1565.7704    536.80593    374.55618   -431.15371    34340.171 
  949600    291.73152   -1576.1748      538.022    289.72063   -519.56971    34340.171 
  949700    302.01357   -1598.9185    531.02115    306.77694    445.70347    34340.171 
  949800    284.07892   -1546.7507    519.43175    265.72222    122.38614    34340.171 
  949900    295.37702   -1536.0733    523.66902    332.06241    12.285512    34340.171 
  950000    300.40286   -1518.8554    495.48761    343.97498    238.70317    34340.171 
  950100    295.16305   -1508.6538    543.89739    378.73635    332.57836    34340.171 
  950200    303.34197   -1500.7775     532.1569    412.10007     833.0573    34340.171 
  950300    291.14224   -1549.9426    526.58825    301.83685    588.22009    34340.171 
  950400    306.26354   -1514.0131    522.86278    402.86849    527.42923    34340.171 
  950500    295.92936   -1529.7394    511.03786    328.27922    12.325489    34340.171 
  950600    297.71848   -1562.2064    519.60932    312.52722    249.92384    34340.171 
  950700    287.99511   -1533.3556    535.44432    312.95516    150.08601    34340.171 
  950800     305.7884   -1498.8798    539.26291    432.23925    1224.9191    34340.171 
  950900     298.4425   -1518.9413    536.76366    376.24222    1062.4384    34340.171 
  951000    302.78526   -1477.7791    544.61461     445.0223    370.78434    34340.171 
  951100    304.51576   -1503.0611    515.47902     398.4814    -380.0759    34340.171 
  951200     304.0997   -1469.0347    545.49968    460.63466   -400.18116    34340.171 
  951300    293.09124   -1490.0515    503.16537    347.17641   -130.30436    34340.171 
  951400    295.17189   -1478.0887    538.59144    404.03575    333.56604    34340.171 
  951500    295.60849   -1448.6397    541.81908    438.69962    218.77712    34340.171 
  951600    301.87848     -1487.61    536.20588    422.65525     372.2176    34340.171 
  951700    290.15779   -1524.0501    523.19766    319.85786    88.906889    34340.171 
  951800    314.59877   -1526.7991    502.25542     407.4146    337.01068    34340.171 
  951900    302.67482   -1497.3732     516.1638    396.47464    359.72019    34340.171 
  952000    301.34373   -1516.6364    535.11577     390.1047    -153.9991    34340.171 
  952100     299.0504   -1506.4734     543.0836    397.79703    604.97277    34340.171 
  952200    298.67651   -1508.9363    532.66746    383.21612     472.7401    34340.171 
  952300    302.90005   -1547.8958    514.39466    345.20812    250.24562    34340.171 
  952400    297.38747    -1536.877    521.48779    338.22847   -196.26043    34340.171 
  952500    297.94231   -1523.8853    491.44871    323.70646   -976.54574    34340.171 
  952600    304.72873   -1508.9999    549.63308    427.66596   -879.42034    34340.171 
  952700    290.05917   -1522.7688    520.81808    318.31068   -856.16622    34340.171 
  952800    294.45391   -1553.7425      534.265     320.7875   -650.11426    34340.171 
  952900    297.64727   -1579.6473    510.29001    285.44294    370.55757    34340.171 
  953000     312.3275   -1564.1742     494.7077    352.15365    344.35948    34340.171 
  953100     300.7127   -1560.0785    528.55143    337.22598    453.57707    34340.171 
  953200    297.49172   -1521.7641    525.18999    357.51806    767.54575    34340.171 
  953300    305.83815   -1521.9817    489.50356    359.60444    340.43866    34340.171 
  953400    299.95804   -1504.0595    535.11721    396.37581    -604.5292    34340.171 
  953500    296.61177   -1497.4647    528.65026    381.27244   -110.88294    34340.171 
  953600    312.91661   -1512.7897    532.75748    444.26942    505.38437    34340.171 
  953700       300.14   -1573.1852     506.4928    299.45397    104.91192    34340.171 
  953800    301.42359   -1558.6332    491.47057    304.82617    -432.4794    34340.171 
  953900    289.43824    -1537.452    530.93567    310.91887   -404.28251    34340.171 
  954000    300.22585    -1551.753    518.00312    332.78725    184.46053    34340.171 
  954100      298.388   -1542.8606    533.33751    348.64869    232.80434    34340.171 
  954200    295.82403   -1559.6147    523.75553    310.64211    837.80803    34340.171 
  954300    319.98752   -1518.5355    513.37415    451.32484    712.97445    34340.171 
  954400    290.08277   -1517.3986     527.6214    330.59166    339.21282    34340.171 
  954500    305.52531   -1535.9729    519.64273    374.32844    728.13817    34340.171 
  954600    302.37167   -1520.0683    526.26347    382.49934    194.68711    34340.171 
  954700    296.89993   -1538.8829    538.16307    350.67868   -127.77144    34340.171 
  954800    304.44734   -1537.4876    533.64379    381.90826    75.309654    34340.171 
  954900    301.62489    -1554.143    525.40827    344.17036    25.225807    34340.171 
  955000    298.21438   -1550.1016    533.05314    340.33307   -4.4840298    34340.171 
  955100    297.42925    -1528.902    500.39213    325.29799   -168.01572    34340.171 
  955200    303.51644    -1505.197    553.74119    430.05906    411.48202    34340.171 
  955300     293.1757   -1567.4507    536.15072    303.14698   -166.88144    34340.171 
  955400    313.31041   -1565.2777     538.8863    399.70259     58.10221    34340.171 
  955500    304.96905    -1568.313    522.12463    341.93834     441.4844    34340.171 
  955600     312.4294   -1589.9057    502.34759    334.52586   -12.230622    34340.171 
  955700    297.19929   -1554.1659      520.054    318.64921   -454.99771    34340.171 
  955800    299.53227   -1573.9471    515.91328    305.34631    46.396155    34340.171 
  955900    303.17528   -1594.0066    516.15885    302.11425   -167.27197    34340.171 
  956000    311.85465    -1558.431    548.19154    409.22841    467.89424    34340.171 
  956100    308.64833   -1538.1811    519.14713    385.83966    608.60313    34340.171 
  956200    308.37043   -1557.5998    541.59319    387.60218    333.72251    34340.171 
  956300    304.48679   -1547.9705     542.1641    380.12519    309.19167    34340.171 
  956400    311.06242     -1530.11    546.46939    432.22122    246.88473    34340.171 
  956500    295.81201   -1521.6942    535.02687    359.77922    4.1303537    34340.171 
  956600    307.96028   -1507.6007    516.62727    410.76846   -337.48988    34340.171 
  956700    303.14979   -1554.1168    503.09856    328.82772   -298.19543    34340.171 
  956800     300.7002   -1546.4131    535.84479    358.12786    -748.6474    34340.171 
  956900    294.93449   -1517.7109    515.80974    340.55129   -459.11502    34340.171 
  957000    295.25589   -1519.9962    515.63978    339.55893    -253.5105    34340.171 
  957100    292.45529   -1554.3413      531.737    308.56359    482.22383    34340.171 
  957200     312.9641    -1568.961    545.55177    401.10851    671.83543    34340.171 
  957300    302.34288    -1533.838    526.11628    368.45145    524.92323    34340.171 
  957400    310.96906   -1520.4718    538.27609    433.24123    597.89729    34340.171 
  957500     293.2974   -1530.4505    520.37994    324.93035    472.73583    34340.171 
  957600    311.16954   -1537.6265    527.29957    406.02251    29.280464    34340.171 
  957700    305.04243   -1520.0484    523.99138    392.40368    -475.9872    34340.171 
  957800    286.20302   -1536.8652     522.2493    288.09352   -679.85879    34340.171 
  957900    300.00091   -1534.2474    521.51195     352.7778   -407.47884    34340.171 
  958000    305.55837   -1535.1736    516.34978    371.98529    -364.0786    34340.171 
  958100    290.20249   -1582.9142    512.63824    250.63781   -422.71813    34340.171 
  958200    301.00824   -1571.4108    521.98906    320.67656   -781.79472    34340.171 
  958300    309.88124   -1548.7062    544.27107    406.05036   -496.86179    34340.171 
  958400    306.88327   -1517.6296     534.6544    413.86443   -338.24437    34340.171 
  958500    300.23586   -1501.2889    524.76264    390.05644   -134.85502    34340.171 
  958600    308.32933   -1496.5802     518.5569    425.39839   -274.22417    34340.171 
  958700    294.10139   -1516.4004    540.96552    363.22558    86.329502    34340.171 
  958800    305.19412   -1509.3026    528.14259    407.99116    385.20916    34340.171 
  958900    294.23621   -1500.3094    545.88378    384.84843    977.32267    34340.171 
  959000    292.97456   -1516.9938    555.71344    372.25102   -295.65216    34340.171 
  959100    294.17522   -1524.2517    519.18989    333.93466    249.68008    34340.171 
  959200    302.72759   -1535.3312    526.75746    369.35049    126.23148    34340.171 
  959300    301.88362   -1538.5773    516.49629    352.00172    316.68798    34340.171 
  959400    292.16279   -1556.5744    523.99424    297.25629   -77.928246    34340.171 
  959500    297.90127   -1545.3302    494.26402    304.89009   -397.47634    34340.171 
  959600    303.70537   -1545.1433    522.33669    359.56819   -694.29103    34340.171 
  959700    299.25671   -1567.4818    517.13132    311.77533   -686.59796    34340.171 
  959800    295.62825   -1568.5557    506.20656    283.26104    89.494245    34340.171 
  959900    301.90065   -1576.6449    501.07963    298.59499    576.32548    34340.171 
  960000    293.93446   -1553.6679     489.0028    273.23548     397.3465    34340.171 
  960100    290.41394   -1581.4027    485.35658    225.83009   -435.39588    34340.171 
  960200    303.19457   -1551.4466    504.67929    333.28247   -510.00086    34340.171 
  960300    275.38631   -1595.9347    522.36271    179.90305   -516.96266    34340.171 
  960400    288.99374   -1554.9824     522.0278    282.45734    129.32672    34340.171 
  960500    301.46065   -1576.5763    496.83646    292.41772    113.83219    34340.171 
  960600    291.69523    -1564.952    509.13364    271.88989   -131.50382    34340.171 
  960700    299.89145   -1608.1662    525.13996    281.98875   -525.05977    34340.171 
  960800    293.23603   -1604.4855    508.60125    238.83732   -640.33186    34340.171 
  960900    294.54786   -1625.1346    498.08334    213.64136   -194.64295    34340.171 
  961000    291.76098   -1599.5318    489.14319    217.61892   -247.79638    34340.171 
  961100      299.263   -1606.4165    525.19733    280.93534    201.60746    34340.171 
  961200     299.1513   -1595.4073    541.85284     308.0916    113.68583    34340.171 
  961300    301.72245   -1596.9218     498.3267    274.75412   -6.8042003    34340.171 
  961400    302.56153   -1583.2138    510.96152    304.91606    407.71507    34340.171 
  961500    298.17246   -1579.7912    505.15732    282.55676    810.98125    34340.171 
  961600    300.74921   -1581.0172    522.38978    310.29183    463.43317    34340.171 
  961700    294.02997   -1564.5294    535.37586    309.18179     310.3187    34340.171 
  961800    303.73497    -1554.332    501.79916    329.97669    343.76838    34340.171 
  961900    295.94867   -1555.7227     513.1669    304.51287    241.94717    34340.171 
  962000    299.64622   -1483.5009    540.24404    420.64192   -272.67791    34340.171 
  962100    295.81016   -1498.8616    532.70636    380.28297   -291.92318    34340.171 
  962200    296.27895    -1525.041    528.29486    351.82582    -227.3675    34340.171 
  962300     310.2867   -1547.0058    497.58548    362.91071   -24.968531    34340.171 
  962400    296.92608   -1559.5068     528.7769    320.78759    563.74587    34340.171 
  962500    289.88053   -1584.1568    533.53241    268.82388    28.944653    34340.171 
  962600    297.41766   -1501.9095    496.98694    348.83244     205.9611    34340.171 
  962700    304.37322   -1561.4983    516.74556    340.66194    118.58847    34340.171 
  962800    294.86402   -1511.4055    526.15241    356.87857    363.00204    34340.171 
  962900     299.7045   -1500.8695    529.93024    393.22482    253.23263    34340.171 
  963000    302.31792   -1516.1469    512.48511    372.39777   -227.82282    34340.171 
  963100    311.53595   -1515.3265    509.40448    412.09518    416.95348    34340.171 
  963200    310.85515   -1481.2907    530.66598    464.29372    354.52046    34340.171 
  963300    294.74485   -1446.9713    550.24879     444.8667    369.35047    34340.171 
  963400    306.52132   -1457.0846    513.00418    451.11171    321.89114    34340.171 
  963500    300.62889   -1462.8306     517.4912    423.03214    543.30095    34340.171 
  963600    302.47333   -1467.4664    559.95454    469.25509    449.10898    34340.171 
  963700    297.91235   -1448.1016    531.86818    439.77332    153.39274    34340.171 
  963800    298.55812   -1470.2774    522.09805     410.7667    18.676618    34340.171 
  963900    293.65708   -1488.4327     512.7972    361.00249    405.68461    34340.171 
  964000    309.37881   -1477.3778    524.11762    454.93841    248.93612    34340.171 
  964100    298.11769   -1484.4584     543.5332    416.01613   -40.323866    34340.171 
  964200    296.17505    -1473.379    552.87759    427.59765    502.92736    34340.171 
  964300    300.39548   -1457.1212    527.78836    437.97634     286.7832    34340.171 
  964400    316.62957   -1469.7252     533.1342    504.61088    504.55373    34340.171 
  964500    307.83391   -1483.8547    540.83786    458.14983    388.27566    34340.171 
  964600    291.69517   -1497.4576    527.22685     357.4773   -365.13925    34340.171 
  964700    297.28734    -1517.351    535.04818    370.85902   -335.69898    34340.171 
  964800    303.05062   -1523.9781    515.97174    371.38824    65.948485    34340.171 
  964900    300.32503   -1520.6292    534.97982    381.33918   -493.43153    34340.171 
  965000    302.70145   -1519.3263    514.62406    373.10302    33.613329    34340.171 
  965100    301.02237   -1490.2648    501.23649     381.1343   -24.975041    34340.171 
  965200    292.88038   -1532.9403    515.30502    315.46751    140.95689    34340.171 
  965300    311.59068   -1486.5612    534.91265    466.61783     499.9375    34340.171 
  965400    309.38157   -1515.6189    495.76562     388.3579   -46.835809    34340.171 
  965500    302.56761   -1507.7084    512.73533    382.22295    198.62534    34340.171 
  965600    296.09566   -1507.8538    515.92283    355.80676    784.77333    34340.171 
  965700    302.02813   -1502.5816    510.00749    382.16639     1016.849    34340.171 
  965800    304.59822   -1539.7666    506.39432    353.06654    1079.9623    34340.171 
  965900    290.91695   -1488.2734    537.67286    373.56521      266.068    34340.171 
  966000    292.26706   -1506.9247    496.23305    319.61945   -154.54358    34340.171 
  966100    312.88396   -1488.6125    517.32217    452.86262    79.261175    34340.171 
  966200    307.56974     -1497.59    515.38587    417.76009   -165.04593    34340.171 
  966300    295.51395   -1548.6262    505.24699    301.71074   -299.01604    34340.171 
  966400    300.30535   -1515.7539    540.03704    391.18205    -415.4145    34340.171 
  966500    287.96811   -1464.7338     535.5152    381.52497   -719.62295    34340.171 
  966600     297.2383   -1502.4527    520.56918    371.05515   -678.96072    34340.171 
  966700    300.91434   -1526.4168    513.78684    357.04094   -821.80877    34340.171 
  966800    287.87947   -1555.4669    509.38358    264.25683    -936.2785    34340.171 
  966900    304.91103   -1519.6763    509.93408     378.1204    112.71059    34340.171 
  967000    293.21708   -1521.5166    499.13652    312.25523   -359.21347    34340.171 
  967100    295.04792   -1520.3279    520.21675    342.85755    -200.7076    34340.171 
  967200    305.58275   -1548.7124    528.75091    370.95851   -68.309472    34340.171 
  967300    306.77784   -1559.1592    533.33806    370.53866   -398.77622    34340.171 
  967400    307.87777   -1528.2374    495.51539    368.64432   -42.242474    34340.171 
  967500     294.0886   -1519.3653    542.71001    361.94688   -765.52933    34340.171 
  967600    298.72663   -1491.2842    516.87971    385.30861   -216.81717    34340.171 
  967700    298.37429   -1492.4209    529.29549    394.98394   -371.50898    34340.171 
  967800     303.4507   -1489.6588    529.83191    421.38875    290.89235    34340.171 
  967900    309.59425   -1488.3059    532.07834    452.95158    -459.1658    34340.171 
  968000    299.80788   -1485.2037    540.51692    419.94785   -987.01643    34340.171 
  968100      296.063   -1476.3237     531.2587    402.52404   -711.34234    34340.171 
  968200    298.12284   -1442.7945    541.88382    456.05417   -535.54339    34340.171 
  968300    304.89195   -1508.1303    529.22994    408.87535   -959.62728    34340.171 
  968400    290.61045   -1502.0889    555.26135    375.94313   -273.37283    34340.171 
  968500    300.49825   -1518.0703    526.93633    376.64304   -815.36943    34340.171 
  968600    289.70713   -1530.8484    538.39534    326.20598   -112.20713    34340.171 
  968700    302.36795   -1503.0544    521.79669    395.02953   -464.98858    34340.171 
  968800    299.36731   -1512.5349    548.24101    398.33536   -589.07475    34340.171 
  968900    303.75505   -1515.2676    506.74606    374.07943   -883.89378    34340.171 
  969000    300.32739    -1521.626    528.04311    373.41636   -702.25056    34340.171 
  969100    310.85241   -1556.8901    515.58102    373.59689    -6.336346    34340.171 
  969200    305.96916   -1534.2552    537.92562    396.34928   -506.90939    34340.171 
  969300    293.24697    -1523.983    537.17811    347.96641   -875.72102    34340.171 
  969400    305.90032    -1534.876    523.83295    381.32244   -534.60268    34340.171 
  969500    294.70893   -1555.0984    495.71558    282.04295   -430.91594    34340.171 
  969600     307.4113   -1526.5418    515.01473    387.71601     234.9935    34340.171 
  969700    295.57522    -1518.887    520.78388    347.26575    51.876906    34340.171 
  969800    300.73914   -1523.3079    534.07442    379.63994   -186.45712    34340.171 
  969900    295.96126   -1487.1453    512.92889    372.90956   -298.43476    34340.171 
  970000    304.90887   -1480.6507    515.13192    422.33401    269.48683    34340.171 
  970100    306.87974   -1425.4402    551.51681    522.90016    408.59546    34340.171 
  970200    293.93274    -1484.407    557.81685    411.30261   -276.38591    34340.171 
  970300    310.54636   -1464.0661    541.87509    491.32193    214.32877    34340.171 
  970400    303.76344   -1463.7103    541.30196    460.23074   -734.44641    34340.171 
  970500    294.39151   -1510.4962    510.73728    340.22196   -138.84319    34340.171 
  970600     300.3915   -1529.1757     525.6978    363.81313    20.550697    34340.171 
  970700    304.77188   -1555.6168    528.20315    359.81561   -1037.0791    34340.171 
  970800    300.15975   -1516.9377    529.66203    378.96054   -352.76958    34340.171 
  970900     298.7523    -1542.072    515.90184    333.65977    322.66394    34340.171 
  971000     301.9664   -1569.0976    518.61348     323.9754    287.89212    34340.171 
  971100    299.37623   -1497.8203    522.84602    387.69564    187.62095    34340.171 
  971200    294.08055   -1502.0731    522.11406    358.60651    98.320379    34340.171 
  971300    294.74651   -1489.6987    547.34755    399.24567    456.17662    34340.171 
  971400    296.91503    -1558.716    518.29017    311.04144    235.12204    34340.171 
  971500    295.46039   -1507.7519     509.8802    346.97443    645.13656    34340.171 
  971600    297.73068   -1549.8035    515.21318    320.58955    261.71506    34340.171 
  971700     298.5088   -1559.3532    538.29269    337.66108    312.36401    34340.171 
  971800    297.95046    -1556.331    493.39947    293.24869    314.50442    34340.171 
  971900    309.92128   -1549.2521    498.23201     359.6477    152.24225    34340.171 
  972000    297.14326   -1586.5374     519.5065    285.47514    33.552853    34340.171 
  972100    307.91096   -1544.0948    520.05824    377.48082    -96.44893    34340.171 
  972200    294.13479   -1555.9366    518.48037    301.35616     174.9694    34340.171 
  972300    302.57261   -1530.6947     527.1903    373.71443    301.71612    34340.171 
  972400    294.47247   -1503.8329    505.81419    342.33071    742.49266    34340.171 
  972500    299.75527   -1541.3575    524.56963    347.60729   -256.75351    34340.171 
  972600    310.83976   -1501.8967    499.94696     412.8986    435.55319    34340.171 
  972700    310.04571   -1482.3291    488.17655    417.08154    605.48019    34340.171 
  972800    300.34792   -1497.0333    499.28326    369.34263     130.2232    34340.171 
  972900    307.34125   -1483.9863    513.15217    428.09007    180.54732    34340.171 
  973000     296.0676   -1481.1691     522.6835    389.12435    135.52968    34340.171 
  973100     292.8686   -1524.2681    519.95065    328.73167    7.1415484    34340.171 
  973200    291.24157   -1485.4352    528.25656    368.46477    308.59201    34340.171 
  973300     302.1895   -1467.6765    516.26205    424.06057    688.98714    34340.171 
  973400    305.51614   -1479.0559    520.94293    432.50391    211.14373    34340.171 
  973500    298.73558   -1506.9504    526.72742    379.53084    311.66309    34340.171 
  973600    298.45075   -1479.8146    520.81855    399.46137    595.90491    34340.171 
  973700    292.48658   -1506.5188    523.01306    347.80454    55.367346    34340.171 
  973800    293.74307   -1550.3379    503.43588    290.12742   -169.21246    34340.171 
  973900    309.92599   -1564.2999    505.56088    351.95015    174.70816    34340.171 
  974000    300.79432   -1549.7415    510.24177    329.62488   -343.62477    34340.171 
  974100    301.60945   -1497.9142    510.39016    385.31083   -865.57068    34340.171 
  974200    302.02359   -1510.7629    523.29837     387.2553   -553.60458    34340.171 
  974300    307.61179   -1577.7281    483.84012    306.26769   -236.07262    34340.171 
  974400    291.39691   -1519.9706    512.94123     319.3211    248.77163    34340.171 
  974500    299.87974   -1519.5225    510.55147    355.99062   -9.7637519    34340.171 
  974600    303.76394   -1526.4863    525.19528    381.35031    221.05911    34340.171 
  974700    305.48986   -1494.1023    540.85143    437.24642    558.57642    34340.171 
  974800    300.34199   -1491.0689    502.64643    378.64328    88.656316    34340.171 
  974900    303.57825   -1503.3199    528.58264    407.05896   -253.02789    34340.171 
  975000    297.66748   -1524.9296     524.2825     354.2451     130.6624    34340.171 
  975100    302.51199    -1527.097    520.00799    369.85391    88.369273    34340.171 
  975200    304.69792   -1499.7825    538.89096     426.0011   -591.77514    34340.171 
  975300    299.69399   -1489.7705    533.42423    407.76993    361.40978    34340.171 
  975400    299.13523   -1534.2597    513.50195    340.81516    66.219408    34340.171 
  975500    297.36749   -1557.9559    524.68163    320.25244   -225.95168    34340.171 
  975600    296.08323   -1544.7629    511.51426    314.43251    640.70963    34340.171 
  975700    299.88791   -1565.2979    521.44481    321.14582     734.2716    34340.171 
  975800    287.46467   -1539.8611    524.77576    293.36675    709.22816    34340.171 
  975900    302.52358   -1516.4505    507.71183    368.25699    878.29533    34340.171 
  976000    301.17923   -1524.3284    548.31437    394.86255    1324.1659    34340.171 
  976100    303.45973   -1525.8285    508.35435    363.78257    474.05283    34340.171 
  976200    306.72356   -1512.3437    498.08397    381.85297    90.598636    34340.171 
  976300    306.06587   -1481.7342    545.44053    456.82544   -17.394999    34340.171 
  976400    303.44164   -1511.0822    508.93884      379.031    604.20417    34340.171 
  976500    300.60557    -1498.955    511.76506    381.07553    554.49983    34340.171 
  976600    304.73248     -1522.79    503.48877    367.74869    83.850805    34340.171 
  976700    296.87157   -1496.8701    516.96275    371.36203    459.36056    34340.171 
  976800    302.68749     -1469.23    516.44651    424.95824    178.70041    34340.171 
  976900    302.69036    -1479.385    503.17343    401.54321   -413.74407    34340.171 
  977000    303.12566   -1461.5884    491.41691    409.56464   -253.84582    34340.171 
  977100    300.77419   -1486.8215    518.93591    401.14736   -816.20667    34340.171 
  977200    297.09683   -1430.3571    530.67083    452.60844   -487.80255    34340.171 
  977300    298.04745   -1440.3701     498.0396    414.29118   -310.05888    34340.171 
  977400    296.35286   -1462.6033    513.74121     400.0463   -61.557132    34340.171 
  977500    301.53787   -1445.1945    516.45647    443.77101   -246.44021    34340.171 
  977600    293.45255   -1475.2177    513.69213    374.18145   -197.68447    34340.171 
  977700    305.11597   -1455.7461    518.93768    451.98704    281.22165    34340.171 
  977800    300.81683   -1503.3119    563.88607    429.80128   -130.70508    34340.171 
  977900    301.63103   -1496.3396    518.85512    395.44857    267.29006    34340.171 
  978000     297.9216   -1480.9325    513.54841     388.6647    605.52975    34340.171 
  978100    302.21261    -1480.271    506.08186    401.39107   -560.26434    34340.171 
  978200    297.03585   -1491.5537     519.3457    379.80911    -365.2257    34340.171 
  978300    290.85232   -1486.5324    522.73143    360.07067   -360.63049    34340.171 
  978400    300.34417   -1510.6723    510.31596    366.71931   -281.23446    34340.171 
  978500    312.01769   -1482.8269    513.79243    451.17553    183.29871    34340.171 
  978600    304.63328   -1483.4778    517.37388    420.49445   -248.41732    34340.171 
  978700    304.63337   -1485.0245    509.18579    410.76007    94.778442    34340.171 
  978800    298.41952   -1477.7791    497.06883    377.60491   -491.01499    34340.171 
  978900    298.14334   -1499.9241    518.44757    375.58157    815.76677    34340.171 
  979000     300.8017   -1484.7988     503.5053    387.86468    923.22638    34340.171 
  979100    290.85981   -1502.3557    520.13675    341.68677    278.71047    34340.171 
  979200    291.62123   -1482.8374    525.70447    370.23851    49.313636    34340.171 
  979300    295.98497   -1480.4343    534.46858    401.26816    61.224616    34340.171 
  979400    310.34237   -1469.7939    520.35032    463.14081     401.1214    34340.171 
  979500    298.10504   -1465.7384    514.99189    406.13731   -260.28992    34340.171 
  979600    314.73616   -1504.8288    518.82899    446.58378   -371.76329    34340.171 
  979700    304.72926   -1470.8193    483.64554    399.86148   -67.031057    34340.171 
  979800    293.35846   -1510.0866     506.8747    332.06689   -328.07546    34340.171 
  979900    311.89483   -1482.0215     513.9583    451.58758   -268.38581    34340.171 
  980000    305.30205   -1515.2606    494.83245    369.21428     251.0577    34340.171 
  980100    291.38284    -1484.332    510.33718    352.29152   -29.848595    34340.171 
  980200    301.53968   -1462.3291    509.05049    419.23862   -172.21095    34340.171 
  980300     295.2668   -1495.0109    514.19208    363.14613   -468.32074    34340.171 
  980400     294.6216   -1466.7906    503.52906    377.76673   -476.78345    34340.171 
  980500    292.78504   -1501.9617    502.16975    332.87682   -508.78716    34340.171 
  980600    294.51404   -1487.6503    502.66233    355.55073   -357.00449    34340.171 
  980700    293.79279   -1509.6384    527.19396    354.81128    136.38509    34340.171 
  980800    297.29554    -1451.427    514.17708    415.94928   -319.71579    34340.171 
  980900    298.61989   -1440.7403    517.26192    435.74889   -153.35556    34340.171 
  981000    309.12687   -1480.0752    511.30578    438.28243    384.06458    34340.171 
  981100     305.1902   -1476.9172    524.80816    437.02429    96.087656    34340.171 
  981200    306.35011   -1454.0725    526.46971    466.81009    471.46391    34340.171 
  981300    311.71339   -1477.6885    535.41495    476.55134    851.82942    34340.171 
  981400    296.97472   -1446.1886    504.37026    409.92054    402.48749    34340.171 
  981500    314.43218   -1428.8011    498.74012    501.13899    550.92212    34340.171 
  981600    289.70316   -1503.7629    495.71795    310.59605    95.926219    34340.171 
  981700    298.08123   -1491.5151    482.87211    348.13242   -299.53548    34340.171 
  981800    297.40492   -1500.1978    497.78292    351.28225    86.996759    34340.171 
  981900    311.81086   -1508.9519    536.64595    446.96266   -84.214809    34340.171 
  982000    293.47341   -1485.5973    495.98927    346.19403   -610.99074    34340.171 
  982100     296.7523   -1482.6292    491.04726    359.14464   -480.18218    34340.171 
  982200    296.46951   -1481.4471    516.53968    384.53192   -433.07276    34340.171 
  982300    296.30024   -1523.6715    495.91012    320.90747    70.661764    34340.171 
  982400     297.9154   -1497.1884    505.23315    364.06537   -75.364398    34340.171 
  982500    285.29595    -1496.756    532.15169    333.97642   -215.55389    34340.171 
  982600    292.65065    -1520.984    502.08737    313.16041   -504.36099    34340.171 
  982700    291.03915   -1475.5634    521.58642    370.74508    -579.0608    34340.171 
  982800    292.27691   -1478.2747    520.30368    372.38488   -849.75217    34340.171 
  982900    300.09775   -1482.1505    485.30298    369.10648   -1362.7927    34340.171 
  983000    303.17731   -1495.5219    528.00386     412.4532   -850.58992    34340.171 
  983100    299.67733   -1449.7613    535.87663    450.15575   -748.35511    34340.171 
  983200     297.0671   -1421.1309    541.54499    472.57352   -686.36178    34340.171 
  983300    308.71208    -1448.299    543.15428    500.01908    4.7819821    34340.171 
  983400     291.6387    -1425.318    531.12985    433.26279   -7.4676383    34340.171 
  983500    295.98547    -1496.479     529.4022    380.15933    30.590244    34340.171 
  983600     291.8467   -1510.4729    505.67307     323.5979    154.32936    34340.171 
  983700    303.00702   -1508.2955    503.25327    374.15388    87.748765    34340.171 
  983800    296.84216   -1498.7036     506.3882    358.82017   -341.94289    34340.171 
  983900     300.4529   -1531.1251    518.18912    354.63461   -137.79512    34340.171 
  984000    310.31912   -1528.4304    515.59572     399.6439   -5.7961452    34340.171 
  984100    298.55537   -1562.6007    519.47195     315.8048   -49.681592    34340.171 
  984200    302.07463   -1554.5878    505.22297    325.58737   -259.37471    34340.171 
  984300    291.25079   -1528.8073    527.37284    324.25086   -315.58768    34340.171 
  984400     287.6622   -1536.0887     528.7589    302.02138   -289.26715    34340.171 
  984500    294.04052    -1532.156    519.70158    325.92892    198.84854    34340.171 
  984600    300.88761   -1516.0629    537.92673    391.41301    384.37718    34340.171 
  984700    302.44331   -1527.1504    540.58871    390.06864    722.72585    34340.171 
  984800    304.40408   -1518.8895    524.12009    390.78572    278.96615    34340.171 
  984900     290.5124   -1527.6629    524.45267    319.11418    737.51488    34340.171 
  985000    296.61517   -1571.7203    508.89661    287.27867    592.28413    34340.171 
  985100    295.92931   -1564.0881    499.20816    282.10058    338.44804    34340.171 
  985200    304.98661   -1535.6043    514.06631    366.66865   -54.201713    34340.171 
  985300    305.19555   -1541.6747    507.61319    355.09614   -299.32226    34340.171 
  985400     303.8227   -1533.9562    531.64823    380.60084   -355.75985    34340.171 
  985500     299.8259   -1490.1321    584.29595    458.88048   -219.95148    34340.171 
  985600    301.71666   -1505.4381        514.5    382.38468    -233.1782    34340.171 
  985700    299.57962   -1508.4711    523.31806    378.44257   -125.29687    34340.171 
  985800    299.41693   -1467.2939    509.82866    405.38985    133.82648    34340.171 
  985900     300.6183   -1496.7686    524.20478    395.75953   -420.58164    34340.171 
  986000    300.32206   -1513.3873    520.88227    374.46997   -318.88779    34340.171 
  986100    293.08804   -1521.9505    484.68806    296.78548   -412.11837    34340.171 
  986200      293.766   -1518.8017    514.81304    333.14514    259.33439    34340.171 
  986300    305.30739     -1517.08    522.78687    395.37359    420.50579    34340.171 
  986400    292.08243   -1454.4129    563.12977     438.1876    301.88119    34340.171 
  986500    297.41953    -1492.879    529.60073    390.48533     165.4897    34340.171 
  986600    299.56799   -1507.3525    507.84095    364.03116   -407.97888    34340.171 
  986700    299.62355   -1483.7097    555.89174    435.97759   -510.68353    34340.171 
  986800    297.03779   -1502.7416    500.01823    349.30262   -748.80885    34340.171 
  986900    304.25948   -1519.7447    515.40032    380.55261   -1238.8623    34340.171 
  987000    299.19015   -1544.2496    514.98081    332.55415    -1275.801    34340.171 
  987100    298.54865   -1523.5198    507.23585    342.61905   -585.72508    34340.171 
  987200    299.23447   -1529.6396    565.83085    398.21591   -60.794353    34340.171 
  987300     294.1132   -1535.8664    506.11908     308.9669    107.50985    34340.171 
  987400    298.09293   -1487.3347    525.81006    395.30406    55.153179    34340.171 
  987500    300.65717   -1489.8879     520.9026    399.51501    111.96961    34340.171 
  987600    294.34179   -1512.6826    512.50597    339.57802   -170.00521    34340.171 
  987700    293.97018   -1493.4073    530.57343    375.22927    532.18948    34340.171 
  987800    296.90014   -1521.8261    510.70661    340.27994    389.01219    34340.171 
  987900    302.57985   -1561.1643    497.44661    313.53408    495.67102    34340.171 
  988000    300.55735   -1514.9649    533.43812     386.5192    597.51551    34340.171 
  988100     304.1765   -1485.4502    546.16826    445.23734    1087.8629    34340.171 
  988200    297.89319   -1497.3993    542.62316    401.14341    870.47149    34340.171 
  988300    303.30192   -1505.1951    538.59533    413.93863    1704.2076    34340.171 
  988400     307.9327   -1508.0386    523.49539    417.07315    628.08212    34340.171 
  988500    296.54633   -1535.0036    521.65912    336.44454    269.17163    34340.171 
  988600    296.87453   -1536.5672    539.32615    354.04181   -192.97293    34340.171 
  988700    295.73179   -1528.0666     516.0106    334.02543   -510.30025    34340.171 
  988800    307.11752   -1538.0526    507.04585     366.8992   -151.35489    34340.171 
  988900    308.22083   -1519.0945    548.36714    432.20046    304.37023    34340.171 
  989000    302.02971   -1537.9336    529.63836    366.45254    750.12966    34340.171 
  989100    292.42895   -1498.8875    528.67752    360.83803    724.11457    34340.171 
  989200    298.40512   -1510.3118    551.52112    399.45899    137.38413    34340.171 
  989300    301.56046   -1529.7368    500.91427    343.78928    293.43677    34340.171 
  989400    299.04755   -1551.5109    532.99215    342.65504   -97.037997    34340.171 
  989500    318.50103   -1526.5955    501.26978    424.39444     459.6998    34340.171 
  989600    304.85594   -1573.4314    521.78728    335.96773    393.17516    34340.171 
  989700     302.9193   -1520.6254    506.19395    364.36542    301.62738    34340.171 
  989800    289.23879   -1544.0939    523.20139    295.63479    -274.8689    34340.171 
  989900    306.23018   -1530.0969    546.08406    409.85412    523.47655    34340.171 
  990000    295.37674   -1538.4626    557.60305    363.60582    725.55759    34340.171 
  990100    290.62922   -1537.6696    528.57583    313.76234   -149.22807    34340.171 
  990200    290.37231   -1549.2833    532.33317    304.73666   -671.06803    34340.171 
  990300    295.66937   -1545.4088    519.36365    319.75223   -558.92896    34340.171 
  990400     300.4405   -1553.7837     512.6034    326.33383    -264.6343    34340.171 
  990500      292.993   -1510.6244    521.75143    344.74242    189.98046    34340.171 
  990600    296.13745   -1520.8344    526.64447    353.73805    589.35903    34340.171 
  990700    309.55181   -1483.6857    531.54913    456.84942    1228.8901    34340.171 
  990800    293.38474   -1508.6737    507.83514    334.55987    410.49504    34340.171 
  990900    298.50982   -1524.3485    551.07797    385.45564    1087.1592    34340.171 
  991000    305.43776   -1507.2643    537.52636    420.52224    991.30178    34340.171 
  991100    299.74086   -1555.5351    517.83503    326.62952    180.47709    34340.171 
  991200    291.06551   -1531.0662    530.98761     324.7634    242.67566    34340.171 
  991300    297.69445   -1558.4741    521.42971    317.97049   -80.477456    34340.171 
  991400    301.62648     -1565.51     506.5511    313.95339   -96.399955    34340.171 
  991500    298.14038   -1552.5171    516.69311    321.22066    642.34459    34340.171 
  991600    298.08089   -1528.7273    533.08307    361.12962     188.1428    34340.171 
  991700    309.16243   -1531.5994    519.93683    395.55113    296.48162    34340.171 
  991800    299.51893   -1539.7969    525.59949    349.12204     431.7417    34340.171 
  991900    296.20244   -1581.4275    523.68979    290.48607   -252.60228    34340.171 
  992000    299.92427   -1540.4602    527.93268     352.6368    361.31331    34340.171 
  992100    303.10712    -1522.768    522.03588    378.91964    109.25015    34340.171 
  992200    312.58461   -1501.1141    509.39364    431.06995   -488.07612    34340.171 
  992300    296.46808   -1539.9386    478.84488    288.33913   -969.19447    34340.171 
  992400    295.27909   -1571.2173    510.36473    283.16836   -585.42469    34340.171 
  992500    302.10946   -1577.4966    504.17298    301.78706   -880.68999    34340.171 
  992600    302.83878   -1582.7589    516.81735    312.48882   -11.550943    34340.171 
  992700    303.27029   -1569.1165    506.06389     317.3418   -311.90817    34340.171 
  992800    301.28158   -1541.0182    511.70073    342.02501    53.374206    34340.171 
  992900    302.68181   -1563.0946    523.71731    338.33853    196.31936    34340.171 
  993000    292.46447    -1547.551    521.98599    305.64467   -967.68213    34340.171 
  993100    296.68113   -1534.7121    529.39023    345.08077   -682.02331    34340.171 
  993200    299.47827   -1509.9518    510.55885    363.74139   -791.65608    34340.171 
  993300    310.29896   -1514.9429    512.58312     410.0271   -577.37257    34340.171 
  993400    289.63306    -1475.634    520.01579    362.70367    -611.4734    34340.171 
  993500    304.04863    -1495.874    540.75392    428.81714    99.551575    34340.171 
  993600    303.56996   -1460.8115     519.9054    440.85237    1207.1331    34340.171 
  993700    299.18594    -1527.954    521.92981    355.77954    1067.9203    34340.171 
  993800    297.08606   -1519.6659     527.4807    360.06047    632.70061    34340.171 
  993900    298.00292   -1519.2248    523.40511    360.59933    840.05953    34340.171 
  994000    295.85011   -1488.6919      532.576    390.50415   -390.23949    34340.171 
  994100    297.44597   -1455.9289    521.00605      418.961     341.7612    34340.171 
  994200    293.64092   -1480.8798    528.87251    384.55717    331.10032    34340.171 
  994300    297.19427   -1545.5233    511.66421    318.87915   -229.92255    34340.171 
  994400    293.61566   -1519.8755    505.04836    321.62235    576.02474    34340.171 
  994500    300.85367   -1518.7612    497.03668     347.6702    1053.0701    34340.171 
  994600    305.82238   -1522.0418    529.34308    399.31203    495.84384    34340.171 
  994700    288.53741   -1532.1412    528.10465    309.29834    203.94139    34340.171 
  994800    307.29911     -1527.02     522.3178    394.03022   -187.80987    34340.171 
  994900    296.59114   -1539.8635    497.84799    307.97745    448.79793    34340.171 
  995000    295.92938    -1505.402    487.05779    328.63665     327.2341    34340.171 
  995100    297.30087   -1542.2944    519.69933    330.62841    267.39015    34340.171 
  995200    302.14933   -1499.0062    540.21001    416.49603    532.90827    34340.171 
  995300    297.32739   -1529.3538    510.92846    334.91888    64.306091    34340.171 
  995400     291.8691   -1472.6775     518.6383    374.46047    237.66074    34340.171 
  995500    305.71079   -1501.4099    505.96322    396.05624   -39.312967    34340.171 
  995600    304.40557    -1486.182    524.03559     423.4155    302.08183    34340.171 
  995700    307.99118   -1538.6758    505.44178    368.64847    878.59504    34340.171 
  995800    285.01645    -1523.925    505.26309    278.64661    112.13196    34340.171 
  995900    308.22749   -1560.7892    508.30093    350.46981    566.81353    34340.171 
  996000    304.33496   -1557.5035    499.33306    327.07008   -155.40724    34340.171 
  996100    283.20991   -1515.7771    504.42659    277.73518   -784.92805    34340.171 
  996200    303.33912   -1522.7867    482.02598    339.94703   -962.13314    34340.171 
  996300    287.74736   -1496.6053    502.91566     316.0491   -656.98563    34340.171 
  996400     293.2336   -1488.4005    496.95721     343.2672   -630.57851    34340.171 
  996500    309.24551    -1503.304    523.18825    427.47608    -431.7601    34340.171 
  996600    290.87776   -1482.5168    500.14108    341.61171   -132.02539    34340.171 
  996700    294.98204   -1497.3896    521.69076    366.97004   -248.55717    34340.171 
  996800    294.12512   -1475.3306    510.79541    374.23323   -327.57661    34340.171 
  996900    304.18427   -1478.2031    514.56978    420.92129    543.14225    34340.171 
  997000    287.35944   -1439.9732    529.43835    397.43827   -321.10601    34340.171 
  997100    301.70328   -1454.7849    538.77654    457.25349   -212.76828    34340.171 
  997200    307.26187   -1459.8831    544.33228    483.01213    517.85595    34340.171 
  997300    295.14965   -1497.1048    547.91894    394.24593    962.27047    34340.171 
  997400     296.2984   -1484.3577    529.91577    394.21861    532.58595    34340.171 
  997500    300.42168   -1501.3128    501.60185    367.71745    442.66946    34340.171 
  997600    295.75078   -1469.0627    544.86478    421.97004    5.4141575    34340.171 
  997700    306.33009    -1504.574    505.05729    394.80497   -62.245361    34340.171 
  997800     300.4148   -1520.4842    531.07186    377.98477    50.341768    34340.171 
  997900    300.80853   -1515.1223    512.85539    366.92239     277.0519    34340.171 
  998000    305.53655   -1475.0072    507.20657    422.90909   -168.99675    34340.171 
  998100    298.72234    -1535.835    506.70457    330.56311    -293.9079    34340.171 
  998200    309.88881   -1488.0371    543.30879    465.79167   -848.82069    34340.171 
  998300    293.96944   -1523.8156    489.18037    303.42459   -374.04377    34340.171 
  998400    294.82124   -1548.9004    514.35517    307.39177    -497.3383    34340.171 
  998500    303.08447   -1507.0265    523.94213    396.46424   -21.939843    34340.171 
  998600    288.51562   -1519.1264      523.306    317.41526   -502.10079    34340.171 
  998700      303.422   -1507.0644    509.33689    383.35749   -180.85568    34340.171 
  998800    298.21745   -1523.3465    495.84476    329.89376   -1240.8975    34340.171 
  998900    299.96208   -1527.8383    521.63003    359.12819   -728.58462    34340.171 
  999000    296.98558    -1561.157    498.33583    288.96713   -1122.8653    34340.171 
  999100    300.67209   -1531.9515    492.87389    329.49064   -654.00802    34340.171 
  999200    302.01607   -1521.4272    504.78452    358.04297    -490.1992    34340.171 
  999300    295.78153   -1479.2783    511.90501    378.93465   -366.20884    34340.171 
  999400    304.11368   -1513.4903     528.0452    398.78823   -41.571737    34340.171 
  999500    294.14268   -1557.6603    514.86891    296.05692    244.04902    34340.171 
  999600    301.24718   -1567.9524    517.35882    320.59231    748.58095    34340.171 
  999700    299.62725   -1502.7308     538.9278    400.00943    -208.4944    34340.171 
  999800    296.08906   -1551.7344    528.66245    324.63573   -646.88377    34340.171 
  999900    304.02212   -1544.3678    521.84843    361.29718   -143.11063    34340.171 
 1000000    299.05313   -1532.0899    527.05156    356.16086   -133.92693    34340.171 
 1000100    303.40939   -1514.5033    507.19795    373.72224    12.066939    34340.171 
 1000200    303.76434   -1485.8904    536.15487    432.90768    119.49582    34340.171 
 1000300    305.55836   -1529.9159    540.82049    401.71366    44.196888    34340.171 
 1000400    294.25884   -1585.3191    515.14079    269.19871   -111.10615    34340.171 
 1000500    287.82389   -1579.7751    498.09867    228.41066    61.773197    34340.171 
 1000600    290.58385   -1574.6583    526.48535    274.47666    201.43375    34340.171 
 1000700     303.3107   -1510.1363    532.78537     403.2275    282.02163    34340.171 
 1000800     302.1762   -1525.3557    519.65369    369.71251    217.88339    34340.171 
 1000900    291.06338   -1560.5352    494.85759    259.15462   -32.473599    34340.171 
 1001000    298.55226    -1561.198    518.48198    316.20347   -217.21452    34340.171 
 1001100    300.49075   -1532.1851     541.0575    376.61526    664.49601    34340.171 
 1001200    297.98127   -1578.8387    518.40121    295.88295    172.42815    34340.171 
 1001300    300.41049   -1538.6682    542.49966    371.20895    710.71308    34340.171 
 1001400    296.45824   -1538.1051    496.61835    307.90129    167.37387    34340.171 
 1001500    297.33074   -1552.4535    526.60043    327.50636   -32.046696    34340.171 
 1001600    292.11029   -1547.6945    519.66676    301.56982     196.2742    34340.171 
 1001700    292.76724   -1534.2317    491.63791      289.994   -756.77176    34340.171 
 1001800    308.02194    -1485.611    545.52997    461.94147    5.0990733    34340.171 
 1001900    302.51389   -1487.0937    526.68752    416.54537   -58.821213    34340.171 
 1002000    301.22147   -1552.4834    527.12043    345.70586    352.59128    34340.171 
 1002100    305.09708   -1534.5625    516.76085    370.90784   -1.5750143    34340.171 
 1002200    300.71638   -1535.4788     533.2705    366.56156    128.93716    34340.171 
 1002300    294.87059   -1512.3072    505.83403    335.68844    42.972734    34340.171 
 1002400    294.82299   -1533.7999     507.8999    316.04488   -249.68746    34340.171 
 1002500    290.32365   -1542.7073    521.27425    300.03223    271.62927    34340.171 
 1002600    296.48198   -1553.6715    508.37405    304.19868       166.98    34340.171 
 1002700    309.75696   -1511.5412    522.00818    420.38679    470.10102    34340.171 
 1002800    291.26488   -1536.2054    520.09605    309.64016    264.10702    34340.171 
 1002900    289.75724   -1473.8796    521.51078     366.5183    1053.9999    34340.171 
 1003000      308.823   -1502.3252    551.23632    454.57984    150.53187    34340.171 
 1003100    289.58052   -1549.3495    509.15339    277.88664    183.23116    34340.171 
 1003200    298.91907   -1516.4206    520.25919    364.42764    530.26816    34340.171 
 1003300    312.74719    -1559.927    528.28473    391.88822    640.09725    34340.171 
 1003400    297.25045   -1513.1979    545.13904    384.93509    865.62925    34340.171 
 1003500    304.79935   -1503.9867    527.86234    411.22993    473.13257    34340.171 
 1003600     304.8836   -1553.7562    517.80715    351.78875    206.21091    34340.171 
 1003700     309.6202   -1509.7275    530.29737    429.86723   -233.67655    34340.171 
 1003800    296.86819   -1529.5224    512.37536    334.10697    335.79079    34340.171 
 1003900    294.13749   -1543.6059     513.6456    308.86443    186.72022    34340.171 
 1004000    297.91655   -1532.3772     507.7852    331.43383    454.25654    34340.171 
 1004100     299.2759   -1546.7129    537.93724    353.43753    38.325083    34340.171 
 1004200    309.07093   -1524.5412    524.00166    406.25762    294.50045    34340.171 
 1004300     305.0556   -1547.4177    524.42366    365.52665    1072.4029    34340.171 
 1004400    296.24874    -1571.712     525.6235    302.34597    238.14005    34340.171 
 1004500    306.92833   -1513.1956    496.75823    380.60736    119.99678    34340.171 
 1004600    296.00808   -1453.7419    522.39825    415.99543   -847.13667    34340.171 
 1004700    306.24071   -1553.7851    526.97101     367.1008   -865.38646    34340.171 
 1004800    292.19441   -1487.7791    510.89307    353.09432   -209.21736    34340.171 
 1004900    302.33886   -1483.4197    522.20387      414.939   -523.47131    34340.171 
 1005000    295.45825   -1501.2793     516.4594    360.01658   -193.42788    34340.171 
 1005100     297.4222   -1514.2266    523.80624    363.35534    235.62857    34340.171 
 1005200    301.21941   -1480.9608    508.07704    398.17576   -516.21071    34340.171 
 1005300     300.2793   -1477.4289    531.58276    420.93429   -29.622054    34340.171 
 1005400    296.78995   -1521.1628    524.10982    353.84493   -611.48399    34340.171 
 1005500    302.18892   -1506.1009    534.38969    403.76119    302.52055    34340.171 
 1005600    304.58398   -1551.9977    517.15554    351.53185    46.574534    34340.171 
 1005620    298.93883   -1562.7249    520.34895    318.30303    163.36253    34340.171 
Loop time of 602.765 on 32 procs for 1000000 steps with 1528 atoms

Performance: 143.339 ns/day, 0.167 hours/ns, 1659.021 timesteps/s
100.0% CPU use with 32 MPI tasks x no OpenMP threads

MPI task timing breakdown:
Section |  min time  |  avg time  |  max time  |%varavg| %total
---------------------------------------------------------------
Pair    | 268.46     | 296.22     | 321.72     |  60.1 | 49.14
Bond    | 1.4643     | 1.6871     | 2.073      |  10.4 |  0.28
Neigh   | 38.485     | 38.565     | 38.639     |   0.9 |  6.40
Comm    | 227.28     | 252.72     | 280.51     |  64.8 | 41.93
Output  | 0.39525    | 0.41145    | 0.86048    |  12.6 |  0.07
Modify  | 10.135     | 10.304     | 10.544     |   3.6 |  1.71
Other   |            | 2.864      |            |       |  0.48

Nlocal:        47.7500 ave          68 max          19 min
Histogram: 1 2 1 1 4 6 7 5 4 1
Nghost:        2143.84 ave        2254 max        2041 min
Histogram: 2 6 4 4 1 1 2 5 6 1
Neighs:        5723.66 ave        8896 max        2178 min
Histogram: 2 2 1 2 5 6 9 1 2 2

Total # of neighbors = 183157
Ave neighs/atom = 119.86715
Ave special neighs/atom = 2.0628272
Neighbor list builds = 49449
Dangerous builds = 0

# Output the system volume
variable v equal vol
print 'The system volume is $v'
The system volume is 34340.17071631

# Outputs
variable A equal xhi-xlo
variable B equal yhi-ylo
variable C equal zhi-zlo
variable D equal xy
variable E equal xz
variable F equal yz
print 'Lattice vectors'
Lattice vectors
print '$A 0 0'
32.5038009649357 0 0
print '$D $B 0'
0 32.5038009649357 0
print '$E $F $C'
0 0 32.5038009649357
Total wall time: 0:10:07
