LAMMPS (29 Sep 2021 - Update 1)
# Test LAMMPS input file for single DeFDe

# Initialize simulation

clear

units real
atom_style full
boundary p p p
dielectric 1
special_bonds dreiding

bond_style harmonic
angle_style harmonic
dihedral_style harmonic
improper_style umbrella
pair_style hybrid/overlay hbond/dreiding/lj 4 9.0 11.0 90 lj/cut 8.50000

# Read data file
read_data frag5.dat
Reading data file ...
  triclinic box = (0.0000000 0.0000000 0.0000000) to (15.000000 15.000000 15.000000) with tilt (0.0000000 0.0000000 0.0000000)
  2 by 4 by 4 MPI processor grid
  reading atoms ...
  1535 atoms
  scanning bonds ...
  3 = max bonds/atom
  scanning angles ...
  6 = max angles/atom
  scanning dihedrals ...
  10 = max dihedrals/atom
  scanning impropers ...
  2 = max impropers/atom
  reading bonds ...
  1039 bonds
  reading angles ...
  565 angles
  reading dihedrals ...
  103 dihedrals
  reading impropers ...
  19 impropers
Finding 1-2 1-3 1-4 neighbors ...
  special bond factors lj:    0        0        1       
  special bond factors coul:  0        0        1       
     4 = max # of 1-2 neighbors
     7 = max # of 1-3 neighbors
    11 = max # of special neighbors
  special bonds CPU = 0.002 seconds
  read_data CPU = 0.018 seconds

# Dreiding potential information

bond_coeff 1 525 1.39
bond_coeff 2 350 1.46
bond_coeff 3 350 1.35
bond_coeff 4 350 1.42
bond_coeff 5 350 1.32
bond_coeff 6 350 1.36
bond_coeff 7 350 1.02
bond_coeff 8 350 0.99
bond_coeff 9 350 0.98

angle_coeff 1 50 120
angle_coeff 2 50 104.51
angle_coeff 3 50 109.471
angle_coeff 4 50 120

dihedral_coeff 1 3.125 -1 2
dihedral_coeff 2 0.0833333333333333 -1 6
dihedral_coeff 3 0.5 -1 2
dihedral_coeff 4 0.333333333333333 -1 3
dihedral_coeff 5 0.625 -1 2

improper_coeff 1 40 0

pair_coeff 1 1 lj/cut 0.0951 3.8983
pair_coeff 1 2 lj/cut 0.0953995283007206 3.64309650983885
pair_coeff 1 3 lj/cut 0.0951 3.8983
pair_coeff 1 4 lj/cut 0.0951 3.8983
pair_coeff 1 5 lj/cut 0.0380199947396104 3.52917391183829
pair_coeff 1 6 lj/cut 0.00308382878902186 3.52806914614779
pair_coeff 2 2 lj/cut 0.0957 3.4046
pair_coeff 2 3 lj/cut 0.0953995283007206 3.64309650983885
pair_coeff 2 4 lj/cut 0.0953995283007206 3.64309650983885
pair_coeff 2 5 lj/cut 0.0381397430510485 3.29813538230316
pair_coeff 2 6 lj/cut 0.0030935416596516 3.29710294046152
pair_coeff 3 3 lj/cut 0.0951 3.8983
pair_coeff 3 4 lj/cut 0.0951 3.8983
pair_coeff 3 5 lj/cut 0.0380199947396104 3.52917391183829
pair_coeff 3 6 lj/cut 0.00308382878902186 3.52806914614779
pair_coeff 4 4 lj/cut 0.0951 3.8983
pair_coeff 4 5 lj/cut 0.0380199947396104 3.52917391183829
pair_coeff 4 6 lj/cut 0.00308382878902186 3.52806914614779
pair_coeff 5 5 lj/cut 0.0152 3.195
pair_coeff 5 6 lj/cut 0.0012328828005938 3.19399984345648
pair_coeff 6 6 lj/cut 1e-04 3.193
pair_coeff 2 2 hbond/dreiding/lj 6 j 9.50 2.75 4 9.0 11.0 90

neighbor 2 bin
neigh_modify every 2 one 10000

# Gemoetric relaxation
fix 1 all box/relax iso 1.0 vmax 0.001
minimize 1.0e-4 1.0e-6 10000 10000
WARNING: Using 'neigh_modify every 1 delay 0 check yes' setting during minimization (../min.cpp:188)
Neighbor list info ...
  update every 1 steps, delay 0 steps, check yes
  max neighbors/atom: 10000, page size: 100000
  master list distance cutoff = 13
  ghost atom cutoff = 13
  binsize = 6.5, bins = 3 3 3
  3 neighbor lists, perpetual/occasional/extra = 3 0 0
  (1) pair hbond/dreiding/lj, perpetual, skip from (3)
      attributes: full, newton on
      pair build: skip
      stencil: none
      bin: none
  (2) pair lj/cut, perpetual, half/full from (3)
      attributes: half, newton on
      pair build: halffull/newton
      stencil: none
      bin: none
  (3) neighbor class addition, perpetual
      attributes: full, newton on
      pair build: full/bin
      stencil: full/bin/3d
      bin: standard
Per MPI rank memory allocation (min/avg/max) = 15.02 | 15.45 | 16.10 Mbytes
Step Temp E_pair E_mol TotEng Press Volume 
       0            0 1.4415856e+16     304.1269 1.4415856e+16 1.1715228e+18         3375 
    6255            0   -1142.5802    94.016539   -1048.5636    119.19754    32966.302 
Loop time of 5.9578 on 32 procs for 6255 steps with 1535 atoms

99.9% CPU use with 32 MPI tasks x no OpenMP threads

Minimization stats:
  Stopping criterion = energy tolerance
  Energy initial, next-to-last, final = 
    1.44158557453281e+16  -1048.06481912553  -1048.13206616249
  Force two-norm initial, final = 1.5633056e+18 105.20956
  Force max component initial, final = 8.3211008e+17 79.752383
  Final line search alpha, max atom move = 1.7298492e-05 0.0013795960
  Iterations, force evaluations = 6255 6262

MPI task timing breakdown:
Section |  min time  |  avg time  |  max time  |%varavg| %total
---------------------------------------------------------------
Pair    | 1.3115     | 3.0365     | 5.0862     |  51.8 | 50.97
Bond    | 0.0068808  | 0.01511    | 0.044949   |   6.3 |  0.25
Neigh   | 0.10328    | 0.1038     | 0.10423    |   0.1 |  1.74
Comm    | 0.32922    | 2.3785     | 4.1119     |  58.7 | 39.92
Output  | 0          | 0          | 0          |   0.0 |  0.00
Modify  | 0          | 0          | 0          |   0.0 |  0.00
Other   |            | 0.4239     |            |       |  7.11

Nlocal:        47.9688 ave          71 max          22 min
Histogram: 1 0 5 4 4 5 5 4 1 3
Nghost:        2228.31 ave        2362 max        2098 min
Histogram: 5 10 1 0 0 0 1 3 7 5
Neighs:        5952.28 ave       10401 max        2440 min
Histogram: 2 5 5 1 5 7 1 3 1 2

Total # of neighbors = 190473
Ave neighs/atom = 124.08664
Ave special neighs/atom = 2.0899023
Neighbor list builds = 93
Dangerous builds = 0

# MD simulation
velocity all create 300.0 12345 rot yes dist gaussian
timestep 1.0
fix 2 all nvt temp 300.0 300.0 1

# Compute interaction energy
group WAT molecule <> 2 501
1500 atoms in group WAT
group MOL molecule 1
35 atoms in group MOL

compute w WAT group/group MOL pair yes
fix 3 all ave/time 10 5 100 c_w file outa

# Outputs
thermo 100 # Output thermodynamic data every nth step
#dump mf1 all xyz 10000 mol_*.xyz

# Run
run 1000000
Neighbor list info ...
  update every 2 steps, delay 10 steps, check yes
  max neighbors/atom: 10000, page size: 100000
  master list distance cutoff = 13
  ghost atom cutoff = 13
  binsize = 6.5, bins = 5 5 5
  4 neighbor lists, perpetual/occasional/extra = 3 1 0
  (1) pair hbond/dreiding/lj, perpetual, skip from (4)
      attributes: full, newton on
      pair build: skip
      stencil: none
      bin: none
  (2) pair lj/cut, perpetual, half/full from (4)
      attributes: half, newton on
      pair build: halffull/newton
      stencil: none
      bin: none
  (3) compute group/group, occasional, copy from (2)
      attributes: half, newton on
      pair build: copy
      stencil: none
      bin: none
  (4) neighbor class addition, perpetual
      attributes: full, newton on
      pair build: full/bin
      stencil: full/bin/3d
      bin: standard
Per MPI rank memory allocation (min/avg/max) = 13.87 | 14.00 | 14.57 Mbytes
Step Temp E_pair E_mol TotEng Press Volume 
    6255          300   -1142.5802    94.016539    323.20516    2021.3421    32966.302 
    6300    296.36894    -1098.633    322.88358    579.41612    2587.6418    32966.302 
    6400    305.65177   -1097.6577    263.79255    563.74675    2194.9867    32966.302 
    6500    312.32626   -1166.5061    244.28312    505.90843    1485.7419    32966.302 
    6600    302.03798     -1112.16    299.98534    568.91287    1002.7033    32966.302 
    6700    300.70539   -1103.4631      273.507    545.03809    516.85312    32966.302 
    6800      296.324   -1094.7491    271.62834    531.83929    439.61898    32966.302 
    6900    293.29381   -1129.8042     271.9402    483.24028    164.64149    32966.302 
    7000    300.02166   -1117.1387    282.42268    537.15179    541.30733    32966.302 
    7100    295.70657   -1114.5213    275.96614    513.58161   -186.96884    32966.302 
    7200    296.97308   -1133.5425     278.8833    503.26881    45.097197    32966.302 
    7300    304.62802   -1104.3553     283.1949    571.77029   -547.90344    32966.302 
    7400    296.17283   -1112.3192    296.98145    538.93105    505.55875    32966.302 
    7500    305.75153   -1114.4166    284.94867    568.60006     443.5298    32966.302 
    7600     296.1389   -1117.5199    297.75851    534.35227    296.94117    32966.302 
    7700    304.71297   -1108.2762    303.86661    588.90956    144.75391    32966.302 
    7800     304.2659   -1090.5225    280.65228     581.4046    662.33006    32966.302 
    7900    292.96862   -1056.4215     302.9084     586.1043     507.9732    32966.302 
    8000    307.33761    -1100.845    316.28778    620.76325    365.48496    32966.302 
    8100    287.35234   -1097.9421    305.12423    521.11868    397.97382    32966.302 
    8200    300.91527   -1105.9132    298.70528    568.74594    7.5496487    32966.302 
    8300    306.18941   -1106.7807    308.29343    601.58292      136.067    32966.302 
    8400    294.40162   -1091.1718    306.26093    561.25898    379.25084    32966.302 
    8500     299.7864   -1047.8422     304.5208    627.47074    108.19031    32966.302 
    8600     301.8481   -1051.5313    295.53377    624.22176     602.9964    32966.302 
    8700    307.23539   -1091.7962    308.05763     621.1145    274.18058    32966.302 
    8800    307.80354   -1087.8428    308.19231    627.80043    558.47477    32966.302 
    8900    299.68883   -1067.5084    299.25169     602.0892    894.88433    32966.302 
    9000    292.96697   -1079.9191    327.96595    587.65667    696.59019    32966.302 
    9100    295.67257   -1117.1465    309.99144    544.82624    805.22186    32966.302 
    9200    295.18262   -1109.3962     324.2389    564.58376     605.0449    32966.302 
    9300    307.65158   -1130.2518    309.61187    586.11616    782.76852    32966.302 
    9400    303.45847   -1102.6901    315.97708    600.86983    839.48103    32966.302 
    9500    308.25092   -1111.0799    333.89598    632.31271    592.40084    32966.302 
    9600    304.11499   -1092.9504    313.66883    611.30325    767.15725    32966.302 
    9700     296.7667   -1171.1146    337.14665    523.01632    465.80425    32966.302 
    9800    295.60483   -1152.1679    317.02563     516.5293     1086.991    32966.302 
    9900    302.97486    -1152.987    321.77527    554.15977     736.1923    32966.302 
   10000    305.60214   -1102.6165    339.69953    634.46795    966.35174    32966.302 
   10100    297.00236   -1144.3254    326.13711    539.87357    408.35246    32966.302 
   10200    297.41917   -1165.7932    335.97125     530.1458    382.78774    32966.302 
   10300    295.74143   -1163.4477    336.64437    525.49292    502.51429    32966.302 
   10400    293.70978   -1127.0415    315.67083     531.6357    804.01122    32966.302 
   10500    292.36852   -1139.3514    339.51446    537.03639     877.9825    32966.302 
   10600    302.63087   -1131.3834    338.19902    590.61417    818.07517    32966.302 
   10700    295.45027   -1117.2947    350.61467    584.28483    841.09758    32966.302 
   10800    299.29792   -1137.8625    333.81755    564.51351    1048.2452    32966.302 
   10900    298.82954   -1111.6052    344.34468    599.15632    325.50677    32966.302 
   11000    301.99703   -1115.7183    351.39353    616.57555    5.3805571    32966.302 
   11100    303.81356   -1161.2723    337.60509    565.53937    22.963547    32966.302 
   11200    292.76077    -1151.253    329.68821     517.1022    178.83902    32966.302 
   11300    303.60336   -1221.6241    327.02001    493.64125   -310.88516    32966.302 
   11400    304.45624   -1168.0091    343.71079    567.84696   -149.00033    32966.302 
   11500    296.31157   -1176.8247    326.29989    504.37833   -166.48449    32966.302 
   11600    283.90644   -1125.0766    378.21645    551.31984    557.84729    32966.302 
   11700    296.96563   -1152.6772    346.52964    551.74632    155.00886    32966.302 
   11800    294.66824   -1129.1986    354.81809    573.00846    510.32541    32966.302 
   11900    311.15793   -1078.4877    335.29454    679.59598    954.42212    32966.302 
   12000    301.39535   -1170.4383    348.09632    555.80715    425.60708    32966.302 
   12100    294.12387   -1142.1847    357.57829    560.29338    834.33622    32966.302 
   12200    305.44735   -1119.9903    326.51138    603.19817    1412.9713    32966.302 
   12300    298.74235   -1105.6589     368.4989    628.85808    1104.3886    32966.302 
   12400    293.75131   -1173.6651    362.19644    531.72754    740.67603    32966.302 
   12500     286.7214   -1162.1725    378.76193    527.64102    522.70621    32966.302 
   12600    299.15075   -1124.9634    356.37972    599.30188    901.24643    32966.302 
   12700    290.33632   -1125.1007    334.00209    536.48237    997.35636    32966.302 
   12800    305.40723   -1148.5411    367.55319    615.50582     281.0804    32966.302 
   12900    301.14964   -1168.5618    332.83497    541.29871    260.98767    32966.302 
   13000     307.5297    -1111.759    390.92107    685.36087    593.67121    32966.302 
   13100    298.53745   -1153.7918    331.79037     543.0797    265.11271    32966.302 
   13200    306.97139   -1131.6737    355.79586     627.7681    790.37051    32966.302 
   13300    297.53896   -1135.4452     366.4087      591.479    367.94161    32966.302 
   13400    298.97503   -1139.1992    354.81619    582.69901     21.05037    32966.302 
   13500    288.00746   -1128.4107    357.55989    546.08133    152.17937    32966.302 
   13600    306.67642   -1146.3107    361.51436    617.50085    191.29946    32966.302 
   13700    298.18028   -1113.2618    368.02387    618.21003    149.95795    32966.302 
   13800    302.41686   -1106.5445    373.53369    649.80916     148.7107    32966.302 
   13900    308.71009   -1120.3783    361.45921    652.67708    84.396773    32966.302 
   14000    293.90162   -1096.7474    374.98189    622.11809   -69.773587    32966.302 
   14100    304.49069   -1110.9545    386.65736    668.00561    618.49763    32966.302 
   14200    303.09542   -1102.1039     349.6887    633.50763    699.48139    32966.302 
   14300    303.66314   -1085.8064    359.66726    662.37959    426.66652    32966.302 
   14400    303.76657   -1128.3035    373.11698    633.80519    101.39674    32966.302 
   14500     305.8616   -1177.6964    357.85244    578.72734    676.58001    32966.302 
   14600    301.05252    -1132.057    367.93992    612.46441    26.688598    32966.302 
   14700    294.55784   -1199.7505     402.8682    550.00186   -475.28427    32966.302 
   14800    296.71072   -1156.1383     357.5712    558.16119    478.33409    32966.302 
   14900    309.19073   -1144.0588    363.50082    633.23605     320.5238    32966.302 
   15000    305.53098   -1121.9037     366.9573    642.11318    311.24311    32966.302 
   15100    306.82235   -1149.5525    376.93489    630.34681    532.50859    32966.302 
   15200    296.43949   -1149.4238     377.3497    583.41407    614.62224    32966.302 
   15300    292.46735   -1148.9569    400.11972    588.48812    615.00811    32966.302 
   15400    302.28709   -1113.0613    363.26187    632.42723    699.12367    32966.302 
   15500    299.55452   -1178.3709    385.38522     576.7461    152.52444    32966.302 
   15600    302.05237   -1208.4805    400.53393    573.20681    117.43485    32966.302 
   15700    297.36606   -1145.1627    391.01088    605.57311    318.38773    32966.302 
   15800    302.13317   -1146.2994    379.74133    614.96478   -240.75116    32966.302 
   15900    291.59546   -1219.5164     383.5452    497.36727   -455.89075    32966.302 
   16000    291.78415   -1137.8243    388.69449    585.07152    577.26116    32966.302 
   16100    303.25311   -1194.5443     369.3631    561.46266   -178.29215    32966.302 
   16200    313.08957   -1194.1528    384.46011      621.929    269.62097    32966.302 
   16300    295.32049   -1173.0087    388.70999    566.07277    550.51042    32966.302 
   16400    299.09992   -1174.2643     383.1693    576.55813    400.94333    32966.302 
   16500    299.81695   -1168.5143    380.61727    583.03476    675.50888    32966.302 
   16600    300.28441   -1172.7524    405.73555    606.05236    203.70886    32966.302 
   16700    296.69704   -1124.7735    379.30888    611.20123    349.34443    32966.302 
   16800    292.41974   -1186.6246    388.46919    538.95213    236.19784    32966.302 
   16900     305.6495   -1190.4425    399.03532    606.19424    206.21585    32966.302 
   17000    295.75805   -1188.4462    376.32402    540.25002    103.28179    32966.302 
   17100    304.98072   -1219.9277    389.06647    563.68221    110.32072    32966.302 
   17200    295.99249   -1185.6897    369.08129    536.83575     323.2649    32966.302 
   17300    304.72445   -1211.0499    375.74534    558.06712    605.39321    32966.302 
   17400    302.04447   -1213.7715    408.06149    575.40727    435.78876    32966.302 
   17500    293.02031   -1174.8009    399.29686    564.34969    742.80498    32966.302 
   17600    292.44945   -1176.8565    382.70262    543.08955    409.12865    32966.302 
   17700    296.45099   -1205.6668    428.99796    578.87186    1161.4541    32966.302 
   17800    295.04261   -1203.7168    382.17619    527.56021    198.72403    32966.302 
   17900    294.73341   -1179.1571    397.02734    565.55722    -174.6909    32966.302 
   18000    307.05034   -1210.4716    415.11947    608.65475    18.965889    32966.302 
   18100    288.35872   -1260.1933    371.65371    429.99876   -134.09671    32966.302 
   18200    295.96301   -1221.0006    386.55625    518.86505    497.21629    32966.302 
   18300    300.47976   -1215.2947    399.30403    557.97182    680.60205    32966.302 
   18400    305.24727   -1232.0694    400.56796    564.26081    667.91427    32966.302 
   18500    292.77756   -1237.6212    392.43155    493.55405    798.82384    32966.302 
   18600    295.95699    -1229.733    410.75897    534.30783    520.23899    32966.302 
   18700    299.52738    -1211.513    414.09148    572.18615    493.16921    32966.302 
   18800    300.66071   -1201.3311    387.42178    560.88058    588.40969    32966.302 
   18900    305.95684   -1189.3428    395.09635    604.76036    554.86115    32966.302 
   19000    300.24131   -1179.7797    393.65827    586.75074    582.75776    32966.302 
   19100    304.84975   -1204.8722    391.24217     580.3146    791.84331    32966.302 
   19200    298.33479   -1215.5554    424.08095       572.68   -3.8559119    32966.302 
   19300    292.77993   -1188.4823    412.19745     562.4697   -407.48825    32966.302 
   19400    297.26039   -1217.5107     407.0245    548.75559    342.26334    32966.302 
   19500    303.94179   -1181.1004     412.2839    620.97638    474.28906    32966.302 
   19600    312.36147   -1193.4229    418.69549      653.565    390.06502    32966.302 
   19700    301.53251   -1211.8784    412.22959     579.1275    447.51746    32966.302 
   19800     307.1759   -1241.6814    411.77538    574.67505    676.88864    32966.302 
   19900     305.2487   -1234.6187    392.03126     553.1814    348.19319    32966.302 
   20000    302.92824   -1211.4172    412.38971    586.13081   -101.64211    32966.302 
   20100    296.04371   -1181.7035    410.62218    582.59709    137.92421    32966.302 
   20200    311.84732   -1198.7224    429.14166    656.36068     298.8947    32966.302 
   20300    308.32393   -1191.5506    413.36693    631.64684    578.10526    32966.302 
   20400    301.90363   -1203.8799    399.60573    576.19912    288.28831    32966.302 
   20500    301.70536   -1185.8725    398.98888    592.68304    134.02617    32966.302 
   20600    293.30909   -1245.5652     423.6013    519.21031     569.4999    32966.302 
   20700    312.57077   -1230.9601    398.47383    596.76316   -310.74514    32966.302 
   20800    294.53546   -1207.3989    412.78475    552.16763     823.2044    32966.302 
   20900    304.35501    -1197.873    442.47987    636.28916    -367.6823    32966.302 
   21000    306.90862   -1183.8713    428.17857    647.66611   -431.94363    32966.302 
   21100    310.33652   -1204.3863     413.6741    628.32098    22.474331    32966.302 
   21200    294.11839   -1212.2346    399.71691    532.35705     413.3996    32966.302 
   21300     309.8453   -1196.4959    413.80443    634.09552    995.12555    32966.302 
   21400    298.13712   -1257.9364    422.76719    528.08142     543.3949    32966.302 
   21500    293.37874   -1222.8183    420.45542     539.1298    150.56733    32966.302 
   21600    305.35627   -1228.3718    425.71147    593.60036    353.90839    32966.302 
   21700    312.64291   -1213.3259    404.32667    620.58008    566.88143    32966.302 
   21800    291.84884   -1201.4645    408.77553    541.80813    345.74382    32966.302 
   21900    294.37904   -1211.8197    412.72061    546.96756   -695.11053    32966.302 
   22000     297.9438   -1231.1862    425.12039    556.30089   -404.96038    32966.302 
   22100     305.6573   -1196.8908    394.75686     595.5032    243.20442    32966.302 
   22200    302.63339   -1213.5951    388.71257    558.92759    244.26184    32966.302 
   22300    293.01796   -1227.7151    403.68107     515.8089   -178.84165    32966.302 
   22400    302.31635   -1247.8982    431.02631    565.48849    317.41661    32966.302 
   22500    295.69299   -1261.6041    406.57376    497.04441   -27.671163    32966.302 
   22600    299.73066   -1244.9993    421.01873    546.55669    362.92487    32966.302 
   22700    298.60702   -1288.4539     415.5045    492.44986    591.36658    32966.302 
   22800    307.77077   -1259.7419    414.44331    562.00252    283.10833    32966.302 
   22900    305.22103   -1255.0975    402.42169    542.96649    583.53728    32966.302 
   23000    311.48515   -1201.6699     431.4183     654.0337    920.43076    32966.302 
   23100    303.43846    -1239.081    406.47699    554.88733     986.7761    32966.302 
   23200    311.55797   -1269.8087    415.39665    570.20631    1232.2142    32966.302 
   23300    309.25608   -1239.1872    422.06815     596.9737    853.52776    32966.302 
   23400    304.60671   -1256.5028    419.29787     555.6283    320.63897    32966.302 
   23500    296.05932    -1262.736    384.82575    475.83957    365.48661    32966.302 
   23600    290.36092   -1200.7809    390.62622    517.53884    1140.8204    32966.302 
   23700    288.79072   -1219.1498    429.13143    530.49529     362.9152    32966.302 
   23800    299.07287   -1188.3275    438.91048    618.11241    15.838548    32966.302 
   23900    302.38235   -1229.9765    415.14947    567.83515     -169.243    32966.302 
   24000    289.83226   -1258.9747    391.70677    458.00826    202.04711    32966.302 
   24100    310.15316    -1203.747    419.06038    633.50808    247.84615    32966.302 
   24200    297.61173   -1210.2624    406.77467    557.36052    136.73652    32966.302 
   24300    293.93141   -1228.6235    426.92617    542.32239    236.63976    32966.302 
   24400      297.513   -1227.1122    428.52983    561.81441    757.44054    32966.302 
   24500    298.96835   -1214.3318    438.13957    590.85924    139.84771    32966.302 
   24600    306.37873   -1199.8986     424.5821    625.61942     115.5782    32966.302 
   24700    305.14385    -1211.326    429.14881    613.11217   -410.28648    32966.302 
   24800     295.2968   -1233.7348    440.89258    557.42085   -324.50241    32966.302 
   24900    298.00078   -1230.1843    423.10936    555.55226    390.25609    32966.302 
   25000    298.47857   -1238.8812    415.15614    541.08686      332.289    32966.302 
   25100    287.67302   -1253.4453    428.55452    490.51216   -165.87933    32966.302 
   25200    293.46935   -1223.1501    418.61589    537.37271   -611.96473    32966.302 
   25300    300.53306   -1239.8487    415.05312    549.41065   -173.29313    32966.302 
   25400     296.3103    -1214.948    420.88701    560.83643   -134.35647    32966.302 
   25500    307.75069   -1217.6328    441.98882    631.56526   -119.29451    32966.302 
   25600    300.79475   -1212.8299    440.90461    603.47748    41.413758    32966.302 
   25700    290.18679   -1250.1477    433.35084    510.10045   -463.15477    32966.302 
   25800    293.92488   -1228.8016    415.27913    530.46744    322.01523    32966.302 
   25900     288.9116   -1250.5828    427.97743    498.46098    784.77886    32966.302 
   26000     304.9021   -1253.0216    432.73235    573.89469    833.76587    32966.302 
   26100    303.12584   -1261.1385    435.84768    560.77105    266.71911    32966.302 
   26200    298.26494   -1298.7397    400.60571    465.70112   -28.603358    32966.302 
   26300    304.61212   -1218.5807    429.42936    603.70662   -225.19463    32966.302 
   26400     291.5875   -1285.3597    426.52228    474.46471   -328.07499    32966.302 
   26500    300.62349   -1245.2549    426.50442    555.86922    133.41791    32966.302 
   26600    300.67861   -1226.8083    446.21139    594.27484    746.72557    32966.302 
   26700    300.65877   -1242.8097    433.50596    565.47726    355.96805    32966.302 
   26800    302.97166   -1218.6575     434.7204    601.41983    588.88132    32966.302 
   26900    295.79698    -1219.217    439.37995    572.71319    407.29418    32966.302 
   27000    302.97583   -1225.7845    437.63539    597.22683    211.84053    32966.302 
   27100    302.62785   -1246.4437    417.78775    555.12887    413.02393    32966.302 
   27200    299.57279   -1261.9808    435.42191    543.25645    306.65978    32966.302 
   27300    292.78595   -1212.0747    437.20584    563.91328    602.95047    32966.302 
   27400    296.30177   -1232.7784    442.61177    564.69179    241.09422    32966.302 
   27500    307.01223   -1221.9464    466.09784    647.98404    918.73154    32966.302 
   27600    301.04671   -1223.5208    421.66893    574.70304    70.971562    32966.302 
   27700    308.02131   -1227.7372    435.78996    616.49946    461.22092    32966.302 
   27800    311.35815    -1190.391       441.71    675.02363    288.86628    32966.302 
   27900    298.50157   -1189.0765      430.507    606.34761    332.63646    32966.302 
   28000    298.86869   -1192.7783     468.5287    642.34621   -62.949462    32966.302 
   28100    300.36501   -1215.9461    452.40838    609.90012    479.02264    32966.302 
   28200      298.894   -1261.3607    421.10209    526.45287    397.02393    32966.302 
   28300    305.91948   -1211.9657    450.44374    637.31398     427.1538    32966.302 
   28400     289.2823   -1257.6177    458.42473    523.56848    137.63041    32966.302 
   28500    303.01218   -1198.3295    441.06167    628.27435    365.21935    32966.302 
   28600    285.71696   -1200.8339    459.87021    565.49497    387.34758    32966.302 
   28700    298.54833   -1216.7638    434.55559    582.92277    491.39518    32966.302 
   28800    298.26848   -1254.9543    425.25752    534.15447    228.39427    32966.302 
   28900    289.02091   -1252.3459    443.65028    512.87057    92.202152    32966.302 
   29000    298.66783   -1247.3426    435.25762    553.59237    239.16996    32966.302 
   29100    300.23101   -1277.0092    450.72209    546.53796     558.9946    32966.302 
   29200    296.08862   -1272.8199    442.15091    523.21472    1040.4833    32966.302 
   29300    308.24447   -1310.1135    455.62688    554.98053   -87.112158    32966.302 
   29400    298.57924   -1306.7074    457.41836    515.98322   -467.70776    32966.302 
   29500    309.07494   -1308.8899    443.53574    547.91034   -288.25439    32966.302 
   29600    296.48072   -1304.8017    453.41104    504.28601   -36.532752    32966.302 
   29700    300.64239    -1265.481    448.09994    557.32505   -285.22473    32966.302 
   29800    292.79719   -1249.2538    455.77594    545.35565   -835.61009    32966.302 
   29900    304.39927   -1264.0745    420.90237    548.71255   -77.175823    32966.302 
   30000    290.99672   -1301.1072     453.7488    483.24234    250.83605    32966.302 
   30100    301.40689   -1268.7471    443.86845    553.32319    226.47375    32966.302 
   30200    311.79236    -1284.338     453.4685    594.82061    352.88372    32966.302 
   30300    292.04075   -1337.5492     459.3205     457.1459   -588.06668    32966.302 
   30400    308.59786   -1271.8664    447.84425    587.06086    628.28304    32966.302 
   30500    299.73857   -1268.7118    428.60479    530.46636    228.68717    32966.302 
   30600    293.60212   -1303.7174    449.67547    488.47211    -379.2271    32966.302 
   30700    301.72326   -1280.0572    465.74553    565.33686    300.43709    32966.302 
   30800    298.62904   -1301.6992     440.2734    504.07419   -190.65822    32966.302 
   30900    304.02931   -1261.7433    443.07132    571.52104    25.565528    32966.302 
   31000    299.61168   -1221.6814     450.6293    598.94102    49.325362    32966.302 
   31100    301.35223   -1242.9177    456.62736     591.6616   -1.0897949    32966.302 
   31200    310.37589   -1222.4177    455.89387    652.68938   -351.54308    32966.302 
   31300    303.28351   -1252.9558    449.38621    583.21323   -425.88775    32966.302 
   31400     301.7132   -1253.1135    448.90638    575.39542   -513.03097    32966.302 
   31500    292.48898   -1262.2533    456.81713    531.98799   -473.57096    32966.302 
   31600    302.33471   -1214.0044    466.82115     635.2611   -17.278676    32966.302 
   31700    307.80328   -1229.1509    452.76135    631.06024   -188.11344    32966.302 
   31800     303.8852   -1246.3777    457.37025    600.52663  0.082387224    32966.302 
   31900    299.57632   -1193.4901      469.785    646.12636   -67.991178    32966.302 
   32000    300.23362   -1202.6033    471.90215    642.13589   -267.29584    32966.302 
   32100    299.75519   -1250.3435    460.93442    581.24029    410.05846    32966.302 
   32200     295.4752   -1267.7884    468.08071    551.37118    597.60011    32966.302 
   32300     299.2039   -1224.6456    467.62696    611.10992    996.42823    32966.302 
   32400    307.33585   -1260.7784    443.46903    588.00308    529.39316    32966.302 
   32500    300.37934    -1228.555    465.60573    610.55409    473.66219    32966.302 
   32600    304.58743   -1248.3294    460.68153    605.09726     1053.844    32966.302 
   32700    299.37593   -1281.5577    455.25308    542.61056    805.52234    32966.302 
   32800    295.79082   -1247.6473    453.67589    558.55061    824.77752    32966.302 
   32900    290.94022   -1267.8907    472.11026    534.56193    46.496468    32966.302 
   33000    292.88918   -1288.4171    474.73107    525.56805   -279.25298    32966.302 
   33100    303.87747   -1250.9136    443.17922    581.76431   -372.40318    32966.302 
   33200     297.7742   -1219.3875    471.56031    613.76394   -339.34421    32966.302 
   33300    294.35269   -1296.5853    453.03567    502.39644   -466.43424    32966.302 
   33400    307.99292   -1284.6664    447.37114    571.02166   -310.51742    32966.302 
   33500     295.6021    -1275.296    464.80279    541.16586    -651.1206    32966.302 
   33600     291.5824   -1279.3885    474.42959    528.31984    158.58596    32966.302 
   33700    307.29598   -1269.9538    471.86199    607.03829    548.21506    32966.302 
   33800    307.24731   -1263.7825     455.2625    596.38757    58.797342    32966.302 
   33900    306.94251   -1265.5984    472.15003    610.06549   -376.38397    32966.302 
   34000    303.03191   -1271.5798    460.91019    574.96277    562.51014    32966.302 
   34100    299.45768   -1283.5823    490.10159    575.80824    986.66451    32966.302 
   34200    294.66371    -1302.203    453.55671    498.72195    251.15573    32966.302 
   34300     291.2322   -1282.3474      479.805    529.13511   -3.3815435    32966.302 
   34400    297.81681   -1302.9188    421.24817    480.11535    153.99816    32966.302 
   34500    294.89845   -1311.6302    458.83707    495.64847    378.55842    32966.302 
   34600    292.39731   -1301.4615    490.40799    525.95151    202.83005    32966.302 
   34700    293.66636   -1261.8573    458.40619    539.35669    54.815761    32966.302 
   34800    306.61859   -1280.7078    470.78542    592.11033    376.34409    32966.302 
   34900    312.70712   -1363.5513    458.21299     524.5346     68.31147    32966.302 
   35000    290.66039    -1310.155    480.58737    499.49517    306.98725    32966.302 
   35100    303.36307   -1295.4538     457.2831    548.97598    489.07795    32966.302 
   35200    305.86951   -1296.9785     462.0785    563.70748   -707.67269    32966.302 
   35300     308.6281   -1259.9189     473.4021    624.70453    -392.0373    32966.302 
   35400    300.11313   -1258.5975    455.33934    569.02794    -67.61686    32966.302 
   35500    301.59184   -1272.0347    491.10979    598.12264    170.88152    32966.302 
   35600    303.84987   -1257.8269    494.60387    626.14956    438.10798    32966.302 
   35700    289.55395   -1314.8259    492.19387    501.37157   -156.92991    32966.302 
   35800    304.10741   -1278.1354    481.26643    593.68126    1009.2815    32966.302 
   35900    312.82339   -1318.0812    466.25063     578.5739    143.33007    32966.302 
   36000    311.77145   -1306.8797    465.13854    583.85333    511.44715    32966.302 
   36100    299.22827    -1288.512     475.1443    554.87231    792.84978    32966.302 
   36200    293.09331    -1304.889    483.09339    518.39193     346.4899    32966.302 
   36300     310.1992   -1277.7831     484.2294    624.85157   -18.840429    32966.302 
   36400    302.10954   -1274.5377    473.75434    580.63146   -375.92273    32966.302 
   36500    299.33126   -1368.9456     482.6917    482.45707   -630.22102    32966.302 
   36600    299.51509   -1306.8872    468.24776    530.91203   -874.11253    32966.302 
   36700    304.36065    -1297.381    478.03175     572.3589    399.24326    32966.302 
   36800    285.47748    -1276.589    487.95331    516.72791   -39.482106    32966.302 
   36900    301.42239   -1280.3748    486.16942    584.06734    609.37161    32966.302 
   37000    300.96886   -1285.4486    491.57514    582.32549    220.03266    32966.302 
   37100    301.24638   -1305.5682    479.45911    551.35886    819.82072    32966.302 
   37200     291.0211   -1306.0725    485.13784    509.77759    370.12793    32966.302 
   37300    307.79475    -1313.326    473.22208    567.30683    780.51592    32966.302 
   37400      304.967   -1323.3822    477.66761    548.76615   -194.87856    32966.302 
   37500    318.36635   -1336.7882     462.0098     580.9717   -346.92677    32966.302 
   37600    303.97651   -1305.0331    463.72988    548.64842    916.74756    32966.302 
   37700    296.04878   -1354.7073    499.38338    498.37767    670.23029    32966.302 
   37800    296.98138   -1373.3593    469.61754    454.22425    343.15803    32966.302 
   37900    307.53703   -1331.8067    474.08912    548.51477    381.80199    32966.302 
   38000    296.68593   -1336.2466    490.92605    511.29442    275.90555    32966.302 
   38100    302.74809   -1319.6429    458.25861    522.95027    268.71813    32966.302 
   38200    295.39533   -1351.6615    473.79313    472.84524    324.57588    32966.302 
   38300    298.19939   -1337.4357    483.46534    509.56509    125.66609    32966.302 
   38400    295.24586   -1366.7887    486.90991    470.15137   -294.74251    32966.302 
   38500     295.4873   -1305.8829    470.79099    516.04226    290.33397    32966.302 
   38600    299.09466   -1317.1778    466.77183    517.22308    45.242401    32966.302 
   38700    292.72408   -1285.0626     473.6695    527.10604   -118.19959    32966.302 
   38800     293.3227   -1319.4868    478.06547    499.81511   -816.11461    32966.302 
   38900      298.025   -1331.0562    490.73672    522.41849   -401.43079    32966.302 
   39000    295.40338   -1318.5897    481.75294    513.91369    254.56615    32966.302 
   39100    289.76474   -1298.2567    480.84518    507.55586   -160.77848    32966.302 
   39200    301.68146   -1308.7281    503.15915    573.88844   -57.692635    32966.302 
   39300    297.98476   -1276.6328    462.67801    548.59915   -414.65459    32966.302 
   39400    302.92229   -1228.0626    488.58025     645.6488   -17.230445    32966.302 
   39500    295.85588   -1293.6882    510.87334    570.00468    234.00562    32966.302 
   39600    308.57294   -1311.6872    510.11874    609.40067    83.596762    32966.302 
   39700    299.70515   -1301.9593    515.16525    583.62653   -340.79247    32966.302 
   39800    300.39591   -1330.0681    485.58399    529.09501    221.84495    32966.302 
   39900    300.56614   -1291.7068    454.89245    537.54317    143.06925    32966.302 
   40000    296.86776    -1364.816    459.30607    451.93651   -86.018926    32966.302 
   40100    299.99378   -1317.3793    466.79075     521.1518   -463.81152    32966.302 
   40200    304.80394   -1337.6268    478.95843    535.06675   -232.90297    32966.302 
   40300    300.13911   -1327.1328     479.4574    524.72951   -20.515217    32966.302 
   40400    297.41902   -1288.1877    460.48964    532.26905    219.20638    32966.302 
   40500    296.73333   -1301.4286    487.18819    542.59135    678.04874    32966.302 
   40600    306.82196   -1298.2419    473.58844    578.30913    26.424001    32966.302 
   40700    298.09877   -1354.3217    476.78693    485.54049    204.02032    32966.302 
   40800    292.16084   -1322.2455    481.82358    495.50177    155.00072    32966.302 
   40900    289.20391   -1332.8489    463.39099    452.94513   -66.540104    32966.302 
   41000     289.6933    -1295.966    503.61921    532.29398    -97.60854    32966.302 
   41100    295.73884   -1292.8854    476.66752    536.06651   -125.00422    32966.302 
   41200     313.6888   -1290.4466    480.98188    624.89697    343.88167    32966.302 
   41300    302.03674   -1303.9743     486.7712    563.87884    82.910093    32966.302 
   41400    307.41054   -1326.6077    513.35968    592.40593    345.95542    32966.302 
   41500    297.84086   -1313.7023    514.51709    562.71072   -340.96831    32966.302 
   41600    301.82812   -1278.4105    502.23131    603.94886   -426.11009    32966.302 
   41700    298.88419   -1310.2486    500.77992      557.198    630.27686    32966.302 
   41800    291.17297   -1317.0124    491.97309    506.36731    74.585652    32966.302 
   41900    296.65751   -1302.8689    500.40227    554.01844    803.75762    32966.302 
   42000    307.20171   -1265.0079    496.17038    635.86152    195.36613    32966.302 
   42100     298.8254   -1288.9262     501.2049     578.6765   -406.81856    32966.302 
   42200    303.80323   -1325.1631    485.45891    549.45511   -219.29656    32966.302 
   42300     299.2363   -1266.6051     507.2018    608.87343    -506.9516    32966.302 
   42400    294.83507   -1304.4526    484.37639    528.07559    18.856864    32966.302 
   42500    303.45412   -1294.6281    492.15279    585.08771      227.633    32966.302 
   42600    296.03217   -1277.6805    508.36869    584.31385    1048.7031    32966.302 
   42700    296.44112   -1335.0565    505.22112     525.6602    265.42683    32966.302 
   42800    317.46672   -1322.5608     516.0123    645.08794    551.79204    32966.302 
   42900    300.61904   -1362.6026     483.9194     495.9162    381.73755    32966.302 
   43000    302.61702   -1316.5945    511.35878    578.49951    775.83246    32966.302 
   43100    297.16252   -1312.9381    503.26637    549.12251   -82.049294    32966.302 
   43200    305.93167   -1333.9438     511.1606    576.10854   -19.489758    32966.302 
   43300    292.71795   -1291.5038    490.83088    537.79819   -780.66778    32966.302 
   43400    300.57044   -1359.4716    481.34662    496.25222   -504.14128    32966.302 
   43500    293.39411   -1337.5811    483.79945    487.78127   -429.35252    32966.302 
   43600    293.07251   -1306.0907    483.94023    517.94196    158.23485    32966.302 
   43700    287.94342   -1347.8457     475.6426    444.43622   -419.92437    32966.302 
   43800    296.73983    -1303.745    502.47549    555.59199   -628.64336    32966.302 
   43900    293.08042   -1284.1686    480.81399      536.774    180.72715    32966.302 
   44000    294.04469    -1306.569    496.49485    534.46362    38.146619    32966.302 
   44100    307.45606   -1318.1272    496.67317    584.40805   -425.71296    32966.302 
   44200    314.27353   -1352.9293    462.33594    546.44201    549.03844    32966.302 
   44300     294.9754   -1376.8854    486.07491    457.98299    172.52231    32966.302 
   44400    304.43803     -1332.65    508.79931    568.21123   -222.97202    32966.302 
   44500     296.4502   -1291.9328    518.92428    582.52862    329.52901    32966.302 
   44600    303.56269   -1303.3966    478.16916      562.832   -362.48344    32966.302 
   44700    296.92064   -1334.8121    506.48816    529.36427   -730.98627    32966.302 
   44800    302.44853   -1325.1226    482.68961    540.53189   -1158.5915    32966.302 
   44900    294.54077   -1323.4591    473.01637    496.36338   -206.32897    32966.302 
   45000    290.16652   -1356.0275    489.14984    459.92694    -403.9492    32966.302 
   45100    300.17729   -1358.6892     502.3986    516.28889    76.144381    32966.302 
   45200    301.48819   -1318.4228    482.91806    543.06886    14.902019    32966.302 
   45300    302.33313   -1347.4387    490.78975    525.78824     501.9967    32966.302 
   45400    304.47759   -1342.6134    485.11406    534.74349   -440.03064    32966.302 
   45500    297.34894   -1286.7024    509.51509    582.45932    20.846649    32966.302 
   45600    287.63544   -1277.8269    513.21872    550.62289    86.924122    32966.302 
   45700    291.38265   -1286.3692    514.55468    560.55086    539.16358    32966.302 
   45800    307.07634    -1321.419    478.46974    561.17655    724.64114    32966.302 
   45900    302.38281    -1273.685    483.17816    592.15749    384.14667    32966.302 
   46000    305.42745   -1261.4305     478.7012    613.85686   -426.15234    32966.302 
   46100    297.29685   -1243.9852    507.42008    622.84337   -112.89283    32966.302 
   46200    302.62653   -1271.4987    495.84594      608.126   -3.1310652    32966.302 
   46300    296.58605   -1322.9415    490.39495    523.61176    697.43663    32966.302 
   46400     306.1306   -1266.1524    517.72715    651.37607    228.11935    32966.302 
   46500    300.56288   -1257.7741    516.93984    633.50833    387.21606    32966.302 
   46600    295.12606   -1287.9277    491.02086    552.57556   -48.913683    32966.302 
   46700    299.46933   -1269.6913    500.23024    599.88121    241.62787    32966.302 
   46800    303.46594   -1267.9019    489.42128    609.13642    31.331115    32966.302 
   46900    291.69855   -1308.3004    497.25585    522.76529    185.17139    32966.302 
   47000    318.49799    -1287.518    516.90121    685.73525    306.16853    32966.302 
   47100    304.67066   -1339.2819    495.08274     548.9265    -41.99005    32966.302 
   47200     301.0377   -1313.6937    478.81269     541.6327   -80.374516    32966.302 
   47300    298.53374   -1304.7199    504.23867    564.58302   -202.22659    32966.302 
   47400      294.755   -1298.2688    499.07811    548.59498   -731.79491    32966.302 
   47500    312.01104   -1314.2227    495.88316    608.35049    112.98763    32966.302 
   47600     300.6814   -1357.9027    495.49164    512.47345   -275.77904    32966.302 
   47700    309.75269   -1385.7241    488.56735    519.20684   -74.276951    32966.302 
   47800    297.09912   -1332.7053    474.92704    500.72605   -45.665314    32966.302 
   47900      295.364   -1371.8449    485.10567    463.83118   -873.06663    32966.302 
   48000    298.29719   -1365.8689    490.66282    488.77657   -134.03229    32966.302 
   48100    304.63991   -1343.8438    486.50629    535.64753    307.89733    32966.302 
   48200    309.78983    -1287.627    495.18272    624.08913   -399.25859    32966.302 
   48300    298.94208   -1322.3399    508.30261    552.89405   -298.16669    32966.302 
   48400    300.39211   -1307.7326    511.37194    577.20105    -43.84068    32966.302 
   48500    288.25305    -1325.687    500.08205    492.45014   -416.50577    32966.302 
   48600     302.5378   -1327.9809    484.76613     540.1583    301.95425    32966.302 
   48700    308.15825   -1384.0318    506.91409    531.95518    214.31194    32966.302 
   48800    303.84607   -1366.8961    499.29301    521.75209    802.19772    32966.302 
   48900    286.18978   -1322.1391    488.01535    474.49698    338.89057    32966.302 
   49000    292.57436   -1326.2964    499.54343    511.06156   -528.21167    32966.302 
   49100    291.40304   -1331.3476    484.80518    485.91624    28.495016    32966.302 
   49200    288.96909   -1298.0606    497.28485    520.55347   -621.91591    32966.302 
   49300     289.2618   -1331.5605    500.49287    491.60005   -15.018704    32966.302 
   49400    292.46245   -1301.9569    503.71097    539.05691   -12.549215    32966.302 
   49500    293.94036   -1271.0187    514.61272    587.65474    621.15959    32966.302 
   49600    298.39767   -1328.9302    503.59712    539.10894    389.87877    32966.302 
   49700    306.92457   -1333.4951    497.10631    567.04305   -61.398822    32966.302 
   49800    301.46948   -1343.5347    497.28335    532.23671    -172.1244    32966.302 
   49900    299.20803   -1348.9507    493.00285     512.1996    115.66261    32966.302 
   50000    293.96602   -1296.1892    495.66814    543.65702   -217.89356    32966.302 
   50100     297.5097   -1299.7725    467.09226    527.70146    186.30574    32966.302 
   50200    298.30741   -1312.6342    499.98876    551.38387    139.96646    32966.302 
   50300    296.89474    -1336.192    499.30099    520.67883    242.95906    32966.302 
   50400    305.58067   -1343.5081    521.26693    575.04555    446.77536    32966.302 
   50500    297.97228    -1293.737    505.35352    574.11342   -67.609062    32966.302 
   50600    295.32243   -1287.1342    494.93215    558.17825   -512.63314    32966.302 
   50700    293.46813   -1340.2858     498.0099    499.62554   -232.96703    32966.302 
   50800    293.45278   -1293.6569    493.95698    542.13132   -474.27339    32966.302 
   50900    295.84358    -1337.541     516.4977    531.72006   -367.05144    32966.302 
   51000    293.62706   -1321.4415    499.31983    520.50642   -644.23201    32966.302 
   51100    290.28117   -1349.3826    493.45179    471.39803    577.77792    32966.302 
   51200    286.43527   -1348.2521    536.88681    498.37791   -15.775945    32966.302 
   51300    302.81566   -1354.8232    510.73845    540.55883     248.0474    32966.302 
   51400    292.94742   -1298.4618     504.1045    545.16315       772.62    32966.302 
   51500    295.46408   -1347.3207    489.52706    493.23437   -272.81136    32966.302 
   51600    304.59977   -1319.1937    506.54814    580.15596   -513.04843    32966.302 
   51700    305.15542   -1308.0252    512.94709    600.26414    -72.92204    32966.302 
   51800    294.50907   -1360.3247    503.13259    489.46906   -23.042805    32966.302 
   51900    292.50364   -1358.8646    511.10488    489.73144    147.43786    32966.302 
   52000    299.89728   -1397.4379    483.49539    457.35659    657.27111    32966.302 
   52100    299.44219   -1358.5775    489.54771    500.18838    112.31336    32966.302 
   52200    294.21276     -1319.24    508.34929    534.41559    118.50061    32966.302 
   52300    299.70786   -1346.3075    506.88863    531.01405    2.1185052    32966.302 
   52400    304.19847   -1301.0613    518.47198     608.3772    489.05969    32966.302 
   52500    301.27592   -1302.0734    505.29161    580.82125    554.11731    32966.302 
   52600    308.09196   -1322.7237    525.14852    611.19457   -260.82209    32966.302 
   52700    301.56366   -1291.2319    550.78461    638.47139    492.70288    32966.302 
   52800    303.16824    -1258.742    500.43192    627.94574    725.98043    32966.302 
   52900    292.48531    -1337.513    497.00946    496.90381     331.3268    32966.302 
   53000    294.96499   -1289.9993    523.51045    582.25703    206.91228    32966.302 
   53100    292.42129   -1245.7282    518.75287    610.13928    453.70963    32966.302 
   53200    309.13309   -1303.4113    522.42679     632.5459    147.15435    32966.302 
   53300    304.46721   -1349.2377    494.96074    537.91841   -61.371646    32966.302 
   53400     306.1476   -1365.1462    479.50373    514.23666   -88.105922    32966.302 
   53500     306.2128   -1373.8395    480.89231    507.22997   -43.157286    32966.302 
   53600    314.98345   -1381.3979    487.49308    546.37675   -417.46309    32966.302 
   53700    307.66582   -1357.8694    495.81084    544.76267    429.08665    32966.302 
   53800    299.86349   -1386.3108    489.14993    473.98368    648.16023    32966.302 
   53900    295.29536   -1417.8483    516.06205    448.47022   -53.657986    32966.302 
   54000    307.60358    -1339.201    499.23295     566.5686   -150.86991    32966.302 
   54100    298.29053   -1350.7189    492.77008    506.00333    203.79462    32966.302 
   54200    299.33491   -1362.7279     481.9433    487.94302     97.93521    32966.302 
   54300    348.26326   -1367.1501    490.03759    715.34305    254.89105    32966.302 
   54400    302.63334   -1391.8742     483.4581    475.39382    152.65128    32966.302 
   54500    300.38643     -1368.82    489.63528    494.35101    85.364225    32966.302 
   54600    309.68211   -1347.0243    520.07617    589.09271   -138.17801    32966.302 
   54700    300.05843   -1374.2846    488.39258    486.14395    532.71443    32966.302 
   54800    296.01716   -1365.8522     481.3827    469.08747    532.66797    32966.302 
   54900    304.47415   -1377.5618    518.49201    533.15728    186.68366    32966.302 
   55000    294.40292   -1378.1928    515.07352     483.0565    28.535184    32966.302 
   55100    307.57145   -1349.7096    511.84092      568.521   -160.64659    32966.302 
   55200    301.63149   -1369.4151    511.60338    521.41711   -63.265742    32966.302 
   55300    292.70995   -1349.0358     493.6875    483.08621    668.81878    32966.302 
   55400     297.9705   -1328.8562    507.99068    541.62329    587.36494    32966.302 
   55500     300.1088   -1328.6954    515.87118    559.44207    156.28233    32966.302 
   55600    306.14234   -1310.8656     511.5407    600.53012   -255.22564    32966.302 
   55700    295.08476   -1279.8513    517.37526    586.81753    782.21151    32966.302 
   55800    300.62169   -1316.6447    512.57027    570.53707    137.49717    32966.302 
   55900    292.22953   -1311.6313     523.0061     547.6126   -281.75723    32966.302 
   56000    290.37571   -1341.4652     508.6528    494.94873   -823.83272    32966.302 
   56100    308.31503   -1333.9029    522.04543    597.93232   -745.02425    32966.302 
   56200    297.64159   -1384.5609    500.41403    476.83797   -79.659759    32966.302 
   56300    303.67487   -1340.2334    503.86513    552.20413    671.60132    32966.302 
   56400    287.55645   -1357.9816    501.86197    458.75024     633.0432    32966.302 
   56500    299.56227   -1367.1366    534.35827    536.98895    389.47349    32966.302 
   56600    293.96015   -1387.1045    489.97625    447.02295   -159.11451    32966.302 
   56700     298.4779    -1407.878    500.65579    457.58668    147.85786    32966.302 
   56800    296.55509   -1346.2166    520.00175    529.80181   -371.77162    32966.302 
   56900    293.17041   -1328.4742    507.67034    519.73624   -91.544865    32966.302 
   57000    305.63436   -1333.3293    478.60977    542.81271    303.96536    32966.302 
   57100     307.4628   -1335.2881    506.75445    577.35927    419.07839    32966.302 
   57200    302.48335   -1346.4416     517.0153    553.69771  -0.93229343    32966.302 
   57300    292.31091   -1332.5394    493.05861    497.12911   -332.60872    32966.302 
   57400    309.69479   -1334.4954    500.09326    581.69665    654.93704    32966.302 
   57500    299.45792   -1361.8166    496.18973    503.66318    423.09722    32966.302 
   57600    287.69639   -1330.3735    500.22314    485.35938    599.49658    32966.302 
   57700    305.39486   -1352.1902     539.6194    583.86634    125.82366    32966.302 
   57800    308.82551   -1367.0271    515.88555    560.98247   -214.56876    32966.302 
   57900    298.62773   -1322.7707    520.51897    563.24228    481.51751    32966.302 
   58000     300.3065   -1285.0751    481.42739    569.52259    167.20256    32966.302 
   58100    294.84535   -1323.1263    498.15068    523.22318    298.75123    32966.302 
   58200    296.91954    -1351.307    505.86288    512.23904   -614.86324    32966.302 
   58300    293.74674    -1351.444    510.29722    502.02856    -590.0334    32966.302 
   58400    305.60349   -1296.7317    496.00793    596.66729   -523.12886    32966.302 
   58500    304.94322    -1312.654    499.71368    581.43167   -318.46757    32966.302 
   58600    292.59824   -1293.1548    506.86603    551.63502    17.772684    32966.302 
   58700    304.13524   -1336.0044    522.74475     577.4178   -172.61596    32966.302 
   58800    296.54784   -1327.0246     524.5791    553.53809   -318.66811    32966.302 
   58900    296.17233   -1317.9743    510.20206    546.49426   -408.04482    32966.302 
   59000    314.33061   -1293.9106    482.27728    625.66303   -73.884954    32966.302 
   59100    304.88912   -1310.3865    494.81239    578.55042   -628.63819    32966.302 
   59200     293.7805   -1341.8371    512.21584    513.70846   -409.46468    32966.302 
   59300    302.84073   -1364.1822    471.23519    491.81123   -3.8491896    32966.302 
   59400    304.77076   -1314.4322    508.69206    587.84325   -416.44744    32966.302 
   59500    305.97142   -1373.9901    514.53597    539.61931   -433.58258    32966.302 
   59600    302.64549   -1363.4359    504.32074    524.75033   -288.48213    32966.302 
   59700    308.60688   -1330.6951    498.73507    579.16428    120.32964    32966.302 
   59800    309.67396   -1347.5747    504.56618    572.99502    208.78175    32966.302 
   59900    301.20626    -1335.509    515.13057    556.90605    602.86348    32966.302 
   60000    295.98283   -1347.1671    505.83586    512.06875    368.84901    32966.302 
   60100    298.35343   -1365.0687    513.19372    512.36474    89.652852    32966.302 
   60200    303.64475    -1307.633    526.49108    607.29267    318.49256    32966.302 
   60300    294.10521    -1305.022     501.9277    541.72017    565.51869    32966.302 
   60400    303.38742   -1393.8502    509.85621      503.264   -8.2795493    32966.302 
   60500      299.925   -1389.6764    505.55421     487.3036   -261.05706    32966.302 
   60600    304.39856   -1434.3946    513.07233    470.55919    239.23432    32966.302 
   60700    301.46864   -1357.5916    505.16973    526.06237    724.49086    32966.302 
   60800     306.2848   -1346.4978    523.07712    577.08579    246.72079    32966.302 
   60900    291.82823   -1334.1805    513.70618    513.92852    138.24468    32966.302 
   61000    308.21308   -1305.0074    497.36358    601.67978    76.461138    32966.302 
   61100    301.80974   -1351.0651    528.62717    557.60605    -507.8252    32966.302 
   61200     288.7334   -1357.4963    498.99664    461.75192   -849.39329    32966.302 
   61300    294.74984   -1334.2673    498.98189    512.47669   -681.90241    32966.302 
   61400    299.80686    -1376.712    511.21343    505.38701   -690.58358    32966.302 
   61500    301.84661   -1405.6446    517.64505      492.213   -692.38771    32966.302 
   61600    295.79818   -1379.9769     493.4249    466.00375    293.52436    32966.302 
   61700    282.84032   -1413.8136    495.16754    374.65905   -387.33594    32966.302 
   61800     293.7242   -1415.7836    494.66234    421.95103   -489.27469    32966.302 
   61900    298.10916   -1373.2205      514.193    504.09532    209.60493    32966.302 
   62000    295.52929   -1397.8564    504.46662    457.93635    4.1700853    32966.302 
   62100    296.86095   -1403.6098    517.68131    471.48673    -613.4405    32966.302 
   62200    305.31572   -1386.5687    505.78983     515.2964   -98.595949    32966.302 
   62300    294.37248    -1377.156    496.20498    465.08553    86.324162    32966.302 
   62400    312.78583   -1373.3506    498.06153    554.94376   -368.46861    32966.302 
   62500    300.95337    -1340.739    519.54439    554.93356   -170.76566    32966.302 
   62600    296.87736   -1363.5114    511.49639     505.4753    410.19707    32966.302 
   62700    297.79808   -1415.4604    525.41621    471.65621    705.10846    32966.302 
   62800    298.58884   -1436.9784    516.08861    444.42642   -17.691302    32966.302 
   62900    311.57155   -1396.6345    508.93547    536.98141    517.02871    32966.302 
   63000    289.28948   -1397.0913    518.11459    443.81754    861.52109    32966.302 
   63100    306.80256   -1432.5106    512.08541    482.44869    154.53942    32966.302 
   63200    306.33255   -1379.7224    486.57535    507.57767    937.65421    32966.302 
   63300    292.78732   -1427.9947    517.27256    428.06615   -234.58403    32966.302 
   63400    307.26406    -1375.114     521.9467    551.81686    89.025945    32966.302 
   63500    294.19225   -1377.7937    502.41178    469.83052    945.50016    32966.302 
   63600    300.02811   -1371.9713    515.02146    514.94749    321.16533    32966.302 
   63700    287.52608   -1362.1417    540.14845    492.73774    39.328887    32966.302 
   63800    297.03776   -1417.5423    511.08125     451.7627   -295.99382    32966.302 
   63900    309.32962   -1374.3035    515.86435    555.98991    670.76599    32966.302 
   64000    294.90882   -1362.0581    490.60559    477.03655   -76.071666    32966.302 
   64100     286.5772   -1381.6695    508.14404    436.86671    -319.9561    32966.302 
   64200     300.5471   -1351.9556    512.03407    534.34894    484.14367    32966.302 
   64300     311.0126   -1318.5536    535.14126    638.71228     141.8581    32966.302 
   64400    296.51271   -1303.4724    546.80221    599.15275    313.42215    32966.302 
   64500    296.08705   -1312.4448    529.33636    570.76815    384.72512    32966.302 
   64600    305.30792   -1336.3852    522.61442    582.26881    281.85757    32966.302 
   64700    311.14255   -1351.5706    522.85745    594.00568    286.30212    32966.302 
   64800    311.97781   -1365.7223     520.3266    581.14235    721.24796    32966.302 
   64900    307.80811   -1349.0471    516.91364     575.3384    854.14178    32966.302 
   65000    311.15298   -1392.3181    530.74997    561.19835    878.93455    32966.302 
   65100    304.33601   -1382.6716    506.78794    515.71178   -24.877708    32966.302 
   65200    287.44668   -1370.0558    504.42236    448.73447   -380.08306    32966.302 
   65300    302.62579   -1350.1763    498.59571    532.19479   -318.71976    32966.302 
   65400    312.46331   -1372.7783     526.1327    582.11246    659.25443    32966.302 
   65500    303.80364   -1333.7848    527.20453    582.58087    577.16162    32966.302 
   65600    300.48906   -1339.9546    529.11832    563.16874    25.001124    32966.302 
   65700    298.97402   -1331.2975    514.27134    550.05129   -201.66404    32966.302 
   65800    294.32877   -1338.2034    536.65335    544.28667   -122.92854    32966.302 
   65900    291.38406   -1344.1351    512.40572    500.64243    966.35721    32966.302 
   66000    304.04354    -1363.858    516.85705    543.25714   -180.72606    32966.302 
   66100    307.88408   -1350.9515    523.02699    579.89472    -382.3001    32966.302 
   66200    295.65213   -1330.0796    514.87502    536.68328    204.35048    32966.302 
   66300    304.95797   -1291.5039     523.2509    626.18643    505.96262    32966.302 
   66400    296.91769   -1355.1137    497.21912    499.78011   -564.62896    32966.302 
   66500    291.41492   -1331.0046    526.34156    527.84992    33.892661    32966.302 
   66600    288.24582   -1327.2374    534.74222    525.52685    297.77632    32966.302 
   66700    305.13622   -1336.5795    542.53732    601.21234    283.60255    32966.302 
   66800    293.63356   -1322.5854     527.5661    547.63853    684.89176    32966.302 
   66900     308.5466   -1318.6374    540.62974    632.84093    760.17383    32966.302 
   67000    304.91065   -1316.6327    545.26061    622.85095    617.19592    32966.302 
   67100    306.28043   -1346.9838    534.36697    587.86957    592.07159    32966.302 
   67200    299.06503    -1300.225    524.49987    591.76842    814.20213    32966.302 
   67300    297.63164   -1341.4402    533.88997    553.38907   -3.8857278    32966.302 
   67400    296.42729   -1359.3429    547.88917    543.97866   -288.71845    32966.302 
   67500     298.6983   -1355.6557    500.92969    511.09067    243.84922    32966.302 
   67600    296.19317   -1362.2701    557.28326    549.37492    64.720348    32966.302 
   67700    301.33443   -1320.7502    517.82633    574.94674   -35.976184    32966.302 
   67800    297.15247     -1395.57    529.37078    492.54905    566.96943    32966.302 
   67900    294.81455   -1398.3473    528.12336    477.83409    1067.5629    32966.302 
   68000    294.62049   -1445.2342    516.04694    417.98338    1108.5642    32966.302 
   68100    303.42037   -1397.8762    527.20344    516.73593    1155.4559    32966.302 
   68200    288.95382   -1392.1713    525.01247    454.10061     1198.486    32966.302 
   68300    301.86841    -1378.868    516.70713    518.15136    588.14007    32966.302 
   68400    300.16661   -1375.5644    525.96605    522.93226    559.07309    32966.302 
   68500    291.21211   -1415.9256    530.12101    445.78105    285.43405    32966.302 
   68600    307.75712    -1401.924    524.13153    529.44628    496.34224    32966.302 
   68700    301.66846   -1358.2219    528.11761    549.29366   -199.56812    32966.302 
   68800    287.07796   -1359.3718    521.37223     474.6824   -923.67001    32966.302 
   68900    301.62302   -1334.7231    526.17686    570.64394   -539.81214    32966.302 
   69000    296.48339   -1382.8622    551.68714    524.51386   -357.91752    32966.302 
   69100    306.66685   -1360.7198    506.38112    547.91471   -308.06031    32966.302 
   69200    297.86618   -1376.0549    549.77354    535.73036   -320.42818    32966.302 
   69300    307.15563   -1406.2608    549.05021    547.27775    -744.0139    32966.302 
   69400     297.7903   -1420.1235    503.79295    445.33418   -440.13143    32966.302 
   69500     302.3792   -1396.4481    521.12433    507.32406    75.812526    32966.302 
   69600    299.61421   -1432.7141    546.21563    483.50632     264.3344    32966.302 
   69700    291.27877   -1430.8227    528.77686    429.84454     135.1708    32966.302 
   69800    298.50545   -1388.2533    513.95523    490.63685   -298.20081    32966.302 
   69900    290.00562    -1416.036    517.10371    427.13657   -190.38086    32966.302 
   70000    299.79648   -1394.6105    518.56169    494.78938   -182.48264    32966.302 
   70100    303.28957   -1366.5838    522.66285    542.88961    11.004932    32966.302 
   70200    306.36555   -1377.3768    523.53955    547.03843    77.930662    32966.302 
   70300    295.30988   -1356.6165    544.79323    538.49967   -653.40352    32966.302 
   70400    294.51668   -1353.1037    512.86085    506.45311    329.99697    32966.302 
   70500    300.65659   -1345.1959    515.98875    545.56399    18.206021    32966.302 
   70600    293.39936   -1334.2891    526.19718    533.49503   -316.43377    32966.302 
   70700    293.54464   -1381.5288    537.11175    497.83414   -343.73908    32966.302 
   70800    302.81146   -1308.3442    541.18021    617.46039   -382.18801    32966.302 
   70900    298.10017   -1329.8476    555.00352    588.23758   -220.58468    32966.302 
   71000    295.39666   -1294.2933    520.53094    576.95738   -519.28206    32966.302 
   71100    313.99808   -1318.5012    522.56072    639.83541    467.23775    32966.302 
   71200    310.95978   -1332.0646    497.60889    587.42731    265.97328    32966.302 
   71300    312.45122   -1397.9592    519.46178    550.20535   -184.32116    32966.302 
   71400    297.63111   -1357.7233    537.95898    541.17257   -34.093645    32966.302 
   71500    309.16884   -1305.1594    532.85146    641.38592    387.81567    32966.302 
   71600     301.4741   -1383.5332    529.71052    524.68652   -144.60663    32966.302 
   71700    298.37498   -1350.1526    518.03098    532.21669    815.49394    32966.302 
   71800    310.91362   -1348.4681    505.00327    578.20715   -94.770668    32966.302 
   71900    311.60681   -1411.4117    498.88844    512.31842    484.94301    32966.302 
   72000    301.44832   -1377.4106     531.0401    532.02081    215.48557    32966.302 
   72100    304.66843   -1362.6009    526.41755    556.93206    233.91724    32966.302 
   72200    296.42037   -1377.2872    488.78841    466.90189    331.59062    32966.302 
   72300    292.58313   -1391.3027    508.62346    455.17541   -15.193517    32966.302 
   72400     299.7366   -1348.5073    529.63955    551.69663   -445.45651    32966.302 
   72500    300.46308   -1377.3082    542.50039    539.07846   -344.60697    32966.302 
   72600    291.59811   -1397.3535    563.56272    499.55985   -28.771212    32966.302 
   72700    303.68879    -1385.069    512.30382    515.87079    519.40657    32966.302 
   72800    295.53534   -1358.3945    519.93993    512.89932    515.72566    32966.302 
   72900    294.24823   -1407.5455    538.45993    476.38284    19.689312    32966.302 
   73000    293.32675   -1377.1202    546.19812    510.33286   -245.31694    32966.302 
   73100    300.29436   -1314.4187    507.36427    566.06036    596.14618    32966.302 
   73200    309.40568   -1343.6679    554.63949    625.74839   -4.0283427    32966.302 
   73300    298.95952   -1342.5383    524.22421    548.69709   -166.63052    32966.302 
   73400    296.21336   -1322.4372    531.33758    563.35456     80.20481    32966.302 
   73500    307.58433   -1352.6348    564.32181    618.13563   -76.111794    32966.302 
   73600    298.64813   -1402.0031    548.46839    512.05262   -481.04109    32966.302 
   73700    307.39827   -1391.6795    509.46354    523.38188   -397.33736    32966.302 
   73800    309.13039   -1372.0914    533.82611    575.25283     263.0283    32966.302 
   73900    295.74517   -1359.7261    538.02979    530.61706   -83.903112    32966.302 
   74000    300.98506    -1355.679    542.11878    562.71278   -121.92107    32966.302 
   74100    302.94819   -1347.7241    514.07081     551.5963    108.29272    32966.302 
   74200    294.23084    -1390.154      530.183    485.41791    416.74338    32966.302 
   74300    294.06364   -1368.0386    530.28742    506.87323    367.67179    32966.302 
   74400    302.02676   -1316.2547    531.92468    596.70624    835.31621    32966.302 
   74500    305.20453   -1357.5831    549.22399    587.20766     511.6214    32966.302 
   74600    288.70607    -1361.872    549.74529    507.99983     1220.873    32966.302 
   74700    298.37545   -1358.3586    527.62833     533.6102    399.71615    32966.302 
   74800    305.12393   -1369.1995    536.39678     562.3956    214.13315    32966.302 
   74900    295.35314     -1390.73    528.04403    487.83475   -72.117147    32966.302 
   75000    302.12816   -1425.1604    514.21568    470.55522    676.22652    32966.302 
   75100     291.1967   -1391.6131     513.2065    453.10857   -38.590646    32966.302 
   75200    303.00968   -1430.0169    532.65203    488.16586   -203.48297    32966.302 
   75300    302.86381   -1399.5564    499.96125    485.26858   -140.17384    32966.302 
   75400    306.71495   -1402.1087     493.6884      494.053   -18.905876    32966.302 
   75500    301.00236   -1394.3918    510.93373    492.89402   -463.91498    32966.302 
   75600    305.15139   -1366.2497    563.44107    592.51518   -355.43407    32966.302 
   75700     303.7306   -1349.3537    534.39949    573.87298    386.40305    32966.302 
   75800    297.57684   -1351.3961     544.2632    553.55585    160.93112    32966.302 
   75900    298.14849   -1388.0641    551.28937    526.52794   -801.95539    32966.302 
   76000    301.29668   -1384.2751    525.40643    518.82929    839.85629    32966.302 
   76100     298.1756   -1367.0844    532.08271    528.42494    1254.3483    32966.302 
   76200    299.54978   -1382.5896    560.31743    547.43794    298.93155    32966.302 
   76300    302.93988   -1418.0765    546.34272    513.47784    961.77371    32966.302 
   76400    293.39737   -1399.1264    538.52377    480.97524    657.71615    32966.302 
   76500    300.16802   -1399.6449    519.07554    491.96776     127.8353    32966.302 
   76600    299.87353   -1434.1077    527.72473    464.80755    320.23268    32966.302 
   76700    296.04289   -1379.9843    514.77393    488.46431    239.81702    32966.302 
   76800    292.19736   -1369.5619    549.64615    516.17495   -331.40776    32966.302 
   76900    290.23141   -1409.8684    538.10991    455.34287    -359.0353    32966.302 
   77000    302.40689   -1380.0048    517.61815    520.38776   -200.51079    32966.302 
   77100    293.96677   -1418.6299    526.56318    452.11474    336.14467    32966.302 
   77200    304.38213   -1481.2437    550.98998    461.55263   -463.09593    32966.302 
   77300    301.89908   -1406.1323    559.70073    534.02086    514.69802    32966.302 
   77400    301.42369   -1374.0167    547.03289    551.29491    642.05933    32966.302 
   77500    304.73141   -1399.0746    536.52712    530.85598   -111.24627    32966.302 
   77600    309.09012   -1444.2475    521.28696    490.37335   -10.442634    32966.302 
   77700    294.36955   -1463.1237     546.4852    429.38466   -153.59842    32966.302 
   77800    302.92099   -1409.5001    548.09075    523.71588     338.1333    32966.302 
   77900     306.0722   -1463.5857    531.46498    467.41359   -321.46794    32966.302 
   78000    310.99243   -1410.1692    561.70766    573.57083    169.52475    32966.302 
   78100    302.02567    -1461.309    531.40106     451.1234    264.85199    32966.302 
   78200      298.748   -1461.0829    528.97014    433.93117    21.370251    32966.302 
   78300    311.61602   -1419.3309    541.81894    547.37177    168.35575    32966.302 
   78400    303.50391   -1428.7481    534.51157    493.55408   -4.3436187    32966.302 
   78500    296.22666   -1430.4531    534.11949    458.18136   -272.94018    32966.302 
   78600    303.89942   -1400.4734    555.42029    544.54606   -644.25268    32966.302 
   78700    310.90408   -1349.4319    511.76588    583.96233    57.033207    32966.302 
   78800    304.04648     -1400.32     548.0267    537.97834    279.69147    32966.302 
   78900    301.85322   -1397.1877    562.99558    546.05063   -28.981196    32966.302 
   79000    294.60994   -1405.4502    530.55489    472.22707    -63.82306    32966.302 
   79100    295.58506   -1402.7918    531.81897    480.60843    188.50054    32966.302 
   79200    296.28919   -1467.9242    544.55416    431.43089   -22.266159    32966.302 
   79300    306.28514   -1465.6048    504.25692    439.16007    16.480485    32966.302 
   79400    296.91631   -1437.7129    513.32746    433.28304    528.68655    32966.302 
   79500    303.00558   -1391.3432    540.99733     535.1661    199.03061    32966.302 
   79600    308.09638   -1386.2489    527.81605    550.35713    105.59631    32966.302 
   79700    299.12943   -1370.0273    536.43441    534.19518    71.565744    32966.302 
   79800    294.97437   -1390.5301    528.65346    486.91217    -580.1591    32966.302 
   79900    301.15725   -1389.3042    536.11549    523.87163   -328.99925    32966.302 
   80000    300.35258   -1341.9164    523.08056    554.54518    165.26003    32966.302 
   80100    291.88657   -1379.6798    544.86564    499.85548     49.21643    32966.302 
   80200    293.96797   -1386.0179    546.12737    504.29641   -460.09858    32966.302 
   80300     305.5453   -1369.2931    549.78746    577.61937   -282.50846    32966.302 
   80400    308.20726   -1379.5992    526.55938     556.2572    756.90939    32966.302 
   80500    301.18257   -1401.1114    519.27634     495.3411    403.10778    32966.302 
   80600    309.19707   -1405.2183    556.45108    565.05573    110.10801    32966.302 
   80700    289.78118   -1415.5491    546.37062    455.86412    138.17451    32966.302 
   80800    297.13033   -1387.2652    519.29042     490.6723   -57.992352    32966.302 
   80900    299.91354   -1420.4125    552.87021    503.83116   -325.08183    32966.302 
   81000     309.8422     -1396.29    561.53877    582.02168    307.88211    32966.302 
   81100    287.60984    -1362.348     521.7399    474.50592   -225.79384    32966.302 
   81200    294.63253    -1421.095    557.92974    484.06039   -562.40554    32966.302 
   81300    307.62597   -1444.3244    507.33721    469.65186    200.19234    32966.302 
   81400    304.40816   -1387.2587    527.85806    532.52475    174.79536    32966.302 
   81500    312.46775    -1383.421    554.60219    599.95957     -1295.56    32966.302 
   81600    300.61288   -1432.9327    522.22036    463.85886   -319.74774    32966.302 
   81700    305.49728    -1340.774    535.40997    591.54144   -398.23253    32966.302 
   81800    292.19508    -1372.924    536.44647    499.60279   -1155.1499    32966.302 
   81900     297.6585   -1377.1618    561.89654    545.79686    72.493175    32966.302 
   82000    292.57044   -1395.0929     535.4561    478.15989    529.17206    32966.302 
   82100    295.35131   -1378.3321    542.32998    514.51022   -12.542668    32966.302 
   82200    305.41243   -1375.4366    530.52678    551.60759   -292.00621    32966.302 
   82300    298.46918   -1418.4035     528.3893    474.75478   -107.84085    32966.302 
   82400    292.95044   -1399.5188    526.11674    466.13219    457.04437    32966.302 
   82500    297.51423   -1408.8457     541.5991    493.15589    265.94458    32966.302 
   82600    300.25643   -1413.6096    549.72843    509.06018     -347.312    32966.302 
   82700    291.98563   -1444.2601     483.6645    374.52694    640.05932    32966.302 
   82800    299.24726   -1423.7083     541.5408    486.15933    87.888959    32966.302 
   82900    306.61859   -1433.3242    565.64623     534.3548   -722.98696    32966.302 
   83000    303.76418   -1433.5975    509.10294    464.48622   -71.154728    32966.302 
   83100    302.53539   -1430.6982    539.45666    492.12047   -484.25032    32966.302 
   83200    303.37537    -1400.656    553.01808    539.56493   -1651.0609    32966.302 
   83300    303.91579     -1359.42    536.06524    566.31922   -997.60383    32966.302 
   83400    291.68981    -1345.815    545.06724    533.02212   -392.42308    32966.302 
   83500    296.62919     -1436.12    550.70645    470.94197   -359.37764    32966.302 
   83600    296.58435   -1446.1507    549.74479    459.74458   -296.91596    32966.302 
   83700    303.99419   -1400.2558    538.46794    528.24466   -166.96665    32966.302 
   83800    308.45304   -1378.0082       569.44    601.85261   -967.29053    32966.302 
   83900    306.16932   -1407.4487    580.26435      572.794   -657.03146    32966.302 
   84000    299.27864   -1380.2355     555.2392    543.47399    127.29389    32966.302 
   84100    293.66527   -1376.1061    517.67272    484.36946    277.20978    32966.302 
   84200    302.50343    -1400.784    558.65515    541.08701    80.924627    32966.302 
   84300    312.25037   -1486.5875    556.14842    497.34527    383.78539    32966.302 
   84400     304.3948   -1420.5072    523.78805    495.14514    417.91862    32966.302 
   84500    300.08515   -1430.1767    566.84401    508.82548   -121.13838    32966.302 
   84600    298.76474   -1425.8214    529.47067    469.76978   -106.31928    32966.302 
   84700    304.68664   -1425.0191    534.78909    502.96876   -375.36179    32966.302 
   84800    311.43862   -1386.5854     587.6002    625.08739   -487.19262    32966.302 
   84900    302.42065   -1390.7112    542.65989      534.786    648.57096    32966.302 
   85000    299.81136   -1392.8553     541.4988    519.54975    366.20188    32966.302 
   85100    308.24023   -1429.4969    555.52066    535.47148    334.43411    32966.302 
   85200    296.25952   -1395.6164    562.72679    521.77559   -270.25617    32966.302 
   85300    311.39213    -1414.589    521.83547    531.10646    324.51781    32966.302 
   85400    291.28351   -1461.8749    532.42262    402.45984    220.21679    32966.302 
   85500    311.04403   -1397.9918    544.99114    569.26767    490.03213    32966.302 
   85600    293.29879   -1388.0003    542.50731    495.63408    746.43235    32966.302 
   85700    303.86459   -1375.2475    539.44767    553.64001    1629.7186    32966.302 
   85800    308.47384   -1424.9398    548.16085      533.737    743.36279    32966.302 
   85900    305.89503   -1349.9126    551.90749    600.71905    972.32261    32966.302 
   86000    303.75433   -1359.5599    528.62339     557.9992    1015.1549    32966.302 
   86100     306.0279   -1409.1765      556.274    546.42927    676.71572    32966.302 
   86200    292.46174   -1397.4396    541.05566    480.91564    306.02576    32966.302 
   86300    299.80706   -1397.3036    517.25057    490.83348   -81.002028    32966.302 
   86400     298.2948   -1425.3288    515.71537    454.35821     432.8436    32966.302 
   86500    300.99492    -1431.218    563.62992    508.72999    151.77931    32966.302 
   86600    305.89416   -1435.9144    528.47332    491.27912    -641.0722    32966.302 
   86700    305.05729   -1414.0257    551.41548    532.28334   -698.54339    32966.302 
   86800    301.85058   -1387.7829    528.52166    520.96941   -323.56123    32966.302 
   86900    295.63498   -1431.6445    531.26566    451.43064    -285.6138    32966.302 
   87000     298.2463   -1412.4421    540.61799    491.92581    94.168701    32966.302 
   87100     306.5905   -1396.0147    535.14175    541.03127    59.612793    32966.302 
   87200    307.86093   -1331.5085    545.88242    622.08732     368.8841    32966.302 
   87300     297.4478   -1404.5346    560.88388    516.44795    235.77449    32966.302 
   87400    290.04248   -1390.1276    544.52147    480.63131    -81.36821    32966.302 
   87500    293.74822   -1428.0534    529.91146    445.04016    88.002428    32966.302 
   87600    308.67938   -1419.7495      518.236     509.9423    87.310793    32966.302 
   87700    294.63436   -1443.5945    528.16411    431.80362   -197.68828    32966.302 
   87800    289.80694   -1402.2079    539.86612    462.81864    50.868988    32966.302 
   87900    293.29136   -1402.0478    555.65745    494.70272    665.86655    32966.302 
   88000    309.19356   -1390.3225     506.0514    529.53576    848.56036    32966.302 
   88100    301.37673   -1430.5439    543.66131    491.18135   -136.51366    32966.302 
   88200    297.97403   -1405.5699    531.85595    488.79103    101.04026    32966.302 
   88300    294.25337   -1396.9756    536.17515    484.69147    254.55636    32966.302 
   88400    302.22501   -1402.8859    538.41024    517.46707   -524.85894    32966.302 
   88500    296.96609   -1428.8201    528.13467    457.21057   -985.03561    32966.302 
   88600    304.96036   -1430.4014     530.2119    494.26078   -39.353324    32966.302 
   88700    305.59826   -1427.0529    553.54711    523.86133   -611.86775    32966.302 
   88800    302.75728   -1418.1831     538.4038    504.59734   -280.87821    32966.302 
   88900    313.48162   -1447.8154    552.01641    537.61532    462.75641    32966.302 
   89000    296.25412   -1388.7261    559.64688    525.56131    278.51749    32966.302 
   89100    294.59927   -1409.4646    559.46758    497.07658   -240.06379    32966.302 
   89200    307.53175   -1406.6753    553.40521    552.93809   -858.16903    32966.302 
   89300    309.06918   -1396.1113    574.39745     591.5243    -415.9869    32966.302 
   89400    294.46799   -1442.5382    526.23251    430.16764   -5.7256011    32966.302 
   89500    305.50119   -1419.2016    524.74449    502.46618     639.1752    32966.302 
   89600    297.09741   -1365.1212    548.35715    541.73248    1052.1273    32966.302 
   89700    295.66436    -1443.853    533.87974    441.97058    343.03815    32966.302 
   89800    300.21509   -1417.9189    552.05126     506.8847    604.27409    32966.302 
   89900    289.13032   -1447.8228    539.84687    414.09057    1147.2207    32966.302 
   90000    293.79686   -1445.2909    567.31075    465.42437    355.59045    32966.302 
   90100    292.86071    -1442.523    543.69137    440.29228    1044.1219    32966.302 
   90200    290.46861   -1423.2551    512.87433    417.80519    312.04662    32966.302 
   90300    296.35064   -1369.9315     569.6755    554.82591    262.27463    32966.302 
   90400    296.90044   -1385.3543    543.98797    516.22951   -477.56113    32966.302 
   90500    296.83269   -1368.2252    533.81086    522.87173    200.28176    32966.302 
   90600    302.29233   -1378.8141    553.70362    557.14013   -505.02628    32966.302 
   90700    306.42605   -1402.8558      558.646    556.94248   -551.82231    32966.302 
   90800    312.24322   -1387.7527    533.21087    573.20981    191.01121    32966.302 
   90900    309.40577   -1379.2414    541.64278     577.1786     462.0894    32966.302 
   91000    299.69525   -1440.1588    550.93279    481.14933   -20.270065    32966.302 
   91100    297.45577   -1428.8499     540.0195    471.30474   -119.55692    32966.302 
   91200    309.83869   -1392.3627     532.2854    556.67953    658.04626    32966.302 
   91300    296.81731    -1378.624    577.57197    556.16366    615.60542    32966.302 
   91400    303.24293   -1394.8403    569.02838     560.7854    696.59501    32966.302 
   91500    303.49126   -1365.5532    552.14026    574.31987    321.87332    32966.302 
   91600    295.91372   -1383.9875    552.09685    521.19331    249.67417    32966.302 
   91700    297.59949   -1402.7273    536.61207    494.67709    569.97817    32966.302 
   91800    302.86236   -1394.4332    514.35154    504.77541    758.20764    32966.302 
   91900    297.65236   -1382.0521    523.49386    502.47583    253.53347    32966.302 
   92000     294.2841   -1354.9108    583.09254    573.81416    -566.0605    32966.302 
   92100    297.89366   -1349.8955    519.97841    532.22036   -555.88236    32966.302 
   92200    305.52863   -1383.2262    549.64497    563.46753   -315.99398    32966.302 
   92300    303.79924    -1392.101    552.62731    549.66735   -461.62779    32966.302 
   92400    291.42354   -1369.3029     573.4235    536.67295   -447.73948    32966.302 
   92500    294.84647    -1395.561    546.83631    499.47924   -123.23275    32966.302 
   92600    297.19949   -1384.7364    550.18086    524.40773   -142.18226    32966.302 
   92700    306.49665   -1419.6309    528.11632     509.9605   -139.80421    32966.302 
   92800    308.40014   -1406.3817    510.19903    513.99623    68.308578    32966.302 
   92900    300.67841   -1396.5039    581.63224    559.99914   -534.78268    32966.302 
   93000    303.61025   -1400.5406    562.72469    550.46096   -376.92151    32966.302 
   93100    300.23822   -1324.6139    555.28819    603.53232   -925.20631    32966.302 
   93200    293.47873   -1388.7073    565.40284    518.64535    98.232089    32966.302 
   93300    304.76577   -1398.6575     548.8822    543.78526    34.191591    32966.302 
   93400    297.53749   -1366.7279    531.05292    524.83383   -428.45187    32966.302 
   93500    302.68851   -1376.9798    538.03783    545.12022    103.58557    32966.302 
   93600    307.93275   -1366.4392    553.15735    594.75999   -633.21615    32966.302 
   93700    298.84575   -1353.5481    541.63858    554.58142    126.57531    32966.302 
   93800    305.15221   -1389.7224    540.03688    545.64203   -235.87746    32966.302 
   93900    306.84441   -1406.0915    559.26747    556.24127   -59.477469    32966.302 
   94000    295.19034   -1435.1805    540.95497     455.5508   -576.92538    32966.302 
   94100    290.00027   -1382.0156    522.44579    466.47458   -172.18424    32966.302 
   94200    304.10765   -1370.9463    543.21429    562.81929   -203.31978    32966.302 
   94300    299.57692   -1420.4674    541.59932    490.96615   -436.66654    32966.302 
   94400    297.31284   -1390.8909    541.28726    509.87789   -467.50193    32966.302 
   94500    300.07954   -1398.0308    563.21165     537.3133    -757.6275    32966.302 
   94600    284.81218   -1419.1074    560.90591    444.12007   -156.97569    32966.302 
   94700     308.9874    -1385.621    554.89706    582.14034    761.50009    32966.302 
   94800    294.80061   -1374.8047    536.36141    509.55099    822.77739    32966.302 
   94900    295.69968   -1462.1837    574.25893    464.18057    155.42169    32966.302 
   95000    297.43098   -1418.7777    536.69222     477.9363     1171.473    32966.302 
   95100    301.42189   -1419.3386    536.69193    495.62376    901.27515    32966.302 
   95200    293.21697   -1425.8766     539.8436    454.71993   -96.514932    32966.302 
   95300    287.28666   -1410.4436    529.23139      432.424    23.098677    32966.302 
   95400    308.14608   -1407.2556    553.50036    555.26206   -307.83146    32966.302 
   95500    295.64049   -1448.8067    538.71807    441.74602    51.333148    32966.302 
   95600    297.86045   -1432.1671     576.1751    505.99359   -32.540215    32966.302 
   95700    294.74648   -1405.2602    548.20509    490.69165    79.536011    32966.302 
   95800    304.09207   -1407.5229    552.27867    535.23582      15.5414    32966.302 
   95900    294.20607    -1431.963    588.77995    502.09267   -185.39951    32966.302 
   96000    291.96793   -1386.0311    536.60885    485.61941    445.07882    32966.302 
   96100     297.1927   -1395.4319    561.37211    524.87246    765.97691    32966.302 
   96200    300.15527   -1386.5269     561.7356    547.68752    474.20661    32966.302 
   96300    292.06337   -1407.2521    565.64346    493.86942    1052.4155    32966.302 
   96400    299.00917   -1409.5464    555.39263    513.08439    937.18745    32966.302 
   96500    302.58615   -1420.0627    546.21149    509.74291    666.89921    32966.302 
   96600    302.34559   -1433.1614     563.8685    513.20119    343.97617    32966.302 
   96700    308.95448   -1376.7838    566.04066    601.97056    217.51405    32966.302 
   96800    296.17554   -1423.5011     566.6024    497.38252   -339.79891    32966.302 
   96900    302.02038   -1369.0581    576.13146    588.08053    -809.5821    32966.302 
   97000    295.57829   -1332.8395    560.60951    579.32022   -232.21678    32966.302 
   97100    294.25659   -1392.4843    572.01238    525.03481    97.007111    32966.302 
   97200    301.38888   -1445.9579    562.83163     494.9933    -406.5591    32966.302 
   97300    306.62161   -1399.9415    553.55728    555.66225   -244.77482    32966.302 
   97400    304.70802   -1352.2799    541.97247     582.9891   -137.95258    32966.302 
   97500    303.28906   -1369.7662    576.43975     593.4818   -854.02754    32966.302 
   97600    304.63753    -1368.797    574.60813    598.78527     674.9056    32966.302 
   97700    302.73779   -1402.0068    540.17707    522.45777     386.8263    32966.302 
   97800    308.35578   -1372.4791    575.50719    613.00423   -315.58334    32966.302 
   97900    318.21191   -1404.2586    573.52697    624.31228   -230.87918    32966.302 
   98000    300.16226   -1414.1477    553.23284    511.59581    167.95098    32966.302 
   98100    292.95076   -1484.4276    566.08282    421.19088    408.73068    32966.302 
   98200      297.706   -1485.8244    561.82922    437.28418   -382.24336    32966.302 
   98300    289.09134   -1425.0092    571.34147    468.22046   -156.36695    32966.302 
   98400    299.63457   -1432.1931    564.35028    502.25498   -452.01042    32966.302 
   98500     288.1019   -1412.9376    548.02998     452.4564   -339.66828    32966.302 
   98600    299.57145   -1417.9763    567.26624    519.09914   -723.50286    32966.302 
   98700    303.42995   -1400.8512    555.63976    542.24101   -70.168384    32966.302 
   98800     297.2676   -1426.7913    556.11734    488.60071    -805.3533    32966.302 
   98900    301.21107   -1366.5583    546.38074    557.12887   -413.50698    32966.302 
   99000    296.65138   -1408.4584     568.5693    516.56792   -290.64991    32966.302 
   99100    299.15885   -1431.4147    564.00567     500.5135   -196.33464    32966.302 
   99200    293.83563   -1466.5562    572.85967    449.88531    36.585004    32966.302 
   99300    303.48841    -1409.458    525.71183    503.97355    505.87741    32966.302 
   99400    290.06089   -1409.0184    554.99277    472.29599    319.47327    32966.302 
   99500    291.38756   -1436.7043    569.06532    464.74885   -240.35435    32966.302 
   99600     310.7269   -1412.0348    542.24681    551.03022    242.75949    32966.302 
   99700    311.08045   -1402.7358    538.39702    558.09608    61.580145    32966.302 
   99800    296.68352    -1476.354    593.68584    473.93579   -157.85007    32966.302 
   99900    307.91198   -1481.9461    524.03506    450.03574   -84.226152    32966.302 
  100000    317.31784    -1457.046    558.63711    552.54679   -204.98173    32966.302 
  100100    297.20649    -1450.943    584.51638    492.56862     -231.337    32966.302 
  100200    306.16875   -1431.3014    574.00362    542.67802    168.51457    32966.302 
  100300    300.15644   -1477.9899    528.49367    422.98787    251.46311    32966.302 
  100400    299.00448    -1520.535    586.41014    433.09187   -589.88096    32966.302 
  100500    304.21363   -1488.6828    536.39846    438.75148   -639.71212    32966.302 
  100600     308.0658   -1480.2201    539.68789    468.11801    238.82528    32966.302 
  100700    294.15842   -1473.3585    542.67277    414.37209   -145.29755    32966.302 
  100800    295.64615   -1469.4247    541.92227    424.35809      157.906    32966.302 
  100900    298.95685   -1432.3881    529.31358    463.92441    357.02083    32966.302 
  101000    303.97066    -1422.447    586.60372    554.08162    462.73764    32966.302 
  101100    307.59954    -1453.967    578.96932    531.52044    586.53572    32966.302 
  101200    303.06906   -1457.1264    545.61919    474.29507    852.32643    32966.302 
  101300    310.49094   -1444.6038    556.00846    531.14389     1333.427    32966.302 
  101400    298.44758   -1490.6052    565.09776    439.16284    485.23441    32966.302 
  101500    302.95486   -1467.7343    556.11686    473.66269    515.39029    32966.302 
  101600    307.90417   -1435.5725    514.88013     487.2187    493.63715    32966.302 
  101700    302.76151   -1457.7445    561.95097    488.60249    93.498541    32966.302 
  101800    290.87723   -1436.2656    557.59425    451.38301    669.60394    32966.302 
  101900    306.91396   -1476.1308    552.13083    479.38331    533.78971    32966.302 
  102000     305.0551   -1405.0079    566.88121    556.75691   -361.96316    32966.302 
  102100    306.69895   -1475.6006    571.27706    498.07663    311.74441    32966.302 
  102200     300.3541   -1474.5857    536.57258    435.37476    260.65256    32966.302 
  102300    302.82858   -1444.6526    566.07148    506.12152    74.180134    32966.302 
  102400    289.60442   -1494.5802    531.17596    360.83016   -142.87984    32966.302 
  102500     304.8035   -1499.8047    553.80435    447.73273   -43.121627    32966.302 
  102600    295.43857   -1462.8672    536.96779    425.01189    203.13035    32966.302 
  102700    300.68038    -1449.849    552.58365     477.6145   -405.77185    32966.302 
  102800    298.43719   -1463.9511    543.07762     443.7493    443.84907    32966.302 
  102900    306.35921   -1434.3454     558.9683    525.46961    644.35815    32966.302 
  103000    294.48909   -1521.1713    541.77173    367.17023    468.97813    32966.302 
  103100    300.84503   -1518.7346    567.73768     424.6358    687.21712    32966.302 
  103200     302.1689   -1486.5462    558.09008    453.23013    1195.1222    32966.302 
  103300    296.02354   -1434.3368    556.74103    475.99043   -8.8999016    32966.302 
  103400    294.68528   -1443.5422    557.65225    461.57693   -741.78458    32966.302 
  103500    297.61508   -1469.9843    539.45403    430.33338    4.9905062    32966.302 
  103600    289.23196   -1439.1123    543.31826    426.73717   -426.32562    32966.302 
  103700    301.15187   -1467.9295    548.22276    457.32904   -263.83878    32966.302 
  103800    303.58836   -1465.9889    569.60951    491.79743    269.50027    32966.302 
  103900    294.33044   -1441.9579    525.49864     429.3851    988.31775    32966.302 
  104000    298.80166   -1407.2177    567.73376    526.80538    289.53434    32966.302 
  104100    297.44491   -1467.8661     559.1598    451.37921   -821.35037    32966.302 
  104200    296.18451   -1465.4072    533.50149    422.41647   -272.06012    32966.302 
  104300    291.04529   -1438.9221    550.77106    442.67183    250.95187    32966.302 
  104400    299.41836    -1474.273    557.41033    452.24653   -52.712381    32966.302 
  104500    289.15895   -1464.8955    546.55488    403.85679    387.39212    32966.302 
  104600    302.19653   -1468.1013    530.36822    444.07946   -289.89793    32966.302 
  104700    312.06851   -1493.8507    584.76237    517.86442    130.71092    32966.302 
  104800    301.73733    -1473.067    547.04092    453.68671    271.28453    32966.302 
  104900    297.04796   -1487.4759    551.25974    422.05427     155.2913    32966.302 
  105000    299.73056   -1497.0842    534.46056    407.91311   -477.24408    32966.302 
  105100    310.81064   -1499.7171    549.69952    471.18356   -468.55579    32966.302 
  105200    303.95405   -1477.9512    555.85614    467.75391   -548.81622    32966.302 
  105300     302.0228   -1433.3265    543.90398    491.59562   -399.49173    32966.302 
  105400    306.52788   -1465.6082     528.1738    464.18352   -569.77958    32966.302 
  105500    298.80553   -1463.8677    558.04628    460.48563    537.16467    32966.302 
  105600    294.99772   -1485.8655    569.25394    432.28402    84.913932    32966.302 
  105700    295.63606   -1413.4561    574.98123     513.3395    364.86782    32966.302 
  105800    290.99731   -1450.3101    545.39439    425.68773    609.12939    32966.302 
  105900    305.49267   -1484.5045    535.14759    447.52745    410.37048    32966.302 
  106000    297.47503   -1509.6042    561.32027    411.93926    87.740469    32966.302 
  106100    299.92983   -1473.3967    559.92408    457.97525    166.26548    32966.302 
  106200    308.27796   -1452.9666    560.99434    517.64803   -260.02688    32966.302 
  106300    289.12776   -1397.0376    536.38017    461.39736    -466.4628    32966.302 
  106400    302.72192   -1448.3737    550.61931    486.46056    196.23338    32966.302 
  106500    289.90503   -1437.4412    570.07925    458.24693    627.40423    32966.302 
  106600    297.54985   -1457.5486     591.3526    494.36933   -11.800369    32966.302 
  106700     304.2777   -1422.6567    566.74164     535.4138    427.85484    32966.302 
  106800    298.22044    -1417.905    544.90754     490.6342    449.48783    32966.302 
  106900    281.20398   -1413.5223    573.18834    445.48886   -154.47508    32966.302 
  107000    299.96932   -1394.4451    577.05667    554.24009    -147.4576    32966.302 
  107100    296.00557   -1433.8932    544.96279    464.57362    56.436075    32966.302 
  107200    306.17735   -1451.9761     545.7275    493.76655    221.99864    32966.302 
  107300    307.95357    -1395.939    561.86101    574.05903    177.09133    32966.302 
  107400     300.3535   -1405.4082    578.82257    546.79952   -314.81636    32966.302 
  107500    295.23186   -1426.2849    578.53539     502.2167   -347.93236    32966.302 
  107600    292.53645   -1424.5151    551.13153    464.25762     232.2982    32966.302 
  107700    303.99325   -1442.5135    570.04385    517.55854    134.68436    32966.302 
  107800    304.49852    -1450.809    572.74591    514.27543    286.03209    32966.302 
  107900    291.71095   -1449.7809    545.27812    429.36385    321.18109    32966.302 
  108000    305.60323    -1432.015      579.748    545.12286    174.48661    32966.302 
  108100    299.17469   -1416.6886    515.15592    466.46235     128.5552    32966.302 
  108200    304.34359   -1471.3763    535.66446    455.91823   -48.676717    32966.302 
  108300     299.6133   -1455.4005    577.37894    491.97902   -120.95898    32966.302 
  108400    303.47461   -1398.2141    547.46766     536.9102    272.66379    32966.302 
  108500     305.9705   -1416.8873    546.09036    528.27231    -431.5002    32966.302 
  108600    298.50743   -1386.7115    554.52572    532.75813   -21.657874    32966.302 
  108700    301.43877   -1437.8181     565.0501    505.57967    229.79856    32966.302 
  108800    297.39687   -1434.5089    563.56892    488.92587   -498.61158    32966.302 
  108900    294.83259   -1416.0821    546.04905    478.10743   -412.66636    32966.302 
  109000    302.85739   -1391.3596    553.56598     547.0408   -1028.8441    32966.302 
  109100    300.45637   -1405.5757    549.02342    517.30325   -476.09364    32966.302 
  109200    290.26278   -1405.8355    540.28751    461.69675   -484.22193    32966.302 
  109300    292.57325   -1404.2548    558.66598    492.22064   -203.92383    32966.302 
  109400    307.53666   -1425.9811    572.72198    552.97147   -250.45725    32966.302 
  109500     286.7679   -1430.4496    547.55732     428.3719   -395.62882    32966.302 
  109600    306.71357   -1450.3354    559.58113    511.71271    288.98953    32966.302 
  109700    307.16969   -1437.5695    538.63723    505.62038   -797.04867    32966.302 
  109800    297.61706   -1403.0961    533.91159    491.68808   -384.57732    32966.302 
  109900    293.23988   -1373.5578    586.30221    553.60211   -872.43626    32966.302 
  110000    289.63694    -1354.119    552.54696    522.81103   -1595.9352    32966.302 
  110100    301.91257   -1370.8207    562.78049    572.47396    -582.5337    32966.302 
  110200    302.45975   -1363.2669    583.37143    603.12064    135.45219    32966.302 
  110300    304.56174   -1404.4469    571.36888    559.54961   -466.17399    32966.302 
  110400    291.11214   -1372.3877    581.25236    539.99311   -82.298394    32966.302 
  110500    302.13497   -1402.8341     585.0364    563.73333    119.19081    32966.302 
  110600    294.78049   -1418.1421    570.79819    500.55832    50.740613    32966.302 
  110700    301.02341   -1380.7313    586.96912    582.68622   -376.21209    32966.302 
  110800    297.98303   -1405.9467    539.60328    496.20261    93.796562    32966.302 
  110900     306.9468   -1419.2833    568.72244    552.97258   -355.09485    32966.302 
  111000    300.92548   -1433.0912    534.50315    477.41255   -383.05535    32966.302 
  111100    300.35893   -1418.0932    580.99938    536.31614    357.53895    32966.302 
  111200    294.27235   -1404.8879    580.40888    521.09968   -1167.7407    32966.302 
  111300    299.61296   -1406.6337    573.86895     537.2343   -56.239242    32966.302 
  111400    296.64307   -1424.7494    543.20224    474.87187    298.18087    32966.302 
  111500    305.09249   -1419.4184    560.61615     536.2523   -162.93882    32966.302 
  111600    291.95395   -1415.6755    565.44208    484.74433    9.1217056    32966.302 
  111700    298.76499   -1406.0904    536.57666    496.60786    382.76537    32966.302 
  111800    288.94568   -1387.5108    594.16212    527.87351   -43.294519    32966.302 
  111900    300.00312   -1432.3518    562.83391    502.26514   -142.10748    32966.302 
  112000    296.45907   -1387.6399    558.58057    526.51837    626.11487    32966.302 
  112100    300.31482   -1431.6106    555.73247    497.33013      43.5169    32966.302 
  112200     297.3515   -1469.7728    576.59984    466.48536    483.66353    32966.302 
  112300    295.41541    -1448.072    557.39409    460.12759    862.13221    32966.302 
  112400    290.59745   -1409.8917    532.36304    451.24637    916.62435    32966.302 
  112500    304.92522   -1416.2909    568.17998    546.17876    497.14212    32966.302 
  112600    306.51985   -1418.7498    553.33978    536.17121    373.81771    32966.302 
  112700    290.79782   -1405.5602    531.97706    456.10813    531.47271    32966.302 
  112800    298.07523   -1448.2748     573.3175    488.01039    140.41353    32966.302 
  112900    298.89289   -1474.6259    564.54836    456.62888    537.11506    32966.302 
  113000    292.69804   -1437.9494    538.29743    438.72816    239.74601    32966.302 
  113100    295.35716   -1406.0461    557.96755    502.46052    -218.8871    32966.302 
  113200    300.01741   -1405.1807    562.03269    528.70036    281.39991    32966.302 
  113300    306.94998   -1376.4207    548.22969    575.35697   -325.59886    32966.302 
  113400    294.09037   -1407.2471    554.00066    491.50016   -672.10534    32966.302 
  113500    295.63485   -1396.3445    575.37876    530.84309    160.06431    32966.302 
  113600    304.75873   -1403.4223    543.78416    533.89021    274.90882    32966.302 
  113700    299.47379   -1411.9456    567.23622    524.65322    -190.9247    32966.302 
  113800    300.17647   -1384.4265    554.20481    542.35404   -685.41907    32966.302 
  113900    295.95185   -1307.7354    574.59726    620.12024   -509.38427    32966.302 
  114000    294.46653   -1353.9078    546.44796    539.00685   -1224.4188    32966.302 
  114100     308.5455   -1413.2019    549.80633    547.44809   -1001.6117    32966.302 
  114200    313.49198   -1400.6709    554.58527    587.37612   -661.13689    32966.302 
  114300    288.19999   -1380.1124    553.21746    490.91758   -546.13166    32966.302 
  114400    301.16775   -1405.3242    537.79595    509.58016   -696.22558    32966.302 
  114500    307.19755   -1391.9661    589.49645    602.21044    -163.8741    32966.302 
  114600    311.91515   -1397.7531    544.63707     573.1356     707.6478    32966.302 
  114700    298.16622   -1400.7238    561.88514    524.54503    268.57152    32966.302 
  114800     308.9216   -1397.0663    567.78568    583.28277    337.94597    32966.302 
  114900    289.00033   -1377.4523    555.90202    499.92184    905.32312    32966.302 
  115000    300.55437   -1423.0605    558.95495    510.19812    209.26969    32966.302 
  115100     313.2989   -1399.2954    559.50694    592.79037    880.73332    32966.302 
  115200    304.08064   -1434.1003    535.79664    492.12411    708.02929    32966.302 
  115300    296.86593   -1460.2997     535.0074    432.14581    626.67625    32966.302 
  115400    316.49558    -1472.724    560.90443    535.37632    582.40757    32966.302 
  115500    303.11863   -1485.2544    543.27445    444.04898    341.08806    32966.302 
  115600    305.13958   -1400.0472     547.4356    542.65821    649.25743    32966.302 
  115700    290.71642   -1390.7135    534.25455    472.86005    340.24028    32966.302 
  115800    297.42811    -1423.217    533.80759    470.59921     221.4135    32966.302 
  115900    300.47052   -1449.4727    559.70562    484.15319     383.0885    32966.302 
  116000    299.86044   -1449.3447    537.90192    459.68779    26.854633    32966.302 
  116100     299.5479    -1420.006    544.71918    494.41472    238.75204    32966.302 
  116200    290.64924   -1391.9799    523.93984    460.97178    709.37447    32966.302 
  116300    305.00873   -1443.4833    534.06908    485.25734  -0.34925288    32966.302 
  116400    306.41143   -1379.5897    555.89997    577.39572    329.21025    32966.302 
  116500    308.69907   -1352.6835    549.04698    607.90934    -139.4767    32966.302 
  116600    308.00758   -1376.4598    523.98256    555.90672    83.385206    32966.302 
  116700    297.21398   -1386.7783    551.45147    523.70265   -171.76289    32966.302 
  116800     302.1105   -1384.9609     557.6775    554.13579    28.807295    32966.302 
  116900    295.82703   -1384.3312    552.08932    520.44571   -712.17166    32966.302 
  117000    302.01837   -1368.0924    521.31173     534.2172   -910.22486    32966.302 
  117100    302.48525   -1375.2867     547.2405    555.08652   -671.86433    32966.302 
  117200    300.41957   -1385.6554    567.23061    555.26252   -524.60058    32966.302 
  117300    307.43185   -1392.9992    566.08135     578.8335   -266.55809    32966.302 
  117400    298.77829   -1396.5373    544.75731    514.40245    496.15049    32966.302 
  117500    301.41618   -1387.1717    548.26224    539.33485   -572.95087    32966.302 
  117600    287.84984   -1369.9724    543.76074    489.99973    56.097454    32966.302 
  117700    306.75451   -1418.5984    553.60684    537.66271    202.59242    32966.302 
  117800    297.42008   -1403.2831    580.13875    536.82762    553.90397    32966.302 
  117900    294.73103    -1386.182    568.60181    530.09587   -262.29303    32966.302 
  118000    300.91065   -1385.0979    555.34256    546.17744   -86.167536    32966.302 
  118100    300.20863   -1406.1531    519.83604    486.40573    370.87603    32966.302 
  118200    311.70097   -1408.6037    567.20112    583.86964    285.54836    32966.302 
  118300    294.67249   -1416.2141    563.99016    495.18446   -4.4008684    32966.302 
  118400    296.47996   -1409.8374    530.82752    476.66331    212.36098    32966.302 
  118500    304.24201   -1368.8709    544.12107    566.41578   -539.67013    32966.302 
  118600    312.36227   -1381.8672    523.57609    570.00493    -250.2254    32966.302 
  118700    297.98593   -1375.1289    565.95014    553.38054    145.42341    32966.302 
  118800    304.82005   -1385.3366    567.84704    576.31914    313.77769    32966.302 
  118900    298.18881   -1413.4521    542.15864     492.1935     307.4646    32966.302 
  119000    299.29976   -1404.0099     553.6022    518.15925   -514.42541    32966.302 
  119100    301.37304   -1435.5062    537.84738    480.38829   -767.56337    32966.302 
  119200     304.5046    -1396.189    530.77552    526.95285   -67.735539    32966.302 
  119300    295.58085   -1394.4688    580.27157    537.36473   -454.94983    32966.302 
  119400    290.34019   -1420.4093    554.40637    461.59578   -532.23118    32966.302 
  119500    312.32641   -1450.6574    531.17137    508.64602    398.70753    32966.302 
  119600    305.74826   -1434.1742     569.0671    532.94597   -427.45005    32966.302 
  119700    300.15596   -1490.8509    549.29963    430.93062   -88.210485    32966.302 
  119800    292.89253   -1454.4243    530.79666    415.64183    532.65129    32966.302 
  119900      307.179    -1445.237    524.53697    483.89514   -350.43124    32966.302 
  120000    299.66399   -1453.2021    537.90872    454.93899     267.1018    32966.302 
  120100    293.28598   -1495.5493    555.47892    400.99808   -38.588686    32966.302 
  120200    308.92403   -1459.5286    526.14845    479.19434   -110.33709    32966.302 
  120300    289.17677   -1401.9368    530.44195     450.7841   -95.621268    32966.302 
  120400    286.18601   -1434.9503    548.21924    421.87245      -260.81    32966.302 
  120500    293.04371   -1421.3558    523.41837    442.02321   -208.36286    32966.302 
  120600    302.49981   -1409.9191    550.74139    524.02158   -548.38036    32966.302 
  120700    299.59497   -1404.2629    577.22706    542.88095   -81.710381    32966.302 
  120800    298.15692   -1426.9956    558.73166    495.07723    72.039904    32966.302 
  120900    308.56983   -1388.7881    546.04388    568.21069   -285.06292    32966.302 
  121000    298.76649   -1433.8916    556.34271    488.57965   -470.44038    32966.302 
  121100    294.74294   -1428.1266    558.72968    478.33365   -668.41961    32966.302 
  121200    304.82853   -1402.2924    541.43769    532.99288    588.69707    32966.302 
  121300    302.64232   -1433.6307    558.95973    509.17999     648.3249    32966.302 
  121400    291.46171   -1448.2084     561.9897    446.50824    429.28351    32966.302 
  121500    307.85427   -1425.8447    549.26295    531.10116    411.48057    32966.302 
  121600     300.3705   -1466.2534    531.75183    438.96135    411.03937    32966.302 
  121700    290.77082   -1430.9706    548.20417    446.80133    617.22575    32966.302 
  121800    308.08981   -1423.1192    556.91092    542.55166    468.03528    32966.302 
  121900    303.15017   -1405.9106    531.53888    511.80138    -121.4623    32966.302 
  122000    303.09021   -1426.4547    556.96502     516.4093    1008.5843    32966.302 
  122100    305.60882   -1421.7258    571.59609    547.28579    685.74328    32966.302 
  122200    300.25997   -1393.4795    548.52192     527.9999    554.04906    32966.302 
  122300    292.88244   -1414.5371    527.67253    452.35872    337.43697    32966.302 
  122400    304.55051   -1427.3672    561.10454     526.3136   -255.05531    32966.302 
  122500    307.63173   -1420.0132    540.86232    527.51447   -223.32041    32966.302 
  122600    310.32897   -1414.4564    545.83795    550.38022    408.45706    32966.302 
  122700    301.69061   -1383.3853    564.09367    560.20759    -915.1793    32966.302 
  122800    302.53841   -1366.3511    555.00102    572.02569   -549.14544    32966.302 
  122900    294.98394    -1365.584    522.05587    505.30442   -224.19038    32966.302 
  123000    297.71874   -1421.9645    543.12737    482.50047   -405.65083    32966.302 
  123100    292.17446   -1390.1658    529.90752    475.72767   -423.69929    32966.302 
  123200    298.31261   -1403.1262    527.67693    488.60384   -412.43247    32966.302 
  123300    302.57052   -1413.0699    566.97461    537.42735   -771.95668    32966.302 
  123400    298.29555   -1445.3247    544.78496    463.43537   -376.94035    32966.302 
  123500    302.28782   -1377.7154    511.56912    516.08372   -139.86503    32966.302 
  123600    306.23964   -1392.2773    546.84038    554.86298   -96.234867    32966.302 
  123700    298.51522    -1396.175    557.52978    526.33426   -813.27468    32966.302 
  123800    297.46019    -1410.543    540.04155    489.65391    171.18386    32966.302 
  123900    306.00505   -1390.7124    572.26067    580.77555    44.322891    32966.302 
  124000    291.03563   -1426.2536     550.6189     455.1439    168.44748    32966.302 
  124100    301.13033   -1420.8757    561.89112    517.95273   -276.26093    32966.302 
  124200    295.91568   -1412.9968    550.31025    490.40641    513.66121    32966.302 
  124300    306.26488   -1407.4976    524.10767    517.02538    737.59742    32966.302 
  124400    298.58701   -1387.1243    548.25335    526.43685     512.0421    32966.302 
  124500    299.94333    -1351.449     539.0443    559.10497   -56.746614    32966.302 
  124600    309.98653   -1355.6086    569.71058    631.53478   -230.26618    32966.302 
  124700    300.82624   -1377.3584     557.0955    555.28395   -490.85906    32966.302 
  124800    306.81089   -1372.3558    525.96691    556.52306   -130.97911    32966.302 
  124900    304.64683    -1379.917    571.25747    584.35716    57.318249    32966.302 
  125000    289.08023   -1405.0478    558.93541    475.72507   -84.264332    32966.302 
  125100    297.81587   -1378.7665    536.12589    519.14112    166.54399    32966.302 
  125200    290.01912   -1353.0791    550.12435    523.17582   -35.237589    32966.302 
  125300    298.92132   -1356.9134    568.93908    578.86208    49.237733    32966.302 
  125400     296.3336   -1389.3627    581.91125    547.55246    874.78994    32966.302 
  125500    301.23263   -1383.7054     544.4639    538.16358    841.39067    32966.302 
  125600    299.75532    -1405.765    554.16385    519.04883    89.416493    32966.302 
  125700    287.79958   -1372.0539    540.91864    484.84635     77.12577    32966.302 
  125800    298.19304   -1369.7903    553.73934    547.45545    96.639893    32966.302 
  125900     303.1766   -1425.2423    569.21075    530.26246   -105.58821    32966.302 
  126000    306.52723   -1408.7471    551.14385    544.01168    50.196321    32966.302 
  126100    295.83299   -1387.9003    537.85812    502.67266    313.18045    32966.302 
  126200    312.26459   -1401.3196    540.20184    566.73165     59.62958    32966.302 
  126300    300.42117   -1420.1068    548.07789     501.6657   -811.63229    32966.302 
  126400    298.15574   -1413.7475    553.71379    503.30205    186.25932    32966.302 
  126500    305.77084   -1383.4594    535.25936    549.95622    18.874627    32966.302 
  126600    301.69763   -1394.2525    544.48651    529.76531   -367.76678    32966.302 
  126700    307.16579   -1387.9517    547.52542     564.1085   -501.13857    32966.302 
  126800    310.14888   -1384.2913     555.4083    589.29212   -407.27909    32966.302 
  126900    297.92377   -1431.5171    533.65693    464.41492   -924.39076    32966.302 
  127000    304.39472   -1422.7226    568.17222    537.31354    -562.7161    32966.302 
  127100    299.19735   -1448.3944    552.75119    472.45544   -130.23548    32966.302 
  127200    295.19159   -1451.6539    547.51064    445.63878   -27.379021    32966.302 
  127300    295.58772   -1408.4937    560.39405    503.49366    -29.68554    32966.302 
  127400    293.79343   -1442.5259    552.20168    453.06467    591.48559    32966.302 
  127500    297.22946    -1423.758    567.78128    503.12356    498.47654    32966.302 
  127600    292.91299   -1423.8376    559.92366    475.44903    613.52598    32966.302 
  127700    308.54685   -1432.7031    524.04339    502.19008     254.1129    32966.302 
  127800    290.36343   -1459.9272    553.82865    421.60641    403.76141    32966.302 
  127900    298.31548   -1425.4571    565.61321    504.22231    212.04108    32966.302 
  128000    287.88231   -1388.9418    542.37373     469.7918    493.14566    32966.302 
  128100    302.69278   -1392.2153    556.05007    547.91644     254.7387    32966.302 
  128200    296.43829   -1415.0637     534.1901      474.609    -394.4565    32966.302 
  128300    299.54942   -1378.1828    575.98957    567.51521   -66.155657    32966.302 
  128400    296.34651   -1376.4437    543.85141    522.47064   -170.85256    32966.302 
  128500    291.29408   -1383.8811    569.30495    517.38432    106.77326    32966.302 
  128600    300.55551   -1366.3793     557.2035    565.13307    383.57305    32966.302 
  128700    297.85679   -1407.8545     545.4394    499.55374    116.34814    32966.302 
  128800    289.38177   -1339.3699    576.64396    560.49028    402.41482    32966.302 
  128900    292.98974   -1349.0735    564.92064    555.56104    583.55476    32966.302 
  129000    309.42657   -1388.5777    585.37816    611.67281    39.885052    32966.302 
  129100    294.77066   -1362.1718    549.46955    535.15501    88.670603    32966.302 
  129200    297.21173   -1384.9892    566.13396      540.164    143.31992    32966.302 
  129300    299.29086   -1422.7461    559.86754    505.64761     18.81933    32966.302 
  129400    301.62114   -1446.5275    538.23202    470.88606   -17.131859    32966.302 
  129500    303.64213   -1433.4409    538.15634    493.13809   -282.74094    32966.302 
  129600    290.43467   -1418.2314    545.32966    455.12895    -405.1966    32966.302 
  129700    307.54617   -1382.9719    549.93031    573.23254    175.15781    32966.302 
  129800    295.31042   -1418.8972    539.92134    471.34951    445.33062    32966.302 
  129900     298.0382     -1428.93    519.92874    453.79709    644.73391    32966.302 
  130000     293.6215   -1423.0956    546.51598    466.02304    121.17526    32966.302 
  130100    297.34762   -1406.1628    546.45324    499.93101   -146.44108    32966.302 
  130200    304.91581   -1405.3883     550.8536    539.71197    712.51672    32966.302 
  130300    302.07345   -1394.5453    540.13887    526.84331    1227.7193    32966.302 
  130400    304.20313   -1376.3488    551.45659     566.0957   -252.63686    32966.302 
  130500     288.9401    -1416.067    567.02683    472.15651   -108.66739    32966.302 
  130600    302.65139   -1439.1839     540.8041    485.51261    536.77613    32966.302 
  130700    296.01147   -1401.2022    542.94326    495.27198    872.26559    32966.302 
  130800    292.13132   -1435.9057    539.29318    439.17619    99.975731    32966.302 
  130900    305.13377    -1428.699    552.15057     518.6949    1065.5696    32966.302 
  131000    305.65179   -1471.2134    528.45724    454.85576    682.06744    32966.302 
  131100    299.07285   -1444.2166    532.76701     456.0798    801.36861    32966.302 
  131200    299.64297    -1438.542    555.26939    486.86368   -176.90324    32966.302 
  131300    281.15413   -1390.3714    541.55347    436.77696   -92.259008    32966.302 
  131400    298.30309   -1419.1864    526.04662    470.86972    178.10361    32966.302 
  131500    302.29121   -1441.9465    546.92017    487.21912     -519.593    32966.302 
  131600    298.26693   -1434.9548    509.03319    437.92266   -482.38817    32966.302 
  131700    298.08505   -1435.9053    543.17584    470.28306   -755.50628    32966.302 
  131800    301.65374   -1409.1977    539.72713    509.86005   -922.98382    32966.302 
  131900    304.63745   -1391.4798    563.28325    564.77724   -609.89831    32966.302 
  132000    291.63567   -1429.0855    542.43709    446.87397   -945.04378    32966.302 
  132100    301.71818   -1383.8373    544.68554    540.47355    100.01966    32966.302 
  132200     303.6296   -1404.8725    558.67937    542.17224   -482.06073    32966.302 
  132300    287.33336   -1459.6413    519.84092     374.0494   -440.90535    32966.302 
  132400     290.0907   -1460.6845    551.66145    417.43486    70.376624    32966.302 
  132500    298.32595   -1452.9608    535.23274    446.38599   -49.528816    32966.302 
  132600    307.65674   -1409.1012     566.3689    564.04742    45.060726    32966.302 
  132700    308.95864   -1405.7367    539.52481     546.5208    498.88612    32966.302 
  132800    307.24482   -1436.9006    560.84215    528.83768    371.48685    32966.302 
  132900    298.88333   -1422.7708    548.24534    492.13726    414.85624    32966.302 
  133000    305.21669   -1366.2272    523.95051    553.34571    795.32096    32966.302 
  133100    307.77246   -1426.2144    552.95846    534.05293   -100.43287    32966.302 
  133200    300.16499   -1452.4107    557.80428    477.91681    216.66435    32966.302 
  133300    293.22309   -1424.9162    519.39004    435.25479    231.85621    32966.302 
  133400    299.22731   -1421.5999    528.42559     475.0613     139.0594    32966.302 
  133500    295.67325   -1432.2466    550.16638    469.90425   -339.49015    32966.302 
  133600    306.08659   -1421.7799     562.1857    540.00592     343.6487    32966.302 
  133700     292.2188   -1436.3518    556.65939    456.49633    409.31667    32966.302 
  133800    302.09832   -1438.5663    540.77265    483.56985    356.60478    32966.302 
  133900    301.63407   -1436.4108    561.43102     504.2609    624.97595    32966.302 
  134000    301.58143   -1425.5387    531.70505    485.16632   -210.51266    32966.302 
  134100     303.4872   -1401.6082    553.78934    539.89538    838.31715    32966.302 
  134200    305.18063   -1418.7697    552.82827     529.5161    19.287078    32966.302 
  134300    286.86462   -1453.9697    570.67788    428.41463    677.28576    32966.302 
  134400    305.89123   -1457.5263    516.70868    457.88915    483.82819    32966.302 
  134500    292.97441   -1426.3924    543.86711    457.11859    343.28781    32966.302 
  134600    290.74635   -1445.5908    553.84669    437.71177   -499.92904    32966.302 
  134700     306.3869   -1421.2619    548.68577    528.39717    533.58747    32966.302 
  134800    290.02318   -1424.2911    563.20342    465.06148    -261.0919    32966.302 
  134900    298.43233   -1417.1237    584.32128    531.79807   -549.46033    32966.302 
  135000    303.63668   -1404.0807    574.25589    558.57292    63.561813    32966.302 
  135100    306.39287   -1370.3585    573.77765     604.4197   -80.126233    32966.302 
  135200     289.8026   -1418.6369    557.38655     463.8902   -604.37945    32966.302 
  135300     305.2642   -1409.1133    561.45144    548.17785   -938.95626    32966.302 
  135400    305.10789   -1379.0233    574.34077    590.44234    55.738609    32966.302 
  135500    299.06834   -1408.4416    547.87008    506.93721   -363.05271    32966.302 
  135600    297.61812   -1337.2418    556.06076    579.69641   -513.64472    32966.302 
  135700    296.59821   -1392.2158    564.93232    528.93042    -764.8621    32966.302 
  135800    299.73727   -1393.3328    555.99882    533.23339   -1042.1735    32966.302 
  135900    301.45237   -1406.9758    556.90106    528.33511    611.40652    32966.302 
  136000    309.15432    -1408.615    529.31941    534.33186    228.95506    32966.302 
  136100    295.82831    -1424.491    565.58281    493.78532   -548.11865    32966.302 
  136200    303.03086    -1425.697    562.71358    522.64418    299.55984    32966.302 
  136300    296.62577   -1434.3086    557.00591    479.03721   -108.99226    32966.302 
  136400    289.55696   -1426.7344    564.91755    462.20041   -718.55571    32966.302 
  136500     303.4244   -1412.8603    534.12006    508.68683    632.13321    32966.302 
  136600    296.00146    -1434.982    570.65444    489.15767    1392.4025    32966.302 
  136700    295.52683   -1421.1227    543.78313    473.97539    681.22176    32966.302 
  136800    302.36308   -1400.1082    551.26651    533.73242    655.57985    32966.302 
  136900    306.86636   -1397.2881    539.13827    545.01586    780.70792    32966.302 
  137000    308.75185   -1419.9613    574.85217    566.67806   -295.02884    32966.302 
  137100     306.5772   -1408.7444    539.39089       532.49    139.38032    32966.302 
  137200     297.4876   -1382.2975    537.67729    515.66046   -362.59237    32966.302 
  137300    299.56426   -1384.6086    553.60667    538.77438     228.7798    32966.302 
  137400    297.26234   -1406.6226    560.23166    512.85974   -149.86247    32966.302 
  137500     307.7502   -1455.4466    568.06282     519.8233   -456.45133    32966.302 
  137600    297.06796   -1404.0445    549.35356    503.67088   -86.069906    32966.302 
  137700    295.55935   -1429.4162    550.42345    472.47086   -52.972705    32966.302 
  137800    297.61046   -1426.0075    567.24481    502.07981    171.29116    32966.302 
  137900     309.3329   -1387.6452    562.64793    589.44683    194.19095    32966.302 
  138000    302.65576   -1434.1458    571.59971    521.36632   -271.13555    32966.302 
  138100    307.22326   -1452.5281    548.72844    500.99792    93.868005    32966.302 
  138200     306.5917   -1438.6101    543.38982    506.68949    280.82148    32966.302 
  138300     294.8383   -1427.3598    550.06833    470.87509     619.7584    32966.302 
  138400    304.96153   -1421.5495    550.31056     523.2168    819.55536    32966.302 
  138500    295.05343   -1446.4819     563.3635    466.03185    98.755662    32966.302 
  138600    296.01415   -1432.0685    564.61694     486.0917    57.472078    32966.302 
  138700    317.80454   -1403.5363    575.65291    625.29775      276.114    32966.302 
  138800    299.63928   -1409.1964    586.32426    547.24723    6.6135703    32966.302 
  138900    297.09526   -1398.2571    543.87212    504.10174    274.83389    32966.302 
  139000    302.23863   -1404.3712    569.17202    546.80588    365.37771    32966.302 
  139100    303.04676   -1409.4581    545.15304    521.39523    106.20198    32966.302 
  139200    304.09056   -1362.1962    555.39713    583.67402    915.15901    32966.302 
  139300    298.92653   -1412.0177    571.06445    525.90708   -410.51235    32966.302 
  139400    309.34324   -1383.7319    558.69217    589.45157     -346.843    32966.302 
  139500    296.10689   -1315.9942     579.4424    617.41547    36.546047    32966.302 
  139600    303.45149   -1388.9007    578.94585    577.59606    395.47829    32966.302 
  139700    292.84372   -1390.5998    596.88952    545.33602    669.15743    32966.302 
  139800    300.46133   -1402.9512    560.87209    531.79914    535.28749    32966.302 
  139900    295.40212   -1364.8642    566.23873    552.11925    857.44543    32966.302 
  140000     294.5914   -1407.9172    559.34859    498.46903    294.05155    32966.302 
  140100    297.65205   -1422.1337    559.60074     498.4997   -183.60815    32966.302 
  140200    296.19215   -1378.9388     560.3129     535.7312    355.49253    32966.302 
  140300    298.14266   -1406.8744    545.24488     501.6465    42.409137    32966.302 
  140400    309.74928   -1429.6771    567.19653     553.8674    343.87161    32966.302 
  140500    308.25843   -1382.7394    546.48747    573.27903   -485.83787    32966.302 
  140600    303.46722   -1372.0265    559.16536    574.76174    -872.1531    32966.302 
  140700    298.67196   -1436.7173    555.27816    484.25708   -618.46301    32966.302 
  140800    298.09662   -1370.0854    581.19874     574.1788   -505.71495    32966.302 
  140900    302.36034        -1403    550.29656    529.85819    50.355042    32966.302 
  141000    299.00283   -1439.9349    562.61873    489.89296   -256.90082    32966.302 
  141100    304.13894   -1424.0195    542.90217    509.57704    24.712111    32966.302 
  141200    291.40569   -1427.2912    544.53696    449.71651   -955.65272    32966.302 
  141300    297.98035   -1400.1012    572.87195    535.30458     -928.078    32966.302 
  141400     297.6927   -1421.2239    564.01074     504.0053   -172.60193    32966.302 
  141500     317.1268   -1388.5631    511.21625    572.73529   -129.49661    32966.302 
  141600    297.23696   -1392.5458    569.46978    536.05859   -274.14149    32966.302 
  141700    308.70278   -1443.4366     561.1859    529.31211   -815.80181    32966.302 
  141800    293.39781   -1414.6636    562.47705    489.39331   -215.49773    32966.302 
  141900    300.04682   -1420.9149    576.13316    527.20112   -615.70687    32966.302 
  142000    303.17877   -1418.3225    564.58702    532.56839   -394.03969    32966.302 
  142100    305.52979    -1462.635    559.92861    494.34775    -139.0673    32966.302 
  142200    288.94937   -1450.2421    547.77562    418.77256   -44.812179    32966.302 
  142300    285.99309   -1435.4137    575.08101    447.38862    37.711041    32966.302 
  142400    294.12764   -1368.4896    568.39637     544.8238   -116.99873    32966.302 
  142500    305.67836   -1413.9195    564.59508    548.40906     154.1609    32966.302 
  142600    295.86327   -1416.4092    568.50369    504.94784   -116.01631    32966.302 
  142700    310.75555   -1412.9638    597.25799    605.24341   -476.86188    32966.302 
  142800    299.38753   -1363.6711    565.97477    571.27193   -293.68923    32966.302 
  142900    291.35707   -1358.2466    585.76804    559.76993   -425.44304    32966.302 
  143000    307.50166   -1402.0195     592.3375    596.38855   -850.81414    32966.302 
  143100    292.46541   -1350.3445    571.95722    558.92908   -853.79926    32966.302 
  143200    294.54528   -1361.4902    537.05769    522.39425   -1078.6059    32966.302 
  143300    310.03902   -1412.7652    563.32778    568.23545   -1250.8662    32966.302 
  143400    295.43613   -1425.0722    566.60337    492.43139   -1368.6423    32966.302 
  143500    302.67656   -1475.6914    548.69369    457.00987    164.13813    32966.302 
  143600    296.63041   -1430.6558    562.94796    488.65328    -48.37035    32966.302 
  143700    303.47914   -1434.2187    554.97342    508.43211   -727.75197    32966.302 
  143800    305.44667    -1414.486    539.30014    521.48818   -409.94486    32966.302 
  143900    306.99583   -1438.0398    557.99919    523.71702   -490.25502    32966.302 
  144000    295.55184   -1432.6395    562.19456    480.98435   -1140.7976    32966.302 
  144100    310.66902   -1426.3288    598.95095    593.17569   -188.47484    32966.302 
  144200    295.78959   -1465.9363    553.10053    439.68069    171.08858    32966.302 
  144300     304.2772     -1489.91    559.88692    461.30347   -104.18592    32966.302 
  144400     289.8659   -1452.7482    542.34543    415.02723    214.18633    32966.302 
  144500    299.93242   -1446.0792    546.41551    471.79608    628.53116    32966.302 
  144600     305.1535   -1456.6646    586.83013    525.49895    354.82582    32966.302 
  144700    321.90093    -1470.498    552.17415    553.58833    436.02675    32966.302 
  144800     303.8043   -1438.7982    561.86346    512.22943    74.694565    32966.302 
  144900    291.70263   -1466.2711    565.79898    433.35644   -453.56665    32966.302 
  145000    298.78189   -1444.7905    567.82333    489.23173     28.66062    32966.302 
  145100    303.74426    -1469.348    541.17647    460.71815    433.79037    32966.302 
  145200    292.59918   -1448.2209    560.36802    450.07522    106.39791    32966.302 
  145300    318.86483   -1458.2128    555.31907    555.13569    626.65357    32966.302 
  145400    297.90554   -1440.8291    560.31636      481.679    251.68167    32966.302 
  145500    298.87648   -1457.6795    548.51506    457.46697    41.754002    32966.302 
  145600    305.58814   -1432.8385    569.31902    533.80144   -179.20439    32966.302 
  145700    304.21403   -1438.3533     587.7851    540.46951    620.97971    32966.302 
  145800       297.73   -1415.4134    547.61337    493.58908    358.32581    32966.302 
  145900    304.93528   -1442.1405    596.76456    548.95978   -227.25644    32966.302 
  146000     304.2502   -1455.1182    559.20018    495.28511    791.20231    32966.302 
  146100    293.13515   -1416.5769     544.2806    468.08248   -434.20584    32966.302 
  146200    296.50576   -1451.1389    548.66163    453.31386    -352.3906    32966.302 
  146300    305.20144   -1420.4217    570.46179    545.59275   -186.15724    32966.302 
  146400    295.84644   -1374.8295    568.67354    546.62044    22.117652    32966.302 
  146500    309.55639   -1416.7361    547.27331    546.00322   -474.97766    32966.302 
  146600    292.28917   -1421.4683    549.42881    464.47106   -439.27428    32966.302 
  146700    302.43195   -1464.0616    534.15377    452.98125    130.12303    32966.302 
  146800    290.24916   -1451.5026    541.11085    416.79075   -300.00158    32966.302 
  146900    310.39899   -1387.3232    567.60524    599.60082     43.97764    32966.302 
  147000    296.58654   -1416.3382    564.77307     504.5954    91.100966    32966.302 
  147100    290.41383   -1390.6132      544.655    481.97716   -472.40851    32966.302 
  147200    296.47936   -1375.1736    578.06323    558.56003    384.47667    32966.302 
  147300    305.28009   -1410.0208    550.33123    536.22276    115.46734    32966.302 
  147400    299.50786    -1426.334    571.84726     515.0317   -418.75236    32966.302 
  147500    301.86712   -1431.4425    548.65107    497.51487   -855.76076    32966.302 
  147600    305.96264   -1410.1693    553.12274     541.9868   -792.00993    32966.302 
  147700    295.67598   -1406.1074    555.37328    501.26285    68.095909    32966.302 
  147800    292.81691   -1432.1677     544.3413    451.09723   -132.27941    32966.302 
  147900    297.53705   -1450.8394    569.50545    479.17286     117.7125    32966.302 
  148000    308.40504   -1479.1765    534.02979     465.0547   -519.49527    32966.302 
  148100    291.45271    -1502.949    554.26397    384.00072    272.05002    32966.302 
  148200    300.69901   -1429.3321    554.28971    499.92271    208.58677    32966.302 
  148300    303.48547   -1412.2027    556.86359     532.3672    708.03971    32966.302 
  148400    296.09451   -1457.9331    573.96797    469.94555   -115.29292    32966.302 
  148500    304.63442   -1420.5727    557.89159    530.27888    52.478092    32966.302 
  148600    293.46367   -1430.4325    539.68867    451.13716    434.54699    32966.302 
  148700    311.65554   -1448.7022    582.37606    558.73829   -320.90379    32966.302 
  148800    297.02965   -1402.1738    550.66679    506.67969   -413.18751    32966.302 
  148900    290.12926    -1446.096     569.9545    450.49273   -674.85032    32966.302 
  149000     314.3574   -1418.3969     559.1758     578.1978   -1013.1381    32966.302 
  149100    300.04863   -1413.4038     536.3174    494.90475   -503.41415    32966.302 
  149200    299.29826   -1388.5777    554.21603    534.19835   -449.41953    32966.302 
  149300    311.34083   -1407.6019    564.43853     580.4621   -157.21238    32966.302 
  149400     298.7912   -1434.8529    549.65883    481.04741     136.5359    32966.302 
  149500    295.31021   -1412.7088    564.68079    502.29645    588.27696    32966.302 
  149600     309.3572   -1388.1474    583.68187     610.0896    391.78974    32966.302 
  149700    304.59672   -1420.8262     578.7472    550.70852    465.60442    32966.302 
  149800    307.85253   -1405.0162    552.50563    555.16438    153.10214    32966.302 
  149900     306.8802   -1391.6673    557.99858    569.56023   -125.35589    32966.302 
  150000    300.23625   -1386.6995    558.15999    544.30956   -429.60219    32966.302 
  150100    303.11687   -1410.8128    555.43891    530.64702    106.09543    32966.302 
  150200    292.72314   -1398.1711    570.64886     510.9726   -711.87687    32966.302 
  150300    297.62945   -1457.8545    573.16113    476.23596   -811.94605    32966.302 
  150400    292.08469   -1427.7743    542.01289    449.81419    343.56717    32966.302 
  150500    294.17619   -1411.9706    566.11781    499.28623   -230.52474    32966.302 
  150600    300.50527   -1398.6568    566.11134    541.53372   -741.85288    32966.302 
  150700    307.30302   -1391.2201    566.76252    580.70469   -237.58634    32966.302 
  150800    314.57024    -1374.768    578.58256    642.20673   -268.12656    32966.302 
  150900    288.82123    -1417.632    535.06841     438.0895    64.619236    32966.302 
  151000    299.09114   -1404.8666    581.80903    544.55536    310.73024    32966.302 
  151100    309.78873   -1409.3846    563.55618    570.69996   -76.467747    32966.302 
  151200    293.08037   -1373.6879    564.88752    531.32792    194.27211    32966.302 
  151300    293.67835   -1417.9646     556.0265    480.92458     135.7992    32966.302 
  151400    298.58719   -1439.2182    543.38763    469.47809    500.87453    32966.302 
  151500    291.66246    -1455.309      600.973    479.30891    1162.4742    32966.302 
  151600    298.17292   -1466.8463    562.23906    458.80705    800.91946    32966.302 
  151700    284.89037   -1437.7791    577.70022    442.60014    259.11553    32966.302 
  151800    295.97777   -1467.7255    557.16204    442.81341    619.35251    32966.302 
  151900    294.66116   -1441.9227     556.7899    462.22384    615.90205    32966.302 
  152000    292.13203   -1464.9543    569.73313    440.57083    779.41916    32966.302 
  152100    299.23997   -1471.3185    553.06058    450.03558    1308.9696    32966.302 
  152200    293.41907   -1480.8725    582.69279    443.49732    1560.6143    32966.302 
  152300    303.35884   -1455.5642    567.16549    498.72856    1354.5596    32966.302 
  152400    296.18989   -1460.1567    582.55573    476.74589    871.32893    32966.302 
  152500    301.78016   -1429.9746    576.03461     525.9687    374.68855    32966.302 
  152600    294.19269   -1410.0486    557.71023    492.87616    539.85106    32966.302 
  152700     313.7733   -1397.7618    557.73058    594.71684    1356.6713    32966.302 
  152800    308.75411   -1414.3762    575.35428    572.77556    53.429081    32966.302 
  152900    309.61946   -1454.5265    585.79002    547.01794   -419.04941    32966.302 
  153000    307.47797   -1386.5625    563.59528    582.99503    337.90406    32966.302 
  153100    306.34307    -1401.295    545.32135    544.79925      159.127    32966.302 
  153200    298.32918   -1436.2349    560.27591    488.16993   -459.50782    32966.302 
  153300    296.58159   -1419.1685    574.33133    511.30073    544.40056    32966.302 
  153400    290.60494   -1467.6862     525.2548    386.37782    -92.03316    32966.302 
  153500    291.55202   -1427.1302    591.15338    497.16309    430.61375    32966.302 
  153600     296.1926   -1447.6693    553.83822    460.52813    278.78662    32966.302 
  153700    304.77874    -1389.482    568.88552    573.02345    536.29111    32966.302 
  153800    303.04363   -1427.7216     565.7325    523.69685    307.73233    32966.302 
  153900    297.16929   -1430.0612    536.10448    464.86849   -176.80183    32966.302 
  154000    293.21487   -1464.4113    581.46781    457.79989   -794.77066    32966.302 
  154100    295.36618   -1429.4999     559.4902    480.57069   -691.65647    32966.302 
  154200    298.11139   -1442.7002    570.14502     490.5778    380.31707    32966.302 
  154300    288.50671   -1439.6961    593.45632    472.97523   -1012.7265    32966.302 
  154400    304.97783   -1432.7978    532.34497    494.07734    47.028858    32966.302 
  154500    299.49078   -1425.2595     547.1471    491.32791    20.165543    32966.302 
  154600     288.9059   -1399.2342    563.27745    485.08357   -122.21023    32966.302 
  154700    300.22637   -1403.5366    559.67815    528.94543   -614.97351    32966.302 
  154800    303.25509   -1444.5779    555.52669    497.60165    36.168587    32966.302 
  154900    302.10706   -1433.4444    557.65711    505.61615    65.234411    32966.302 
  155000     298.9269   -1435.7069    560.54124     491.6963   -356.76709    32966.302 
  155100    292.41803    -1403.906    564.55828    497.75201    124.99286    32966.302 
  155200    292.56927   -1401.9462    558.02869     493.8738   -257.98763    32966.302 
  155300    305.70223   -1420.7743    546.55782    523.62609   -307.63281    32966.302 
  155400    301.57015   -1428.1208    552.45259    503.28017   -336.42228    32966.302 
  155500    304.88576   -1437.5567    541.63793     498.1905   -445.58667    32966.302 
  155600    303.47259   -1415.2314    561.16331    533.57929    320.42308    32966.302 
  155700    307.18054    -1447.082    564.48858    522.00884    46.770518    32966.302 
  155800    305.32925   -1481.2627    589.48787    504.36232    836.97047    32966.302 
  155900     301.4658   -1444.3343    572.44049    506.57746    1236.0292    32966.302 
  156000    310.12576   -1471.5589    553.16649    499.67708    945.69006    32966.302 
  156100    308.52568   -1477.0897    561.88063    495.54393    1104.8152    32966.302 
  156200    299.46061   -1522.8757    552.04149    398.46818    588.60844    32966.302 
  156300    315.20239   -1509.2032    508.78843    440.86792    562.22555    32966.302 
  156400    302.01267   -1513.7302    534.66893    401.91064   -731.96322    32966.302 
  156500    310.06709   -1503.9726    530.15032    443.97888   -849.50727    32966.302 
  156600    289.59621   -1477.3724    532.36461    379.18897   -344.28426    32966.302 
  156700    289.25442   -1483.0097    562.66509    402.28934   -297.70446    32966.302 
  156800    299.13521   -1462.8578     554.5304     459.4871    149.48819    32966.302 
  156900    305.94899   -1456.8741    538.56841    480.66519   -43.490236    32966.302 
  157000      305.566   -1501.8354    537.63105    433.01527   -59.062448    32966.302 
  157100      294.856   -1493.7359    557.92992    412.44155    230.25062    32966.302 
  157200    298.36181   -1517.9316    539.42714    385.77364     658.6584    32966.302 
  157300    288.70003   -1510.5129    551.46584    361.05194    369.19221    32966.302 
  157400    292.12835   -1474.9944    538.95128    399.73211     603.7105    32966.302 
  157500    298.71432   -1451.9166    560.08214    474.05544    855.48117    32966.302 
  157600    290.76063   -1493.5961    562.35317    398.27821    664.23904    32966.302 
  157700    299.75252   -1507.0691    538.71989    402.28798    677.91354    32966.302 
  157800    295.30214   -1455.0997    544.55996    439.74776    1121.8069    32966.302 
  157900    292.01525   -1452.4151    553.19954    436.04251    819.72035    32966.302 
  158000    305.45734   -1456.4301    561.44209    501.73478    560.33186    32966.302 
  158100    295.47546   -1456.7903    546.27302    440.56282    448.18895    32966.302 
  158200    294.15211   -1495.4237    551.78338    401.38865   -158.78706    32966.302 
  158300    302.56567   -1428.8162    561.41311    516.09736    5.8739178    32966.302 
  158400     308.6074   -1484.3207    529.53429    456.34025   -114.19802    32966.302 
  158500    308.15486   -1455.7759    560.63503    513.91651    200.47989    32966.302 
  158600    295.93536   -1443.7038    569.47028    478.94945     468.3905    32966.302 
  158700     296.2697   -1479.6898    537.11595    412.13792    229.12284    32966.302 
  158800    289.81016   -1450.0339      543.382     418.5232    681.08794    32966.302 
  158900    300.37269   -1422.8956    556.32323    506.90054     942.3756    32966.302 
  159000     292.1101   -1424.8434    565.52469    476.37308    341.85199    32966.302 
  159100    305.35909   -1456.4363    559.21743    499.05474       486.99    32966.302 
  159200    297.76637   -1486.1962    539.04451    414.40374    24.725355    32966.302 
  159300    300.05885   -1453.6563    529.03812    447.41967   -313.84155    32966.302 
  159400    318.79476   -1447.3879    540.32281     550.6439   -915.18295    32966.302 
  159500    308.24238   -1430.8123    562.88704     541.5323   -53.978034    32966.302 
  159600    298.17103   -1421.8552    566.41444    507.96492      316.675    32966.302 
  159700    305.21776   -1411.9776     572.8123    556.46202   -443.36619    32966.302 
  159800    287.17736   -1448.6243    563.84983    428.36202   -528.03741    32966.302 
  159900    296.83204    -1426.918    542.93254    473.29763    92.278721    32966.302 
  160000    307.08389   -1447.2374    578.17654    535.09943   -799.11526    32966.302 
  160100    306.41311   -1419.7918    560.97544    542.27679   -1193.9914    32966.302 
  160200    301.68985   -1435.2775    534.22765    478.44594   -799.36345    32966.302 
  160300    301.16093   -1442.5155    528.68721     463.2489   -967.45497    32966.302 
  160400    306.13998   -1444.0682    559.26437    515.04039   -687.84684    32966.302 
  160500    300.23613   -1438.8854    561.38345     495.3465   -201.69554    32966.302 
  160600    290.52386    -1408.371    562.81682    482.88436    145.59807    32966.302 
  160700    308.86834   -1435.3837    573.41337    550.34953    1012.3523    32966.302 
  160800    298.63058   -1401.7686    578.67811    542.41653    960.06723    32966.302 
  160900    306.16629   -1434.3547    532.77528    498.38514    152.28586    32966.302 
  161000    300.37473   -1396.2738    553.57357    530.78207   -431.32745    32966.302 
  161100    303.35535   -1410.2827    550.52722    527.35582   -636.33981    32966.302 
  161200    298.88887   -1408.7946    529.63982    487.53331   -117.98542    32966.302 
  161300    303.15036   -1390.0457    577.15792    573.28616    146.12957    32966.302 
  161400    297.35403   -1413.3777    555.75992     502.0521   -211.13894    32966.302 
  161500    299.39729   -1425.9027    563.16687    506.27699    484.91204    32966.302 
  161600    299.99901   -1461.0917    563.40625    474.07879    877.16609    32966.302 
  161700    306.87819   -1493.5201    545.48565    455.18533    968.76388    32966.302 
  161800     297.0815   -1457.0557    569.43193    470.79995    239.68628    32966.302 
  161900    301.19129   -1422.8074    546.29872     500.7073     777.4311    32966.302 
  162000    304.41458   -1478.7771    553.83029    467.00797    -113.0633    32966.302 
  162100    305.05623   -1456.9904    562.21844    500.11669   -269.60742    32966.302 
  162200    291.12499   -1449.6167    589.64716    471.21768    524.82975    32966.302 
  162300    302.92344   -1424.7004    564.77506    525.21104    188.43152    32966.302 
  162400    301.52484   -1395.1055    568.21467    551.85034    116.19589    32966.302 
  162500    302.87147   -1451.5918    534.72606    468.03305    322.89232    32966.302 
  162600    303.40744   -1473.2376    568.07679    482.18866    261.33721    32966.302 
  162700    300.41301    -1476.385    561.19883    458.47109   -73.324986    32966.302 
  162800    290.13455    -1483.471    574.03338    417.22074    245.69914    32966.302 
  162900     307.1445   -1482.1291     543.3024    465.61074    181.33245    32966.302 
  163000    286.52094   -1452.7363    581.60272    439.00136    230.84713    32966.302 
  163100    302.27246   -1451.1759    558.98051    489.96432    883.52852    32966.302 
  163200    303.41519    -1450.784    566.78408    503.38504     408.0831    32966.302 
  163300    288.55754   -1486.7735    568.22441    400.89833    754.47685    32966.302 
  163400     299.3435   -1469.3959    586.60538    485.97632    365.45729    32966.302 
  163500    303.82974   -1422.0164    571.71911    538.98318    40.791905    32966.302 
  163600    288.03176   -1471.5889    533.50762    378.96202    95.247922    32966.302 
  163700     301.1626   -1500.1509    580.64966    457.58357    83.934977    32966.302 
  163800    294.46024   -1481.3836     573.2545    438.30882    156.58256    32966.302 
  163900    296.47716    -1451.817    566.59902    470.44237    175.93891    32966.302 
  164000    309.58023   -1413.5739    562.57178    564.57286    37.570152    32966.302 
  164100    304.04028   -1455.6108    571.36952    506.00191   -495.17379    32966.302 
  164200    305.64521   -1430.4836    582.80675    549.90499   -12.493252    32966.302 
  164300    299.88008   -1462.5521    561.40434    470.07273    221.95587    32966.302 
  164400    288.05393   -1441.3997    595.88366    471.62858   -166.55525    32966.302 
  164500    301.20517   -1425.4089    608.44595    560.31655    608.27831    32966.302 
  164600    293.25339   -1439.8899    555.11698    456.14659    454.07052    32966.302 
  164700    305.74238   -1496.3838    589.65687    491.29923    557.21925    32966.302 
  164800    299.98226   -1438.5732    571.27751    504.39191    312.71878    32966.302 
  164900    295.33874   -1481.7391    559.30636    428.02208    27.775153    32966.302 
  165000    293.42693   -1420.9398    547.73227    468.50547    84.378058    32966.302 
  165100    309.94625    -1439.871    560.67242    538.05009    336.37909    32966.302 
  165200    290.35892   -1408.9292    587.67795    506.43312    28.926592    32966.302 
  165300    306.95326   -1467.5521    559.46346    495.47435    329.08585    32966.302 
  165400    299.99013   -1464.4497     581.7866    489.06059     533.6561    32966.302 
  165500    299.34705   -1441.0429    606.20611    533.94629    526.44411    32966.302 
  165600    295.11259   -1465.4236    580.23429    464.23148    712.43936    32966.302 
  165700    302.90947   -1476.8322    535.86913    444.10942    824.58682    32966.302 
  165800    291.31456    -1485.114    579.95701    426.89703    603.66395    32966.302 
  165900    299.01649   -1434.2122    589.83792    522.89739    584.76971    32966.302 
  166000    293.89688   -1431.2709    591.47767    504.06867    533.07873    32966.302 
  166100     306.9053   -1426.9005    590.39853    566.84176     53.90742    32966.302 
  166200    300.25525   -1467.5152    590.11043    495.53117   -182.85325    32966.302 
  166300    308.69591    -1394.765    568.02835    584.79473   -101.29446    32966.302 
  166400    302.77766   -1439.9108    567.91003    512.46909   -701.46382    32966.302 
  166500    294.99762   -1417.6219    601.10763    532.38076   -439.56161    32966.302 
  166600    308.42386   -1450.1516    549.97681    510.11256   -222.10778    32966.302 
  166700    299.31378    -1498.358    571.58867    441.86161   -504.26977    32966.302 
  166800    295.47003   -1490.9864    556.25491    416.32372   -366.08523    32966.302 
  166900    306.44933   -1455.0242    569.79693    516.03143    166.80588    32966.302 
  167000    305.25855   -1386.6809    563.29626    572.42917    394.74646    32966.302 
  167100    304.04941   -1412.7499    586.97996    564.51508   -482.81707    32966.302 
  167200     296.4141   -1402.3353    581.70433    534.74105   -256.90412    32966.302 
  167300    302.94126   -1418.1483    593.27417    560.34379    266.41054    32966.302 
  167400    295.58647   -1454.4214    571.59819    468.76437   -554.86311    32966.302 
  167500    297.55993   -1434.4161    591.54028    517.73559    13.866241    32966.302 
  167600    302.89921      -1413.4    585.79354    557.41917    177.90273    32966.302 
  167700    293.76895   -1448.7153    568.99846    463.56005    358.91028    32966.302 
  167800    303.82856   -1405.3891    550.95056    534.83654    160.25816    32966.302 
  167900    291.36399   -1413.8651     611.2292    529.64414   -1280.5826    32966.302 
  168000    303.16605   -1373.4231    554.64809    567.47069   -51.777747    32966.302 
  168100    309.19204   -1422.1591    573.87685    565.51768   -46.690316    32966.302 
  168200    299.16206   -1458.7566    574.55954    483.74017   -233.37126    32966.302 
  168300    292.54004   -1405.4586    565.27841    497.47742     105.3601    32966.302 
  168400    307.01257    -1425.445    572.07448    550.46361   -397.97875    32966.302 
  168500    297.14382   -1426.3884    572.87452    505.19486   -598.73201    32966.302 
  168600     300.7341   -1386.1219    583.96637    572.96998    273.26277    32966.302 
  168700    292.43008   -1421.1703    577.95817    493.94271    236.65442    32966.302 
  168800    299.68686   -1447.8923    573.39935    495.84392    290.42038    32966.302 
  168900     302.1612   -1456.5898    580.72604    505.78729    515.39181    32966.302 
  169000    299.92957   -1451.0669    561.72678     482.1066    1076.1277    32966.302 
  169100    306.59895   -1445.2788    590.76585    547.42995  -0.56768215    32966.302 
  169200    299.06862   -1480.7828    568.39813    455.12528    289.86923    32966.302 
  169300     303.4797   -1398.3787    534.08404    523.38523   -8.6622497    32966.302 
  169400    295.07535   -1404.8816      569.595    513.96392   -262.81103    32966.302 
  169500    290.94297    -1409.198    594.72589    515.88286    93.140435    32966.302 
  169600    297.18435    -1446.587    596.78507    509.09214    440.73069    32966.302 
  169700    291.77909   -1405.1396    543.66412    472.70268   -57.531113    32966.302 
  169800    301.31536   -1392.3109    565.55717    551.02965    55.330081    32966.302 
  169900     302.3256   -1413.0708    577.37594    546.70781    98.733983    32966.302 
  170000    299.46139   -1421.4651    532.06938    479.91027   -445.55684    32966.302 
  170100      306.845   -1441.4441     573.1053     534.7292   -395.89858    32966.302 
  170200    298.87927   -1408.5665    561.19265    519.27031   -235.34416    32966.302 
  170300     295.3065   -1437.7305    566.05036    478.62736   -341.90257    32966.302 
  170400    307.37719    -1421.061    560.12044    544.56084   -199.84632    32966.302 
  170500    313.05785   -1426.4749    572.83798    577.83977   -344.78262    32966.302 
  170600    310.03724   -1432.6722    555.75518    540.74768    155.92503    32966.302 
  170700    307.48886   -1453.8662    568.68312    520.82902    1006.6312    32966.302 
  170800    288.77872   -1468.1855    572.53468    424.80797     401.4892    32966.302 
  170900    301.05905   -1444.4333    567.91696    500.09495    906.36097    32966.302 
  171000    295.04334   -1478.8855    536.88291    407.10154     515.5246    32966.302 
  171100     294.8808   -1461.7901    577.65001    464.22081   -554.26414    32966.302 
  171200    293.96573   -1444.0266    566.26082    466.41094   -610.64694    32966.302 
  171300    299.33658   -1430.7422    551.20418    489.19722   -1183.0845    32966.302 
  171400    301.85418   -1483.0546    577.35319    474.54571   -1256.0114    32966.302 
  171500    294.75377   -1422.7997     568.0491    493.02952   -825.50931    32966.302 
  171600    303.19006   -1418.1611    537.36938    505.56382   -660.26596    32966.302 
  171700    298.67748   -1458.3916    600.57083    507.90067   -874.13165    32966.302 
  171800    302.56884   -1455.6789    577.06541    504.90143   -588.98696    32966.302 
  171900    302.57016   -1431.6967    570.47885    522.30313    504.26209    32966.302 
  172000    301.06195   -1415.5971    562.23743    523.26499    497.51558    32966.302 
  172100    305.04775    -1428.243    576.13452    542.74143   -358.68827    32966.302 
  172200    296.93385   -1442.8041    546.93325    461.87782   -607.73204    32966.302 
  172300    309.17488   -1424.7335    586.45675    575.44478    82.125503    32966.302 
  172400    295.14935   -1452.2182    577.04503    474.41567   -741.69202    32966.302 
  172500    301.46085    -1471.589    570.38872    477.24831   -279.90286    32966.302 
  172600    306.43898   -1477.9846     544.8785    468.10534   -316.64422    32966.302 
  172700    300.37461    -1464.952    547.78727    456.31697   -277.80984    32966.302 
  172800    290.93939   -1461.6161    553.53755    422.26005   -607.96609    32966.302 
  172900    305.25733   -1455.5101    522.35029    462.64842   -779.26037    32966.302 
  173000     302.7916      -1467.1    559.20276    476.63634   -1061.7541    32966.302 
  173100    301.43227   -1449.0715    580.41161    509.65807   -675.74901    32966.302 
  173200    287.90996   -1506.5428    561.88267    371.82622    -273.2092    32966.302 
  173300    300.59453   -1510.2572    561.61943    425.84951    275.78633    32966.302 
  173400    297.88273   -1461.4035    577.51041    478.19439      305.473    32966.302 
  173500    291.76367   -1492.7506    549.54435    390.90138    13.542312    32966.302 
  173600    308.29258    -1447.689    550.40877    512.40693   -262.00835    32966.302 
  173700     293.1618   -1484.0891    525.11338    381.52498    58.342775    32966.302 
  173800      296.226   -1472.7488    563.38361    445.14675    110.90134    32966.302 
  173900    297.25159   -1502.6684    540.26463    396.79771   -295.78642    32966.302 
  174000     310.8731   -1442.7168    548.64725    527.41716    672.12548    32966.302 
  174100    299.97257   -1428.2833    577.05618    520.41622   -854.29424    32966.302 
  174200    304.52318    -1452.748     544.7214    484.42469   -555.87093    32966.302 
  174300    305.26273   -1443.4321    536.25154    488.65234   -4.7158596    32966.302 
  174400    297.27184   -1445.7776    556.18891    469.70543   -207.56777    32966.302 
  174500    293.94559   -1488.2962    526.63527    382.42366   -230.73094    32966.302 
  174600     294.6262   -1433.4506    567.60199    481.34812   -75.004436    32966.302 
  174700    305.80016   -1406.8696    579.95761    571.37835    29.792886    32966.302 
  174800     299.1422   -1451.6406    557.15352    473.35938   -798.56952    32966.302 
  174900    300.59072   -1491.9305    520.58645    403.12578   -134.96943    32966.302 
  175000    311.23538   -1472.3285    555.01203    505.82681   -590.57802    32966.302 
  175100    303.88482   -1492.6851    542.53707    439.38441   -869.48461    32966.302 
  175200    308.85532   -1435.6705    574.77632    551.36613   -659.65902    32966.302 
  175300     308.8813   -1452.5627      546.976    506.79233   -1238.9998    32966.302 
  175400    297.49687    -1427.809    585.30849    517.82256   -273.34229    32966.302 
  175500    302.87573   -1451.6732    567.81636    501.06142   -464.50123    32966.302 
  175600    299.21169   -1458.3012    560.43077    470.29375   -580.36442    32966.302 
  175700    306.84398   -1448.7018    570.28573    524.64727    336.84919    32966.302 
  175800    303.88732    -1453.363    585.46284    521.64369    107.22012    32966.302 
  175900    296.68712    -1410.228    573.61656    520.00901   -63.762183    32966.302 
  176000    302.20419   -1422.2466    550.13497      509.736   -65.252074    32966.302 
  176100    293.48418   -1445.8724    555.01673    451.11912   -304.60667    32966.302 
  176200    296.79236    -1438.478    563.08274    481.70642   -267.26601    32966.302 
  176300    291.97691   -1440.9202    577.35148      471.514   -260.13825    32966.302 
  176400    297.79053   -1402.3429    569.06261    528.38552   -157.73501    32966.302 
  176500    284.96803   -1376.3145     574.2852    501.00492    49.479658    32966.302 
  176600    304.35638   -1389.8436    566.73987    568.58486   -565.59043    32966.302 
  176700    309.55551   -1392.2242    529.24893    552.48667   -336.09346    32966.302 
  176800    304.15815   -1368.1466    590.54216    613.17775   -420.94947    32966.302 
  176900    288.14884   -1425.6263    561.72242    453.67473    290.73438    32966.302 
  177000    298.57025   -1402.2631     580.8847    543.85274    483.70691    32966.302 
  177100    301.20567   -1419.1911    564.83236     522.9231    102.36122    32966.302 
  177200    295.56032   -1414.3041    585.27093    522.43492   -13.984471    32966.302 
  177300    295.85187   -1439.0171    594.29639    508.08047    250.19814    32966.302 
  177400    300.22678   -1411.6082    571.30097    532.49853    1081.1418    32966.302 
  177500     303.9127   -1408.8987    554.34426    535.10538    97.450862    32966.302 
  177600     301.8139   -1395.6661    595.36347     579.7603   -673.98166    32966.302 
  177700     298.3611   -1413.6482    575.30952    525.93617   -427.39635    32966.302 
  177800    305.25215   -1408.9613    560.95122    547.77446    499.66984    32966.302 
  177900    297.59306   -1427.7512    578.97729    511.98898    388.63423    32966.302 
  178000    297.33425    -1414.522    565.94306     511.0005     33.65387    32966.302 
  178100    303.56598   -1419.6524    560.63758    529.05961   -259.88738    32966.302 
  178200    297.88801   -1438.2612    572.78118    496.63158     65.06678    32966.302 
  178300    302.04598     -1445.25    585.15606     521.0302    279.39392    32966.302 
  178400    300.73656   -1425.3795    542.76434    492.52164    325.35307    32966.302 
  178500    302.88288   -1421.6124    562.98995    526.32844   -688.67934    32966.302 
  178600     292.0699   -1407.5624    572.47046    500.41599   -616.13039    32966.302 
  178700    303.78011   -1414.2777    558.26405    533.03995   -1415.1159    32966.302 
  178800    303.06681    -1395.804     567.2142    557.20219   -339.80754    32966.302 
  178900    296.19074   -1427.6784    559.71919     486.3915   -504.88282    32966.302 
  179000    285.60675    -1423.366    568.45503     451.0438   -322.64557    32966.302 
  179100    293.26673   -1457.4377    545.21562    428.75844     129.7973    32966.302 
  179200    295.22252   -1446.7463    549.31754    452.49475    276.82318    32966.302 
  179300    302.96816   -1438.6932    556.93666    503.58433    178.82926    32966.302 
  179400    296.78318   -1422.1806    559.20117    494.08027    144.38458    32966.302 
  179500    294.17563   -1442.8458    570.66194    472.95261   -690.96535    32966.302 
  179600    290.28904    -1426.138     537.4526    438.67939   -748.41561    32966.302 
  179700    297.48365    -1388.393    542.03191    513.90158   -617.66608    32966.302 
  179800    299.56686   -1415.1425    581.68501    536.33073   -354.78786    32966.302 
  179900    303.14189   -1379.7676     553.0905    559.45821   -604.83626    32966.302 
  180000    309.58363   -1375.5474     570.7976    610.84074    125.51641    32966.302 
  180100    306.15224   -1374.6124    544.67132    569.95917   -223.04561    32966.302 
  180200    291.15552   -1395.5583    566.29862    502.06715   -302.94266    32966.302 
  180300     288.7847   -1405.5692    562.35317    477.27008   -646.00634    32966.302 
  180400    310.31858   -1422.4188    552.55108    549.08344    84.110058    32966.302 
  180500    303.22536   -1443.8304    559.30048    501.98708   -96.664524    32966.302 
  180600    297.02622   -1459.5641    535.37351    433.98043    157.94361    32966.302 
  180700    309.31769   -1449.1981    556.35708    521.53353    99.484147    32966.302 
  180800     304.7178   -1462.9259    548.32841    478.74375   -398.90912    32966.302 
  180900    305.20175   -1511.8124    557.52209    441.26375    29.526413    32966.302 
  181000     305.5117   -1493.9831    530.79098    433.77924     742.4433    32966.302 
  181100    305.87507   -1469.7208    550.50545    479.41758   -85.172357    32966.302 
  181200    304.18684   -1461.2886    558.09526    487.72005   -34.874602    32966.302 
  181300     301.3703   -1489.3975    537.66113    426.29822    31.045921    32966.302 
  181400    292.64961   -1452.0172    580.92203    467.06349    68.039803    32966.302 
  181500    310.59739   -1461.2094     544.9338    503.95044   -85.363544    32966.302 
  181600    305.83881   -1411.3879    547.48995    534.56921    26.521775    32966.302 
  181700    307.41735   -1443.5852    570.28233    532.38217    261.53554    32966.302 
  181800    303.58451   -1450.9741    594.27149    531.45652    410.48245    32966.302 
  181900    289.16253   -1464.0936     550.1944    408.31455     599.3705    32966.302 
  182000    291.57842   -1460.3278    556.70171    429.63452    768.56552    32966.302 
  182100    303.08253   -1475.0876    529.59979      440.376    420.04043    32966.302 
  182200    295.47763   -1460.2695     515.8668    406.68725    677.83298    32966.302 
  182300    296.06987   -1447.9273    543.52462    449.39532   -139.22514    32966.302 
  182400    301.22148   -1428.2555    565.82797    514.92655   -40.940377    32966.302 
  182500    301.20534    -1452.858    563.91109    488.33334   -1360.8562    32966.302 
  182600    292.30429   -1427.0541    557.52552    467.05111   -1143.4433    32966.302 
  182700    294.83854   -1431.6981    539.34712    455.81672    -338.6352    32966.302 
  182800    308.36132   -1488.2671     583.2711    505.00548   -251.30954    32966.302 
  182900    296.59354   -1455.1846    520.46917    421.47707   -532.96644    32966.302 
  183000    303.59942   -1479.0496    539.33678    448.51453   -77.114696    32966.302 
  183100    293.87782   -1486.1729    568.07805     425.6799    478.03488    32966.302 
  183200     301.4855   -1495.3877     559.6584    442.83202   -281.94055    32966.302 
  183300     305.9101   -1453.7758    548.66654    493.68381    134.90506    32966.302 
  183400    297.55374   -1478.9439    553.13486    434.77407    394.40461    32966.302 
  183500    297.32875   -1469.0715    595.27244    485.75521   -95.036823    32966.302 
  183600     296.6048   -1453.8549    576.77485    479.16399   -128.39122    32966.302 
  183700    302.02901   -1482.1547    528.99886    427.89069    642.25746    32966.302 
  183800    302.08239   -1456.8895    548.08979    472.49089    588.99891    32966.302 
  183900    305.68605    -1454.478    577.33277    520.62337    351.80689    32966.302 
  184000    295.40275   -1490.8153    548.16958    408.10184    275.88763    32966.302 
  184100    310.15881   -1476.8235    557.16057    498.55764    242.56724    32966.302 
  184200    298.89964   -1398.2718    592.83361    561.29918    157.79822    32966.302 
  184300    295.65908   -1438.6959    567.85156    481.07527   -280.44415    32966.302 
  184400    311.97948   -1436.4984    528.82581     518.8731   -311.73332    32966.302 
  184500    306.36919    -1456.488    548.86681    493.27108   -470.10211    32966.302 
  184600    301.90958   -1436.3804    569.49674     513.6168   -719.74945    32966.302 
  184700    284.31218     -1433.34    545.00805    411.70327    -821.2281    32966.302 
  184800    303.20526   -1430.7867     550.9276    506.56595   -168.52059    32966.302 
  184900    296.36036   -1443.8728    553.77923    465.03269   -654.06947    32966.302 
  185000    310.07001   -1373.4172    558.03658    602.43389    143.78107    32966.302 
  185100    310.69904   -1417.3239    548.15738    551.52431    1000.2405    32966.302 
  185200    304.72769   -1440.5115     565.9194    518.79429    121.03651    32966.302 
  185300     299.4154   -1426.1753    552.30566    495.22603   -118.96956    32966.302 
  185400    295.39269   -1429.4585    531.48218    452.72528   -504.83589    32966.302 
  185500    309.31386   -1450.7129    561.87458    525.51871   -316.11964    32966.302 
  185600    303.62053   -1486.2491    554.50817    456.58296   -155.73631    32966.302 
  185700    292.94639   -1455.5028    551.04315    435.05611    471.73207    32966.302 
  185800    290.51229   -1475.4572    572.34881    425.27722   -338.94649    32966.302 
  185900    300.02816   -1436.7633    586.79251    521.92674   -558.32421    32966.302 
  186000    301.16571   -1445.2713    558.53003     490.3578     216.5653    32966.302 
  186100    305.69338   -1477.4817    542.65717    462.97757   -283.90186    32966.302 
  186200    307.16352   -1468.8189    578.41457    514.12014   -125.13127    32966.302 
  186300    288.45596   -1474.5084    550.91507    395.38963   -355.39639    32966.302 
  186400    307.45937   -1503.3694    540.71803    443.22588    81.963628    32966.302 
  186500    298.14377   -1484.8303    518.77305    397.22385   -478.50693    32966.302 
  186600    291.51405    -1438.109    569.45744    464.31465   -1284.3771    32966.302 
  186700    286.04374     -1467.92    538.42951    378.46239   -381.12351    32966.302 
  186800    293.34805   -1424.0236    569.53744    486.86621    781.07783    32966.302 
  186900    307.18919   -1470.6425    553.09235     487.0917    317.95082    32966.302 
  187000    297.71321   -1419.3655    531.88803    473.83484   -704.60967    32966.302 
  187100     308.9963   -1431.0263    570.96944    552.84805    15.417473    32966.302 
  187200    289.77095   -1429.7881    564.99239    460.20007    40.255101    32966.302 
  187300    308.84863   -1428.1577     578.8446    562.91659    -154.8221    32966.302 
  187400    291.90708   -1428.5289    522.20853    428.44302    38.519133    32966.302 
  187500    305.12063   -1441.6959    601.65809     555.1454    105.46855    32966.302 
  187600    295.45563   -1422.3585     563.8526    492.48346    50.710341    32966.302 
  187700    290.80158   -1436.7242    566.02175    459.00597   -511.39026    32966.302 
  187800    299.44632   -1445.3642    574.75318    498.62604    77.528671    32966.302 
  187900    294.66132   -1443.9061     561.3115    464.76274   -255.47486    32966.302 
  188000    294.36784   -1450.4905     541.3225    436.84735    190.37615    32966.302 
  188100    299.38317   -1446.3251    533.47064    456.09386    92.029325    32966.302 
  188200    297.62948   -1442.8381    552.26273    470.35407   -52.369918    32966.302 
  188300    296.58357   -1405.9712    566.44868    516.62444    87.040193    32966.302 
  188400    304.24272   -1384.1079    561.75264    568.81368   -218.74984    32966.302 
  188500     309.0527   -1422.5737    571.65499    562.24413      331.518    32966.302 
  188600     304.5578   -1418.4583    556.42179    530.57308    -353.9117    32966.302 
  188700    297.88948   -1405.1562    547.64215    504.60423   -197.72281    32966.302 
  188800     298.1583   -1383.3598    569.97035    549.95801    -309.4047    32966.302 
  188900    306.58157    -1401.926    554.93299    554.87046    286.94685    32966.302 
  189000    307.95681    -1415.074    572.65421    565.73198   -101.59412    32966.302 
  189100    296.45027   -1396.6795    565.07028    523.92824     22.41858    32966.302 
  189200    312.76156   -1394.9404    567.78135    602.96275    12.650328    32966.302 
  189300    291.46324   -1409.2766    549.47913    472.93648    27.177653    32966.302 
  189400    295.47493    -1388.914    572.62309    534.78669    161.54934    32966.302 
  189500    291.45344   -1431.7173    546.35666    447.32845    970.55209    32966.302 
  189600    308.22366   -1403.1864      581.383    587.56862    1141.0773    32966.302 
  189700    297.42066   -1423.3727    554.69057    491.29247    653.36544    32966.302 
  189800    312.75042   -1418.5869    526.88933     538.3733    847.85122    32966.302 
  189900    298.23606   -1428.4546    558.94072    494.18923    1032.3932    32966.302 
  190000     297.7997   -1436.3429    559.81875    485.18356    579.42007    32966.302 
  190100    295.70852      -1445.5    548.99808    455.64379    1482.5516    32966.302 
  190200    299.84926   -1432.6766    521.10868    459.51161    269.45561    32966.302 
  190300    298.59528   -1382.3841    563.11452    546.07605    558.46445    32966.302 
  190400     302.0323    -1413.218    594.18551    562.02914    113.25435    32966.302 
  190500    291.52012   -1452.4779    549.28025     429.7963   -25.324992    32966.302 
  190600    298.54878   -1415.3837    560.95528    510.70461   -93.986999    32966.302 
  190700    304.14643   -1400.5697    607.17001    597.32889   -996.48919    32966.302 
  190800    296.84354   -1412.9585    544.03905    488.41621     408.2962    32966.302 
  190900    310.35159   -1387.6267     579.1247     610.6001    191.11364    32966.302 
  191000    300.96284   -1430.7391    536.64266    482.07496    172.56043    32966.302 
  191100     298.0685   -1459.7109    549.02074    452.24676    574.33615    32966.302 
  191200    294.35324   -1500.6335    546.32956    391.64469    398.74496    32966.302 
  191300    305.92552   -1473.8193    564.73307    489.77735    1190.1069    32966.302 
  191400    303.19458   -1455.3437    545.26857    476.30107     847.2041    32966.302 
  191500    291.05034   -1426.4022    556.22443    460.66817    620.73303    32966.302 
  191600    311.23522   -1487.3621    547.38963    483.17008   -241.03814    32966.302 
  191700    304.58533   -1460.6745    580.54887    512.60985   -451.84423    32966.302 
  191800    289.77868   -1413.2917    561.91322    473.65272     -8.59483    32966.302 
  191900    299.32498    -1381.057    575.72696    563.35219     -566.941    32966.302 
  192000    293.49335   -1409.6884    553.97289    486.30117   -1548.7811    32966.302 
  192100    302.83852   -1381.5014    567.45624    570.70298    -659.0682    32966.302 
  192200    296.27929   -1399.2311    514.58999    470.11452   -707.61257    32966.302 
  192300    304.71281   -1401.3131    604.73074    596.73606   -478.87947    32966.302 
  192400    298.52399   -1386.6689      560.733    539.08376   -151.45857    32966.302 
  192500    302.25883   -1415.2871    573.01382    539.82417    25.294406    32966.302 
  192600    294.11123   -1410.0987    596.30195    531.04526   -342.35915    32966.302 
  192700    300.78125   -1406.7743    568.14788    536.71467    591.79383    32966.302 
  192800    293.03616   -1414.3016    536.02288    461.64748    336.51772    32966.302 
  192900    300.41305   -1462.6498    569.85352    480.86124    115.91276    32966.302 
  193000    306.17573   -1439.4118    572.53184    533.12769   -871.97995    32966.302 
  193100    308.31647   -1433.0862     528.9386    505.64876    193.17973    32966.302 
  193200    308.34294   -1435.0898    555.49095    530.31855   -28.032685    32966.302 
  193300    300.10098   -1441.3448    581.73742    512.62313   -777.38446    32966.302 
  193400    296.70659   -1475.3835    517.17145    398.49738    84.917921    32966.302 
  193500    296.87555   -1426.5332    537.41408    468.36288   -424.71014    32966.302 
  193600     307.0867   -1440.3927    563.72889    527.50935    43.805686    32966.302 
  193700    305.75566   -1431.7227    550.52692    516.89114    88.882857    32966.302 
  193800    313.07254   -1420.4719    558.57761    569.64954     108.0638    32966.302 
  193900    289.77641   -1497.6599    538.41889    365.77978    79.090773    32966.302 
  194000    290.76906   -1435.3781    589.04555    483.22724    55.490617    32966.302 
  194100    290.63727   -1423.0206    525.00813     430.9446    108.23873    32966.302 
  194200    295.47581     -1406.92    561.30776    505.46939   -142.72084    32966.302 
  194300    296.44147   -1416.0524    571.54783    510.99257    261.74782    32966.302 
  194400    301.68817   -1398.1267    568.64251    550.00381    573.59019    32966.302 
  194500     300.4071    -1404.762    526.72685    495.59514     51.33071    32966.302 
  194600    300.37859   -1462.0423    562.35388    473.81147    3.6060553    32966.302 
  194700    302.67849   -1449.5165    582.24979    516.74962    72.734963    32966.302 
  194800    297.17465   -1474.7461    565.04879    449.15245    35.566307    32966.302 
  194900    306.47875   -1488.9122    552.54093    465.02197    54.282301    32966.302 
  195000    285.59903   -1507.4252    560.69577    359.19008    15.832243    32966.302 
  195100    290.02717   -1469.8191    536.35188    392.70019    419.28327    32966.302 
  195200    289.76854   -1472.8603    568.05833    420.18284     -176.638    32966.302 
  195300     299.4014   -1421.1728    546.46846    494.32729   -348.23484    32966.302 
  195400    309.79139   -1435.1665     566.5962    547.97023    57.716315    32966.302 
  195500    297.01289   -1477.3173    532.41361    413.20631    477.71748    32966.302 
  195600    313.53212   -1449.1962     564.8776    549.32663    50.844066    32966.302 
  195700    297.26321   -1489.7122    565.49975    435.04218    377.78605    32966.302 
  195800    293.63902   -1432.8915    560.92781    470.71909    1471.8196    32966.302 
  195900    301.74102   -1410.6014    580.71671    549.84508    565.64919    32966.302 
  196000    310.60125   -1474.8498    544.21461    489.60854    115.62422    32966.302 
  196100    289.90388    -1449.903    572.12802    447.82864    858.08493    32966.302 
  196200    291.34733   -1468.3089     547.8722    411.76725   -364.36543    32966.302 
  196300    295.09463   -1418.4376    573.79091    504.69203    319.75381    32966.302 
  196400    301.71311   -1457.3104    531.56816    453.85989    799.95992    32966.302 
  196500    307.72668   -1447.7568    561.77252    521.11519    202.92257    32966.302 
  196600    303.71117   -1460.5047    568.30883    496.54245    213.87195    32966.302 
  196700    296.47294   -1463.3649    533.36322     425.6394    -11.53663    32966.302 
  196800    311.61536   -1467.8544    556.61357    513.63985    343.11787    32966.302 
  196900    297.07838   -1446.9955     546.5347    457.94871    382.69676    32966.302 
  197000    305.61205   -1411.7761    566.19786    551.85204    512.71953    32966.302 
  197100    305.16648    -1416.974    569.54045    547.95927    544.89966    32966.302 
  197200    315.04096   -1428.9015    572.12175    583.76473    511.71321    32966.302 
  197300    294.30705   -1465.6682    535.37485    415.44403   -256.23552    32966.302 
  197400    296.95803   -1422.6733    573.06517    508.25112   -41.599102    32966.302 
  197500    303.70604   -1419.5501    550.49166     519.6564   -177.63698    32966.302 
  197600    305.22614   -1428.4469    583.95465    551.17338    67.547135    32966.302 
  197700    302.23519   -1433.8514    546.66724    494.80517    205.97699    32966.302 
  197800    294.89409   -1406.6606    551.03532    492.79643    596.83117    32966.302 
  197900    309.75681    -1433.023    582.72446    566.08387    224.06407    32966.302 
  198000    299.45142    -1424.041    564.32095    509.54032    950.53185    32966.302 
  198100    302.07947   -1480.5777    584.08013    484.77973    1422.3987    32966.302 
  198200    292.87806    -1502.718     567.4207    403.90592   -83.957703    32966.302 
  198300    299.73339   -1437.7976    568.52167    501.27373    1009.0601    32966.302 
  198400    293.54093   -1453.6965    553.80761    442.34534    223.87663    32966.302 
  198500    310.30188   -1452.8487    564.10981    530.13589    -301.7308    32966.302 
  198600    307.85429   -1402.6943    548.90057     553.8893   -259.82387    32966.302 
  198700    293.90238   -1455.3981    557.45827    445.94723   -784.65091    32966.302 
  198800    305.89055   -1425.7034    577.05224    550.05255   -421.30538    32966.302 
  198900    302.96311   -1430.5615    543.57791    498.33422   -698.92037    32966.302 
  199000    304.71035   -1437.6493    563.59086    519.24872    416.68271    32966.302 
  199100    295.71412    -1432.418    566.58387    486.33722   -23.564366    32966.302 
  199200     309.1782   -1395.7695    565.63705    583.60422   -445.18041    32966.302 
  199300    302.79222   -1445.1855    548.39626    487.74712   -144.99804    32966.302 
  199400    288.86516   -1464.2813    592.68366    449.25636    167.95311    32966.302 
  199500     304.2838   -1493.2744    578.10099    476.18335   -630.39906    32966.302 
  199600    302.16762   -1463.7933    555.15374    473.04087   -999.86834    32966.302 
  199700    292.14842   -1406.7385    554.99976    484.12817   -255.81356    32966.302 
  199800    304.14566   -1442.9513    589.07281    536.84661   -254.80342    32966.302 
  199900    307.97538   -1435.1167    566.79187    539.91186    18.929133    32966.302 
  200000    300.03038    -1432.564    565.98245    505.32619    -713.8502    32966.302 
  200100    297.07245   -1444.8153    540.68012    454.24723    391.94854    32966.302 
  200200    303.73009   -1390.6442    581.47688    579.65752    1031.5722    32966.302 
  200300    287.14153   -1466.1295    579.79412    426.63727    986.60421    32966.302 
  200400    300.02907   -1415.5934    565.24518     521.5535    384.13208    32966.302 
  200500    299.28877   -1434.6162    565.73444    499.63486    98.205887    32966.302 
  200600    309.85762   -1431.3242    561.63004     547.1492    894.64648    32966.302 
  200700    312.70638   -1427.5145    537.62176    539.97672    447.20273    32966.302 
  200800    292.07711   -1411.9375    573.73689    497.34027   -178.78744    32966.302 
  200900    296.00408   -1416.3481    543.87147    481.02063   -346.14642    32966.302 
  201000    305.10264    -1447.144    575.69847    523.65544   -351.52389    32966.302 
  201100    302.41213   -1481.4711    559.05974    460.38702   -955.59429    32966.302 
  201200    314.13341    -1408.058    572.20581    600.54245   -20.387778    32966.302 
  201300    301.73156    -1431.737    544.07112    492.02056    -179.2249    32966.302 
  201400    305.25241   -1453.3026    561.54016    504.02336    -517.8801    32966.302 
  201500    298.86731   -1468.8398    565.36161    463.11127   -95.589647    32966.302 
  201600    291.54004   -1416.7902    542.93348    459.22835    216.59766    32966.302 
  201700    307.41606    -1421.019    583.25252    567.91272    292.96515    32966.302 
  201800    299.63477   -1426.4488    553.96858    497.61853    244.65188    32966.302 
  201900    298.65742   -1379.4832    581.97064    568.11716    396.11762    32966.302 
  202000    291.96769   -1372.9296    567.41409    529.52504     686.0863    32966.302 
  202100    287.99028   -1381.2197    568.50551    504.13937     127.8726    32966.302 
  202200    299.84396   -1426.9001    568.39261    512.54785    489.31488    32966.302 
  202300    294.65307   -1413.4066    553.06583    486.97887    107.87273    32966.302 
  202400    305.27756    -1404.462     569.4364    560.87517   -288.76959    32966.302 
  202500    294.64119   -1423.2747    543.00863    466.99919   -276.49715    32966.302 
  202600    288.18125   -1373.5093    562.91391    507.13137   -539.87837    32966.302 
  202700    295.34938   -1429.1378    564.30207    485.66779   -793.34044    32966.302 
  202800    296.87297   -1420.0337    552.10525    489.54183   -15.947091    32966.302 
  202900     309.3401   -1419.3089    539.76797    534.93606    199.30003    32966.302 
  203000    305.21879   -1443.0149    544.44577    497.06293    99.445026    32966.302 
  203100    293.87984   -1440.3975    562.08401    465.47046    -301.7678    32966.302 
  203200    305.52746   -1411.7859    569.37184    554.62936   -61.670992    32966.302 
  203300    292.85058   -1404.7769    563.66313    497.96382    10.552334    32966.302 
  203400    303.11086   -1442.9158    557.05422    500.13179    297.16405    32966.302 
  203500    305.47828   -1418.2165    548.23241    526.83448    155.94904    32966.302 
  203600    308.39641    -1395.933    559.84729    574.07623    457.18232    32966.302 
  203700    297.19784    -1430.265    563.19702    491.88777    81.563131    32966.302 
  203800    293.28765   -1458.4111    548.70328    431.36831    219.46173    32966.302 
  203900    300.11463   -1419.5629    574.15424    526.88429    115.98537    32966.302 
  204000    308.29721   -1420.5665    568.78197    557.92377   -132.69787    32966.302 
  204100    308.51596   -1380.8627    564.58986     594.4357    186.52101    32966.302 
  204200    305.10485   -1413.1644    557.61188     539.5585   -222.93096    32966.302 
  204300    297.39626   -1394.8198    557.10259    522.14583    -72.47076    32966.302 
  204400    294.76159   -1425.1607    557.97746    480.63262    188.54501    32966.302 
  204500    297.78439   -1381.7391    569.94183    549.84054   -212.37618    32966.302 
  204600    298.11895     -1355.85    560.93166    568.24923    127.91588    32966.302 
  204700    298.83986   -1392.6882    566.48223    540.25801   -16.455671    32966.302 
  204800    303.62785   -1436.7259    553.17495    504.80636   -2.2765936    32966.302 
  204900    305.66439   -1401.9991     552.6038    548.27425    -143.8392    32966.302 
  205000    310.39408   -1402.8729    560.57223    576.99576   -329.97017    32966.302 
  205100    298.49103   -1400.9866    559.90658    523.78891    610.23439    32966.302 
  205200    308.72804   -1423.0039    570.96664    559.64107    517.77116    32966.302 
  205300    306.30817   -1412.0307    553.95884    542.54146    1409.0242    32966.302 
  205400    302.52256   -1466.5127    560.33095    477.12157    1292.3652    32966.302 
  205500    298.83645   -1442.1231    548.79438    473.11969    779.22467    32966.302 
  205600    296.34956   -1434.0506    573.11786    494.14419    1226.1721    32966.302 
  205700    297.37987   -1469.4848    548.86241    439.16568    433.27787    32966.302 
  205800    306.25056   -1486.5453    530.81919    444.62371   -40.666754    32966.302 
  205900      300.607   -1454.4771    567.25371    487.32093    194.21425    32966.302 
  206000    306.59022   -1407.4307    569.77655    564.24878    339.95478    32966.302 
  206100    303.90704   -1427.4276    524.69041    486.89677   -329.12816    32966.302 
  206200    296.62523   -1387.5717    555.46336     524.2291     47.73144    32966.302 
  206300    297.21312   -1419.6588    547.98695    487.35372   -332.91237    32966.302 
  206400    298.40691   -1421.8244    560.47088    503.13074   -347.85418    32966.302 
  206500     295.8983   -1422.9158    587.45422    517.55197   -405.05732    32966.302 
  206600    303.09998   -1410.6228    560.75893    536.07976   -125.84324    32966.302 
  206700    298.73303    -1432.159    561.89485    495.71137   -71.116341    32966.302 
  206800    306.00658   -1406.6988    551.15672    543.69211    826.03094    32966.302 
  206900    297.84566   -1415.9402    541.07173    487.04946    59.023397    32966.302 
  207000    306.61745   -1398.3221    574.99907    578.70447     135.9464    32966.302 
  207100    291.56799   -1369.4288    598.38015    562.16426   -222.37651    32966.302 
  207200    294.52394   -1394.1369    563.14456    515.73685   -598.88022    32966.302 
  207300    303.38862   -1398.8713    559.42736    547.81946   -345.07191    32966.302 
  207400    290.39859    -1379.065    566.50567    515.30643    97.238497    32966.302 
  207500    297.85781   -1372.0503    592.51958    582.44279    99.940475    32966.302 
  207600    298.58679   -1413.9504    600.70024    552.05662   -335.09937    32966.302 
  207700    312.33669   -1425.8683    572.72648    575.03727    300.31428    32966.302 
  207800    293.57085   -1389.6173    561.18456    513.93841    474.50072    32966.302 
  207900    296.82497   -1419.2787    552.86494    490.83694     243.9988    32966.302 
  208000    296.91545   -1415.3804    557.10225    499.38633    242.47713    32966.302 
  208100    303.06629   -1396.1739    554.38906    544.00477   -609.65521    32966.302 
  208200    296.43181   -1429.8997    561.96404    487.51733   -167.56439    32966.302 
  208300    310.59309     -1447.08     557.4672    530.59353   -371.67765    32966.302 
  208400     302.2829   -1446.8139    558.12152    493.51517   -474.98727    32966.302 
  208500     306.2031   -1419.5638    559.45709    540.02614   -417.51466    32966.302 
  208600    304.06052   -1377.5471    526.22477    539.01341   -190.29199    32966.302 
  208700     301.6006   -1381.0498    561.59741    559.63524     -604.064    32966.302 
  208800    300.69701    -1434.971    569.73297    509.71788   -158.91842    32966.302 
  208900    312.17234   -1377.3281     564.5749    614.67438   -1011.8598    32966.302 
  209000    302.19316   -1393.2132    542.67958    531.26352   -990.67869    32966.302 
  209100    294.64133    -1374.692    575.47739    548.05132   -561.66863    32966.302 
  209200    294.87616   -1384.7505    532.04981    495.63899   -696.75195    32966.302 
  209300    300.41384   -1408.1657    562.60348     528.0989     -135.762    32966.302 
  209400    306.79419   -1411.7047    533.65739    524.78827   -79.021754    32966.302 
  209500    303.87134   -1414.9997    559.74293    534.21399   -23.225007    32966.302 
  209600    293.21617   -1397.0187    561.15463    504.88524   -608.90865    32966.302 
  209700    300.96354   -1400.3526    543.88042    519.70247   -346.50019    32966.302 
  209800    303.15029   -1382.2265    540.95165    544.89883   -247.93874    32966.302 
  209900    295.44711   -1395.5608    555.10944    510.49904     161.3111    32966.302 
  210000    304.01879   -1372.5135    577.00309    594.63459    -437.7913    32966.302 
  210100    296.15058   -1379.3254    539.08678    513.92843    387.86583    32966.302 
  210200    309.03353   -1409.5079    557.25195    560.81921   -147.98013    32966.302 
  210300    286.64871   -1402.0112    540.86901      449.577   -179.40325    32966.302 
  210400    299.32369    -1411.451    525.18142    482.40674    527.92809    32966.302 
  210500     290.8863   -1430.1501    566.97391    466.91969   -294.94043    32966.302 
  210600    307.33994   -1402.0578    575.77106    579.04435   -341.88724    32966.302 
  210700    296.25393    -1404.488    534.12048    484.27209   -81.458688    32966.302 
  210800    303.45846   -1433.7029    533.15469    487.03456    207.95697    32966.302 
  210900    294.81662   -1487.6985    552.67775    413.04667    82.490789    32966.302 
  211000    298.63298   -1440.5134    561.18553    486.19009   -122.23586    32966.302 
  211100    304.72557   -1450.3739    553.08755    496.09043    71.507531    32966.302 
  211200    303.60274    -1471.474    551.84937    468.61791   -597.65489    32966.302 
  211300    295.72586    -1446.204    541.92851    447.94952    297.79134    32966.302 
  211400    295.66728   -1447.4969    579.20038    483.66065    274.41586    32966.302 
  211500    290.94102   -1446.4677    553.95037    437.82874    285.48343    32966.302 
  211600    299.18721   -1416.7214    560.49127     511.8221    280.62376    32966.302 
  211700    303.75584   -1422.1912    566.75288     533.5043    51.801324    32966.302 
  211800    299.54108   -1402.2229    556.55187    523.99925   -342.54784    32966.302 
  211900    305.84908    -1429.642    513.23518    482.10725   -355.58434    32966.302 
  212000    296.74461   -1419.8963    585.64336    522.63037   -241.11703    32966.302 
  212100    298.91216    -1433.444    564.10755    497.45814   -489.97691    32966.302 
  212200    312.85374   -1384.7139    547.21421    593.04364    320.88833    32966.302 
  212300     298.5249    -1402.944    565.84236    527.92211    298.65832    32966.302 
  212400    300.73554   -1432.4694    542.24054    484.90323   -133.60529    32966.302 
  212500    302.32341   -1436.4804    578.18598    524.09835    -741.7692    32966.302 
  212600    302.38865   -1447.7747    543.25208    478.16848   -371.01472    32966.302 
  212700    302.02637   -1433.1294    548.84267     496.7478    277.56376    32966.302 
  212800    314.17691   -1440.1634    566.90638     563.3366     115.8308    32966.302 
  212900    309.37559   -1433.0646    547.21754    528.79221   -480.80633    32966.302 
  213000      292.884   -1384.6433    572.21698    526.80407    351.44078    32966.302 
  213100    310.12827   -1412.9328    564.73387    569.88203     671.0783    32966.302 
  213200    297.84737   -1410.7246    595.91381    547.11495    206.10427    32966.302 
  213300    297.13405   -1363.6981    522.13671    517.10264   -255.03422    32966.302 
  213400    299.63135   -1403.6435     579.1682    545.60784   -505.95138    32966.302 
  213500    288.24353   -1396.5269     560.0213    481.50595   -402.80367    32966.302 
  213600    297.74549   -1430.8531    535.46974    466.07651     62.96248    32966.302 
  213700    308.18888   -1477.0899    552.21275    484.33582    344.24025    32966.302 
  213800    295.30031   -1476.8313    561.73214    435.18001   -80.235455    32966.302 
  213900    310.31141   -1410.5298    545.53368    553.92225   -125.77654    32966.302 
  214000    292.17459    -1427.296    540.26275    448.95338    201.83533    32966.302 
  214100    301.29869   -1472.2588    589.66403    495.11234   -128.11561    32966.302 
  214200    291.18783    -1457.839      537.164    410.79955    239.94086    32966.302 
  214300    307.02267   -1458.2002    549.96952    495.64968    785.84449    32966.302 
  214400    303.03905   -1406.9995    589.98287     568.6484   -304.12642    32966.302 
  214500    301.92611   -1419.5281    552.89106    513.93903   -273.15482    32966.302 
  214600    305.58962   -1390.8607    550.79344    557.26044     376.4014    32966.302 
  214700    295.10519   -1472.0934    560.17596    437.46951   -86.751556    32966.302 
  214800    291.30739   -1431.9651    557.41488    457.47105    1.3185455    32966.302 
  214900     303.7536   -1446.6521    569.11119    511.39149     401.7662    32966.302 
  215000     299.1409   -1394.9991     559.9314    532.77281    689.16178    32966.302 
  215100    301.39324   -1384.5644    563.77477     557.3498   -57.531063    32966.302 
  215200    307.11149   -1431.0951    568.03539    541.22678    269.04251    32966.302 
  215300    306.48064    -1429.683     552.5473    524.26618     435.5151    32966.302 
  215400    314.92941   -1445.4757    568.31488    562.87358    207.66882    32966.302 
  215500    284.42167   -1435.5085    546.50386     411.5313   -207.18235    32966.302 
  215600    300.24791   -1416.0795    533.54977    490.37263    483.27043    32966.302 
  215700    306.33069   -1426.4282    561.80636     536.0944   -262.88026    32966.302 
  215800    293.81622    -1408.409    546.19326    481.27735    448.87174    32966.302 
  215900    291.08949   -1406.9834    553.38134    477.42281    473.30526    32966.302 
  216000    306.48478   -1465.0824    567.96023    504.29865      135.953    32966.302 
  216100    293.77869   -1444.0191    558.69982    458.00213   -200.56855    32966.302 
  216200    285.65731   -1461.5348    542.75486    387.40597    482.64229    32966.302 
  216300    310.62854   -1444.2885    543.24419    519.32413    629.83743    32966.302 
  216400    306.47281   -1482.5209     556.2626    475.10777   -525.91123    32966.302 
  216500     296.8441   -1429.6223    533.23187    460.94777    467.76064    32966.302 
  216600    302.88626   -1456.8982    564.37683      492.445    632.38915    32966.302 
  216700    303.05041    -1449.212     545.4837    481.98868    177.45124    32966.302 
  216800    297.38736   -1444.7631     566.5335     481.5927    795.80875    32966.302 
  216900     302.9312   -1485.1724    527.22756    427.22702     350.5871    32966.302 
  217000    300.84925   -1489.7767    576.86325    462.73861   -793.11235    32966.302 
  217100    298.97403    -1483.026    530.61126     414.6627   -471.84076    32966.302 
  217200    302.75401   -1494.7318    562.24216    451.87197    277.76614    32966.302 
  217300    288.85237   -1511.2172    561.47849    371.05687    11.598913    32966.302 
  217400    299.55899   -1447.7615    554.75853    476.74926    592.50803    32966.302 
  217500    292.01749   -1474.5436    577.42628    438.15091    515.74418    32966.302 
  217600     296.0998   -1445.3083     570.9003    479.52684    70.263093    32966.302 
  217700     313.3839   -1454.6955    581.52014    559.79221   -528.42456    32966.302 
  217800    287.79498   -1445.6169    568.87208    439.21576   -1035.3604    32966.302 
  217900    299.24849   -1441.1159    528.30474    455.52135   -778.86522    32966.302 
  218000    297.97691   -1460.7675    562.06807     463.8187   -460.63835    32966.302 
  218100    291.94006   -1438.6036    562.37096    458.68155   -476.56675    32966.302 
  218200    294.18386   -1419.1231    564.25258    490.30356    651.53986    32966.302 
  218300    304.53634   -1449.7797    586.53705    529.26879    148.62152    32966.302 
  218400    294.89529   -1470.3333    531.36872    409.46264    207.08778    32966.302 
  218500    303.12484   -1473.9551    554.01679    466.11898    122.69137    32966.302 
  218600    300.06436   -1483.4285    563.57778    452.21231   -647.64372    32966.302 
  218700    297.92516   -1473.0647    552.87586    442.09267   -278.71113    32966.302 
  218800    301.17679   -1440.8754    525.27903    461.55336   -343.68149    32966.302 
  218900     299.1259   -1417.3978    579.52812     529.9022    264.93793    32966.302 
  219000     302.8728   -1484.5939    554.49713    454.80804   -471.57627    32966.302 
  219100    283.92011   -1490.8639    554.98548    362.36407    285.76289    32966.302 
  219200    300.17908   -1462.4227    555.97249    466.13744   -486.42681    32966.302 
  219300    312.20247   -1427.3636     591.2318    591.43352    135.14443    32966.302 
  219400    292.68424   -1477.8617    517.51796    377.97327   -143.56531    32966.302 
  219500    294.41374   -1469.3739    545.95916    422.81049    475.22055    32966.302 
  219600    301.91703   -1462.8378    570.70298    488.39971    84.534098    32966.302 
  219700    296.78652   -1454.4815    547.17823     449.7717    70.138698    32966.302 
  219800    295.64629   -1451.5184    554.25465    454.59741     330.3152    32966.302 
  219900    305.67939   -1509.3645    556.79961     445.1732   -206.07397    32966.302 
  220000    301.56659   -1464.5753    565.63843    479.99523    491.82493    32966.302 
  220100    290.42975   -1451.0401    541.82446     418.7926    404.59523    32966.302 
  220200    295.86572   -1501.7309    558.64198    409.77561   -382.89789    32966.302 
  220300    287.44874   -1452.7386    548.45052    410.08929    458.03261    32966.302 
  220400     304.0877   -1426.1458    564.07459    528.38882    558.21533    32966.302 
  220500    300.11793   -1440.2359    557.19804    489.27015    1377.3214    32966.302 
  220600    306.62718   -1479.5196    558.74861    481.30095     1407.447    32966.302 
  220700    307.11467   -1422.2369    559.06068    541.12484    1242.3915    32966.302 
  220800    298.44503    -1464.809    565.96267    465.81227    886.66814    32966.302 
  220900    299.57626    -1469.163    544.28045    444.94867   -359.47522    32966.302 
  221000    298.16482   -1437.3969    561.15608    487.13654    354.63559    32966.302 
  221100    298.79279   -1463.2413    531.11877    434.12619   -29.102294    32966.302 
  221200     296.8321   -1446.2372    580.37268    491.41882    1.8517984    32966.302 
  221300    311.45624   -1435.4416    557.89212    546.60369    501.27808    32966.302 
  221400    296.05173   -1482.1581    584.74638    456.30337    149.64165    32966.302 
  221500    305.86483   -1441.9582    572.04959    528.67744    386.99398    32966.302 
  221600    294.79302   -1461.2163    556.09707    442.84035    653.06084    32966.302 
  221700     298.7505   -1493.9851    553.95901    426.02925    142.71484    32966.302 
  221800      298.023   -1475.9159    578.35994    465.17288   -21.733869    32966.302 
  221900    305.96463    -1450.655    549.84825    498.23564   -209.88438    32966.302 
  222000    304.63951   -1407.1177    555.60547    541.47102   -293.91137    32966.302 
  222100    297.45008   -1455.7194    555.76907     460.1588   -490.29089    32966.302 
  222200    294.72656   -1439.9446    559.86099    467.57207   -777.82935    32966.302 
  222300     295.9358   -1482.2238    559.20761    430.16877   -1196.4323    32966.302 
  222400    309.59243   -1505.8372     534.6919    444.48545   -330.54135    32966.302 
  222500    313.77575   -1470.2168    578.84265    543.38513   -407.59751    32966.302 
  222600    295.24686    -1527.442    528.78716     351.3799   -904.68091    32966.302 
  222700    309.43358   -1482.9404    532.50358    464.46764   -888.75441    32966.302 
  222800    295.23276   -1444.9169    581.99868    487.05207   -260.92204    32966.302 
  222900    295.61262   -1485.1292    546.49419    413.07224   -323.28518    32966.302 
  223000     307.4917   -1393.1559     564.7624     577.6315    134.67773    32966.302 
  223100    298.70736   -1431.7024    562.12491    496.28065   -423.97486    32966.302 
  223200    298.48917   -1416.8891    580.73428    528.70557    237.53501    32966.302 
  223300    301.64045   -1479.9585    541.82611    441.13741   -215.20926    32966.302 
  223400    307.30624   -1481.5817    556.63047    480.22575   -15.887311    32966.302 
  223500    311.74308   -1500.7135    540.62634    465.37763    621.87079    32966.302 
  223600    286.04461   -1510.4601    570.50322          368    169.61994    32966.302 
  223700    307.46154   -1492.3965    553.41261     466.9032    492.88554    32966.302 
  223800    301.98735   -1434.0742    509.37486    456.15674    1059.1079    32966.302 
  223900    303.72822   -1499.8687    591.70727    480.65489    672.61975    32966.302 
  224000     298.8296   -1485.7816    540.91238    421.54788    467.76217    32966.302 
  224100    305.62049   -1526.1336    530.22928    401.56446      93.0317    32966.302 
  224200    297.50386   -1430.4842    567.02214    496.89295    402.28216    32966.302 
  224300    293.08237   -1478.3529    561.28542    423.06996   -148.62433    32966.302 
  224400     307.2343   -1433.1932    535.99096    507.64578    707.61405    32966.302 
  224500    305.16228   -1450.8685    575.23397    519.73911   -277.63001    32966.302 
  224600    298.81302    -1466.504    539.63116    439.46845   -202.40193    32966.302 
  224700    304.95359   -1404.0027    565.03992    555.45658   -348.31378    32966.302 
  224800    306.00241   -1452.0604    543.53569    490.69049   -18.413431    32966.302 
  224900    304.85561   -1495.6855    553.23764    451.52347   -37.858781    32966.302 
  225000    320.09016   -1457.1456    542.12929    548.61597    236.75994    32966.302 
  225100    297.83406   -1472.3287    553.31823    442.85439     411.1008    32966.302 
  225200    299.38097   -1450.1321    589.94399    508.75016    514.56541    32966.302 
  225300    305.49055   -1458.6652    553.40694    491.61638    350.85047    32966.302 
  225400    302.55971   -1458.8321    568.70507    493.34616    516.96849    32966.302 
  225500    292.29041   -1466.8841    567.39303    437.02509   -79.635431    32966.302 
  225600    292.15798   -1417.1432    574.35371    493.12114   -882.47703    32966.302 
  225700      305.994   -1468.0489    551.90974    483.03753   -286.46796    32966.302 
  225800    308.40455   -1406.2565     580.1481    584.09071   -365.86018    32966.302 
  225900    297.28593   -1418.8542    555.87247    496.37677   -473.94109    32966.302 
  226000    300.52632   -1409.0934    570.39373     535.4757   -369.11424    32966.302 
  226100    297.12142   -1415.7415     577.3983    520.26305    437.48798    32966.302 
  226200    294.86296   -1482.2341      555.127    421.17221     93.47157    32966.302 
  226300    310.54824    -1462.114    546.36592     504.2532    366.50419    32966.302 
  226400    312.75735   -1406.2577    556.83306    580.67794    440.12719    32966.302 
  226500    298.37084   -1443.6512    583.74634    504.41452   -18.993974    32966.302 
  226600    299.62163   -1404.2022    574.34687    540.18338   -362.33944    32966.302 
  226700    291.59493   -1381.8511    555.02548    506.51047    182.77784    32966.302 
  226800    295.10387   -1406.3208    586.71625    529.77632    99.024676    32966.302 
  226900    299.70959   -1415.9273    548.35909    502.87268    206.71828    32966.302 
  227000    315.94691   -1396.0787    569.55182    618.16013    253.47329    32966.302 
  227100    313.32349   -1390.8303    548.53115    590.39214    846.13412    32966.302 
  227200    291.69757   -1423.1428     553.7894    464.45198    252.00701    32966.302 
  227300    301.43615   -1428.1655    584.00982    534.17995    475.32177    32966.302 
  227400    292.63157   -1348.5886    561.70017    551.18772    272.91845    32966.302 
  227500    301.55452   -1380.2421    566.80405    565.43894   -64.464792    32966.302 
  227600    295.43346   -1388.2219    555.84835    518.51439    49.898386    32966.302 
  227700    309.18275   -1375.5427    585.23509    623.44986    582.01279    32966.302 
  227800    295.70056   -1438.8095     562.4821    475.78195    216.19963    32966.302 
  227900    304.22363   -1415.9977    596.20119    571.28509    731.29279    32966.302 
  228000    302.22212    -1411.458    548.04383    518.51541    311.06646    32966.302 
  228100    309.76537   -1430.5592    599.04549    584.90784    31.363118    32966.302 
  228200    298.72081   -1406.7504    553.57344    512.74264    300.67622    32966.302 
  228300     295.9953    -1389.502    590.27481    554.22985   -80.057219    32966.302 
  228400    293.83654   -1437.0527    574.96475    481.49803    -527.4906    32966.302 
  228500    296.84416   -1450.4091    551.00047    457.92984    81.106106    32966.302 
  228600    296.63662   -1437.8195    564.66705    483.23709   -384.26667    32966.302 
  228700     301.3109   -1437.7373    581.71221    521.73786   -786.61615    32966.302 
  228800    301.12471   -1469.7356    591.10705    498.28303   -237.95599    32966.302 
  228900    297.15145   -1479.6669    566.25678    445.33346    139.87008    32966.302 
  229000    293.61774   -1496.4178     565.3655    411.53319   -262.08351    32966.302 
  229100    286.81876   -1460.1543    591.09865    442.44108    -67.66871    32966.302 
  229200    296.99967   -1454.0589    591.35875     495.3494     11.07852    32966.302 
  229300    305.60849   -1437.3077    586.77049    546.87674   -576.87453    32966.302 
  229400    298.70525   -1464.1012    606.50806     508.2553   -318.52632    32966.302 
  229500    300.08172   -1449.9759    569.37809    491.54461   -267.19934    32966.302 
  229600    298.53755   -1443.2851    550.68314    472.47967     -720.329    32966.302 
  229700    305.67696   -1453.5218    565.25604     509.4613   -237.45205    32966.302 
  229800    291.62683   -1429.6475    563.33746     467.1719    510.49643    32966.302 
  229900     301.5481   -1444.3786    579.04914    513.51814   -488.89797    32966.302 
  230000    298.00655   -1441.0746    618.02523    539.60423   -35.630015    32966.302 
  230100     286.4062   -1437.6726    592.88261    464.82029    417.03436    32966.302 
  230200    297.34148   -1466.3374    565.44688    458.72201    611.32037    32966.302 
  230300    294.91893    -1423.746    569.33442    494.12364    578.90638    32966.302 
  230400    292.96687   -1447.1746    570.05861    462.49341    121.76803    32966.302 
  230500    303.30492   -1430.3943    560.37839    516.86489   -113.58869    32966.302 
  230600    305.34077   -1410.6041    576.61069     562.1964    524.71692    32966.302 
  230700    299.64363   -1422.1854     570.0939    518.04776    755.02066    32966.302 
  230800    287.45075   -1448.6159    568.40852     434.1792    112.53071    32966.302 
  230900    301.43579   -1444.6312    582.72008    516.42286    557.35922    32966.302 
  231000    295.71882   -1419.4759    549.25983    481.97671    30.087346    32966.302 
  231100    303.89272   -1409.2588    587.46115    567.77083      416.078    32966.302 
  231200    291.81868   -1444.8093    565.50759    455.05747    1172.3946    32966.302 
  231300    297.40056   -1471.5649    575.36312    463.68089    645.80441    32966.302 
  231400    291.38679   -1456.7521    564.08488    439.71713   -235.75155    32966.302 
  231500    299.65576   -1436.2962    563.90317    497.80168   -639.43087    32966.302 
  231600    303.22164   -1444.4542    584.10869    526.15443    747.90662    32966.302 
  231700    292.44928    -1430.002    601.20477     508.4454    118.06432    32966.302 
  231800     310.2512   -1426.0985     574.9682    567.51273    520.95059    32966.302 
  231900    301.98263    -1425.073    588.06521    543.82674    341.54586    32966.302 
  232000    297.16458   -1443.1257    565.81195    481.48991    1064.8456    32966.302 
  232100    296.26076   -1457.2853    569.46767    466.85322    18.734517    32966.302 
  232200    297.61886   -1450.3004    558.45932    469.03975    195.76536    32966.302 
  232300    286.93794   -1424.2271    571.04462    458.85922   -123.87729    32966.302 
  232400    303.59391     -1397.86    569.43398     559.7761   -778.79524    32966.302 
  232500     289.1398   -1374.2858    593.10307    540.92705   -414.68586    32966.302 
  232600    298.91664   -1421.7479    577.06952     522.1367   -192.97328    32966.302 
  232700    293.43189   -1419.6564    575.65305    497.73234   -546.43579    32966.302 
  232800     301.2216   -1402.4364    549.24284    524.16104   -631.89112    32966.302 
  232900    305.03423    -1447.537     579.1764    526.42749   -635.12529    32966.302 
  233000    304.61127    -1446.163    587.78569    534.47678   -949.48711    32966.302 
  233100    289.76381   -1465.1518    574.79816    434.60957   -1213.9377    32966.302 
  233200    302.81942   -1411.6414    587.49957    560.51895   -302.44811    32966.302 
  233300    290.05734   -1426.5667    550.36653    450.10518   -61.659556    32966.302 
  233400    301.49077   -1408.0324    553.20028    523.75333    310.95507    32966.302 
  233500    302.98312   -1422.2801    538.45899    501.58821    301.81167    32966.302 
  233600    298.34554   -1451.3665    584.75822    497.59538    8.3380795    32966.302 
  233700    310.16568   -1433.2049     560.0144    545.06155   -311.83991    32966.302 
  233800    296.69795   -1440.0315    570.60707    487.24558   -207.65463    32966.302 
  233900    298.73077   -1488.9618     522.6288    399.63219   -85.199288    32966.302 
  234000    306.65703   -1512.5882    569.56753    459.18785   -738.88694    32966.302 
  234100    299.19525   -1488.5233    566.69954    446.26522   -782.31805    32966.302 
  234200    305.97342   -1474.2944    528.44242    453.23069   -236.87145    32966.302 
  234300    297.21818   -1492.9211    553.37188    419.49949   -108.61694    32966.302 
  234400    307.01897   -1507.0899    567.91843    464.69204    -25.99602    32966.302 
  234500    299.25249    -1481.787    547.49739    434.06112    326.18184    32966.302 
  234600    295.03323   -1514.8947    594.37203    428.53526    653.96368    32966.302 
  234700    303.13319   -1459.9963    560.98219    487.08135    305.44097    32966.302 
  234800    294.61066   -1447.8927    587.56295    486.79594    139.00044    32966.302 
  234900    298.40307   -1448.3144    561.16069    477.31302    854.83638    32966.302 
  235000    301.27364   -1436.5045    585.49227    526.58034    72.684849    32966.302 
  235100    295.90431    -1447.486    573.90376    479.45874    -321.0577    32966.302 
  235200    303.25284   -1431.2943    555.53726    510.88558    815.39629    32966.302 
  235300    310.55949   -1429.3264    564.04508    554.77139    28.515487    32966.302 
  235400    304.17586   -1467.9267    587.33426    510.27074    97.533207    32966.302 
  235500    295.67879   -1447.5879    546.48005    450.90192    858.68648    32966.302 
  235600    294.51417   -1473.6769    550.96945    423.97709    340.67824    32966.302 
  235700    292.70702     -1497.43    583.60508    424.59631    -201.8605    32966.302 
  235800    302.72567   -1475.6721     566.8819    475.44192    733.20882    32966.302 
  235900    306.97756   -1475.2792    542.70415     471.0991   -133.81938    32966.302 
  236000    298.28289   -1486.9063    582.60433    459.61521   -778.92952    32966.302 
  236100    291.29745   -1449.3943    544.63874    427.22028   -365.99203    32966.302 
  236200    303.01398    -1448.576    564.35577    501.33019   -284.92791    32966.302 
  236300    287.82139   -1456.4058    576.43178    436.10733   -506.45053    32966.302 
  236400    298.06292   -1446.6918    583.32401    499.54355    132.41425    32966.302 
  236500    314.22291   -1475.8667    582.30415    543.24137   -229.88816    32966.302 
  236600    300.36298   -1482.0466     556.9146    448.29653    17.305607    32966.302 
  236700    301.07135   -1517.0386    587.97513    447.60417    1041.5741    32966.302 
  236800    290.25037   -1517.9799     586.5188    395.72684    478.66812    32966.302 
  236900    301.31236   -1474.9728    590.25352    493.05033    456.15305    32966.302 
  237000    301.73961   -1474.1998    570.77011    476.29354    244.21372    32966.302 
  237100    303.64692   -1481.4771    558.91757    465.88502   -284.33695    32966.302 
  237200    303.30062   -1457.8654    584.01175    513.00746     53.84062    32966.302 
  237300    309.13668   -1428.9755    553.09759    537.66895    1139.0268    32966.302 
  237400     310.3645   -1468.0012    590.92858     542.0885    431.37373    32966.302 
  237500    310.31627   -1480.4502    545.68647    484.17686     676.7281    32966.302 
  237600    308.57813   -1482.3125    537.25558    465.93594    75.651713    32966.302 
  237700     313.5727   -1517.8997    566.34911    482.28024   -197.39729    32966.302 
  237800    292.36071     -1480.19    563.73645     420.3841    103.64954    32966.302 
  237900    293.55759   -1455.7091     549.9733    436.57466    181.70564    32966.302 
  238000    290.90703   -1484.8036    588.80999    434.19697    54.972912    32966.302 
  238100    289.33313   -1437.8129    609.71575    494.89673   -288.34071    32966.302 
  238200    305.29182   -1428.2842    582.53227    550.21405   -223.71585    32966.302 
  238300    309.99609   -1469.7405    594.95895      542.695   -717.84176    32966.302 
  238400    298.39303   -1436.0992    553.45982    481.78143   -1304.0111    32966.302 
  238500     308.6516   -1436.2607    583.01683    558.08487   -720.27514    32966.302 
  238600    289.75565   -1432.7485    551.68968    443.86701   -498.23507    32966.302 
  238700    301.04979   -1453.0346    576.26978    499.80423   -73.078048    32966.302 
  238800    313.62848   -1424.5582    574.24575    583.77337    251.99666    32966.302 
  238900    298.07805   -1429.4539    585.54233    519.06896     623.6445    32966.302 
  239000    302.10205   -1420.8694     612.6878    573.19897    119.49004    32966.302 
  239100    300.54381   -1416.5702    596.02138    553.70652    363.46843    32966.302 
  239200    296.19563    -1458.465    604.28065    500.18871    327.83612    32966.302 
  239300     300.8392   -1449.4631     544.8821    471.02506   -484.88158    32966.302 
  239400    296.67055   -1432.3562    581.42353    505.61197   -626.75884    32966.302 
  239500    282.94468   -1429.9507    576.20833    440.03986   -793.57976    32966.302 
  239600    297.99696   -1453.9063    556.40999    465.11344   -416.77358    32966.302 
  239700    296.57376   -1466.8833    561.39655    450.61532   -5.9912725    32966.302 
  239800    301.81643    -1404.441    567.76858    543.40211   -243.73974    32966.302 
  239900    305.66673   -1459.0025    576.85882    515.53657   -488.95728    32966.302 
  240000    283.88975   -1459.1517    586.91764    425.86957   -293.54544    32966.302 
  240100    299.96566   -1469.2286    581.90101     484.2842     119.6515    32966.302 
  240200    301.04196   -1438.4936    573.08623    511.12584    -330.3359    32966.302 
  240300    303.40264   -1419.3143    574.12003    542.13329   -493.35399    32966.302 
  240400    303.49855   -1437.9862    564.88499    514.66495   -340.64624    32966.302 
  240500    297.88823   -1416.7405    586.97953     532.3516    64.923084    32966.302 
  240600    305.72411   -1444.3021    558.49371    512.13428     398.9222    32966.302 
  240700    298.71619   -1455.9151    568.52331    478.50675   -506.01609    32966.302 
  240800     301.9023   -1407.8192    603.34209    575.99007    243.64234    32966.302 
  240900    302.34891   -1375.2951     556.2438    563.45805    107.42678    32966.302 
  241000    293.82712   -1428.8006    582.71385    497.45615   -623.51121    32966.302 
  241100    298.31203    -1429.122    594.56123     529.4897   -282.01519    32966.302 
  241200    294.41791   -1415.6739    558.99432    489.56479    783.93656    32966.302 
  241300    299.89609   -1391.9541    591.51843    570.85796    116.96776    32966.302 
  241400    286.65097    -1403.147     607.2039     514.7864   -213.60932    32966.302 
  241500    304.35685   -1414.3733    571.51977    548.83722    293.35283    32966.302 
  241600    305.90688   -1409.4668    597.70182    587.01338   -705.65648    32966.302 
  241700    295.95326   -1436.8991    591.38714    507.75285   -613.67082    32966.302 
  241800    299.56401   -1435.9722    562.72255    496.52548     303.8906    32966.302 
  241900    300.66942   -1452.4614     577.5689    499.93724   -253.31443    32966.302 
  242000     297.3868   -1445.5122    563.29908    477.60663   -277.12571    32966.302 
  242100    298.37135   -1409.3569    585.17932    540.14411   -678.88011    32966.302 
  242200    294.00806   -1452.3204    560.54956    452.59939   -460.99481    32966.302 
  242300    298.89491    -1447.876    594.28192    513.12156    -356.5811    32966.302 
  242400    300.99479   -1443.4638    592.50687    525.36061     96.25617    32966.302 
  242500    290.98196    -1450.086    559.44235    439.88956     307.5133    32966.302 
  242600     298.6842   -1444.2073    591.87367    513.41853    102.85028    32966.302 
  242700    294.90115   -1468.6293     572.8402    452.66493   -144.34824    32966.302 
  242800    297.86354   -1484.0029    554.31238    432.30916    282.61185    32966.302 
  242900    301.18651   -1440.4192    600.25069    537.02568   -234.78617    32966.302 
  243000    294.46463    -1381.095    578.84405    544.20703    46.188383    32966.302 
  243100    298.30401   -1409.0865    586.26883    541.19607    19.689373    32966.302 
  243200     303.8208   -1443.8023    585.94637    531.38373    441.13438    32966.302 
  243300    304.82973   -1447.0115    597.00651    543.84804    290.90669    32966.302 
  243400     297.9795   -1431.7829    597.40672    528.15372    502.50852    32966.302 
  243500    297.11547   -1420.2314    552.72695    491.07469    404.36451    32966.302 
  243600    306.70806   -1459.6761       564.63    507.39572    188.70493    32966.302 
  243700    307.48553    -1471.862    600.26579    534.40059   -172.16834    32966.302 
  243800    299.56039   -1500.1114    547.38264     417.0299    831.93995    32966.302 
  243900    301.73994   -1457.9379    560.45239    482.23929    296.57398    32966.302 
  244000    295.48903   -1501.2219    586.49738    436.41761    222.67015    32966.302 
  244100    295.69749   -1489.8006    570.91153     433.2062     484.0748    32966.302 
  244200     285.5001   -1464.6045    567.13163    407.99424     222.3932    32966.302 
  244300    304.23628   -1466.2641    589.88238     514.7577    276.78119    32966.302 
  244400    291.54908   -1417.7816    576.34367    491.68848    781.44168    32966.302 
  244500    294.05347   -1442.6188    565.72175    467.68085   -258.35539    32966.302 
  244600    304.85968    -1481.124     550.0687    462.93471   -714.54276    32966.302 
  244700    297.44659   -1517.5773    554.81781    397.33372   -228.62328    32966.302 
  244800    310.00613   -1497.9035    539.89465    459.51356    249.30233    32966.302 
  244900    305.64277   -1501.6793    560.36944    456.26081     861.5292    32966.302 
  245000    290.78126   -1444.9752    578.62497    463.26529    636.15028    32966.302 
  245100    291.41207   -1501.9668    562.19773    392.73084   -72.701985    32966.302 
  245200    299.27971   -1491.7882    580.13273    456.81968   -225.42508    32966.302 
  245300    291.54944   -1428.6216    557.04488    461.55133    260.57785    32966.302 
  245400    293.46094    -1440.703    566.11952      467.285    254.26727    32966.302 
  245500    299.77867   -1466.5734    574.87661     479.0599   -530.44866    32966.302 
  245600    306.38088   -1460.3342    582.63137    523.24298   -475.70593    32966.302 
  245700    301.23361   -1436.5575    576.92596    517.77803   -235.17528    32966.302 
  245800    292.11149   -1417.9221    584.62873     502.4047    202.30556    32966.302 
  245900    294.52868   -1418.7912    573.21541    501.17499   -487.01346    32966.302 
  246000    296.25092   -1430.6173    598.39479    522.40341    2.4116208    32966.302 
  246100    310.16573   -1423.0483    561.96986    557.17373  -0.91435388    32966.302 
  246200    298.52885    -1424.795    567.81794    508.06479    74.063402    32966.302 
  246300    310.07385   -1394.4644    564.89136    588.25907   -33.778548    32966.302 
  246400      292.745   -1419.7275     554.7641    473.63144    599.06166    32966.302 
  246500    300.58203   -1377.4205    561.62147    558.63117    158.76067    32966.302 
  246600    305.56649    -1398.102    576.13448     575.2544    83.192754    32966.302 
  246700    296.17614   -1418.2272    549.28515    485.34188    442.11866    32966.302 
  246800    303.70166   -1448.0205    554.92912    495.60346   -375.57407    32966.302 
  246900     290.1839   -1416.9691    562.86808    472.78302   -341.71425    32966.302 
  247000    299.11656   -1424.0742    560.35093    504.00593    257.08805    32966.302 
  247100    306.10876   -1412.6487    572.18501    559.23779    324.82651    32966.302 
  247200    300.76175   -1424.5586    576.93324    527.62656    124.70464    32966.302 
  247300    297.92402   -1373.7995    583.39749    571.87424    108.25633    32966.302 
  247400    297.17355    -1410.551    574.43988    522.73358   -5.1090423    32966.302 
  247500    308.32907   -1453.2644    588.94403    545.53361   -24.985007    32966.302 
  247600    296.31307   -1384.0285    594.82563    565.70713    120.27028    32966.302 
  247700    301.52236   -1452.6819    583.31515    509.36319   -51.765204    32966.302 
  247800    303.60877   -1459.4744    568.03143    496.82716    -249.6284    32966.302 
  247900    316.49908   -1446.2557    555.86803    556.82417    42.826194    32966.302 
  248000    308.25579   -1462.7308    583.04795    529.83604    643.91551    32966.302 
  248100    296.93941   -1413.5234    583.39428     527.6449    580.53832    32966.302 
  248200    298.40367    -1467.956     580.4137    476.92719   -340.00999    32966.302 
  248300    294.07294   -1470.5966    569.31314     443.3835   -280.91334    32966.302 
  248400    296.41772   -1488.6319    546.19649    412.95316   -361.46846    32966.302 
  248500    301.54646   -1477.6182    548.32618    449.54802   -615.38529    32966.302 
  248600    295.64188    -1446.798    575.70012    480.74317    280.34817    32966.302 
  248700    300.77898   -1459.9239    579.14577    494.55261   -693.53775    32966.302 
  248800    308.41164   -1496.0326    551.50432    465.70326    515.91644    32966.302 
  248900    299.32563   -1495.0418    551.02953    424.67292    555.89265    32966.302 
  249000    311.81595   -1493.9576    543.76518    475.60554    449.78199    32966.302 
  249100    296.58611   -1470.7705    573.74917    459.13721    52.860736    32966.302 
  249200    307.14746   -1446.5731    571.92876    529.80666   -64.093524    32966.302 
  249300    313.78044    -1472.375    553.06533    515.47109    108.42576    32966.302 
  249400    296.49417   -1443.4354    532.19626      444.499   -164.89233    32966.302 
  249500    302.56885   -1429.7841    560.72584    514.45681   -651.52616    32966.302 
  249600    305.53862   -1481.0244    558.98938    475.05944   -266.95593    32966.302 
  249700     310.8181   -1448.0197    571.39546    544.61096    -293.2917    32966.302 
  249800    287.01926   -1450.1897     543.2025    405.42638   -669.74694    32966.302 
  249900    301.75269   -1444.3055    535.27093    470.74846   -845.27263    32966.302 
  250000    299.51645   -1416.4562    600.33527    553.43681   -760.09275    32966.302 
  250100    292.78248   -1398.7499     572.0925    512.10888   -253.52553    32966.302 
  250200    313.30806   -1416.3207     565.9708    582.27085    328.75634    32966.302 
  250300     297.1827   -1432.3445    542.79301    469.33501   -32.268144    32966.302 
  250400    293.35887     -1417.06    574.45088    498.79262   -845.39861    32966.302 
  250500    305.60894   -1423.6331    566.46834    540.25126   -1001.7313    32966.302 
  250600    301.28364   -1439.3747    553.07467    491.33828   -1056.1815    32966.302 
  250700    301.53852   -1455.5842    572.48546    495.70509   -784.98297    32966.302 
  250800    293.62874   -1400.6531    561.21012    503.19285    21.408392    32966.302 
  250900    299.44998   -1446.6194    556.91126    479.54561   -306.28369    32966.302 
  251000    288.60872   -1497.8749     569.2801    391.08667    360.34202    32966.302 
  251100    301.46371   -1460.2858    532.58371    450.75961    350.23063    32966.302 
  251200    307.56168   -1454.3764     529.6732    481.64185    -103.1301    32966.302 
  251300    295.37045    -1456.171    533.00271    427.43158   -469.64488    32966.302 
  251400    297.95092   -1477.5278    552.41963    437.29109   -521.89102    32966.302 
  251500    308.94085   -1480.1168    567.92545       500.46   -586.18071    32966.302 
  251600    287.58714   -1500.0021    548.44008    363.44823   -909.44153    32966.302 
  251700    294.78787    -1479.991    532.26447     400.2095   -367.23507    32966.302 
  251800    307.72655   -1470.1511    528.52022    465.46809   -491.78821    32966.302 
  251900    304.47371   -1465.7316    541.87077    468.36429   -209.48205    32966.302 
  252000    300.15405   -1447.4593    547.45384    472.46769     184.3364    32966.302 
  252100    303.92249   -1469.0029    566.14248    486.84421    276.80896    32966.302 
  252200    298.00098   -1454.7324    564.48765    472.38344    113.77472    32966.302 
  252300    297.62716   -1469.2646    516.42822    408.08245     647.1497    32966.302 
  252400     299.1613   -1433.7362    596.52345    530.72099    124.63513    32966.302 
  252500    303.25147   -1422.8313    544.52538    508.33037   -513.70269    32966.302 
  252600    291.46601   -1456.3986    584.32184     460.6698   -739.94941    32966.302 
  252700    309.62142    -1467.493    578.97319    527.24356   -598.09217    32966.302 
  252800    299.07003   -1436.8094    534.25318    464.96016   -283.55836    32966.302 
  252900    302.52498   -1405.6526     586.5758    564.23765    37.022433    32966.302 
  253000    295.02287    -1415.594    572.73951    506.15603    710.14446    32966.302 
  253100     294.6778   -1452.1708    551.38813    446.65004      396.066    32966.302 
  253200     297.9481    -1422.275    600.45389    540.56527    582.01002    32966.302 
  253300    290.56182   -1452.9287    564.14492    439.82833    347.57434    32966.302 
  253400    290.84147   -1467.2876    530.30196    392.90523   -200.75542    32966.302 
  253500     293.7856   -1445.2711    563.85799    461.93996    59.945658    32966.302 
  253600    306.07534   -1426.2503     588.9075    562.20589    92.816064    32966.302 
  253700    303.02345   -1418.2244    571.32541    538.69467    346.42558    32966.302 
  253800    294.88607   -1409.0324    574.78208     514.1347   -121.69005    32966.302 
  253900    287.58341   -1469.1767    557.24141    403.05789   -599.30137    32966.302 
  254000    300.19917    -1491.274     551.6151    433.02057   -799.28835    32966.302 
  254100    297.00972   -1460.3842    540.65105    438.36244   -198.58208    32966.302 
  254200    291.47769   -1466.7938    558.51111    424.51729   -838.38743    32966.302 
  254300    316.80039   -1431.1686    575.21659    592.63762    385.22234    32966.302 
  254400    296.46241   -1455.2595    550.91316    451.24664    14.768503    32966.302 
  254500    298.92809   -1449.4759     567.8429    485.23438    103.78471    32966.302 
  254600    293.16132   -1473.2204    537.15744    404.43554    440.65905    32966.302 
  254700    305.64129   -1451.9404    576.58337    522.20689    263.49771    32966.302 
  254800    308.40805   -1429.9722    563.62202    543.86491    613.57832    32966.302 
  254900    293.86235    -1449.372    601.81417    496.14614    236.48141    32966.302 
  255000    298.89341   -1457.1742    562.11136    471.64598    99.033632    32966.302 
  255100    296.26643   -1436.9243    541.59869    459.37116   -400.69097    32966.302 
  255200    288.96081   -1424.7011    553.77902    450.36934   -845.61876    32966.302 
  255300    299.88519   -1440.9788    545.82813    476.09315     -506.511    32966.302 
  255400    298.00546   -1478.7059    568.37717    452.31987   -114.84791    32966.302 
  255500     289.2539   -1484.6681    551.99515    389.95863   -537.34388    32966.302 
  255600    311.98708    -1456.841    548.38841    518.12786    260.63118    32966.302 
  255700     304.6372   -1507.3466    552.34338     437.9695    594.57236    32966.302 
  255800    307.85825   -1534.5276    548.47007    421.64366    215.96246    32966.302 
  255900    293.20848   -1447.6517    564.83841    457.90081    101.41162    32966.302 
  256000    306.83472   -1446.7204    559.74938       516.05    710.14416    32966.302 
  256100    291.06522   -1472.2873    550.26057    408.88718   -3.8062294    32966.302 
  256200    307.04652   -1411.8291    556.10488    548.26527     563.2245    32966.302 
  256300    300.82697   -1447.0285    579.01472     507.5364    768.89202    32966.302 
  256400     309.2727    -1457.382    557.39616    514.18295    777.71081    32966.302 
  256500     293.9319   -1449.0482     560.3508    455.32459    586.10716    32966.302 
  256600    307.43496   -1461.7019    554.00665    498.07035    66.718277    32966.302 
  256700    300.85431   -1499.5135    556.05402    432.21573    261.24618    32966.302 
  256800    297.33329   -1507.1288    561.31126    413.75758   -347.97367    32966.302 
  256900    286.19131   -1483.5274     554.1631    379.26339   -135.74884    32966.302 
  257000    287.95104   -1474.2718    575.93986    418.34218     101.5351    32966.302 
  257100    292.76625    -1471.445    579.88369    447.13071   -725.53142    32966.302 
  257200    300.90882   -1475.7651    542.41934    442.57864   -267.39974    32966.302 
  257300    298.51699   -1458.9815    549.98229    455.98839   -65.707543    32966.302 
  257400    294.24769    -1481.435    552.31225     416.3433    121.00945    32966.302 
  257500    311.36329   -1529.0191    538.83743     433.5465      14.5844    32966.302 
  257600    303.74146   -1459.7842    561.55384    490.64645   -1163.5566    32966.302 
  257700    293.18489   -1470.4283    547.99917    418.17717   -862.33109    32966.302 
  257800    300.84998   -1492.3852    534.53616    417.80633    477.75204    32966.302 
  257900    303.44845    -1504.113    565.30037    448.72443   -358.31988    32966.302 
  258000    304.38937   -1452.8805     584.4931    523.45204    279.55676    32966.302 
  258100    302.76972   -1454.5947    550.15769    479.99646     829.0615    32966.302 
  258200    290.12882   -1451.8452    577.21107    451.99805    420.16008    32966.302 
  258300    303.77682   -1446.3083    580.14233    522.87256    278.41959    32966.302 
  258400    301.56168   -1468.4191    528.36853    438.85914    1082.5022    32966.302 
  258500    308.14169   -1490.3982     570.2721    488.87108    544.49585    32966.302 
  258600    303.48463   -1429.8091    581.12751    539.02091    191.64245    32966.302 
  258700     298.2137   -1429.9893    554.85964    488.47114    144.38873    32966.302 
  258800    286.86067   -1462.8378    561.67111    410.52173    281.54532    32966.302 
  258900     304.4642    -1478.324       575.51    489.36763    355.87314    32966.302 
  259000    299.52143   -1471.1042    566.14151    464.61779    241.65778    32966.302 
  259100    295.43322   -1409.2875    534.48264    476.08206    144.98725    32966.302 
  259200    308.52574   -1450.7571    568.95924    528.95544   -293.95739    32966.302 
  259300    299.92593   -1438.6867    562.22904    494.97243   -265.98902    32966.302 
  259400    311.42429   -1441.4956    562.29645    544.80789     256.1757    32966.302 
  259500    291.10314   -1437.8594    543.78411      437.012    -557.5571    32966.302 
  259600    299.18343   -1416.8997    585.14897    536.28427   -266.56867    32966.302 
  259700    302.43354   -1388.9665    550.49627    544.42612    261.23597    32966.302 
  259800    291.53672   -1482.8036    541.09979    391.36608    188.41228    32966.302 
  259900    291.25948   -1463.5245    567.21205    435.48978    898.49778    32966.302 
  260000     301.1881   -1468.4327    558.53929    467.30802    994.45338    32966.302 
  260100    304.05823   -1471.3849     578.6352    497.57557    1050.6113    32966.302 
  260200    293.08211   -1446.4918    570.84608    464.49056    568.17447    32966.302 
  260300    300.55941   -1442.1123    573.90575    506.12021    232.10247    32966.302 
  260400    295.88573   -1457.7104    569.74049    464.98614   -44.200131    32966.302 
  260500    308.06018   -1445.5716    572.68786    535.74075    -79.39665    32966.302 
  260600    298.33309   -1492.5937    564.83342    436.38644    167.87366    32966.302 
  260700    294.43296    -1456.716    530.86776    420.46491    815.96394    32966.302 
  260800    297.78674   -1410.1623    570.30356    521.78982    857.65827    32966.302 
  260900    297.46412   -1421.9934    585.05233    523.23223    172.46456    32966.302 
  261000    305.08105   -1483.8017    558.66738    469.86786    411.19299    32966.302 
  261100    290.41632   -1461.4488    548.57127    415.06928    123.22429    32966.302 
  261200    289.99924   -1462.7668    551.18504    414.45787   -645.32544    32966.302 
  261300     301.8725   -1406.2869    560.51809    534.56206   -241.38101    32966.302 
  261400    303.92049   -1406.7693     558.9944     541.9206   -283.77782    32966.302 
  261500    291.54127   -1404.8798    576.75239    504.96331   -1.5183228    32966.302 
  261600     287.5217   -1429.7935    548.95598    433.87344   -35.164421    32966.302 
  261700    298.69161   -1451.7663    542.26899    456.28874   -258.58825    32966.302 
  261800     294.4386   -1444.9258     556.0591    457.47221   -475.75332    32966.302 
  261900     306.7812   -1441.2804    578.25711    539.75295   -195.86973    32966.302 
  262000    297.92137   -1414.1238    538.34586    486.48617    134.75954    32966.302 
  262100    303.91039     -1388.09    569.47448    571.03374    224.38753    32966.302 
  262200     295.3129   -1397.2268     544.8008     497.9107   -700.82396    32966.302 
  262300    302.70998   -1365.9437    532.72953    550.94619   -794.06058    32966.302 
  262400    292.55981    -1385.228    566.19836    518.71843   -990.71387    32966.302 
  262500    307.94845   -1402.5774    558.52135    564.05751    411.50064    32966.302 
  262600     309.3132   -1406.7769    578.81456     586.3916     855.7982    32966.302 
  262700    300.03495   -1429.2784    571.97552    514.62574    362.58415    32966.302 
  262800    301.13967   -1397.2278    555.99883      535.751    214.08624    32966.302 
  262900    305.27662   -1398.2371    590.79182    588.45115    212.28274    32966.302 
  263000     297.1027   -1417.2141    597.72114    539.02772   -350.61661    32966.302 
  263100    303.05176   -1428.0386    552.38664    510.07125    -632.4984    32966.302 
  263200    309.36073   -1446.0202     551.7753    520.32636   -449.15066    32966.302 
  263300    305.03739   -1448.1844    561.65021    508.26841   -625.17631    32966.302 
  263400    304.46572   -1416.3767    565.87864     541.6905   -917.32522    32966.302 
  263500    305.34018   -1419.3317    549.32207    526.17751   -968.12712    32966.302 
  263600    293.26787   -1422.0032    567.22424    486.20668   -1857.0169    32966.302 
  263700    298.96156   -1383.4389    544.45947    528.04103   -732.57246    32966.302 
  263800    304.02249     -1402.01     538.7427    526.89463   -1369.7153    32966.302 
  263900    303.86099   -1442.9537    549.42718     495.8969   -679.01899    32966.302 
  264000    295.46329   -1438.4962    546.03926     458.5675   -709.45962    32966.302 
  264100    296.28599   -1422.0715    566.99606    499.71079   -257.09283    32966.302 
  264200    295.73873   -1427.5161     576.0977    500.86548    201.84372    32966.302 
  264300    293.72505   -1420.4262    554.76315    477.41314    -78.74457    32966.302 
  264400    306.34947   -1453.7809    576.93423     523.9555    4.6635992    32966.302 
  264500     305.9336   -1458.0271    536.23903    477.11248   -750.74597    32966.302 
  264600    302.29521    -1422.469    560.79671    520.59153   -371.94852    32966.302 
  264700     305.0165   -1438.0025    562.82247    519.52702     -378.465    32966.302 
  264800    297.27117    -1460.574    553.69752    452.41456    309.00561    32966.302 
  264900    294.04011   -1459.6638    574.67938    459.53239      509.756    32966.302 
  265000    299.43371   -1470.5347     567.1801    465.82482    347.81457    32966.302 
  265100     302.5997   -1446.1689    568.50251    505.98966   -357.53976    32966.302 
  265200    302.09898   -1474.0273    555.46489    462.80409   -501.24983    32966.302 
  265300    299.45822   -1493.6309    550.23979    425.90039    402.27016    32966.302 
  265400    308.53485   -1471.9683    523.71781    462.54439   -203.36485    32966.302 
  265500    309.11887   -1433.7628    565.99756    545.70017   -297.05299    32966.302 
  265600    309.23395   -1457.5186    567.38695     523.8599   -212.65308    32966.302 
  265700    300.53095   -1475.8396    545.19726    443.55431     711.4221    32966.302 
  265800    311.46278   -1464.2955     544.3945    504.28205    436.10027    32966.302 
  265900    289.27698   -1458.7319    541.37262    405.37781   -251.01546    32966.302 
  266000    305.98147   -1418.1313     581.8812     562.8693    281.59898    32966.302 
  266100     293.9175   -1428.6538    567.64007    482.94238    204.42296    32966.302 
  266200    297.02908   -1385.0271    551.23095    524.38791   -565.65203    32966.302 
  266300    301.09636    -1432.796    575.07875    519.06471    311.28841    32966.302 
  266400    302.28717   -1407.1794    565.83779    540.88548    337.75272    32966.302 
  266500    290.46578    -1450.436     584.1079    461.84488    863.73659    32966.302 
  266600    294.03686   -1458.5302    577.57987    463.55163     405.3623    32966.302 
  266700    308.83009   -1429.2053    575.46248    558.40208    1091.6023    32966.302 
  266800    289.52562   -1430.0574    550.68369    444.50033    139.87246    32966.302 
  266900    294.73932   -1463.9945    549.69685    433.41637    191.07383    32966.302 
  267000    299.49374    -1431.027    582.21664    520.64346     105.9998    32966.302 
  267100    294.31222   -1451.0661      545.249    439.94391    90.508304    32966.302 
  267200    307.33232   -1449.8826    555.56883    510.98249    582.74409    32966.302 
  267300    292.07199   -1433.8374    575.63216    477.31217    742.76789    32966.302 
  267400    291.05452   -1412.8984    586.22047    504.18714    257.31254    32966.302 
  267500    294.96202    -1405.767     578.2972    521.26244    630.84599    32966.302 
  267600    292.26555   -1487.6077     552.7222    401.51697    9.6712655    32966.302 
  267700    291.80391   -1450.8883    551.14031    434.54361   -46.133386    32966.302 
  267800    302.25845    -1440.801    559.84937    501.14403    513.35033    32966.302 
  267900    311.73921    -1462.574    556.28114    519.15413    324.41541    32966.302 
  268000    303.47264   -1465.4893    563.46293    485.62127    701.70639    32966.302 
  268100    306.13415   -1467.4891    571.93502    504.26346    803.68405    32966.302 
  268200    297.84913   -1462.4621    555.25027    454.72199    947.15002    32966.302 
  268300    309.48196   -1450.3813    546.17234     510.9167    8.0020812    32966.302 
  268400    301.48409   -1430.7721    578.77443    526.55717   -70.672909    32966.302 
  268500    294.10383   -1453.0341    526.05546    417.82953   -356.81008    32966.302 
  268600    304.13614   -1431.3975    572.55303    531.83711    37.870524    32966.302 
  268700    306.26975   -1467.0496    553.84893    487.23696   -670.51655    32966.302 
  268800    297.35718   -1439.6453    587.35138    507.39036   -623.74229    32966.302 
  268900    308.39204   -1425.6235     558.3696    542.88805    148.32865    32966.302 
  269000    303.10077   -1471.1459    577.58739    492.38873   -427.24336    32966.302 
  269100    310.78755   -1443.3533    533.35172    511.09396    260.00895    32966.302 
  269200    304.21957   -1471.5996    571.02479     490.4882   -482.07356    32966.302 
  269300    307.79762   -1493.3228    546.77629     460.8774   -498.20184    32966.302 
  269400    296.67941   -1433.3161    539.89945     463.1685    51.875965    32966.302 
  269500    306.13405   -1434.6571    564.50031     529.6603   -451.76556    32966.302 
  269600    304.39004   -1471.2015    578.99791    499.63887   -234.23698    32966.302 
  269700    302.78366   -1407.2987    566.80479    544.00333   -136.03786    32966.302 
  269800    296.56009   -1405.6866    569.09679    519.44973   -353.30366    32966.302 
  269900    294.29871   -1450.5808     567.7653     462.8838    -202.8076    32966.302 
  270000    294.99467    -1440.501    584.42748    492.80811   -655.35342    32966.302 
  270100    288.13938   -1452.2273    550.14085     415.4489   -92.722863    32966.302 
  270200     303.6049     -1440.79    563.30981    510.77224   -1030.0296    32966.302 
  270300    307.02952   -1385.6322    539.80299    558.08248     -275.309    32966.302 
  270400    318.82883   -1380.0128    593.05917    670.91119    189.65866    32966.302 
  270500    298.63943   -1473.4308    600.49765     492.6143    620.03784    32966.302 
  270600    298.85365   -1444.3118    581.75073    503.96593    674.40427    32966.302 
  270700     300.0867   -1423.8579    565.70598    514.01331    838.53784    32966.302 
  270800    305.97095   -1471.2851    559.26068    487.04687    433.85097    32966.302 
  270900     294.2748   -1437.2741    557.73765    466.05349    293.04243    32966.302 
  271000    294.19313   -1418.5834    590.44609     517.0792    155.55098    32966.302 
  271100    297.63899   -1468.1139    559.10063    451.95966   -76.940958    32966.302 
  271200    297.60789   -1418.3128    559.26075    501.77869    9.3193274    32966.302 
  271300    298.26891   -1415.3688     555.6985    504.18295    365.14082    32966.302 
  271400    291.50613   -1423.6142    566.51822    475.83406    128.04354    32966.302 
  271500    293.77898   -1433.3174    586.46293    496.46834    231.34193    32966.302 
  271600    308.22352   -1456.2458    549.42911    502.55465     647.6629    32966.302 
  271700    291.92091   -1430.7491    530.63426    434.71185    1191.4847    32966.302 
  271800    298.71619   -1439.2556    540.19693    466.83977     -52.6937    32966.302 
  271900    300.89421    -1457.917    574.13667     492.0773    7.5599594    32966.302 
  272000    303.51817   -1418.1474    545.09889    514.80733    597.86971    32966.302 
  272100    300.24694   -1405.8941    547.77868    514.78257    230.75769    32966.302 
  272200    308.37194   -1409.7883    576.10681    576.36853   -56.647181    32966.302 
  272300    313.70864   -1387.0746    544.26505     591.6428    -643.3052    32966.302 
  272400    303.35099   -1410.0586    587.62019    564.65303   -666.26786    32966.302 
  272500     298.2489   -1409.9502    545.39596    499.20751     487.6573    32966.302 
  272600    308.48181   -1376.2509    567.09496    601.39648    402.88064    32966.302 
  272700    298.86896   -1409.6411    548.46751    505.42346   -26.587009    32966.302 
  272800    311.87088   -1409.2726    541.81471    558.59125    897.27854    32966.302 
  272900    305.74408   -1449.8292      582.802    531.00677    455.72591    32966.302 
  273000    295.79519   -1456.3829    559.07013    455.22922    523.19911    32966.302 
  273100    307.54273   -1482.6622    555.00355    478.59978      1085.33    32966.302 
  273200    287.65012   -1472.8175    561.02402    403.50476    718.67611    32966.302 
  273300    289.66545   -1435.4856    555.91275    444.94055    465.21015    32966.302 
  273400    290.72794   -1432.1768     550.9483    448.14324    974.81251    32966.302 
  273500    299.64692   -1419.0636    530.30008    481.39077    503.58904    32966.302 
  273600    300.34738   -1455.7588    554.66895    472.26738   -73.750206    32966.302 
  273700    301.02681   -1497.0917    550.86789    430.24019    563.10382    32966.302 
  273800    320.52658   -1466.3638    545.11448    544.37858    188.07482    32966.302 
  273900    294.39509   -1411.0776    558.01686    493.07927   -518.54845    32966.302 
  274000      299.486   -1488.6237    546.78317    427.57797    335.98209    32966.302 
  274100    294.11154   -1466.7885    565.41681    443.47173   -107.88775    32966.302 
  274200    302.80597    -1428.002    588.38122    544.97853   -262.71949    32966.302 
  274300    305.64289   -1456.4217    546.09605    487.24561   -128.09773    32966.302 
  274400    301.67195   -1372.3336    561.17852     568.2588   -378.89723    32966.302 
  274500    295.27681   -1416.1708    539.29957    473.30047   -375.25431    32966.302 
  274600    303.02713      -1427.8    574.44583    532.25636   -505.07578    32966.302 
  274700    309.35857   -1433.7416    564.77458    545.59445   -404.35456    32966.302 
  274800    289.96428   -1426.2405    559.33273     458.9721   -116.84889    32966.302 
  274900    298.34374   -1461.5075    543.19935    445.88722    16.714139    32966.302 
  275000    297.33768   -1442.7868    547.81261    464.62092   -96.831492    32966.302 
  275100    314.22653   -1439.0321    556.11436    553.90271    338.79365    32966.302 
  275200    297.06383   -1436.3079    562.79402    484.82904    3.7292083    32966.302 
  275300    305.41452   -1443.0139    573.60674    527.11985   -569.92183    32966.302 
  275400     301.2972    -1405.998    549.33068    521.03302   -1006.1816    32966.302 
  275500    306.54189   -1383.2152     549.4967    567.96351   -171.83761    32966.302 
  275600    302.34597   -1366.7797    589.20199    604.91814   -52.978471    32966.302 
  275700    291.02768   -1422.7717    557.83016    465.80071   -277.12761    32966.302 
  275800    298.39161   -1418.6066    547.28438    493.09213    466.23976    32966.302 
  275900    299.06963   -1396.3859    547.89877    519.02747    379.16805    32966.302 
  276000     303.4657   -1390.4689    570.01369    567.16075    827.24665    32966.302 
  276100     303.7574   -1379.1897    603.50285    613.26291    264.77397    32966.302 
  276200    294.84001   -1403.8985    565.50134     509.7773   -143.83947    32966.302 
  276300    295.37152   -1432.4683    556.13563    474.27214   -88.965994    32966.302 
  276400    299.26452   -1423.8002    561.03274    505.63828   -271.93479    32966.302 
  276500    303.96017   -1422.5584     559.3002    526.61869   -167.07355    32966.302 
  276600    300.66143    -1421.734    551.85843    504.91764   -108.96221    32966.302 
  276700    297.33688   -1414.0986    535.65892    481.15184    -556.6591    32966.302 
  276800    292.79909   -1403.5613    561.57361     496.8545    48.485169    32966.302 
  276900    302.93502   -1406.4542    574.02792    552.76308    197.85022    32966.302 
  277000    307.47346   -1406.6692    558.17823    557.45069   -479.04568    32966.302 
  277100    300.41855   -1385.8552    577.01578    564.84319   -66.258303    32966.302 
  277200    298.64557   -1389.0208    567.73368     544.2884    107.70844    32966.302 
  277300    297.58556   -1429.5241    567.65312    498.85759    530.03541    32966.302 
  277400    302.16158   -1386.5614    558.70836     553.7997   -341.17519    32966.302 
  277500    296.76414   -1432.3543    564.86047     489.4788   -372.23291    32966.302 
  277600    293.75224   -1411.9404    571.33218    502.59225    -475.1615    32966.302 
  277700    294.56672    -1403.097    551.17184    494.99959   -729.39408    32966.302 
  277800    290.36574   -1424.3135    544.95874    448.36083   -1169.0079    32966.302 
  277900    299.96592    -1446.781    545.25002    470.08199   -925.96303    32966.302 
  278000    293.00398   -1427.7324    572.58017    484.62682   -168.55965    32966.302 
  278100     304.4986   -1415.2745    557.54663    534.61103   -29.883131    32966.302 
  278200    291.23131   -1424.2132    554.72219    462.18241    388.02839    32966.302 
  278300    299.07784   -1402.7185    577.08934    541.92299    -79.16439    32966.302 
  278400    308.87407   -1413.1478    567.55205     566.7503   -211.53084    32966.302 
  278500     303.5054   -1406.1889    551.74064     533.3492    -77.81149    32966.302 
  278600    301.46885   -1424.7542    562.49732    516.22827   -387.35508    32966.302 
  278700    310.01453   -1424.1473    549.22848    542.64198    -1143.932    32966.302 
  278800    304.94638   -1429.3491    556.28587    521.32318   -183.74398    32966.302 
  278900    314.06723   -1404.6899    564.75997    596.16212   -203.71579    32966.302 
  279000    298.04794    -1437.238    557.13616      482.741   -824.26172    32966.302 
  279100    299.90164    -1361.347    560.43362    570.40567    58.341492    32966.302 
  279200    297.74641   -1369.5431    546.34365    538.26462    849.12189    32966.302 
  279300    295.25068    -1400.632    578.23551    527.65568   -237.45773    32966.302 
  279400    288.51885   -1342.4561    586.96701    563.78141    636.47426    32966.302 
  279500    292.44339   -1372.5065    540.42068    505.12991    897.27086    32966.302 
  279600     299.5813   -1416.8115    600.95975    554.00254     100.5983    32966.302 
  279700    301.51523   -1402.0004     585.3422    562.03911    7.4975451    32966.302 
  279800    297.14451   -1438.1987    537.57184    458.08498   -360.89037    32966.302 
  279900    290.41413   -1407.3388    560.06578    480.66376    256.12408    32966.302 
  280000    304.17928   -1418.1293    557.52505    530.27455    160.77179    32966.302 
  280100    300.72131   -1413.7384    587.27684    548.60544   -354.48366    32966.302 
  280200    300.60503   -1452.4509    518.67028    440.75468   -374.15616    32966.302 
  280300    305.39111    -1425.645    547.78905    518.56398   -23.459621    32966.302 
  280400    302.35962   -1430.6101     548.9648    500.91294   -234.61155    32966.302 
  280500    297.93672   -1418.7426    521.61769    465.20943   -42.122346    32966.302 
  280600    300.22793   -1425.9759    560.48428    507.31939   -540.17974    32966.302 
  280700    296.16708   -1432.0262    565.23451    487.45089    30.001844    32966.302 
  280800    288.88008   -1364.1817    571.12931    527.86984    389.40791    32966.302 
  280900     296.1867   -1433.3611    546.97126    467.94234    409.36319    32966.302 
  281000     294.1415   -1400.8606    561.26968    505.38955   -546.02412    32966.302 
  281100    289.24694   -1371.4058    548.78067    499.97468   -177.00257    32966.302 
  281200    305.58021   -1386.0767     548.0261    559.23403    208.84645    32966.302 
  281300    315.96916   -1390.5004    556.07672    610.36512    139.71334    32966.302 
  281400    302.36108   -1352.1565    575.91074    606.31918    317.10802    32966.302 
  281500    289.20691   -1354.8136    537.74057    505.34369   -62.758034    32966.302 
  281600    300.00106   -1366.6188    587.39025    592.54509   -44.394414    32966.302 
  281700    312.99794    -1358.415    568.31589    641.10354   -19.419897    32966.302 
  281800    298.90477   -1395.3594    544.06188    515.46328   -75.432023    32966.302 
  281900     296.7504   -1416.2208    568.28999    508.97903    -459.8933    32966.302 
  282000    300.23258     -1435.73    556.74419    493.84649    20.240822    32966.302 
  282100    299.46474   -1403.5018    531.21245    497.03192    19.962573    32966.302 
  282200    301.14842   -1403.1877    570.68432    544.51662   -58.974923    32966.302 
  282300    298.18618   -1395.6532     550.4335    518.25522   -78.795269    32966.302 
  282400    291.95852   -1404.3319    573.32632    503.99301   -928.71691    32966.302 
  282500    303.23192   -1387.8218    528.40033    527.12547   -649.19723    32966.302 
  282600    301.80235   -1400.5978    539.01399    518.42634   -1034.3462    32966.302 
  282700     298.6921   -1405.5162    541.71421    501.98628    -700.2826    32966.302 
  282800    296.53487   -1443.0473     534.3388     447.2158   -566.79482    32966.302 
  282900    301.76011   -1439.8511    548.30409    488.26998   -1066.5057    32966.302 
  283000    287.29029   -1440.6638    552.47807    425.46713   -277.21524    32966.302 
  283100    296.85904   -1416.2295    559.95843    501.13547   -557.36269    32966.302 
  283200    291.14451   -1354.9898    554.95597     531.2426    316.75488    32966.302 
  283300    301.27631   -1426.6289    551.62397    502.59991    451.89018    32966.302 
  283400    296.29447   -1404.7549    573.37112    523.44128    191.26744    32966.302 
  283500    303.89222   -1363.3454    543.82803    570.04878    1352.3183    32966.302 
  283600     308.0674   -1379.3982    553.83128    583.09057    675.57526    32966.302 
  283700    298.09096   -1396.6151    557.03337    523.45785     57.21501    32966.302 
  283800    301.72687   -1395.5268    542.84495    526.98316     459.3563    32966.302 
  283900    306.05549   -1407.4124    570.55087    562.59641    205.92354    32966.302 
  284000    306.01158    -1454.204    530.74123    475.79429    206.82931    32966.302 
  284100    301.48213    -1400.416    555.72154    533.85147    -134.9686    32966.302 
  284200    298.53971   -1379.8416    514.51163    499.76155   -28.147442    32966.302 
  284300    308.23712   -1450.9957    566.64826    525.08605   -558.20818    32966.302 
  284400    301.73794   -1428.5401    564.56158    515.73708    204.03073    32966.302 
  284500    301.64463   -1409.5756    535.09784     504.8112    40.147388    32966.302 
  284600    306.08941   -1412.9449    548.03234     534.7004    401.17174    32966.302 
  284700    308.76981    -1398.281    573.77392    587.36222   -82.584367    32966.302 
  284800    297.44455   -1368.3951    551.24932    542.93807   -274.08026    32966.302 
  284900    306.23281   -1404.0654    553.73422    549.93749   -202.24515    32966.302 
  285000    300.70461   -1418.6013    553.68966    510.07908   -247.01432    32966.302 
  285100    298.70352   -1424.5281    564.99993    506.31238   -368.46473    32966.302 
  285200    300.64972   -1433.9798    580.15366     520.9135   -610.04968    32966.302 
  285300    306.82388   -1406.1463    541.90962     538.7347    -912.5939    32966.302 
  285400    291.58616    -1424.462    550.52754    459.36154   -832.88011    32966.302 
  285500    306.00032   -1393.5261    544.45783     550.1373    283.74885    32966.302 
  285600    311.25489   -1390.5564    544.60053    577.27658   -140.63233    32966.302 
  285700     301.4941   -1464.0683    571.65967    486.19205   -714.75667    32966.302 
  285800    299.77277   -1417.7031    527.72235    480.74896    672.15873    32966.302 
  285900    302.00214   -1385.5644    531.58435    526.94361    1237.4244    32966.302 
  286000    299.88364   -1445.5348      586.575    512.27692    165.54759    32966.302 
  286100    293.10926   -1442.4196    553.20268     451.0435    517.11636    32966.302 
  286200    300.78796    -1426.006    570.13786    519.50365    637.51817    32966.302 
  286300    298.58432    -1454.592     546.4909    457.19438    1047.1865    32966.302 
  286400    302.74591   -1432.2829    512.91849    464.96017    289.70858    32966.302 
  286500    302.01224    -1424.758    551.84783    508.05967    195.12134    32966.302 
  286600    294.03619     -1407.38    528.65648    465.77535   -145.59334    32966.302 
  286700    297.43142   -1432.4072    560.15374    487.77039    7.5521148    32966.302 
  286800     292.7884   -1401.7004    538.16133    475.25421   -63.037772    32966.302 
  286900    303.71879   -1413.1418    575.09241    550.72377    325.82905    32966.302 
  287000    301.31245   -1421.2848    563.76986    520.25505    31.240682    32966.302 
  287100    296.20832   -1423.0223    576.01348    507.42228    139.99241    32966.302 
  287200    307.19399     -1406.07     550.4482    549.04198    470.24648    32966.302 
  287300    300.32372   -1386.2274    533.84782    520.86946    335.28796    32966.302 
  287400    298.06202   -1422.8553    595.50342    535.55537    518.82629    32966.302 
  287500     307.5849   -1464.8614    556.19281    497.78264    868.51624    32966.302 
  287600    299.76836   -1460.0523    553.51176    464.16904    441.63507    32966.302 
  287700    298.42439   -1469.2599    550.33567    445.63997   -162.94759    32966.302 
  287800    298.03084   -1438.2413    548.78496     473.3083    1042.2202    32966.302 
  287900    301.29022   -1494.1377    558.73555    442.26622    724.35073    32966.302 
  288000    305.61717   -1435.6624    568.59884    530.39007    121.14826    32966.302 
  288100    298.04673   -1432.7627    559.26725    489.34186    1.0608985    32966.302 
  288200    300.97179   -1464.7234    543.79047    455.27945    160.69685    32966.302 
  288300    302.94342     -1414.45    581.91088    552.68861    235.64126    32966.302 
  288400    303.46725   -1428.5857    570.03994    529.07723   -640.48138    32966.302 
  288500     315.4966   -1456.3392    575.20922    561.49799   -40.582922    32966.302 
  288600    297.14162   -1475.2153    568.84999    452.33333    1259.6159    32966.302 
  288700    300.02792   -1475.6317    589.02291    485.28761    25.024175    32966.302 
  288800    291.52633   -1441.9946    550.92312     441.9509    167.10295    32966.302 
  288900     314.8164   -1477.5328    547.43098    509.41592    113.31257    32966.302 
  289000    291.60279   -1477.9883    575.22489    430.60865   -153.00514    32966.302 
  289100    305.83641   -1458.3697    561.65428    501.74073    420.44431    32966.302 
  289200     299.5716   -1447.0563    528.02329    450.77688   -79.730819    32966.302 
  289300    294.33697   -1469.1582    556.27417     432.9902   -595.32682    32966.302 
  289400    307.51702   -1477.5769    570.47371    499.03762   -243.93237    32966.302 
  289500    293.31904   -1407.9952    586.03926    519.26369   -610.84885    32966.302 
  289600    298.58022   -1391.1872    554.93531    529.02489    7.4630516    32966.302 
  289700    290.91733   -1407.6847    578.79693    501.34997   -360.24028    32966.302 
  289800    302.53785   -1412.4286    579.56494    550.50963   -515.80696    32966.302 
  289900    293.54816   -1401.6341     591.9303     532.5636   -446.93295    32966.302 
  290000    288.50585   -1366.5248    586.97881    539.66505    289.18859    32966.302 
  290100    303.97234    -1404.126    553.07674    538.88331   -349.03049    32966.302 
  290200     302.3661   -1383.2597    566.02274    565.35091    -857.2545    32966.302 
  290300    306.58865     -1388.78    601.35178    614.46763   -674.27294    32966.302 
  290400    307.59785   -1370.2043    570.03635    606.34253   -1030.3645    32966.302 
  290500    297.69266   -1403.0645    535.57721    493.73101   -335.23696    32966.302 
  290600    300.79213    -1437.456    544.12767    482.06252   -1023.4955    32966.302 
  290700    302.20159   -1450.2402    546.47145    478.06694   -804.51631    32966.302 
  290800     290.4091   -1433.1262     578.5499    473.33747    -470.9665    32966.302 
  290900    302.15808   -1413.6553    565.60814    533.58957    -687.9761    32966.302 
  291000    295.74613   -1392.3715    565.80952    525.75569    381.45005    32966.302 
  291100    301.96966   -1412.5688    561.92726    530.13361    56.850951    32966.302 
  291200    299.88909   -1456.1013    566.06002    481.22038   -777.32421    32966.302 
  291300    298.35499   -1446.5416      563.205    480.91025    247.89742    32966.302 
  291400    301.10954   -1449.9434    561.13501    488.03383    790.29571    32966.302 
  291500    310.32764    -1414.704    544.82418     549.1127    698.04678    32966.302 
  291600    303.93005   -1434.5124    539.09053    494.31733    996.81172    32966.302 
  291700    305.02726   -1464.1331    599.11956    529.74274    192.59886    32966.302 
  291800    308.41275   -1394.1812    542.11618    558.17156     730.2141    32966.302 
  291900     288.9706   -1376.6635    548.20927    492.88192    427.45826    32966.302 
  292000    301.22315   -1442.0106    554.85465    490.20575    608.20358    32966.302 
  292100    287.92731   -1410.9529    577.60085    483.21361    136.12887    32966.302 
  292200    299.47211   -1435.5216    569.37776    503.21115   -397.01782    32966.302 
  292300    291.23179   -1407.7174    547.95953    471.91771   -51.119683    32966.302 
  292400    295.09875   -1406.1796    560.35726    503.53511   -931.88751    32966.302 
  292500     310.4431    -1403.748    551.62557    567.39812   -1017.2143    32966.302 
  292600    308.53664   -1415.7213    587.66932    582.75114   -670.47024    32966.302 
  292700    301.81613   -1394.6346    561.86926    547.30782   -148.48784    32966.302 
  292800    303.25104   -1431.6841    563.83908    518.78939    22.993276    32966.302 
  292900    305.15843   -1411.1008    566.26996    550.52521   -30.255856    32966.302 
  293000    293.67225   -1421.9359    569.37779    490.27662   -475.73922    32966.302 
  293100    299.54702   -1442.6601    576.24572    503.28316   -669.96428    32966.302 
  293200     301.3898   -1458.6899    541.00112    460.43499   -553.63119    32966.302 
  293300    297.00735   -1381.5177    554.22477    530.79175    345.93188    32966.302 
  293400    292.96055    -1415.164    543.01336    467.42981    206.31154    32966.302 
  293500    298.82419   -1443.0983    552.61022    475.90421   -1071.3528    32966.302 
  293600    299.21118   -1439.8721    553.17733    481.46708   -622.16774    32966.302 
  293700     298.9371    -1426.794    561.69688    501.81148   -74.807813    32966.302 
  293800    304.36423   -1451.7755    580.13778    520.08681   -280.99606    32966.302 
  293900    299.05715   -1451.9285     528.7282     444.2573    408.03946    32966.302 
  294000    297.19858   -1482.8016     537.3575    413.51502   -299.06421    32966.302 
  294100    299.66201   -1484.4966    547.32126    433.04794   -616.04251    32966.302 
  294200    296.19529   -1436.4848    533.55052    451.43722    181.87635    32966.302 
  294300    308.95798   -1422.4753    589.01905    579.27346    -59.24916    32966.302 
  294400    306.13521   -1432.9478    566.97842    533.85305   -176.38437    32966.302 
  294500    309.47212     -1405.29    558.24168    568.03234    58.106337    32966.302 
  294600    293.41949    -1414.906    547.21314    473.98612    1156.2932    32966.302 
  294700    303.86726    -1417.813    572.14852    543.78754   -187.40883    32966.302 
  294800    299.13522    -1410.377    554.91777    512.35531    85.449777    32966.302 
  294900    303.80253   -1416.3829    571.50195    544.27509   -149.25643    32966.302 
  295000    296.45562   -1413.0358    542.69265    485.21878   -368.09708    32966.302 
  295100    301.94841   -1421.1716    556.01646    515.52291   -286.01979    32966.302 
  295200    307.07585   -1435.5844    557.03341    525.57253    188.88297    32966.302 
  295300    302.16427   -1404.2533    556.08432    533.49608   -53.906669    32966.302 
  295400    304.33748   -1401.4467    555.41425    545.56976    399.65083    32966.302 
  295500    293.19977    -1423.653    547.83238    464.85367   -307.25849    32966.302 
  295600    304.07037    -1414.995    567.34351    542.72929    23.165821    32966.302 
  295700    304.43918   -1424.1515    523.00768    490.92345    473.90141    32966.302 
  295800    313.96225   -1447.6409    533.68217    521.65327   -710.98413    32966.302 
  295900    300.71231   -1417.2859    576.92944    534.66943    102.09027    32966.302 
  296000     298.4149   -1441.2893    531.73872    454.97022   -192.94749    32966.302 
  296100    296.31229   -1435.6251    574.94497    494.22634   -83.364555    32966.302 
  296200    300.78699   -1467.4568    549.67292    457.58345   -81.588393    32966.302 
  296300    299.12469   -1428.8899    574.74355    513.62005    -179.4028    32966.302 
  296400    298.42804   -1459.0197    552.15782      457.719   -228.08541    32966.302 
  296500    284.31615   -1453.6081    545.15475    391.60009    527.04653    32966.302 
  296600     307.2435   -1501.5639    561.23327    464.55957    699.04216    32966.302 
  296700    303.86422   -1436.4254    546.25728    499.27005    363.64905    32966.302 
  296800    297.65209   -1406.3513    566.85437    521.53588   -243.75642    32966.302 
  296900    289.22501   -1418.2708    540.75462     444.9833   -375.37828    32966.302 
  297000    289.61363   -1426.0886    551.25312    449.44099   -660.96033    32966.302 
  297100    299.86244   -1447.2661    539.83908    463.71274   -999.55273    32966.302 
  297200    299.48918   -1437.6939    560.01519    491.75432     -230.166    32966.302 
  297300     301.3586   -1461.8314    534.57437      450.724    714.49146    32966.302 
  297400    307.14933    -1445.883    526.20944      484.786   -116.43506    32966.302 
  297500    291.26987   -1436.3886    557.14291    452.60401   -34.801444    32966.302 
  297600    295.17435   -1474.1762    540.58786    416.11487   -251.43753    32966.302 
  297700    297.01865    -1409.025    560.78919    509.90054   -655.67899    32966.302 
  297800     303.7086   -1408.2697    511.52328     491.9802     216.4223    32966.302 
  297900    310.49583   -1421.2876    556.70052    555.17453   -554.42515    32966.302 
  298000    300.47251   -1486.0178    583.06545    470.97695   -65.165352    32966.302 
  298100    310.13322      -1467.2      551.886    502.78959    215.40784    32966.302 
  298200    308.21454   -1439.3983    552.67766    522.60962   -602.95953    32966.302 
  298300     303.8931   -1453.3033    545.21279    481.47967    172.85159    32966.302 
  298400    297.42971   -1416.8274    551.94424     495.1328    11.520038    32966.302 
  298500    298.02578   -1471.0087    545.29513    437.02798   -41.657833    32966.302 
  298600    303.96821   -1411.0809    573.91479     552.7476    1080.0367    32966.302 
  298700    295.55845   -1488.1321    551.74835    415.07576    468.61516    32966.302 
  298800    297.43482    -1463.105    552.01092    448.94529    694.83374    32966.302 
  298900    299.11743   -1417.7641    566.31809    516.28716    494.41395    32966.302 
  299000    304.11676   -1422.9653    572.28095    539.90853   -533.91534    32966.302 
  299100    303.35089   -1451.3098    562.27065    498.05184   -202.10943    32966.302 
  299200    305.42743    -1414.312     538.0695    520.34357   -29.189779    32966.302 
  299300    295.21295   -1430.8707    578.43394    497.44298   -195.43063    32966.302 
  299400    299.07759   -1433.0422    561.97225    496.48111    -551.3071    32966.302 
  299500    289.33788   -1430.7362    570.22481    462.50421   -1028.9509    32966.302 
  299600    305.07395   -1415.1048    555.16533    535.03025   -371.54815    32966.302 
  299700    303.62426   -1459.1677     563.2646    492.43787    -632.8609    32966.302 
  299800    309.65083   -1430.1674    544.94473    530.67514    442.57987    32966.302 
  299900     302.2503   -1407.8017     560.5075    534.76423    240.76952    32966.302 
  300000    296.60469   -1443.7554    575.14644    487.63456   -80.559505    32966.302 
  300100    294.72783   -1458.0843    559.74726    449.32439     145.3822    32966.302 
  300200    301.79154   -1471.0457    540.60585    449.52089    610.40232    32966.302 
  300300    296.57515   -1448.1951    560.28878    468.20217    691.01874    32966.302 
  300400    295.47536   -1458.6118    569.68946    462.15724    143.59063    32966.302 
  300500    293.56444   -1498.1463     581.9685    426.16399    472.03588    32966.302 
  300600    303.33038    -1517.606    546.40279    415.79399    475.02271    32966.302 
  300700    294.26478   -1462.3921     558.8466    441.99864    762.88058    32966.302 
  300800    292.76032   -1485.8293    577.19016    430.02573    254.25406    32966.302 
  300900    299.65428   -1455.8711    556.37666    470.69347    169.34761    32966.302 
  301000    294.63051   -1423.7826    573.87295    497.30684   -103.32541    32966.302 
  301100    302.05589   -1457.4711    549.64056    473.33893    469.68343    32966.302 
  301200    307.46879   -1434.3179    564.27959    535.88192    440.43263    32966.302 
  301300      302.862   -1417.2783     564.2106    531.78772    41.850138    32966.302 
  301400    310.48389     -1450.48    562.52737    531.75444   -129.57912    32966.302 
  301500    298.83088   -1458.0832    554.06274    462.40251   -599.05922    32966.302 
  301600    284.86553   -1413.0628    539.71477    429.21744    382.17704    32966.302 
  301700    300.08227   -1415.6784    533.67375    490.14029    932.71737    32966.302 
  301800    292.97795   -1439.9594    566.76491    466.46555   -36.392909    32966.302 
  301900     294.9949    -1391.663    575.52691    532.74656    -251.4857    32966.302 
  302000    301.90746   -1442.8633    566.14072    503.76818    428.27929    32966.302 
  302100    296.46497   -1408.7291    557.39485    504.27038    321.65617    32966.302 
  302200    301.65886   -1444.3413    544.65064    479.66331    370.94759    32966.302 
  302300    300.21966   -1436.6521    569.83806    505.95913    53.455209    32966.302 
  302400    289.99395   -1448.4697     543.7985    421.34432   -1161.0304    32966.302 
  302500    307.97127   -1444.2158    549.67228     513.6744   -499.57548    32966.302 
  302600    287.51171   -1472.6668    548.42293     390.4214   -73.717504    32966.302 
  302700    305.01298   -1438.0641    581.74089    538.36769    118.20841    32966.302 
  302800    296.80522   -1411.2175    545.41021    491.35317    533.29073    32966.302 
  302900    308.34489   -1445.6159    575.74921    540.05961    564.95981    32966.302 
  303000    307.85062   -1396.6546    563.50027    574.51191    80.000059    32966.302 
  303100    292.16263   -1458.5428    528.80208    406.19121    70.157127    32966.302 
  303200    283.74235   -1465.3485    566.88157    398.96279    76.602369    32966.302 
  303300    292.72883   -1456.9875    584.84711    466.38048   -273.04266    32966.302 
  303400    296.17108   -1491.5969    553.27141    415.93532    228.85581    32966.302 
  303500    297.85404   -1497.1594    564.89021    429.68707   -146.64998    32966.302 
  303600    299.06758   -1458.8625    564.66516    473.30795   -117.14018    32966.302 
  303700    292.30913   -1471.7398    570.01797    434.87993    994.80556    32966.302 
  303800    294.75443   -1478.9282    574.46968     443.3245    534.18113    32966.302 
  303900    294.74305   -1445.4025     548.7178    451.04632    386.16226    32966.302 
  304000     304.8429   -1469.5725     540.7122    465.05298    529.29333    32966.302 
  304100    300.89601   -1469.7757    548.41532    454.50543   -420.92758    32966.302 
  304200    303.63654   -1465.1155    579.87185    503.15349    1055.1509    32966.302 
  304300    297.81321   -1469.5005    563.00648    455.27548     883.7636    32966.302 
  304400    299.94443   -1406.7203    564.44725    529.24169    312.03269    32966.302 
  304500    296.35661   -1435.6139    551.08828    470.58358   -281.29357    32966.302 
  304600    286.64992   -1417.6836    562.76492    455.80605   -417.17596    32966.302 
  304700    302.38989   -1417.9002    567.65966    532.45621    40.509553    32966.302 
  304800      294.401   -1433.5634    556.71691     469.3205   -384.19536    32966.302 
  304900     307.1657   -1449.2906    532.73265    487.97642   -666.63834    32966.302 
  305000    297.06611   -1437.8691    525.19886    445.68315   -526.69468    32966.302 
  305100    298.34193   -1415.9639    565.49867    513.72192   -872.04297    32966.302 
  305200    308.86166   -1393.3207    562.50971     581.4783    169.06732    32966.302 
  305300    304.72677   -1458.6523      568.331    503.06099    465.87228    32966.302 
  305400    305.23502   -1483.4191    549.65879    461.94596    158.70046    32966.302 
  305500     301.3103   -1459.8011    566.58604    484.54514    689.05727    32966.302 
  305600    300.47465   -1468.2048    579.31501     485.0494    1113.0162    32966.302 
  305700      292.281   -1431.8888    538.50279    443.08719    967.81895    32966.302 
  305800    306.09578   -1469.6907    554.72482    484.67622    258.06505    32966.302 
  305900    302.38851   -1430.1487      565.195    517.73672    967.14888    32966.302 
  306000    310.53838   -1503.6112    549.85409    466.19907    1037.2973    32966.302 
  306100    304.11925   -1501.3025    552.44735    441.74916    1101.4149    32966.302 
  306200    288.72845   -1499.9213    573.26238    393.56999   -39.034578    32966.302 
  306300    309.30857   -1485.7142     549.6664    478.28501   -181.67268    32966.302 
  306400    299.48399   -1448.5216    530.22278    451.11049   -1036.2328    32966.302 
  306500    297.76901     -1450.71    570.72305    481.58047   -1131.5408    32966.302 
  306600    294.71166   -1461.4338    551.48281    437.63656   -1408.3869    32966.302 
  306700    302.67497    -1418.464    548.12942    513.66565   -220.55656    32966.302 
  306800    339.46407   -1437.8163    552.52275    666.92714    700.73085    32966.302 
  306900    296.42109   -1417.1513    566.26737    504.52004     503.6906    32966.302 
  307000    296.24159   -1465.9687    586.00553    474.62006   -285.20271    32966.302 
  307100    304.77969   -1442.0627    562.99256    514.55412    545.51801    32966.302 
  307200     298.1889   -1461.2971    563.16057     465.3509    88.290759    32966.302 
  307300    302.97149   -1506.0371     593.3465    472.66546    894.17768    32966.302 
  307400    301.48523   -1451.3543    558.94071    486.14655    1273.1957    32966.302 
  307500    310.50922   -1489.6613    550.95406    481.11566    1077.5306    32966.302 
  307600     305.0639   -1471.2111     555.8016    479.51431    612.45685    32966.302 
  307700    285.28898   -1452.2816    577.44455    429.66467      310.091    32966.302 
  307800    293.38018   -1428.3519    558.19536    471.34266     611.6992    32966.302 
  307900    308.14904   -1427.9884    586.05444    567.09677    821.05594    32966.302 
  308000    306.10204   -1433.1422    579.52834    546.05689    840.29609    32966.302 
  308100    295.37481   -1449.0646    547.22091    448.77612    -174.9737    32966.302 
  308200    295.76424   -1465.3824    574.77324    461.79134   -494.68247    32966.302 
  308300    305.50426   -1446.4219    586.37012    536.88554   -265.90184    32966.302 
  308400    294.04081   -1425.2826    559.65246    478.88989    74.020746    32966.302 
  308500    311.72561   -1452.6027    550.97939    523.76163    45.093446    32966.302 
  308600    298.42383   -1440.5729    569.24441    493.23315    322.09484    32966.302 
  308700    292.47746   -1458.7262    554.89102    433.53632     -341.988    32966.302 
  308800     302.8084   -1447.3492    557.35087     494.6121    894.24132    32966.302 
  308900     307.4721   -1483.0379     562.1415    485.03906    950.49807    32966.302 
  309000    294.22086   -1477.6657    554.09452    421.77213     603.4842    32966.302 
  309100    308.24289   -1458.9185    576.02448    526.56586     98.38471    32966.302 
  309200    308.97708   -1417.9151     546.8461    541.74805    230.14315    32966.302 
  309300    281.09494   -1422.4352    565.67151    428.56049   -551.71611    32966.302 
  309400    295.50356   -1419.9955    565.19237    496.40545    16.247064    32966.302 
  309500    303.94493   -1401.1467    567.96995    556.63046   -613.47066    32966.302 
  309600     306.3064   -1431.0534    548.37261     517.9244   -740.02635    32966.302 
  309700    303.16217   -1431.9953    601.63738    555.87007    479.44019    32966.302 
  309800    310.47294   -1420.8862    562.20195    560.97268    1361.0536    32966.302 
  309900    295.79951   -1422.3295    563.32699     493.5593    835.31096    32966.302 
  310000    289.10745   -1398.7877    602.89906    526.07329    363.18813    32966.302 
  310100    289.00866   -1404.5814    576.73453    493.66333   -86.924939    32966.302 
  310200    289.71391   -1443.9921    582.53048    463.27344    162.70961    32966.302 
  310300    297.32976   -1439.4719    579.39233    499.47938    181.80217    32966.302 
  310400     293.0451   -1456.4399    573.65525    457.18244    458.93268    32966.302 
  310500    313.33151   -1413.6511    573.36507    592.44188    411.71562    32966.302 
  310600    293.83537   -1464.1189      571.447    450.90867    390.94645    32966.302 
  310700    312.20481   -1488.5551    552.73807    491.75903    362.30028    32966.302 
  310800    294.22807   -1498.1922    575.04296    422.22706    -271.4007    32966.302 
  310900     303.9467   -1520.6186    552.74463    421.94134   -864.17247    32966.302 
  311000    295.97969   -1490.6653    531.86677    394.58709   -456.30736    32966.302 
  311100    291.51034   -1513.1307    553.25032    373.06893   -523.34825    32966.302 
  311200    306.90175   -1514.9077     570.8732    459.29292   -92.883257    32966.302 
  311300    307.37761   -1495.4267    551.11794    461.19466   -478.55228    32966.302 
  311400    295.10668   -1468.0773    583.19809    464.51452   -189.29755    32966.302 
  311500    294.67395   -1467.9857    559.49593    438.92537    461.68693    32966.302 
  311600    297.80906   -1442.5238    574.37431    493.60109   -170.64211    32966.302 
  311700    300.23333   -1482.2758    579.69813    470.25806    476.79104    32966.302 
  311800    305.56476   -1424.6314     551.9346    524.51713   -315.30307    32966.302 
  311900     307.1724   -1435.2584     570.5588    539.86543    122.05386    32966.302 
  312000    307.16909   -1469.5062    570.51632       505.56    329.44433    32966.302 
  312100    296.25637   -1448.3385    553.04886    459.36113   -721.84074    32966.302 
  312200    292.78671    -1440.711    563.79033    461.86491    -242.4622    32966.302 
  312300    298.26879    -1474.582    564.43054    453.70121   -521.64925    32966.302 
  312400    301.27886   -1500.5368    551.81901    428.89868    137.59784    32966.302 
  312500    297.27468   -1457.6091    556.38556    458.08352    80.119022    32966.302 
  312600     291.6998   -1459.6656    560.51777    434.66775   -63.996689    32966.302 
  312700    308.26891   -1475.0564    573.60549    508.12802    -83.60445    32966.302 
  312800    297.74989   -1462.8286    573.88167    472.53312    -254.0146    32966.302 
  312900    296.83664   -1420.9486    580.02756    516.38305   -431.75895    32966.302 
  313000    294.47346   -1456.2561    544.46029    434.70253   -23.797376    32966.302 
  313100    305.47765   -1407.9329    606.36431    595.24706    476.34209    32966.302 
  313200    303.50313   -1416.7926     561.7887     532.7832   -117.89837    32966.302 
  313300    301.16846   -1440.6805    568.94663    505.37776    470.29053    32966.302 
  313400    299.83508   -1405.8421    578.78396     543.9566    474.77583    32966.302 
  313500    304.51775   -1440.7252    610.55718    562.25852    -1121.264    32966.302 
  313600    294.33249   -1428.4009    570.48258    487.93546   -722.70426    32966.302 
  313700    297.52902   -1418.2778    552.35822     494.5505   -294.13839    32966.302 
  313800    292.26535   -1432.5092    552.08359    455.97604   -178.43036    32966.302 
  313900    309.86044   -1418.9668    569.88213    567.77156    1017.3466    32966.302 
  314000    298.86973   -1419.9739    586.49083    533.11747    888.59878    32966.302 
  314100    288.37045    -1440.999    609.48978    487.08278    1760.3074    32966.302 
  314200    290.84163   -1403.1328    610.80756    537.56631    1335.1888    32966.302 
  314300     308.0593   -1499.5227    581.91321    491.01092     795.2243    32966.302 
  314400    296.94141   -1471.2138    578.64686    465.21629   -108.64259    32966.302 
  314500    299.79609   -1415.9427    571.04874    525.94245    59.639864    32966.302 
  314600    305.64531   -1473.8557    541.29183    465.01848    379.93537    32966.302 
  314700    306.82341   -1443.2026    577.92225    537.68891    1001.7431    32966.302 
  314800    295.52047   -1485.8686    588.71286    454.13012   -99.718913    32966.302 
  314900    306.61719   -1489.4667    561.71108    474.27063    654.86711    32966.302 
  315000    311.65042   -1480.6905    549.06604    493.41663    250.85727    32966.302 
  315100    286.75264   -1473.4374    597.99635    435.75334   -361.19562    32966.302 
  315200    305.92063   -1475.9885    562.41887    485.27156    436.11054    32966.302 
  315300    304.53087    -1507.867    597.29824    481.91772   -100.43456    32966.302 
  315400    300.83703   -1466.7574     580.9833     489.8221   -108.57707    32966.302 
  315500    288.43437   -1442.2342    599.21046    475.86043    310.84369    32966.302 
  315600    308.26136   -1445.2723    582.25473    546.52681   -484.48098    32966.302 
  315700    297.14266   -1470.2964    602.07073    490.47773   -345.33359    32966.302 
  315800    304.80218   -1470.8522    558.35554    481.23043   -670.83714    32966.302 
  315900    298.29773   -1482.5714    590.16593    471.57962   -136.69716    32966.302 
  316000    310.90261   -1462.6216    582.58945    541.58946   -1458.2816    32966.302 
  316100    295.63907   -1476.7961    588.08064    463.11276   -872.12586    32966.302 
  316200    309.76109   -1445.3988    557.36252    528.36573   -489.75997    32966.302 
  316300    305.24977   -1422.7428    582.72312      555.754   -620.91194    32966.302 
  316400    306.09028   -1446.7834    575.30694    528.14051   -381.93507    32966.302 
  316500    298.94899    -1475.989    549.43923     440.4132    -116.5449    32966.302 
  316600    308.44487   -1465.1008    577.20437    522.48708   -2.2610969    32966.302 
  316700    298.36655   -1450.1099    564.28682    478.47667    527.13627    32966.302 
  316800    313.05297   -1466.3423    563.50232     528.6143   -58.906532    32966.302 
  316900    290.61954   -1463.2602    580.50569    446.12154   -717.54268    32966.302 
  317000     308.7079   -1473.6268    559.11035    497.06978   -352.38167    32966.302 
  317100    297.06663   -1445.3069    561.30363    474.35247   -925.17035    32966.302 
  317200     287.5572    -1487.001      564.117    391.98935   -1013.0561    32966.302 
  317300     301.2377   -1480.3344    569.71824    466.81207   -553.33337    32966.302 
  317400    309.74042   -1493.7865    581.72184    504.24284   -1005.6151    32966.302 
  317500    290.64126   -1484.4441    584.07155    428.60288   -401.09564    32966.302 
  317600    299.46502   -1483.0823    563.47497    449.71523    134.27177    32966.302 
  317700    297.28185   -1506.8302    548.57372    401.08334    388.54562    32966.302 
  317800    312.00309   -1509.1056     570.7138    488.26186   -616.74335    32966.302 
  317900    293.62963   -1419.7836    575.60571    498.46201   -188.11725    32966.302 
  318000    290.62833   -1439.0097    556.37262    446.27912     578.7631    32966.302 
  318100      311.709   -1455.6395    575.53788    545.20732    684.53641    32966.302 
  318200    309.55285   -1465.7546    578.87622    528.57143    311.05942    32966.302 
  318300    303.09137   -1430.1341    565.01961    520.78977   -257.27294    32966.302 
  318400    303.31415   -1430.7423    527.77237    483.95299   -543.69295    32966.302 
  318500    307.49043   -1421.9751    601.59544    585.63955    -473.0913    32966.302 
  318600    292.95401    -1449.484    575.58524    465.65175   -22.710666    32966.302 
  318700    298.17721   -1434.2076    567.04482    496.27115    430.02823    32966.302 
  318800    294.53284    -1421.438    594.46351    519.79536    380.07265    32966.302 
  318900    314.49327   -1429.7645    568.63817    576.91387    600.78093    32966.302 
  319000    306.00814   -1418.7151    575.57895     556.1052    528.80201    32966.302 
  319100    304.03713   -1436.2807    574.18401    528.13217   -100.30635    32966.302 
  319200    296.50726   -1440.5567    568.94065    484.18199    199.58994    32966.302 
  319300    291.54538   -1430.1969    585.02255    487.93518   -817.69945    32966.302 
  319400     296.9148   -1434.8276    589.92419    512.75816   -143.67536    32966.302 
  319500    302.02502   -1475.5544    571.89607    477.36997    623.81508    32966.302 
  319600    294.26983   -1416.6702    573.35503    502.25208    637.77271    32966.302 
  319700     298.4825   -1457.6092    574.53758    481.75832   -243.75774    32966.302 
  319800    298.97711   -1450.0115    573.51308     490.5931    236.28698    32966.302 
  319900    307.87912   -1418.7753    589.30767    578.32891    940.66182    32966.302 
  320000     296.4538     -1391.24    570.38216    534.69575     699.5413    32966.302 
  320100    301.73994    -1420.079    595.32995    554.97572   -223.45181    32966.302 
  320200    289.96995   -1431.9942    561.88444    455.79596    61.582067    32966.302 
  320300    312.81454   -1429.9491    592.20657    592.62156   -547.87602    32966.302 
  320400     304.0686   -1432.5718    570.89553    528.69647   -231.66225    32966.302 
  320500    283.60333   -1394.2592    565.16696    467.70173   -366.09468    32966.302 
  320600    287.46231   -1376.5153    618.20979    556.13393    590.00624    32966.302 
  320700     300.4363   -1404.3852    602.59044    571.96902     416.3245    32966.302 
  320800     300.6751   -1432.6576    563.52496    505.72309    302.14189    32966.302 
  320900    300.97198   -1392.6935    531.69773    515.21744    688.73797    32966.302 
  321000    305.82221   -1446.5328     567.0696    518.92799    723.02453    32966.302 
  321100    305.14209   -1453.3678    582.12689    524.04042   -600.09449    32966.302 
  321200    306.22333   -1416.1961    571.57146    555.60072   -600.39117    32966.302 
  321300    303.24382   -1434.5207    546.80623     498.8869    202.70958    32966.302 
  321400     296.4052    -1473.817    559.33015    440.84447   -212.16719    32966.302 
  321500    296.56073    -1449.241    536.23946    443.04093    158.78266    32966.302 
  321600    312.48868   -1468.1833    555.98225      516.673   -764.01523    32966.302 
  321700     298.0114    -1464.053     564.6758    463.29855   -858.28739    32966.302 
  321800    309.05202    -1448.252    557.33056     522.2383    -371.8877    32966.302 
  321900    304.62257   -1450.3259    554.42482    497.00467   -619.69357    32966.302 
  322000    295.53197   -1472.7326    544.02124    422.62707   -1105.2621    32966.302 
  322100    304.60993   -1434.0658    570.10907    528.89126    -713.9973    32966.302 
  322200    295.67602   -1438.6905     560.2538    473.56038   -1085.8026    32966.302 
  322300      295.326   -1440.4825    584.22388    494.13802     139.5916    32966.302 
  322400    293.36481   -1484.1337    559.00259    416.29785    796.19275    32966.302 
  322500    294.70105   -1480.2811    556.05248    423.31037    705.00596    32966.302 
  322600    299.66907   -1497.9829    582.86361    455.13633    672.91519    32966.302 
  322700    307.25501   -1455.3584    559.67948     509.2638    1086.5504    32966.302 
  322800    294.53783   -1442.0028    558.13129    462.92121    320.21232    32966.302 
  322900    313.26281   -1520.7809    539.80975    451.44261    346.56742    32966.302 
  323000    300.93952   -1473.8783    586.73361    488.92008    546.14605    32966.302 
  323100    297.55905   -1477.1178    551.40279    434.89237    97.560762    32966.302 
  323200     298.6919    -1452.586    591.89182    505.09323    291.40022    32966.302 
  323300    304.34671   -1467.7328     579.3573    503.26889    800.38022    32966.302 
  323400     292.7414   -1491.9416    567.20711    413.84392    28.236657    32966.302 
  323500    292.85297   -1505.3369    557.82084     391.5725   -941.37964    32966.302 
  323600    286.96646   -1478.8373    584.30923    417.64401    -308.4153    32966.302 
  323700      300.673   -1455.1057    595.12861    514.86907     -327.745    32966.302 
  323800    298.13344   -1482.9939    562.57977    442.81969   -727.92963    32966.302 
  323900    294.83034   -1465.0739    579.04279    462.09907   -419.85542    32966.302 
  324000    299.22671   -1435.5673    560.92459    493.59014   -652.28569    32966.302 
  324100    298.27897    -1382.879    573.78849    554.80873    227.62102    32966.302 
  324200    296.86107   -1463.6808    567.77756    461.51263    501.59601    32966.302 
  324300    302.93375   -1470.0055     567.0775    482.25558    220.57924    32966.302 
  324400    295.49521    -1467.925    604.05917    487.30452   -457.41687    32966.302 
  324500    305.52067   -1494.0977    572.34603    475.26069    290.53991    32966.302 
  324600    303.74235    -1464.939    555.90949    479.85139    795.94826    32966.302 
  324700    297.60698   -1432.1217    568.18481    496.88963    515.06194    32966.302 
  324800    300.90708   -1472.6971    581.93187    485.15125    493.93993    32966.302 
  324900    305.93914   -1461.4272    557.59423    495.09288    136.27097    32966.302 
  325000    287.66721   -1413.5651    580.80139    482.61266    325.04537    32966.302 
  325100    306.06878   -1420.6604    616.35613    595.21439   -365.73458    32966.302 
  325200    304.23369   -1459.3986    577.45787    509.18683   -24.503406    32966.302 
  325300    299.26356   -1459.3444    573.77087    482.82783    598.50752    32966.302 
  325400    311.46385   -1472.8961    586.45714    537.74895    122.71884    32966.302 
  325500     299.5865   -1509.4696    562.18789     422.5963    372.89227    32966.302 
  325600    298.35312   -1520.5435      556.235    399.92984    -140.3265    32966.302 
  325700    305.88557   -1493.8436    556.75267    461.59005   -173.49439    32966.302 
  325800     303.2607   -1461.1682    539.69218    465.20249    -347.9767    32966.302 
  325900    289.45305   -1491.8762    594.71004    426.37606   -685.40706    32966.302 
  326000    295.66243   -1496.1099    568.71699    424.54206   -42.868726    32966.302 
  326100     310.2443   -1428.1449    568.63539    559.10198   -121.08167    32966.302 
  326200    299.62723   -1448.8978     570.6595    491.82599   -253.37178    32966.302 
  326300    299.60627    -1497.375     569.3043    441.89776    -1006.646    32966.302 
  326400    308.15008    -1493.466      559.628    475.19753    42.755122    32966.302 
  326500    301.77717   -1482.6032    565.69946    462.99126   -701.71345    32966.302 
  326600    298.95199   -1492.7699     572.9693    447.17615   -572.30702    32966.302 
  326700    298.93962   -1471.1863    578.44559    474.17942   -730.67322    32966.302 
  326800    300.75647   -1417.9119    535.18534    492.50121    8.1694598    32966.302 
  326900    291.01836   -1422.8368     604.7416    512.60451   -191.35906    32966.302 
  327000     296.8596   -1461.1678    572.20626    468.44756     -294.863    32966.302 
  327100    301.29475   -1451.7831    541.47863    467.38468   -206.87639    32966.302 
  327200     299.6033    -1502.962    564.04708       431.04    927.80155    32966.302 
  327300    303.79205   -1519.5516     576.0839     445.6405    231.99689    32966.302 
  327400    295.60219   -1498.6914    560.16882    413.13695    703.34267    32966.302 
  327500    301.77307   -1504.5448    580.95513    456.28659    483.47075    32966.302 
  327600    295.56632   -1438.2073    564.68527    477.97349    -52.75627    32966.302 
  327700    293.77745   -1432.3122    571.10974    482.11331    241.22479    32966.302 
  327800    306.66551   -1482.0193    568.93235    489.16032   -360.82587    32966.302 
  327900    298.60651   -1467.7153    565.80018    463.48182   -166.66114    32966.302 
  328000    305.56197   -1467.9066    582.17239    511.46704    396.52767    32966.302 
  328100     299.0961   -1518.7814    594.85758    443.71188   -332.82343    32966.302 
  328200     305.9484   -1486.8093     562.0139     474.1728   -248.30351    32966.302 
  328300    310.47754   -1461.0262    577.88648    536.53825   -358.37846    32966.302 
  328400    293.28036   -1481.9929     539.7652    398.81509   -1021.3121    32966.302 
  328500    296.93213   -1478.0753    554.04769    433.71316   -481.56402    32966.302 
  328600    303.87843    -1480.519     562.7268    471.71094   -416.03411    32966.302 
  328700    288.53917   -1481.9723    572.05545    409.44653   -613.80025    32966.302 
  328800    301.07791   -1518.3444     554.6763    413.02952    -59.67446    32966.302 
  328900    292.70952   -1522.2778     553.3989    369.55371   -294.21971    32966.302 
  329000    293.82037   -1501.9393    561.48809    403.06084   -574.19227    32966.302 
  329100    298.34454   -1516.5427    563.14166    410.79801   -531.68001    32966.302 
  329200    289.95937   -1502.6559    563.51993    386.72143   -534.38661    32966.302 
  329300    298.20888    -1487.074    546.77658    423.28137   -638.22934    32966.302 
  329400    288.58624   -1498.3911    540.57669    361.76425   -380.18003    32966.302 
  329500    307.22872   -1488.5909    569.04906    485.28074   -106.53661    32966.302 
  329600    298.27441   -1452.2525    567.28064    478.90661   -581.51537    32966.302 
  329700    298.34099    -1489.575    569.60638    444.21423   -945.55464    32966.302 
  329800    295.47812   -1460.5682    571.17843    461.70241   -280.85371    32966.302 
  329900    295.03939    -1445.302    553.34105     457.1251   -140.92586    32966.302 
  330000    297.05898   -1439.2128       589.91    509.01799   -95.798393    32966.302 
  330100    303.79949     -1470.72    576.32786    494.75003   -273.31346    32966.302 
  330200    291.17297   -1485.6214    564.25735    410.04265   -288.82564    32966.302 
  330300    296.87263   -1479.9664    555.58345    433.08569    316.40275    32966.302 
  330400    297.25003   -1482.3689    547.61819    424.44363   -40.262915    32966.302 
  330500    298.94047   -1508.6049    570.74342    429.06258    64.656107    32966.302 
  330600    307.98586   -1449.0378    550.81636    510.06319   -657.24035    32966.302 
  330700    306.23952   -1460.6876     581.0596    520.67139    -211.3289    32966.302 
  330800    306.26231   -1442.3914    585.43529    543.44751   -889.68365    32966.302 
  330900    304.18851   -1425.6161    565.00635    530.31126   -369.46412    32966.302 
  331000    300.32051    -1453.015    584.31041    504.52974    44.298143    32966.302 
  331100    291.36522   -1460.4442    566.78134    438.62288   -155.40871    32966.302 
  331200    301.00408   -1439.5996    575.55824    512.31863    48.315379    32966.302 
  331300    297.78901   -1441.2251    558.86163    479.29541    215.39998    32966.302 
  331400    292.44105   -1492.0396     569.6911    414.85657     -568.338    32966.302 
  331500    303.56088   -1486.4935    550.91218    452.46983    18.893858    32966.302 
  331600    290.55653   -1462.7673    569.71906    435.53966    171.03916    32966.302 
  331700    296.74686   -1497.1838    570.39435    430.10413    239.84716    32966.302 
  331800     300.9083   -1488.0422    579.45404    467.33384   -180.78537    32966.302 
  331900    305.51098   -1524.3622    558.02119    430.62708   -190.29616    32966.302 
  332000    290.68165   -1460.0768    565.88276    434.96604   -341.04817    32966.302 
  332100    307.09217   -1444.6212    579.39683    538.97379   -69.370257    32966.302 
  332200    292.56136   -1513.3611    573.94261    398.33669   -163.52941    32966.302 
  332300    297.19231   -1507.4783    565.88226    417.33439     677.1078    32966.302 
  332400    297.13509   -1473.4828    566.01325    451.19932    246.67827    32966.302 
  332500    310.79746   -1476.7354    575.26649     519.6719     289.1467    32966.302 
  332600    292.48291   -1462.1201    551.58667    426.86302    382.61493    32966.302 
  332700    303.21978   -1491.5486    564.47056    459.41339    506.10548    32966.302 
  332800    295.15133   -1507.5825    584.19718    426.21262   -449.25539    32966.302 
  332900    310.52956   -1485.7887    573.16471    507.29189    531.62739    32966.302 
  333000     290.1203   -1478.0431    543.98658    392.53675    658.45798    32966.302 
  333100    299.15578   -1486.8102    599.50208    480.60036    861.12798    32966.302 
  333200    297.46826   -1466.4932    520.76814    414.46715    471.52886    32966.302 
  333300    305.62554   -1458.0073    589.37574    528.86039    692.66474    32966.302 
  333400    302.99057   -1454.8212    594.20863    524.83079   -164.26197    32966.302 
  333500    304.53017   -1463.5222    562.14959    491.11067   -133.23313    32966.302 
  333600    299.37466   -1447.2545    559.35374    481.00866   -709.36388    32966.302 
  333700    302.45754   -1466.8188    611.68687     527.8741    147.53846    32966.302 
  333800    302.15081   -1426.5842    563.50602    518.52533    1034.4669    32966.302 
  333900     301.0496   -1429.1845    550.80295    498.18662    988.31332    32966.302 
  334000    300.66308   -1456.3927    582.17397    500.58197     920.8784    32966.302 
  334100    290.78677   -1430.3324    569.22105    468.52938    28.703307    32966.302 
  334200    311.89574    -1408.587    589.54235    607.11818    751.20262    32966.302 
  334300    301.76904   -1421.6432    575.90528    534.11996    372.30507    32966.302 
  334400    299.96366   -1432.9463    549.28711    487.94345    266.45773    32966.302 
  334500    297.83799   -1435.0255    562.24671     489.1041    130.79676    32966.302 
  334600    305.07136   -1436.2506    577.65709    536.36436    607.44315    32966.302 
  334700     299.2187    -1438.126    565.98481    496.05505    42.311631    32966.302 
  334800    286.48194     -1461.05    571.21522    420.12183   -479.02262    32966.302 
  334900    305.49876    -1432.501    575.45445    539.86563     269.3869    32966.302 
  335000    302.67406    -1445.609    540.55006    478.93712    267.52491    32966.302 
  335100    302.01907   -1440.0523    573.63657    514.58534    -63.62036    32966.302 
  335200    308.22202   -1478.0967    557.61715    488.88488   -306.49568    32966.302 
  335300    289.32115   -1468.6492    572.15951     426.4494    341.73991    32966.302 
  335400    295.78345    -1487.795    564.93487    429.62829   -512.58811    32966.302 
  335500    302.41549   -1474.7324    585.65242     493.7338   0.54653236    32966.302 
  335600    288.69261   -1489.5162    534.14959    364.69839    69.001912    32966.302 
  335700    298.85932   -1472.5382    557.07081    451.08553   -284.91761    32966.302 
  335800    305.29385   -1496.4559    575.30164    474.82093   -242.46131    32966.302 
  335900    292.50517   -1462.3084    552.56021       427.75   -166.46493    32966.302 
  336000    302.00503   -1422.7624    568.78014     526.9547   -425.42363    32966.302 
  336100    303.51038   -1448.9967    572.43659    511.26017   -353.18321    32966.302 
  336200    299.70877   -1466.2086    550.97015    455.19864   -198.86203    32966.302 
  336300    307.71384   -1435.5901    560.45869    531.90946    9.2040788    32966.302 
  336400    303.78088   -1452.5912    593.89751    530.36339    19.500065    32966.302 
  336500    296.28433   -1410.0887    548.04388    492.73386    82.422932    32966.302 
  336600    295.54751   -1434.1811    577.30094    494.52931     230.8703    32966.302 
  336700     292.8542   -1454.1836    589.15633    474.06683    1.0219386    32966.302 
  336800    297.18664   -1403.2477    577.57275    533.22951    128.66274    32966.302 
  336900     303.5394   -1400.7979    558.54366    545.69865    -73.86601    32966.302 
  337000    305.80651   -1404.3782    552.54813    546.48936   -143.38774    32966.302 
  337100    305.07469   -1395.6754    581.75533    581.05312    -261.6193    32966.302 
  337200    298.54159   -1418.6354    593.08391    539.54865   -188.25688    32966.302 
  337300    292.74748   -1399.5503    620.23981    559.29569   -457.09729    32966.302 
  337400    301.13242   -1365.8934     584.7074    595.76084   -614.11219    32966.302 
  337500     293.3211   -1451.4816    563.92675    453.67423   -187.40046    32966.302 
  337600    310.22066   -1436.6028    553.80777    535.70832   -139.08059    32966.302 
  337700    296.78498   -1436.1742    552.09851    472.99221    41.547092    32966.302 
  337800    293.92343   -1461.9791    560.96614    442.97038     196.2737    32966.302 
  337900     305.4911   -1484.9672    553.48194    465.39195   -102.88677    32966.302 
  338000    305.33908   -1432.8496    570.77178     534.1042    63.733552    32966.302 
  338100    303.56658   -1450.3906    557.37291    495.05947   -913.88412    32966.302 
  338200     307.1074   -1444.6326    574.42415    534.05932    -479.8401    32966.302 
  338300    304.80825   -1426.6261    535.82091    502.94962   -191.88461    32966.302 
  338400    312.00601   -1427.5429    567.26768    566.39181    170.88733    32966.302 
  338500    303.95404   -1464.1467    570.32786    496.03001   -433.00372    32966.302 
  338600     300.4339   -1417.6887    564.93936    521.00351   -469.60511    32966.302 
  338700    299.11969   -1425.1443    561.70853    504.30774   -77.126472    32966.302 
  338800     301.7432   -1470.3666    597.77711    507.15013   -1006.8391    32966.302 
  338900    294.85015   -1441.5344    569.82886    476.51517    78.397217    32966.302 
  339000    312.93395   -1490.0816    591.52077    532.34928   -238.90399    32966.302 
  339100    301.17764   -1466.4139     575.1508    485.89055    -717.1963    32966.302 
  339200    298.54092   -1428.4223    567.30637     503.9811   -235.96962    32966.302 
  339300    294.93964   -1424.3007    560.91056    485.23979    375.16995    32966.302 
  339400    314.02411   -1477.4008    565.57975    524.07382   -578.62212    32966.302 
  339500     309.8518   -1507.8352    541.11918    450.10069   -267.50902    32966.302 
  339600    298.14925    -1430.152    555.87868    489.03281   -39.204366    32966.302 
  339700    304.43661   -1423.6844     598.2851    566.65621    99.171159    32966.302 
  339800    294.56575   -1413.3086    559.92404    493.53582   -393.72167    32966.302 
  339900    294.41656   -1354.7977    589.94731    581.38774    548.31124    32966.302 
  340000    303.40768   -1382.3288    578.21511    583.23695   -601.83674    32966.302 
  340100    302.18744    -1406.731    580.27191    555.31194    530.60368    32966.302 
  340200    304.21552     -1424.92    577.79829    543.92276    679.55665    32966.302 
  340300    287.94757   -1399.6253    595.45624    512.48921    582.75145    32966.302 
  340400    289.07292   -1434.4061    565.16147    452.55941    505.81612    32966.302 
  340500    306.55935   -1382.5376    603.51915    622.74338    273.37843    32966.302 
  340600    300.29338   -1431.2331    540.25715    482.13432    293.24269    32966.302 
  340700    292.18616   -1398.2357    593.93243    531.73621   -317.90398    32966.302 
  340800    301.95696   -1412.6604    598.21879    566.27543    495.69081    32966.302 
  340900    301.36562   -1394.8584     565.4514    548.60619    727.94615    32966.302 
  341000    298.85966   -1416.0188    615.58981    566.12553   -54.740236    32966.302 
  341100       296.21   -1434.9707    577.08802    496.55615   -859.77113    32966.302 
  341200    296.53019   -1432.0503    583.53087    507.38344   -266.49777    32966.302 
  341300     308.0282   -1416.7921    558.92208    550.60821    -1094.603    32966.302 
  341400     292.9977   -1418.2791      562.977    484.44825   -1360.7557    32966.302 
  341500    299.94864   -1445.8844    591.37924    517.02877   -419.68425    32966.302 
  341600    300.10884   -1423.4997     572.3406    521.10741    51.024722    32966.302 
  341700    306.39051   -1447.8175    579.86131    533.03354    414.44478    32966.302 
  341800    298.67066   -1424.6261    568.85746    509.92164    118.84657    32966.302 
  341900    303.12268   -1398.1637    569.67611    557.55983    218.89127    32966.302 
  342000    296.92174   -1437.1642    606.38022     526.9092   -144.68774    32966.302 
  342100    299.54715   -1432.6752    587.41132     524.4342   -561.31305    32966.302 
  342200    294.12995   -1436.9611    560.31113    468.27765   -412.30527    32966.302 
  342300     291.7641   -1444.7513    579.14612     468.5044   -413.14165    32966.302 
  342400    305.02553    -1408.329     586.6777    573.09701   -658.74951    32966.302 
  342500    290.21171   -1430.6825    560.58476    456.91343   -412.82469    32966.302 
  342600    301.63685    -1445.491    567.72212    501.48448      -698.94    32966.302 
  342700    305.42844   -1453.1255    578.39118    521.85637   -1008.6391    32966.302 
  342800    302.05693   -1468.8727    576.03696    488.33849   -624.19981    32966.302 
  342900     304.6798   -1416.9284    579.47071    555.70981   -102.65326    32966.302 
  343000    305.53925    -1434.484    571.87783    534.49123    -323.8217    32966.302 
  343100    310.09134   -1452.9669    565.22282      530.168    -684.9797    32966.302 
  343200    304.47744   -1420.4431    584.28049    556.07957   -521.16117    32966.302 
  343300    306.37698   -1421.6408    579.99496    559.28208   -170.44236    32966.302 
  343400    298.81098   -1479.5801    560.36494    447.11676   -366.01299    32966.302 
  343500    295.88545   -1485.4553    556.43215    423.93161    -61.76818    32966.302 
  343600    296.54647   -1466.2737    567.87062    457.57423    793.18193    32966.302 
  343700    297.40931   -1472.3784    547.14084    434.68509    496.79847    32966.302 
  343800    304.57696    -1520.794    553.83984    425.74307    181.52236    32966.302 
  343900    305.88318   -1461.0872    584.56909    522.15189   -389.61312    32966.302 
  344000    300.19626   -1408.0419    561.54219    526.16647   -190.12598    32966.302 
  344100    304.21445    -1414.197    581.31112    558.15376   -85.817654    32966.302 
  344200    313.56101   -1430.5864    578.16669    581.35767    452.25471    32966.302 
  344300    298.20821   -1464.3329     590.1224    489.36523     446.5828    32966.302 
  344400    295.54344   -1490.0456    574.84006     436.1853    560.19961    32966.302 
  344500    295.89054   -1468.0792    553.45094    438.34979    281.90396    32966.302 
  344600    308.45876   -1450.8233    595.71827    555.34199      565.729    32966.302 
  344700    291.01139   -1497.2308    551.90272    385.33974   -571.62864    32966.302 
  344800    299.05588   -1469.8264    566.33037    463.95573   -382.81953    32966.302 
  344900    300.26795   -1436.6357    575.26135    511.61968   -583.86832    32966.302 
  345000    300.57699   -1425.0088    561.85745    511.25579   -338.22181    32966.302 
  345100     289.6606   -1432.6879    559.11481    450.91809   -63.677587    32966.302 
  345200    295.66246   -1436.2151    584.41463    500.13464    406.88104    32966.302 
  345300    296.89168   -1493.2079    571.15937     435.5073    524.28535    32966.302 
  345400    300.08472   -1506.2675    568.45983    434.34852    817.60574    32966.302 
  345500    296.17136   -1494.6255    581.11221    440.74877    482.68089    32966.302 
  345600    294.85911   -1482.8285    538.95091    404.38417   -84.268792    32966.302 
  345700    290.76142    -1497.548    548.64311    380.61989   -76.878739    32966.302 
  345800    305.68321   -1490.0485    590.63952    498.34664     184.1557    32966.302 
  345900     295.0069   -1489.0524    588.96781    448.85297    226.11442    32966.302 
  346000    295.94576   -1491.2476     560.7291    422.71196   -30.684597    32966.302 
  346100    302.33409   -1461.5455    576.90054     497.7966   -75.265052    32966.302 
  346200    298.48168   -1454.6007    587.19896    497.42442    82.340256    32966.302 
  346300    307.12105   -1457.0174    583.26094     530.5737   -6.7276218    32966.302 
  346400    299.76866   -1424.6101    576.19644    522.29729    264.20946    32966.302 
  346500    287.43308   -1416.9119    583.74879    481.14261    149.77615    32966.302 
  346600    301.39323   -1475.7061    581.88135     484.3147   -379.69224    32966.302 
  346700    297.28628   -1418.1044    577.07487     518.3306    134.23155    32966.302 
  346800    294.57758   -1440.5019    545.87708    452.34964    897.81151    32966.302 
  346900    298.61995   -1434.2983    573.30982    504.46993     480.3341    32966.302 
  347000    301.36404   -1459.1241    592.07005    510.95194    286.99977    32966.302 
  347100    295.22986   -1449.7652    577.93542    478.12727    1238.4262    32966.302 
  347200    316.78317   -1433.7768    601.77399    616.50808    1051.1545    32966.302 
  347300    293.11344   -1425.3233     587.1758    502.13206    996.28192    32966.302 
  347400     305.6437     -1415.57    596.25702    578.26194    788.49533    32966.302 
  347500    300.96105   -1450.6456    532.97375    458.49138   -266.18671    32966.302 
  347600    305.87231   -1446.1297     598.6772    551.16776   -865.67665    32966.302 
  347700    304.96069   -1446.6646    609.84208    557.62932    757.64224    32966.302 
  347800    302.94432   -1463.6898    539.95853    461.50056    1039.7212    32966.302 
  347900    301.05876   -1462.7976    614.13454    527.94699    842.78263    32966.302 
  348000    301.49444   -1469.2767    600.87617     510.2017   -109.14233    32966.302 
  348100    294.79336   -1428.1462    568.25201    488.06692    871.74232    32966.302 
  348200    294.37885   -1420.4554    550.52043    476.13074    345.21577    32966.302 
  348300    304.52946   -1487.0526    566.94284    472.37027   -308.49925    32966.302 
  348400    308.99521    -1431.196    568.57579    550.27978    249.32778    32966.302 
  348500    300.42856   -1429.3589    565.86877    510.23826   -93.371134    32966.302 
  348600    304.39734   -1443.9423    600.31735    548.25091   -694.52004    32966.302 
  348700    302.75358   -1419.4551    574.20618    539.11075   -336.70946    32966.302 
  348800    301.70423   -1419.6867    575.15454    535.02928    68.617628    32966.302 
  348900    295.82178   -1374.4314    574.37618    552.60838   -357.87512    32966.302 
  349000    296.55201    -1416.354    592.60564    532.25426   -923.53714    32966.302 
  349100    300.93146   -1435.0189    560.54409    501.55314     151.6922    32966.302 
  349200    309.18365   -1410.8861    593.83893    596.71447    125.92198    32966.302 
  349300     297.4608   -1430.5339    573.17162    502.79589    -613.4136    32966.302 
  349400    297.79146   -1421.8528    589.24961    529.06692   -611.30122    32966.302 
  349500    297.76299   -1432.7353    599.99157    528.79619   -85.411718    32966.302 
  349600     311.8047   -1394.9107    573.97223    604.80802    173.91686    32966.302 
  349700    311.14333   -1442.8215    601.68033    581.58117    55.033162    32966.302 
  349800     304.2217    -1454.703    558.87715     495.2469    474.06485    32966.302 
  349900    296.04887   -1474.0004    620.54147    500.24307   -444.38054    32966.302 
  350000     298.4325   -1472.5753    586.46117    478.48718    57.874946    32966.302 
  350100    295.60833   -1411.0688    581.64047    522.25927   -47.737801    32966.302 
  350200    312.63012   -1427.8643     593.6837    595.34023    -535.8234    32966.302 
  350300    287.22572     -1445.07      605.884    474.17159   -761.15897    32966.302 
  350400    308.97546   -1421.6518    571.77489    562.93268   -588.01635    32966.302 
  350500    290.69334    -1460.676    570.13381    438.67129    120.76893    32966.302 
  350600    300.68038   -1449.8331    594.13561    519.18244    26.172247    32966.302 
  350700     306.0059   -1440.7183    580.88527    539.39804    12.969899    32966.302 
  350800    290.16009    -1453.287    588.30509    461.79328    -596.6948    32966.302 
  350900    305.87496   -1480.5907    592.25463    510.29633   -11.296137    32966.302 
  351000    293.26829   -1480.7316    589.32116    449.57723     460.4678    32966.302 
  351100     293.5702   -1453.4736    537.24959    426.14408    172.66367    32966.302 
  351200    292.75892   -1518.2797    598.88943    419.26817   -384.36557    32966.302 
  351300    307.20536   -1508.7535    592.57997    488.54225    140.30973    32966.302 
  351400    293.14931   -1449.9783    573.61157    464.07687    20.495314    32966.302 
  351500    299.29183   -1443.3791    585.53594    510.68752    -251.6307    32966.302 
  351600    310.61535   -1466.4264    615.97659    569.85833    859.26689    32966.302 
  351700    291.93636   -1509.3537    567.41425    392.95784   -279.60795    32966.302 
  351800    305.88451    -1472.455    587.09759    513.31863    59.449942    32966.302 
  351900    300.59336   -1467.1433    559.65461    466.99327    109.07824    32966.302 
  352000    304.62648   -1485.9964    621.69165    528.61893    146.58639    32966.302 
  352100    296.61816   -1472.9503    574.79036    458.14514    9.5069208    32966.302 
  352200    298.43688   -1462.1636    608.17644    510.63418    67.639935    32966.302 
  352300    293.38019   -1487.2013    585.67354    439.97154   -425.52788    32966.302 
  352400    300.58093     -1457.95    591.16841    507.64356   -451.74684    32966.302 
  352500    299.73587   -1454.5585    560.92447    476.92704    37.474438    32966.302 
  352600    297.33351   -1443.7283    585.84365    501.69141    -507.2005    32966.302 
  352700    303.20353    -1464.088    588.15407    510.48318   -586.97937    32966.302 
  352800    297.29214   -1430.9742    597.63043     526.0432   -134.88106    32966.302 
  352900    315.27144   -1430.8346     586.6693    597.43316   -146.66945    32966.302 
  353000     285.3737   -1492.5433    596.99107    409.33684   -21.985234    32966.302 
  353100    301.45578   -1479.3583    568.25432    467.32146     537.0581    32966.302 
  353200    287.36361   -1510.8053    588.76572    391.94847    283.17884    32966.302 
  353300    304.95058   -1502.1782    565.55891    457.78632    806.12613    32966.302 
  353400    302.58032   -1462.1281    571.06289    492.50226   -139.93977    32966.302 
  353500    305.05858   -1452.0052    555.78327    498.67748   -1323.8692    32966.302 
  353600    288.09962   -1406.0267    567.26751     478.5943   -1234.4479    32966.302 
  353700    306.91149   -1430.7567    562.54824    535.16355   -493.54132    32966.302 
  353800    290.87261   -1434.6746    577.05159    472.41016    -747.9617    32966.302 
  353900    294.16458   -1485.0203    564.00921    424.07489   -452.76667    32966.302 
  354000    303.03097   -1510.2954    567.21366     442.5463   -692.79051    32966.302 
  354100    302.82025   -1502.5136    594.41551     476.5664    115.53146    32966.302 
  354200    294.16373   -1428.2236    588.38903    505.24751   -175.55637    32966.302 
  354300    295.05954   -1445.4203    562.98354    466.74142   -123.06634    32966.302 
  354400     305.0106   -1421.2887    595.24369    568.63509   -403.49984    32966.302 
  354500    304.57515   -1409.1255    584.95898    568.52241   -779.28312    32966.302 
  354600     301.9646   -1399.5732    632.57786    613.75671   -980.85472    32966.302 
  354700    294.40009    -1391.846    563.05854    517.37536   -46.511986    32966.302 
  354800    305.59282   -1401.0744    579.44956    575.71748    -940.0615    32966.302 
  354900    299.62369   -1405.8587    583.74715    547.93654   -595.39865    32966.302 
  355000    288.94089   -1461.0334    564.07842    424.24533   -691.82256    32966.302 
  355100    299.27234   -1439.9827    556.79144    485.25026   -850.90517    32966.302 
  355200    294.52961   -1431.9673     590.0146     504.8024   -205.04037    32966.302 
  355300    296.91766   -1395.8338    599.45256     561.2933    632.25605    32966.302 
  355400    298.99219   -1400.4137    588.41212    555.15895    659.24987    32966.302 
  355500    307.20967    -1434.538    601.03709    571.23457    567.82433    32966.302 
  355600    296.33429   -1429.0396    553.93786    479.90534    479.46812    32966.302 
  355700    295.77201   -1468.4994    598.52147    482.45807   -107.04152    32966.302 
  355800    311.55559   -1477.1191    574.68434    522.17267   -283.55113    32966.302 
  355900    297.47839   -1458.4903    587.29031    489.03857    354.71957    32966.302 
  356000    290.35958   -1490.7391    584.32679    421.27502    150.43477    32966.302 
  356100    297.22922   -1463.1954    563.52826    459.43205    283.02705    32966.302 
  356200    307.04876   -1463.7538    591.72719     531.9731    -796.7911    32966.302 
  356300     297.9649   -1431.1391    597.99481     529.3189   -571.23693    32966.302 
  356400    305.39264   -1441.5807    594.32977    549.17607   -438.17935    32966.302 
  356500    295.89855   -1450.2025    580.16417    482.97632   -998.48595    32966.302 
  356600    292.09088   -1433.6038    582.26656     484.2666   -323.53215    32966.302 
  356700    297.19613   -1439.7844    580.49185    499.65533   -416.75862    32966.302 
  356800    302.66318   -1448.1535     545.3832    481.17602   -561.66469    32966.302 
  356900    300.58663    -1462.378    549.59478    461.66799    15.341695    32966.302 
  357000     309.7725   -1468.3221    568.88221    517.01428    318.81197    32966.302 
  357100    300.88515   -1490.3007    579.33827    464.85379   -371.24851    32966.302 
  357200    309.01886   -1493.4916    587.39112    506.90757    205.77218    32966.302 
  357300    299.72888    -1483.033       581.78    469.27611   -127.84415    32966.302 
  357400    304.55672   -1489.1618    561.38619    464.82908    253.59618    32966.302 
  357500     292.6851   -1466.0588    609.63334    481.89545    228.64178    32966.302 
  357600    304.99206   -1429.5291    579.23337    544.29954    469.19925    32966.302 
  357700      294.783   -1435.6296    549.10573    461.38984    507.91031    32966.302 
  357800    295.00841   -1470.4007    621.07801    499.62177    67.055914    32966.302 
  357900    287.43593   -1450.2412    584.90643    448.98403   -280.79422    32966.302 
  358000    300.20361   -1464.8083    566.85153    474.74305    406.09347    32966.302 
  358100    305.67507    -1439.747     583.1656    541.13701    463.64962    32966.302 
  358200    297.28374   -1458.8758    584.29032    484.76308    359.54436    32966.302 
  358300    295.05366   -1506.4691    560.40186    403.08407    -58.77475    32966.302 
  358400     291.5003   -1506.1241     587.3626    414.14191   -452.26891    32966.302 
  358500    289.78408   -1439.2126    599.34923    485.19247    25.009286    32966.302 
  358600    298.84896   -1472.5741     564.8366    458.76812    248.54822    32966.302 
  358700    293.29657   -1466.6086    579.60959    454.11789    27.049344    32966.302 
  358800    296.62165   -1468.4996    588.41226    476.23371    86.143452    32966.302 
  358900    296.31486   -1450.2179    568.53519    473.23557   -142.52273    32966.302 
  359000     285.1713   -1442.0422    565.35781    427.27925   -731.39305    32966.302 
  359100    298.17043   -1492.8738    578.60243    449.13163   -782.85726    32966.302 
  359200    295.61347   -1497.3803    574.10369    428.43447   -1262.8328    32966.302 
  359300    304.16301   -1490.2468    585.90929    486.46689   -1009.2429    32966.302 
  359400    290.27099   -1491.2988    597.59087    433.57439   -1127.2012    32966.302 
  359500    303.73835    -1418.239    586.39515    557.01874   -285.85016    32966.302 
  359600    306.57208   -1434.4721    580.01419    547.36212    49.170594    32966.302 
  359700    305.83745   -1475.9641    584.33657    506.83334    254.61198    32966.302 
  359800    298.35342   -1486.6502    614.81429    492.40382    622.40085    32966.302 
  359900    295.72126   -1463.1641    555.66955     444.7094    731.41353    32966.302 
  360000    299.28165    -1446.233    630.20967    552.46077    390.06049    32966.302 
  360100    302.62949   -1472.6406     559.6146    470.76634    359.24911    32966.302 
  360200    306.97076   -1435.1416    575.52933     544.0308    322.22739    32966.302 
  360300    296.37833     -1460.45    588.49629    483.25473     250.1871    32966.302 
  360400    297.57098   -1468.3228    583.59368    475.93288   -108.95638    32966.302 
  360500     312.9562    -1446.566    599.27907    583.72483   -126.43665    32966.302 
  360600    300.80904   -1469.1494    582.18634    488.50514    82.362618    32966.302 
  360700    297.97112   -1519.5312    611.09421    454.05459    357.80785    32966.302 
  360800    301.67312   -1494.1771    593.31059    478.55274    230.41821    32966.302 
  360900    295.35854   -1495.3103    602.65126    457.88643     42.76009    32966.302 
  361000    294.38137   -1508.2495    573.01352    410.84129   -65.134951    32966.302 
  361100    294.54821   -1487.5127    560.42939    419.75678   -127.77595    32966.302 
  361200    299.98583   -1482.9982    568.06322    456.76906    525.00764    32966.302 
  361300    286.37959    -1535.204    616.05782     390.3424    555.56155    32966.302 
  361400    304.95742   -1521.3708    619.65987    492.72599     1170.276    32966.302 
  361500    292.81968   -1475.9079    569.92109    432.94951    866.88067    32966.302 
  361600    292.92024   -1442.1446    595.49193    492.74348    1000.4421    32966.302 
  361700     313.4333   -1442.7268    580.85935    571.32601    1309.5474    32966.302 
  361800    291.70978   -1491.0399    584.07163    426.89292    314.64175    32966.302 
  361900    291.97245   -1492.4973    616.42212    458.98713    815.95761    32966.302 
  362000    295.20601   -1469.5379    579.75849    460.06855    306.17516    32966.302 
  362100    312.18109   -1414.8773    558.12958    570.71988   -59.385584    32966.302 
  362200    297.74591   -1517.3027    572.83775    416.99686    502.89953    32966.302 
  362300    302.64865   -1462.6729     569.1436     490.3506    678.03748    32966.302 
  362400    286.27411   -1471.4483    583.79952    421.35749    89.719618    32966.302 
  362500    293.57768   -1488.2516    545.30202    399.45269    -470.3864    32966.302 
  362600    296.59243   -1513.4988    595.54889    438.23758    46.351718    32966.302 
  362700    308.94143    -1447.083     597.5337    563.10468     677.6656    32966.302 
  362800    292.00871   -1490.9656    583.79489    428.05735    522.02132    32966.302 
  362900    308.47102   -1455.0875    581.43596     536.8515    377.07824    32966.302 
  363000    307.97746   -1491.6371    597.71596    514.32513    497.51899    32966.302 
  363100    305.23376   -1478.3408    570.43568    487.79536    545.65393    32966.302 
  363200    297.07762   -1478.7131    596.69411    476.38704    157.86983    32966.302 
  363300    306.76485   -1491.7742    592.08256    503.00986    328.41369    32966.302 
  363400    305.32823   -1456.1682    577.04045    517.00467    252.80607    32966.302 
  363500     303.0499   -1453.6026    587.00053    519.11258   -695.81593    32966.302 
  363600    307.39891   -1468.9283    567.41914     504.0916    -271.7819    32966.302 
  363700    302.23155   -1455.8978    609.91297    535.98785   -498.90044    32966.302 
  363800    295.01459   -1472.4486    584.17859    460.70268    49.216992    32966.302 
  363900    298.11475   -1430.3662    580.54867     513.3308    31.741022    32966.302 
  364000    290.45145   -1468.9134    595.26096    454.45499   -460.74266    32966.302 
  364100    296.87378   -1514.3505    591.69092    434.81435   -477.86879    32966.302 
  364200    303.97115    -1496.559    577.75495    471.12313    764.56908    32966.302 
  364300    304.08552   -1478.6628    576.65226    488.43949    964.60365    32966.302 
  364400    288.22458   -1485.0985    559.97052    392.79691   -125.03229    32966.302 
  364500    295.06242   -1498.4926    564.66935    415.36818    531.69563    32966.302 
  364600    298.16571   -1512.3271    584.99206    436.04636    932.13228    32966.302 
  364700    285.81322   -1456.0511    617.04082    467.88861    76.917751    32966.302 
  364800    293.33201   -1447.2314    565.18121     459.2288    694.49381    32966.302 
  364900    290.68517   -1496.2961     565.2914    398.17147    633.65269    32966.302 
  365000    301.81437   -1497.6593    591.45493    473.86077    79.746254    32966.302 
  365100    304.29842   -1513.9291    584.40163    461.89618    133.34343    32966.302 
  365200    297.78049   -1526.0877    565.27626    400.80844    359.08707    32966.302 
  365300    296.92033   -1486.7185    584.06628    455.03455   -479.06128    32966.302 
  365400    303.13469   -1438.2185    589.72018    537.60404    70.639243    32966.302 
  365500    301.92264   -1468.4443    586.04776    498.16366    310.22885    32966.302 
  365600    293.34391   -1489.2816    571.71862    423.77042   -550.24323    32966.302 
  365700     302.4145   -1491.1278     580.9902    472.67165    262.07169    32966.302 
  365800    295.97055   -1497.7034    598.26126    453.90177    58.865397    32966.302 
  365900    296.93535    -1509.217    581.62737    430.16579   -87.328333    32966.302 
  366000    301.15379   -1528.5782    572.66672    421.13307   -372.82152    32966.302 
  366100     300.1847   -1465.3244    573.14793    480.43691   -277.05825    32966.302 
  366200     303.8366   -1485.5299    573.83889    477.62089    370.48038    32966.302 
  366300    305.97962   -1457.6684    597.23816    538.68073    436.44385    32966.302 
  366400    299.90506   -1489.8623    559.16886    440.64122    175.99746    32966.302 
  366500    301.70766   -1507.5682    573.23742    445.24643     80.28732    32966.302 
  366600    314.39988   -1426.1216    573.44329    584.93483       373.77    32966.302 
  366700    306.06399   -1459.7548    600.37057    540.11256    103.06495    32966.302 
  366800    307.47676   -1467.2914    557.85756     496.5229   -106.32726    32966.302 
  366900    296.72303   -1461.2409    589.67964    485.22342    62.801809    32966.302 
  367000    299.00029   -1448.6533     566.4943     485.0386    529.14353    32966.302 
  367100    308.74959   -1460.7793    568.72842    519.72594    122.15201    32966.302 
  367200    305.45447   -1470.5429    595.33484    521.50166     219.8096    32966.302 
  367300    292.84539   -1440.6027     582.0755     480.5267    565.59247    32966.302 
  367400    306.64787   -1454.4719    589.85341    537.54803    92.032341    32966.302 
  367500    294.45362   -1436.2188    585.77022    495.95907   -170.92378    32966.302 
  367600     298.4221   -1398.3125    597.21684    563.45807    279.07804    32966.302 
  367700    297.89976   -1470.7472    585.98157    477.39971   -182.81847    32966.302 
  367800    310.16803   -1456.0151    607.61826     569.8659   -53.839758    32966.302 
  367900     298.6051   -1460.3956    571.42188    476.41682   -277.67631    32966.302 
  368000    303.07533   -1449.6177    569.21712     505.4303    -608.4467    32966.302 
  368100    303.18378   -1448.5484      574.055    511.83341    -369.7662    32966.302 
  368200    304.01306   -1434.0945    559.30475    515.32904   -469.00455    32966.302 
  368300    301.08299   -1460.0104    552.01569    468.72617   -468.91688    32966.302 
  368400    309.50489   -1470.5453    615.66223    560.34736   -624.69848    32966.302 
  368500    311.70812   -1465.1456    543.45702    503.61626   -600.84307    32966.302 
  368600    302.92275   -1437.4692     562.1908    509.85487    -400.3023    32966.302 
  368700    299.93836   -1448.2826    570.06917    493.27347   -855.20526    32966.302 
  368800    293.45684    -1519.975    548.78554    370.66027   -194.97084    32966.302 
  368900    302.15988   -1490.4789    561.10196    452.26797   -695.48907    32966.302 
  369000    302.11482   -1517.9751      591.297    454.76082    144.67625    32966.302 
  369100    292.05627   -1445.5367    539.23149    429.14036    822.20728    32966.302 
  369200    287.45498   -1431.4702    575.99812    458.93382    115.99203    32966.302 
  369300    302.80344   -1430.4695    588.72127    542.83945   -752.51682    32966.302 
  369400    297.33659   -1431.9527    583.10885    510.74631   -450.86055    32966.302 
  369500    301.47257   -1493.5795    526.74884    411.67157   -623.26576    32966.302 
  369600     299.0216   -1486.8015    589.33049    469.82394    490.51357    32966.302 
  369700    298.69424   -1463.2027    552.81229     455.4077    166.63514    32966.302 
  369800    298.47522   -1497.8216    581.17896    448.15397   -200.95304    32966.302 
  369900    296.11005   -1489.8661    578.18744     442.3031   -250.98645    32966.302 
  370000    294.60083   -1453.8488    595.21536    488.44732   -29.355146    32966.302 
  370100    303.70659   -1437.6753    570.77313    521.81522    618.28094    32966.302 
  370200    292.95612     -1459.29    602.75528    483.02546     441.9234    32966.302 
  370300    296.77759   -1477.2604     579.8726    459.64634    1089.6205    32966.302 
  370400    293.89648   -1491.7927    577.46219    429.52956    154.48837    32966.302 
  370500    298.41324   -1445.7256    578.65572    497.44336   -3.8952094    32966.302 
  370600    305.45008   -1439.5944    585.49357    542.58878   -68.995065    32966.302 
  370700    295.08752   -1445.5936    563.97358    467.68615    8.2314561    32966.302 
  370800    306.00894   -1516.2036    569.80289    452.84438   -107.46489    32966.302 
  370900    299.00077   -1462.6845    579.73083     484.2461     185.6059    32966.302 
  371000    296.33654   -1493.5543    571.44423    432.90731    307.32566    32966.302 
  371100    297.98874   -1490.8984     546.6161    418.28985   -137.53608    32966.302 
  371200    302.43983    -1427.978    614.32748    569.27451    357.67296    32966.302 
  371300    292.89044   -1485.9059    541.82093    395.17487    1268.2995    32966.302 
  371400    305.73206   -1471.1722    615.84067    542.64741    1076.7187    32966.302 
  371500    304.06134   -1489.8348     558.4043    458.90905    1494.3259    32966.302 
  371600    302.89371   -1505.8735    580.34748    459.47446    563.92359    32966.302 
  371700    299.86506   -1503.1743    579.41753    447.39503    229.20146    32966.302 
  371800     291.4422   -1460.8984    580.49784    452.23714    475.27508    32966.302 
  371900    292.51501   -1453.3704    560.91384    445.08668   -180.38987    32966.302 
  372000    296.36344   -1490.7517    570.43411    434.82279    505.04998    32966.302 
  372100    291.98478   -1479.6968    584.59993    440.02184   -114.09196    32966.302 
  372200     294.3243    -1494.714    565.16432    416.26658   -282.41963    32966.302 
  372300    301.42733    -1455.624    565.19013     487.8615    285.53584    32966.302 
  372400    302.20605    -1502.387    529.78159    409.25068   -20.314936    32966.302 
  372500    304.03105   -1487.9861    591.51476    493.72968   -243.33401    32966.302 
  372600    305.36018   -1489.4628    570.29931     477.1151   -367.28115    32966.302 
  372700    297.40179   -1491.6455    529.92139    398.16417   -490.63207    32966.302 
  372800    290.49794   -1472.5864    572.62467    428.35831   -320.27398    32966.302 
  372900    307.55308   -1482.9479    565.24769    488.60552   -483.66191    32966.302 
  373000    305.28826   -1470.3124    572.49748    498.13477     -11.1242    32966.302 
  373100    306.05096   -1453.2526    555.02442    501.20898     -441.448    32966.302 
  373200    308.94197   -1487.8665    565.05822    489.84817   -554.34055    32966.302 
  373300    304.75155   -1502.4932    571.97209    462.97445   -637.89667    32966.302 
  373400    307.39378    -1482.951    585.34933    507.97561   -476.30809    32966.302 
  373500    302.70924   -1472.0425    544.17373    456.28816   -1047.5603    32966.302 
  373600    302.61904   -1431.3821    574.96426    527.32663   -1059.8063    32966.302 
  373700    297.84391   -1451.1477    568.10841    478.87063   -596.03117    32966.302 
  373800    296.74471   -1481.7952    578.00869    453.09724    430.79984    32966.302 
  373900     301.9017   -1453.0998    583.57809     510.9427    227.40879    32966.302 
  374000    305.02076   -1490.0164    569.07269    473.78286    640.91881    32966.302 
  374100    302.95328   -1484.7334    570.14988    470.68931     698.1189    32966.302 
  374200    301.34655   -1487.7603    561.52654    451.69217    553.16083    32966.302 
  374300    295.58773   -1509.4582     568.9126    411.04775    96.898384    32966.302 
  374400    297.68405   -1538.5069    595.00052    417.67261    49.345269    32966.302 
  374500     297.0835   -1478.8961    534.69713    414.23396    275.68066    32966.302 
  374600    296.31256   -1458.0168    568.94843    465.83935    392.97376    32966.302 
  374700    302.47451    -1501.881    604.95198    486.15464    7.8685545    32966.302 
  374800    297.47897   -1500.3401    561.36964    421.27075    172.60055    32966.302 
  374900    297.09644   -1493.6645     533.4889    398.31645    193.91058    32966.302 
  375000    300.50185   -1499.8806    573.01975    447.20268   -419.70152    32966.302 
  375100    293.40646   -1479.4939    567.89439    430.01986    432.69328    32966.302 
  375200    317.16375    -1453.819    544.85673    541.28889   -274.43528    32966.302 
  375300    292.16674   -1408.2911    576.89509    504.55465   -515.50733    32966.302 
  375400    301.58971   -1399.0023    597.52591    577.56143   -986.73813    32966.302 
  375500    309.04755   -1422.8248    557.27229    547.58682   -514.46588    32966.302 
  375600    295.82689   -1378.6209    568.23918    542.30522   -23.079074    32966.302 
  375700    300.27769   -1423.9784    584.56087    533.62102   -712.03239    32966.302 
  375800    301.40596   -1392.6739    567.71738     553.2411    236.74698    32966.302 
  375900     307.1056   -1415.7294    595.81659    584.34676   -12.580173    32966.302 
  376000    297.66604   -1434.1339    577.98148    504.94419    122.22621    32966.302 
  376100    306.71154   -1425.1321    581.53721     558.8629   -397.84539    32966.302 
  376200     305.0081   -1421.8637     536.4744    509.27935   -59.926717    32966.302 
  376300    310.62419   -1410.7619    597.41514    607.00179   -358.90095    32966.302 
  376400    299.46861   -1458.1628    578.51415    489.69034   -115.97827    32966.302 
  376500    304.18075   -1466.5751     543.2792    467.58958   -114.37382    32966.302 
  376600    302.84565   -1430.9229    591.96911    545.82693   -154.44969    32966.302 
  376700    298.19694   -1454.1419    570.50973    479.89198    629.72629    32966.302 
  376800    292.41623   -1422.0451    573.23664    488.28303    807.72358    32966.302 
  376900    305.06625   -1464.5021    562.44595    492.87838   -181.75117    32966.302 
  377000    280.60451   -1527.3128    563.81987    319.58872   -334.21336    32966.302 
  377100    303.92067   -1435.4777    583.85511    538.07368     16.81329    32966.302 
  377200    311.31122   -1469.3707    533.24488    487.36423    205.49605    32966.302 
  377300    301.68685   -1478.4965     571.9817    472.96721   -26.610191    32966.302 
  377400    310.85253   -1500.6685    550.61865    471.34285    420.04374    32966.302 
  377500    293.49123   -1496.2924    542.64993    388.36457   -178.46175    32966.302 
  377600     308.9422   -1536.8821     568.9421    444.71751   -702.91595    32966.302 
  377700    296.06873    -1525.168     559.4746    388.09941    66.517306    32966.302 
  377800     296.6984   -1503.2954    556.34543    409.72205    23.067992    32966.302 
  377900    301.59562    -1443.968    559.97233    495.06922   -104.60836    32966.302 
  378000    307.09168   -1463.3205     572.5814    513.45685   -157.29284    32966.302 
  378100    302.67255   -1505.6307    561.65239    440.01086    62.230399    32966.302 
  378200    301.08673   -1493.0346    576.39729    460.10056   -416.83062    32966.302 
  378300    314.23048   -1469.1015    535.08708    502.82414   -31.736657    32966.302 
  378400    305.42914   -1485.3388    551.27198    462.52705   -442.46463    32966.302 
  378500    299.11673    -1471.451    549.96329    446.24229   -235.76596    32966.302 
  378600    296.46384   -1435.6432    574.84626     494.8025   -240.41092    32966.302 
  378700    297.34051   -1471.0976    570.02989    458.54038   -231.07221    32966.302 
  378800     303.5792   -1467.9327    547.87692    468.07918    -287.7528    32966.302 
  378900     305.1233   -1476.9964    535.52285    453.72182   -134.96087    32966.302 
  379000    302.19529   -1456.8474    570.86677    495.82628    295.94511    32966.302 
  379100    296.67696   -1442.8674    586.17767    499.88428   -188.79494    32966.302 
  379200    291.67783   -1445.1961    563.61894    452.13796    528.97176    32966.302 
  379300    295.92525   -1486.2069    583.40589     450.3357    383.20744    32966.302 
  379400    298.70538    -1467.563    571.34108    469.62715    -265.3097    32966.302 
  379500     301.4711   -1469.6363    564.36442    473.22359    233.95878    32966.302 
  379600     306.9463    -1424.795    573.54231    552.27843   -45.015531    32966.302 
  379700     303.9427   -1427.5759    560.21179    522.43292    125.42859    32966.302 
  379800    306.46005   -1402.3511    581.02435    579.98098    270.39158    32966.302 
  379900    308.90248   -1456.8064    549.44273    505.11227    225.17064    32966.302 
  380000    287.62453   -1417.2383    591.21533    489.15826   -170.31595    32966.302 
  380100    295.06532   -1395.9924    591.32503    544.53726   -796.98458    32966.302 
  380200    302.65338   -1436.7715    598.92914    546.05914   -319.93673    32966.302 
  380300    296.53844   -1462.3504    552.57284    446.16304    71.686543    32966.302 
  380400    297.50774   -1412.3677    573.47993    521.48501    149.17567    32966.302 
  380500    297.78487   -1412.2633    566.08772    515.46438    464.55313    32966.302 
  380600    302.04175   -1423.3775     557.0935    514.82077   -434.12508    32966.302 
  380700    310.22644   -1427.9061     590.9069    581.53062    17.141707    32966.302 
  380800    298.22313   -1401.5897     581.2832    543.33741     45.41378    32966.302 
  380900    300.73767   -1452.6123    556.74829     479.2778   -287.09151    32966.302 
  381000    291.67234   -1397.3328    561.05744    497.41471   -336.38563    32966.302 
  381100    299.25396   -1398.4305    549.29641    519.22343    -975.7439    32966.302 
  381200    295.75349   -1407.3587    557.69686    502.68949   -938.40039    32966.302 
  381300     295.1561   -1395.7342    585.77219    539.65775   -1624.4746    32966.302 
  381400    298.05789   -1424.6464     561.1331    499.37507   -640.37366    32966.302 
  381500    293.16679   -1439.0713    567.78482    469.23704   -755.13664    32966.302 
  381600    299.35203   -1409.5684    579.91207    539.14952   -411.76346    32966.302 
  381700    306.96791   -1431.4722    562.34325      534.501    -53.82087    32966.302 
  381800    302.85598   -1413.8115    563.84049     534.8569    240.82354    32966.302 
  381900    297.66242    -1430.812    580.45262    510.72066   -16.202179    32966.302 
  382000    294.64861   -1436.0382    552.92062    464.18166    140.13518    32966.302 
  382100    301.63715   -1406.4609    583.38693    556.18078    459.69836    32966.302 
  382200    299.25348   -1454.9271    572.79471    486.22289    221.14427    32966.302 
  382300    293.40772   -1408.7024    537.88159    470.80431    73.716126    32966.302 
  382400    295.82282   -1458.1499    543.70391    438.22239   -274.07912    32966.302 
  382500    299.24548   -1465.3875    602.34128    505.27246   -430.92983    32966.302 
  382600    294.69534    -1403.186    558.65707    502.98397   -546.84117    32966.302 
  382700    302.39841   -1418.7361     546.9308    510.93036     250.4416    32966.302 
  382800    301.92803   -1401.7634    554.73022    533.55171   -172.59772    32966.302 
  382900    297.53695   -1455.2945    556.56796    461.77978   -149.76939    32966.302 
  383000     292.0723   -1400.8375    544.44898    479.13036    35.512912    32966.302 
  383100    302.21049   -1407.7593    559.75779    533.87491   -829.34506    32966.302 
  383200    293.52377   -1444.0453    561.56526    459.67575   -193.07094    32966.302 
  383300    292.92636   -1434.4699    562.46829    467.42248    647.83596    32966.302 
  383400    303.91497   -1463.5035    547.46955    473.63632    722.95022    32966.302 
  383500    289.13922   -1438.5755    558.46447    441.99613   -514.20063    32966.302 
  383600    308.91226   -1441.4288     548.1911    519.28291   -41.775955    32966.302 
  383700    308.16847   -1427.2686    568.61983    550.47089   -64.093489    32966.302 
  383800    294.76632   -1441.4808    542.59606    448.95269   -483.93117    32966.302 
  383900    301.69616   -1467.9593    589.51583    501.08117    7.7896907    32966.302 
  384000    303.78874   -1487.0556     571.9089    473.94634    -5.713092    32966.302 
  384100    296.67462    -1411.578     562.1186    507.10388    178.23855    32966.302 
  384200    305.27524   -1439.7925    548.99392    505.09154   -128.70047    32966.302 
  384300    294.85686   -1444.8509    553.50583    456.90637   -573.75029    32966.302 
  384400    297.18222   -1442.8406    567.12967    483.17335   -552.45182    32966.302 
  384500     310.9136   -1457.9091    546.80534    510.56812    -1062.924    32966.302 
  384600     296.8123    -1403.372    562.98008    516.80094   -705.86983    32966.302 
  384700    303.98708   -1469.5078    554.96207    475.45423   -574.24292    32966.302 
  384800    297.66516   -1466.5323    539.23266    433.79297    166.45297    32966.302 
  384900    300.24555   -1449.4205     568.1421    491.61316    408.16369    32966.302 
  385000    299.45088   -1466.6751     559.4821    462.06494    377.36476    32966.302 
  385100     300.0939    -1477.213     554.1817    449.16686    583.12717    32966.302 
  385200    296.80622   -1469.5672    563.56785     451.1657    312.89201    32966.302 
  385300    298.81775   -1451.8925    569.77984    484.25017   -282.50489    32966.302 
  385400    299.27739   -1422.6917    522.16356    467.93646     311.6036    32966.302 
  385500    306.67422   -1431.3672    571.40894    542.32886   -22.664806    32966.302 
  385600    297.29186   -1466.8093    542.05392    434.63022   -714.91469    32966.302 
  385700    299.67765   -1438.0572    567.58519    499.82278   -530.65123    32966.302 
  385800    290.88105   -1423.4447    565.73939    472.36647   -770.23142    32966.302 
  385900    304.59978   -1453.8697    555.95074    494.88263   -594.00392    32966.302 
  386000    294.49246   -1430.1432      570.705    487.14698   -204.82604    32966.302 
  386100    303.65928   -1427.5632    565.39925    526.33714   -907.76076    32966.302 
  386200    296.20695   -1445.9868    560.84466    469.28268    -1323.801    32966.302 
  386300    308.17117   -1442.7411    571.12063    537.51155   -384.80477    32966.302 
  386400    307.46077   -1410.3226    551.59319    547.15423   -146.22679    32966.302 
  386500     303.4307   -1454.7725    567.38613    500.06945   -577.41712    32966.302 
  386600    301.75291    -1472.497    571.66447    478.95157    79.172092    32966.302 
  386700    304.56648   -1471.2601    529.47446    450.86368    959.93895    32966.302 
  386800    305.76309   -1485.1948    544.90578    457.83186    266.30727    32966.302 
  386900    307.41145   -1471.7071    571.01165    504.96261    1005.3755    32966.302 
  387000    296.30376   -1465.9326    576.12883    465.06375    364.16369    32966.302 
  387100    290.83504   -1517.7993    545.00615    357.06826     414.1493    32966.302 
  387200     305.4412   -1453.4765    584.69941     527.8719    342.32527    32966.302 
  387300     297.3195   -1482.5452    580.93029     457.8971   -224.84198    32966.302 
  387400    309.38264   -1414.2385    542.93078    543.36378    428.78353    32966.302 
  387500    300.60862   -1461.6844    560.68817    473.55552   -251.03677    32966.302 
  387600    300.55795   -1458.3219    570.20966    486.20775    125.49678    32966.302 
  387700    306.26308   -1460.4847    549.12955    489.05193    123.61464    32966.302 
  387800     297.6992   -1492.5605    559.85179    428.53953    -157.8412    32966.302 
  387900    290.48242   -1460.3728     563.4509     431.3272   -240.22242    32966.302 
  388000    294.56781   -1456.3407    561.02348    451.61256     713.7025    32966.302 
  388100    298.62528   -1518.8956    568.62656    415.21381    174.52441    32966.302 
  388200    305.17941   -1488.2574     561.5182    468.71274     649.8725    32966.302 
  388300    296.45314   -1459.5795    558.05436    454.02546    931.24728    32966.302 
  388400    299.32969   -1515.4279     578.7434    432.01923   -334.16643    32966.302 
  388500    298.80164   -1424.5006    552.41237    494.20097   -575.07396    32966.302 
  388600    300.33838   -1410.2907    546.29452    509.31988   -336.78417    32966.302 
  388700    312.97091   -1436.0806    568.86404    563.86257    578.98757    32966.302 
  388800    307.37678   -1486.2083     572.3949    491.68616   -272.81586    32966.302 
  388900     301.2061   -1458.5839    567.98567    486.68552   -246.09213    32966.302 
  389000     302.0226   -1451.4273    564.84617    494.43616   -449.09309    32966.302 
  389100     293.9091   -1447.9186    557.09315    453.09231   -374.58152    32966.302 
  389200    297.27083    -1411.068    579.19257    527.41409    144.86691    32966.302 
  389300    290.21071   -1434.9357    595.46418    487.53511    -588.5718    32966.302 
  389400     302.0587   -1399.3654    536.46149    518.27844   -11.916158    32966.302 
  389500    305.55649   -1414.6113    582.66878    565.23363    1064.8245    32966.302 
  389600     292.2172   -1428.6699    580.03579     487.5473    258.70637    32966.302 
  389700    301.79906   -1401.5246    539.88588    518.35638    900.19917    32966.302 
  389800    295.00518   -1407.0772    555.47075    497.32318    421.87097    32966.302 
  389900    298.02554   -1400.1846    575.82706    538.38292    825.06396    32966.302 
  390000    301.45319   -1414.3693    554.65377    518.69805    328.89188    32966.302 
  390100    295.38216   -1419.4373    552.28044     483.4966    188.01658    32966.302 
  390200    302.83278   -1407.1128    563.84814    541.45716    -972.7997    32966.302 
  390300    293.06323   -1381.2614    573.14514    531.93372    164.91963    32966.302 
  390400    301.97168   -1386.1728     549.3063    543.91795   -622.38275    32966.302 
  390500    307.63105   -1359.8675    548.10589    594.90066   -78.245195    32966.302 
  390600    302.01279   -1347.1745    569.49107    603.28895   -25.916364    32966.302 
  390700     298.6329   -1386.3337     577.0808    556.26475   -490.34562    32966.302 
  390800    305.77399   -1382.1223    555.99029    572.03874    276.92737    32966.302 
  390900    298.79789   -1396.8239    553.59634    523.04452    718.75838    32966.302 
  391000    302.77512   -1398.4809    581.90293    567.88024    437.69722    32966.302 
  391100    293.21082   -1452.1239    573.44433    462.04529     332.6166    32966.302 
  391200    300.89385   -1413.5612    560.36039     522.6552    1143.3917    32966.302 
  391300    300.42211   -1390.4874    546.42553    529.63698    1156.8856    32966.302 
  391400    298.64678   -1410.4724     559.9849    515.09357    898.97143    32966.302 
  391500    307.64792   -1406.1423    544.63824    545.23537    854.31655    32966.302 
  391600    285.71591   -1428.9756    547.13359    424.61188    402.75271    32966.302 
  391700    299.10362   -1382.3782    557.00087    542.29268    580.39572    32966.302 
  391800     308.1339   -1408.5712    543.98631    544.37671    542.98347    32966.302 
  391900    309.36249   -1442.7604     540.5274     512.3464    623.52019    32966.302 
  392000    301.26696   -1461.3717     570.0302    486.22052    862.52749    32966.302 
  392100    309.35031   -1434.3097    590.57065    570.78461    826.73521    32966.302 
  392200    296.89393   -1430.1064    530.82463    458.28433    1004.7946    32966.302 
  392300    298.25458   -1450.7679    599.71197    512.73179     433.8219    32966.302 
  392400    303.32666   -1461.3087    573.03411    498.70557    257.33691    32966.302 
  392500    292.54233   -1412.2126    556.94959    482.40515     334.0556    32966.302 
  392600    306.90417   -1451.6455     566.3648    518.05782    342.81703    32966.302 
  392700    294.76538   -1454.9211    596.30455    489.21662    36.266796    32966.302 
  392800    299.66038   -1436.8028    553.95324    487.36631    587.63886    32966.302 
  392900     310.4855    -1427.245     569.2142    561.68359    265.32401    32966.302 
  393000    303.90378    -1450.463    553.41318    492.56929    310.25309    32966.302 
  393100     308.7512   -1441.4164     555.9096    526.27742    271.99969    32966.302 
  393200    288.84273   -1421.3139    547.70784    447.14542    88.795704    32966.302 
  393300     301.8208   -1416.0667    554.61967    518.64745   -409.46106    32966.302 
  393400    296.63808   -1409.5134    563.60834    510.49112    209.46304    32966.302 
  393500    298.05195   -1436.6093    562.77821     489.0301    73.335216    32966.302 
  393600    299.81728   -1408.3491    559.10636    521.69058   -63.899963    32966.302 
  393700    288.13656   -1421.2635    573.12611    469.38504   -624.59192    32966.302 
  393800    293.59042   -1431.9369    559.48436    470.00805   -46.262773    32966.302 
  393900    312.23539   -1412.0877    563.79204    579.42016    44.497278    32966.302 
  394000    289.04957   -1438.8857    562.00551    444.81702    353.49627    32966.302 
  394100    297.36428    -1468.504    566.79789    458.01072    -565.8455    32966.302 
  394200    299.72342   -1463.2341     566.2125    473.48253    215.68024    32966.302 
  394300    296.37136   -1446.3734    558.48847     467.2916    740.33091    32966.302 
  394400    302.09809   -1550.3253    566.04025     397.0774    823.14724    32966.302 
  394500    290.80195   -1508.3241    552.91467    374.30068     49.99148    32966.302 
  394600    303.07403   -1485.8851     568.1027    468.04261    961.41201    32966.302 
  394700    298.27765   -1483.7355    550.05396    430.21167     109.7387    32966.302 
  394800    307.82878   -1514.7298    570.87395     463.7105    616.02608    32966.302 
  394900    291.75905   -1473.5183     579.5498    440.11806    1257.4651    32966.302 
  395000     314.1583   -1469.6796    547.64284    514.47172    498.45474    32966.302 
  395100    306.72286   -1487.5093    544.55665    459.55688   -79.760961    32966.302 
  395200    305.01411   -1437.3334     548.0411    505.40382   -292.43964    32966.302 
  395300    307.15041   -1444.1256    561.76949    522.10839    290.69676    32966.302 
  395400    303.59874   -1449.7236    574.19828    512.69887    506.37499    32966.302 
  395500    298.58669   -1403.1902    538.45113    500.56729   -7.0154135    32966.302 
  395600    312.27563   -1421.5884    545.27565    551.58715    265.00179    32966.302 
  395700    294.16262   -1409.9131    596.62866    531.79253    540.53014    32966.302 
  395800    302.51769   -1454.0305    564.93402    494.18458   -243.27123    32966.302 
  395900    311.52566   -1373.7714     575.4879    626.18706   -550.47785    32966.302 
  396000     310.9098   -1380.1455    581.86473    623.37378   -494.00014    32966.302 
  396100    293.55722   -1405.7571    564.11668    500.66841   -545.39636    32966.302 
  396200    301.17709   -1386.8955    550.04731     540.3029   -667.37613    32966.302 
  396300    298.92111   -1400.3504    583.13996    549.62511   -1073.2042    32966.302 
  396400    300.55019   -1430.7029    561.50996    505.09167   -1358.5712    32966.302 
  396500    298.25744   -1403.6698    530.46742    490.59848   -1006.3618    32966.302 
  396600    306.61692   -1388.3646    565.00547    578.66594   -1051.5453    32966.302 
  396700    299.10498   -1417.4683    545.96904    496.17696   -1112.0772    32966.302 
  396800    299.57049   -1409.6283    587.66838    547.84491   -348.99835    32966.302 
  396900     294.0788    -1445.591    543.76961    442.87234    -330.0053    32966.302 
  397000    300.54673   -1440.2523     531.2986    465.31499     348.8888    32966.302 
  397100    295.39363   -1445.5392    588.42281    493.58953   -475.40081    32966.302 
  397200    284.32749    -1414.618    531.54472    417.03197   -83.523095    32966.302 
  397300    301.54134   -1447.9958    569.99954    500.82042   -164.32786    32966.302 
  397400    309.97438   -1440.1999    562.87223    540.04961   -434.29847    32966.302 
  397500    305.57073   -1431.7501      553.247     518.7382    335.58276    32966.302 
  397600    298.10438   -1446.1629    553.31842    470.25644    336.37277    32966.302 
  397700    305.68837   -1438.2635    576.38682    535.90255   -508.50701    32966.302 
  397800    301.81558   -1387.4982    570.59029     563.1627    57.741517    32966.302 
  397900    302.94465   -1432.0777    528.64773    481.80339    210.04986    32966.302 
  398000    303.54486   -1445.3213    554.14778    496.80437    527.16327    32966.302 
  398100    300.51083    -1415.674    585.04344    543.47405   -261.04448    32966.302 
  398200    291.05401   -1425.0202     557.0234    462.86587    411.83976    32966.302 
  398300    287.78488   -1428.2296     574.3998    462.08456    496.41306    32966.302 
  398400    302.68401   -1407.6607    582.95165    559.33253    499.67406    32966.302 
  398500    308.01182   -1429.9092    559.87271    538.36684    872.48763    32966.302 
  398600    303.48298    -1481.424    562.93098    469.20188    196.25082    32966.302 
  398700    310.10669   -1426.2282    580.34675     572.1008   -206.97504    32966.302 
  398800    301.39883   -1426.8834     571.6433    522.92493    589.12107    32966.302 
  398900    296.45085   -1421.0334    568.75818    503.26488    384.29006    32966.302 
  399000    303.97385   -1466.5694    582.05285    505.42286   -172.56501    32966.302 
  399100    304.97253   -1451.0434    557.43287    500.89544    428.11661    32966.302 
  399200    303.63203   -1367.3876    556.38417    577.37307    86.775844    32966.302 
  399300      301.682   -1403.6504    590.12318    565.93257    -145.6865    32966.302 
  399400    299.44324   -1412.1483     554.9391    512.01375   -518.35746    32966.302 
  399500    305.40444   -1462.8689    544.01473    477.62678   -152.31083    32966.302 
  399600    308.29943   -1453.3619    564.32732    520.68389   -502.93601    32966.302 
  399700    299.69724   -1457.8568    555.77962    468.30722     53.59328    32966.302 
  399800    302.55729   -1437.0943    569.25603     515.6239    576.03474    32966.302 
  399900    289.99287   -1477.0124    565.91464    414.91281    51.071743    32966.302 
  400000    300.18912   -1459.5244    550.89287    464.00201    425.38602    32966.302 
  400100    293.02177   -1449.9223    579.21494    469.15298    651.67016    32966.302 
  400200    300.86747   -1452.8616    568.88094    491.75466    164.13966    32966.302 
  400300    302.31662   -1440.5073    571.16202    513.01643    480.76116    32966.302 
  400400    308.46285     -1464.23     564.2567    510.49245   -1.7624217    32966.302 
  400500    297.50167   -1440.0025    538.60273    458.94519   -4.5255894    32966.302 
  400600    304.51783   -1422.2419    563.74839    533.93333    284.59915    32966.302 
  400700    284.74106   -1415.6727    611.96737    498.29095   -41.633484    32966.302 
  400800    304.60122    -1413.433    557.37421    536.74931   -262.64728    32966.302 
  400900    299.60824   -1379.9705    565.98759    555.99448    753.69415    32966.302 
  401000    304.18286   -1436.0498    585.55639    540.40177    425.25718    32966.302 
  401100    293.53409   -1427.6813    579.73908    494.26075      390.389    32966.302 
  401200    312.24385   -1419.9299    561.19276    569.01745    235.29229    32966.302 
  401300    292.56972   -1401.1405    578.46785    515.12069   -673.58756    32966.302 
  401400    302.52813   -1443.2253    550.23299    490.33653   -272.12954    32966.302 
  401500    296.43352   -1434.2858    561.41128    482.58629    323.69068    32966.302 
  401600     292.9172   -1443.2802    555.10617    451.20826    61.980599    32966.302 
  401700    307.21494   -1450.0806    558.37456    513.05346    -464.5544    32966.302 
  401800    302.12812   -1441.7977    554.45967    494.16166   -220.09444    32966.302 
  401900    296.23619   -1449.5762      566.325     471.3073    53.316725    32966.302 
  402000    311.24135   -1471.3563    554.41473    506.22896    -214.5313    32966.302 
  402100    302.75019      -1444.7    541.35199    480.99622    90.818051    32966.302 
  402200    308.43709   -1415.6605    567.40135    562.08874    314.58938    32966.302 
  402300    294.41794    -1429.809    551.40727    467.84278   -180.43018    32966.302 
  402400    302.46375   -1428.7167    576.48178    530.79956   -419.11897    32966.302 
  402500    295.77145   -1448.8862    562.07057    465.61785   -641.31778    32966.302 
  402600    294.68171   -1434.1169    556.55959    469.89329   -620.31239    32966.302 
  402700    305.10932   -1431.5438    580.89822    544.48593   -26.425415    32966.302 
  402800    294.62492   -1447.7449    549.50583    448.95183   -203.45459    32966.302 
  402900    301.31714   -1435.6589    557.23867    499.37131    -905.2213    32966.302 
  403000    294.23183   -1437.2216    587.44756    495.61948    314.05206    32966.302 
  403100    302.28545    -1446.221    545.72921    481.72732    813.56115    32966.302 
  403200    296.95047   -1439.6501    573.83394    492.00842    995.39722    32966.302 
  403300    288.24709   -1410.8977    596.40196    503.53209    1124.1076    32966.302 
  403400    298.25858   -1445.3915    571.87946      490.294    1372.1489    32966.302 
  403500    290.77267   -1467.7325    564.84386     426.6876    557.27207    32966.302 
  403600    311.82683   -1458.9431    567.62701    534.53159    652.71378    32966.302 
  403700    296.94767    -1448.144     577.1595    486.82735    834.46539    32966.302 
  403800    294.13498   -1457.2698    557.93892    445.61976    246.82157    32966.302 
  403900    305.00354   -1447.8218    562.40635    509.23239    127.18055    32966.302 
  404000    297.47145   -1442.7782    552.71747    470.14612   -526.43796    32966.302 
  404100    310.75036    -1454.165     554.0421     520.8026   -59.005402    32966.302 
  404200    297.41083   -1430.1953    553.92349    483.65781    15.035061    32966.302 
  404300    286.90945   -1412.3446    528.60919    428.17608   -81.654843    32966.302 
  404400    297.39443   -1454.1661    566.96875    472.65736    408.99971    32966.302 
  404500    300.37312   -1418.3533    542.95148    498.07305    132.51093    32966.302 
  404600    305.16832   -1447.7383    569.17866    516.84165   -570.79855    32966.302 
  404700    305.79867   -1478.4363    563.35826    483.20549    387.85805    32966.302 
  404800    297.08628   -1476.0381    548.73939    431.14686   -131.70977    32966.302 
  404900    299.40133   -1449.3943     570.6747    490.31171   -110.18031    32966.302 
  405000    308.85659   -1430.5417    590.03187    571.75625    162.68051    32966.302 
  405100    293.29193   -1444.7399    537.83771    434.19354    355.97802    32966.302 
  405200     299.7768   -1422.3345    568.86308    517.27678    22.419525    32966.302 
  405300    302.19213   -1404.0766    576.83492    554.55078   -167.06104    32966.302 
  405400     300.6276   -1406.8163    582.76258    550.58483    1424.5108    32966.302 
  405500    308.07245   -1449.2484    571.07674    530.50893      1001.03    32966.302 
  405600    301.88094   -1426.6502    554.90844    508.62773    492.77127    32966.302 
  405700    285.66066   -1458.8558    572.86016    420.20565    579.05793    32966.302 
  405800    299.42997   -1445.9132     567.4875    490.73659    703.63496    32966.302 
  405900    299.91536   -1447.7384     592.3247    515.96809   -50.885314    32966.302 
  406000    304.23776   -1463.6712    595.89783     523.3729   -205.23273    32966.302 
  406100    298.67126    -1449.744    586.56031    502.50932    180.14253    32966.302 
  406200    297.99864   -1473.5342     556.5425     445.6258    961.13572    32966.302 
  406300    307.43962   -1491.5381    568.64195    482.89072    125.75251    32966.302 
  406400    301.69141   -1437.4845    564.01054    506.02891    489.85806    32966.302 
  406500    309.44394   -1459.1161    574.34777    530.18353    659.16435    32966.302 
  406600    305.02694   -1457.7574    546.96898    483.96636   -477.97092    32966.302 
  406700    302.89482   -1419.3611    577.24712    542.89151   -673.39465    32966.302 
  406800    304.71024   -1471.2099    535.07087     457.1676   -405.68027    32966.302 
  406900    298.07714    -1402.636    606.60379    566.94415   -343.63246    32966.302 
  407000    295.86468   -1416.9413    589.88398    525.80252   -3.2154048    32966.302 
  407100    288.38817   -1433.4271    577.47768    462.72349   -494.13578    32966.302 
  407200    304.40987   -1448.2623    578.12273    521.79361   -839.18522    32966.302 
  407300     294.4799   -1400.9086    577.49543    523.11461   -732.50107    32966.302 
  407400    303.86483   -1394.5449    595.72793    590.62404   -462.88873    32966.302 
  407500    299.65354    -1388.991    576.63928    557.83288    401.54466    32966.302 
  407600    303.36854   -1387.1308    581.56853    581.60941   -69.175523    32966.302 
  407700    305.54813   -1418.8098    602.09959    580.42776    172.71332    32966.302 
  407800    310.87357   -1390.8987    562.97992    593.57007   -83.351556    32966.302 
  407900    306.20359   -1419.0106    586.61065    567.73511   -223.44816    32966.302 
  408000    301.95211   -1435.3936    574.95603    520.25736   -370.26468    32966.302 
  408100    292.48189   -1422.6944    567.01217    481.70957   -10.505857    32966.302 
  408200    294.56598   -1420.6826    590.68443    516.92323   -5.5721552    32966.302 
  408300    311.81041   -1440.0798    575.27918    560.97201     236.9498    32966.302 
  408400    303.21606   -1421.0927    577.58853    542.97031    92.372315    32966.302 
  408500    307.28308   -1420.9993    587.42631    571.49816    435.99889    32966.302 
  408600    300.20341    -1438.724    588.45357    522.42844   -44.876815    32966.302 
  408700    305.91393   -1425.7334    612.02429    585.10151    349.25901    32966.302 
  408800    304.54951   -1437.9531    594.61508    549.23367   -621.49383    32966.302 
  408900    302.86601   -1423.5576    575.09895    536.41516   -186.47776    32966.302 
  409000    298.41659   -1380.9983    590.41701    573.94723    195.04724    32966.302 
  409100    290.81983   -1374.0428    572.50451    528.25361    480.34863    32966.302 
  409200    297.67806   -1407.6338    573.44333    526.96108   -29.306795    32966.302 
  409300    292.24578   -1373.3859    606.58703     569.5132   -276.01173    32966.302 
  409400    301.39501   -1388.9372    555.76883    544.97914    287.77738    32966.302 
  409500     290.6868   -1414.7324    608.51027    522.96151    61.549121    32966.302 
  409600    303.52956   -1393.3359    575.16238     569.7344    664.72904    32966.302 
  409700    301.76235   -1403.1871     610.5845    587.22468    712.39514    32966.302 
  409800    302.46874   -1454.1888    575.24621    504.11464   -1024.7067    32966.302 
  409900    287.51047   -1422.1742     591.9886    484.47404   -1190.5467    32966.302 
  410000    292.78132   -1421.2642    576.69776    494.19446   -52.906623    32966.302 
  410100    303.52372   -1438.4976    592.33502     541.7186   -97.068525    32966.302 
  410200    300.13208   -1439.4631    612.03415    544.94378    60.929523    32966.302 
  410300    307.99241   -1427.2308    589.35977    570.44349   -15.406842    32966.302 
  410400    294.61033    -1395.495    566.58659    518.21581    276.19999    32966.302 
  410500    300.06664    -1390.238    558.36261     540.1981   -283.63689    32966.302 
  410600    306.62925   -1389.2175    620.56479    633.42878   -138.04266    32966.302 
  410700    295.40126   -1439.4513    563.91537    475.20479    105.81283    32966.302 
  410800    298.16514   -1454.4009    562.29362    471.27145    896.36469    32966.302 
  410900    296.78685   -1386.1055    586.10623    557.07722    859.45219    32966.302 
  411000     296.0739   -1405.0265    578.75614    527.54611    398.67048    32966.302 
  411100    293.32624   -1393.4086    604.91975    552.76372    174.78541    32966.302 
  411200    300.64745   -1455.2633    602.60683    522.07284   -40.401378    32966.302 
  411300      295.684   -1421.1611    599.67735    530.54985    210.52131    32966.302 
  411400     290.0072   -1451.4875    566.15335     440.7419    359.84104    32966.302 
  411500     300.0014   -1474.4116    570.16283     467.5264    228.56275    32966.302 
  411600    290.45074   -1468.0144    603.02772    463.11747   -803.19168    32966.302 
  411700    298.59737   -1491.6455    587.26392    460.97358    -583.1817    32966.302 
  411800    299.80802    -1452.068    569.84666    488.66957   -349.95005    32966.302 
  411900    303.43796   -1443.2881    580.70489    524.90583   -578.01422    32966.302 
  412000    289.29743   -1442.3659    565.18631    445.65099    395.64008    32966.302 
  412100    308.65487   -1450.1393    573.79771    535.00206    260.16946    32966.302 
  412200    289.62062   -1489.2622    576.74558     411.7918     308.4239    32966.302 
  412300     300.8968   -1422.4945    564.23758    517.61258    630.42677    32966.302 
  412400    296.37996   -1415.3263    589.26052    529.15016     382.0488    32966.302 
  412500    288.82103   -1454.7925    580.50076    446.36048   -351.74931    32966.302 
  412600    295.09205   -1454.2782    579.17018    474.21888   -190.08183    32966.302 
  412700    298.80664    -1477.538    554.91671    443.69075    158.16316    32966.302 
  412800    300.47521   -1437.4095    569.03762    505.56987    573.47678    32966.302 
  412900    297.90352   -1466.5647    594.45687    490.07467    199.33319    32966.302 
  413000    292.99229   -1470.4059    579.64856    448.96826     140.1864    32966.302 
  413100    305.74664   -1427.9703    578.36791    548.44323    758.70891    32966.302 
  413200    301.13122   -1458.3237    589.10047    507.71817    208.91564    32966.302 
  413300    304.13168   -1466.8016    569.36796    493.22751   -248.59072    32966.302 
  413400    308.55424   -1444.8488    577.11662    543.15139    331.89828    32966.302 
  413500     295.0587   -1468.7088    589.40869    469.87431   -54.717526    32966.302 
  413600    301.13115   -1452.4799     566.6224    491.08357    32.871721    32966.302 
  413700    295.65622   -1455.9341    542.43357    438.40599   -200.60401    32966.302 
  413800    304.78539   -1431.0044    585.11013    547.75599    8.9836389    32966.302 
  413900    292.66282   -1451.6551    576.78388    463.34786   -522.32146    32966.302 
  414000    299.02765   -1462.7914    557.88441    462.41566   -307.98568    32966.302 
  414100    304.95092   -1411.2715     576.4887    559.62442    503.96909    32966.302 
  414200    297.06396   -1438.0651    564.76609     485.0446    70.236061    32966.302 
  414300    305.23208   -1470.6498    575.48415    500.52718     340.3603    32966.302 
  414400    303.11482   -1491.7877    580.70948    474.93328    47.825525    32966.302 
  414500    296.84809   -1475.8873    563.31585    444.78499    57.914428    32966.302 
  414600    310.83377   -1385.2138    588.18972    624.28277   -17.333214    32966.302 
  414700    291.01565   -1441.5444    559.01693    448.15982    115.63184    32966.302 
  414800    305.60766   -1426.1357    563.99916    535.27365   -292.19911    32966.302 
  414900    302.36947   -1413.8251    571.39206    540.17027    342.86387    32966.302 
  415000    300.64975   -1449.0532    538.52161     464.2082    320.65283    32966.302 
  415100    302.52342   -1440.3087    549.00395     492.0026    222.06496    32966.302 
  415200    291.03182    -1414.068    564.01629    480.70948    61.049008    32966.302 
  415300    300.35188   -1444.4459    581.23016    510.16207   -306.57829    32966.302 
  415400    297.55826   -1432.2401    584.89555    513.25923    155.34458    32966.302 
  415500    299.92816   -1453.1927    558.98454    477.23209    502.99851    32966.302 
  415600    307.84368   -1439.0458    609.53042    578.11908      398.035    32966.302 
  415700    294.92345   -1440.6538    554.39051    462.29264    1102.1052    32966.302 
  415800    303.98239   -1419.2283    570.25876      541.009     694.6903    32966.302 
  415900     292.0754   -1425.8666    583.11399    492.78047    -235.9449    32966.302 
  416000    306.36511   -1421.8705    564.07336    543.07654    393.88208    32966.302 
  416100    299.14715   -1398.0472    576.65114    546.47302    175.58398    32966.302 
  416200    295.27493    -1438.936    579.44297     490.6701   -140.45691    32966.302 
  416300    306.09694   -1448.5955    590.17928    541.23123    -201.7296    32966.302 
  416400    299.08005   -1447.2553    589.33869    509.64568   -539.66631    32966.302 
  416500    299.19742   -1402.6527    560.79462    526.24083    126.66933    32966.302 
  416600    300.27621   -1420.4261    581.35639    533.96209    113.32469    32966.302 
  416700    302.39358   -1476.1151    596.10039    502.69892    73.798006    32966.302 
  416800    298.82008   -1481.3761    539.66255    424.65992    1003.8503    32966.302 
  416900    301.45144   -1458.3593    579.96766    500.01393    731.38033    32966.302 
  417000    311.70929   -1459.5464     589.6366    555.40047    290.14973    32966.302 
  417100    295.12211   -1432.4598    591.33674    508.34124    286.73472    32966.302 
  417200    299.98745   -1398.6233    569.51567    542.60377    768.14177    32966.302 
  417300    292.83847   -1455.3007    566.30826    450.02982   -71.165607    32966.302 
  417400    292.82164   -1429.8219      595.735    504.85837   -534.16249    32966.302 
  417500    302.95722   -1396.9866    548.59243    536.89662   -250.08002    32966.302 
  417600    304.61742   -1457.7503    558.74964    493.88157   -530.31291    32966.302 
  417700    296.72501   -1493.7318    584.99549    448.05739   -591.92708    32966.302 
  417800    302.81932   -1453.5102    569.69457     500.8447   -535.19483    32966.302 
  417900    305.57473   -1463.9658    561.75058    495.04434   -42.529527    32966.302 
  418000    302.33911   -1497.4356     551.3532    436.38213   -154.42496    32966.302 
  418100    287.16026   -1468.8181    567.59004    411.83026    217.89945    32966.302 
  418200    289.45988   -1491.6542    588.36867     420.2879    466.93841    32966.302 
  418300    293.48556   -1474.9638    575.81401    442.83132    528.54711    32966.302 
  418400     308.2451   -1459.9449    566.58273    516.10781    299.20876    32966.302 
  418500    302.17057   -1414.0412    551.52713    519.17979   -73.384968    32966.302 
  418600    306.68866   -1435.9521    542.75145    509.15241    -306.0715    32966.302 
  418700    310.32794   -1456.2881    573.98279    536.68863   -630.43925    32966.302 
  418800    301.51736   -1458.5103    570.87269    491.06937   -423.71907    32966.302 
  418900    298.60644   -1451.1355    544.39905    458.66016   -537.79137    32966.302 
  419000    304.83458   -1423.4629    564.90861    535.32093   -1222.5801    32966.302 
  419100    302.01121   -1444.1605    582.71407    519.51876   -632.90341    32966.302 
  419200    293.04533   -1458.3744    555.41695    437.01066   -154.60278    32966.302 
  419300    298.20533   -1451.0653    612.80235    525.29955   -218.65869    32966.302 
  419400    293.50349   -1455.1038    553.70017     440.6595   -304.91039    32966.302 
  419500    302.52398   -1450.4383    559.10909    491.98069   -552.05269    32966.302 
  419600    293.29262   -1452.2684    584.00515    472.83558   -744.63844    32966.302 
  419700    306.75066   -1439.9021    567.07411    529.80859    699.48283    32966.302 
  419800    301.10351   -1484.0139    547.75388    440.55461   -128.80549    32966.302 
  419900    289.26814   -1485.4139    600.34961    437.63235   -263.13608    32966.302 
  420000    303.02604   -1442.5395    545.73887    488.80486    502.26355    32966.302 
  420100    307.69617   -1492.1725    557.43781    472.22533    127.79134    32966.302 
  420200    291.96726   -1475.5607    551.94582    411.42372    629.76333    32966.302 
  420300    298.49355   -1450.7738    570.50925    484.61594   -98.902116    32966.302 
  420400    290.47403   -1442.3604    558.55536    444.40566   -125.31208    32966.302 
  420500    305.77111   -1438.1548    549.91251    509.91524   -180.84383    32966.302 
  420600    309.77147   -1522.0711    561.29788     455.6762   -102.39047    32966.302 
  420700    298.93814   -1446.6924    597.10294    517.32393    92.152948    32966.302 
  420800    298.84485   -1407.1904    581.60656    540.90289    698.57747    32966.302 
  420900    296.05379   -1467.2207    570.42035    456.92412    452.20156    32966.302 
  421000    294.15494   -1440.3628    564.73942    469.41854    222.46201    32966.302 
  421100     306.4572   -1438.1838    563.91794     527.0289    226.08422    32966.302 
  421200     306.7939   -1480.7277    528.93364    451.04023   -393.50988    32966.302 
  421300    297.22786   -1484.5387     579.3232    453.87745   -158.72989    32966.302 
  421400    301.99867    -1472.247    560.95876    469.61964    560.99378    32966.302 
  421500    288.90011   -1464.7726    590.12727    446.36847   -135.45608    32966.302 
  421600     299.7423   -1447.5476    567.36859    490.41141   -610.84008    32966.302 
  421700    300.02904   -1465.4523    537.45597     443.9052     586.7228    32966.302 
  421800    303.50056   -1445.5922    547.37772    489.56086    753.35801    32966.302 
  421900    305.54836   -1458.4022    559.23354    497.97034   -816.60896    32966.302 
  422000    302.63047   -1484.3309    569.35075    468.81661   -302.90112    32966.302 
  422100    291.57957   -1441.4424    561.14509    452.96852   -654.89977    32966.302 
  422200    300.46085   -1450.1796    575.25584    498.95233    -1260.244    32966.302 
  422300    307.52991   -1464.0494    586.27491    528.42529   -997.56302    32966.302 
  422400    300.13252   -1459.7155    559.29206     471.9513   -447.37103    32966.302 
  422500    300.64526   -1466.5713    598.78323    506.93119   -686.18636    32966.302 
  422600    305.66936   -1470.5873    551.45059    478.55556   -135.49355    32966.302 
  422700    301.15795   -1465.7962    541.85748    453.12483    666.38343    32966.302 
  422800    292.41695   -1535.8646    561.07153    362.30178    326.18121    32966.302 
  422900    308.83291   -1477.1224     582.8215    517.85695    201.95259    32966.302 
  423000    300.73668   -1444.0047    564.12811    495.26069   0.11728406    32966.302 
  423100    314.99869   -1489.1297    555.38532    506.60683    361.51236    32966.302 
  423200     289.1027   -1470.2163    590.82084    442.54473   -389.25694    32966.302 
  423300    303.84959   -1477.3113     563.0772    475.13716    583.35208    32966.302 
  423400    297.00199   -1482.0994    577.00519    452.96596    992.90766    32966.302 
  423500    311.21208   -1450.5224    584.19602    556.71035    16.157498    32966.302 
  423600    299.49277    -1493.187    562.03866    438.30113     14.69848    32966.302 
  423700    299.56278   -1444.3831    579.39059      504.777    555.71337    32966.302 
  423800    291.93113    -1465.322    542.15554    411.70692    33.720728    32966.302 
  423900    305.63507   -1452.9961    601.98429    546.52367     175.4951    32966.302 
  424000    287.98341   -1424.1414    583.78782     476.4686    748.94597    32966.302 
  424100    306.18451   -1450.4104    547.56112    497.19853    109.87623    32966.302 
  424200    299.32098   -1472.2805    580.21244     476.5959   -399.02276    32966.302 
  424300    307.31582   -1437.7234    562.54318    530.04064    102.80466    32966.302 
  424400     304.9589   -1447.9269    575.97066    522.48743   -67.566128    32966.302 
  424500    289.81452   -1521.1416    560.28316    364.33655   -91.408836    32966.302 
  424600    302.08843   -1532.1034    599.67522    448.89004    358.63232    32966.302 
  424700    299.09729   -1451.2105    585.65925    502.08982    509.77918    32966.302 
  424800    291.15889   -1503.3247    582.10738    410.12498    182.69964    32966.302 
  424900    297.61762   -1471.7907    566.27076    455.35521   -517.30473    32966.302 
  425000    291.36693   -1452.7124    577.86146    457.44262    493.30752    32966.302 
  425100     309.9953   -1500.6531    589.20035    506.02018   -477.65255    32966.302 
  425200    298.25087    -1494.439    589.24386    458.57568   -199.19966    32966.302 
  425300     314.9754    -1465.051    555.87619    531.06995    972.72241    32966.302 
  425400    309.98528   -1491.9252    570.69737    496.19927    763.18742    32966.302 
  425500    297.61063   -1460.7542    610.29805    510.38708    71.520293    32966.302 
  425600     289.4489   -1522.6549     576.9669    377.83517    391.15097    32966.302 
  425700    301.27567    -1479.283    585.79232    484.11124    179.90229    32966.302 
  425800    294.57521   -1465.5331    590.48012    471.91061    342.95187    32966.302 
  425900    306.37962   -1518.7299     549.9856    432.19571   -245.27141    32966.302 
  426000    303.89664   -1448.5737    574.96554     515.9783    396.47182    32966.302 
  426100    304.45651   -1479.6426    578.92079    491.42468   -622.75803    32966.302 
  426200    301.27536   -1471.0868    599.37874    505.89235   -97.623871    32966.302 
  426300    292.53826   -1404.1729    570.86814    504.34472    240.76527    32966.302 
  426400    301.45963   -1438.4036    586.10825    526.14769    -717.1206    32966.302 
  426500    311.79704   -1434.2404    608.27273    599.74382   -440.20794    32966.302 
  426600     296.9379   -1429.7291    581.01998    509.05806   -939.94831    32966.302 
  426700    288.85777   -1451.7253    549.17495    418.26991   -229.70139    32966.302 
  426800    304.70992   -1479.8653    587.40122    500.84114    73.163992    32966.302 
  426900    291.76121   -1500.6469    572.52394    405.97344    90.088131    32966.302 
  427000    295.72738   -1474.0144    538.56714    416.78467    977.98575    32966.302 
  427100    305.20772   -1533.7488    569.10942    430.94206    372.59924    32966.302 
  427200    295.60251   -1474.1776     566.8456    444.32899      555.419    32966.302 
  427300    300.04973   -1472.3969    543.17524    442.77452    686.65779    32966.302 
  427400     306.3316    -1475.997    578.01769    502.74107   -245.15079    32966.302 
  427500    301.04694   -1498.2467    542.09167    420.40098    -690.7603    32966.302 
  427600    300.14129   -1461.8506     568.6267    479.19089    133.17524    32966.302 
  427700    303.73295   -1473.7308    574.92567    490.03279   -624.30002    32966.302 
  427800    307.09903   -1496.6671    581.06398    488.62637   -781.90148    32966.302 
  427900     297.2529    -1477.111    594.08512    476.18161    84.045862    32966.302 
  428000    298.65314   -1475.3527    584.50539    474.76287   -576.62194    32966.302 
  428100    299.98787   -1449.7512    556.72694    478.68907   -940.07047    32966.302 
  428200    304.37071   -1463.4288    525.43471    453.76007   -184.14858    32966.302 
  428300    303.29232   -1510.6466    582.65105    458.82759    466.57263    32966.302 
  428400    291.27493   -1490.1775     580.5219    422.21724    355.47586    32966.302 
  428500     310.1191   -1453.7321    585.53763    549.84451    294.66156    32966.302 
  428600    300.74253   -1442.5857    563.55973    496.13804   -43.638257    32966.302 
  428700    292.92825   -1493.9033    594.74653    440.27602    128.52678    32966.302 
  428800    300.91178    -1491.037     594.1009    479.00182   -713.78244    32966.302 
  428900     305.8724   -1487.5177    583.64843    494.75145    421.22387    32966.302 
  429000    301.04743   -1485.2364     583.6488    474.97058    420.30777    32966.302 
  429100    289.71235   -1454.2488    579.60147    450.08051    265.97422    32966.302 
  429200    295.19348   -1483.8841     576.3328    442.23935    712.05651    32966.302 
  429300    302.91779   -1466.4098    591.05004    509.75077    760.19756    32966.302 
  429400    304.47593   -1456.5518    596.51516    532.19864    126.18139    32966.302 
  429500     314.9888   -1431.6228    562.90022    571.58339    170.75499    32966.302 
  429600    306.50563   -1465.2299    549.56154     485.8478   -474.99633    32966.302 
  429700    301.90637   -1443.1013    596.31206    533.69654   -18.590301    32966.302 
  429800    297.63398   -1485.5833    571.09137    446.45804   -509.44046    32966.302 
  429900    297.00645   -1441.6648    594.22098    510.63681      256.956    32966.302 
  430000    303.73176   -1459.1229    553.63918    483.34871   -6.6338842    32966.302 
  430100    301.22081   -1470.4172    594.51164    501.44548   -181.45729    32966.302 
  430200    298.89114   -1461.5793    581.38008    486.49928    368.27972    32966.302 
  430300     298.7205   -1463.6576    586.01359    488.27422   -405.29489    32966.302 
  430400    296.35258   -1500.9972    572.03181    426.12531    112.17364    32966.302 
  430500    291.46133   -1475.0008    563.96711    421.69155   -355.03593    32966.302 
  430600    308.31096   -1477.2242    593.20612    525.75314   -44.233568    32966.302 
  430700    301.28944   -1481.0145    554.14137    450.79165   -1003.4225    32966.302 
  430800    299.06717   -1420.0831    586.08512    533.50535   -639.77079    32966.302 
  430900    295.59784   -1450.0276    560.72388    462.33595   -206.42885    32966.302 
  431000    308.79464   -1500.4163    568.21967    479.78619   -249.87755    32966.302 
  431100    302.73868   -1459.0441    579.91129    505.15874   -1165.5008    32966.302 
  431200     302.2839   -1449.0945    558.87669    491.99427   -147.72108    32966.302 
  431300    295.09372   -1438.8261    583.15816    493.66658      161.491    32966.302 
  431400    304.55163   -1482.2555    586.64122    496.96715   -703.99005    32966.302 
  431500     305.7219   -1462.0175    574.49029    510.40533   -699.59224    32966.302 
  431600    304.86013   -1449.9242    576.52448    520.59232   -499.09709    32966.302 
  431700    297.98567   -1436.2534    563.59479    489.89958   -768.49834    32966.302 
  431800    302.29113   -1432.1227    556.72406    506.84649   -728.63749    32966.302 
  431900    299.66608   -1428.2211    568.34692    510.36775   -308.21686    32966.302 
  432000    293.52557   -1457.5096    569.51092    454.16533   -116.11012    32966.302 
  432100     296.5153   -1435.1856    638.47116    559.12035    -455.3248    32966.302 
  432200    304.64453   -1463.7507    548.25481    477.51032   -134.12346    32966.302 
  432300    307.30914   -1489.0749    545.36921    461.48464   -472.59548    32966.302 
  432400     302.1367   -1508.8195    582.40314    455.12264   -1188.9509    32966.302 
  432500    300.53277   -1464.8278     570.7241    480.10118   -1087.4008    32966.302 
  432600    296.32304   -1464.3595    567.69437    458.29053    56.940072    32966.302 
  432700    297.84568   -1459.7853    560.21816     462.3509    427.55362    32966.302 
  432800    308.07132   -1473.7057     586.5333    521.50306    -202.6242    32966.302 
  432900    294.70116   -1503.2279     580.3969    424.70855   -566.75948    32966.302 
  433000    298.56259      -1483.8     563.6202    445.01639   -1.2280168    32966.302 
  433100    305.83508   -1465.1093    562.63633    495.97704    822.84203    32966.302 
  433200    297.59762   -1506.1088    590.33043    445.00544    623.11398    32966.302 
  433300    300.74548   -1497.2171    571.06088    449.02131    484.29246    32966.302 
  433400    299.89481   -1488.9421    594.06548    476.41121   -322.24841    32966.302 
  433500    295.31754   -1479.2287    577.10172    448.23092   -94.318867    32966.302 
  433600    295.35176   -1487.2852    581.42272    444.65189   -569.71073    32966.302 
  433700    288.09854   -1486.0441    573.16609    404.47062   -184.54591    32966.302 
  433800    296.07056   -1456.0463    583.47018    481.22508   -641.79125    32966.302 
  433900    298.88208   -1446.9574    578.89952    498.59913   -527.80215    32966.302 
  434000    293.29887   -1460.8347    591.96403    472.25681   -603.46729    32966.302 
  434100    302.34977   -1495.1248    533.55774    420.94623   -1001.1936    32966.302 
  434200    308.71181   -1476.0827    616.48496    552.00637    -1403.051    32966.302 
  434300    297.21772   -1464.2973    552.06818    446.81756    -888.1526    32966.302 
  434400    306.84204   -1450.8679    584.19049    536.37704   -1250.2011    32966.302 
  434500    294.62632   -1461.1151    540.21322    426.29545     -700.177    32966.302 
  434600    303.30467   -1443.2712    581.41114    525.01955    316.81097    32966.302 
  434700    305.19073   -1481.4142    576.24813    490.33771   -159.87979    32966.302 
  434800     294.9986    -1484.547      585.249    449.60155   -481.97197    32966.302 
  434900    303.86854   -1454.9531     567.0053    501.51017    886.99675    32966.302 
  435000    306.84657   -1484.5606    555.18846    473.70306    187.55644    32966.302 
  435100    301.80896    -1459.634    584.33492    504.74125   -195.07891    32966.302 
  435200    302.57013   -1509.9404    603.17149    476.75201    9.3414778    32966.302 
  435300    303.38186   -1515.3648    565.11415    436.98193   -130.65926    32966.302 
  435400    305.71145   -1506.5557    556.57362    447.90266    456.82703    32966.302 
  435500    301.93413   -1485.0791    597.64674    493.18042     209.5198    32966.302 
  435600    302.14067   -1484.0773    573.24973    470.72955   -18.048389    32966.302 
  435700     306.9201    -1505.196    556.10377    454.31917    148.43583    32966.302 
  435800    299.68255   -1498.4421    591.14825    463.02338   -504.65226    32966.302 
  435900    311.66036   -1446.3312    575.73729    554.49258   -625.14245    32966.302 
  436000    313.22393   -1500.0878    549.87645    482.02464    168.43223    32966.302 
  436100    299.47968   -1501.0244    596.05332    464.41852   -295.46141    32966.302 
  436200     295.3888   -1562.1015    582.64075    371.22307   -753.54736    32966.302 
  436300    302.13922   -1498.6598    565.73704    448.62775    -100.5957    32966.302 
  436400     298.5419   -1465.5404    557.64865    457.20976   -213.28459    32966.302 
  436500    298.98299   -1516.5677    579.07832    429.62904    -241.8057    32966.302 
  436600    306.86064   -1530.3468    591.83583    464.62845   -66.094939    32966.302 
  436700    292.71802   -1507.2232    564.15967    395.40798   -525.11015    32966.302 
  436800    304.18627   -1418.9854    571.16311    543.08846   -991.47128    32966.302 
  436900    295.86688   -1427.4819    568.18409      493.572   -1787.0885    32966.302 
  437000    286.02295   -1433.0136    620.44225    495.28657   -1479.4535    32966.302 
  437100    300.85802   -1467.0437    574.74576    483.39418   -639.97914    32966.302 
  437200     304.1608   -1468.4546    602.22975    524.56944   -126.18369    32966.302 
  437300    295.43768   -1458.6799    571.59545    463.82282    390.60969    32966.302 
  437400    301.20045   -1477.9878    598.30615    497.57625   -174.04819    32966.302 
  437500    298.82999    -1504.425    592.04162    454.03551    96.722685    32966.302 
  437600    299.94212    -1474.387    570.36086    467.47799   -413.62463    32966.302 
  437700    294.77286   -1480.4949    534.88244    402.25492   -831.53411    32966.302 
  437800    298.36989   -1521.7055    581.08969    423.69915   -747.29307    32966.302 
  437900     304.0344   -1470.5574    604.01655    523.67551   -1142.1351    32966.302 
  438000    306.42414   -1476.4703    568.04276    492.71604   -700.83789    32966.302 
  438100    300.25526   -1476.8899    572.22022    468.26632   -723.87549    32966.302 
  438200    303.57109    -1485.485    554.59245    457.20532    284.05502    32966.302 
  438300    302.21658   -1472.7021    618.03678    527.23896    324.53638    32966.302 
  438400    304.17944   -1480.3672    581.47104    491.98335   -388.51216    32966.302 
  438500    301.04024   -1454.2493     591.4629    513.73893   -704.97685    32966.302 
  438600    287.19514   -1505.2274    581.20217    389.19253   -54.551975    32966.302 
  438700    298.58518   -1526.2871    573.51231    412.52464    278.86474    32966.302 
  438800     297.5227   -1498.4667     583.4233    445.39777    1035.7438    32966.302 
  438900     299.5695   -1471.4699    594.61279    492.94315    659.67121    32966.302 
  439000    291.80838   -1481.6975    579.88648    432.50104    797.39989    32966.302 
  439100    306.80023   -1486.2739    584.82307    501.41245    433.77584    32966.302 
  439200    288.58861   -1465.2509    592.25993    446.59849    720.97417    32966.302 
  439300    299.43095   -1452.7459    596.84629    513.26721    123.81046    32966.302 
  439400    291.11723   -1469.0186    593.92129    456.05445   -62.114268    32966.302 
  439500    298.16065   -1476.2732    575.92832    463.01333   -3.9812136    32966.302 
  439600    298.88299   -1488.6768    569.74104    447.72544   -678.16579    32966.302 
  439700    292.46783   -1478.4687    593.92111    452.77988   -1043.3997    32966.302 
  439800    306.57376   -1476.0151    560.17417     485.9868   -851.95153    32966.302 
  439900    302.31658   -1455.5477    597.40331    524.21708   -1225.7857    32966.302 
  440000    309.09249   -1457.8096    611.93049     567.4657   -596.10996    32966.302 
  440100    305.59064   -1492.2876    581.99982     487.0445   -565.43779    32966.302 
  440200    295.09353   -1474.2305    574.07039    449.17356   -137.53093    32966.302 
  440300    300.47416    -1466.939    598.29842    505.29638   -1169.3684    32966.302 
  440400    298.41188   -1429.3163    596.21155    531.40228   -1153.5181    32966.302 
  440500    300.17273   -1469.3139    585.86181    489.10657    45.032128    32966.302 
  440600    307.08851   -1476.3485    563.07773    490.91067   -150.40219    32966.302 
  440700    291.42202     -1436.47    631.43265    527.50809   -849.01674    32966.302 
  440800    298.35015   -1429.3047    594.86277    529.78275   -147.47954    32966.302 
  440900     295.7601   -1461.0136    573.96535    465.33334    684.47139    32966.302 
  441000    297.54388   -1463.3763    607.21593    504.37768   -481.47446    32966.302 
  441100    292.27661   -1501.3351    583.76935    418.88735   -547.96107    32966.302 
  441200    291.23008   -1455.0816    575.01815    451.60436   -772.22551    32966.302 
  441300    290.39662   -1470.2044    584.44948    442.10177   -1036.3867    32966.302 
  441400    300.43503   -1462.3777    575.22208     486.6024       773.55    32966.302 
  441500    300.13949   -1494.5954    536.45982    414.27104   -229.14043    32966.302 
  441600    306.77504   -1476.8635     596.7407    522.62524   -17.197538    32966.302 
  441700    300.35638   -1455.2747    613.47393    531.59761   -20.943073    32966.302 
  441800    300.94548   -1450.3947    561.86579    487.56312    527.98621    32966.302 
  441900    299.67535   -1496.7504    565.03369    438.56756   -34.431702    32966.302 
  442000    297.05234   -1511.6307    615.87242    462.53219   -1089.3914    32966.302 
  442100    304.99017   -1541.4122    584.23226    437.40669   -813.84868    32966.302 
  442200     308.0964   -1469.1169    578.50274    518.17591    -832.8058    32966.302 
  442300    297.34773   -1445.0845    599.22012    513.77677   -274.35198    32966.302 
  442400    301.27004   -1437.7377     566.4466    506.28507   -215.26714    32966.302 
  442500    296.74115   -1487.2893    576.09243     445.6706    -63.59099    32966.302 
  442600    302.87961   -1562.2126    580.27691    403.00025   -780.44163    32966.302 
  442700    301.74444   -1496.9421     600.0085    482.81169   -82.913029    32966.302 
  442800    304.29166   -1423.2174     549.4949    517.67018    249.15051    32966.302 
  442900    301.94319   -1490.6401    579.44362    469.45767    525.91161    32966.302 
  443000    293.92904    -1472.248     584.8568    456.61776   -385.02011    32966.302 
  443100    298.90622   -1495.0534    610.59894    482.31298   -224.21263    32966.302 
  443200    306.55936   -1443.9937    589.89765    547.66579    48.981032    32966.302 
  443300    305.15495   -1522.6837    599.45226    472.10868   -580.01162    32966.302 
  443400    305.28957   -1496.3102    573.58804    473.23346   -639.83668    32966.302 
  443500       300.87   -1468.8569    565.40796    472.29797   -296.57135    32966.302 
  443600    311.05151   -1489.0043    571.35974    504.65796   -560.59961    32966.302 
  443700    304.14783     -1470.36    575.64369    496.01872   -273.91739    32966.302 
  443800     308.8457   -1427.6733    590.21317    574.75614    1020.9866    32966.302 
  443900    305.39863   -1512.1663    622.95986     507.2479    789.13434    32966.302 
  444000    298.29776   -1491.7875    583.53573    455.73341    493.71464    32966.302 
  444100    290.05084   -1475.2225    580.48847    431.54153    294.42927    32966.302 
  444200    303.54084    -1470.495    561.79339    479.25788    90.746002    32966.302 
  444300    297.84627   -1460.0852    599.50414    501.33962   -354.40606    32966.302 
  444400    306.74637    -1516.452    591.57145    477.73644    400.21655    32966.302 
  444500    290.15914   -1497.0994    591.79803    421.46943    175.12315    32966.302 
  444600    303.21538   -1495.6134    575.15339    466.01125    202.26447    32966.302 
  444700    299.55752   -1496.2762    559.71695     433.1863   -83.393598    32966.302 
  444800    300.02313   -1448.2156    602.97065    526.62961   -741.41643    32966.302 
  444900    297.67584   -1469.5204    572.41988    464.04086   -1128.6714    32966.302 
  445000    309.70584   -1500.9592    601.47523    516.66542   -991.56853    32966.302 
  445100    303.22084   -1475.6028    593.90103    504.79448    405.42231    32966.302 
  445200    290.26021   -1509.5618    593.07206    410.74328   -272.54148    32966.302 
  445300    306.15996   -1505.9875    595.09567     489.0438    166.20292    32966.302 
  445400    307.72676   -1504.5319    606.32079    508.88876   -226.26173    32966.302 
  445500    303.98153    -1475.017     578.0458    493.00337    -448.9638    32966.302 
  445600    300.50742   -1491.6461    568.80093     451.2438   -1011.4859    32966.302 
  445700    294.05261   -1489.8714    584.86219    439.56476   -872.87341    32966.302 
  445800     301.6375   -1506.6638    587.95978    460.55236   -654.39091    32966.302 
  445900    291.34658   -1464.7701    593.20284    460.63325    13.169259    32966.302 
  446000    293.88762   -1553.4207    551.51475    341.91363   -842.62012    32966.302 
  446100    293.25865   -1533.9963    588.07175    395.01904   -965.49709    32966.302 
  446200     297.6472   -1534.1443    570.64197    397.50814   -167.43608    32966.302 
  446300    303.33734   -1500.8984    558.39499     444.5256    105.61191    32966.302 
  446400     301.4487   -1511.2806    534.49042    401.60288   -124.42796    32966.302 
  446500    307.07691    -1552.611    592.72691    444.24431    -609.0885    32966.302 
  446600    297.46861   -1521.4531    573.71446    412.45521   -620.40444    32966.302 
  446700    300.97522   -1522.9346    558.32686    411.62031   -73.812589    32966.302 
  446800    310.57485   -1500.1989    554.22272     474.1468   -101.57272    32966.302 
  446900    295.53375   -1502.9554    564.19685    412.58806     337.8459    32966.302 
  447000    302.09325     -1502.64    570.71654    449.41686    367.44103    32966.302 
  447100    296.35173   -1523.8309     618.1443    449.40026    754.83663    32966.302 
  447200     306.6573   -1451.3392    605.47952    556.35007    500.10246    32966.302 
  447300    297.39121   -1453.7239    597.08245    503.19849    369.57122    32966.302 
  447400    302.64104   -1473.0914    600.87266    511.62636  -0.60838027    32966.302 
  447500    302.58256   -1433.9267    598.04487    547.69587    -572.3901    32966.302 
  447600    316.68592   -1449.0514    584.88197    583.89682   -686.00342    32966.302 
  447700    312.03908   -1412.2473    593.54448    608.11539     -363.358    32966.302 
  447800    304.97787   -1428.6657    601.01964    566.88438   -128.54335    32966.302 
  447900    298.98274   -1432.0936    571.21218    506.23593   -491.23259    32966.302 
  448000    304.67157   -1460.0513    586.34412    519.42263     552.6064    32966.302 
  448100    291.38199   -1464.7414    615.61988    483.24086    101.47375    32966.302 
  448200    294.30162   -1497.5557    581.70165    429.85856   -242.02336    32966.302 
  448300    307.72885   -1448.6374    590.59059    549.06264    -531.1748    32966.302 
  448400    295.74767   -1416.8035    567.70769    503.22891    6.7561498    32966.302 
  448500    301.84584   -1485.5383     638.7182    533.38891   -742.07224    32966.302 
  448600     302.8932   -1490.3316    564.23678    458.90333   -500.66211    32966.302 
  448700    304.93732   -1418.1949    612.44309    588.59321   -165.41925    32966.302 
  448800    295.22942   -1446.9665    587.07209    490.06058    705.12472    32966.302 
  448900     296.5904   -1422.0549    641.04661     575.1699    284.69849    32966.302 
  449000    295.16515   -1455.4694    570.72879    464.92054    31.373694    32966.302 
  449100     309.5632   -1475.4469    606.32867    546.37881    148.70141    32966.302 
  449200    291.70191   -1481.7215    559.54907    411.65286    282.06872    32966.302 
  449300     300.5068   -1482.1414    590.50404    482.44882    908.54374    32966.302 
  449400    299.57941   -1530.1033    565.44355    405.18586    -215.8551    32966.302 
  449500    305.75179   -1504.8466    594.74487    487.96745    76.847983    32966.302 
  449600    302.17222    -1505.777    579.75142    455.67579    185.46022    32966.302 
  449700    297.43233   -1498.5497    591.17249     452.6507    528.09016    32966.302 
  449800    299.07061   -1534.2499     570.4371     403.7063   -179.07732    32966.302 
  449900    303.34145   -1496.7429    590.58402    480.88892   -180.69585    32966.302 
  450000    304.45564   -1474.2652    599.46028    517.33751     -179.773    32966.302 
  450100    297.42628   -1482.0463    598.68454    476.63851    43.107631    32966.302 
  450200    300.69791   -1507.2811    596.89214    464.57108   -83.359536    32966.302 
  450300    296.45359   -1475.8701    572.00641    451.68894    90.535043    32966.302 
  450400    294.86413   -1501.8521    595.66128    442.09384   -4.3350745    32966.302 
  450500    305.78332   -1540.3441    587.24551    445.11481    208.67902    32966.302 
  450600    295.52186   -1470.0275    562.40045    443.66513     163.7861    32966.302 
  450700    295.85088   -1496.7357    555.12225     411.1832     154.5087    32966.302 
  450800    301.18226   -1502.4473    569.70486    444.43224   -288.32286    32966.302 
  450900    296.00389   -1505.0086    579.88936    428.37709   -275.88506    32966.302 
  451000    298.05791   -1455.9295    611.45706    518.41602   -206.25658    32966.302 
  451100    309.70335   -1491.7673    594.74291    519.11353     330.7607    32966.302 
  451200    300.54033   -1494.6167    590.53861    470.16138    -155.0695    32966.302 
  451300    293.49227   -1511.6644    583.67443    414.02182   -306.20276    32966.302 
  451400     301.8083   -1491.5898      577.438    465.88555   -360.89046    32966.302 
  451500    299.07243   -1515.2059    574.30078    426.62232   -197.37533    32966.302 
  451600    290.04784   -1504.0862    588.49842    410.67415   -957.56898    32966.302 
  451700    305.50301    -1515.976    577.95972    458.91541   -398.11548    32966.302 
  451800    295.74473   -1513.3951    565.80828    404.72453    148.68208    32966.302 
  451900    298.25462   -1524.2755    601.57424    441.08665    256.26914    32966.302 
  452000    305.70743   -1535.3677    587.36329    449.86201    71.500511    32966.302 
  452100    300.83096   -1540.2463    577.75953     413.0817    100.52404    32966.302 
  452200    298.73378    -1526.627    566.20148    405.55342    459.51313    32966.302 
  452300    304.74474   -1503.6024    596.24295    486.10496   -77.328219    32966.302 
  452400    302.63873   -1518.7754    556.88348    421.94258   -656.59617    32966.302 
  452500     302.8012   -1444.3869     572.2157     512.4063    -36.66516    32966.302 
  452600    292.79894   -1465.8986    582.98502    455.92789   -660.78899    32966.302 
  452700    293.27905   -1538.3432     571.0702    373.76379   -233.01093    32966.302 
  452800    297.75829   -1545.7458    580.87227    396.64488     536.3989    32966.302 
  452900    299.20114   -1489.5377    545.23178    423.80999    1038.0575    32966.302 
  453000    287.80269    -1547.892    599.20609    367.30991    484.04362    32966.302 
  453100    296.38316   -1558.2107    552.86823    349.88803    93.942898    32966.302 
  453200    302.86389   -1459.9451    591.20389    516.12285    1393.8451    32966.302 
  453300    295.37985   -1492.9406    599.45452     457.1568    456.34244    32966.302 
  453400    297.43322    -1501.396    570.27248    428.90848    33.981198    32966.302 
  453500    304.51126   -1533.9622    555.20353    413.63811    729.90001    32966.302 
  453600    306.35047   -1499.6634    567.56645    468.70978    426.53815    32966.302 
  453700    293.99125   -1557.5144    588.76697    375.54595   -582.37414    32966.302 
  453800    304.52686   -1473.1619    538.49781    457.80409   -96.411968    32966.302 
  453900     290.9444   -1474.1273    571.00129     427.2355   -386.85279    32966.302 
  454000    299.33073   -1486.3582    606.66349    489.01383    -913.1979    32966.302 
  454100    305.12954   -1535.5631    582.17855    441.83943   -316.21133    32966.302 
  454200    302.57163   -1492.6695    567.31825    458.17647    188.98235    32966.302 
  454300    306.17728   -1520.9006    576.10803    455.22226    107.26743    32966.302 
  454400    300.86441   -1550.5457    593.94899    419.12461   -285.87238    32966.302 
  454500    296.59756    -1485.417    576.72541    447.51933   -592.68454    32966.302 
  454600    305.84275    -1486.525    583.69419     495.6543    582.53176    32966.302 
  454700    293.69964   -1487.6138    600.95815    456.30433   -152.58314    32966.302 
  454800    299.86264   -1473.7389    590.27591    487.67775    512.20959    32966.302 
  454900    287.89729   -1505.5305    592.93296    403.83082   -494.36925    32966.302 
  455000    295.33547   -1509.4605    580.55886    421.53829   -629.83838    32966.302 
  455100    302.44432   -1449.2854    569.99656    503.65678    452.41329    32966.302 
  455200    313.22827   -1464.5096    578.83404     546.5803    590.21766    32966.302 
  455300    294.36725   -1500.3359    589.64888    435.32568   -46.659554    32966.302 
  455400    294.12065   -1463.7525    595.09371    476.22632    489.14882    32966.302 
  455500    295.67309   -1479.2311    588.83729    461.58985    340.20961    32966.302 
  455600    307.32117   -1503.0383    594.05396    496.26094    128.18174    32966.302 
  455700    303.68147   -1506.4958     582.3893      464.496      447.115    32966.302 
  455800    309.82819   -1520.5031    596.67737    492.88304    610.25514    32966.302 
  455900    303.70781   -1520.1861    586.38782    454.92471    207.97033    32966.302 
  456000    290.40445   -1543.6609        555.4    339.63161     355.4192    32966.302 
  456100     297.8685   -1492.5449    597.91888    467.39638   -439.80744    32966.302 
  456200    288.44197   -1549.3602    596.10628    365.66502   -277.41797    32966.302 
  456300    287.48316    -1494.915    599.67804    419.29777    170.93474    32966.302 
  456400    291.83719   -1536.2013    603.34651    401.58903   -92.240719    32966.302 
  456500    293.52338   -1487.3365    608.92563     463.7432    1322.3879    32966.302 
  456600    300.27371   -1463.8289    623.42577    532.61717     392.7135    32966.302 
  456700    291.09246    -1480.137    614.56624     465.4678   -165.19952    32966.302 
  456800    292.29451   -1462.2847    601.47473    475.72501    806.41819    32966.302 
  456900    297.96483   -1502.9602    604.97018    464.47284     456.6667    32966.302 
  457000    298.79971   -1501.3639    591.83372    456.75024   -53.442754    32966.302 
  457100    304.41414   -1465.5385    587.09062    513.50486   -265.01975    32966.302 
  457200    306.42706   -1472.1404    600.65217    529.66864   -184.67155    32966.302 
  457300    297.17045   -1487.7954    580.37922    451.41432     4.211986    32966.302 
  457400    306.00379   -1448.2095    581.15287    532.16486   -239.55279    32966.302 
  457500    294.64922   -1548.9048    589.95507    388.35227    3.0651957    32966.302 
  457600    302.55212   -1499.2312    598.61294    482.82026    113.87997    32966.302 
  457700    297.15567   -1523.8977    545.61414    380.47935    404.38165    32966.302 
  457800    303.78461   -1492.4042    597.47041    494.14034    797.38258    32966.302 
  457900    287.77037   -1515.5654    571.25198    371.53456   -710.38397    32966.302 
  458000    294.60851   -1513.3497     598.1718    431.93792   -478.07644    32966.302 
  458100    294.76938   -1486.5308    583.90461    445.22526   -612.77004    32966.302 
  458200    293.47201   -1498.2349    589.18621    432.87048   -825.66572    32966.302 
  458300    303.42361   -1527.7637     573.4025    433.06229    169.23916    32966.302 
  458400    305.09041   -1502.4671    598.01945    490.59735    660.01019    32966.302 
  458500    301.56347    -1500.451    581.55171    460.01861    498.82098    32966.302 
  458600    287.80869   -1489.1419    594.22737    421.10868    1322.1886    32966.302 
  458700    293.03061   -1537.0682    607.39401    410.22667    239.22761    32966.302 
  458800    307.06218   -1529.0569    570.79916    445.80328    1032.0224    32966.302 
  458900    301.93773   -1515.6761     604.1336    469.08665    296.09338    32966.302 
  459000    300.63946   -1525.0088    580.35782     430.0418     353.4588    32966.302 
  459100    293.50733    -1506.263    569.38205    405.19974    471.45177    32966.302 
  459200    304.91843   -1482.8563    576.29595    487.69827    1459.3938    32966.302 
  459300    295.89503   -1508.8219    569.95388    414.13052    126.19572    32966.302 
  459400    294.72947   -1519.4277    606.36703    434.60824    68.250998    32966.302 
  459500    296.60467   -1520.5329    571.52413    407.23468    375.35104    32966.302 
  459600     309.7923   -1466.5875    572.53809    522.49526     29.67528    32966.302 
  459700     307.3452   -1531.4197    568.24569    442.18115   -271.56479    32966.302 
  459800    305.87366   -1490.1788    585.81443    494.26206   -331.12901    32966.302 
  459900     299.6393   -1464.8897    616.20412    521.43383   -301.96683    32966.302 
  460000    303.79959   -1486.1521    573.45701    476.44756   -225.08406    32966.302 
  460100    301.13469   -1483.1233    593.55397    487.38787    714.67366    32966.302 
  460200     301.6849   -1477.4876    609.85921    511.84471    521.35865    32966.302 
  460300    302.15119   -1492.2854    583.00572    472.32553    696.46386    32966.302 
  460400    290.66185   -1502.0979    568.93785    395.90946     579.7028    32966.302 
  460500    303.30882   -1491.4579    614.40049    509.84118   -267.18816    32966.302 
  460600    297.52261   -1453.6137    568.17677     475.0038    85.033593    32966.302 
  460700    299.27734   -1479.6662    623.56896    512.36712   -208.99798    32966.302 
  460800    299.78742    -1487.283    565.06906    448.58284    216.52618    32966.302 
  460900    303.03448   -1491.9211    574.80849    468.53156   -437.01636    32966.302 
  461000    303.05372   -1487.6162    604.20932    502.32523   -234.31983    32966.302 
  461100    301.25287   -1510.7715     546.6691    413.39519    -90.72719    32966.302 
  461200    310.67747   -1493.2567    581.93471    509.27023   -140.99726    32966.302 
  461300    291.52766   -1480.4511    592.52017    445.09753   -318.78613    32966.302 
  461400    300.51512   -1497.9405    571.47625    447.65991    432.84579    32966.302 
  461500    304.45424   -1486.1585    615.72605    521.70362    610.88797    32966.302 
  461600    294.00535   -1475.2124    570.55984    439.70535    836.96332    32966.302 
  461700    300.22812   -1488.3054    597.45079    481.95725    211.84939    32966.302 
  461800    302.45104   -1485.2548    596.77263    494.49412   -111.58352    32966.302 
  461900    305.31745   -1478.1154    610.56797    528.53569   -460.65768    32966.302 
  462000    293.33993   -1487.6119     560.5422    414.24556    -279.5507    32966.302 
  462100    288.30598   -1509.3865    604.06997     412.9806   -54.769419    32966.302 
  462200    304.94513   -1498.8601    563.57077    459.09141   -218.73988    32966.302 
  462300    296.20971   -1498.4387    567.91684    423.91556   -1088.3456    32966.302 
  462400     301.3005   -1497.8012    576.62813    456.54239   -1002.7999    32966.302 
  462500    305.46348   -1498.7228    592.22507    490.25314   -860.66423    32966.302 
  462600     294.6625   -1471.7416    554.47247    430.09366   -415.69022    32966.302 
  462700     302.5033   -1505.6059    591.55377    469.16319   -519.89478    32966.302 
  462800    307.54814   -1476.8993    584.80986    514.19372   -654.89601    32966.302 
  462900    307.48343   -1510.6822    579.80611     475.1111   -4.0550826    32966.302 
  463000    293.75143   -1493.5689    571.37283    421.00079    703.14504    32966.302 
  463100    293.21468   -1500.1633    584.50642    425.08565   -597.55844    32966.302 
  463200    291.95491   -1504.3134    577.10153    407.77028   -813.23748    32966.302 
  463300    288.46447   -1485.0604    584.62734    418.58878   -593.59762    32966.302 
  463400    291.64068   -1461.0906    571.81361    444.26825   -380.02864    32966.302 
  463500    295.01912   -1447.7911    579.22457    480.42689   -123.68917    32966.302 
  463600    298.19449   -1434.9922    573.87635    502.39719    207.43649    32966.302 
  463700    301.72697   -1465.6618    567.27005    481.27368   -638.88792    32966.302 
  463800    307.57543   -1524.2199    550.01147    432.19949   -294.98408    32966.302 
  463900    298.91103   -1519.2916    575.92777    423.42554   -66.823992    32966.302 
  464000    311.60864   -1505.1337     582.8024    502.51876    846.92674    32966.302 
  464100     309.3085   -1523.1064    563.56425    454.79037    415.94252    32966.302 
  464200    305.02105   -1561.2907    574.69582    408.13299   -197.55835    32966.302 
  464300    290.58333   -1509.2929     566.9417    386.35923    -142.3277    32966.302 
  464400    297.04027   -1497.4284    561.86841    422.67528    144.57194    32966.302 
  464500    302.67919   -1503.7554    581.46411    461.72829    -25.33281    32966.302 
  464600    295.75544   -1516.3236    567.64065    403.67728   -186.62161    32966.302 
  464700    296.03119   -1474.8878    574.71735    453.45068   -296.37149    32966.302 
  464800     295.6823    -1504.523    594.88655    442.38941    152.75195    32966.302 
  464900    300.97419   -1455.4672    596.58821    517.34432    379.45825    32966.302 
  465000    291.27132    -1452.172    593.61234     473.2967   -344.01377    32966.302 
  465100    303.08038   -1493.8721    589.61091    481.59286    400.36661    32966.302 
  465200     304.6706   -1489.3665    583.59006    487.34892    370.58988    32966.302 
  465300     302.6014   -1459.0331    567.17454    491.80525    890.06594    32966.302 
  465400    296.99081   -1476.1171    584.84355    466.73548    323.17042    32966.302 
  465500    303.91814   -1481.4519    569.01551    477.24838    63.495444    32966.302 
  465600    297.88808   -1494.4901    552.54147    420.16333   -246.23265    32966.302 
  465700    302.69945   -1495.1138     570.0284    459.02681   -344.41782    32966.302 
  465800    292.50199   -1503.4537    579.01007    413.03999   -42.737567    32966.302 
  465900    307.23996    -1462.009    562.01226     504.8772    27.464355    32966.302 
  466000    310.28572   -1465.6499    564.84572    517.99671   -617.02063    32966.302 
  466100     303.9615   -1472.4262    596.67518    514.13196   -831.88347    32966.302 
  466200    305.65585   -1451.7321    559.76996    505.66838    -73.91875    32966.302 
  466300    294.50057    -1440.906    570.65123    476.36753    332.08132    32966.302 
  466400     295.7494   -1429.6656     629.9682    552.63523   -841.70554    32966.302 
  466500    293.98743   -1452.1653     588.2526    480.36323   -514.97465    32966.302 
  466600    293.66283    -1455.613    589.27895    476.45761    256.99394    32966.302 
  466700    293.51234    -1449.328     576.9722    469.74771   -376.38132    32966.302 
  466800    289.29492   -1426.6906     570.1424    466.27092   -484.40738    32966.302 
  466900    310.97363   -1460.1257    575.65905    537.47968   -588.49016    32966.302 
  467000    298.66955    -1473.569    568.86335    460.97954    162.12247    32966.302 
  467100    299.42403   -1453.1751    592.51877    508.47879    303.44795    32966.302 
  467200    296.41925   -1447.9396    585.44799    492.90402    596.95042    32966.302 
  467300    292.30094   -1477.3098     577.4866    436.74111    83.528846    32966.302 
  467400    301.10278   -1477.0357    599.24206    499.01764    -334.3432    32966.302 
  467500    291.91079   -1494.1662     577.1522     417.7664   -124.00472    32966.302 
  467600    305.06588   -1476.8228    558.36113    476.47118    298.75457    32966.302 
  467700    304.46907   -1479.6216    553.82794    466.41025    211.65446    32966.302 
  467800    303.72392    -1494.381    573.62016    468.03577   -242.11073    32966.302 
  467900    302.77794   -1482.2059     544.7422    447.00743   -565.97232    32966.302 
  468000    304.12592   -1476.4412    578.96556    493.15911   -630.65609    32966.302 
  468100    301.69448   -1479.9098    567.30499     466.9121   -627.23443    32966.302 
  468200    300.41344   -1526.2723    553.85266    401.23961    451.54157    32966.302 
  468300    291.74214   -1552.2762    566.52078    348.25377   -51.453127    32966.302 
  468400    294.45187    -1506.532    598.43966    438.30721    255.31433    32966.302 
  468500    287.47207   -1431.2308    598.11563    481.36891    761.16133    32966.302 
  468600    298.40445   -1467.3746    574.19934    471.29773     553.2663    32966.302 
  468700    298.42355   -1473.2938    593.02075    484.28732   -435.14496    32966.302 
  468800    285.62329   -1488.1409    581.92447    399.81399   -571.13138    32966.302 
  468900    292.61272   -1440.7437     563.5521    460.79836    -286.2298    32966.302 
  469000    305.90746   -1441.3071    563.05836    520.53226   -979.45086    32966.302 
  469100    298.79857   -1463.2151    594.16495    497.22496   -385.73262    32966.302 
  469200    296.42414   -1482.7431    550.46833    423.14322    388.01334    32966.302 
  469300    300.58332   -1433.1771    580.74074     521.9997   -311.17435    32966.302 
  469400    305.67718   -1473.9597     590.5932    514.36154    39.313436    32966.302 
  469500    297.72397   -1474.3644    574.84051    461.83756    405.38317    32966.302 
  469600    288.33732   -1441.2004    584.71749    461.95749   -284.93863    32966.302 
  469700    295.74929   -1458.3066    577.57093    471.59647   -493.98424    32966.302 
  469800    293.39019   -1450.8227    570.32115    461.04348    -575.4086    32966.302 
  469900    288.44715   -1498.5879    548.07303    368.42779   -594.68696    32966.302 
  470000    293.49388   -1496.4748    580.82385     426.3682   -880.71743    32966.302 
  470100     301.8589   -1500.6352    567.36251    446.99609   -643.26544    32966.302 
  470200    299.40743   -1492.0491    568.78082    445.79093   -12.039518    32966.302 
  470300    301.48914   -1460.2943    560.20163    478.48529   -827.19713    32966.302 
  470400    292.20524   -1485.2651    560.51416    411.37582   -752.14888    32966.302 
  470500    294.20317    -1488.363    558.33757    415.23704   -85.945932    32966.302 
  470600     303.3353   -1456.2339    570.58473    501.37046   -639.99595    32966.302 
  470700    306.75308   -1454.7457    574.83583    522.73779    -163.0984    32966.302 
  470800    302.55123   -1479.8826    591.82116    495.37302   -161.81147    32966.302 
  470900    294.45394   -1524.3413    592.02116    414.08891    43.386674    32966.302 
  471000    301.72853   -1517.9556    579.45248    441.16944   -234.95149    32966.302 
  471100    304.09758   -1497.1153    532.54011    425.93008    351.42847    32966.302 
  471200    301.92175   -1495.9203    589.09652    473.73232    555.04872    32966.302 
  471300    299.96339   -1505.6112    609.15535    475.14557   -230.60013    32966.302 
  471400    307.95938   -1491.5384      561.521    478.14612    333.19591    32966.302 
  471500    307.05621   -1521.5631    550.59741    433.06809   -135.87256    32966.302 
  471600    277.59897   -1496.4415    576.30667    349.20386   -620.50664    32966.302 
  471700    301.29416   -1484.6284    603.55798    496.61604    -54.70667    32966.302 
  471800    298.67071   -1497.9989    565.22731    432.91888     95.56655    32966.302 
  471900    300.11765   -1512.5027    571.91267    431.71671   -263.60362    32966.302 
  472000    301.15522   -1466.0376    581.45603    492.46956   -117.60553    32966.302 
  472100    311.15182   -1467.2315    576.30893    531.83858    39.858171    32966.302 
  472200    300.59498   -1478.8742    576.61216    472.22731   -1035.0997    32966.302 
  472300    293.41476   -1437.5231     601.3423    505.47651   -691.41999    32966.302 
  472400    290.52352    -1481.469    558.44151    405.40951    -729.2524    32966.302 
  472500    293.07848   -1483.6352    559.76474    416.24926   -270.96191    32966.302 
  472600    290.52859   -1456.1193    596.81985    469.16068     -337.459    32966.302 
  472700    295.76745   -1489.8574    571.63161    434.18934   -217.90362    32966.302 
  472800    300.43698   -1477.6941    586.93776    483.01056   -16.796858    32966.302 
  472900    314.60881   -1496.7235    567.12287    508.96789    205.48792    32966.302 
  473000    298.33107   -1445.1014     597.2168    516.25288    805.70467    32966.302 
  473100      299.298   -1474.1008    572.61558    467.07361    47.225587    32966.302 
  473200    289.09742   -1468.4039    589.34362    442.85576    388.47884    32966.302 
  473300    302.46928   -1500.2915    554.69379      437.462    340.34522    32966.302 
  473400    287.32264   -1508.0073    570.42798    376.22143   -456.26144    32966.302 
  473500    293.96258   -1506.4265    575.08422    412.82001    195.81265    32966.302 
  473600    297.44241   -1455.9458    590.47552    494.60372   -14.708007    32966.302 
  473700    296.79731   -1434.3232    567.47816    490.27924   -628.01746    32966.302 
  473800    297.52808   -1447.5314    584.34356    497.27797    186.27902    32966.302 
  473900    305.66853   -1484.4781    596.29503    509.50543    678.65048    32966.302 
  474000    290.51702   -1433.2609    557.09873     452.2451    559.35788    32966.302 
  474100    295.86247   -1456.5156    599.65567    495.98968    768.36718    32966.302 
  474200    290.88053     -1468.67    600.90488    462.30435    862.15511    32966.302 
  474300    301.62447    -1449.305    573.19624    503.08794    329.15776    32966.302 
  474400    309.11069   -1451.2325    595.35024    557.54569    362.53528    32966.302 
  474500    295.93504   -1446.0661    572.98397    480.09932   -93.211614    32966.302 
  474600    303.02914   -1483.5075    619.44125    521.55345   -93.851201    32966.302 
  474700    292.49071   -1431.6733    557.74534    463.50408    521.60902    32966.302 
  474800    295.11706   -1468.3792    578.64924    459.71125     386.3114    32966.302 
  474900     297.6625    -1515.605    556.18781    401.66321   -403.97837    32966.302 
  475000    284.96059   -1526.1014     559.2731    336.17185   -140.25169    32966.302 
  475100    294.05233   -1526.9775    574.18066    391.77589    507.55079    32966.302 
  475200    306.21553   -1521.3832    585.35269    464.15911    252.35211    32966.302 
  475300    302.51194   -1485.1925    565.58411    463.64637    225.22989    32966.302 
  475400     297.5786   -1496.4269    590.63639    454.90628    468.52959    32966.302 
  475500    302.33423   -1502.8666    606.86586    486.44142   -80.175207    32966.302 
  475600    300.36699   -1466.0569    591.10283    498.49276    249.36621    32966.302 
  475700    300.69521   -1457.3133     579.3247    496.95909    94.609166    32966.302 
  475800    300.35098   -1472.5579    561.22539    462.04118   -169.47135    32966.302 
  475900    300.72537    -1507.184    591.94284    459.84441   -433.38619    32966.302 
  476000    312.63836   -1458.4225    574.64128    545.77721    -574.1355    32966.302 
  476100    305.79907   -1461.7059    562.46222    499.04177   -1081.5169    32966.302 
  476200    294.09136   -1472.9891    543.54377    415.30584   -1030.2188    32966.302 
  476300    290.36863   -1483.7235    578.82462    422.82982   -514.29391    32966.302 
  476400    301.38788   -1452.8096    569.12817    494.43352    91.567535    32966.302 
  476500    300.17847   -1436.1057    575.63356     512.1127     64.33907    32966.302 
  476600    283.65227   -1484.3773    591.68129    404.32176    176.03938    32966.302 
  476700    290.40831   -1484.2126    581.62373    425.32128    604.80428    32966.302 
  476800    293.18524   -1450.5328    589.57674    479.65177    606.84292    32966.302 
  476900    293.68942   -1479.6724    581.32408    444.56491    401.78779    32966.302 
  477000    296.03907    -1463.895    564.60217    454.36434   -97.290714    32966.302 
  477100    311.94962   -1438.9377    563.12277    550.59431   -486.32079    32966.302 
  477200    307.73611    -1470.673    571.59148    508.06109   -981.49856    32966.302 
  477300    306.46571   -1420.3407     574.2219    555.21482   -770.27679    32966.302 
  477400    299.28381    -1426.697    579.99247    521.78946   -179.93993    32966.302 
  477500    305.15477    -1431.008    576.90742    541.23867    92.307043    32966.302 
  477600    294.68736   -1433.7597    586.36572    500.08241    211.72282    32966.302 
  477700    298.96721   -1423.2736     571.0482    514.82091      344.471    32966.302 
  477800    309.12972   -1464.6059     546.7181    495.62724    58.203808    32966.302 
  477900    297.05371   -1450.1812    565.05603    473.17155   -385.17219    32966.302 
  478000    303.13954   -1427.6167    551.69311    510.20091   -146.14869    32966.302 
  478100    304.56198   -1440.4991    553.08478    505.21439   -211.59239    32966.302 
  478200     302.7309   -1428.2968    586.03178    541.99092    17.732463    32966.302 
  478300    294.49416   -1426.7134    580.07011     499.9497    133.81143    32966.302 
  478400    302.91264   -1395.4692    578.42432    568.04214    265.28864    32966.302 
  478500    300.03461   -1433.9472    586.69804    524.67791   -149.54771    32966.302 
  478600    295.04678   -1403.2087    567.86968    513.78088    -385.8493    32966.302 
  478700    305.38085    -1448.232    578.96271     527.1038   -134.00506    32966.302 
  478800     295.7724   -1441.3733    547.83725    458.90174    755.03708    32966.302 
  478900    300.90294   -1435.7593    563.22928    503.36748    309.59105    32966.302 
  479000    298.49924   -1444.6494    579.29543    499.55252    562.04435    32966.302 
  479100    288.42475   -1398.6145    604.47784    524.70357    442.99682    32966.302 
  479200    294.39619   -1418.7847    566.06415    493.42444    12.345631    32966.302 
  479300    298.49327   -1361.1746    564.51052    568.21511   -27.280152    32966.302 
  479400    300.39619    -1416.013    587.76297    545.33037   -380.03428    32966.302 
  479500    300.17215   -1403.4041    546.27577    515.42765   -692.34203    32966.302 
  479600    299.23064   -1457.9952    572.75404    483.00973   -732.71772    32966.302 
  479700    294.26724   -1446.5931    567.76302    466.72531   -476.28551    32966.302 
  479800    300.87855   -1447.0884    548.79922    477.49683   -622.54944    32966.302 
  479900    307.46484   -1421.9221    560.99766    544.97782   -179.34946    32966.302 
  480000    280.11443   -1480.8695    573.36306    373.33438   -364.87731    32966.302 
  480100     302.2941   -1413.3642    578.81315    547.70769    256.89483    32966.302 
  480200    313.18453   -1435.1535    560.94583    557.84819   -14.669355    32966.302 
  480300    294.02265   -1389.1909    598.57258    553.81862    -46.81188    32966.302 
  480400    294.46392   -1421.8787    541.68535    466.26134     89.85892    32966.302 
  480500    311.97403   -1379.1645      558.494    605.85035    491.06115    32966.302 
  480600    309.81221   -1397.7431    580.10317    598.99581   -5.8814624    32966.302 
  480700    296.99821   -1392.7831    555.52918    520.78903    622.16014    32966.302 
  480800    290.92026   -1461.8764     556.8447    425.21942   -406.98695    32966.302 
  480900    294.97483   -1482.9423     576.9161    442.76471   -737.97637    32966.302 
  481000    298.09723   -1433.1632     560.2248    490.12984     66.39012    32966.302 
  481100    302.40513    -1441.367    551.94209    493.34147    688.36119    32966.302 
  481200     296.8673   -1412.0102    602.60912    548.04324    57.707621    32966.302 
  481300    295.41397   -1392.3044    572.63415    531.12858    111.68351    32966.302 
  481400    301.08228   -1405.1597    570.66249    542.22036   -374.01209    32966.302 
  481500    295.58669   -1436.3044    582.20679    497.49099   -109.41458    32966.302 
  481600    301.69149   -1436.6061     553.1243    496.02143   -37.158771    32966.302 
  481700    308.00757   -1416.4396    590.46713    582.41142    204.99424    32966.302 
  481800     300.4641   -1451.2163    551.65515    474.32971    67.117501    32966.302 
  481900    293.77901   -1435.5405    560.46578    468.24822    220.95037    32966.302 
  482000    304.52788   -1473.0464    581.71001    501.13642   -101.11147    32966.302 
  482100    299.05703   -1469.0728    560.83542    459.21964   -95.047517    32966.302 
  482200    298.02113   -1422.5592    564.14293    504.30404    -281.7711    32966.302 
  482300    306.63265   -1443.6371     557.3081      515.768   -387.63824    32966.302 
  482400    293.10253   -1373.0823    581.52034    548.66773    81.749327    32966.302 
  482500    296.03942   -1452.8778     570.9091    471.69005   -220.11775    32966.302 
  482600    297.55368    -1424.887     559.6183    495.31417    137.84957    32966.302 
  482700    301.41344   -1384.1379    578.27306    572.36693    153.53159    32966.302 
  482800    309.51535   -1379.8076    586.43312    621.90381     173.0622    32966.302 
  482900    299.26938   -1383.3791     572.6996    557.74848    441.57359    32966.302 
  483000    297.94125   -1405.4783     563.0298    519.90652    911.44762    32966.302 
  483100    309.47948   -1442.4131    568.10241    540.80363   -427.55591    32966.302 
  483200    290.17016   -1473.6104    570.70387    423.91472   -365.29383    32966.302 
  483300    297.36306    -1473.411    572.16296    458.46319    173.62245    32966.302 
  483400    294.63915   -1421.2271    563.57184    489.60067    -343.2045    32966.302 
  483500    305.23813   -1387.6266    569.67601    577.76989    -550.6272    32966.302 
  483600    298.74905   -1431.0803    568.06594    503.03444   -1376.5498    32966.302 
  483700    306.69756   -1389.9566    574.89235    587.32953   -44.801675    32966.302 
  483800    301.33915   -1453.9519    566.45272    490.39296   -788.70034    32966.302 
  483900     301.8605   -1452.6167    579.47399    507.13332    43.164723    32966.302 
  484000    302.15847   -1425.8372    546.96003    502.76141   -42.407897    32966.302 
  484100    300.49197   -1458.3636    563.80366    479.45839   -166.94969    32966.302 
  484200    302.65569   -1457.3154    567.89992     494.4966   -285.26033    32966.302 
  484300    293.77689   -1411.9376    559.07796    490.45362    418.89046    32966.302 
  484400    303.00316   -1430.5875    568.29569    523.20907    1023.9807    32966.302 
  484500    297.87322   -1433.2848    566.14244    494.90152   -403.41358    32966.302 
  484600    303.05255   -1416.6861    560.52919    529.56985    232.62116    32966.302 
  484700    303.23035   -1396.7079    570.60104    560.43291    251.68174    32966.302 
  484800    298.54799   -1479.2156    554.54682    440.46063   -345.07936    32966.302 
  484900    299.93003   -1472.3137    561.14863    460.28381   -285.04867    32966.302 
  485000     309.2083   -1484.6811    571.51583    500.70902    211.86369    32966.302 
  485100    300.27273   -1461.1258     567.1841    479.07418   -18.448515    32966.302 
  485200    302.20267   -1455.1195    551.24311    477.96427    68.813717    32966.302 
  485300    298.02927   -1495.1389    534.45045    402.06903    480.81214    32966.302 
  485400    312.17793   -1467.5199      540.392     500.3252    183.27943    32966.302 
  485500    287.84356   -1453.9032      551.328    413.60752   -340.62873    32966.302 
  485600     295.4035   -1486.2883    576.91775    441.38047   -329.23477    32966.302 
  485700    300.48474   -1420.3977     543.0863    496.67392    -303.3208    32966.302 
  485800    298.73219   -1413.0692    548.99737     501.8998    -304.6226    32966.302 
  485900     307.3183   -1451.2971    561.71359    515.64861   -836.99209    32966.302 
  486000      299.943    -1474.762    561.24241    457.98852   -687.39204    32966.302 
  486100    306.65706   -1482.6183    536.16916    455.75943   -110.35272    32966.302 
  486200    308.84265   -1485.1375    552.38116    479.44606    128.44994    32966.302 
  486300    291.35398    -1472.459    547.90522    407.68054   -792.20369    32966.302 
  486400     297.3729   -1407.5486    571.08988    523.29748    20.126067    32966.302 
  486500    295.21813   -1413.9902    568.83685    504.75006    101.24515    32966.302 
  486600     305.4373    -1415.746    562.41104    543.29619   -27.696002    32966.302 
  486700    305.90183   -1390.5255    568.86596    577.09574    78.828334    32966.302 
  486800    297.13571   -1423.1737    558.56117    494.05912    36.340172    32966.302 
  486900    298.38066   -1405.0045    573.67492    533.03462    12.240823    32966.302 
  487000    296.05036   -1414.2654    612.43418     551.8776   -447.28035    32966.302 
  487100    304.95871   -1412.4644    559.24607    541.22445    864.31831    32966.302 
  487200    310.56496   -1441.3336    591.21553    569.95964    352.22802    32966.302 
  487300    293.15091   -1468.3927    562.12198    434.18021    121.50817    32966.302 
  487400    315.30262   -1450.7399    552.34258    543.34366   -379.45516    32966.302 
  487500    304.61534   -1425.4718    588.68894    556.08979     177.5364    32966.302 
  487600    298.84996   -1419.0146    578.21042    525.70592   -473.77202    32966.302 
  487700    298.31911   -1439.4397    569.33745    493.98055     -73.5306    32966.302 
  487800    306.61281     -1420.07    560.35985    542.29613    297.23597    32966.302 
  487900     297.2568   -1435.0101    610.38201    534.59725   -75.296553    32966.302 
  488000    301.67604   -1470.9198    536.05951    444.57234    -17.48356    32966.302 
  488100    298.87885   -1415.3908    561.02442    512.27586    445.43054    32966.302 
  488200    297.18017    -1425.168    574.23411    507.94109   -461.03347    32966.302 
  488300    297.17892   -1464.9528    593.42021    487.33665   -799.91144    32966.302 
  488400    300.33115   -1442.4796    519.95865    450.76208   -189.30795    32966.302 
  488500    303.03311   -1419.8011    567.21046    533.04719   -612.33339    32966.302 
  488600    304.35662   -1438.7278    559.61916    512.58103   -725.93887    32966.302 
  488700    311.80317   -1437.2632    551.85481    540.33112    328.80828    32966.302 
  488800    291.76739   -1429.3283    578.05433    482.85066   -465.46407    32966.302 
  488900     290.2378   -1440.7331    546.69354    433.09091   -145.17851    32966.302 
  489000    299.54706   -1466.3043    565.78458    469.17794    -509.1268    32966.302 
  489100    300.28122   -1400.8029    569.80073    542.05247   -237.39708    32966.302 
  489200    301.88274   -1397.7822     574.3101    556.90562   -1006.4274    32966.302 
  489300     295.7047   -1419.3084    562.25187    495.07171   -841.03708    32966.302 
  489400    307.48107    -1427.261    561.84368     540.5591   -466.06678    32966.302 
  489500    309.35048   -1453.9084    562.67995    523.29604   -629.67233    32966.302 
  489600    297.02176   -1441.1091    578.15749    495.19894    -364.6003    32966.302 
  489700      308.821   -1409.5387    576.33139    578.89603   -74.160615    32966.302 
  489800    303.57254   -1423.3184    538.50604    503.29209   -96.479322    32966.302 
  489900    301.05041   -1440.0138    572.13088    508.68891    205.54853    32966.302 
  490000    289.15531   -1436.5479    599.75551    485.38843    324.19506    32966.302 
  490100    293.30452   -1437.8285    569.30923    472.63398    345.35528    32966.302 
  490200    297.93036    -1448.675    557.18968    470.81987   -130.62185    32966.302 
  490300    297.50972   -1478.0907    546.98791    429.27902    101.73006    32966.302 
  490400    303.00255   -1464.3387    594.00229    515.16174   -810.49663    32966.302 
  490500    303.48362   -1420.2631    587.01182    554.44658   -229.99422    32966.302 
  490600    301.07396   -1490.3198    539.23656    425.59628   -437.61171    32966.302 
  490700    307.70783   -1448.2146    552.91634    511.71501   -560.19502    32966.302 
  490800    305.15619   -1426.0974    573.41253    542.66097   -344.78868    32966.302 
  490900     293.9812   -1436.2174    564.88011     472.9102   -1445.8509    32966.302 
  491000    299.18207   -1387.9247    563.24336    543.34736   -951.55228    32966.302 
  491100    306.02539   -1412.7899     571.5392    558.06951   -460.55297    32966.302 
  491200    307.92192    -1454.436    577.03709    530.59338    -340.8687    32966.302 
  491300    305.76871   -1458.6409    554.00346    493.50919     90.07729    32966.302 
  491400    296.12937    -1472.802     581.0505    462.31857    305.14809    32966.302 
  491500    302.44805   -1503.1012    570.60772    450.46919    621.59785    32966.302 
  491600     296.9632   -1487.6319    533.08444    403.33535    313.45092    32966.302 
  491700    302.80669   -1446.0514    592.21564     530.7668   -671.87293    32966.302 
  491800     300.9462   -1371.5838    552.13943    556.65099   -907.70635    32966.302 
  491900      290.121    -1431.142    589.15761    484.61205   -610.81305    32966.302 
  492000    301.34546   -1428.7086    607.19895    556.41131   -473.10739    32966.302 
  492100    297.83222   -1441.2401    549.13222    469.74859    163.11289    32966.302 
  492200    307.29971   -1449.2955    561.69757    517.54924     526.9051    32966.302 
  492300    294.02566   -1471.0821    557.53474    430.90334    420.02488    32966.302 
  492400    302.36988   -1468.9008    587.68702     501.3914    1130.0798    32966.302 
  492500    299.12984   -1473.4967    538.37979    432.67305    390.98977    32966.302 
  492600    293.45648   -1467.5369    574.32126    448.63248   -458.45806    32966.302 
  492700    300.66082   -1469.3436    583.18582    488.63261   -594.78816    32966.302 
  492800    305.81334   -1490.3763     552.7787    460.75299   -246.74548    32966.302 
  492900    295.51968   -1450.2073      591.318    492.39294   -390.61353    32966.302 
  493000    301.75033   -1475.0301    564.10553    468.84773   -270.21187    32966.302 
  493100     300.2404   -1522.9455    556.14579    406.06827   -31.423259    32966.302 
  493200    301.20309   -1480.5952    543.06117    439.73598   -482.77878    32966.302 
  493300    301.13487   -1471.6985    573.48165    478.74119   -598.90881    32966.302 
  493400    297.18694   -1406.7531    566.00632    518.15913     175.8051    32966.302 
  493500    300.75686   -1435.5245    571.03533    510.74036   -124.61314    32966.302 
  493600    299.59765   -1439.5117    572.13901    502.55628   -156.98448    32966.302 
  493700    290.42521   -1446.2241     575.9742     457.7376     368.6002    32966.302 
  493800    315.35221    -1433.042    559.40115    568.32683    166.55152    32966.302 
  493900    300.70602   -1497.9536    598.75882    475.80226   -73.510139    32966.302 
  494000    294.21579   -1455.0635      587.783     478.0396    154.72109    32966.302 
  494100    300.98205   -1476.8874     549.1463    448.51812    389.95119    32966.302 
  494200    299.17337   -1478.7559    592.69149    481.92458    506.49337    32966.302 
  494300    299.12649   -1472.3292    551.37587    446.82131   -868.79372    32966.302 
  494400    304.52097   -1437.3987     594.5878    549.63034   -353.85077    32966.302 
  494500    288.60273   -1407.5255    569.98971    482.11826   -617.10969    32966.302 
  494600    305.51802    -1426.041     560.0788    531.03808   -154.38872    32966.302 
  494700    306.61779   -1403.9033    562.26324    560.38902    257.27571    32966.302 
  494800    293.82038   -1419.1583    599.42787     523.7817    2.9571193    32966.302 
  494900    293.50816   -1429.2983    594.02708    506.81322    148.49711    32966.302 
  495000    298.33912   -1496.9442     572.2445    439.47462    175.72368    32966.302 
  495100    288.73356   -1450.7478    554.95426    424.45879    552.76481    32966.302 
  495200    313.03311   -1403.5598    570.96509    598.76874    566.22626    32966.302 
  495300    313.41054   -1439.2043    588.35623    582.24127   -245.63444    32966.302 
  495400    297.13444   -1446.2406    563.64792    476.07315    584.46947    32966.302 
  495500    310.29822   -1434.1422    577.80943    562.52533    86.267556    32966.302 
  495600    293.79657   -1424.2646    584.50568    503.64427    -130.0813    32966.302 
  495700    297.14035   -1459.1341    593.81518    493.37398   -31.324573    32966.302 
  495800    288.94148   -1460.1633    554.84652    415.88626   -240.49505    32966.302 
  495900    300.31481   -1451.7513    565.16333    486.62036    170.24566    32966.302 
  496000     312.5693   -1443.3014    542.38585    528.32717    1102.2176    32966.302 
  496100    303.77282   -1510.6586    588.24157    466.60319    762.65751    32966.302 
  496200    305.69687   -1470.5154      587.088    514.39065   -185.33514    32966.302 
  496300    300.74087   -1424.6228    565.75527    516.28896     238.8351    32966.302 
  496400    293.44674   -1451.3578    571.07116      461.517    122.08957    32966.302 
  496500    311.54347   -1453.9202    590.25347    560.88529    771.01682    32966.302 
  496600     298.4765   -1452.5841    592.69541    504.91379   -1.5654009    32966.302 
  496700    300.43092   -1431.4652    576.43766    518.71168   -20.032273    32966.302 
  496800    303.00742   -1451.0952    579.89536    514.32054     199.5876    32966.302 
  496900    295.07329   -1444.8704    621.22411    525.59487    126.42597    32966.302 
  497000    303.80694   -1435.9861    575.59115     528.7813    783.70178    32966.302 
  497100    302.50441   -1436.7203    574.01567    520.51572   -199.38005    32966.302 
  497200    301.57361   -1459.9777    577.42653    496.41311    -336.5097    32966.302 
  497300    304.35272   -1457.7027    568.97709     502.9463   0.98440745    32966.302 
  497400    297.59757   -1458.0406    551.33238    454.07528    477.99712    32966.302 
  497500    299.26153   -1461.7482    600.83028    507.47413    297.42839    32966.302 
  497600    305.60621   -1441.8651    552.66594    508.20433    381.73574    32966.302 
  497700    300.18995   -1441.8279    604.98813    535.79756    663.00219    32966.302 
  497800    305.10445   -1445.2474    595.39588    545.25771    764.23386    32966.302 
  497900    310.40958   -1450.0386    565.32839      534.657    782.95719    32966.302 
  498000    301.25103   -1429.5001     584.5257    532.51477    699.75721    32966.302 
  498100    294.96002   -1476.8814    566.19838    438.04018   -204.44721    32966.302 
  498200    303.50077   -1462.0933     553.5106    479.19354   -214.99451    32966.302 
  498300    303.42656     -1480.96    562.58208    469.05899    -149.6161    32966.302 
  498400    297.68461   -1445.1615    567.56245    483.58247   -22.475119    32966.302 
  498500    313.32756   -1443.7932     555.5787    544.49542   -6.7792417    32966.302 
  498600    294.29055   -1404.7314    575.66896    516.59956   -377.50626    32966.302 
  498700     301.4902   -1421.2539    562.21191    519.54085     113.9978    32966.302 
  498800    301.19951   -1408.5607    531.73854     500.4315    222.22241    32966.302 
  498900    303.76343   -1461.7339    602.06939    529.31281    23.158861    32966.302 
  499000    295.53322   -1449.1904    554.28365    456.43736    185.50623    32966.302 
  499100    310.79014   -1433.1802    560.05105    547.97824    510.42014    32966.302 
  499200    303.44737   -1425.7246    621.39894    583.20643   -99.959172    32966.302 
  499300    307.92132    -1432.623     565.6176    540.98416    246.82079    32966.302 
  499400    295.44976   -1437.5283    574.78993    488.22411   -95.845311    32966.302 
  499500    293.03174   -1438.9956    589.42385    490.33426   -341.42169    32966.302 
  499600     296.2898   -1400.5193    588.35265    542.63701   -505.06927    32966.302 
  499700    292.23945   -1399.8021    549.84876    486.32979   -349.69774    32966.302 
  499800    305.27554   -1429.0003    579.08782    545.97904   -648.05198    32966.302 
  499900    308.64743   -1431.1408    569.43111    549.59999    128.32407    32966.302 
  500000    290.97358   -1448.0944    596.10704    478.50752    936.43504    32966.302 
  500100    308.75515   -1412.4432    576.41274    575.77183    198.02447    32966.302 
  500200    302.03601   -1445.4905    572.14282    507.73088    529.86956    32966.302 
  500300    300.01118   -1434.9107    563.41016    500.31937    532.35316    32966.302 
  500400    304.32503   -1435.5319    550.99707    507.01046   -2.2270242    32966.302 
  500500    313.75256    -1454.595    560.99531    541.05351    194.94663    32966.302 
  500600    310.98924   -1443.4577    573.86134    552.42142    167.01147    32966.302 
  500700    308.77202   -1440.5059    541.24636    512.61986    34.603015    32966.302 
  500800     293.2752   -1466.0702    560.01222    434.96121   -10.247924    32966.302 
  500900    302.16645   -1408.1081    546.62084    520.18771   -118.68292    32966.302 
  501000    309.12755   -1453.1738    562.00285    522.33414   -24.433391    32966.302 
  501100    299.53845   -1474.1038    566.07047    461.62497   -98.278008    32966.302 
  501200    295.73724   -1435.7658    551.00509    467.51631    60.512675    32966.302 
  501300    293.61311   -1441.7638    556.58224    457.38278   -1195.3102    32966.302 
  501400     300.2448   -1496.1039    577.07933    453.86354   -948.71106    32966.302 
  501500    307.52703   -1446.0828    559.63318    519.73695    354.07093    32966.302 
  501600    301.65545   -1483.6756     557.0784    452.74124     428.1703    32966.302 
  501700    302.33129   -1487.0704     588.3503    483.70864   -125.23908    32966.302 
  501800    297.35951   -1485.0371    533.06564    407.72349   -850.95616    32966.302 
  501900    293.85358   -1468.5874    581.12006    456.19655   -587.36562    32966.302 
  502000    300.31449   -1410.2618    557.23534    520.18035   -530.00613    32966.302 
  502100    291.61144   -1432.2345    560.34174    461.51882    119.65819    32966.302 
  502200    294.38267   -1453.9383    560.42462    452.56946    395.54687    32966.302 
  502300    290.91003   -1421.4089    545.54181    454.33724    271.80405    32966.302 
  502400    303.30036   -1451.4859    559.23187    494.60586   -619.46082    32966.302 
  502500    302.92574   -1387.6964    574.45122    571.90177    195.95458    32966.302 
  502600    294.35642   -1419.8904    571.22335    497.29606    749.65258    32966.302 
  502700    304.01157   -1446.3894    568.54075    512.26334   -65.134739    32966.302 
  502800    290.46637   -1459.4886    576.52528     445.2123    15.684258    32966.302 
  502900    290.77141   -1420.4482    560.53691    469.65916   -75.376695    32966.302 
  503000    301.74589   -1380.6439    555.66972    554.77777    840.13501    32966.302 
  503100    299.05278   -1427.8213    555.25809    494.87432   -465.44411    32966.302 
  503200    297.16352    -1428.334    554.01456    484.47938   -254.35847    32966.302 
  503300    302.79945   -1450.2159    577.25367    511.60727      563.512    32966.302 
  503400    307.56748   -1430.1965       563.13    539.30504    1148.0059    32966.302 
  503500     289.9908   -1412.4468    575.67573    489.23001     768.4476    32966.302 
  503600    303.56208   -1444.6267    600.07734    543.50728    1127.7483    32966.302 
  503700    298.03717   -1429.7917    588.90943    521.91139    787.93199    32966.302 
  503800    299.22934   -1418.4957    571.74195    521.49112    343.74455    32966.302 
  503900    305.63643   -1463.4773     587.3814    521.44584    100.32319    32966.302 
  504000    299.18404   -1449.1932    547.25566     466.1002    53.237977    32966.302 
  504100    300.94515   -1421.6035    577.25949    531.74654   -417.65872    32966.302 
  504200    299.43185    -1406.763    586.57088    548.97874   -976.80369    32966.302 
  504300    299.95219   -1444.6312    577.07012    503.98906   -464.98971    32966.302 
  504400    301.75426   -1464.9952    556.96477    471.75982    -150.7936    32966.302 
  504500    303.35096   -1450.7136    554.05552     490.4332    -470.3093    32966.302 
  504600    301.60182   -1456.9478    571.66595    493.81135   -725.31516    32966.302 
  504700    302.99404   -1488.5452      549.104    446.01805   -154.13069    32966.302 
  504800    298.31865   -1450.2513    545.06111    458.89053    4.1466017    32966.302 
  504900    308.11132   -1500.0433    560.39269    469.20766   -133.89768    32966.302 
  505000    299.32368   -1507.6765    558.54159    419.54138     32.18136    32966.302 
  505100    301.01895   -1524.7858    557.37277    409.01496    195.51234    32966.302 
  505200     301.9888   -1471.2386     581.0745    490.69866     232.7867    32966.302 
  505300    299.11604   -1458.4123    530.86614    440.18063   -139.19591    32966.302 
  505400    300.56805    -1400.374    578.81245    552.80467    610.63695    32966.302 
  505500    295.37054   -1442.3338    567.34797    475.61443    124.93878    32966.302 
  505600    305.20916   -1424.4502    590.71457    561.85241    132.41619    32966.302 
  505700    300.62969   -1413.7837    581.64435    542.50876   -207.35911    32966.302 
  505800    294.89853   -1391.7063    556.72394    513.45966    386.60913    32966.302 
  505900    296.36291   -1412.0863    578.81956    521.87121    444.64213    32966.302 
  506000    307.64924   -1470.2413    574.97893    511.48303   -23.147999    32966.302 
  506100    306.02091   -1440.2445    589.34849    548.40372   -14.165897    32966.302 
  506200    306.20558   -1464.6757     533.8537    469.32224    208.56273    32966.302 
  506300     291.0412   -1475.4406    576.03753    431.40106   -769.47138    32966.302 
  506400    331.36963    -1492.522    550.91993     573.6063   -227.81492    32966.302 
  506500    302.02579   -1447.5194    585.52507    519.03753   -669.61493    32966.302 
  506600     287.5508   -1492.6433    605.43673    427.63749   -679.90635    32966.302 
  506700     300.1818    -1468.339    563.56405     467.8251    207.51985    32966.302 
  506800    306.53483   -1441.1624    540.11792    500.60525   -246.41091    32966.302 
  506900    297.23607   -1475.5199    571.19164    454.80228   -4.1842317    32966.302 
  507000     283.9191   -1488.6514    583.03322    392.61969   -109.50721    32966.302 
  507100    296.50645    -1466.402    551.91497    441.30726    136.20838    32966.302 
  507200    303.67255   -1449.3161    576.51699     515.7626    370.80244    32966.302 
  507300    298.44912   -1489.6561    572.11281    447.13402   -21.809384    32966.302 
  507400    300.46984   -1485.0828    575.77263    464.60696     685.1273    32966.302 
  507500    298.27348   -1467.4511    578.28011    474.70315    -147.4448    32966.302 
  507600    295.72252    -1457.875    555.63845    449.97323    148.97633    32966.302 
  507700    287.49515   -1473.8675    574.54654    415.26858    539.61104    32966.302 
  507800    301.03663   -1492.4106    564.03714    448.13542    775.98297    32966.302 
  507900    298.52843    -1480.132    565.55071     450.4587    388.96181    32966.302 
  508000    306.63484   -1423.4102    569.28231     547.9791   -147.44483    32966.302 
  508100    302.15747   -1453.3384    553.47681    481.77236   -922.44177    32966.302 
  508200    297.67478   -1447.0909    570.17458    484.22023   -745.44901    32966.302 
  508300    299.37767   -1510.7443    575.36075    433.53957   -573.89337    32966.302 
  508400    306.95901   -1521.2984    559.04049    441.33138   -373.80785    32966.302 
  508500    293.24064   -1482.9891    556.63913    414.51122   -316.90593    32966.302 
  508600    302.16866   -1486.7785    580.28756    475.19424   -485.27024    32966.302 
  508700    298.46394   -1500.6468    552.39617    416.49443    57.293905    32966.302 
  508800    301.64568   -1477.2362    598.67329     500.7309   -80.047296    32966.302 
  508900      293.008   -1456.2032    591.93181     475.5261    -454.7073    32966.302 
  509000     305.0426   -1494.0625    555.15239    455.91625   -314.26788    32966.302 
  509100    296.63515   -1456.8102    555.74127    455.31381   -712.73449    32966.302 
  509200    296.28282   -1520.6395    578.56952     412.7018   -874.81639    32966.302 
  509300    302.35377   -1497.1611    555.24275     440.6132   -965.27834    32966.302 
  509400    292.82717   -1439.7519    552.42489     451.6436   -261.98645    32966.302 
  509500    286.41548   -1456.8713    538.94714    391.72855   -127.06359    32966.302 
  509600    286.82007   -1494.7879     578.0609    394.77577   -260.21541    32966.302 
  509700    298.27103    -1483.524    582.98742    463.32633   -87.474284    32966.302 
  509800     303.1952   -1498.6229    561.59544    449.35155   -7.8524531    32966.302 
  509900    306.43633   -1489.2071    565.29063    477.28278    144.87894    32966.302 
  510000    306.25881   -1450.4019    557.82257    507.80823    52.843736    32966.302 
  510100    295.59815   -1471.3424    604.44508    484.74373    270.74134    32966.302 
  510200    312.39171   -1489.0509     576.0346    515.41431   -1037.2976    32966.302 
  510300    295.75077   -1490.1451    548.29809    410.49186   -451.17539    32966.302 
  510400     310.6854   -1460.2633     570.3913    530.75646   -451.85002    32966.302 
  510500    301.77226   -1463.7453    581.95986    498.08707   -620.84576    32966.302 
  510600    310.23893   -1469.3315    563.26987    512.52533   -88.618828    32966.302 
  510700    299.88431   -1412.1151    578.64958    537.77432    23.129722    32966.302 
  510800    296.50996   -1473.3093    561.75823    444.25933   -373.87933    32966.302 
  510900    304.11184   -1463.0284    554.55792    482.09994    58.062745    32966.302 
  511000    299.03948   -1499.4574    587.20048     455.1198    257.60862    32966.302 
  511100    299.53529   -1466.1002    583.46713    487.01081    30.801313    32966.302 
  511200    298.51337   -1442.6038    576.92839    499.29562   -302.41399    32966.302 
  511300    288.03958   -1394.1528    591.42815    514.35438   -126.30226    32966.302 
  511400     301.8973   -1429.6117    575.61418     526.4468   -101.30549    32966.302 
  511500    299.29979   -1404.1804    577.86347    542.25012    527.01709    32966.302 
  511600    301.41574    -1454.296    580.92024    504.86655    304.41148    32966.302 
  511700    301.77604   -1421.3421    561.36531    519.91301    998.65814    32966.302 
  511800    302.75357   -1456.0626    587.06202    515.35908    981.68296    32966.302 
  511900    299.70203   -1501.2584    587.41246     456.5604    245.76943    32966.302 
  512000    293.98928   -1474.5403    567.05217     436.7963    270.95384    32966.302 
  512100    307.94722   -1470.6451    563.63559    501.09846    610.80762    32966.302 
  512200    303.18968   -1457.5667    596.56432    525.35145   -362.60643    32966.302 
  512300    310.99852   -1463.2915    563.43529    522.20401   -675.46925    32966.302 
  512400    299.15687   -1459.5086    593.64389    502.04879    86.247877    32966.302 
  512500    299.79696   -1448.9795    573.14616    495.00699    195.13653    32966.302 
  512600    306.55566   -1434.5896    571.38917    538.54449    204.89027    32966.302 
  512700    301.82485   -1464.3274    557.52839    473.31406    497.97708    32966.302 
  512800    297.19015   -1476.7161     604.4126    486.61708   -148.27581    32966.302 
  512900    291.32097   -1484.1387    557.57503     405.5197   -306.60855    32966.302 
  513000    303.43078    -1507.697     564.3219    444.08121    291.55564    32966.302 
  513100    300.69579   -1513.3035    566.13717    427.78405    140.05048    32966.302 
  513200     308.6509   -1475.7735    560.81909    496.37113    16.010013    32966.302 
  513300    311.26638   -1504.0588    531.21507     450.4413    642.24036    32966.302 
  513400    305.60571   -1506.0455    578.77419    470.12998   -140.29612    32966.302 
  513500    295.53656   -1496.0554    563.20318    418.50715   -616.77947    32966.302 
  513600    300.82773   -1525.8615    566.06873    415.76084    139.18832    32966.302 
  513700    304.49851   -1523.4501    560.17347    429.06191    972.71063    32966.302 
  513800    304.11263   -1477.1345    578.35701    491.79651    325.30982    32966.302 
  513900     297.8302   -1503.7865    553.26456    411.32528    636.01819    32966.302 
  514000    297.30887   -1519.3995      564.667    404.73096    921.45339    32966.302 
  514100    298.36108   -1501.9849    549.25716      411.547      40.2634    32966.302 
  514200    306.11019   -1498.3971    573.44772    474.75867   -397.58073    32966.302 
  514300    296.77976   -1498.5318    556.52946    415.04168   -72.546804    32966.302 
  514400     302.6859   -1506.6258    552.93909    430.36348   -4.5152289    32966.302 
  514500    308.35125    -1493.607    570.43458    486.78296   -468.46319    32966.302 
  514600    304.01323   -1488.0707    574.64872    476.69752   -630.47767    32966.302 
  514700    300.97828   -1468.1295    543.27353    451.38603   -1514.6833    32966.302 
  514800    293.17313   -1501.7313     542.0349    380.85612   -625.11735    32966.302 
  514900    304.29172   -1530.2665    577.22775    438.35419    -384.2858    32966.302 
  515000    294.58186   -1467.7674    594.93827    474.16485    373.04874    32966.302 
  515100    293.03389    -1485.906    549.24102    403.25083    372.42625    32966.302 
  515200     308.8139   -1511.0336     570.4671    471.50438    16.802302    32966.302 
  515300    298.19399   -1460.0576    568.81881    472.27191   -651.20175    32966.302 
  515400    310.01614   -1512.8282    566.41344    471.15342   -304.73364    32966.302 
  515500    306.60521   -1457.0768    577.39124    522.28593   -343.26864    32966.302 
  515600    306.12434      -1451.8    562.80848    510.78122   -662.93366    32966.302 
  515700    299.63052   -1480.9564    582.34685    471.46971   -257.16494    32966.302 
  515800    266.32104   -1489.1014    623.23864    351.90686    -1268.682    32966.302 
  515900    351.36095   -1489.7475    569.99617     686.8686   -381.62954    32966.302 
  516000    291.16625    -1472.038    519.65157    378.98946    -863.9405    32966.302 
  516100    311.29289   -1464.4821    593.16726    552.09138   -978.35885    32966.302 
  516200    299.19818   -1493.9601    555.20417    429.34648   -102.43957    32966.302 
  516300     297.9146   -1506.0172    568.83341    425.04942    287.41511    32966.302 
  516400    296.10261   -1514.1296    589.86109    429.67926    292.26508    32966.302 
  516500    303.64537   -1521.0492    580.12756    447.51584   -435.39041    32966.302 
  516600    299.35093   -1508.9435    559.11102    418.96835   -6.8750165    32966.302 
  516700      293.737   -1454.4351    549.45429    438.15005    438.32926    32966.302 
  516800    302.53149   -1498.5161    628.59685    513.42493   -855.12677    32966.302 
  516900    302.33169   -1494.0456    581.66098    470.04595   -764.48361    32966.302 
  517000    292.20479   -1474.0257    570.47056    432.56956    291.81083    32966.302 
  517100    311.32163   -1448.7939    575.21182    549.95564    356.02567    32966.302 
  517200    300.55099   -1489.0111    564.08189    449.35904    65.811828    32966.302 
  517300    295.21899   -1523.0603    561.90564    388.75262   -76.995838    32966.302 
  517400    295.38946   -1490.0656     576.4784    437.09967   -689.55914    32966.302 
  517500    305.44435   -1457.7127    581.94164    520.89237   -407.82789    32966.302 
  517600    298.79203   -1480.2315    551.64489    437.65866    641.23115    32966.302 
  517700    301.56462   -1490.7333    579.15412    467.34398   -26.001711    32966.302 
  517800    302.61711   -1523.5411    573.06188    433.25643    297.61636    32966.302 
  517900     300.4896   -1537.7989    548.13424    384.34288    1048.4541    32966.302 
  518000    298.01809   -1524.5022    577.71196    415.91615    1416.3041    32966.302 
  518100    301.03837   -1514.6675    571.16757    433.01689    991.69938    32966.302 
  518200    297.63482   -1512.5777    560.80307    409.17928    640.29334    32966.302 
  518300    296.40709   -1485.4782    578.50908    448.37088   -99.880878    32966.302 
  518400    296.84018    -1479.076     582.4365    460.68076   -292.78845    32966.302 
  518500    292.13476   -1434.4406     581.6005    482.96441     544.2007    32966.302 
  518600    295.36985   -1478.0622    620.69938    493.23428    505.39428    32966.302 
  518700    302.78151   -1481.6048    597.15311    500.03575    16.997665    32966.302 
  518800     297.4286   -1449.9349    588.74981    498.82582    592.63551    32966.302 
  518900    301.81529   -1470.9665    588.21718    497.32002    160.83131    32966.302 
  519000    309.62494   -1478.4242     595.6109    532.96612     40.05146    32966.302 
  519100    293.42629   -1418.0894    577.22852    500.84921   -254.92995    32966.302 
  519200    306.03384   -1435.0737    581.93989    546.22506    448.88048    32966.302 
  519300    301.05805   -1466.3567    588.23912    498.48921   -167.28429    32966.302 
  519400    291.06039   -1447.8178    622.46295    505.53698   -234.79288    32966.302 
  519500    308.16383   -1452.9546    568.08206    524.22585    539.62153    32966.302 
  519600    293.53992    -1422.708     589.5167    509.03836    190.74561    32966.302 
  519700    309.29361   -1416.1743      629.874    627.96412    -302.7935    32966.302 
  519800    308.42109   -1492.0716    536.52602    454.72914     830.2243    32966.302 
  519900    302.85052    -1473.468    566.06187    477.39681    207.09672    32966.302 
  520000    298.42478   -1460.0664     615.4939    519.99351    -618.6269    32966.302 
  520100    297.27096   -1444.1867    544.79549    459.89888   -659.41621    32966.302 
  520200     301.8305   -1475.4945    563.97089    468.61525   -678.29901    32966.302 
  520300    298.41034   -1478.0161    593.43558    479.91943   -104.06541    32966.302 
  520400    309.91541   -1480.5595     571.5816    508.12973    176.08847    32966.302 
  520500    291.28744   -1498.8095    591.13626    424.25682    255.31857    32966.302 
  520600    302.54589   -1527.4899    559.91624    415.83636     81.52212    32966.302 
  520700     292.5839   -1532.8255    576.59977    381.63241    387.92247    32966.302 
  520800    299.21337    -1526.671    578.50085    420.00174     487.7655    32966.302 
  520900    302.62706   -1471.1805    607.22698    519.82762    332.86017    32966.302 
  521000    297.81024   -1529.1364    545.71627    378.33582   -14.702826    32966.302 
  521100    297.53724   -1537.9213    560.62423    383.21054    106.49002    32966.302 
  521200    303.44531   -1511.7436    577.78358    453.56263     137.5388    32966.302 
  521300     302.4193   -1526.5599    578.74308    435.01435    726.50497    32966.302 
  521400    310.98551   -1524.3122     547.9194    445.60794    1250.4733    32966.302 
  521500    290.33174   -1495.7768    565.51795    397.30126    462.00782    32966.302 
  521600    310.39712   -1497.5692    605.14543    526.88652     123.9028    32966.302 
  521700    304.47639   -1464.1523     582.6628    510.74789   -47.073756    32966.302 
  521800    299.04447   -1463.4706    567.94411    471.87303    279.23687    32966.302 
  521900    303.31588   -1501.7494    568.40401     453.5854   -400.24156    32966.302 
  522000    298.52481   -1507.1009    565.36921    423.29167    284.07961    32966.302 
  522100    309.86391   -1483.2431    597.65577    531.28474    21.441896    32966.302 
  522200    299.10984   -1447.6644    582.06594        502.1   -114.52137    32966.302 
  522300    305.78883   -1415.9694    586.43186    568.70105    1039.4587    32966.302 
  522400    306.31079   -1432.3607    588.43818     556.7028   -224.30468    32966.302 
  522500    291.89422   -1457.4214    610.03083      487.314    5.4124639    32966.302 
  522600    296.33945   -1465.4281    582.38872     471.9913    145.46801    32966.302 
  522700    306.90868     -1477.59    570.89013    496.65932    591.46091    32966.302 
  522800    294.07115   -1514.3017    600.45824    430.81529    79.061469    32966.302 
  522900     298.3002   -1471.5868     599.0492    491.45876   -351.18882    32966.302 
  523000    293.12407   -1442.6788    603.07431    500.72367   -628.25924    32966.302 
  523100    303.94717   -1483.3061    562.72046    469.23185   -332.15357    32966.302 
  523200    308.09406   -1479.9465    576.47497    505.30791   -405.68327    32966.302 
  523300    301.78173    -1499.538    584.92733    465.30518   -483.03717    32966.302 
  523400    286.39872   -1498.6439    584.98747    395.91962   -25.340705    32966.302 
  523500    294.13179   -1485.0769    614.54638    474.40553    41.383071    32966.302 
  523600    297.37579   -1479.5284    591.62565     471.8667   -204.26641    32966.302 
  523700    305.00258   -1478.3416    565.59118    481.89295   -12.571347    32966.302 
  523800    302.77229   -1444.6064    569.89798     509.7368    274.34084    32966.302 
  523900    299.77814   -1448.7967     613.1105     535.0681    461.36378    32966.302 
  524000    290.95794   -1463.7679    609.84287    476.49841   -32.791762    32966.302 
  524100    297.98805   -1464.6239    587.09009    485.03522   -365.48166    32966.302 
  524200    296.14236   -1457.2082    584.29802    481.21924    365.33396    32966.302 
  524300    308.69899   -1415.4956     594.2369    590.28677  -0.82882005    32966.302 
  524400    299.91355   -1464.5954    588.84398     495.6221   -71.866695    32966.302 
  524500    288.45795   -1451.6785    599.78896    467.10245    528.36497    32966.302 
  524600    302.52374   -1413.7576    574.60089    544.15199   -161.72097    32966.302 
  524700    314.02553   -1448.5202    582.51723    569.89846   -334.60753    32966.302 
  524800    290.57386   -1485.9954    559.85683    402.52856   -228.96996    32966.302 
  524900    304.95427   -1488.3491    569.89639    475.96973   -108.81761    32966.302 
  525000    295.30578   -1455.2596    589.06358     484.1081   -193.31829    32966.302 
  525100    302.35951   -1457.7818    595.61322     520.3892   -744.55089    32966.302 
  525200    295.34103   -1393.7494    575.76154    532.47753    308.01652    32966.302 
  525300    291.14198   -1414.4189    583.32209    500.16818   -39.895089    32966.302 
  525400    308.31171   -1495.9191    582.23168     496.0872     70.24452    32966.302 
  525500    305.85608   -1517.0025    583.64851    465.19207   -69.174414    32966.302 
  525600    297.17301   -1472.7913    569.55372    455.60463   -334.94985    32966.302 
  525700    289.55599   -1452.8079    589.51541    460.72045   -1195.0754    32966.302 
  525800    303.00563   -1455.0724    578.92343    509.36326   -1146.2588    32966.302 
  525900    303.34657   -1413.1504    557.36774     531.2885    253.48186    32966.302 
  526000    300.26839    -1479.846    581.45269    474.60266    487.90696    32966.302 
  526100    302.99672   -1473.2549    589.18109    501.39771    249.23339    32966.302 
  526200    308.86806   -1451.8252    594.48971    554.98311    765.93996    32966.302 
  526300    299.38792   -1434.5387     579.8972    514.32855    836.95883    32966.302 
  526400    296.17128   -1448.6237    613.11241    518.75044    657.87251    32966.302 
  526500    299.53495   -1471.1013    584.65618    483.19717    394.65075    32966.302 
  526600     303.8835   -1457.6741    608.74287    540.59506    450.22732    32966.302 
  526700    298.90447   -1425.4653    538.86534    480.15943    640.91719    32966.302 
  526800    301.94676   -1477.2377    612.76857    516.20131    834.31363    32966.302 
  526900    289.97403   -1485.2641    569.71479    410.37516    840.71608    32966.302 
  527000     286.4567   -1463.2203    595.66244    442.28334    1433.4474    32966.302 
  527100    289.70015   -1500.4531    583.96142    408.18041    375.98499    32966.302 
  527200    299.55437   -1470.7427    593.62709    492.61551   -379.80741    32966.302 
  527300    301.78058   -1432.8975     576.7503    523.76338    288.39486    32966.302 
  527400    294.92554   -1442.6477    555.06607    460.98389   -331.37841    32966.302 
  527500    304.56694   -1456.3427    609.67265    545.98131   -461.15911    32966.302 
  527600      301.289   -1494.0763    569.07468    452.66119    129.19763    32966.302 
  527700    296.33898   -1467.7846    599.84442    487.08838   -308.74267    32966.302 
  527800    294.14252   -1473.7572    557.11687    428.34475    338.38347    32966.302 
  527900     300.4929   -1426.3679    569.86996    517.52464    390.68658    32966.302 
  528000    300.79982   -1471.9632     590.5637    494.02653    27.705854    32966.302 
  528100    300.52846   -1427.0225    603.97848    551.14118   -287.65274    32966.302 
  528200    301.98276   -1454.7626    594.61259    520.68508    337.79619    32966.302 
  528300    310.72609   -1489.5966    563.26529    494.48324    1176.1931    32966.302 
  528400    308.70175   -1456.5716    541.51446    496.50092    868.76255    32966.302 
  528500    300.09809   -1475.1258    583.75689    480.84837    637.25054    32966.302 
  528600    302.41997   -1479.7394    564.09178    467.18663    420.45025    32966.302 
  528700     308.5496   -1474.5836    574.73094    511.00966   -680.63787    32966.302 
  528800    293.95341    -1493.004    586.46488    437.58123   -1218.9782    32966.302 
  528900    301.82701   -1495.7857    553.64429     437.9815   -165.47363    32966.302 
  529000    296.00732   -1454.6285    593.84579    492.72931   -841.66256    32966.302 
  529100    300.24351   -1447.8578    567.96398    492.98842   -597.23129    32966.302 
  529200    315.88755   -1507.9807    568.63352    505.06839   -234.81569    32966.302 
  529300    289.93151   -1452.4356    574.42744    447.72183    537.18726    32966.302 
  529400    308.85715    -1478.806    572.30288    505.76556    163.30033    32966.302 
  529500    301.10995   -1464.1613    586.14408     498.8269    801.29653    32966.302 
  529600    300.72387    -1479.264    568.50291    464.31763    349.40644    32966.302 
  529700    302.26845   -1494.4801    582.41134    470.07264    839.35979    32966.302 
  529800     292.4426   -1459.7788     581.2299    458.66313    389.63663    32966.302 
  529900    296.77641   -1462.8717    585.16721    479.32419    771.49129    32966.302 
  530000    299.75969   -1454.5197    595.16507    511.31531    36.411512    32966.302 
  530100    296.93618   -1438.8299    570.47629    489.40571    916.28653    32966.302 
  530200     304.3961   -1473.4681    580.57984    498.98193   -42.792394    32966.302 
  530300    298.07679   -1461.2458    565.22457    466.95362    112.69968    32966.302 
  530400    303.28298   -1493.4875    564.01103    457.30393    196.15962    32966.302 
  530500    294.35364   -1427.1114    572.10978    490.94882    116.87411    32966.302 
  530600    292.15743   -1415.0422    566.15086    487.01678   -222.81558    32966.302 
  530700    292.64844   -1398.4327    551.03986     490.7605    293.99358    32966.302 
  530800    305.68652    -1430.088    556.60228    524.28499    1.3241232    32966.302 
  530900    299.30509   -1460.4929    576.01045    484.10878    250.35956    32966.302 
  531000    294.69653   -1410.9767    591.40181    527.94345    418.25754    32966.302 
  531100    303.73517   -1404.5632    562.20991    546.49475    3.4116976    32966.302 
  531200    304.67385   -1405.6908    562.80558    550.25506    75.921371    32966.302 
  531300    302.68816   -1444.0748    571.64608     511.6319   -692.91514    32966.302 
  531400    301.38962   -1428.7774    571.09701    520.44252    616.21219    32966.302 
  531500    297.27768   -1458.6776    560.02708    460.67026    786.87077    32966.302 
  531600    297.54021   -1458.8144    560.03606    461.74291   -328.36779    32966.302 
  531700    299.16442   -1469.1841    562.80203    461.56601    221.64525    32966.302 
  531800    304.88031   -1455.6138    551.56746    490.03798   -471.70918    32966.302 
  531900    291.92926   -1429.2361    583.46905    489.09777   -843.65259    32966.302 
  532000    299.33193   -1441.9229    578.51251    505.30367   -970.44817    32966.302 
  532100    308.54582   -1378.4816     535.8708    568.23431   -695.90418    32966.302 
  532200    301.58937   -1413.0833    543.37598    509.32895    258.08923    32966.302 
  532300    293.25479    -1434.304     573.8791    480.50103    -658.2535    32966.302 
  532400    296.34365   -1420.0208    576.35096    511.38006   -5.2178585    32966.302 
  532500    295.79128   -1436.8162     548.0481    463.75605   -71.611067    32966.302 
  532600    296.61555   -1428.1697    567.28045    495.40388   -1035.1034    32966.302 
  532700    304.84166   -1421.0352    597.70994    570.58238   -326.05783    32966.302 
  532800      293.205   -1418.2585    554.29381    476.73348     497.8655    32966.302 
  532900    293.97149   -1412.1112     575.3587    507.45059    -47.19848    32966.302 
  533000    297.16357   -1452.2409     551.7646    458.32275   -23.514246    32966.302 
  533100    301.81952   -1446.6214    575.96379    509.43102   -95.551065    32966.302 
  533200    300.55702   -1419.5316    595.03352    549.81776    -514.8293    32966.302 
  533300     302.0894   -1432.0839    580.61731    529.85612   -352.96031    32966.302 
  533400     309.2435   -1423.9437    573.82582    563.91739   -53.140236    32966.302 
  533500    299.77132   -1386.4481    535.25451    519.52956    611.85235    32966.302 
  533600    297.88911    -1450.161    577.19237    489.14795    166.70164    32966.302 
  533700    314.22669   -1425.4681    555.29965    566.65273    984.94712    32966.302 
  533800    301.65215   -1455.5811    546.16511    469.90739    891.13932    32966.302 
  533900    302.98541   -1440.4778    585.25935    530.20129    503.46596    32966.302 
  534000    284.81022   -1404.8173    596.96512    494.46034    710.09556    32966.302 
  534100    292.64581   -1413.5305     560.6926    485.30337    47.398173    32966.302 
  534200    309.66605   -1463.7877     546.8217    499.00141    185.94436    32966.302 
  534300    295.22435   -1441.0261    541.88195    450.78772    -262.4461    32966.302 
  534400      311.964    -1421.976    529.03813    533.53703    95.125704    32966.302 
  534500     301.5496   -1434.1443    552.14816    496.85825   -497.55424    32966.302 
  534600    296.26922   -1420.7029    536.17188    470.17851   -951.29338    32966.302 
  534700    307.00854   -1459.8683    550.98898     494.9365    -382.2899    32966.302 
  534800    292.75513   -1439.0466    545.15528    444.74985   -134.85481    32966.302 
  534900     302.2846   -1465.0873    546.17314    463.30108   -748.25745    32966.302 
  535000    293.32874   -1400.7732    564.85725    505.34807    -22.07291    32966.302 
  535100    297.57701   -1426.7163    538.31633    472.28958   -288.03928    32966.302 
  535200    291.30999    -1458.311    565.07116    438.79328    100.85712    32966.302 
  535300    305.20583    -1413.202    575.23635     557.6071   -632.96338    32966.302 
  535400    296.62651   -1431.4202     545.6297    470.55273    28.096757    32966.302 
  535500    294.59754   -1448.1353    550.39863    449.32902    156.69002    32966.302 
  535600    298.10768   -1453.9484    582.03676    491.20438   -671.07586    32966.302 
  535700    293.06641     -1415.51    559.23024    483.78478    -479.9322    32966.302 
  535800    303.19873   -1400.2371    573.50455    559.66262   -338.17143    32966.302 
  535900    295.86961    -1414.793    583.94292    522.03228    284.05942    32966.302 
  536000    298.40166      -1449.7    550.91553    465.67581   -384.97526    32966.302 
  536100    304.11606   -1418.8052    556.72238    528.50686   -298.17492    32966.302 
  536200     298.2452   -1484.9366    543.26388    422.07219   -58.133776    32966.302 
  536300    295.41538    -1447.596    565.17999    468.38928    997.32485    32966.302 
  536400    299.85875   -1444.8897    559.28681    485.51998    405.06575    32966.302 
  536500    293.78918   -1390.0236    550.26403     503.6099     104.1356    32966.302 
  536600    303.74234   -1394.9441    608.63676    602.57353    140.92735    32966.302 
  536700    299.75663   -1408.7262    562.87345    524.80318   -29.946417    32966.302 
  536800    303.47512   -1416.4837    588.68408    559.85941    83.601371    32966.302 
  536900    289.68761   -1432.6149    604.32005    496.31988   -444.32766    32966.302 
  537000     303.5297   -1411.3049    551.99861    528.60226   -308.99829    32966.302 
  537100    306.87086   -1380.8712    576.24395    598.55896   -887.46416    32966.302 
  537200    308.15623   -1420.0068    570.87893    559.93579   -1323.4354    32966.302 
  537300    301.97694     -1452.27    565.16558     493.7041   -1509.1061    32966.302 
  537400    308.25321   -1410.2002    569.07012    568.37704    -7.630321    32966.302 
  537500     289.4227   -1423.8257    584.67211    484.24982   -561.08704    32966.302 
  537600    301.30817   -1425.1664    566.89144    519.47546    392.38788    32966.302 
  537700    300.45232   -1404.3996    530.57307    500.01046    83.148831    32966.302 
  537800    303.17549   -1373.4689    587.66473    600.48472    273.83149    32966.302 
  537900    301.77631   -1403.5704     566.9909    543.31161    18.534879    32966.302 
  538000    303.21026   -1394.0121    586.09274    578.52858    348.94938    32966.302 
  538100    304.69933    -1409.857     542.9751    526.37486    169.95944    32966.302 
  538200      296.729    -1422.772    567.27013    501.31012   -466.02691    32966.302 
  538300    298.79125   -1397.5642    550.15492    518.83244    57.047156    32966.302 
  538400    301.62861   -1384.3558    556.78993    551.64982    369.15255    32966.302 
  538500    312.80617   -1424.5881     579.5632    585.30091    518.67156    32966.302 
  538600    305.80878    -1432.927    565.95147    531.35427     243.8897    32966.302 
  538700    304.84396   -1436.6473    579.70275     536.9735    319.95327    32966.302 
  538800    314.17229   -1429.2543    562.66248    569.98059    360.48347    32966.302 
  538900    294.88843   -1430.0823    579.93964    498.25317    19.056654    32966.302 
  539000    297.62402   -1425.5249    540.31388    475.69343   -358.20081    32966.302 
  539100     299.4449   -1396.2091    567.89688    540.91833   -248.02489    32966.302 
  539200    309.00335    -1431.979    586.39518    567.35332   -326.85153    32966.302 
  539300    295.23641   -1449.4897    560.96021    461.45745    193.16682    32966.302 
  539400    305.97246   -1427.1083    562.68714    534.65711   -740.24659    32966.302 
  539500    290.19782   -1433.1005    549.40081    443.24799   -201.57402    32966.302 
  539600    294.92429   -1397.9677    582.15568    532.74777   -151.42843    32966.302 
  539700    302.99583   -1415.6375    593.58641     563.4163   -30.214571    32966.302 
  539800    303.76095   -1447.1834    574.27912    516.06169    390.06385    32966.302 
  539900    287.46745   -1399.1177    569.03147     484.3767    83.191952    32966.302 
  540000    300.36717   -1446.7797    562.62035    489.28836   -406.36658    32966.302 
  540100    287.38238    -1464.714    556.29761     405.6575    306.68236    32966.302 
  540200    286.32701   -1426.4004    562.25305    445.10082   -660.10999    32966.302 
  540300    305.05366   -1422.1937    540.39221    513.07544   -488.02944    32966.302 
  540400    308.44472   -1406.3084    549.94211    554.01653     549.2852    32966.302 
  540500     292.6826    -1427.802     593.7944    504.30187   -643.29728    32966.302 
  540600       301.25   -1419.8161    547.57365    505.24207   -262.73543    32966.302 
  540700    297.81931   -1436.4882     555.8241    481.13328    639.51066    32966.302 
  540800     295.6454   -1407.2386     582.0356    526.65409     288.9069    32966.302 
  540900    302.08614   -1407.9444    582.73963    556.10304    253.88222    32966.302 
  541000    287.43773    -1435.493    576.49277     455.3268   -19.187854    32966.302 
  541100     301.2808    -1402.131    576.87837    552.37271   -612.39142    32966.302 
  541200    299.68366   -1414.7554    561.96772    517.53463   -725.83525    32966.302 
  541300    291.90697   -1412.2947    564.88937    487.35753    -645.2694    32966.302 
  541400    299.76566   -1438.9402    564.40534     496.1624    234.33237    32966.302 
  541500    306.44885   -1447.6788    589.40744     542.9852   -396.69743    32966.302 
  541600    300.94007   -1425.2064    562.93362    513.79451    291.09887    32966.302 
  541700    291.83112   -1491.7919    568.02023     410.6444   -629.18624    32966.302 
  541800      312.327   -1410.2988    590.13767    607.97366    209.02084    32966.302 
  541900    304.21544   -1390.4452    572.38176    572.98072    305.81162    32966.302 
  542000    297.90556   -1424.2494    576.09408    514.03653    855.38043    32966.302 
  542100    290.90506   -1375.4811    589.91696    544.61744    572.08586    32966.302 
  542200    289.79588   -1411.9963    586.17317    499.28666   -331.72018    32966.302 
  542300    286.13178   -1387.2452    589.71297     510.8232   -788.30637    32966.302 
  542400    303.31576    -1394.187    570.94387    563.68719   -416.64503    32966.302 
  542500    298.55191   -1402.3009    573.69206    536.53844   -522.50667    32966.302 
  542600    298.39169   -1364.3055    591.40668    591.51584   -824.01579    32966.302 
  542700    293.91758   -1357.5295    594.22042    580.64744   -763.39471    32966.302 
  542800    299.35007   -1388.2849    583.24499      563.757   -371.54166    32966.302 
  542900    319.59912   -1437.6675    565.49255    589.21202    572.26929    32966.302 
  543000    299.13399   -1406.9842    578.32543    539.15007    -326.6686    32966.302 
  543100    290.56468   -1425.9783    570.41979    473.06667   -127.38095    32966.302 
  543200    295.75086   -1481.0176    555.45433    426.77603   -225.01465    32966.302 
  543300    298.81779   -1507.5422    594.95792    453.77882    300.10018    32966.302 
  543400    303.35583   -1473.8221    583.93696    497.22841     749.6936    32966.302 
  543500    302.68955   -1469.2209    566.95751    481.80358    123.81832    32966.302 
  543600    306.75146   -1470.3574    587.52328     519.8062    286.37072    32966.302 
  543700    296.69694   -1461.5525    533.90639    429.01918    575.89145    32966.302 
  543800    300.10975   -1429.7746    593.27968    535.77568   -145.58049    32966.302 
  543900    299.13348   -1424.8417    568.50695    511.47183   -255.48232    32966.302 
  544000    290.76267   -1450.0411    577.84528    457.33468    -188.6326    32966.302 
  544100    298.59959   -1456.2385    589.25002    498.37684    280.93663    32966.302 
  544200      288.775   -1424.0384    585.55326    481.95668    25.454266    32966.302 
  544300    290.33901   -1425.3279    566.35086    468.61626   -192.69482    32966.302 
  544400    297.85393    -1422.789    555.87542    495.04217     305.8283    32966.302 
  544500    301.45203   -1396.8139     565.5439    547.13831   -471.41396    32966.302 
  544600    306.27132   -1427.6128    579.94951    552.78147   -707.39764    32966.302 
  544700     295.1103   -1386.4821    595.12381    558.05198   -481.71287    32966.302 
  544800    298.07731   -1398.6352    524.51254    488.85451   -314.14356    32966.302 
  544900    296.25954   -1433.1851     604.2913    525.77153   -747.84446    32966.302 
  545000    296.93881    -1436.592    584.73017     505.9094   -601.01131    32966.302 
  545100    290.41897   -1476.9198    537.26511    388.30422     46.50982    32966.302 
  545200    304.20236   -1476.2218    538.78879    453.55137    642.87339    32966.302 
  545300    296.12603   -1473.1105    578.67828    459.62257    196.20664    32966.302 
  545400    289.33965   -1463.5344    578.97877    438.46804    168.84742    32966.302 
  545500    309.83622   -1485.4293    546.21297     477.5292    547.86937    32966.302 
  545600    303.52445    -1520.697    546.17336    413.36095   -316.56503    32966.302 
  545700    299.70978    -1445.819    546.79796    471.42071    111.66519    32966.302 
  545800     295.9327   -1503.8363    551.03255    400.36706   -160.02355    32966.302 
  545900    291.51686   -1462.4282    583.96619    454.51711    239.52555    32966.302 
  546000    312.16966   -1501.4529    561.17704    487.13943    4.4870595    32966.302 
  546100    308.01248   -1475.8247     541.9631     474.5447    695.51271    32966.302 
  546200    307.59292   -1484.7122    540.67989    462.45555     63.86627    32966.302 
  546300    299.15067   -1479.5151    547.82876    436.19884    22.268891    32966.302 
  546400    292.27395   -1482.4673    560.66056    414.63423    36.535111    32966.302 
  546500    299.78316   -1502.4917    554.49601    422.78163    512.50734    32966.302 
  546600    303.31555   -1528.6424    544.63318    402.92014    368.98024    32966.302 
  546700     298.8168   -1516.7019    575.21516    424.87185    608.90502    32966.302 
  546800     308.2908   -1488.0891    577.50132    499.09122    516.45421    32966.302 
  546900     306.6472   -1485.5338    541.23162    457.86138    350.06841    32966.302 
  547000    301.70289   -1500.1227    578.24839    457.68107    342.30973    32966.302 
  547100    300.29516   -1490.9656    581.45736    463.61015    906.36911    32966.302 
  547200    311.21435    -1426.135    595.90532     592.8174    677.75708    32966.302 
  547300    302.94646   -1468.7102    565.89236    482.42381    430.64927    32966.302 
  547400    299.90588   -1448.9626    562.23209    484.60788    411.75906    32966.302 
  547500     303.0625   -1516.8196    571.78619    440.73886    553.81872    32966.302 
  547600    296.07137   -1473.3322    541.58495     422.0576     929.9778    32966.302 
  547700    299.71845   -1488.2353    549.69053    431.93663    788.14622    32966.302 
  547800    293.85542   -1431.9851    586.04867    497.73581     452.0411    32966.302 
  547900     294.2447   -1487.3794    542.43816    400.51103    29.363754    32966.302 
  548000    309.89328   -1502.6333    551.94759    466.32065    365.42155    32966.302 
  548100    298.65989   -1526.4564     553.0748    392.25946     598.4159    32966.302 
  548200    303.67808   -1532.6032    569.13784     425.1217    85.106922    32966.302 
  548300    294.42581   -1534.5379    569.05121    380.79371   -177.83917    32966.302 
  548400    307.04065   -1462.2787    564.62231    506.30623    272.88708    32966.302 
  548500    294.48119    -1485.755    532.04127    392.81994   -69.748195    32966.302 
  548600    300.10507   -1459.2944    574.85402    487.80887    25.982526    32966.302 
  548700    300.64559   -1439.1057    569.97269    505.58773    389.30345    32966.302 
  548800    302.07142   -1448.7832    555.57333    488.03063    642.22768    32966.302 
  548900    301.34573   -1467.3593    538.17664    448.73957   -80.055618    32966.302 
  549000    309.06381   -1467.2809     545.9133    491.84604    52.991308    32966.302 
  549100     302.3145   -1450.4413    550.34628    482.25697     28.08644    32966.302 
  549200    297.02125   -1494.8592     553.3429    416.63191    255.47021    32966.302 
  549300    297.49213   -1416.5854    535.33607    479.05209    729.31474    32966.302 
  549400    307.52511   -1433.7114    538.00252    510.46899    248.42032    32966.302 
  549500    304.71322   -1476.3832     566.9895     483.9266    434.63954    32966.302 
  549600    300.31292     -1490.86    577.84111    460.18078    279.91393    32966.302 
  549700    307.61858   -1477.2445    577.95146    507.31216    645.98499    32966.302 
  549800    324.28323   -1507.3231    526.18801    501.67034    818.32742    32966.302 
  549900    297.92012   -1495.2025    586.40629    453.46222    1212.9436    32966.302 
  550000    303.66215   -1477.8308    556.06963      466.753    736.38162    32966.302 
  550100    304.06596    -1437.363     579.3817    532.37936    748.70904    32966.302 
  550200    305.61693   -1476.4515    552.58298    473.58406    967.57413    32966.302 
  550300    306.27704   -1457.5518    580.80463    523.72373    1136.4827    32966.302 
  550400    301.04824   -1444.9385    562.54864    494.17208    398.65865    32966.302 
  550500    298.24817   -1520.4348    566.76047    410.08416    150.01724    32966.302 
  550600    294.71935   -1443.6495    572.89083    476.86404     447.6322    32966.302 
  550700    293.59122   -1420.2825    540.37066    462.55236    377.40167    32966.302 
  550800    300.71701   -1462.6647    577.05364    489.43632    534.51491    32966.302 
  550900    294.58671   -1467.7044    554.50218    433.81395    176.29064    32966.302 
  551000    304.93728    -1445.448    538.72893    487.62569    74.791856    32966.302 
  551100    300.24247   -1452.6861    574.99966    495.19106   -402.69582    32966.302 
  551200    297.57413   -1448.9066    547.84212     459.6119    97.646664    32966.302 
  551300    298.29279   -1474.6493    551.56968    440.88286   -154.44655    32966.302 
  551400    303.91471   -1483.9222    573.40907    479.15591   -1279.2892    32966.302 
  551500    311.14645   -1493.7427    553.88638    482.88035   -115.55574    32966.302 
  551600    295.16245    -1510.356    537.45505    376.74787   -200.00809    32966.302 
  551700    309.37576   -1473.8967    585.72926    526.47263    31.720162    32966.302 
  551800    303.98328   -1517.4046    561.70852    434.28646    -311.8587    32966.302 
  551900    291.62035   -1516.1146    539.88034    357.21812    -718.5255    32966.302 
  552000    302.85677   -1482.7093     574.4529    476.57512     -338.384    32966.302 
  552100     303.5244   -1478.6975     535.4895    444.67632   -213.37414    32966.302 
  552200    309.09955    -1482.105    561.90475    493.17679    355.97826    32966.302 
  552300    302.67538   -1505.0605    549.54443    428.48605    381.64057    32966.302 
  552400    293.71929     -1488.82    579.93769     434.1675    62.702562    32966.302 
  552500     302.2898   -1457.1038    561.54234    486.67762     93.56534    32966.302 
  552600    296.75523   -1412.9381    587.45915    531.45289    384.35482    32966.302 
  552700    299.97442   -1428.8263    565.18825    508.01373    58.899645    32966.302 
  552800     315.4591   -1425.5798    555.49946    572.37617   -458.88418    32966.302 
  552900    294.80139   -1464.9696    549.48832    432.51657    -464.0163    32966.302 
  553000    300.36071   -1468.1689     572.6872    477.93649   -272.39641    32966.302 
  553100    294.10741   -1483.4647     542.0157    403.37553   -154.67782    32966.302 
  553200    306.95377   -1474.4947    548.56579    477.63637   -361.86928    32966.302 
  553300    309.99173   -1497.2454    557.18628    477.39745    295.32827    32966.302 
  553400      301.198   -1511.6872    563.80766    429.36717    55.899278    32966.302 
  553500    311.56863   -1476.1938    550.39275    498.86605   -179.48309    32966.302 
  553600    303.44957   -1481.8443     562.0427    467.74052    268.69228    32966.302 
  553700    310.86198   -1471.0832    591.23043    541.58308   -464.15416    32966.302 
  553800    303.79482   -1499.6085    559.90533    449.41769   -409.32485    32966.302 
  553900    301.78762   -1490.0228    559.12559    449.04556     -708.249    32966.302 
  554000    302.27591   -1525.3851    538.83473    395.62521   -941.45818    32966.302 
  554100    307.85565    -1494.809     573.5746    486.45479   -1097.0011    32966.302 
  554200    290.99527   -1459.2043     570.2696    441.65939   -585.07164    32966.302 
  554300    300.52715   -1489.0787    572.15947    457.25998   -459.95141    32966.302 
  554400    296.93748   -1513.9454    544.08756    387.90739    189.09571    32966.302 
  554500     295.8666   -1458.7713    558.42755    452.52478   -90.312763    32966.302 
  554600    314.20289   -1500.5337    543.98006    480.15877   -487.24803    32966.302 
  554700    303.65483    -1471.192    592.15532    509.44403    56.925472    32966.302 
  554800    299.60814   -1451.6726    547.34192    465.64636    351.91358    32966.302 
  554900    299.27176   -1528.2093    544.03196    384.26155   -340.40395    32966.302 
  555000    293.48031   -1479.5333    579.60759    442.03139   -450.82574    32966.302 
  555100    296.06661   -1465.6107    557.68672    445.85911   -699.38315    32966.302 
  555200     293.0443   -1463.3217    572.99943    449.64119   -900.39048    32966.302 
  555300     302.9588   -1460.7733    579.06206    503.58686   -220.69188    32966.302 
  555400    306.05017   -1393.2282    572.99311    579.19842   -267.94179    32966.302 
  555500    311.29239   -1454.2599    548.55155     517.6956   -487.60484    32966.302 
  555600    303.23318   -1429.9818    567.48808    524.05896   -270.93345    32966.302 
  555700    287.30782   -1446.5426    581.19775    448.38813   -457.82726    32966.302 
  555800    292.68708   -1429.5589    593.57771    502.34886   -13.379115    32966.302 
  555900    299.84273   -1448.6131    574.67686    497.11344    440.22064    32966.302 
  556000    298.57398   -1478.9103    589.05741    475.39533    818.25613    32966.302 
  556100    305.02162   -1488.2342    564.59138    471.08757    251.47721    32966.302 
  556200    299.26807   -1442.0772    556.58333    482.92814    463.74557    32966.302 
  556300    305.60005   -1456.4727    579.65849    520.56119    384.94649    32966.302 
  556400    300.79457   -1451.8693    566.06124    489.59397    217.39268    32966.302 
  556500    305.92825   -1428.5008    581.66453    552.03976    412.87685    32966.302 
  556600    297.56654    -1423.439    586.12464    523.32725   -197.54332    32966.302 
  556700    307.45231   -1449.4086    545.30964    501.74603    299.48418    32966.302 
  556800    297.54337   -1470.0435    594.73223    485.22446    -1034.885    32966.302 
  556900     298.0743   -1477.9789    557.71173    442.69616   -50.240002    32966.302 
  557000    298.32036   -1394.4202    563.36482     533.0331    418.66792    32966.302 
  557100    308.71335   -1437.0772    577.15872     551.6927    304.35019    32966.302 
  557200    291.15909   -1442.1467    578.82056    468.01705    250.84867    32966.302 
  557300    304.69878   -1393.4429     568.4537    568.26508   -284.13552    32966.302 
  557400    283.82903   -1431.9043    546.99695    412.91866   -116.97971    32966.302 
  557500    304.89307    -1422.833    584.88254    556.19227   -24.393433    32966.302 
  557600        303.9   -1411.3523    566.44154    544.69104    445.70965    32966.302 
  557700    291.47849   -1450.1658    576.65109    459.28893   -446.27992    32966.302 
  557800    298.52015   -1424.8942    581.90139    522.00931   -470.59563    32966.302 
  557900    302.10202   -1459.6124    550.40359    472.17156   -249.25638    32966.302 
  558000    301.65719   -1427.4352    597.07885    548.99002    700.64504    32966.302 
  558100    293.79384   -1451.8162     571.2913    462.86577    44.224319    32966.302 
  558200    292.63722   -1471.0331    559.41599    426.48491    410.54608    32966.302 
  558300     306.3934   -1476.3417    593.16047    517.82176   -130.86153    32966.302 
  558400    292.00157   -1453.9976    553.44407    434.64195    310.33515    32966.302 
  558500    295.64153   -1439.3396    540.24508    452.74487   -351.86101    32966.302 
  558600    314.61187     -1469.27    591.90922    561.22165   -862.35183    32966.302 
  558700    295.26751   -1449.2803    566.83849     467.6874   -130.28184    32966.302 
  558800    305.29029   -1439.3557    542.22044    498.82368   -208.31707    32966.302 
  558900     310.9972   -1419.3383    573.26277    575.97864   -667.44283    32966.302 
  559000    303.75119   -1429.7363    568.05068    527.23576   -221.37458    32966.302 
  559100    309.86986   -1434.7771    545.35604    527.47825    -36.53164    32966.302 
  559200    301.65356   -1453.4119    563.14382     489.0617   -583.72456    32966.302 
  559300    297.42482   -1457.4544    543.46788    446.00714    -131.9857    32966.302 
  559400    300.41243   -1438.4633    569.77481    504.96612   -10.133949    32966.302 
  559500    295.51558   -1426.4779    571.00089     495.7865   -940.76959    32966.302 
  559600    293.24317   -1500.6824    565.35699     405.5473   -364.99645    32966.302 
  559700    312.51551    -1439.602    535.66121    525.05595   -144.84454    32966.302 
  559800    297.15036   -1433.1648    554.69438     480.2682   -927.83339    32966.302 
  559900    296.77088   -1430.5497    581.06159     507.5153    -647.9053    32966.302 
  560000      290.181   -1445.1636    564.56875     446.2759   -33.174148    32966.302 
  560100     308.6893   -1456.4525    546.00668    501.05536    -54.71838    32966.302 
  560200    298.75209   -1427.7652    547.49181    485.78921   -277.42717    32966.302 
  560300    289.89281   -1425.4237    586.62362    486.75298   -127.28856    32966.302 
  560400    291.27337   -1465.0081    566.92878    433.78639   -410.68959    32966.302 
  560500    304.53619      -1443.5    563.70193    512.71275    322.16215    32966.302 
  560600    300.55732    -1452.675    571.40998    493.05211     23.65008    32966.302 
  560700    301.37935   -1415.6764    554.37361    516.77314    662.67591    32966.302 
  560800     296.6342   -1458.0928    575.06445    473.35013    408.64849    32966.302 
  560900    298.30498   -1443.6126    582.96468     503.3703    583.41618    32966.302 
  561000    302.85239   -1475.0829    579.10556    488.83419    614.57204    32966.302 
  561100    312.05409   -1471.3683    539.43846    494.95702    327.31065    32966.302 
  561200    297.69768   -1445.6093    546.20712    461.83904    301.51755    32966.302 
  561300    293.73455   -1453.1259    583.37764    473.37135    443.95886    32966.302 
  561400    298.30693    -1474.494    609.77683    499.30996   -324.21531    32966.302 
  561500    303.67835   -1440.3412    564.42298     512.6701    392.62479    32966.302 
  561600    305.35047   -1514.5636     584.7865      466.457    190.96532    32966.302 
  561700    289.61423   -1496.1424    556.36013    384.49691   -363.58736    32966.302 
  561800    289.71725   -1447.5007    574.56659    451.81619     350.3816    32966.302 
  561900    291.77934   -1459.3536    539.42714    414.25287   -101.17205    32966.302 
  562000    305.70352   -1446.3076    585.65375    537.19466   -217.15173    32966.302 
  562100    289.71962   -1443.0107    539.10591    420.85631    120.56595    32966.302 
  562200    304.69716   -1459.0446    575.48398    509.68619    315.98411    32966.302 
  562300    300.37815   -1441.4312    582.17876     514.2454    291.51162    32966.302 
  562400    312.40288   -1433.8915    581.40062    575.99085     750.9887    32966.302 
  562500    303.98295   -1420.4747    576.80168      546.308     924.1694    32966.302 
  562600    300.31227    -1428.192     571.3401    516.34472    1021.7487    32966.302 
  562700    308.43864   -1453.7754    568.82095    525.40058    1091.4364    32966.302 
  562800    298.93493   -1468.4272    584.16872    482.64022    919.17899    32966.302 
  562900    297.79268   -1470.7326    590.35974    481.30283    499.07723    32966.302 
  563000    297.74123   -1453.4138    545.92456    453.95118    399.96006    32966.302 
  563100    287.55143   -1438.0229    568.11501      444.939   -754.64093    32966.302 
  563200    292.38107   -1399.8955    589.68745    526.72276   -934.42537    32966.302 
  563300    307.57326   -1435.4252    606.69806    577.67084   -316.21223    32966.302 
  563400    296.28525   -1419.5201    533.43527      468.698   -322.37533    32966.302 
  563500    306.59962   -1404.5451    573.31211    570.71302   -556.56233    32966.302 
  563600    307.11679   -1447.8791    568.64403     525.0757   -551.01373    32966.302 
  563700    299.34067   -1436.9685    567.41868    499.20411    42.570602    32966.302 
  563800    292.68487   -1430.9362    568.69646    476.08022     369.4678    32966.302 
  563900    297.02459   -1440.3909    587.73965    505.51231   -60.280861    32966.302 
  564000    305.62047   -1423.4263     584.0427    558.08509   -291.76169    32966.302 
  564100    296.61803   -1436.0469    560.46732    480.72496    1063.2289    32966.302 
  564200    311.99535    -1458.777    578.50546    546.34668    47.090922    32966.302 
  564300      292.522   -1452.4193    570.65289    455.80878     306.1748    32966.302 
  564400    313.96238   -1430.9809    604.22323    608.85491    170.11037    32966.302 
  564500    305.17125   -1469.4354    571.31816    497.29738    62.076729    32966.302 
  564600    305.83461   -1500.1827    564.39739    462.66263   -149.94361    32966.302 
  564700    303.11425   -1478.9838    569.98989    477.01495     671.7071    32966.302 
  564800     290.3328   -1434.1171     576.4699    469.91766   -391.92176    32966.302 
  564900    302.95863   -1481.8495    600.82828    504.27612   -386.25509    32966.302 
  565000    298.61242   -1451.2496    546.54897    460.72337   -206.02418    32966.302 
  565100    299.70572   -1419.9819    575.09282    525.53409   -267.54385    32966.302 
  565200    302.91607   -1477.6794    562.81996    470.24325   -428.06121    32966.302 
  565300    296.59574   -1476.6172    559.46009    439.04545   -519.87507    32966.302 
  565400    291.54879   -1407.5384     580.1987    505.78541   -194.87818    32966.302 
  565500    304.77164   -1453.1443    582.24005    522.68321   -469.21197    32966.302 
  565600    293.93335   -1469.8596    568.31436     442.4834   -376.60605    32966.302 
  565700    298.33128   -1424.2104    567.47025    507.39832    709.38028    32966.302 
  565800     289.9604   -1470.1035    587.36536    443.12391      654.108    32966.302 
  565900    304.48183   -1487.7081      586.937    491.49112    -14.28134    32966.302 
  566000    296.58503   -1469.9209    551.55842    437.79108   -1133.1181    32966.302 
  566100    306.99674    -1458.172    570.79863    516.38845   -670.61085    32966.302 
  566200    295.18723   -1448.6881    576.69047    477.76444   -80.661997    32966.302 
  566300     299.6972   -1449.2995    555.41669    476.50146    282.76417    32966.302 
  566400    307.15559   -1491.8198    575.97064    488.63902   -13.026759    32966.302 
  566500    303.59403   -1439.9657    573.01884    521.25584    520.83694    32966.302 
  566600    294.09471   -1459.6486    585.14902    470.26689    360.20463    32966.302 
  566700     294.6758    -1425.861    552.61028    474.17285    129.65478    32966.302 
  566800    297.52732   -1427.2128     561.9658    495.21528   -48.696121    32966.302 
  566900    302.98391   -1446.2774    574.60512    513.74066    65.219107    32966.302 
  567000    290.92842   -1467.3388    560.25768    423.20727    565.53471    32966.302 
  567100    300.77498   -1439.0745    569.12867    505.36657    894.57899    32966.302 
  567200    292.22255   -1451.9811    578.79862    463.02345    1006.3805    32966.302 
  567300    301.88598   -1455.9891    544.22073    468.62423    544.56726    32966.302 
  567400    289.54904   -1416.5309    590.28521    497.73545    1035.7422    32966.302 
  567500    289.42643   -1440.2015    592.23861    475.45762    453.73218    32966.302 
  567600    294.84209   -1469.3661    570.78352     449.6014    1071.2739    32966.302 
  567700    297.61003   -1453.5763    582.07651     489.3407    882.10337    32966.302 
  567800     309.0958   -1487.8747    592.12281    517.60805    208.76554    32966.302 
  567900    287.83784   -1473.9179    532.71621    374.95483   -139.52308    32966.302 
  568000    292.16932   -1469.0052    580.30788    447.26516     35.91943    32966.302 
  568100    306.67197   -1507.8303    550.31441    444.76092   -929.80122    32966.302 
  568200    304.66443   -1488.9166    547.52198    451.70255   -331.59567    32966.302 
  568300     300.8276   -1496.7263    539.46756     418.2943   -88.954125    32966.302 
  568400    295.28307   -1491.5522    571.81279     430.4609   -328.00527    32966.302 
  568500    288.81269   -1474.4989    552.64136    398.75661   -77.150036    32966.302 
  568600    308.06124   -1472.6902    597.43363    533.37273    361.29987    32966.302 
  568700    303.34768   -1448.9752     588.7046    526.80564   -462.21672    32966.302 
  568800    299.14084    -1428.106     597.8254     537.5596     455.7376    32966.302 
  568900    293.06519   -1454.4678    563.85524    449.44639   -342.67506    32966.302 
  569000    303.41065   -1453.2526    606.60934    540.72091    280.22789    32966.302 
  569100    301.13589   -1448.9325    564.84065    492.87088    466.04238    32966.302 
  569200    300.13525   -1432.5832     575.9471    515.75115    284.38521    32966.302 
  569300    298.94649   -1450.5781    585.83063    502.20408    45.270332    32966.302 
  569400    304.40392   -1462.3755    584.84829    514.37878   -211.81361    32966.302 
  569500     295.8389   -1469.5425    565.66394    448.86329   -197.74994    32966.302 
  569600    293.49162   -1475.7511     590.1944    456.45206   -702.44826    32966.302 
  569700    290.73322   -1472.6629    559.46055    416.19354    112.61658    32966.302 
  569800    297.82885   -1485.6786    545.56185    421.72426   -393.46436    32966.302 
  569900    299.98651   -1474.4814    572.92445    470.15008   -778.76635    32966.302 
  570000      302.632     -1487.05    559.60703    456.36083      219.669    32966.302 
  570100    295.79936   -1467.6789    557.95403    442.83627    -39.63656    32966.302 
  570200    297.32531   -1474.3468    556.20558    441.39734    749.99883    32966.302 
  570300    298.74627   -1445.6876    610.15712    530.50559    454.26736    32966.302 
  570400    310.66413   -1448.4035    580.50095    552.62864    264.20897    32966.302 
  570500    305.02812   -1468.4838    539.95024    466.22657    340.95908    32966.302 
  570600    302.52402   -1501.8171    582.58238    464.07533   -170.49509    32966.302 
  570700    298.53946   -1496.8054    588.06248    456.34746    164.23752    32966.302 
  570800    294.10539   -1493.0585    569.81675    421.57362   -209.90826    32966.302 
  570900    309.71374   -1436.0277    595.84864    576.00641    691.59354    32966.302 
  571000    298.40676   -1472.1261    552.70348    445.06104    928.54685    32966.302 
  571100    295.75685   -1433.3361      598.143    517.17361    1016.4045    32966.302 
  571200    290.81865   -1466.9264    563.60206    426.46211    234.98095    32966.302 
  571300    303.42484   -1488.0591    563.12482    462.49482     218.9276    32966.302 
  571400    292.04354   -1418.1842    578.69758    495.90073    432.17108    32966.302 
  571500    311.97319   -1488.8312    562.20041    499.88617    176.49659    32966.302 
  571600    299.71501   -1428.1349    574.08416    516.41491     268.7219    32966.302 
  571700    297.08661   -1461.8083    573.45753    470.09634    641.41659    32966.302 
  571800    293.75913   -1450.5497    568.01095    460.69326    23.667993    32966.302 
  571900    304.44682    -1499.176    569.69967    462.62588   -462.72197    32966.302 
  572000    310.15757   -1441.0738    554.92787      532.069    437.27113    32966.302 
  572100    295.40517   -1498.8896    546.76222    398.63128    330.30978    32966.302 
  572200     302.9448   -1434.7638    567.59715    518.06738    69.295455    32966.302 
  572300    295.19764   -1450.8291    557.04312    456.02373    494.39117    32966.302 
  572400    307.80764   -1415.9467    564.95152    556.47459    654.43803    32966.302 
  572500     284.7256   -1433.9261    566.68025    434.67973     56.08831    32966.302 
  572600    294.77663   -1411.9186    564.97489    500.94091     237.3518    32966.302 
  572700    286.36628   -1436.2836    572.79897    445.94313    564.73357    32966.302 
  572800    305.55667   -1438.5458    584.75152    543.38267    214.93619    32966.302 
  572900    290.49847   -1404.2714    600.57638     524.6274    318.94707    32966.302 
  573000    297.63023   -1425.4776    582.07448    517.52974    361.80378    32966.302 
  573100    288.55795   -1485.1882    557.66477    391.92591    231.70415    32966.302 
  573200    301.53101   -1443.4033     586.0055    521.37167    574.74938    32966.302 
  573300    291.55741   -1464.5633    617.25405    485.85531    54.454635    32966.302 
  573400    306.67069   -1491.2112    566.74859    477.80836    981.83711    32966.302 
  573500    312.65051   -1459.8301     560.8052    530.58913    286.03133    32966.302 
  573600    303.54666    -1437.681    580.69683    531.00196    317.04338    32966.302 
  573700    293.39493   -1445.4075    555.14227    451.30148    67.327762    32966.302 
  573800    292.49442   -1444.6612     609.1057    501.89352   -124.29329    32966.302 
  573900    298.67502   -1451.0589    562.16278    476.81407   -596.14972    32966.302 
  574000    289.40274   -1440.2553    572.27506    455.33193   -326.88625    32966.302 
  574100    294.81198   -1417.8901    598.08647    528.24262   -431.45001    32966.302 
  574200    291.13069   -1446.4327    589.49924    474.27981   -166.49431    32966.302 
  574300    298.58792   -1479.5969    597.32716    483.04219   -140.32005    32966.302 
  574400     290.7361   -1489.3068    583.09297    423.19517    218.53728    32966.302 
  574500    309.12608   -1514.4559    586.55288    485.59532     550.2687    32966.302 
  574600    303.04301   -1520.8557    593.24237    458.06984   -282.91261    32966.302 
  574700    302.93506   -1478.2827    573.71666    480.62351   -108.56411    32966.302 
  574800    305.12853   -1476.4719    552.35909    471.10648   -464.02948    32966.302 
  574900    295.70361   -1496.8113    594.10279    449.41472   -410.60903    32966.302 
  575000    311.68639   -1475.6205    566.61635    516.20135   -102.49095    32966.302 
  575100    302.57134   -1453.1559    584.11086    514.48138    -438.2618    32966.302 
  575200    306.09782   -1501.9414    563.74543    461.45542   -214.85102    32966.302 
  575300      300.407   -1413.2897    573.74024     534.0804   -523.82498    32966.302 
  575400    291.97608   -1409.1419    572.96087    498.89789   -74.388317    32966.302 
  575500    307.84568   -1461.7101     595.4552    541.38876   -377.32288    32966.302 
  575600    292.38433    -1493.113    542.94385    386.77654    -716.5734    32966.302 
  575700    305.42495   -1485.4169    592.13032    503.28818    201.11032    32966.302 
  575800    294.52491    -1451.161    559.02132    454.59393    150.58445    32966.302 
  575900    290.23178   -1477.2148    595.03122     444.9194   -327.38115    32966.302 
  576000    292.48177   -1518.8539    580.76002     399.2973   -290.55817    32966.302 
  576100    296.06722    -1477.907    562.78989    438.66885     56.36866    32966.302 
  576200    300.34835   -1455.7822    581.90656    499.48602   -46.533927    32966.302 
  576300    307.48962   -1452.0548    581.07407     535.0348    523.49849    32966.302 
  576400    292.58582   -1445.8906    578.06207    470.03846   -108.35194    32966.302 
  576500    303.72378   -1488.4983    610.87545    511.17318   -591.63208    32966.302 
  576600    299.69676   -1448.4466    557.85465    479.79026   -869.32601    32966.302 
  576700    301.36207   -1476.9281     592.0329     493.1017   -730.20045    32966.302 
  576800    302.83522   -1480.3582     572.8703    477.24509   -568.79515    32966.302 
  576900    300.81095   -1467.6264    594.54485    502.39531    -415.2163    32966.302 
  577000     302.4043   -1472.8347    564.78987    474.71779   -449.37987    32966.302 
  577100    299.08399   -1461.4164    573.31263    479.47648    -464.0937    32966.302 
  577200    293.40542   -1480.1195    555.04431    416.53951   -580.36811    32966.302 
  577300    308.91634    -1448.689     568.3048    532.15508   -62.575839    32966.302 
  577400    295.26784   -1465.8176    593.10012    477.41324   -793.68958    32966.302 
  577500    305.10429   -1458.4649    565.30547    501.94901   -412.64208    32966.302 
  577600    301.14455   -1443.0096    566.50565    500.49834    632.72128    32966.302 
  577700    311.51853   -1469.1977    588.39601     543.6363   -141.06872    32966.302 
  577800    296.29959   -1504.1443    562.25074    412.95484   -502.59707    32966.302 
  577900    303.51085   -1501.9598     590.8313    476.69391   -332.04667    32966.302 
  578000    296.86794   -1500.8986    584.31097     440.8596   -700.63452    32966.302 
  578100    293.73776   -1490.6528    551.48662    403.96806   -349.88563    32966.302 
  578200    308.84572   -1485.5566    573.74947     500.4093    366.82445    32966.302 
  578300    305.41898    -1466.476    594.23002    524.30146   -133.07684    32966.302 
  578400    301.04763   -1432.1502    567.98375    512.39268    -118.2436    32966.302 
  578500    308.44609   -1493.3516    572.37275    489.41021   -792.31769    32966.302 
  578600    291.92295   -1495.2645    557.87516    397.44668   -213.19923    32966.302 
  578700    297.10292   -1486.6123    594.16805    466.07748   -730.57746    32966.302 
  578800    307.79343   -1475.0171    578.10097    510.48864   -788.93276    32966.302 
  578900    304.25443   -1493.5167     566.4401    464.14586   -91.107602    32966.302 
  579000     308.4031   -1491.9555    560.81723     479.0542    21.794773    32966.302 
  579100    295.77183   -1496.7427    569.39572    425.08824   -365.02831    32966.302 
  579200    295.69411    -1491.328    575.36057    436.11246   -430.57464    32966.302 
  579300    301.12993   -1508.3301    537.07315     405.6785    190.22724    32966.302 
  579400     297.4853   -1492.3111    553.15852    421.11759     -9.62205    32966.302 
  579500    301.21849   -1517.6605    586.37487    446.05475   -124.91443    32966.302 
  579600    295.86801   -1503.1384    579.61766    429.35431   -282.36882    32966.302 
  579700     299.8716   -1504.1418    595.50038    462.54026   -518.46681    32966.302 
  579800    297.49211   -1484.0303    539.32515    415.59616      98.6373    32966.302 
  579900     295.4089   -1491.4591    539.07929    398.39586   -83.675139    32966.302 
  580000    307.54075   -1495.7408      569.954    480.46258   -537.92523    32966.302 
  580100    307.92728   -1513.1142    571.70696    466.60949   -498.60035    32966.302 
  580200     290.1031   -1480.9866    555.61084     401.1388   -361.98401    32966.302 
  580300    301.80129   -1451.1566    571.90769    500.75643    166.54157    32966.302 
  580400    303.84323   -1491.0426    579.52755    477.82713    118.54954    32966.302 
  580500    295.60322    -1482.102    568.22579    437.78795    280.42143    32966.302 
  580600    305.03252   -1437.9751    552.57924    509.38439    721.19619    32966.302 
  580700    296.24831   -1428.7241    564.37897    490.26888    602.51211    32966.302 
  580800    291.83487   -1431.5621    599.31747    502.18862    70.014142    32966.302 
  580900    311.13028   -1469.4474    560.55624    513.77155    474.60558    32966.302 
  581000    296.31339   -1425.6219    562.56804    491.85765   -94.965732    32966.302 
  581100    308.89668   -1456.1555    579.95932    536.25319    360.50665    32966.302 
  581200    300.91622   -1410.9985    573.83464     538.7944    362.84229    32966.302 
  581300    301.36191   -1409.1355    597.90962    566.77032    565.37413    32966.302 
  581400    303.99195   -1414.8609    593.13865    568.30001    451.23937    32966.302 
  581500     308.0318     -1419.19    565.16402    554.46869   -196.96494    32966.302 
  581600    308.74278   -1432.9253    544.38334    523.20375    185.24675    32966.302 
  581700     304.1918   -1476.9706    573.23108    487.19652   -195.09967    32966.302 
  581800     299.1936   -1458.8785     597.2695    506.47244    67.405653    32966.302 
  581900    306.71144   -1406.3845     584.1544    580.22714   -164.12976    32966.302 
  582000    296.34191   -1469.0904    574.89634    460.84784   -1032.8001    32966.302 
  582100    291.27197   -1382.2462    597.99152    547.60464    -680.2552    32966.302 
  582200    294.30991   -1386.7495    574.34349    533.34443   -454.85071    32966.302 
  582300      303.985   -1410.0456    602.12151    582.06636   -495.57203    32966.302 
  582400    308.86629   -1381.5744    573.22254    603.95861   -291.30367    32966.302 
  582500    298.79308   -1354.3237    568.95071    580.87709   -155.83008    32966.302 
  582600    309.74191   -1363.1448    596.06723    649.23667    350.51357    32966.302 
  582700    306.44853   -1368.6731    597.53268    630.11473    56.480911    32966.302 
  582800    294.42825   -1399.7676    577.10119    523.62523     368.8497    32966.302 
  582900    300.77242   -1422.4635    550.76312    503.60033    579.32902    32966.302 
  583000    300.44646   -1421.6687    578.98758    531.12909    323.62774    32966.302 
  583100     293.0596   -1400.4459    582.37028    521.95775    57.029721    32966.302 
  583200    302.70981    -1390.295    573.54131    567.40588    506.78685    32966.302 
  583300    302.44534     -1407.37     583.4135    558.99373    249.24267    32966.302 
  583400    300.93996   -1382.7222     578.4319    571.77653     921.1137    32966.302 
  583500    303.21424   -1437.9855    571.00069    519.48136     243.8828    32966.302 
  583600     302.4435   -1455.1278    565.69371    493.50776    28.589891    32966.302 
  583700    308.58407   -1418.8098    546.39628    538.60643    162.55127    32966.302 
  583800    302.19309   -1446.5013    556.50127    491.79675    77.989584    32966.302 
  583900    307.35602   -1420.4244    558.02516    543.00542    142.23213    32966.302 
  584000    306.66156   -1438.1375    563.37209    527.46377    278.49009    32966.302 
  584100    300.71756   -1412.6288    577.36225    539.78337    649.21314    32966.302 
  584200    305.52964   -1413.1801    581.09315    564.96648    1469.2695    32966.302 
  584300    316.32316   -1388.1714    567.75609     625.9921     1222.955    32966.302 
  584400    298.01101   -1416.2351    596.08103    542.51993    997.45848    32966.302 
  584500    290.57009   -1398.7161    558.04748    487.98132    642.72111    32966.302 
  584600    302.38511   -1441.4762    548.30438    489.50297     180.7537    32966.302 
  584700    304.51127   -1446.9034     564.0468     509.5403   -377.57396    32966.302 
  584800    302.87497    -1420.949    566.63461    530.60042   -395.90949    32966.302 
  584900    301.63762   -1461.4584    534.57824    452.37671   -679.28424    32966.302 
  585000    299.56977   -1448.3725    568.13573    489.56471   -675.30487    32966.302 
  585100    305.76476   -1406.7399    552.73497    544.12358    -878.3752    32966.302 
  585200    296.53949   -1447.0982     586.1417     494.9889   -1121.9777    32966.302 
  585300    299.51574   -1429.1972    601.31738    541.67468   -558.76062    32966.302 
  585400    288.64219   -1460.6131    530.71176    389.93313   -305.16675    32966.302 
  585500    295.05019    -1463.501    564.56555    450.20003   -488.78206    32966.302 
  585600    303.16631   -1501.4562    556.85364    441.64442    -637.2433    32966.302 
  585700    308.39491   -1463.4743     551.8308    498.51156   -72.732772    32966.302 
  585800    298.23661   -1490.8673    573.03561    445.87387   -88.429672    32966.302 
  585900    292.18502   -1462.6858    568.01583    441.36436    124.83983    32966.302 
  586000     298.3217   -1438.1438    563.68904     489.6399    370.72977    32966.302 
  586100    298.18807   -1464.6758    537.04321    435.85099   -419.78937    32966.302 
  586200    307.26457   -1477.3027    560.35224    488.03607    503.59153    32966.302 
  586300    291.42197   -1444.1584    568.43855    456.82532    365.30468    32966.302 
  586400    295.94081   -1441.5212    563.48636    475.17308     127.9943    32966.302 
  586500    303.04264   -1432.6367    557.45084    510.49559     38.93909    32966.302 
  586600    296.65902   -1492.5635    548.70608    412.63456    10.925053    32966.302 
  586700    295.61786   -1473.8297    574.42549      452.327    288.46264    32966.302 
  586800    298.69983   -1400.6608    574.05588    539.21876    327.72806    32966.302 
  586900    311.53548   -1438.1958    573.19146    559.51119   -244.47205    32966.302 
  587000     295.4493   -1417.4724    542.06917    475.55719    483.28035    32966.302 
  587100    308.39973   -1434.7442     566.5608    541.99369     175.3113    32966.302 
  587200    299.10878   -1454.7214    554.95965    467.93186    659.47725    32966.302 
  587300    302.64636   -1468.3884     560.8621     476.3431    1037.1484    32966.302 
  587400    303.21393   -1472.3304    563.74652    477.88087    903.00262    32966.302 
  587500    306.61539   -1398.6415    590.41507     593.7916    1725.7753    32966.302 
  587600    294.45514   -1405.7327    576.25419    516.93598    553.48494    32966.302 
  587700    305.97637   -1429.2826    561.48146    531.29495    812.86975    32966.302 
  587800    302.30212   -1448.1175    552.71239     486.8903    1251.0301    32966.302 
  587900    294.83287   -1447.4142    558.53233    459.25986     649.7739    32966.302 
  588000    308.73571   -1443.0331    562.49863    531.17893    563.54141    32966.302 
  588100    296.15336   -1471.2794    572.73723    455.63763    464.67058    32966.302 
  588200      303.255   -1432.3463    547.26769    501.57391    489.36338    32966.302 
  588300    302.03892   -1432.1892    556.97119    505.87392   -161.43476    32966.302 
  588400    304.60173   -1417.0116    563.86866    539.66751   -264.40291    32966.302 
  588500    290.18959   -1444.4706    554.65368    437.09312   -185.38172    32966.302 
  588600     298.3889   -1443.5684    554.38209    475.21565   -351.96695    32966.302 
  588700    291.95018   -1397.7718    566.67443    503.86312    151.51687    32966.302 
  588800    296.55636   -1428.4158    547.26238    474.86911   -292.49071    32966.302 
  588900    299.94726   -1449.7615    530.72337    452.48955   -519.94161    32966.302 
  589000    300.84958   -1414.0847    576.06691    537.63572   -395.65506    32966.302 
  589100    294.89415   -1425.7945    559.19415     481.8216    391.17183    32966.302 
  589200    297.60279   -1432.7951     551.9522    479.96454     533.8912    32966.302 
  589300    289.44108   -1452.3671    560.25897    431.37933    726.80263    32966.302 
  589400    302.61175   -1470.1626    542.41631    455.96484    13.223034    32966.302 
  589500    291.60993   -1434.7952    589.41547    488.02491    69.063529    32966.302 
  589600    298.41089    -1393.455    560.15068    531.19818    212.67445    32966.302 
  589700     299.3641   -1446.5958    566.75735    489.02265   -254.49139    32966.302 
  589800     291.8733   -1431.0022     542.2676    445.87432    -626.2422    32966.302 
  589900    296.01993   -1458.4003    565.52886    460.69822    31.473896    32966.302 
  590000    302.01705   -1446.1414    543.61287     478.4633   -430.26537    32966.302 
  590100    298.55918   -1436.2922    555.24253    484.13092    190.69447    32966.302 
  590200     302.7604   -1424.0308    528.68403    489.04415   -185.70447    32966.302 
  590300    288.62751   -1432.9147    585.90061    472.75322   -318.74883    32966.302 
  590400    300.63015   -1451.7001    564.79917    487.74923    142.04749    32966.302 
  590500    304.76715   -1461.5542     569.6174    501.63005   -229.35239    32966.302 
  590600    292.96127   -1470.4001    510.32846    379.51207   -706.79053    32966.302 
  590700     298.9923   -1450.2459    552.55266    469.46774   -559.39657    32966.302 
  590800     303.4778   -1444.3082    574.19921    517.56224   -560.24598    32966.302 
  590900    308.81436   -1450.3046     550.4421    512.21054   -466.12334    32966.302 
  591000     293.6847    -1457.203    567.57276     453.2614    86.693297    32966.302 
  591100    299.82469   -1424.1928    574.96526    521.73959   -396.13953    32966.302 
  591200    302.89516   -1422.3805    578.60002    541.22667   -666.03845    32966.302 
  591300    302.16396   -1425.0576    586.37984    542.98587   -324.56994    32966.302 
  591400    300.56515   -1408.4741    543.10185    508.98069   -171.57594    32966.302 
  591500    307.05524   -1375.2145    582.17599    610.99077   -473.36327    32966.302 
  591600    295.18321   -1394.7523    591.29209    546.28352   -137.94054    32966.302 
  591700    305.96834    -1400.585     579.9092    578.38363    4.3544198    32966.302 
  591800    301.41129   -1431.5673    572.59647    519.25118     -75.0194    32966.302 
  591900    293.04535    -1415.944    566.68956    490.71378   -515.95694    32966.302 
  592000    284.87329   -1398.5276    578.54041    482.61374    29.664852    32966.302 
  592100    297.33277   -1478.9422    589.54609    470.17653    290.85623    32966.302 
  592200    309.77938   -1467.2508    558.85308    508.08783    308.57018    32966.302 
  592300    298.88211   -1480.0156    550.06042    436.70198   -362.96135    32966.302 
  592400    301.27534   -1422.7544    565.06027    519.90627    44.390398    32966.302 
  592500    299.53928   -1409.2447    553.19336    513.61072     479.2922    32966.302 
  592600     290.2967    -1414.251    553.39811    466.54697    118.11281    32966.302 
  592700    307.35165   -1385.0028    574.46992    594.85182   -312.34875    32966.302 
  592800    291.54083    -1417.745    545.39555    460.73931    771.06179    32966.302 
  592900    294.26251   -1441.0035    566.13814    470.66843    367.44909    32966.302 
  593000    301.57104   -1461.7926    547.02976    464.18969    92.450872    32966.302 
  593100    290.08639   -1492.8423    560.07888     393.6747    401.40445    32966.302 
  593200    293.04563   -1423.2956    568.29452    484.96841    65.233852    32966.302 
  593300    300.90376   -1442.4931    551.14324    484.55144     492.2234    32966.302 
  593400    296.05416   -1438.0651     570.0972    485.75835   -471.02247    32966.302 
  593500    310.69484   -1465.1433    549.26119    504.78943    19.678726    32966.302 
  593600    296.64426     -1465.46    569.18089    460.14529   -369.97194    32966.302 
  593700    299.56192   -1430.1839    564.68557    504.26729    78.211082    32966.302 
  593800    303.47356   -1463.4009    544.01472    468.26568   -342.75662    32966.302 
  593900    298.66264   -1475.1117    549.68192    440.22389   -601.17047    32966.302 
  594000    292.19012   -1486.0986    558.75837    408.71739    -259.2763    32966.302 
  594100    298.37552   -1452.3702    534.51799    446.48849    512.58111    32966.302 
  594200    301.41976   -1490.3094      577.902    465.85338   -446.69825    32966.302 
  594300    296.52677   -1451.7517    544.50784    448.64333    122.86492    32966.302 
  594400    298.05691   -1431.1757     577.9884    509.69662   -221.12006    32966.302 
  594500    293.11987    -1445.867    567.85465     462.2966   -202.10731    32966.302 
  594600    297.97108   -1475.8566      559.375    446.00979   0.81099544    32966.302 
  594700    303.00313   -1443.4107    555.06311    497.15318   -134.04604    32966.302 
  594800    305.84907   -1451.0504    550.85308    498.31673    -710.5295    32966.302 
  594900    302.61588   -1404.1217    582.95729    562.56564   -770.04433    32966.302 
  595000    294.45903   -1426.0234     560.6588    481.06777   -179.20427    32966.302 
  595100     295.9233   -1388.5337    536.44099    501.03511   -575.73748    32966.302 
  595200    294.71455   -1390.3185    603.47213    560.75431   -564.32268    32966.302 
  595300    304.48619   -1403.5851    559.72449    548.42149   -747.17458    32966.302 
  595400    294.77289   -1405.8331     600.5357    542.57005   -1060.0789    32966.302 
  595500     302.1117   -1419.2287    556.59119    518.78717   -643.57799    32966.302 
  595600    310.78065   -1403.1862    581.21327    599.09106   -779.52323    32966.302 
  595700    300.99721   -1372.3092     564.1004    568.11981   -269.29071    32966.302 
  595800    309.11592   -1449.1481    553.85831    518.16213   -667.20189    32966.302 
  595900    305.42219   -1389.2128    597.59669    604.94595    -194.9076    32966.302 
  596000    310.09831   -1439.1006    589.56632    568.40961    382.27915    32966.302 
  596100    294.87779   -1458.3265    539.26867    429.28936    3.8970086    32966.302 
  596200    298.24581    -1428.073    566.00913    501.68371    426.03446    32966.302 
  596300    306.71825   -1449.1317    575.75195     529.1087    107.53161    32966.302 
  596400    294.39653   -1428.6067    554.14596    471.68578    130.28494    32966.302 
  596500    301.47184   -1419.8279    540.46661    499.13758   -92.619149    32966.302 
  596600    289.85375   -1398.0987     560.8215    488.09718    45.961847    32966.302 
  596700    300.69297   -1420.2974     542.4564    497.09647     392.1402    32966.302 
  596800    291.19733    -1436.494    557.79137     452.8154    230.43607    32966.302 
  596900       289.94    -1451.224    569.70029    444.24513   -8.1354833    32966.302 
  597000    295.88323   -1443.1463    551.01946    460.81779     343.5379    32966.302 
  597100    299.32949   -1431.8259    545.25444    482.13135    318.62476    32966.302 
  597200    309.64754   -1428.0882    588.65213    576.44671     439.7984    32966.302 
  597300     290.8084   -1463.0497    580.61457    447.30446    840.35825    32966.302 
  597400    299.65466   -1437.2556    560.20049    493.13461    180.34241    32966.302 
  597500    303.93049   -1434.5831    561.53591    516.69398    -387.6771    32966.302 
  597600    302.07614   -1425.5615    557.44035    513.14094   -121.58187    32966.302 
  597700    292.15891   -1461.3157    575.24484    449.84406   -667.31118    32966.302 
  597800    310.31313   -1445.4031     569.0666    542.58975   -768.70542    32966.302 
  597900    308.81904   -1463.7793    560.33917    508.65431   -577.30221    32966.302 
  598000    298.37585   -1456.0253    547.21153     455.5285     588.2895    32966.302 
  598100    289.57501   -1505.3088    569.18372     387.9748   -369.55335    32966.302 
  598200    304.90221   -1475.2882    573.85865    492.75486   -426.60909    32966.302 
  598300     294.8415   -1451.0679    563.84113    460.95451   -86.366609    32966.302 
  598400    307.55092   -1447.3075    527.56752    486.55588     35.72145    32966.302 
  598500    289.36198   -1461.8717    562.14194    423.39597   -929.92466    32966.302 
  598600    300.59245   -1494.3914    594.92329    475.00974    -214.9695    32966.302 
  598700    287.16328   -1461.5575    568.91714     420.4317   -258.89306    32966.302 
  598800    297.17577   -1484.2639    549.38263    423.97352    -568.2337    32966.302 
  598900    303.18504    -1487.783    535.01817    433.56776   -140.85139    32966.302 
  599000    308.43844   -1448.6469    568.21554    529.92278    238.64806    32966.302 
  599100    303.43706   -1455.1454    568.31838    500.65791     -484.979    32966.302 
  599200    288.68743   -1466.6092    567.02319    420.45537   -766.81488    32966.302 
  599300    310.28103    -1456.098    547.08785     509.7693   -25.502434    32966.302 
  599400    292.75166   -1457.5079    540.78065    421.89804    181.32533    32966.302 
  599500    299.25547    -1456.884    585.26406    496.74442   -53.836986    32966.302 
  599600    293.49145     -1488.41    580.37868    433.97672   -4.0852941    32966.302 
  599700    291.69713   -1491.7093    549.23424    391.32838    462.14587    32966.302 
  599800    299.93635   -1433.7999    568.26727    505.94512    750.11216    32966.302 
  599900    304.70375   -1436.7396    563.37698     519.9144    1037.9121    32966.302 
  600000    295.22838   -1441.7569    557.74663    465.93995   -71.118189    32966.302 
  600100    297.95275   -1436.8755    564.59778    490.12992    125.26531    32966.302 
  600200    300.29459    -1467.755    552.60334    457.96417   -596.47194    32966.302 
  600300    293.66882   -1395.2667    563.15177    510.70413    261.86857    32966.302 
  600400    294.00566   -1407.5172     555.0876    491.92964   -632.20307    32966.302 
  600500    300.66392   -1459.5518    579.03154    494.28432   -62.307519    32966.302 
  600600    291.05172   -1487.1383    557.81733    401.53123     580.2371    32966.302 
  600700    311.55133   -1464.6273    561.33606     521.2967    -161.5206    32966.302 
  600800    310.88562   -1449.5615    563.90402    535.88651   -158.07827    32966.302 
  600900    307.77943   -1457.1343    577.54494    527.75132   -690.79738    32966.302 
  601000    295.56455   -1472.2561    535.05257    414.28392   -676.46503    32966.302 
  601100    299.81768   -1443.0196    573.63999    501.55551    -972.3412    32966.302 
  601200    290.16341   -1425.1656    562.28756    463.91233   -199.64653    32966.302 
  601300    305.58193    -1465.535    569.75413    501.51167    464.22661    32966.302 
  601400    299.91268    -1458.995    559.98452    472.35903    880.48784    32966.302 
  601500    305.42922   -1504.7821    580.79325    472.60541    244.45163    32966.302 
  601600    301.13689   -1456.2499    572.38274    493.10011     972.3813    32966.302 
  601700    291.14372   -1493.2982    573.28571    411.26043   -54.263592    32966.302 
  601800     311.3452   -1445.8111     573.1233    550.95758   -264.19431    32966.302 
  601900    291.57667    -1442.448    562.60783    453.41243    -695.6894    32966.302 
  602000    293.31332   -1469.1188    561.67924    433.75399   -1084.3462    32966.302 
  602100    296.85687   -1453.6602    567.83841    471.57483   -764.35193    32966.302 
  602200    300.14136   -1419.7116    578.69579     531.3993   -431.85104    32966.302 
  602300    298.23537   -1458.5815    573.77062    478.88905   -10.311422    32966.302 
  602400    295.95862    -1477.702    559.04555    434.63288    411.22966    32966.302 
  602500    306.75236   -1413.3764    552.24684    541.51478    74.049509    32966.302 
  602600    303.36771   -1408.8465    572.49816     550.8195     832.7025    32966.302 
  602700    301.50577    -1406.686    584.39336    556.36142    126.46593    32966.302 
  602800    295.17951    -1401.106    558.74668     507.3675   -229.62191    32966.302 
  602900    294.46249   -1404.5495    549.22104    491.11969    453.16698    32966.302 
  603000    302.09155   -1443.3751    569.47514    507.43255   -246.15751    32966.302 
  603100    304.45307    -1375.498    580.12422    596.75697   -98.065031    32966.302 
  603200    292.73069   -1381.6789    575.74582    532.59628   -459.06129    32966.302 
  603300    303.66869   -1376.8693    590.88577     602.5606   -558.06788    32966.302 
  603400    306.48673   -1406.0372    553.23319    548.62579    108.32278    32966.302 
  603500    298.53299   -1442.6694    553.30645    475.69784   -494.30216    32966.302 
  603600     295.8245   -1417.3767     579.5593    514.85867    -75.66401    32966.302 
  603700    304.10404   -1427.9404    563.17692     525.7713    992.60113    32966.302 
  603800    292.12059    -1436.085    572.73662    472.39133    237.25707    32966.302 
  603900     312.0843   -1427.7788    538.35732    537.60353    440.93914    32966.302 
  604000    298.40126   -1454.5261    547.65164    457.58396    266.46555    32966.302 
  604100    307.27043   -1482.4745    586.82031    509.35906    -380.0888    32966.302 
  604200    293.32672   -1419.8747     570.8198    492.19988   -918.72036    32966.302 
  604300    306.16202   -1408.3558    559.68345    551.27268   -126.16395    32966.302 
  604400    300.04387   -1379.9224    565.04497    557.09195   -668.06401    32966.302 
  604500    311.14866   -1431.6607     554.2787    545.36468   -959.36551    32966.302 
  604600    299.72052   -1393.3112    591.51945    568.69905   -535.24056    32966.302 
  604700    303.31338    -1417.228    575.33056    545.02196   -772.90866    32966.302 
  604800    295.02174   -1435.5816    552.44352    465.86729    -65.12594    32966.302 
  604900     303.1396   -1455.7095    559.36361    489.77888   -120.01805    32966.302 
  605000    293.49742   -1441.5824    578.35875    478.81169    202.06674    32966.302 
  605100    293.82562   -1478.9617    545.58152    410.15593   -238.94728    32966.302 
  605200    299.46542   -1462.1569    575.75526    482.92275    -784.0066    32966.302 
  605300    301.35263   -1410.9456    553.70725    520.71542   -575.81652    32966.302 
  605400    294.96987   -1419.4687    545.91861    475.21815   -187.93637    32966.302 
  605500    291.19751     -1478.12    579.02229    432.42111   -570.68847    32966.302 
  605600    293.64097   -1470.1945    579.23093    451.72815   -677.64717    32966.302 
  605700    311.91906   -1469.6696    541.45692    498.05674   -28.515349    32966.302 
  605800    300.71189   -1452.0032    564.18238    487.20317   -489.05214    32966.302 
  605900    303.56085   -1467.7444     582.6715    502.97812   -372.50268    32966.302 
  606000    297.60784   -1444.4793    558.20842     474.5596   -1188.6964    32966.302 
  606100     299.6832   -1464.8153    522.57516    428.08006   -940.01511    32966.302 
  606200    308.83379   -1472.3237    546.84867    486.68675   -611.47275    32966.302 
  606300    305.66115   -1467.5378    557.76507    487.88204   -252.59974    32966.302 
  606400    303.04209   -1526.7945    580.96333    439.84782    12.998364    32966.302 
  606500    290.70852   -1482.9755    560.59952    406.90695    86.384109    32966.302 
  606600    294.47863   -1477.1679    564.39988    433.75395   -416.13831    32966.302 
  606700    279.68696   -1451.1673    542.42163    370.14045   -372.17982    32966.302 
  606800    297.23752   -1483.8585    570.82746    446.10616    19.729009    32966.302 
  606900    306.43484   -1476.5193    561.95398    486.62724     820.2765    32966.302 
  607000    297.34911   -1465.9967    549.55567    443.20639    298.87859    32966.302 
  607100    298.94164   -1473.3704    558.65643    452.21537    50.428317    32966.302 
  607200    302.32408   -1468.6967    559.76188    473.46093    259.02681    32966.302 
  607300    300.03177   -1504.4191     587.5547    455.04967     11.83842    32966.302 
  607400    300.03549   -1494.1135    569.39217     447.2098    420.18503    32966.302 
  607500    315.59958   -1486.1924    586.15379     543.0602    628.90552    32966.302 
  607600    294.11524   -1487.1667    568.03111     425.7248    626.96616    32966.302 
  607700    300.64279   -1498.2067    586.26397    462.76531    454.06788    32966.302 
  607800    301.12075   -1488.2861     548.5267    437.13412    838.18524    32966.302 
  607900    293.70814   -1494.6069    567.40354     415.7955    -13.09172    32966.302 
  608000    281.14728   -1487.6575    583.63912    381.54516   -210.72749    32966.302 
  608100    298.78823   -1466.1501    550.45157     450.5294    103.28026    32966.302 
  608200    299.66084   -1447.1292    573.95248    497.04121   -699.83864    32966.302 
  608300    297.96828   -1426.5741    598.60307    534.50756   -680.60461    32966.302 
  608400    307.60581    -1438.842     581.2531    548.95795   -330.80561    32966.302 
  608500     288.6371   -1478.4965    547.41134    388.72608   -1059.5528    32966.302 
  608600    307.03288   -1458.9567    603.78972    548.76002    -562.9846    32966.302 
  608700    295.14251   -1424.8951    568.89445    493.55699   -238.53313    32966.302 
  608800    300.85009   -1445.7351     598.5124     528.4332   -457.23422    32966.302 
  608900    294.87488   -1485.5488    536.61516    399.40019   -510.90263    32966.302 
  609000    315.87557   -1489.0995    607.13868    562.40001     77.12224    32966.302 
  609100    302.01922   -1452.0866    576.51735    505.43256     66.94275    32966.302 
  609200    308.32698   -1450.1774     575.0129    534.67996    368.41011    32966.302 
  609300    304.74445   -1458.6328    576.63498    511.46523   -687.92366    32966.302 
  609400    301.31929    -1468.174    577.08263    486.70991    237.48716    32966.302 
  609500     290.5488   -1418.7177    591.37367    501.20858    288.90346    32966.302 
  609600    309.45429    -1441.006    593.78055    567.77361    875.60874    32966.302 
  609700    306.88565   -1402.8415    577.77953    578.19189     820.6114    32966.302 
  609800    306.52882   -1393.9324    579.32918    587.01902   -375.27052    32966.302 
  609900    300.92646   -1414.4238    596.47448    558.05578    62.772244    32966.302 
  610000    303.51235    -1403.721    575.42576    559.53401   -876.01733    32966.302 
  610100    297.42026   -1437.2182    552.08361     474.8382   -209.03802    32966.302 
  610200    293.51474   -1454.9166    566.12439    453.32236   -622.73803    32966.302 
  610300    298.14325   -1403.4498    570.30938    530.13821   -589.50754    32966.302 
  610400    293.26997   -1451.7159    580.62536    469.90475    85.612714    32966.302 
  610500    291.30064   -1483.5755    580.57212    428.98706   -54.827323    32966.302 
  610600    302.22737   -1457.5573    561.78066    486.17688    113.67377    32966.302 
  610700    302.94953   -1477.0218    560.66541    468.89926    728.64238    32966.302 
  610800    305.66594   -1490.5772    590.91351    498.01295    331.77894    32966.302 
  610900    296.25137   -1478.8224    563.69162    439.49721    138.38687    32966.302 
  611000    291.02955   -1471.2347    559.40454     418.9207    1086.1681    32966.302 
  611100    305.09607   -1514.6371    593.80512    474.23887    698.21861    32966.302 
  611200    284.14382   -1459.8022    580.89195     420.3552   -209.64684    32966.302 
  611300    294.16914   -1445.2749    594.20571    494.03757     254.5792    32966.302 
  611400    306.41007   -1458.0724    580.61777    523.62461    329.74601    32966.302 
  611500     302.2907   -1471.4157     584.3521     495.1796    299.51069    32966.302 
  611600    291.96359   -1424.3915    592.90529    503.53554    694.04313    32966.302 
  611700     301.8871   -1449.9684    581.07223     511.5015    140.71966    32966.302 
  611800     301.7253   -1441.2936    608.50789    546.87206    108.37827    32966.302 
  611900    299.71217   -1473.1477    562.47469    459.77963    999.45709    32966.302 
  612000    303.43756   -1486.2204    594.05847    495.32532    916.99231    32966.302 
  612100     294.1973   -1509.2706     575.1523    411.11731    837.14165    32966.302 
  612200    293.17204   -1494.0617    566.56688     413.0527    402.17793    32966.302 
  612300     307.7587   -1457.2074    563.68798     513.7265    949.65288    32966.302 
  612400    305.53777   -1484.1541    579.99193    492.92841    378.94879    32966.302 
  612500    300.87706   -1449.1281    577.70865    504.35973     732.8528    32966.302 
  612600     306.5297   -1443.7111    578.62595    536.54107    60.128869    32966.302 
  612700     302.1467   -1470.1242    588.32031    499.78076   -139.20765    32966.302 
  612800    307.84004    -1484.946    585.24933    507.92117    239.98048    32966.302 
  612900    297.20214   -1489.8409    566.75852    435.89303   -170.24347    32966.302 
  613000     298.3619   -1505.6386    571.81687     430.4568   -1026.2802    32966.302 
  613100    307.11187   -1471.4383    566.71927    499.56925   -48.823788    32966.302 
  613200    294.34215   -1522.0205     574.3526    398.22997    418.12269    32966.302 
  613300    296.05269   -1521.6558    568.49234    400.55599   -603.05159    32966.302 
  613400    301.05674   -1477.1048    577.07754    476.57355   -323.45951    32966.302 
  613500    294.55605   -1464.6889    579.27804     461.4651   -807.59042    32966.302 
  613600    298.47363   -1495.8848    564.04693    432.95151    19.458015    32966.302 
  613700    291.07706   -1502.9178    576.16144     404.2117   -191.14709    32966.302 
  613800    292.50046    -1525.221    543.24327    355.49893    -770.1128    32966.302 
  613900    304.20791   -1437.6977     571.9823    525.29434   -904.48157    32966.302 
  614000    295.33134   -1453.7782    582.04223    478.68505   -166.39492    32966.302 
  614100    297.80929   -1462.9045    572.65441    471.50155   -523.25459    32966.302 
  614200    303.22222   -1450.7326    577.92423    513.69424   -631.43554    32966.302 
  614300    297.04631   -1441.0396    581.15519    498.37845   -610.86026    32966.302 
  614400    301.17681   -1463.5204    568.98112    482.61051   -155.92186    32966.302 
  614500    302.91583   -1503.4344    576.45743    458.12468    125.08587    32966.302 
  614600    291.07935   -1481.9692    577.33524    426.34461   -157.97155    32966.302 
  614700    293.21252   -1482.0645    610.89929    469.56744    -254.0489    32966.302 
  614800    305.58089   -1474.2322    591.21764    514.27319    396.14159    32966.302 
  614900     312.1796   -1479.3543    567.58948    515.69596    298.40607    32966.302 
  615000     298.5578   -1441.7743    578.02503    501.42491   -221.78649    32966.302 
  615100    299.77836   -1440.7921    572.46373    502.42699    135.14617    32966.302 
  615200    307.68119   -1404.4946    603.41467    605.81153    322.90479    32966.302 
  615300     302.9937   -1400.4994    599.97068    584.92894    235.92948    32966.302 
  615400    294.90205   -1407.5744    598.29487     539.1786    1146.0413    32966.302 
  615500    297.08531   -1422.8764    577.28282    512.84765    562.10973    32966.302 
  615600    305.44313   -1422.1103    582.43751    556.98505    455.81388    32966.302 
  615700    294.93888   -1392.8939    590.92954    546.66218    596.95657    32966.302 
  615800    296.56741    -1373.007    643.17032    626.23637   -159.62384    32966.302 
  615900    310.97966   -1380.7241    593.77989    635.02979    745.65886    32966.302 
  616000    305.58562    -1427.896    571.96823    541.38156   -405.43762    32966.302 
  616100      302.505   -1416.3714    590.72287    557.57447   -581.74396    32966.302 
  616200    298.01796   -1399.5806    609.74871    572.87386   -887.15663    32966.302 
  616300     308.5745   -1390.8584    568.97089    589.08872   -389.34548    32966.302 
  616400    304.79733    -1393.397    577.24332    577.55125    -345.8057    32966.302 
  616500    300.75652   -1417.9172    588.59864    545.90944   -756.23962    32966.302 
  616600    301.81481    -1416.696    577.72947     541.1006    88.446493    32966.302 
  616700    311.88995   -1427.6704    562.61951    561.08542     44.92676    32966.302 
  616800    297.71552   -1431.9006    613.86528    543.28749   -65.491047    32966.302 
  616900      295.831   -1446.6488    562.31213    468.36915    218.26529    32966.302 
  617000    306.34937   -1449.2558    587.59694    539.14286    940.35027    32966.302 
  617100     290.7477   -1401.4014     606.2848    534.34547    749.19224    32966.302 
  617200    308.29899   -1460.6111    609.55582     558.6611    292.95404    32966.302 
  617300    295.36632   -1495.3036    576.82842     432.1058    271.19106    32966.302 
  617400    304.88179   -1442.3691    573.17861    524.90063    448.39761    32966.302 
  617500    295.18118   -1421.7109    609.39128    537.41483    211.78619    32966.302 
  617600    295.34282   -1464.8141    571.96118    457.62062   -563.17655    32966.302 
  617700    292.52201     -1424.92    561.16521    473.82045   -236.68799    32966.302 
  617800    293.65892    -1447.899    594.04854    488.92334    147.00105    32966.302 
  617900    299.32005   -1461.7176    584.33481    491.27683    -80.28473    32966.302 
  618000    297.77021   -1435.3614    521.15082    447.36237     562.0873    32966.302 
  618100    304.75534   -1422.4431    565.61805    536.68782    352.61554    32966.302 
  618200    300.98279   -1444.6877    608.42843     540.0034     198.9303    32966.302 
  618300    292.41804   -1443.7263    584.45211    477.82559    177.45677    32966.302 
  618400    292.21752   -1451.8317    574.73339    459.08457   -708.13599    32966.302 
  618500     296.0172   -1411.8859    612.10067    553.77199    30.708077    32966.302 
  618600    309.01803   -1416.5651    557.37104    553.81021    1039.7821    32966.302 
  618700    312.18638   -1456.8914    568.28162    538.88195    5.7696221    32966.302 
  618800    298.18567   -1502.1476    588.16498    449.49001   -1185.3336    32966.302 
  618900    295.94101   -1398.1666    570.74646    525.78868    456.64556    32966.302 
  619000    300.08911   -1436.7733    580.34805    515.75101    297.47421    32966.302 
  619100    311.99381    -1482.294     618.6912    563.00843    371.92164    32966.302 
  619200    312.32199   -1478.7715    584.50759    533.84793   -199.35046    32966.302 
  619300    307.45828     -1438.08    592.62581    560.41807    38.577387    32966.302 
  619400    294.96252   -1466.6854    594.88779    476.93704    23.750016    32966.302 
  619500     299.1448   -1454.0684    596.14371    509.93362    457.95814    32966.302 
  619600    301.11076    -1465.136    566.44116      478.153    95.923853    32966.302 
  619700      303.296   -1459.2846    622.56435    550.11968    120.29691    32966.302 
  619800    305.88917   -1454.1742     602.1985    546.72167   -440.02703    32966.302 
  619900    297.13157    -1431.698    565.03834    491.99303    525.08702    32966.302 
  620000    291.63586   -1436.0642    595.08979    492.54885   -208.55303    32966.302 
  620100    301.98772    -1442.335    566.99175    505.51455    124.90864    32966.302 
  620200     300.9516   -1467.1524    599.35591    508.32358   -419.22506    32966.302 
  620300    302.33189   -1424.5186    593.18033    551.09322   -25.395454    32966.302 
  620400    298.62253   -1469.1668    581.11986    477.42326   -223.16669    32966.302 
  620500    299.44189   -1490.7981    578.18527      456.604   -90.109843    32966.302 
  620600    294.72671   -1416.3628    577.62025    508.91372    161.69855    32966.302 
  620700    313.75686   -1451.9981    570.85272    553.52752   -273.59035    32966.302 
  620800    303.59056   -1464.9941    594.32295    517.51565    -219.3204    32966.302 
  620900    303.75242   -1481.4003    596.73511    504.26182    639.25563    32966.302 
  621000    301.15112   -1451.7719    586.28222    511.54267     778.3889    32966.302 
  621100    299.32264   -1440.5076    582.59535    510.75928   -214.79706    32966.302 
  621200    299.32642   -1444.8343     618.6577    542.51221    229.64549    32966.302 
  621300    293.91793    -1441.882    576.06352    478.13972    200.74117    32966.302 
  621400    301.64279   -1478.9172    578.17346    478.53681   -273.16741    32966.302 
  621500     304.7551   -1510.2322    565.37852    448.65811    408.73747    32966.302 
  621600     286.5725   -1467.3588    591.56132    434.57324    215.66085    32966.302 
  621700    303.55333   -1460.2252    604.28792    532.07931    484.90325    32966.302 
  621800    298.12957    -1419.982    584.33999    527.57411    316.66196    32966.302 
  621900    302.86019   -1456.7235    574.24888    502.37256    238.98482    32966.302 
  622000    291.67253   -1431.6069    598.80365    500.88762    45.858621    32966.302 
  622100    307.06336   -1485.0127    574.22352    493.27726   -262.94297    32966.302 
  622200    292.97523   -1489.7602    577.23535     427.1227   -338.86989    32966.302 
  622300    300.74314   -1492.1082    552.86058    435.91923    220.15185    32966.302 
  622400    300.00692   -1497.6166    557.78548    431.96927   -6.1641664    32966.302 
  622500     290.1768   -1487.1155    566.86438    406.60049   -57.437345    32966.302 
  622600    295.04918   -1487.3386    560.91192    422.70415    293.26517    32966.302 
  622700     296.3627   -1476.7407    583.72051    462.11686    305.39054    32966.302 
  622800    300.73401   -1475.4795    549.80813     449.4537   -234.60016    32966.302 
  622900    294.72572   -1439.5047    550.70921    458.85636    779.19523    32966.302 
  623000    300.74918   -1501.0235    583.34803    457.51901    115.11181    32966.302 
  623100    305.37534   -1444.5681    586.15957    537.93933    148.52582    32966.302 
  623200    298.32764   -1470.0435    593.39969    487.47805    -458.8393    32966.302 
  623300     289.4619   -1451.9075    575.08038     446.7555    605.07383    32966.302 
  623400    307.90377   -1509.7291     592.3399    490.52012    20.946143    32966.302 
  623500    306.09631   -1526.4435    586.96236    460.16343    120.44587    32966.302 
  623600    292.01156   -1480.9389    543.54495    397.84722    180.04338    32966.302 
  623700    298.54573   -1476.8544    620.82976     509.0944    75.191828    32966.302 
  623800    306.07505   -1434.2087    581.59114    546.92979    -386.7593    32966.302 
  623900    297.70805   -1434.2031     592.9202    520.00574    248.54674    32966.302 
  624000    295.07753    -1443.438    590.79507    496.61754    556.11356    32966.302 
  624100    300.15725   -1475.1935    582.11761    479.41192    188.46517    32966.302 
  624200    288.59977   -1430.8303    589.09176      477.902    105.58986    32966.302 
  624300    305.52292    -1477.076    574.89928      494.846    176.89907    32966.302 
  624400    302.29593   -1443.8293    582.42996    520.86772   -113.97963    32966.302 
  624500    286.29458   -1416.1125    581.81069    474.79811    653.87224    32966.302 
  624600    293.62946    -1482.689    576.66077    436.61082   -253.14595    32966.302 
  624700    299.56691   -1454.6875    608.47474    523.57571   -136.64796    32966.302 
  624800    294.42917    -1445.859    586.44299     486.8798   -9.1807576    32966.302 
  624900    295.12982   -1437.4719    577.42794    489.45562    481.91382    32966.302 
  625000    302.49706   -1445.5502    590.85244    528.48896   -185.38315    32966.302 
  625100    298.06051   -1436.3881    577.09881    503.61109    -158.1109    32966.302 
  625200     292.5062   -1436.0727    584.30716    485.73743   -400.09778    32966.302 
  625300    291.66306    -1428.019    583.48417    489.11277   -788.56002    32966.302 
  625400    291.15032   -1481.8871    582.37363    431.78957   -619.42154    32966.302 
  625500    300.16082   -1457.2204    583.53928    498.82306   -99.649571    32966.302 
  625600    302.19656   -1478.8239    604.22221    507.21102   -25.231045    32966.302 
  625700    308.33512   -1492.8789    590.51746    507.52021   -314.68938    32966.302 
  625800    310.65485   -1437.4937    581.48064    564.47572   -137.60607    32966.302 
  625900    301.73237   -1428.8002    555.99376    506.88375   -525.52329    32966.302 
  626000    305.61176   -1464.2369    593.04697    526.23894    -1027.383    32966.302 
  626100    298.89766   -1439.7936    596.39135    523.32604   -442.72842    32966.302 
  626200    289.06576   -1450.8118    593.75656    464.71606    21.114701    32966.302 
  626300    300.06668   -1457.7077    580.84289    495.20889   -24.954236    32966.302 
  626400    303.23667   -1428.1055    585.48918    543.95235    116.40803    32966.302 
  626500    297.55724   -1431.8806    583.73623    512.45472    183.31564    32966.302 
  626600    301.96664   -1457.6577    579.15561    502.25931    80.177821    32966.302 
  626700    305.51832   -1475.5985    587.97608    509.37921    151.46578    32966.302 
  626800    297.01723   -1470.9695    564.71334    451.87375    465.13624    32966.302 
  626900    310.08657   -1453.3698    604.34908    568.86949    209.63206    32966.302 
  627000    301.26039   -1459.9216    569.06873     486.6791   -476.24722    32966.302 
  627100    309.85869   -1499.9542    568.17328    485.06733    637.96022    32966.302 
  627200    307.39768   -1476.1729     574.0653    503.48754    790.88836    32966.302 
  627300    300.73301   -1477.3548    568.74193    466.50764    493.55137    32966.302 
  627400    311.15465   -1471.1449     584.1897    535.81894    273.67344    32966.302 
  627500    313.00906   -1460.9604    598.31233    568.60551    679.44073    32966.302 
  627600    303.32334   -1511.1479     575.1554    450.97246    501.81723    32966.302 
  627700    308.55624   -1542.3774    551.56896    420.08433    872.52538    32966.302 
  627800    299.90496    -1465.229    570.45087     476.5561    10.199985    32966.302 
  627900    303.66186   -1493.9924    559.41181     453.9323   -507.19585    32966.302 
  628000    308.27433   -1485.0976    543.85516    468.36129     -483.746    32966.302 
  628100    293.03199   -1477.1944    580.80945    443.52216   -103.70974    32966.302 
  628200    310.23492   -1430.6656    608.47444    596.37745    48.496054    32966.302 
  628300     287.9733   -1424.6558    575.18535    467.30552   -151.73562    32966.302 
  628400    309.73078   -1465.4501    583.12499     533.9383   -114.94048    32966.302 
  628500    303.27204   -1464.4794    577.39664    499.64761     511.6702    32966.302 
  628600    299.92296   -1461.4195    565.76336    475.76038    822.24657    32966.302 
  628700    290.90919   -1443.7254    570.74507    457.22022    522.32021    32966.302 
  628800    298.17996   -1419.5844    581.06157    524.92374    315.44597    32966.302 
  628900    294.39695   -1468.7085    589.38584    466.82584    454.08277    32966.302 
  629000    300.19209   -1416.9279    586.53781    542.25708    1186.4957    32966.302 
  629100    303.29287   -1468.6906    562.73746    480.87254    228.92928    32966.302 
  629200    304.09311   -1511.7312    596.96592    475.71952    545.76686    32966.302 
  629300    297.32154   -1493.6926    552.41365    418.24242     1054.908    32966.302 
  629400    307.03833   -1480.5951    599.67586    523.03278    649.61485    32966.302 
  629500    311.58376   -1465.2611    543.21814    502.69327   -138.85181    32966.302 
  629600    301.59271   -1477.3292    586.83586    488.55818   -453.47816    32966.302 
  629700    296.95414   -1501.2489      602.023    458.61548   -663.69941    32966.302 
  629800    290.89834   -1538.2854    569.43741    361.30286    58.939943    32966.302 
  629900    294.51612   -1451.1526    593.20177    488.74263    564.84127    32966.302 
  630000    306.71499   -1478.8272    591.80392    515.45019   -80.320184    32966.302 
  630100    302.10665   -1494.5327    562.79686    449.66578    205.30042    32966.302 
  630200    313.53974   -1458.6526    570.51096    545.53845    201.27974    32966.302 
  630300    312.63211   -1449.8079    569.03588    548.75792    309.84691    32966.302 
  630400    297.43511   -1499.1581    581.89743    442.77995    222.43732    32966.302 
  630500    304.51042   -1473.0481    587.61758    506.96242    443.74565    32966.302 
  630600      310.604   -1465.8853    577.96495    532.33586   -28.854961    32966.302 
  630700    302.75801   -1486.6993    584.29629    481.97694   -622.27375    32966.302 
  630800    291.44706   -1430.4214    569.63544    471.87398   -482.84594    32966.302 
  630900    298.46368   -1461.9019    601.12433     503.9663    96.894832    32966.302 
  631000    292.32872   -1489.6676    579.46139    426.48518    -475.7482    32966.302 
  631100    293.30256    -1494.775    567.16179    413.53113   -127.88146    32966.302 
  631200    301.89236   -1464.0417    590.65613     507.0361    436.34205    32966.302 
  631300    292.83769   -1474.1698    547.37371    412.22259   -20.712552    32966.302 
  631400    309.88946   -1487.5834    573.20936    502.61491    35.123798    32966.302 
  631500    293.40881   -1485.0106    576.29001    432.90954   -153.66701    32966.302 
  631600    298.38323   -1543.5971    554.99712    375.77602    40.711468    32966.302 
  631700    297.27456   -1486.6431    574.97166     447.6351    186.22611    32966.302 
  631800    307.69855    -1490.785     553.6951    469.88103    169.53148    32966.302 
  631900    294.75863   -1452.3192    602.64878    498.13185   -113.84537    32966.302 
  632000    305.42129   -1474.2265    586.54266    508.87413    67.519947    32966.302 
  632100    295.07025   -1484.6212    588.80727    453.41325    545.27568    32966.302 
  632200    299.06952   -1465.8402    558.73993    460.41382    1113.8143    32966.302 
  632300    291.02981   -1486.3759    576.36098    420.73714   -66.998236    32966.302 
  632400    305.59743    -1543.832    558.30293    411.83436    317.76693    32966.302 
  632500    304.98965   -1558.6612      585.784     421.7071    247.24307    32966.302 
  632600    291.52122   -1530.0859    570.47056     373.3837    209.21455    32966.302 
  632700    302.37102   -1520.8253    581.77515    443.56026   -336.16585    32966.302 
  632800    307.99818   -1542.6869    552.92877    418.58278   -60.818978    32966.302 
  632900    304.00141   -1519.0213    573.27791    444.32216   -41.668206    32966.302 
  633000    290.59016   -1517.0064    583.60738    395.34269   -45.248891    32966.302 
  633100    302.31014   -1454.4331    559.08482     486.9838   -294.59279    32966.302 
  633200    304.27454   -1516.4841    561.79848    436.62879    -363.1185    32966.302 
  633300     302.0859   -1514.6393    565.95832    432.62569   -367.28468    32966.302 
  633400    302.71893    -1501.927    577.93616    460.21046   -494.93761    32966.302 
  633500    298.01936   -1433.9258    566.44107    495.22749    27.026989    32966.302 
  633600    303.85457   -1438.9359    597.21121    547.66937    213.16551    32966.302 
  633700    305.24172   -1473.2456    589.81892    512.31021      -416.62    32966.302 
  633800    301.30192    -1496.975    593.36716    474.11407   -484.44565    32966.302 
  633900     299.5909   -1452.7003    592.10209    509.29995    797.40047    32966.302 
  634000    305.01541   -1437.0135    582.54975    540.23834    413.91366    32966.302 
  634100    302.19167   -1477.5697    567.34308    471.56373    70.609017    32966.302 
  634200     294.9708   -1491.1856    602.75291    460.33973   -204.73498    32966.302 
  634300    310.99346   -1472.8559    597.86747    547.04867   -228.82195    32966.302 
  634400    296.64539   -1487.3903    575.54681    444.58616   -1071.3743    32966.302 
  634500    298.27548   -1478.1999      577.777    463.46045   -344.14531    32966.302 
  634600    291.87246   -1476.8212      579.328    437.11193   -952.30386    32966.302 
  634700    299.09543   -1454.0388    577.42338    491.01713   -279.92752    32966.302 
  634800    304.05563   -1466.2659    564.94233    488.98986   -606.98394    32966.302 
  634900    299.32858   -1489.1701     595.9986    475.52722    111.58753    32966.302 
  635000    300.32915    -1479.167    573.18627    467.29308    534.26332    32966.302 
  635100    290.61004     -1478.85    590.53801    440.52065    149.48402    32966.302 
  635200    313.66751   -1493.5977    592.62061    533.28726    652.33618    32966.302 
  635300    292.68773   -1497.5765    583.07332    423.82977     958.4297    32966.302 
  635400    305.19091   -1483.9959    618.46562    529.97426    1008.9177    32966.302 
  635500    309.73267   -1495.0036    580.91665    502.18503   -223.75348    32966.302 
  635600    305.10024   -1490.0729    602.83626    507.85329    250.76991    32966.302 
  635700    292.98062   -1482.2782     587.0795    444.47352    534.10982    32966.302 
  635800    284.13236   -1508.7774    606.43395    396.86957    216.34623    32966.302 
  635900    303.47054   -1539.8227    596.25023    444.06553   -105.16915    32966.302 
  636000    294.32014   -1518.3091    563.36262     390.8508    658.90196    32966.302 
  636100    291.72669    -1492.483    576.91532    418.37086    141.46368    32966.302 
  636200    308.01925   -1490.9464    589.92129    507.41214   -185.96727    32966.302 
  636300    299.01128   -1504.5005    586.24603    448.99329      1029.65    32966.302 
  636400    304.35708   -1501.1027    578.70193    469.29103    348.33458    32966.302 
  636500    293.38738    -1534.716    603.68326    410.49939   -253.61147    32966.302 
  636600    310.47786   -1501.0345    571.21122    489.85617    769.85602    32966.302 
  636700    303.04892   -1462.7359    565.72585     488.7001    561.33351    32966.302 
  636800     296.5952   -1446.5424    617.75826    527.41597    560.18139    32966.302 
  636900    291.67063   -1463.5381    601.57536    471.71945    329.43406    32966.302 
  637000     298.5974   -1471.8112    586.61578    480.15992    404.12204    32966.302 
  637100    288.24302   -1473.0926    605.69188    450.60856    345.36168    32966.302 
  637200    306.64975   -1521.6391    572.66124    453.19729     402.9883    32966.302 
  637300    295.28512   -1514.2139    555.44694    391.44278    110.50188    32966.302 
  637400    306.55636   -1488.5661    593.01268    506.19469   -557.99172    32966.302 
  637500    304.59475   -1532.3383    570.92258    431.36287   -59.295455    32966.302 
  637600    297.94474    -1553.441    559.33396    368.26398   -191.45502    32966.302 
  637700    296.97582   -1485.7188    592.60773    464.82943      656.087    32966.302 
  637800    302.16293   -1522.4234    590.63867    449.87419    512.82959    32966.302 
  637900    307.80675    -1530.068    577.22121    454.61884    681.59066    32966.302 
  638000      300.871   -1480.9936    621.41191    516.16981    911.87186    32966.302 
  638100    302.82897   -1502.2863    565.63397    448.05206    739.02395    32966.302 
  638200    288.36197   -1547.3772    590.09876    361.27471    691.50996    32966.302 
  638300    304.01912   -1536.7399    619.22304    472.62956    248.01118    32966.302 
  638400    290.93568   -1518.8987    580.60682    392.02968   -176.43381    32966.302 
  638500    301.92031   -1547.7348    576.66558     409.4803   -814.05563    32966.302 
  638600    312.71895   -1525.5409    556.76205    461.14814   -204.90977    32966.302 
  638700    298.13956   -1503.8873    571.06114    430.43567   -321.41545    32966.302 
  638800    308.80633    -1544.736    621.67165    488.97189   -74.597081    32966.302 
  638900    313.57317   -1521.1549     565.6747    478.35273    476.94643    32966.302 
  639000    300.23371   -1512.2974    560.91517    421.45517    249.07261    32966.302 
  639100    301.06323   -1506.6303    576.27335    446.27356   0.36676504    32966.302 
  639200    291.84168   -1515.9985    578.47161    396.93746   -227.98354    32966.302 
  639300    300.29197   -1477.7197    561.69896    457.08314   -970.90897    32966.302 
  639400    290.30217   -1490.4505    574.73374    411.70815    -477.0704    32966.302 
  639500    297.46499   -1493.5299    583.44314     450.0906   -546.17103    32966.302 
  639600    306.79987   -1467.5949    576.60396    511.87068   -526.28683    32966.302 
  639700    301.50227   -1481.8903    576.04552    472.79323    13.764592    32966.302 
  639800    308.05486    -1445.786    587.67378    550.48797    393.79824    32966.302 
  639900    296.70977     -1414.94    578.68978    520.47381   -314.43222    32966.302 
  640000    295.69979   -1446.9815    567.09089     472.2152   -416.32199    32966.302 
  640100    302.30235   -1488.8985    570.91607    464.31403   -991.25586    32966.302 
  640200    308.12262   -1422.2515    572.19909     558.8575   -64.233745    32966.302 
  640300    297.16363   -1430.0514    573.03674    501.78464     35.40213    32966.302 
  640400    298.18797   -1456.6366    585.25151    492.09809   -86.285404    32966.302 
  640500    309.25598   -1483.1554    557.22212    488.15909   -44.482178    32966.302 
  640600    311.28292   -1450.1438    591.69192    564.90873    -889.5603    32966.302 
  640700    294.19914   -1425.3757    607.25255    527.12081    65.969401    32966.302 
  640800    296.42652   -1467.3432     549.6773    437.76298    21.022321    32966.302 
  640900    294.01854   -1436.2083    595.22456    503.43445    49.773014    32966.302 
  641000      297.775   -1430.7117    590.61655    521.49968    38.100515    32966.302 
  641100    306.10143   -1467.9122    597.84801    529.60376   -117.76635    32966.302 
  641200    302.02094   -1455.6668     568.7338    494.07666   -98.663164    32966.302 
  641300    301.26394   -1476.5388    567.26557    468.27506   -709.24677    32966.302 
  641400    298.03074   -1479.1965     574.9836    458.55138   -757.65748    32966.302 
  641500    295.75145   -1476.3925    565.99557    441.94506   -299.09041    32966.302 
  641600    303.66664   -1477.8687    570.51935    481.18539    92.758357    32966.302 
  641700    296.68878   -1461.4765     566.3173    461.46883   -593.29019    32966.302 
  641800    298.07832   -1521.4559    545.00076    386.52662   -180.61486    32966.302 
  641900    306.47078   -1496.9608    565.65974    470.05577   -181.57304    32966.302 
  642000    297.97783   -1507.4238    571.86352    426.96195    86.589724    32966.302 
  642100    293.36626   -1492.6109    572.16286    420.98757    57.927933    32966.302 
  642200    313.16533   -1496.1837    528.19744    463.98184    143.36518    32966.302 
  642300    303.32574   -1473.0498    575.80175    489.72785   -112.84337    32966.302 
  642400    298.30419   -1511.8118    612.93733    465.14011   -382.75269    32966.302 
  642500     304.2118   -1462.7547    571.04446    499.31722   -431.93671    32966.302 
  642600    300.60023   -1448.9978    572.45881    497.97439   -639.13562    32966.302 
  642700     304.3435   -1484.5642    587.28002    494.34558   -361.78267    32966.302 
  642800    310.54107   -1456.9111    553.10001    516.15735   -358.43494    32966.302 
  642900    300.14621   -1473.1206    567.92964    467.24641   -195.91823    32966.302 
  643000    293.52428   -1491.8795    602.38822    452.66691   -848.77895    32966.302 
  643100    298.24316   -1473.9473    590.40422    480.19246   -513.69355    32966.302 
  643200    311.89875    -1463.143    548.82869    511.86227    644.14068    32966.302 
  643300    300.55751     -1437.96    584.54433    520.90239    167.52914    32966.302 
  643400     289.3587   -1454.1146    574.83635    443.83253    148.36551    32966.302 
  643500     293.6816   -1417.1392    555.48432    481.22266    223.30291    32966.302 
  643600    299.03819   -1449.9044    564.87585    482.34227   -56.148973    32966.302 
  643700    295.35225   -1471.6383    589.78548    468.66383   -65.972417    32966.302 
  643800    299.57854   -1482.7505    575.77167    462.86282    533.22498    32966.302 
  643900    296.54525   -1503.0171    548.24752    401.20219    253.43579    32966.302 
  644000    297.88243    -1501.481    593.68079    454.28589    -223.8153    32966.302 
  644100    288.62482   -1430.3643    581.61604    471.00682    108.21775    32966.302 
  644200    311.24292   -1449.9789    581.82886    555.02766    7.6778138    32966.302 
  644300    291.26483   -1420.8747    569.22842    480.18041   -16.813608    32966.302 
  644400     301.4517   -1437.1472    595.83943    537.09897    -111.0163    32966.302 
  644500    284.98016   -1420.7943    551.27171    433.56701    734.39233    32966.302 
  644600    294.24954   -1471.4366    592.66913    466.70695    291.91678    32966.302 
  644700    293.64164   -1495.0882    609.65958    457.26618   -332.31056    32966.302 
  644800    305.69668   -1479.1959    552.78029     471.4016     815.1422    32966.302 
  644900    298.90926   -1428.8326    588.26884    526.21752    812.84611    32966.302 
  645000    305.16983   -1470.8618    580.21548    504.76183    -141.0914    32966.302 
  645100    295.06116   -1475.7071    577.07638    450.55491    287.79561    32966.302 
  645200     304.7936   -1460.1597    555.90531    489.43348    482.04373    32966.302 
  645300    295.17977   -1442.8086    567.84398    474.76337    690.35576    32966.302 
  645400    303.77156   -1409.5283    601.99699    581.48312    380.12802    32966.302 
  645500    294.48472   -1459.8778    575.54586    462.21794    1177.9602    32966.302 
  645600    307.35858   -1451.4492     572.9987    526.96586    228.30267    32966.302 
  645700    299.89778   -1489.5769    582.82006    464.54447   -525.69589    32966.302 
  645800    300.17137   -1404.1902    560.79003    529.15224    115.34902    32966.302 
  645900    295.15459   -1407.4815    586.59702    528.72839    423.59626    32966.302 
  646000    297.10577   -1442.3176    595.63811    511.85521   -301.49831    32966.302 
  646100     294.0217   -1431.2913     572.7931    485.93447    239.09408    32966.302 
  646200    302.32219   -1482.8984    536.50075    435.98952   -416.51077    32966.302 
  646300    296.95742   -1487.6974    567.93864    438.09766   -565.54497    32966.302 
  646400    301.18916   -1498.6807    578.62869    457.15432   -255.17311    32966.302 
  646500    301.40816   -1519.9449    572.03431    430.29711    460.25885    32966.302 
  646600    299.19237   -1529.3954    555.76134    394.44182   -538.69752    32966.302 
  646700    301.91698   -1501.0373     544.5731    424.07007   -325.64268    32966.302 
  646800    300.51465   -1437.1606    563.03563    499.99706    525.81443    32966.302 
  646900     300.6665   -1449.4648    568.34099    493.69255    -12.34129    32966.302 
  647000    302.59833   -1458.3527     585.5908     510.8879    111.07751    32966.302 
  647100    306.74817   -1480.6174    573.58248    495.59028    97.851119    32966.302 
  647200    293.61403    -1462.218    549.93637    430.28689     118.1475    32966.302 
  647300    302.32448   -1464.2067    556.88412    475.07503   -720.64511    32966.302 
  647400    306.47778   -1474.7342    545.05779    471.71243   -1028.1074    32966.302 
  647500    300.91748   -1407.1238    568.50385    537.34407   -668.40121    32966.302 
  647600    301.04851   -1421.0351     587.3639    542.89198    -1102.504    32966.302 
  647700    298.83679    -1403.505    555.45752    518.40251   -691.59757    32966.302 
  647800    308.16621   -1430.5628    565.87558    544.42202   -1097.4918    32966.302 
  647900    297.73111   -1428.5602    563.85647    496.69045   -513.67553    32966.302 
  648000    291.34765   -1426.8912    592.12776    497.44198   -616.00891    32966.302 
  648100    293.18705   -1466.3754    579.50707    453.74786   -246.15933    32966.302 
  648200    303.78228   -1428.8554    547.19556    507.40363    268.87114    32966.302 
  648300    300.03736   -1444.4499    574.21772    501.70747   -128.67475    32966.302 
  648400    294.55198   -1450.2205    569.21324    465.85014   -639.04229    32966.302 
  648500    296.19624   -1420.3466    540.68916    474.71839     307.3735    32966.302 
  648600    299.25983   -1406.4085    569.98328    531.95909   -620.25387    32966.302 
  648700    294.18563   -1421.0382     589.0255    513.16953   -225.42978    32966.302 
  648800    293.69665   -1371.0214    569.83692    541.76184    95.795954    32966.302 
  648900    297.36535    -1446.016    587.46237    501.16803    444.74097    32966.302 
  649000     309.6935   -1460.4534     562.0399    517.67944    999.31831    32966.302 
  649100    299.24832   -1420.4078    586.06348    533.98734    915.04006    32966.302 
  649200    303.21623   -1502.4273    555.94274    439.99065   -88.711746    32966.302 
  649300    307.59119   -1481.6976    565.18215     489.9645    180.78265    32966.302 
  649400    292.12301   -1382.9346    564.63688    517.45304     1184.124    32966.302 
  649500    296.78514   -1419.1608    589.20466    527.11252    737.55019    32966.302 
  649600    291.92405   -1428.5222    564.36222      470.681    1405.6716    32966.302 
  649700    303.13964   -1440.3596    571.04409    516.80945     763.1587    32966.302 
  649800    286.19646   -1411.1873    597.43191    494.89584    957.25914    32966.302 
  649900    288.20379   -1427.4214    561.32162    451.73008    475.52465    32966.302 
  650000    302.73466   -1473.6318    559.02665    469.66803    168.20715    32966.302 
  650100    301.27407   -1460.0086    558.74846     476.3344    858.16595    32966.302 
  650200    285.61244   -1481.1487    568.19009    393.02219    430.06168    32966.302 
  650300    294.17717   -1477.8453    596.49674    463.79496    319.03515    32966.302 
  650400    293.10232   -1456.4553    569.68099    453.45446    371.20735    32966.302 
  650500    294.55681   -1441.1784    565.37649    471.07751    582.70636    32966.302 
  650600    309.38384   -1476.4158    571.36595    509.62713   -160.30613    32966.302 
  650700    286.81549   -1445.4203    576.55076    442.61229   -396.70039    32966.302 
  650800    291.15385   -1442.7745    559.46666     448.0114   -593.93911    32966.302 
  650900    297.70735   -1420.5457    568.38451    509.12429   -464.89917    32966.302 
  651000    310.47801   -1450.8627    549.85724    518.67464    190.90436    32966.302 
  651100    299.34698   -1414.0904    570.63409    525.32648    884.09809    32966.302 
  651200    296.35312   -1417.2026    577.79812    515.68872    346.00997    32966.302 
  651300    300.24267   -1433.8681    579.64554    518.65588    941.91003    32966.302 
  651400    298.27566   -1442.7619    573.27852    494.40075     679.7027    32966.302 
  651500    304.74082   -1451.2307    570.67469    512.89045    236.17101    32966.302 
  651600    296.17474   -1441.7268    586.72951    499.28027    434.74827    32966.302 
  651700    304.67381   -1411.2611    569.17791    551.05686    1245.7848    32966.302 
  651800    310.21101   -1439.9516     562.5163    541.02399    622.52702    32966.302 
  651900    296.47311   -1477.8925    619.43674    497.18605    344.24415    32966.302 
  652000    308.56917    -1505.281    569.57464     475.2455    264.65038    32966.302 
  652100    300.83464   -1435.3237    568.20626    508.46778    204.71538    32966.302 
  652200    302.80181   -1451.0359    572.09715    505.64151   -78.934101    32966.302 
  652300    288.44335   -1456.1942    566.39924    429.13035   -2.7089534    32966.302 
  652400    297.00228   -1443.8565    544.41056    458.61556   -196.48029    32966.302 
  652500     305.1298   -1455.2383    590.37882    530.36567   -279.44378    32966.302 
  652600    309.39322   -1465.3907     557.9728    507.30203    446.57105    32966.302 
  652700    295.91657   -1440.7705    556.05739    468.38391    478.73753    32966.302 
  652800    309.29856   -1440.6276    569.90223    543.56164    78.708747    32966.302 
  652900    294.51151   -1442.3631    590.20927    494.51846   -318.66672    32966.302 
  653000    304.15116   -1415.3323    564.81976    540.23768    633.18845    32966.302 
  653100    298.93079   -1436.5186     549.2782    479.63935    895.04844    32966.302 
  653200    291.79826   -1463.4892    573.34684    444.12345    580.19544    32966.302 
  653300    296.93217   -1450.7194    582.05305    489.07462    1078.9882    32966.302 
  653400    296.54481   -1479.5662    575.60461    452.00816    1625.4949    32966.302 
  653500    312.73877   -1486.0552    594.45729    538.41969    630.44514    32966.302 
  653600    290.40834    -1454.391    547.44468    420.96402   -32.601492    32966.302 
  653700    304.59451   -1478.7374    564.76421    478.80429    799.51725    32966.302 
  653800    301.56581   -1484.7894    565.76441    459.90354    192.13438    32966.302 
  653900    301.88446    -1490.964    569.99273    459.41436    4.5835211    32966.302 
  654000    285.37295    -1457.836    519.96437     367.0141    605.14546    32966.302 
  654100    299.45193   -1475.8256    557.70915    451.14624    286.25434    32966.302 
  654200    304.40665   -1483.7388    564.24895    472.42867    297.34388    32966.302 
  654300    311.03077   -1444.7684    558.85848    536.29781     468.2005    32966.302 
  654400    296.85529    -1405.941    571.76835     523.2167    644.07472    32966.302 
  654500    308.68044   -1433.0806    590.22825     568.6083    331.32868    32966.302 
  654600    294.83494   -1414.6667    569.90399    503.38852    22.327218    32966.302 
  654700    290.90489   -1463.9545    581.91337    448.13975   -182.78047    32966.302 
  654800    297.50369   -1448.2092    553.16015    465.30514   -464.31565    32966.302 
  654900    299.12061   -1469.7789    558.45278    456.42162   -72.172276    32966.302 
  655000    299.42381   -1444.1468    569.84008    494.82741    -103.6088    32966.302 
  655100    307.54682   -1483.8915    572.71246    495.09808    -538.8238    32966.302 
  655200    294.83304    -1424.718     590.0901    513.51468    -50.40919    32966.302 
  655300    293.06505   -1483.6769    572.31938    428.70073   -488.05861    32966.302 
  655400    294.96686   -1463.7544    556.46164    441.46169   -462.81973    32966.302 
  655500      298.758   -1449.4472    558.08887    474.73136    156.67665    32966.302 
  655600    307.46221   -1416.8193    587.26718    576.33804    342.06807    32966.302 
  655700    302.91298   -1423.2369    588.48978    550.34151    280.97409    32966.302 
  655800    306.59959    -1466.722    561.99796    497.22174    1110.0878    32966.302 
  655900    294.61133   -1435.9673    582.09831    493.25977    417.83086    32966.302 
  656000      302.256   -1463.2391    562.67151    481.51689    46.854506    32966.302 
  656100    292.80586   -1454.9166    585.74048    469.69705    160.53915    32966.302 
  656200    301.09977   -1427.0802    579.53504    529.25243    136.11524    32966.302 
  656300    295.71052   -1468.8093    555.10182    438.44741   -171.59349    32966.302 
  656400    310.36008   -1459.5579    577.94106    537.52404    -468.3826    32966.302 
  656500    297.67421   -1474.7735    582.93817    469.29864   -792.90529    32966.302 
  656600    299.08087   -1435.4499    570.85395    502.97004    153.56639    32966.302 
  656700    300.62129   -1469.5996    557.56382    462.57393   -120.86104    32966.302 
  656800    293.69008   -1493.3786    576.16459    425.70221    -200.9799    32966.302 
  656900    296.31234   -1483.7857    583.24825    454.36928   -555.60134    32966.302 
  657000    306.03884   -1506.5457    545.75433    438.59037    -328.2585    32966.302 
  657100    292.28715    -1486.571    578.52777    428.45806   -771.86489    32966.302 
  657200    292.91011   -1516.9418    539.96758    362.37557   -506.32346    32966.302 
  657300    308.32656   -1505.8599    542.63471    446.61736    985.36121    32966.302 
  657400    312.16454   -1458.6907    586.25311    554.95436     187.2849    32966.302 
  657500    306.92456   -1467.2187    577.50648    513.71955   -68.342038    32966.302 
  657600    301.12268   -1375.4327    586.01311    587.48269    655.84922    32966.302 
  657700    291.38183   -1374.6428     601.7272    559.44609    258.54558    32966.302 
  657800    299.33721   -1419.0852    574.50824    524.16117    157.91149    32966.302 
  657900    310.33818   -1403.6319    582.54531     597.9542    383.94838    32966.302 
  658000    305.78598   -1437.5411    588.23414    548.91862    44.000053    32966.302 
  658100    307.81843   -1465.2707    603.53677    545.78512   -497.74362    32966.302 
  658200    300.69636   -1446.5617     534.9049    463.29612   -257.23543    32966.302 
  658300    308.28541   -1451.2018    557.86483    516.31742    78.322599    32966.302 
  658400    300.00169   -1467.4704    576.82658    481.13271   -557.62407    32966.302 
  658500    314.67872   -1414.2317    579.42179    604.07817    409.33525    32966.302 
  658600    306.55782   -1432.7757    558.24283    527.22193    639.99325    32966.302 
  658700     292.5607   -1453.7865    583.40482    467.37048    367.41625    32966.302 
  658800     298.5566   -1474.8439    550.93427    441.25914    631.72706    32966.302 
  658900    300.86027   -1431.4138    563.88349    508.17211     637.4468    32966.302 
  659000    300.84796   -1415.0586    582.08026    542.66779    371.61707    32966.302 
  659100    308.38452   -1437.7594    570.95106    543.29918   -299.52784    32966.302 
  659200     301.8445   -1464.2947    565.10108    481.00929     11.81911    32966.302 
  659300    301.73339   -1442.8366    545.18932     482.0475     269.2857    32966.302 
  659400    298.70825   -1436.6654    563.38488    492.58164    638.86161    32966.302 
  659500    302.59473   -1428.3896    581.13775    536.38153    349.91532    32966.302 
  659600    290.78102   -1422.5433    578.27397    485.34504   -284.68657    32966.302 
  659700    296.81378   -1428.1204    582.21287    511.29203    -34.84653    32966.302 
  659800    302.12767   -1414.4976    555.63661    522.63663   -127.20885    32966.302 
  659900    300.40965    -1405.291    542.94303    511.29398    11.477391    32966.302 
  660000    299.88067   -1425.7289    563.18309    508.67734    -281.8011    32966.302 
  660100    300.41735   -1424.9766    603.67873    552.37933   -397.42405    32966.302 
  660200    300.85456   -1455.5446    555.95087    476.08256    142.39558    32966.302 
  660300    290.24443   -1457.8257     562.6772    432.01238   -498.48079    32966.302 
  660400     302.8403   -1417.7026    568.12929    535.18295     -307.575    32966.302 
  660500    300.77585   -1438.2603    577.24993    514.30599    -27.49344    32966.302 
  660600    300.03549   -1422.3211    580.78092    530.39085    86.485852    32966.302 
  660700    301.01458   -1452.8797    558.28625    481.81459   -185.47665    32966.302 
  660800    313.44642   -1385.6087    557.92617    605.57085    1053.7353    32966.302 
  660900    299.33485   -1403.6825    559.97679    525.02165    701.38582    32966.302 
  661000    306.01433   -1441.8029    578.79617    536.26299    518.79813    32966.302 
  661100    304.22653   -1429.6533    581.14153    542.58307    97.440148    32966.302 
  661200    298.70749   -1420.8389    558.98994    504.00975    401.13923    32966.302 
  661300    304.04611   -1419.6687    559.51132    530.11254   -99.672404    32966.302 
  661400    294.74484   -1413.4501    573.50633    507.79549   -56.239274    32966.302 
  661500    302.90821   -1457.9265    552.33506    479.47536   -446.44659    32966.302 
  661600     297.0347   -1460.2729     532.6383    430.57521    -436.5358    32966.302 
  661700    309.60768   -1437.5498    568.99967    547.15042   -443.08678    32966.302 
  661800    308.75324   -1422.7168    534.36226      523.439   -318.04255    32966.302 
  661900    293.99549   -1445.4723    566.24143     465.0819   -684.97906    32966.302 
  662000    299.25808   -1478.8743    573.18764    462.68966   -447.33951    32966.302 
  662100    310.86159    -1476.087    543.22453    488.57157   -157.58641    32966.302 
  662200    305.50511   -1499.9725    555.18502     452.1538   -211.00698    32966.302 
  662300    299.14644   -1475.8317    555.06982    447.10398    543.86213    32966.302 
  662400    300.77554   -1523.4267    584.11642    436.00474     462.9425    32966.302 
  662500    298.92802   -1474.7155     568.4168    460.56838    487.78934    32966.302 
  662600    305.04098   -1483.0837    557.95759    469.69292    528.63386    32966.302 
  662700    289.17084   -1432.1163    567.60716    457.74263    768.55418    32966.302 
  662800    292.94191    -1448.008    556.25251    447.73973    193.67849    32966.302 
  662900    294.14378   -1380.1619    560.07213    524.90115    966.01797    32966.302 
  663000     296.4743    -1388.796    568.32911    535.18041    151.97531    32966.302 
  663100    300.88984   -1472.8152    562.90227    465.92468   -401.15475    32966.302 
  663200    302.77648   -1391.8459    577.08806     569.7066   -196.07561    32966.302 
  663300      296.961   -1405.2687    567.69224    520.29631   -482.93813    32966.302 
  663400    295.26378   -1431.5279    550.70373    469.28799   -463.08691    32966.302 
  663500    298.39136   -1397.8389    558.08567    524.66001    195.59335    32966.302 
  663600    295.28336   -1412.8425    556.58069    493.93982    71.201644    32966.302 
  663700    298.19619   -1424.8194    578.70888    517.41024   -265.42324    32966.302 
  663800    296.62008   -1406.0392      549.807    500.08168   -90.033759    32966.302 
  663900    293.89851   -1404.6499    572.78171    512.00111   -63.415207    32966.302 
  664000    297.21505   -1432.3405     573.5698    500.26368   -70.623866    32966.302 
  664100    297.03216   -1437.4133    538.81859     459.6034     544.4374    32966.302 
  664200    300.15408   -1423.6802    562.62761    511.42076   -426.98069    32966.302 
  664300    290.58611    -1467.585    530.38412    391.52228   -475.16091    32966.302 
  664400    300.73666   -1429.4856     520.4655    466.11712   -13.159412    32966.302 
  664500    294.43544   -1462.3078    547.80266    431.81938   -340.84253    32966.302 
  664600    292.64497   -1451.4151    524.37986    411.10216   -166.31264    32966.302 
  664700    291.87573   -1446.0618    549.18644    437.74468   -75.611515    32966.302 
  664800    302.58925   -1434.1863    551.88042     501.3024    28.782209    32966.302 
  664900     298.3939   -1430.3914    551.24365    485.27705    271.18261    32966.302 
  665000    307.74946   -1415.7819    569.96219    561.38398    543.37896    32966.302 
  665100    313.62356   -1428.9359    530.08599    535.21347    373.25949    32966.302 
  665200    305.80936   -1432.7571    524.53574    490.11107    34.965605    32966.302 
  665300    299.67287    -1429.098    565.95685    507.13182   -333.62897    32966.302 
  665400    296.39121   -1443.7387    530.86456    442.39317   -80.363544    32966.302 
  665500    299.80245   -1401.1253    538.43031    508.17052    282.61273    32966.302 
  665600    300.46124   -1440.3615    562.49905    496.01536   -322.55078    32966.302 
  665700     302.2952   -1450.3364    552.55573      484.483   -202.56027    32966.302 
  665800    310.60353   -1397.4117    541.06947     563.9119   -34.407639    32966.302 
  665900    303.15562   -1416.8381    545.59547    514.95542    181.99371    32966.302 
  666000    301.51032   -1473.7261     578.8647    483.81338    74.184801    32966.302 
  666100    299.77622   -1413.1566    560.22196    517.81094    21.723729    32966.302 
  666200    300.39525   -1435.1787    541.87988    480.27729    323.25966    32966.302 
  666300    304.59552   -1418.8538    576.98372    550.91196    85.464235    32966.302 
  666400    293.55887   -1409.0601    548.66702    481.92321    154.13106    32966.302 
  666500    293.14567   -1425.8798    543.01073    457.55786   -332.89388    32966.302 
  666600     298.4377   -1395.2452    584.93834    554.31819   -207.40862    32966.302 
  666700    292.57725   -1344.8952    550.68514    543.61773    20.227653    32966.302 
  666800    301.71542    -1419.368     530.5307    490.77531    765.64795    32966.302 
  666900    308.34824   -1432.2398    592.57512    570.27696    595.81156    32966.302 
  667000    307.09023   -1505.6069    559.53958    458.12196    238.71024    32966.302 
  667100    308.17099    -1435.689    516.30376    489.74586    342.62146    32966.302 
  667200    308.35482   -1414.3929    564.41554     559.9944    299.54337    32966.302 
  667300    306.91962   -1449.4345    551.45974    505.43439    109.17506    32966.302 
  667400    301.53574   -1433.7621    536.75227    481.78127    265.87849    32966.302 
  667500    300.93227   -1485.9241    548.92097    439.02847    314.01359    32966.302 
  667600    295.59978   -1475.2098    568.48258    444.92126    4.8575777    32966.302 
  667700    318.80207    -1406.897    577.54717    628.39258     638.9669    32966.302 
  667800    286.25682    -1418.761    547.57642    437.74261    156.60371    32966.302 
  667900    305.05326   -1433.2045    576.04566    537.71627    -468.7118    32966.302 
  668000    293.63395   -1422.0889    568.29161    488.86228    -659.5127    32966.302 
  668100    299.11666   -1434.9842    560.16959    492.91508   -363.72677    32966.302 
  668200    304.82191   -1421.1929    555.14893    527.77332   -507.49666    32966.302 
  668300     301.2637   -1439.5089    554.52624    492.56449   -122.47937    32966.302 
  668400    290.45673   -1390.4501    583.94081    521.62222    43.768263    32966.302 
  668500    302.02394   -1430.8136    553.00875    503.21847    128.24934    32966.302 
  668600    300.22646    -1456.917    554.97273    470.86002    365.07988    32966.302 
  668700    308.95354   -1489.7323    565.38309    488.36022   -550.26411    32966.302 
  668800    312.48536   -1447.7357     551.4906    532.61379    313.85768    32966.302 
  668900    298.07869   -1430.5154    582.66905    515.13709    178.25727    32966.302 
  669000    296.15542   -1482.7674    584.64983    456.07163   -117.20316    32966.302 
  669100    299.30085   -1428.5573    604.00796    544.02249    214.30724    32966.302 
  669200    299.68899   -1504.4258     538.1538    404.07465    -379.9798    32966.302 
  669300    309.77131   -1453.9065     591.1524    553.69463   -847.83959    32966.302 
  669400    294.64377   -1424.1279    556.75475    479.90396     460.7184    32966.302 
  669500    299.88016    -1428.898    557.90685     500.2296    418.46157    32966.302 
  669600    309.35834   -1473.1366    570.17537    511.59916    94.383858    32966.302 
  669700     293.4674   -1473.6595    549.59334    417.83185   -373.34684    32966.302 
  669800    305.76169   -1451.1406    584.59549    531.56934    58.139736    32966.302 
  669900    304.65067   -1430.8762    562.54569    524.70373   -341.97544    32966.302 
  670000    289.16388   -1385.2017    569.65748    506.67575   -770.61746    32966.302 
  670100    294.66741   -1408.2967    552.16238    491.25088   -326.46586    32966.302 
  670200     302.5516   -1418.5823    569.45843    534.31227   -208.44553    32966.302 
  670300    313.22368   -1420.5094    560.26107    571.98651   -442.35427    32966.302 
  670400    310.10458   -1414.7893    573.78265    576.96596    176.89551    32966.302 
  670500    301.73202   -1472.8425    567.20588    474.05193    271.17844    32966.302 
  670600    304.66988   -1421.3964    567.45436       539.18   -717.06994    32966.302 
  670700    303.10625   -1460.3333    569.75238    495.39139   -739.88647    32966.302 
  670800    304.47281   -1426.3782    529.33122    495.17404   -303.18721    32966.302 
  670900    302.02862   -1457.8506    584.65046    507.84461   -371.84127    32966.302 
  671000    291.68484   -1437.4825    541.76846    438.03314   -490.29513    32966.302 
  671100    304.16529    -1421.553    538.45664     507.7185   -60.627047    32966.302 
  671200    303.61388   -1462.1666    546.24913    472.37599    -242.1803    32966.302 
  671300     304.6022   -1430.1865    563.29141    525.91755   -312.55326    32966.302 
  671400    303.90077   -1401.7417    605.95641    593.82007    272.31271    32966.302 
  671500    298.70848   -1432.9626    560.50646    493.40715    371.89173    32966.302 
  671600    292.93323    -1455.463    548.19921    432.19173     184.5487    32966.302 
  671700    298.49766   -1521.5219    564.23593    407.61326    52.084942    32966.302 
  671800    305.43116     -1436.56    579.72236    539.76542   -61.415324    32966.302 
  671900    296.35742   -1502.1067     545.4782    398.48433   -946.99365    32966.302 
  672000    302.99995   -1507.8561    552.40805    430.03818   -87.485865    32966.302 
  672100     291.7669   -1506.0836    567.14933    395.18817    405.53975    32966.302 
  672200     304.3334   -1492.6717    586.81784    485.72967    389.94576    32966.302 
  672300    296.43339   -1469.6231    575.40477    461.24197    177.20338    32966.302 
  672400    313.13305   -1505.4792    545.79926    472.14055    81.611655    32966.302 
  672500    292.93808   -1506.5582    569.78616    402.70565    172.82286    32966.302 
  672600    297.79708   -1488.8452    552.45917    425.30973   -70.946893    32966.302 
  672700    297.39852   -1450.1682    548.27388    457.97903    462.53438    32966.302 
  672800    296.44705   -1488.2448    557.36386    424.64173   -226.23305    32966.302 
  672900    300.57564   -1468.4609    556.19599    462.13603   -60.213722    32966.302 
  673000    309.59046   -1479.1395    534.67858    471.16089     303.4667    32966.302 
  673100     306.6408   -1521.9077    532.05447    412.28105    12.010784    32966.302 
  673200    296.84191   -1493.2753    535.44392    399.49688   -11.613091    32966.302 
  673300    287.71046   -1498.7066    567.49751      384.365   -31.297164    32966.302 
  673400    307.23192   -1450.2444    581.28239    535.87519    111.95916    32966.302 
  673500    303.37925   -1475.4764    528.97044     440.7147    499.01745    32966.302 
  673600    299.01573   -1480.0521    557.81268    445.02877    601.20446    32966.302 
  673700    294.93593   -1485.0839    587.99323    451.52233   -399.48814    32966.302 
  673800    304.00218   -1438.1581    575.22225    527.13318    76.864306    32966.302 
  673900    308.90335   -1443.7007    564.87976    533.65898    75.590661    32966.302 
  674000    296.28346   -1441.3366    548.74154    462.17961   -741.52094    32966.302 
  674100    294.72666   -1437.1179    538.80883    449.34706   -710.24525    32966.302 
  674200    297.37931   -1458.8126     524.7668    425.73973    -312.4103    32966.302 
  674300    314.30235   -1412.4046    590.77403    615.53654    141.04804    32966.302 
  674400    300.31327   -1468.0644    553.11901    458.25581     424.7294    32966.302 
  674500     298.2258   -1438.6942    541.11809    466.08007    630.38648    32966.302 
  674600    293.23078   -1463.5698    578.26521    455.51153    666.89167    32966.302 
  674700    294.71435   -1449.2528    535.64534    433.99239   -180.72467    32966.302 
  674800    305.31397   -1422.9968    583.35053    556.42104    638.60807    32966.302 
  674900    287.41931   -1385.7847    556.29658    484.75465    558.28468    32966.302 
  675000    284.92201   -1431.4129    574.32725    445.73805    142.87259    32966.302 
  675100    297.07809   -1428.1995    559.88422    490.09286    273.66424    32966.302 
  675200     297.6908   -1380.2121    561.37788    542.37555    306.60743    32966.302 
  675300    297.81154   -1405.0967    587.95278    544.61802   -552.49513    32966.302 
  675400     294.8222   -1452.3472    538.85627    434.60203   -689.04953    32966.302 
  675500    294.49932   -1398.1392    561.43525    509.91261    137.36314    32966.302 
  675600    294.80639   -1420.0866    584.59206    512.52614   -167.03904    32966.302 
  675700    307.40958   -1452.1429    560.83013    514.33675    274.28438    32966.302 
  675800    298.62598   -1442.3668    552.35806    475.47725    7.6027693    32966.302 
  675900    301.04382   -1395.6049    542.57854    523.51536   -531.63973    32966.302 
  676000    287.10266   -1422.4058    575.29999    465.68906   -562.68585    32966.302 
  676100    299.13805   -1405.7366    568.84682    530.93764   -849.71496    32966.302 
  676200    303.50205   -1418.8931    565.27901    534.16804    487.26464    32966.302 
  676300    296.82954   -1444.3292    519.11326    432.05578   -272.08328    32966.302 
  676400    310.63247   -1415.4113    552.99293    557.96807   -604.99021    32966.302 
  676500    303.43709   -1420.3941    565.12568    532.21672   -67.251678    32966.302 
  676600    300.69221   -1435.7878    558.85672    498.00291    9.2400966    32966.302 
  676700    295.79782   -1414.3469    575.05225    513.25937     255.9424    32966.302 
  676800    302.72777   -1418.5012    565.32856    531.06902   -229.39515    32966.302 
  676900    291.12163    -1371.819    577.53392    536.88678   -426.39868    32966.302 
  677000    298.75479   -1464.6261    558.81499    460.26393    -528.4906    32966.302 
  677100    291.84254   -1401.6353    560.54581    493.37884     460.3296    32966.302 
  677200    303.92043   -1421.8295    559.54721    527.41285     463.0074    32966.302 
  677300    300.79223   -1512.0778    575.60599    438.91946   -24.692625    32966.302 
  677400     303.5525   -1431.7813    584.35267     540.5842   -120.98586    32966.302 
  677500    304.25872    -1418.714    550.46914    522.99717      944.357    32966.302 
  677600    295.58754   -1428.6002    530.13439    453.12675    596.24307    32966.302 
  677700    299.72838   -1419.7836    555.41515    506.15832    936.92382    32966.302 
  677800    297.45095   -1453.7758    530.57229    436.90952    233.39558    32966.302 
  677900    300.25845   -1461.7537    570.25511    481.45199     870.9242    32966.302 
  678000    299.76158   -1433.7952    550.22998    487.11337    638.95865    32966.302 
  678100    302.96936   -1468.1762    549.48791    466.65814     1006.449    32966.302 
  678200    299.01205   -1482.8602     536.7743    421.16543    273.74375    32966.302 
  678300    292.94981   -1452.9166    551.78972    438.40447    82.476861    32966.302 
  678400    312.48899   -1417.0629    543.91093    555.72346      108.214    32966.302 
  678500    305.10975   -1407.7821    551.59906     538.9504    96.780647    32966.302 
  678600    301.89854     -1456.74     554.3292    478.03915    13.888865    32966.302 
  678700    292.92637   -1453.0602    580.16379    466.52779    186.48498    32966.302 
  678800    311.73832   -1437.4496    569.65861    557.65195    218.93752    32966.302 
  678900    292.24154   -1473.9575    534.04052    396.37572  -0.27635193    32966.302 
  679000    296.93966   -1447.1638    564.62667    475.23808     67.99372    32966.302 
  679100    301.73234   -1459.9279    570.41076    490.17291    278.87286    32966.302 
  679200    300.09268   -1401.8098    573.96766    544.35044    143.46522    32966.302 
  679300    302.24941   -1415.5711    575.42097    541.90418    321.39156    32966.302 
  679400    297.00922   -1389.9081    553.83502    522.02022   -13.912469    32966.302 
  679500    296.82004   -1399.8354    550.82425    508.21703    410.89307    32966.302 
  679600    308.46184    -1391.876    573.60401     592.1891     980.6801    32966.302 
  679700     295.6367   -1429.9784    578.68838    500.52727    103.37449    32966.302 
  679800    290.35009   -1409.7682    563.92712    481.80289    653.34787    32966.302 
  679900    303.40515    -1381.179    527.42872    533.58872    427.89809    32966.302 
  680000    307.68044   -1445.8617    559.30437    520.33074    105.75165    32966.302 
  680100    308.26154    -1424.832    564.79844    549.51164     223.6392    32966.302 
  680200    298.28218   -1442.9184    540.42302    461.41859    512.20744    32966.302 
  680300    302.60414   -1452.3231    586.33099    517.68427    1272.7469    32966.302 
  680400    295.43253   -1459.0559    543.90596    435.73382    875.23028    32966.302 
  680500    304.51355   -1441.3444    558.35326    509.41614    1357.5424    32966.302 
  680600    309.41708   -1447.7467    541.60574    508.68806    945.06659    32966.302 
  680700    304.25417   -1394.0987    573.37595    570.49846    288.79193    32966.302 
  680800     305.5644   -1408.1908    580.32062    569.34218    880.34636    32966.302 
  680900    287.90532   -1398.8178    565.17871    482.82607    962.45304    32966.302 
  681000    308.09384   -1395.1003     591.9421    605.62013    91.733867    32966.302 
  681100    301.73178   -1397.0695    560.47642    543.09437   -304.26843    32966.302 
  681200    286.97652    -1439.606    569.63174    442.24379    18.729205    32966.302 
  681300    303.67862   -1402.5547    559.42421    545.45905   -615.85768    32966.302 
  681400    293.70468   -1444.9823    553.21964    451.22041    328.66562    32966.302 
  681500    303.97353   -1427.6104      573.308    535.63558    633.87537    32966.302 
  681600    302.50208   -1406.6996     540.2532    516.76333    1569.1522    32966.302 
  681700    294.88353   -1478.2712    562.83066    432.93286    508.07935    32966.302 
  681800    297.97904    -1435.481    589.70672    516.75348    1037.8098    32966.302 
  681900     302.0595    -1443.095    556.65771    494.74869    462.86613    32966.302 
  682000    298.62308    -1474.879    558.38091    448.97463    255.87299    32966.302 
  682100    298.47251    -1463.433    545.08451    446.43571   -7.0162749    32966.302 
  682200    301.27869    -1441.213    543.49504    479.89775    327.46947    32966.302 
  682300    297.84718   -1449.2502    572.60464    485.27933   -424.18508    32966.302 
  682400    300.68671   -1453.4868    559.08958    480.51159    -476.9792    32966.302 
  682500    306.40057    -1470.261    516.83804    447.61281   -347.23556    32966.302 
  682600    314.61241   -1433.0821    531.32689    536.82979    46.914233    32966.302 
  682700    291.36231   -1427.2984    574.22543    479.19947   -483.86578    32966.302 
  682800    295.20851   -1465.2859    568.67565    453.24912   -125.97909    32966.302 
  682900    305.10433   -1439.1378    547.91028    503.88118    379.80217    32966.302 
  683000    283.46708   -1431.5728     567.0937    431.69187   -116.20925    32966.302 
  683100    299.02437   -1431.6106    544.06909    479.76619   -71.627222    32966.302 
  683200    293.62931   -1448.2876    557.61361    451.96437   -663.85544    32966.302 
  683300    302.81284   -1441.9494    559.90453    502.58585   -461.09411    32966.302 
  683400    298.98055   -1470.0144    588.62867    485.72157   -375.06883    32966.302 
  683500    306.76187   -1407.1105    592.62358    588.20099   -693.49121    32966.302 
  683600    292.92922   -1382.6316    555.29273    512.09833     248.9717    32966.302 
  683700    303.02196   -1407.7685    567.85656    545.67499    158.11153    32966.302 
  683800    303.17977   -1433.8586    563.80125    516.25114   -99.231221    32966.302 
  683900    288.10933   -1441.9079    572.00131    447.49143   -489.49341    32966.302 
  684000    296.37063   -1424.5194    581.11508    511.76893   -860.21188    32966.302 
  684100    305.55971   -1405.6576    546.93898     538.4723   -549.41303    32966.302 
  684200    301.33778   -1420.1788    557.76948    515.47654    785.68672    32966.302 
  684300     312.6136   -1422.5319    546.50083    553.41415    10.270072    32966.302 
  684400    290.64473   -1396.7124    551.10769    483.38651   -443.81055    32966.302 
  684500    303.46602   -1416.9668    566.82046     537.4711   -172.00466    32966.302 
  684600    308.49832   -1409.5413    545.14803    546.23462    169.25227    32966.302 
  684700    301.72328    -1387.295    538.46461    530.81819    199.16993    32966.302 
  684800    298.30508    -1391.329    556.97269    529.66234    547.48838    32966.302 
  684900    293.22027   -1442.5232    572.46608    470.71096    470.82975    32966.302 
  685000    299.67443   -1421.9242    583.48443    531.84033    372.98984    32966.302 
  685100    296.46683   -1403.0028    543.73849    496.34883    180.32111    32966.302 
  685200    300.54543   -1414.7641    548.98609    508.48483   -221.82345    32966.302 
  685300    300.15534    -1419.318    551.69553    504.85667    -203.0745    32966.302 
  685400     300.9726   -1407.7981    552.40181    520.81974    51.602833    32966.302 
  685500    294.11332   -1451.1804    566.57207    460.24325    361.08559    32966.302 
  685600    299.87362   -1454.3054    566.64953    483.53498    771.30956    32966.302 
  685700    297.41325   -1436.7058    560.89271    484.12762    193.74739    32966.302 
  685800    306.82696   -1442.8186     552.0587    512.22557    475.53353    32966.302 
  685900    306.77867   -1373.6083    574.42496    603.58137    174.77452    32966.302 
  686000    299.40944    -1388.851    551.94216    532.15962   -359.76969    32966.302 
  686100    305.13142   -1418.7924    552.00284    528.44298    201.56395    32966.302 
  686200    302.03462   -1393.1658     569.3108    557.21718   -12.368937    32966.302 
  686300    305.86517   -1431.8917     552.4092    519.10514    816.60208    32966.302 
  686400    294.35087   -1417.1349    549.26877     478.0717    1088.1361    32966.302 
  686500    315.66796   -1470.8576    576.40896    548.96284    1352.9691    32966.302 
  686600    302.84739   -1496.3374    547.27155    435.72283     866.8202    32966.302 
  686700    308.63795   -1467.6133     557.0811    500.73417    1137.5666    32966.302 
  686800    296.52404   -1443.0998    554.79333    467.56829    451.04773    32966.302 
  686900    301.40727   -1442.6639    549.04964    484.58936    451.89616    32966.302 
  687000    296.76302   -1480.7117     553.1054    429.36118    197.80982    32966.302 
  687100    303.80199   -1463.8134    569.18084    494.52104   -190.89016    32966.302 
  687200    309.23344   -1454.8592    541.32783    500.45783    389.37182    32966.302 
  687300    298.72811   -1452.8769    557.19528    470.27136    366.48501    32966.302 
  687400    305.65881   -1489.3878    551.05622    459.31248    1232.7177    32966.302 
  687500     303.1655   -1528.6442    564.12274    421.72177    430.67686    32966.302 
  687600    306.02955   -1538.3966    551.46116    412.40389    334.86377    32966.302 
  687700    300.81729   -1511.0352    529.07703    393.54775    75.285461    32966.302 
  687800    296.15447   -1486.3563    570.55038    438.37899   -464.36892    32966.302 
  687900    303.37324   -1469.0091    554.21241    472.39645   -10.329533    32966.302 
  688000    291.35081   -1496.9433    531.79504    367.07157   -709.85852    32966.302 
  688100    299.30297   -1481.1545     549.3916    436.81863   -115.09086    32966.302 
  688200    302.44694   -1437.9901    562.34305    507.31048     144.7615    32966.302 
  688300    308.65828   -1438.8455    524.06276    496.57661     235.9601    32966.302 
  688400    299.85848   -1434.3711    549.10431    485.85492    206.41763    32966.302 
  688500    293.78241     -1419.52    561.23439    485.05284   -440.06898    32966.302 
  688600    297.91397   -1417.8555    576.15843    520.53318    335.22512    32966.302 
  688700    297.68947    -1434.634     537.6115    464.18119   -68.415641    32966.302 
  688800    287.63711   -1424.2785     547.2559    438.21611   -94.200681    32966.302 
  688900    305.47478   -1448.4712    536.06003    484.39138    199.47253    32966.302 
  689000    310.56975     -1422.88    556.08656    553.30619   -440.74643    32966.302 
  689100    294.34113   -1359.8508    540.61446    526.65693   -438.80058    32966.302 
  689200    297.71025   -1439.5842    561.15859    482.87319   -1101.9963    32966.302 
  689300    295.73021   -1430.4133    543.48359    465.31523   -89.180995    32966.302 
  689400    295.67958   -1479.7446    539.66191    411.93069    601.54981    32966.302 
  689500    309.36937   -1463.6089    543.15114    494.15302    318.59331    32966.302 
  689600     295.1888   -1477.0159    523.06056    395.81394   -122.60306    32966.302 
  689700    306.72803   -1419.4841    544.23877    527.28778   -267.88511    32966.302 
  689800     297.5108   -1404.5044    534.11433    489.99671   -104.88726    32966.302 
  689900    300.80599   -1428.8441    537.86964    484.47974    10.098195    32966.302 
  690000    302.88838   -1439.9254    544.50764    489.55835    28.193701    32966.302 
  690100     296.7317   -1480.9132    546.78706    422.69811    1089.8802    32966.302 
  690200    303.09114   -1496.9984    545.10897    434.01379    568.43593    32966.302 
  690300    294.41118   -1429.3107    535.99845    452.90127    54.503399    32966.302 
  690400    293.68326   -1433.3529    558.75169    468.28393   -527.46849    32966.302 
  690500    302.83251   -1421.8949     568.8729    531.69862    41.317328    32966.302 
  690600    297.32359   -1432.3408    533.98269    461.17263     288.4672    32966.302 
  690700    297.12269   -1456.8362    558.54946    460.32536   -153.54388    32966.302 
  690800    302.11563   -1466.1446    556.52886    471.82692    225.32301    32966.302 
  690900    296.09379   -1487.5599    515.87418    382.22162    262.81465    32966.302 
  691000    300.65811   -1438.1908    578.01139    514.59859   -17.836905    32966.302 
  691100    293.79017   -1449.0435    536.95571    431.28616    -639.9132    32966.302 
  691200    304.60721   -1429.2527    576.49816    540.08104    207.86528    32966.302 
  691300    301.76958   -1417.3436    555.57467    518.09137   -329.10587    32966.302 
  691400    296.32751   -1412.7242    529.13368     471.3856   -214.54459    32966.302 
  691500    300.25656   -1415.2377    562.05368    519.75789    132.38359    32966.302 
  691600    299.71909   -1458.8322    533.67784    445.32995    241.15288    32966.302 
  691700    308.02224   -1435.3019    558.08703    531.23605    1099.7357    32966.302 
  691800    295.95812   -1427.2398    530.91349    456.96076    84.855212    32966.302 
  691900    303.52561   -1398.8219    555.07315    544.14108    681.17774    32966.302 
  692000    308.53461   -1411.0943    543.15754    542.85701    945.01207    32966.302 
  692100    294.59657   -1398.8571    568.51711    516.72128    714.55757    32966.302 
  692200    294.51883   -1435.6841    571.99775    483.01946   -18.862312    32966.302 
  692300    299.23542   -1410.3753     557.2089    515.10633    851.04786    32966.302 
  692400    297.91039   -1389.6736    585.93948    558.47977    610.35418    32966.302 
  692500    301.19155    -1367.946    563.57289    572.84409   -22.522951    32966.302 
  692600    306.94808   -1371.7222    554.98845     586.8055    77.633094    32966.302 
  692700    306.68261   -1379.4336    596.13499    619.02688   -186.19629    32966.302 
  692800    301.43747   -1371.8672    546.57525    553.04978   -72.215292    32966.302 
  692900    302.99051   -1398.4584    527.31811    514.30275    53.836143    32966.302 
  693000    301.90491    -1388.479    581.52126    573.52138    256.74113    32966.302 
  693100    291.19127   -1416.4507    550.01959    465.05922   -85.924993    32966.302 
  693200    303.31035   -1420.2225    549.96882    516.65189    388.40701    32966.302 
  693300    301.08719   -1421.7314    565.09491    520.10351   -32.906413    32966.302 
  693400    298.38598   -1412.4876    556.38503    508.28597    -267.0184    32966.302 
  693500    312.68037   -1365.9833     548.0572    611.82441    132.86536    32966.302 
  693600     291.8183   -1435.5028    554.67608    453.53079   -304.98919    32966.302 
  693700    299.55422   -1366.9059    547.38123    550.20576    290.97419    32966.302 
  693800    299.14212   -1363.5162    547.20297    551.53291   -460.29089    32966.302 
  693900    301.31737   -1405.2745    549.46832    521.98631    -434.9724    32966.302 
  694000    296.07548   -1423.2921    581.50334    512.03494   -294.38811    32966.302 
  694100    298.21846   -1430.9376    538.11697    470.80198   -1504.9092    32966.302 
  694200    295.18975    -1393.979     547.7539    503.54849   -963.48636    32966.302 
  694300    307.20069   -1380.4809    547.03009    571.24361   -47.573313    32966.302 
  694400     295.4049   -1434.9135      561.146    476.98992    242.06342    32966.302 
  694500    299.13704   -1421.2459    529.58541     476.1624   -343.16122    32966.302 
  694600    310.08797   -1359.7785    546.34715    604.46527    688.88217    32966.302 
  694700    303.55753   -1364.4514    563.26647    586.85091     63.90083    32966.302 
  694800    297.21757   -1376.0841    567.40821    550.37012   -570.66017    32966.302 
  694900    294.89975   -1329.3267    551.90098    571.02185   -111.76908    32966.302 
  695000    295.55361   -1349.9173    554.20265    555.72279    352.41994    32966.302 
  695100     307.3876   -1399.5657    553.57894    559.56236    77.019348    32966.302 
  695200    297.36584   -1327.2101    556.92767    589.44154   -127.68817    32966.302 
  695300    301.84248   -1337.2367    571.26676    614.22371    180.30598    32966.302 
  695400    297.21512   -1363.9258    584.62532    579.73426    473.97611    32966.302 
  695500    306.00122   -1369.2719    565.04302     594.9809    814.17934    32966.302 
  695600    297.97441   -1368.6424    561.81891    555.68316    68.179636    32966.302 
  695700    298.45378   -1359.2424    539.62053    545.07676   -272.48204    32966.302 
  695800    302.42002   -1339.0506    611.55362    655.33752   -566.48937    32966.302 
  695900    298.10935   -1383.8956    545.21117    524.43919   -119.13972    32966.302 
  696000    293.64058   -1324.5783    581.58031    599.69201    171.61163    32966.302 
  696100    295.39575   -1381.6316    591.33966    560.42366   -858.09024    32966.302 
  696200    306.53033   -1340.7974    557.86747    618.69922     -457.917    32966.302 
  696300    302.39903   -1338.5988    577.74932    621.88903    564.34416    32966.302 
  696400    294.65534   -1372.7788    575.52875    550.07996   -177.73642    32966.302 
  696500    299.88029   -1388.7015    549.61111    532.13099    556.65052    32966.302 
  696600    312.67283   -1398.9316    573.79682    604.58129    524.52993    32966.302 
  696700     295.1611   -1399.9672    564.40518    514.08062     378.5953    32966.302 
  696800    302.40501   -1391.3467    577.76783    569.18697   -11.771875    32966.302 
  696900    302.07859   -1424.3028    557.53142    514.50188    268.41504    32966.302 
  697000    308.56616   -1421.2482    557.49681    547.18668    247.18931    32966.302 
  697100    292.31814   -1423.8718     579.6245    492.39567    140.37136    32966.302 
  697200    296.87561   -1422.7461    558.97128    493.70753   -240.60938    32966.302 
  697300    293.33655   -1425.9862     557.9046    473.21812    255.78927    32966.302 
  697400    299.94497   -1444.2624    565.22105    492.47578   -316.60027    32966.302 
  697500     302.5894   -1423.8104    576.70016     536.4987    284.32096    32966.302 
  697600    298.12557   -1421.2296    559.43854    501.40678    91.912076    32966.302 
  697700    301.85046   -1386.5166    583.21597    576.92947    39.721556    32966.302 
  697800    297.30538   -1381.3183    569.57755    547.70671     -310.672    32966.302 
  697900    303.16709   -1428.1009    535.20768    493.35726    9.2886441    32966.302 
  698000    298.12697   -1360.6844    578.99655     581.5164    449.70706    32966.302 
  698100    308.15259   -1391.9253    568.05452    585.17625   -444.91457    32966.302 
  698200    301.30033   -1364.9069    548.71476    561.52251    24.292148    32966.302 
  698300    297.72506   -1401.6616    571.80443     531.5093   -108.16163    32966.302 
  698400    291.56015   -1394.2336    575.80921    514.75263    76.940249    32966.302 
  698500    298.79615   -1425.2444    556.18675    497.20649    289.68462    32966.302 
  698600    298.74439   -1433.6303    584.61957    517.01668    826.89626    32966.302 
  698700    295.98967   -1404.6727    571.66981    520.42844    716.77163    32966.302 
  698800    306.23223   -1361.8884    559.88556     598.2632    976.76654    32966.302 
  698900    302.27911   -1365.8139    566.86743    583.24367    843.05445    32966.302 
  699000    299.56896   -1443.1697     560.4204    487.04857    413.58494    32966.302 
  699100    299.61802   -1437.6546    575.45446      507.822    491.63284    32966.302 
  699200    297.87837   -1418.9266    537.48877    480.62967    843.67158    32966.302 
  699300    305.39262   -1387.2788    552.78823    561.93634    216.40203    32966.302 
  699400    300.19041   -1409.6554    558.70666    521.69073    516.39558    32966.302 
  699500    294.70958   -1439.6976    552.94939    460.82984    922.03036    32966.302 
  699600    287.86801   -1415.0194      548.413    449.68813    455.21286    32966.302 
  699700     307.3752   -1428.3838    586.17463    563.28319    442.81329    32966.302 
  699800    298.11136   -1413.7835    552.47481    501.82419    950.81443    32966.302 
  699900    293.14824   -1428.6974    549.27612     461.0174    195.85025    32966.302 
  700000    300.62316   -1425.7448    575.32797    524.20136    610.92441    32966.302 
  700100    310.44262    -1475.514    545.00246    489.00678    548.70566    32966.302 
  700200    294.23067   -1448.4988    530.38414    427.27345    786.13717    32966.302 
  700300    294.18785    -1437.241    542.18977     450.1411    550.39691    32966.302 
  700400    303.02892   -1390.5176     587.2968    582.39793    517.57199    32966.302 
  700500    290.94049   -1397.8728    590.93943    523.41029    147.70513    32966.302 
  700600    298.85272    -1355.892    558.41596     569.0468    814.75355    32966.302 
  700700     296.9428   -1370.1858    579.95279    567.55658    128.27151    32966.302 
  700800    300.52169   -1383.8425    559.60923    549.92098   -487.19461    32966.302 
  700900    311.12478   -1398.2746    533.74724    558.11024   -240.32726    32966.302 
  701000    299.46509   -1438.5466     538.9848    469.76106   -433.32485    32966.302 
  701100    287.56709   -1404.7476     575.3855    485.55639   -485.74387    32966.302 
  701200    309.50634   -1421.4161    567.49887     561.3199    55.979131    32966.302 
  701300    304.11129   -1403.2039    554.47397      541.838     486.4673    32966.302 
  701400    294.33231   -1437.1415    560.00822    468.71966   -366.74514    32966.302 
  701500    302.36065   -1395.8704    578.78928    565.48183   -178.90519    32966.302 
  701600    305.65701   -1388.2517    570.96877    580.35287    27.879087    32966.302 
  701700    296.69653   -1407.4776    557.49848    506.68437   -332.43981    32966.302 
  701800    317.92665   -1407.1751    552.00512    598.56956   -587.63427    32966.302 
  701900     300.8856   -1436.8459    538.15319     477.1255   -710.34925    32966.302 
  702000    296.41727   -1438.2286    531.75819    448.91615   -136.18694    32966.302 
  702100    291.84893   -1421.7173     557.9021    470.68234    457.17303    32966.302 
  702200    303.60968   -1428.7166    565.01067    524.56834   -15.963562    32966.302 
  702300    299.93873    -1416.865    550.79707    505.42071     395.1628    32966.302 
  702400    295.00016   -1427.8093    563.46476    484.56213    400.16498    32966.302 
  702500    301.62325   -1433.3083    555.69152    501.57438    430.93583    32966.302 
  702600    304.62088   -1412.6839    553.38627    533.60037   -208.12014    32966.302 
  702700    297.49107    -1419.415    538.29487    479.17642   -299.68983    32966.302 
  702800    311.39247   -1374.7464    556.90298    606.01815   -425.70109    32966.302 
  702900    283.63202   -1423.5028    575.99647     449.4188   -273.64294    32966.302 
  703000     300.4549   -1413.3689    563.92708    524.40705    89.143124    32966.302 
  703100    288.33537   -1401.4941     557.9142    474.85158   -527.23766    32966.302 
  703200    299.26163   -1404.3559    576.14441    540.18106   -30.247727    32966.302 
  703300    310.40249   -1394.5637    564.06127    588.83242   -430.46622    32966.302 
  703400     299.8641   -1409.1044    584.28808    546.33107    -905.0189    32966.302 
  703500    300.64954   -1368.1469    549.91638     556.5084   -554.55144    32966.302 
  703600    298.84995   -1370.3817     553.7844     549.9128   -72.209807    32966.302 
  703700     300.9288   -1358.7507      542.907    560.17208   -761.14835    32966.302 
  703800    292.50267   -1379.6065    577.19597    535.07626   -82.068604    32966.302 
  703900    295.26917   -1417.7253    571.56964    503.98109   -394.28059    32966.302 
  704000    300.58752   -1391.1828    560.16436    543.43678    517.82807    32966.302 
  704100    297.57776   -1362.6454    558.56523    556.61283    430.98088    32966.302 
  704200    297.24362   -1393.4495    565.92522    531.64082    1103.9439    32966.302 
  704300    298.89689   -1361.5728    558.13435    563.28625    596.07895    32966.302 
  704400    303.59355   -1368.8956    561.73742    581.04234   -1.2353918    32966.302 
  704500    308.04698   -1387.1659    563.31674    584.71494    628.29438    32966.302 
  704600    306.86269   -1422.8909    534.07104    514.32903    252.30587    32966.302 
  704700    300.94936   -1401.3927    556.65644    531.37355   -974.46311    32966.302 
  704800    298.97476   -1426.8863     537.8193    478.01379   -894.44849    32966.302 
  704900    298.12924   -1423.8214    540.23183    479.62505    56.441088    32966.302 
  705000    293.44183   -1450.6671    539.50472    430.61874    120.77587    32966.302 
  705100    310.12249   -1431.7547    520.12669    506.42649   -349.69504    32966.302 
  705200    300.05767   -1434.9471    572.57255     509.6579   -125.81161    32966.302 
  705300    296.14704   -1383.5214    543.57492    514.20434   -500.91445    32966.302 
  705400    300.51919   -1407.3074    560.50916    527.34454   -239.83919    32966.302 
  705500    304.70746   -1371.1573    555.47894    577.61552   -276.50958    32966.302 
  705600    299.38341   -1417.4124    576.08507    527.62208   -773.94399    32966.302 
  705700    300.39915   -1383.9364    568.61793    558.27539    172.53392    32966.302 
  705800    301.26143    -1365.583    529.78524    541.73895   -435.63734    32966.302 
  705900    308.79221   -1383.3705    564.57626    593.17751   -242.44538    32966.302 
  706000    306.25979   -1367.6275    587.99508    620.75963   -148.19753    32966.302 
  706100    303.06289   -1423.2416    568.27528    530.80771    -122.9033    32966.302 
  706200    292.63238   -1423.1127      563.528    478.49521    533.42093    32966.302 
  706300    304.82272   -1424.3113    541.45649    510.96615    224.33078    32966.302 
  706400    297.83989   -1389.5115    541.01576    513.39584   -252.85179    32966.302 
  706500    304.43662   -1383.7627    568.45122    576.74399   -823.75931    32966.302 
  706600    310.54063   -1435.6282    567.65394    551.99223   -399.79126    32966.302 
  706700    297.79443   -1418.4925    554.76928    497.96042    26.755938    32966.302 
  706800    289.36334   -1448.9341    573.15547    447.35341   -120.23462    32966.302 
  706900    290.50888   -1472.5639    562.12363    417.92979    525.80659    32966.302 
  707000    301.55181   -1481.1694    559.72816    457.42326    351.62899    32966.302 
  707100    298.88006   -1460.1284    602.38737    508.90675    414.04206    32966.302 
  707200    300.03028   -1444.5752    540.38697    467.71898    262.48808    32966.302 
  707300     296.4881   -1434.2555    537.73382    459.18878    1341.3143    32966.302 
  707400    299.17783   -1417.3241    598.09417    548.77946    665.75447    32966.302 
  707500    304.87963   -1417.8271     558.4256    534.67963    303.18818    32966.302 
  707600    294.14701   -1447.4486    546.87178    444.42878   -89.344618    32966.302 
  707700    296.38491   -1434.9448    553.65223    473.94601    185.58622    32966.302 
  707800    301.07968   -1405.2057    549.28014    520.78011    19.322721    32966.302 
  707900    304.48521   -1435.1698     562.8141    519.92195   -646.64278    32966.302 
  708000    295.63504   -1441.3469    579.94298    490.40583   -560.77414    32966.302 
  708100    299.93404   -1418.5724    551.05674    503.95154   -271.76261    32966.302 
  708200    296.29403   -1436.8403    560.90809    478.89079   -320.28558    32966.302 
  708300    306.11996   -1407.3994    549.48447    541.83775   -89.248695    32966.302 
  708400     307.5527   -1439.7715    556.04656    522.57906   -964.66773    32966.302 
  708500    294.39664   -1432.8104    566.94797    480.28463   -355.29974    32966.302 
  708600    301.65032   -1442.2662    549.36442    486.41321   -761.93696    32966.302 
  708700    291.80299   -1421.8737    564.64739    477.06112   -341.90901    32966.302 
  708800    307.87636   -1404.7855    574.13202    577.13042   -639.54588    32966.302 
  708900    295.98463   -1433.7246    556.01209    475.69574   -692.14781    32966.302 
  709000    296.05341   -1424.3712    582.77286    512.12439   -532.22506    32966.302 
  709100    294.78034   -1430.6664    555.61014    472.84526   -435.14716    32966.302 
  709200    293.50497   -1440.8961    560.49406    461.66781   -42.524445    32966.302 
  709300    302.29659   -1435.5693    576.01043    522.71117    44.101904    32966.302 
  709400    297.97476   -1447.0546    594.15533    509.60899   -512.26642    32966.302 
  709500    298.14774   -1411.7252     580.4875    532.06145      53.0806    32966.302 
  709600    307.98699   -1409.3666    559.10234    558.02549    7.8079379    32966.302 
  709700    309.23592   -1442.7817    545.90778    517.12665    321.21068    32966.302 
  709800    295.97903   -1428.2746    561.11928     486.2273    141.15836    32966.302 
  709900     303.4576    -1474.878    569.15102    481.85191   -160.52583    32966.302 
  710000    291.59585   -1432.6035    555.01574    455.75254     959.3286    32966.302 
  710100    299.27206   -1497.2625    560.07527    431.25302    234.52738    32966.302 
  710200    297.77928    -1511.289    571.08034    421.40577   -169.16196    32966.302 
  710300    304.73252   -1466.4101      556.308    483.30647   -236.74981    32966.302 
  710400    301.06643   -1492.2289    556.68141     441.0976   -5.9251217    32966.302 
  710500    296.90686    -1486.462     560.1894    431.35263   -493.63153    32966.302 
  710600    303.97581   -1451.6191    561.09281    499.42208   -183.85802    32966.302 
  710700    292.15846   -1411.4526    574.67804    499.13834    -363.6864    32966.302 
  710800    299.04903   -1469.8064    561.95108    459.56513   -867.42807    32966.302 
  710900    304.66307   -1444.7716       570.11    518.42938   -11.266983    32966.302 
  711000    303.89001   -1462.2223    554.73212    482.06589     1.085617    32966.302 
  711100    306.02994   -1432.8832    558.94273    525.40065    184.62969    32966.302 
  711200    304.44583   -1424.4934    575.18918    542.79336    276.62427    32966.302 
  711300    294.15511   -1440.5433    579.73768    484.23698   -65.939337    32966.302 
  711400    301.06303   -1416.2062    569.60453    530.02785    127.40999    32966.302 
  711500    302.95264   -1427.6729    555.84573     513.4428   -190.27959    32966.302 
  711600    299.14658   -1432.5982    580.73795    516.00622   -152.59197    32966.302 
  711700    305.57086   -1451.7655    582.48459    527.96095    17.160447    32966.302 
  711800    292.43308   -1423.7388    553.95604    467.38581   -216.15562    32966.302 
  711900    297.20582   -1463.8928    563.54364    458.64303   -217.87599    32966.302 
  712000    309.46023    -1458.714    554.67586    510.98816   -79.938742    32966.302 
  712100    298.08664   -1479.5555    560.70231    444.16664   -398.60134    32966.302 
  712200    293.08516   -1411.1739    572.59904    501.57542   -55.354047    32966.302 
  712300    302.85161   -1379.6698    566.25198    571.39012    218.63348    32966.302 
  712400    301.00258   -1430.0726    558.47875    504.75928   -812.71782    32966.302 
  712500     306.4421   -1464.1969    550.82398    487.85281   -422.42193    32966.302 
  712600    309.94899   -1486.3838    578.48137     509.3588   -132.67324    32966.302 
  712700    299.79057   -1468.4959    529.37439    431.68962    46.958248    32966.302 
  712800    305.21483   -1452.7868    570.62212    513.44924    430.93257    32966.302 
  712900    299.27889   -1451.1371    562.64552    479.97985   -43.753223    32966.302 
  713000    299.48149   -1467.6571    562.89328    464.63402   -58.602812    32966.302 
  713100    305.40608   -1428.3536    542.05664    510.19141    359.34998    32966.302 
  713200    310.81098    -1471.091    552.45912    502.57074   -376.31997    32966.302 
  713300    296.96619   -1476.2128     559.6315    441.31524   -543.11868    32966.302 
  713400    295.87304   -1469.0982    527.57753     411.3773   -109.24619    32966.302 
  713500    299.30191   -1503.1284    569.11251    434.56081   -247.46266    32966.302 
  713600    306.76033   -1490.9225    565.66545    477.42383    733.77482    32966.302 
  713700    291.13169   -1444.5383      559.175     445.8546    95.858942    32966.302 
  713800    298.47163   -1424.0974    575.95762    516.64041    372.30149    32966.302 
  713900    297.97071   -1470.7446    587.94017    479.68526    450.85437    32966.302 
  714000    298.06787   -1486.1882    551.79175    428.53758    222.47158    32966.302 
  714100    304.03249   -1440.3276    560.89281    510.77282    145.32585    32966.302 
  714200    301.18996   -1453.7431    589.57102    513.03791   -372.50546    32966.302 
  714300    307.47729   -1423.6933    547.71841    529.98429    638.88302    32966.302 
  714400    298.54997   -1444.4894     585.7174    506.36644   -120.76549    32966.302 
  714500    308.19328   -1465.6134    605.79285     549.4125    445.06252    32966.302 
  714600    297.98888   -1405.6943    539.99338    496.87189    966.77212    32966.302 
  714700     305.1305   -1436.6922     591.7955    550.33159    822.66472    32966.302 
  714800    286.15322   -1439.2317    594.59063    463.81244    300.82243    32966.302 
  714900    289.44858     -1494.22    561.96306    391.26482    146.15543    32966.302 
  715000    304.25621   -1450.3638    557.55148    498.41823   -233.09011    32966.302 
  715100    291.72937   -1424.4093    588.91407     498.4556    2.3574467    32966.302 
  715200    304.12603   -1387.8822    569.04596    571.79906    346.87195    32966.302 
  715300    302.24552   -1387.1772    556.23654     551.0959    524.42181    32966.302 
  715400    296.46725    -1389.067    588.17901    554.72705    822.31907    32966.302 
  715500    301.42462   -1441.3832    578.87194    515.77174    758.19454    32966.302 
  715600    295.96328   -1418.4044    570.91335    505.81957   -56.662949    32966.302 
  715700    297.62508    -1452.007    557.37156     466.2739    67.644508    32966.302 
  715800    304.35995   -1426.4463    574.31415    539.57282    269.48346    32966.302 
  715900    293.11456    -1441.077    567.98034    467.18796    128.95404    32966.302 
  716000    302.90289    -1443.692    589.59087    530.94134    401.23843    32966.302 
  716100    289.26252   -1432.8583    587.48619    477.29881   -271.13489    32966.302 
  716200    300.06249   -1432.3476    579.42938    519.13626   -530.71098    32966.302 
  716300     294.3749   -1444.3711    567.56339    469.23991   -796.43619    32966.302 
  716400    303.39993   -1437.7924     580.3228    529.84552   -530.91899    32966.302 
  716500    299.44312   -1412.6952    596.23469    552.76191   -997.10239    32966.302 
  716600    307.22991   -1443.3888     587.9878    549.42704   -82.097757    32966.302 
  716700    293.33294   -1422.3329    553.67154    472.62185   -685.32596    32966.302 
  716800     300.1499   -1456.8694    593.59463    509.17946    -11.58109    32966.302 
  716900    296.57097   -1449.9606    567.48556    473.61433    389.19478    32966.302 
  717000    294.25197   -1431.5863    588.05326    501.95254     420.7171    32966.302 
  717100    290.13444   -1416.6006    586.77709    496.83437   -43.710472    32966.302 
  717200    290.98295   -1393.8943    587.78349    524.42699    42.529754    32966.302 
  717300    298.03985   -1419.8133    594.32867    537.32127    78.341305    32966.302 
  717400    298.34863   -1430.9109     601.5462    534.85309    594.48899    32966.302 
  717500    297.95584   -1430.6128    582.05107    513.85994   -74.817495    32966.302 
  717600    306.63364   -1422.1911    587.95891    567.86935   -285.23687    32966.302 
  717700    307.43849   -1452.4835     566.5019    519.80012   -74.244134    32966.302 
  717800    297.45995   -1419.6621    564.33919     504.8313   -462.91383    32966.302 
  717900    302.08736   -1418.1687    613.20178     576.3465   -191.84935    32966.302 
  718000     300.2397    -1440.798     567.4963    499.56317    131.62643    32966.302 
  718100     307.7412   -1438.4517    558.59499    527.30923     652.8022    32966.302 
  718200    301.28802   -1417.9049    602.12023    561.87362    59.274001    32966.302 
  718300    301.83792   -1411.7083    586.92241     555.3869   -147.88611    32966.302 
  718400    302.84711   -1449.9469    575.32795    510.16846    350.93455    32966.302 
  718500    310.30975   -1415.3925    573.16924    576.68748   -714.31982    32966.302 
  718600    294.29218   -1401.0223    554.06704    498.71414   -850.34791    32966.302 
  718700    301.48429   -1420.6466    575.10028     533.0095    -33.49499    32966.302 
  718800    307.98737   -1445.5593    574.84197    537.57419   -283.40654    32966.302 
  718900    293.33825   -1398.8612    583.65161    526.09798   -278.33942    32966.302 
  719000    293.94827   -1405.6115    559.78191    498.26725    339.31448    32966.302 
  719100    299.28512    -1416.707    554.76419    506.55715   -600.23757    32966.302 
  719200    308.94625   -1410.1144     546.9503    549.51191    131.48701    32966.302 
  719300    302.41802   -1404.6101    570.54949    548.76474   -461.88271    32966.302 
  719400     305.2713   -1460.1776    565.65902    501.35352   -1379.6382    32966.302 
  719500     306.0747   -1406.7351    560.63076    553.44143   -615.35619    32966.302 
  719600    299.53947   -1438.1996    571.30423    502.76765   -827.80616    32966.302 
  719700    303.61391   -1408.2257    583.64458     563.7125   -844.11423    32966.302 
  719800    309.78516   -1447.3827    563.30912    532.43843   -466.33725    32966.302 
  719900     291.7158   -1482.5497    549.99783    401.33693   -323.37472    32966.302 
  720000    301.06739   -1463.7929    559.72083    472.57748   -69.402419    32966.302 
  720100    308.17485    -1494.932    550.48057    464.69732  -0.78319625    32966.302 
  720200    297.09509   -1486.1619    558.82389    431.14783   -71.976316    32966.302 
  720300    301.40599   -1480.3606    567.98459    465.82177    129.03276    32966.302 
  720400    300.62906   -1449.7653    572.14453    497.02442    534.63363    32966.302 
  720500    303.45404   -1472.0773    560.11198     475.5973   -28.133714    32966.302 
  720600     296.5591   -1452.7897    551.86042    455.10578   -235.45245    32966.302 
  720700    311.33522   -1459.3567    594.86903    559.11215   -175.64964    32966.302 
  720800    289.23376    -1443.472    562.79902    441.86653    -812.8957    32966.302 
  720900    305.06423   -1405.8968    554.35796    543.38639   -387.32449    32966.302 
  721000    288.07486   -1441.1165    580.26312    456.38695   -342.91829    32966.302 
  721100    304.94473   -1470.7165    565.14995    488.81236   -233.96755    32966.302 
  721200    303.65116   -1378.1648    584.91821    595.21734    333.13148    32966.302 
  721300    293.00658   -1419.3907    555.96615     476.3664    342.85779    32966.302 
  721400    295.65909   -1404.5129    614.64283    562.04961     138.0713    32966.302 
  721500    297.90816   -1453.1299     583.2149    492.28866   -415.47966    32966.302 
  721600     304.7734   -1470.7245    543.73756    466.60849    809.64689    32966.302 
  721700    295.82975   -1455.5753     601.9891    499.11382    745.67772    32966.302 
  721800    301.46864    -1471.609      563.454    470.32923    802.29459    32966.302 
  721900    297.93063   -1482.5527    534.00387    413.75762   -31.631779    32966.302 
  722000    302.81661   -1466.9911    593.92842    511.58528     727.4523    32966.302 
  722100    296.64883   -1455.4994    565.33349    466.27948    827.95087    32966.302 
  722200    297.62344   -1466.1523    546.15776    440.90724    793.86929    32966.302 
  722300    293.68816    -1439.164    564.33172    468.07523    659.16418    32966.302 
  722400    297.03139   -1429.4948    575.56366    504.26343     278.6943    32966.302 
  722500    307.42881    -1409.594    586.04579    582.18931    370.93792    32966.302 
  722600     300.4714   -1451.3486    555.16966    477.74536    607.54029    32966.302 
  722700    305.54403   -1448.3905     560.6044    509.33308   -237.03989    32966.302 
  722800     286.8184   -1445.2173    567.76733    434.04517   -924.99442    32966.302 
  722900    294.07955   -1453.2592    542.41326    433.85123   -857.81126    32966.302 
  723000    301.01682   -1508.5785     571.5726    439.41237   -796.70666    32966.302 
  723100    295.37977   -1486.8561    538.36606    402.15246   -224.60271    32966.302 
  723200      316.795   -1488.9694    519.98079    479.57639    28.307793    32966.302 
  723300    298.41852   -1458.9291    568.34559     473.9539    168.80998    32966.302 
  723400    309.18937   -1408.1311    598.13292    603.78958    172.27965    32966.302 
  723500    293.76373   -1425.4462    561.48027    479.28711    404.31967    32966.302 
  723600    291.98875   -1408.7144    554.87834     481.3008    724.92719    32966.302 
  723700    299.59634   -1403.5692    582.84971    549.20357    186.29872    32966.302 
  723800     299.8237   -1445.7378    569.56984    494.79465   -537.59522    32966.302 
  723900     294.5615   -1405.3046    555.11307    496.70933   -123.51071    32966.302 
  724000    295.41001   -1420.6914    563.03268    493.12205   -209.31694    32966.302 
  724100    308.85551   -1447.2013    559.23338    524.29328   -337.75634    32966.302 
  724200    304.25278   -1404.0002    551.90724    539.12191    431.63273    32966.302 
  724300    288.43456   -1364.9508    596.54858    550.48285   -959.50742    32966.302 
  724400    307.28167   -1414.1222    568.29608    559.23856    -12.06101    32966.302 
  724500    299.47893   -1394.3879     556.6231    531.62134   -335.37135    32966.302 
  724600    300.97446   -1385.6263    568.18798    558.78624   -131.60366    32966.302 
  724700      299.551   -1456.1788    564.16604    477.70292   -315.50901    32966.302 
  724800    296.10891   -1431.3725    564.65701    487.26103   -315.54563    32966.302 
  724900    289.42573    -1403.946    538.72602    458.19731    782.31151    32966.302 
  725000    302.46316   -1434.9382    532.45119    480.54475    531.82191    32966.302 
  725100    297.67156   -1436.0004    584.75256    509.87407    151.31035    32966.302 
  725200    295.35548   -1413.6742    569.19194    506.04916   -336.29634    32966.302 
  725300    301.72099   -1378.3062    573.76777    575.09969   -712.46636    32966.302 
  725400     311.7488   -1401.1789    549.61545    573.92742   -649.31418    32966.302 
  725500    309.57335   -1388.0112    549.45176    576.98412     302.6589    32966.302 
  725600    302.77317   -1392.1279    581.75993    574.08133   -586.33624    32966.302 
  725700    288.45476   -1385.3484    577.46776    511.09678    120.36478    32966.302 
  725800    306.24216    -1355.585    535.63256    580.35901   -26.574542    32966.302 
  725900    300.58505   -1399.0155    553.32248    528.75092    701.86556    32966.302 
  726000    303.51388   -1402.3685    618.98241    604.45018    888.42966    32966.302 
  726100    294.21093   -1421.6105    586.80717     510.4946    221.41154    32966.302 
  726200    300.39055   -1397.4797    568.20659    544.28147    2.6004763    32966.302 
  726300    300.85553   -1393.1486    562.61966    545.15178    91.033563    32966.302 
  726400    300.06134   -1387.5262    587.57287    572.09593   -502.27993    32966.302 
  726500     297.9711   -1384.8982    555.28666    532.88002   -622.78421    32966.302 
  726600    296.29778   -1415.4543    560.22956    499.61537    -1279.205    32966.302 
  726700    303.75845   -1434.2813    571.64737    526.32062   -1218.6038    32966.302 
  726800    300.09458   -1404.9262    541.23092    508.50599   -626.10423    32966.302 
  726900    296.14612   -1409.8643     584.4481    528.73048    457.16425    32966.302 
  727000    291.91753   -1412.4738    567.34359    489.68095    289.51131    32966.302 
  727100    304.33992   -1398.4438    574.53345    567.70295    507.42935    32966.302 
  727200    288.20267   -1418.4821    579.83255    479.17518    419.29033    32966.302 
  727300    316.82952    -1429.015    567.30276    587.01054    1062.8505    32966.302 
  727400     292.1764   -1442.1162    565.17622    459.05493    844.74397    32966.302 
  727500    293.73491    -1472.451    573.35304    444.02326   -1311.8601    32966.302 
  727600    293.28034    -1435.447    598.63814    504.23389   -873.76728    32966.302 
  727700    307.45506   -1402.8465    533.90033    536.91137   -839.61085    32966.302 
  727800    304.67771   -1327.2518    576.31743    642.22354   -100.79148    32966.302 
  727900    297.65182   -1418.0361    570.41102    513.40649   -1006.5962    32966.302 
  728000     308.0335   -1440.7127    542.87244    510.66219    -277.6852    32966.302 
  728100    302.97285   -1402.2274    564.09051    547.22546    542.22042    32966.302 
  728200    289.49706   -1452.2671    550.66899    422.14533     226.7778    32966.302 
  728300    298.55471   -1414.2885    566.14668    517.01823    403.31961    32966.302 
  728400    311.13773   -1439.8364    562.26378    545.12407    -158.2971    32966.302 
  728500     309.2894   -1422.2872    575.20969    567.16763    7.2989806    32966.302 
  728600    295.58051   -1396.2224    568.90365    524.24167   -71.081303    32966.302 
  728700     308.2689    -1401.361    548.79653     557.0144    138.50793    32966.302 
  728800    307.00018   -1399.1952    568.71315    573.29553    -54.77792    32966.302 
  728900    308.07848   -1403.2765    571.36438    576.79598    83.698398    32966.302 
  729000    311.09367   -1412.5366     554.4629    564.42164    65.812662    32966.302 
  729100    307.80441   -1454.8257    541.21618    493.84543     158.7657    32966.302 
  729200    286.22207   -1435.6088    557.91158    431.07113    385.64404    32966.302 
  729300    293.64979   -1423.1045    573.76698    493.39458    62.461713    32966.302 
  729400    298.27926   -1392.1661     572.3095    544.04398   -442.93161    32966.302 
  729500    290.21975    -1380.499    568.87734    515.42627   -289.92629    32966.302 
  729600    296.71756   -1427.3664    532.37696    461.77018   -10.853189    32966.302 
  729700    310.79139   -1386.6406     551.0704    585.54288    384.96724    32966.302 
  729800    297.54184   -1430.3561     560.9031     491.0757    531.59588    32966.302 
  729900    291.86632   -1449.9448    556.34487    440.97715   -461.34436    32966.302 
  730000      289.941   -1447.0444      544.621    423.34995     114.8208    32966.302 
  730100    295.40514   -1424.4745     561.0893    487.37326   -99.732081    32966.302 
  730200    301.70018   -1442.2348    569.73257    507.04073    231.85111    32966.302 
  730300    305.73212   -1418.2724    552.15668    531.86356    977.28001    32966.302 
  730400     305.5298   -1402.9111    573.59498    567.73807    130.91053    32966.302 
  730500      299.943   -1432.7921    537.56419    476.28025    264.13192    32966.302 
  730600    314.63675   -1454.3544    565.41105    549.75285     745.3971    32966.302 
  730700    309.71751   -1427.8921    572.27573    560.58629    171.62414    32966.302 
  730800    301.10128   -1441.7761    564.82173    499.85004    428.01544    32966.302 
  730900    309.30969   -1414.6489    554.51853    554.20759    785.26978    32966.302 
  731000    299.59809   -1402.2007    550.73638    518.46674    387.55429    32966.302 
  731100    304.88522   -1446.0429    561.98026    510.04411   -15.691806    32966.302 
  731200     298.7955   -1415.1578    595.69283    546.79614   -676.80628    32966.302 
  731300    311.10154   -1386.5734    566.79248    602.75034   -60.353332    32966.302 
  731400    291.81611   -1413.5388    544.03538    464.84402   -687.73505    32966.302 
  731500    308.87715   -1412.4564    576.91716    576.82089   -317.71746    32966.302 
  731600     291.9164   -1449.0345    553.64446    439.41596    240.97379    32966.302 
  731700    292.48042   -1465.3817    577.53853    449.54182   -305.19931    32966.302 
  731800    293.10959   -1396.6859    592.72721    536.30326    707.28897    32966.302 
  731900    299.26025   -1384.0078    522.45677    506.83522    5.3336251    32966.302 
  732000    303.83722   -1441.7469    573.59301    521.16085   -258.16902    32966.302 
  732100    305.56069   -1449.7863    564.45377    511.86288   -297.65732    32966.302 
  732200    304.55677   -1475.0494    523.18956    440.74507    -237.8793    32966.302 
  732300    296.27907   -1442.3517    539.71231    452.11522   -414.99627    32966.302 
  732400    297.66079   -1479.2947    575.98428    457.76224   -524.14251    32966.302 
  732500    292.70367    -1427.704    560.84572    471.54761   -360.32464    32966.302 
  732600    301.05004   -1455.1663    547.83391    469.23776   -84.342154    32966.302 
  732700    298.94881   -1477.0349    570.37781    460.30505   -159.30522    32966.302 
  732800    306.83485   -1420.6191    557.67576    540.07826   -405.15253    32966.302 
  732900    303.06164    -1447.471    558.14714    496.44445   -208.77502    32966.302 
  733000    305.65509   -1419.8606    562.93005    540.69652   -477.15308    32966.302 
  733100      305.667   -1443.6443    551.57582    505.61301   -426.73174    32966.302 
  733200    299.62147    -1437.528    579.16686    511.67681   -368.05299    32966.302 
  733300    287.35267   -1422.9277    548.73721    439.74759   -431.68707    32966.302 
  733400    300.28528   -1467.5522     581.5578    487.07884    464.97861    32966.302 
  733500    294.33077     -1477.93     564.0861    432.00193   -697.21462    32966.302 
  733600    302.45486   -1445.7779    552.72322    489.93912   -301.58502    32966.302 
  733700    297.94448    -1406.363    545.07026    501.07708   -114.30643    32966.302 
  733800     296.5582    -1393.064    573.56024    536.52714   -526.29257    32966.302 
  733900    306.93315    -1403.909    597.48419    597.04627   -113.47254    32966.302 
  734000    305.95943   -1375.4084    576.89437    600.50459   -20.384109    32966.302 
  734100    301.28791   -1417.8576    575.45675    535.25701    319.59492    32966.302 
  734200    296.28808   -1369.8322    572.86113    557.82478    332.78394    32966.302 
  734300    295.70715   -1416.9987    568.50431    503.64507    452.55684    32966.302 
  734400    292.86377   -1433.2639    596.98425    502.85831   -325.73093    32966.302 
  734500    305.70802   -1416.4281    559.15707    540.59807   -21.192092    32966.302 
  734600    295.73643   -1431.0372    545.37056    466.60667   -385.67508    32966.302 
  734700    294.10664   -1416.2382     583.0175    511.60035   -323.54009    32966.302 
  734800     292.3304   -1413.1381    575.62009    499.18104   -240.38957    32966.302 
  734900    300.24567   -1416.5159    564.20198    520.57818   -513.72683    32966.302 
  735000    296.35265   -1450.8186    557.67396    461.94638   -612.26706    32966.302 
  735100    302.35945   -1361.2798    570.74638    592.02407    162.07455    32966.302 
  735200    290.00657   -1430.4654    545.56844    441.17628   -562.37125    32966.302 
  735300     307.8454   -1470.2773    550.65694    488.02207   -677.42753    32966.302 
  735400    296.76472   -1414.5104    550.03887     492.5038   -614.46656    32966.302 
  735500    300.53419   -1388.6197     560.4188    546.01051   -6.0463179    32966.302 
  735600    295.23844   -1393.9205    590.43677    546.51258    89.131744    32966.302 
  735700    291.35357   -1468.7838    562.39404    425.84267    298.40835    32966.302 
  735800    308.60003   -1412.6749    563.28405    561.70216    550.71416    32966.302 
  735900    304.45174   -1450.8063    571.34356    512.66192    213.91867    32966.302 
  736000    292.98193   -1441.6999    563.37622    461.35448    358.54575    32966.302 
  736100    306.31352   -1440.3401    588.51573    548.81338    389.68736    32966.302 
  736200    312.92849   -1412.9985    577.48536    595.37198   -14.958449    32966.302 
  736300     295.7952    -1444.015    567.16995    475.69704    409.98784    32966.302 
  736400    284.98459   -1428.3649    590.37668    465.12167   -218.52066    32966.302 
  736500    299.94901   -1431.0983    564.19472    504.63209    92.245833    32966.302 
  736600    298.14994   -1445.6832    564.58615    482.21223    301.78572    32966.302 
  736700    302.39983   -1381.2381    582.76668    584.27073    575.63775    32966.302 
  736800    306.21103   -1446.8489    537.50377    490.82403    473.65045    32966.302 
  736900    303.85237   -1419.0718    573.66989    543.98209    250.48929    32966.302 
  737000     304.6322   -1440.4347    575.12476    527.63993      638.251    32966.302 
  737100    310.87971   -1481.3613    577.07875     517.2344   -270.86643    32966.302 
  737200    299.62916   -1454.0423    539.31561    455.34641     -266.641    32966.302 
  737300    307.16812   -1491.9473    562.80871    475.40683    120.32428    32966.302 
  737400     297.2734   -1471.8331    575.28689    462.75503   -152.55328    32966.302 
  737500    296.30939   -1445.0905    562.16731     471.9701   -96.492065    32966.302 
  737600    301.45984   -1499.7764    566.27784    444.94546   -75.108891    32966.302 
  737700    299.16304   -1461.6256    563.77341    470.08952     31.67853    32966.302 
  737800    301.73095   -1422.0388    571.39044    529.03531    818.15618    32966.302 
  737900    293.81002   -1385.6551    573.86349    531.67307   -100.91221    32966.302 
  738000    298.40993   -1430.9049    602.71413    536.30731   -118.63009    32966.302 
  738100    302.17098   -1458.2697    565.73157    489.15762    371.54064    32966.302 
  738200    307.21159   -1446.7165    551.68923    509.71693    767.04255    32966.302 
  738300     291.2018   -1413.9982    598.28954    515.82986   -391.65357    32966.302 
  738400    309.76013    -1418.663    595.01508    592.74965    -296.2191    32966.302 
  738500    294.48569   -1404.7859    568.34621    510.11457   -367.89594    32966.302 
  738600    304.10598    -1420.903    554.61098    524.25161   -673.74027    32966.302 
  738700    305.26631   -1386.3172    567.54474    577.07691   -480.72753    32966.302 
  738800    307.56212   -1405.1664    567.98628    569.16692   -177.25991    32966.302 
  738900    303.30385   -1416.9914     565.6856    535.57005   -772.08726    32966.302 
  739000    310.28746   -1394.2467    589.45079    614.01289   -411.90931    32966.302 
  739100    296.54159   -1447.9713    554.31154    462.29521   -172.68391    32966.302 
  739200    302.56025   -1421.2057    551.42081     513.6908    166.89261    32966.302 
  739300    313.14475   -1428.4008    566.33528    569.80846    31.155638    32966.302 
  739400    297.02996   -1381.2299     569.5289     546.4871    127.65553    32966.302 
  739500    297.73382   -1387.4032    572.17081    546.17411    93.444627    32966.302 
  739600    302.62525   -1378.7536    586.57262    591.59196   -31.531335    32966.302 
  739700    296.37023   -1409.9082      574.838    520.10119   -148.86524    32966.302 
  739800    293.48026   -1354.7238    584.13597    571.36903    263.00679    32966.302 
  739900    302.98033   -1439.3294    571.38961    517.45672    -214.6428    32966.302 
  740000    287.72016   -1435.4652    573.90997    454.06318   -440.84056    32966.302 
  740100    299.29447   -1424.0563    559.62216    504.10861   -641.43022    32966.302 
  740200    296.02664   -1445.0768    563.52575    472.04933   -670.36233    32966.302 
  740300    301.13097    -1464.831    565.16785    477.27706   -379.00504    32966.302 
  740400    295.92404   -1426.1659    552.02301    478.98837   -20.054682    32966.302 
  740500    301.39556   -1426.4534    584.96951    536.66623   -318.13784    32966.302 
  740600    295.84392   -1402.9388    574.22282    524.04881    -173.2829    32966.302 
  740700    293.90944   -1425.9154    578.99699    497.00089   -730.85672    32966.302 
  740800    300.79266   -1385.6954    551.03334    540.73115   -280.82764    32966.302 
  740900    295.13284   -1391.0698    567.16023     525.6038   -209.64395    32966.302 
  741000    304.11583   -1417.7774    569.11527    541.92654   -628.04399    32966.302 
  741100    290.81131   -1410.4687    549.79178    469.07594   -771.18744    32966.302 
  741200     296.8362   -1423.6158    573.75678    507.44307    274.49998    32966.302 
  741300    300.98771   -1380.8938    603.44837    598.83969   -219.15876    32966.302 
  741400    296.52567   -1358.2098    571.62838    569.30079   -274.26706    32966.302 
  741500    297.03828   -1377.6775    541.16277    521.71135   -1030.0391    32966.302 
  741600    297.66189   -1387.4908    577.67679    551.26363   -689.87608    32966.302 
  741700    304.73343   -1365.6853    587.64047    615.36785   -527.28549    32966.302 
  741800    300.13547   -1400.9649    553.70963    525.13298   -626.19688    32966.302 
  741900    299.51628   -1403.6712    559.92157    525.80726   -420.73106    32966.302 
  742000    305.79003   -1396.6461    553.65694    555.25484    144.39099    32966.302 
  742100    300.53297   -1381.5021    567.62938    560.33311   -70.331732    32966.302 
  742200    302.71386   -1368.6219    554.38472    569.94089   -24.488104    32966.302 
  742300    302.75066   -1353.5321    583.78377    614.59801   -439.82991    32966.302 
  742400    313.99097   -1405.6167    590.50419    620.63085   -879.98087    32966.302 
  742500     293.4325   -1383.0509    549.26705    507.95469   -187.00354    32966.302 
  742600    304.55878    -1390.757    548.22291    550.07999   -231.59761    32966.302 
  742700    295.93329   -1362.8633    571.51236    561.82261   -553.71814    32966.302 
  742800    301.28068   -1397.6903    565.83596     545.7704    154.89488    32966.302 
  742900     304.9752   -1378.7011    556.57736    572.39448   -319.46117    32966.302 
  743000    307.15956   -1389.7366    581.55358    596.32331   -338.10133    32966.302 
  743100    291.91102   -1370.1699    567.73099    532.34254   -196.09005    32966.302 
  743200    305.28212   -1405.9119    559.39763    549.40729   -68.449942    32966.302 
  743300    293.90104   -1419.1963    571.54089    496.22551   -493.50935    32966.302 
  743400     290.1975   -1431.9314    551.65923    446.67405   -397.86911    32966.302 
  743500    301.67676   -1391.9943    558.67211    546.11364   -108.72392    32966.302 
  743600     294.9091   -1448.7008    530.26508    430.05455     -89.5144    32966.302 
  743700    307.49813   -1457.1919    599.51564    548.37818   -24.380915    32966.302 
  743800     295.9272   -1393.8791    539.51098    498.77752    164.61217    32966.302 
  743900    308.72352   -1425.8645    589.99493    575.78808   -93.543593    32966.302 
  744000    307.22445   -1418.8832    579.30758    565.22744   -22.300854    32966.302 
  744100    304.90184   -1419.3559    568.47331    543.30012   -107.13002    32966.302 
  744200    297.42309   -1418.2546    576.06816    517.79932   -387.34323    32966.302 
  744300     309.7769   -1423.0767    572.37383    565.77143    63.388952    32966.302 
  744400      296.382   -1451.1274    559.68135    463.77915   -437.53382    32966.302 
  744500    302.14611   -1436.1353    550.18996    495.63669      262.412    32966.302 
  744600    307.55867   -1414.7429    531.54338    523.13173   -249.53353    32966.302 
  744700    290.25995   -1414.6115    573.28596    485.90627   -662.39545    32966.302 
  744800    299.18146   -1408.1703    556.76475     516.6204    -212.9051    32966.302 
  744900    293.76465   -1393.0588    541.83434    492.03286   -892.59489    32966.302 
  745000    296.85956   -1371.5982    584.90736    570.71813   -107.84025    32966.302 
  745100     312.2434   -1413.6748    575.30003    589.37777   -365.92703    32966.302 
  745200    298.18067   -1424.9508    580.88471    519.38373   -275.97813    32966.302 
  745300    294.50659   -1391.7898    552.93373    507.79373   -73.513088    32966.302 
  745400    303.64934   -1407.4896    560.12604    541.09207    -17.18358    32966.302 
  745500    304.68429   -1405.9249    547.68133    534.94445   -1014.6681    32966.302 
  745600    300.33135   -1426.5277    550.74967    497.50585   -388.35678    32966.302 
  745700    306.80416   -1361.2824    559.18543     600.7843    80.564976    32966.302 
  745800    303.58112   -1403.1762     565.5284    550.49587    331.86411    32966.302 
  745900    311.77129   -1424.0329    569.75635    571.31715   -228.35444    32966.302 
  746000    289.96079   -1423.4523    593.59751    496.00912   -180.98658    32966.302 
  746100    308.59459   -1402.0608    562.77453    571.78185   -209.55571    32966.302 
  746200     295.0191   -1435.1996    555.94283    469.73649    166.99313    32966.302 
  746300    308.01801   -1433.7666    556.29882    530.96381    78.597681    32966.302 
  746400    306.19692   -1438.7547    568.58874    529.93861   -904.11093    32966.302 
  746500    288.47351   -1437.7328    581.59961    462.93005   -439.86272    32966.302 
  746600    292.92424   -1425.1919    582.10315    496.32573   -1048.8519    32966.302 
  746700    286.37405   -1454.2858    575.34786    430.52532   -1291.2471    32966.302 
  746800    303.74465   -1449.9707    570.16219    509.08292   -409.16808    32966.302 
  746900    310.03872   -1426.6111    560.27797    551.33838    63.070778    32966.302 
  747000    306.04962   -1426.5479     576.4562    549.33934    262.88424    32966.302 
  747100    300.18689   -1422.4635    609.83887    559.99877    740.42293    32966.302 
  747200    305.98012   -1445.1871    574.05916    527.98537       75.893    32966.302 
  747300    302.77791   -1432.2732    573.30386    525.50166    293.66519    32966.302 
  747400     296.6206   -1440.3759    572.66712    488.60747   -137.49139    32966.302 
  747500    289.41427   -1407.3349    605.65131    521.68121   -6.6977205    32966.302 
  747600    305.98337   -1441.8441    542.95081    500.23486   -265.72202    32966.302 
  747700    297.45378    -1433.105     547.4369    474.45794   -510.96893    32966.302 
  747800    294.93115   -1461.6188    563.82913    450.80142   -402.42031    32966.302 
  747900    307.17819   -1428.6074    565.26596    541.25003    622.19774    32966.302 
  748000    296.49918    -1430.035    564.43658    490.16261    838.92872    32966.302 
  748100    294.82161   -1443.1932    577.70516    482.60222    207.66619    32966.302 
  748200    289.99764   -1476.2414    578.14859    427.93959    374.55083    32966.302 
  748300    298.55178   -1460.0355    569.32922    474.44041    338.78393    32966.302 
  748400    308.92907   -1438.2336    558.88208    533.24603    396.90329    32966.302 
  748500    297.65559   -1424.9223    564.79632    500.92279    300.16593    32966.302 
  748600    293.37916   -1428.5023    560.96347    473.95577    87.720557    32966.302 
  748700    299.09968   -1461.4659    606.86579    513.05191    444.47938    32966.302 
  748800    293.50107   -1501.2353    554.04495    394.86172    753.77409    32966.302 
  748900    305.76059   -1489.4978    578.12282    486.73444    483.70417    32966.302 
  749000      300.022   -1498.1958    546.03897    419.71251   -49.499548    32966.302 
  749100    309.34307   -1444.2216    575.72372     545.9927    508.82637    32966.302 
  749200    308.29169   -1462.0118     601.2638    548.93505     388.3987    32966.302 
  749300      295.531   -1413.1858    589.22955    527.37778   -116.22064    32966.302 
  749400    298.55203   -1430.8436    563.52977    497.83403    349.81728    32966.302 
  749500    303.17363   -1441.2396    559.52673    504.56753   -373.64523    32966.302 
  749600     304.4039   -1489.2777    585.30198    487.93021   -118.78764    32966.302 
  749700    293.14257   -1445.2042     574.2843    469.49282    549.34326    32966.302 
  749800    297.28098   -1455.8007    572.06287    475.59802    265.33223    32966.302 
  749900    305.04657   -1475.0014     569.6445    489.48763    108.72641    32966.302 
  750000     305.2426   -1470.3395    596.68009    522.08144     388.4938    32966.302 
  750100    300.08456   -1448.2786    566.65866    490.53554    478.36401    32966.302 
  750200    297.07636   -1484.6145    573.91369    447.69943    469.66304    32966.302 
  750300    306.07622   -1484.8979    537.71773    452.37254    254.17248    32966.302 
  750400    298.83566   -1495.8678    551.25051    421.82752    511.77991    32966.302 
  750500    308.93366   -1461.7387    551.23531    502.11505    361.55608    32966.302 
  750600    299.98857   -1465.7868    584.03527    489.96504    258.89878    32966.302 
  750700    289.44392   -1449.7775    577.86009    451.58304    657.88188    32966.302 
  750800    297.10428   -1447.3184    537.71354    448.92311    450.80948    32966.302 
  750900    295.13834   -1496.3479    557.06934    410.25997     1.416422    32966.302 
  751000    304.32668   -1459.3551    571.84545    504.04317   -434.74347    32966.302 
  751100    295.64109   -1456.7353     559.8597    454.96178    528.86014    32966.302 
  751200    305.04403   -1495.5818    550.20771     449.4588       126.91    32966.302 
  751300    300.27484   -1476.9264    561.96449    458.06361   -259.38703    32966.302 
  751400    296.18301   -1446.3983    562.35844    470.27551   -129.37841    32966.302 
  751500    301.38687   -1452.1497    549.40387    475.36449    662.62742    32966.302 
  751600    307.60611   -1424.9803    559.90446    541.47237   -356.89015    32966.302 
  751700    292.27195   -1450.7981    566.30522    451.93892   -356.31919    32966.302 
  751800    295.19084    -1464.677    554.57312    439.67473    749.15572    32966.302 
  751900    315.15602   -1488.9612    571.89447    524.00389   -220.52806    32966.302 
  752000    302.43166    -1425.615    575.03056    532.30331    436.18635    32966.302 
  752100    297.19833   -1372.5068    553.91069    540.36189    1138.5678    32966.302 
  752200    313.04435   -1413.7723    594.85383    612.49643    1029.6766    32966.302 
  752300     308.6125   -1461.0098    578.07583    528.21606    908.44382    32966.302 
  752400    296.33881   -1407.7057    563.84901    511.17113    526.63144    32966.302 
  752500    312.00661   -1436.9672    551.83188    541.53439   -224.95519    32966.302 
  752600    305.77874   -1487.3803    598.82057    509.63273   -790.69482    32966.302 
  752700    287.91883   -1428.7804    542.14533    429.89177    224.14204    32966.302 
  752800    296.02118   -1427.9321    564.43492    490.07821   -287.89075    32966.302 
  752900    289.87464   -1424.8838    634.43446    535.02061   -719.82579    32966.302 
  753000    300.08523   -1425.5216    565.88417    512.52111    258.47768    32966.302 
  753100     290.9696   -1446.3016    574.78381    458.95888     775.1615    32966.302 
  753200    300.40559   -1422.0293    578.86275    530.45678     168.9956    32966.302 
  753300    289.89385   -1429.0483    572.82987    469.33934    791.65212    32966.302 
  753400    299.64221    -1428.721    565.62594    507.03772    1449.9194    32966.302 
  753500    305.78582   -1472.7598    568.46658    493.93159    309.12758    32966.302 
  753600    298.75918   -1491.8308    565.91972    440.18396   -83.678136    32966.302 
  753700     296.8613   -1471.9663    546.63368    432.08426    569.80533    32966.302 
  753800    308.99696   -1457.2197    565.91421    521.60243    357.18595    32966.302 
  753900    307.02901   -1443.5706    585.50969    545.84845    112.65974    32966.302 
  754000     288.2998   -1482.4682    580.18551    415.98621   -428.73031    32966.302 
  754100      300.752   -1490.7136    556.14219    440.63593    137.34778    32966.302 
  754200    299.78889   -1468.9586     570.3379    472.18275   -597.12287    32966.302 
  754300    309.95622   -1473.6924    579.73668    523.33847   -570.62545    32966.302 
  754400    290.14008   -1485.7277    564.71214    405.66817   -135.82084    32966.302 
  754500    296.32422   -1488.5038    611.37277    477.83002   -36.984628    32966.302 
  754600    304.73032   -1469.4676    565.80504    489.73591   -418.56398    32966.302 
  754700    294.20149    -1435.112    573.34816    483.49087   -444.05399    32966.302 
  754800    311.38577   -1463.8467    550.74382    510.72808   -316.28948    32966.302 
  754900    300.27369    -1448.253    576.45505    501.22227    4.0500512    32966.302 
  755000    300.98171   -1472.6865    557.83436    461.40564    711.88322    32966.302 
  755100    307.81614     -1453.39    598.49595    552.61453    466.59505    32966.302 
  755200    293.03289   -1446.3634    561.76038    455.30824    663.35511    32966.302 
  755300    306.92936   -1468.1623    581.63211    516.92356    904.33902    32966.302 
  755400    297.91735   -1502.1855    565.85906    425.91928    631.84521    32966.302 
  755500    302.67229   -1483.3636    544.14561    444.77008    547.58871    32966.302 
  755600    304.26615   -1467.9398    598.92094    522.25712    2.0413153    32966.302 
  755700    288.69209   -1439.5347    567.58137     448.1093   -606.66271    32966.302 
  755800    305.12971   -1476.1042    555.04601    474.16655   -97.193167    32966.302 
  755900     307.4326   -1497.8715    565.26646    473.14982     42.07182    32966.302 
  756000    292.69562   -1427.6956    627.92366    538.59717     402.1483    32966.302 
  756100    299.68466   -1445.7499    553.14376    477.72076    39.188341    32966.302 
  756200    305.98662   -1454.0246    572.84121    517.95955    330.90785    32966.302 
  756300    298.22022   -1488.7257    581.63437    456.53929    -718.6771    32966.302 
  756400    302.73863   -1481.1485    550.08222    453.22509   -883.02749    32966.302 
  756500     305.7093   -1435.7849    540.34225    502.43224   -537.69207    32966.302 
  756600     297.6331   -1440.3085    609.67668     530.3141   -773.70336    32966.302 
  756700    289.76261   -1438.5394    564.45493    450.87323   -387.43055    32966.302 
  756800    296.72614   -1431.0816     580.3055    506.02276   -96.726012    32966.302 
  756900    294.13609   -1494.8037    598.38945    448.54144    38.406048    32966.302 
  757000    285.89555   -1470.7217     598.4628    435.01645    267.24897    32966.302 
  757100    301.26024    -1470.686    592.27686    499.12218     410.7756    32966.302 
  757200     299.4627   -1474.8752    578.01076    472.44754    139.93968    32966.302 
  757300    311.30464   -1484.5038    594.10676    533.06297     173.2007    32966.302 
  757400    306.13237    -1491.368    584.92576     493.3672    522.26819    32966.302 
  757500    289.78286   -1493.7744    598.12225    429.39809    669.96277    32966.302 
  757600    287.25278   -1491.9991    600.80368    422.28585   -42.656686    32966.302 
  757700    297.93817    -1508.258    537.77789    391.86088    437.90437    32966.302 
  757800    299.73176   -1486.0851    608.69069    493.14785    565.47661    32966.302 
  757900    298.58028   -1475.8128    572.50604    461.97029   -972.23171    32966.302 
  758000    297.15175   -1480.5185     547.1488    425.37529     449.2948    32966.302 
  758100    303.30124   -1487.2792    604.63596    504.22071   -61.578613    32966.302 
  758200    309.45033   -1528.1782    563.70639     450.5092    392.00175    32966.302 
  758300    299.20677   -1528.2181     568.9113    408.83493    597.59376    32966.302 
  758400    291.33187   -1553.8131     571.2308    349.55092   -48.477646    32966.302 
  758500    304.02679   -1514.3865    569.15454    444.94954    120.03608    32966.302 
  758600    309.46063   -1499.2185    590.90175    506.71131   -99.383263    32966.302 
  758700    301.87356   -1484.8004    561.85727    457.39268   -5.3047768    32966.302 
  758800    293.47707    -1511.569     556.0471    386.42035   -732.72555    32966.302 
  758900    299.36647   -1510.4177    568.01327    426.46755   -474.16007    32966.302 
  759000    308.20719   -1508.0032    559.24746    460.54098   -214.93821    32966.302 
  759100    296.00033    -1531.701    581.95358    403.73262   -228.08916    32966.302 
  759200    307.11114   -1524.0382    588.38752    468.63423    -138.3738    32966.302 
  759300    312.05067    -1459.341    558.01162    525.54187    191.38575    32966.302 
  759400    302.26801   -1509.9997    619.33526    491.47497    174.02932    32966.302 
  759500    296.93322   -1537.5892    567.72259    387.87913    653.89505    32966.302 
  759600    296.89932   -1513.4537    575.06171    419.19881    743.62607    32966.302 
  759700    298.62451   -1495.1726    591.64972    461.95637    273.53491    32966.302 
  759800    293.78195   -1474.3475    614.33941     483.3283    663.38856    32966.302 
  759900    310.58297    -1480.776    546.86719    486.25125    18.396392    32966.302 
  760000     298.0378   -1508.7817    579.97542    433.99018   -435.46866    32966.302 
  760100    305.66073   -1474.6483    604.69979    527.70432   -397.23193    32966.302 
  760200    306.65165   -1460.2964    550.11835    492.00576    332.91701    32966.302 
  760300    300.12323   -1463.1784    595.56422    504.71812    555.72945    32966.302 
  760400    295.57562   -1507.1327    595.41212    439.81746    725.28432    32966.302 
  760500    293.89434   -1531.7796    565.59081    377.66147   -136.25921    32966.302 
  760600     303.2756   -1533.8611    549.01089    401.89639   -414.79625    32966.302 
  760700    295.38338   -1541.3088    562.03158    371.38173    353.75127    32966.302 
  760800     288.8163   -1510.3061     558.1715    368.49598   -403.78983    32966.302 
  760900    303.61033   -1489.2432    571.88286    470.91688   -761.60395    32966.302 
  761000    308.46645   -1518.9546    563.47282    455.00033   -286.37884    32966.302 
  761100    300.52389   -1538.5118    548.25217    383.90466   -240.29652    32966.302 
  761200    330.10908   -1495.1967    576.23081    590.47854    406.35593    32966.302 
  761300    307.87218   -1516.8398    531.25868    422.18368    230.21375    32966.302 
  761400     293.9324     -1483.77    593.25642    453.51069   -274.48675    32966.302 
  761500    307.66152   -1492.0894    592.27301    506.98518   -549.45378    32966.302 
  761600    294.55731   -1516.5452    532.21749    362.55402    338.76637    32966.302 
  761700    294.03485   -1493.2211     604.3934    455.66509    263.31687    32966.302 
  761800    304.39736   -1472.5784    585.09745    504.39505   -458.72486    32966.302 
  761900    294.20322   -1492.6896    589.74096    442.31402   -380.02719    32966.302 
  762000    295.57693   -1479.0078    587.36535    459.90153   -743.03223    32966.302 
  762100    298.07937   -1472.2801    586.71444    477.42089   -588.08746    32966.302 
  762200    294.93244   -1464.6974    557.18803     441.0877   -915.77045    32966.302 
  762300     291.9862   -1473.1983    552.89939    414.82627     -549.316    32966.302 
  762400     303.5388   -1470.2588    585.58041    503.27178   -258.96689    32966.302 
  762500    304.95984   -1453.5084    579.67209    520.61166   -640.15819    32966.302 
  762600    306.89961   -1452.6851    548.24646    498.87908   -441.03635    32966.302 
  762700     300.4603   -1448.6415    588.96587    514.19791    -554.4291    32966.302 
  762800    306.33299   -1452.9374    579.22739    527.01673   -731.02766    32966.302 
  762900    294.52209   -1442.7958    572.90765    476.83257    13.975765    32966.302 
  763000    302.83825   -1450.2439    584.97203    519.47496   -86.942248    32966.302 
  763100    295.98492   -1473.1289    560.35513    440.63581    59.256181    32966.302 
  763200    298.64792    -1447.324    570.49058    488.75288    41.775626    32966.302 
  763300    298.55162   -1448.1569    592.59796    509.58699    211.22285    32966.302 
  763400    287.08767   -1485.1647    539.12915    366.69078   -171.52317    32966.302 
  763500     294.3652   -1443.0023    589.50694     492.5079    309.42102    32966.302 
  763600    297.09158   -1472.0643    573.89309    460.29867   -350.40376    32966.302 
  763700      294.172   -1457.9688    566.65905    453.81013   -275.45226    32966.302 
  763800    298.57936   -1441.6087    599.31933    522.98339   -289.78891    32966.302 
  763900     292.3546   -1461.1898    576.24573    451.86568   -386.94111    32966.302 
  764000    296.13975    -1502.761    581.58135    432.93794   -108.62143    32966.302 
  764100    305.78654   -1478.9164    603.24244     522.5541   -87.188511    32966.302 
  764200    288.96985   -1448.2556    576.18302    449.26012    -415.0375    32966.302 
  764300    293.21296   -1393.7238     613.6787    560.68951   -1175.2417    32966.302 
  764400    302.47096   -1436.5344    596.80869    543.34172   -1024.8676    32966.302 
  764500    296.28478   -1463.8203    574.52444    465.48483    -11.25835    32966.302 
  764600    294.29957   -1509.4677    625.01814     461.2536   -1043.8893    32966.302 
  764700    306.70601   -1483.3972    595.85219    514.88741   -233.54091    32966.302 
  764800    301.88416   -1455.0828     579.0612    504.36264   -233.08157    32966.302 
  764900    289.17579   -1533.9706    576.15609    364.45988   -308.88148    32966.302 
  765000    300.51468   -1462.2057     593.4757    505.39217   -34.680699    32966.302 
  765100    305.24927   -1435.6874    598.39485    558.47882    59.809559    32966.302 
  765200    287.16333   -1461.6686    588.22245    439.62619   -207.88221    32966.302 
  765300    291.47722   -1471.8832    580.23458    441.14927   -261.83928    32966.302 
  765400    290.76478   -1535.2252    557.30704    351.62204     -92.6383    32966.302 
  765500    307.39169   -1454.9993    561.95556      512.524    318.43764    32966.302 
  765600    305.23567   -1475.1773    592.96254    513.49447    628.16912    32966.302 
  765700    303.65262   -1478.7257     576.8165    486.56141    -171.4692    32966.302 
  765800    298.31708   -1451.5795    564.75597    477.25003   -236.53118    32966.302 
  765900    293.96753   -1428.8824    622.06891    537.37141   -156.43139    32966.302 
  766000    293.87384   -1434.8273    576.60785    485.53707   -478.22449    32966.302 
  766100     297.6969   -1421.7859    580.73817       520.19   -208.59805    32966.302 
  766200    292.10273   -1459.7811    587.93551    463.81241   -458.19652    32966.302 
  766300    316.88719   -1461.4453     602.3187    589.85988    483.27497    32966.302 
  766400    287.64094   -1483.3697    571.80866    403.69513   -948.23463    32966.302 
  766500    306.82408   -1493.6463    571.21906     480.5451    21.202092    32966.302 
  766600    303.57297   -1446.0407    595.59459    537.66029   -108.32711    32966.302 
  766700    294.60681   -1462.3335    595.46616    480.24078   -118.67449    32966.302 
  766800    305.26863   -1447.2803    591.91133    540.49092    86.130886    32966.302 
  766900    294.07652     -1486.28    577.99741    436.40076    132.55719    32966.302 
  767000     296.8664   -1487.2796    566.16639    436.32695   -598.93353    32966.302 
  767100     299.1047   -1497.5196    570.91975    441.07515   -348.12783    32966.302 
  767200      301.754   -1490.7889    565.61791    454.61804   -429.62511    32966.302 
  767300    299.43832   -1528.1683    590.85964    431.89176   -806.69348    32966.302 
  767400    296.99142   -1522.0246    587.45401    423.44129   -1245.5527    32966.302 
  767500    299.27149   -1527.7284    555.63915    396.34837   -278.92423    32966.302 
  767600    301.31243   -1542.7308    561.21439    396.25355   -219.27713    32966.302 
  767700    298.97124    -1530.517    576.65659    413.20434   -446.36962    32966.302 
  767800     305.7462   -1552.1916    566.61341     412.4655   -315.92111    32966.302 
  767900    305.02316   -1550.8718    578.62865     422.4943    376.22627    32966.302 
  768000    287.89938   -1538.9983    570.42589    347.86557   -639.04606    32966.302 
  768100    295.98611   -1520.8417    567.38754    399.96088   -309.88278    32966.302 
  768200    290.36668   -1554.3121    566.27024    339.67799   -439.14367    32966.302 
  768300    305.22915   -1498.3033    570.45827    467.83441    361.66079    32966.302 
  768400    301.15028   -1506.3696    552.18771    422.84667    283.22639    32966.302 
  768500    306.00623   -1497.6796    567.17244    468.72552    97.200552    32966.302 
  768600    303.30282   -1527.0985    591.86755    451.64014    25.950834    32966.302 
  768700    298.55448   -1491.8215    567.61707    440.95464   -110.93657    32966.302 
  768800    298.31501   -1491.3036    557.38155    430.14201     625.7825    32966.302 
  768900    293.11291   -1476.3779    625.09663    488.99588    489.22455    32966.302 
  769000    304.84285    -1514.154    566.50573    446.26475    129.14394    32966.302 
  769100    289.93784   -1482.7176    587.21726    430.25856    301.77575    32966.302 
  769200    295.11917   -1469.1362    609.80643    490.12108     206.5999    32966.302 
  769300    294.11205   -1452.9423    567.81157    459.71504   -656.57033    32966.302 
  769400    292.63773   -1452.1926    582.67834    468.59004   -1023.0387    32966.302 
  769500    293.73778   -1501.8321    584.10393    425.40624   -830.63233    32966.302 
  769600    302.74898   -1497.8997    601.43578    487.87474   -41.486584    32966.302 
  769700    298.67271   -1536.3955    557.54982    386.85399   -293.88988    32966.302 
  769800     305.3371   -1494.6586    565.43998    466.95432   -228.94283    32966.302 
  769900    300.29401   -1556.4982    576.19597    392.81094   -170.87962    32966.302 
  770000    302.93351   -1538.3893    580.79802    427.59116    144.41347    32966.302 
  770100    295.27874   -1546.2874    549.88815    353.78131    478.25317    32966.302 
  770200    297.23805   -1490.3474    580.13046    448.92269    471.97231    32966.302 
  770300    294.41471     -1500.95    600.90406    446.18371   -292.15366    32966.302 
  770400    295.96493   -1516.7937    560.66655    397.19105   -128.77351    32966.302 
  770500    304.42678   -1516.7068    569.83501    445.13874     461.8281    32966.302 
  770600    308.39219   -1485.1076    597.03435    522.06935    407.83487    32966.302 
  770700    298.65283   -1476.0294    579.78371    469.36308    103.62846    32966.302 
  770800    299.08657   -1496.9914    559.76203    430.36263    378.89072    32966.302 
  770900    302.02929   -1522.6045     570.1171    428.56039   -161.69208    32966.302 
  771000    310.01692   -1521.3592    584.45859    480.67117    62.759324    32966.302 
  771100    300.93863   -1524.4289    582.82031    434.45212     -398.316    32966.302 
  771200    299.20863   -1560.2085    583.02868     390.9704    -446.6616    32966.302 
  771300    311.32617   -1501.5521     553.2918    475.29808    200.81396    32966.302 
  771400    297.53726   -1514.4186    570.88187    416.97102   -410.60594    32966.302 
  771500    292.77357   -1482.3718    610.11431    466.46801   -1628.1232    32966.302 
  771600    298.79735   -1444.7669    549.80993    471.31257   -425.01153    32966.302 
  771700    293.12109   -1485.7404     590.0783     444.6524   -499.03397    32966.302 
  771800    291.61983   -1499.7216    605.37673    439.10501   -1223.9181    32966.302 
  771900    309.39148   -1475.9449    563.10019    501.86724   -270.56948    32966.302 
  772000    301.21695   -1468.9706    568.36647    476.72919   -159.62187    32966.302 
  772100    302.87001    -1475.381    593.19884    502.70994   -232.63929    32966.302 
  772200    287.68638   -1500.8871     590.5275    405.10439   -830.48638    32966.302 
  772300    297.77827   -1507.5596    550.28449    404.33472   -149.98746    32966.302 
  772400    306.26061   -1473.0792    577.12712    504.44373   -717.99909    32966.302 
  772500    295.04166   -1452.4431    586.09159    482.74494   -1239.8752    32966.302 
  772600    308.34087   -1475.1657    569.65372    504.39593   -508.50975    32966.302 
  772700    301.96753   -1485.1688    604.82167    500.41829   -327.53859    32966.302 
  772800    298.00136   -1452.0675    587.08548    497.64783    627.86274    32966.302 
  772900    302.26175   -1477.4961    583.50132    488.11604    121.40154    32966.302 
  773000    300.54215   -1452.5229    586.37384    508.09876    200.08684    32966.302 
  773100    295.07062   -1469.2284    582.91514    462.91559    458.78098    32966.302 
  773200    293.41593   -1449.4442    578.07252    470.29105    155.24571    32966.302 
  773300    307.58303     -1483.45    580.44582    503.43847    182.28837    32966.302 
  773400    306.14506   -1453.4641     593.2935     539.6969    67.874016    32966.302 
  773500    294.44357   -1502.8506    557.14136    400.65237   -387.96337    32966.302 
  773600     305.3014   -1461.8205    578.02444    512.21371   -873.34007    32966.302 
  773700    298.40863   -1522.3963    561.47576    403.57162    93.071863    32966.302 
  773800    298.57101   -1527.3607    578.09608    415.97001    -92.80658    32966.302 
  773900    295.29023   -1512.3012    568.91314    406.84504    536.73406    32966.302 
  774000    306.65748    -1508.163    564.18254    458.23005    110.50824    32966.302 
  774100    300.21297    -1507.954    581.46274    446.25134   -142.39159    32966.302 
  774200    298.24621   -1511.7305    584.34176    436.36072    621.81516    32966.302 
  774300    297.83019   -1499.6269    538.40543    400.62571    535.93592    32966.302 
  774400    307.68886   -1505.6125    598.59754    499.91161   -225.12083    32966.302 
  774500     306.0137   -1506.3088    574.24804    467.20607    51.611172    32966.302 
  774600    300.08488   -1491.3187    564.03964    444.87782    793.30552    32966.302 
  774700    306.42097   -1486.3382     565.5448     480.3357   -11.753242    32966.302 
  774800    295.97259   -1535.1058    575.89064    394.13803   -166.49523    32966.302 
  774900     305.8433   -1509.7076    550.32081    439.10088    336.69874    32966.302 
  775000    304.19152   -1522.5759    556.91474    425.27362   -13.626402    32966.302 
  775100    306.86875   -1490.6506    581.19336    493.71938    343.16706    32966.302 
  775200    305.49328   -1487.0052    578.07586    487.95779    926.26507    32966.302 
  775300    298.29932   -1435.8033    585.83085    514.01988       523.51    32966.302 
  775400    296.71601   -1539.8881    594.32606    411.19047    465.98883    32966.302 
  775500    289.73255   -1542.7569    565.66372    347.72706    171.34874    32966.302 
  775600    302.15434   -1486.4476    595.10892    490.28095   -227.06333    32966.302 
  775700    286.59841    -1484.029     585.8792    412.33933   -415.29834    32966.302 
  775800    303.74912   -1484.3495     566.3617    470.92409   -366.60978    32966.302 
  775900    305.87223   -1471.5185    556.04577    483.14719   -81.724885    32966.302 
  776000    301.71294   -1507.5512    610.26315    482.31329   -537.33494    32966.302 
  776100    303.09291   -1500.8114     540.0225    425.12241    119.42031    32966.302 
  776200     294.9028   -1514.8539    577.56857    411.17623     238.6547    32966.302 
  776300    303.10145   -1462.7557    581.41862    504.61322    366.22807    32966.302 
  776400    304.55369    -1503.958    579.97866    468.61151    1058.1834    32966.302 
  776500    303.14273   -1493.8764    579.49847    471.76117    976.38398    32966.302 
  776600    305.64195   -1522.8408    572.33191    447.05806    476.54785    32966.302 
  776700    295.46246   -1428.7247    589.38728    511.68319    1084.9703    32966.302 
  776800    310.05682   -1434.9054    599.84714      582.696    321.55366    32966.302 
  776900    291.67998    -1435.816    580.98695    478.89592    733.64248    32966.302 
  777000    296.15463   -1440.6857    582.21997    495.71988    406.06823    32966.302 
  777100    305.28227   -1463.3224    591.50463    524.10458    -36.82988    32966.302 
  777200    298.24113   -1477.4444    578.45824    464.74006    902.51719    32966.302 
  777300    296.07096   -1502.0091    582.66661    434.46054    588.07055    32966.302 
  777400    303.85904   -1454.6672    560.74012    495.48741    742.73049    32966.302 
  777500    295.32076   -1467.9291    577.16734     459.6109   -26.648944    32966.302 
  777600    307.86274   -1453.6499    577.84564    531.91742   -186.70419    32966.302 
  777700    290.90195   -1501.0864    567.82193     396.9029   -979.48497    32966.302 
  777800    301.79358   -1473.2334    591.78398    498.52066     -1069.17    32966.302 
  777900    306.86716   -1452.4735    554.67137    505.36721    308.88602    32966.302 
  778000    304.33976   -1476.7233    594.61714    509.50651   -556.96789    32966.302 
  778100    302.83921   -1536.9429    608.64869    456.45708    24.839958    32966.302 
  778200    295.09098   -1503.1228    592.58882    438.78797    37.470792    32966.302 
  778300    299.75931   -1509.1968    567.31427    428.78569   -486.72433    32966.302 
  778400     297.0501   -1441.6684    566.98463    483.59648    230.26824    32966.302 
  778500    305.70588   -1492.2446    570.14046    475.75511    94.251159    32966.302 
  778600    304.45083   -1465.1296     574.4073    501.39819    691.31776    32966.302 
  778700    305.54573   -1486.9615    571.01611    481.18162   -141.82306    32966.302 
  778800    295.55498   -1492.5103    571.55985    430.49318    879.56442    32966.302 
  778900     308.4733   -1500.4418    580.25843    490.33008    720.00334    32966.302 
  779000    291.12219   -1497.3906     573.5821    407.36591    51.131129    32966.302 
  779100    302.93003   -1466.7444    566.94306    485.36516    5.5326509    32966.302 
  779200    298.17831   -1479.8238    562.82802    446.44315   -110.76734    32966.302 
  779300    307.39135   -1492.4682    591.35333    504.45139   -191.22716    32966.302 
  779400    307.91279   -1501.9172     569.7511    475.78444    373.17615    32966.302 
  779500    293.16559   -1483.4473    558.45734    415.52805   -80.497706    32966.302 
  779600    297.52053   -1485.7726    604.19528    478.85395   -407.75856    32966.302 
  779700    301.10843    -1464.993    542.64833    454.49243    356.51786    32966.302 
  779800    304.96922   -1492.2827    605.35964    507.56778     889.2906    32966.302 
  779900    292.56584    -1491.857    579.75816    425.67683    232.09143    32966.302 
  780000    299.63077   -1497.1225    581.09932     454.0573     717.3654    32966.302 
  780100    300.95705   -1517.1687     593.4905    452.46673     2.440966    32966.302 
  780200    293.36215   -1456.4477    584.55875    469.52783    184.00367    32966.302 
  780300    298.91758    -1519.188    596.11016    443.74155   -15.277835    32966.302 
  780400    300.61677    -1509.036    580.48373    446.03671   -104.11705    32966.302 
  780500    293.40877   -1516.0865    559.53616     385.0796    97.183471    32966.302 
  780600    312.91884   -1496.0469    555.23505    490.02911   -174.65897    32966.302 
  780700     307.5622   -1472.9136    588.30037    521.73415   -458.02802    32966.302 
  780800    299.07712   -1509.3419     530.8153    389.02231   -849.50967    32966.302 
  780900    298.51905    -1508.774    616.50441    472.72743   -1079.6163    32966.302 
  781000    305.57986   -1499.0916    579.34986    477.54131    -1179.291    32966.302 
  781100    290.80347   -1462.8817     594.3001    461.13545   -966.88017    32966.302 
  781200    296.26527   -1482.3725    569.77711    442.09606   -348.93134    32966.302 
  781300    302.00558   -1515.1968    581.51345    447.25603     256.4504    32966.302 
  781400    296.39121   -1504.3422    581.04101    431.96618   -80.310974    32966.302 
  781500    293.64353   -1508.5224     607.9841    442.16511   -728.53903    32966.302 
  781600    302.62301   -1519.0986    553.55999    418.22404   -669.31674    32966.302 
  781700    293.80788   -1507.1979    578.86618    415.12328   -890.28846    32966.302 
  781800    295.64266   -1472.3002    595.26223    474.80663   -569.30119    32966.302 
  781900    310.04219   -1455.4906    578.80097    540.99768    279.68119    32966.302 
  782000    304.44676   -1458.2985    610.93367    544.73699    943.47766    32966.302 
  782100    295.72482   -1502.0081    574.28925    424.50138   -68.573547    32966.302 
  782200    312.56572   -1498.8293    594.83335    525.23033   -218.12285    32966.302 
  782300    296.79043   -1505.4427    567.31982    418.96995   -320.48122    32966.302 
  782400    302.93676   -1469.8753    578.80983    494.13181    188.89397    32966.302 
  782500    301.16592   -1475.8085    597.83407    499.12557   -613.67144    32966.302 
  782600    297.72955   -1467.9428    552.32841    445.77264   -696.75969    32966.302 
  782700    299.25234   -1442.7961    605.94553    531.49947   -5.8472776    32966.302 
  782800    302.10766   -1469.2653    598.11273    510.25363   -73.999176    32966.302 
  782900    293.33017   -1508.1081    608.53147    441.69389   -59.201887    32966.302 
  783000    300.89335   -1494.0337    551.47578    433.29576   -383.17816    32966.302 
  783100    308.95287   -1509.1076    593.52169    497.12045    11.144544    32966.302 
  783200    306.52461    -1464.956    573.84011    510.48705   -858.05129    32966.302 
  783300    299.18819   -1420.5353    602.96436    550.48582    759.90898    32966.302 
  783400    303.25356   -1460.0508     601.8769    528.47195    1140.6682    32966.302 
  783500    302.46988   -1530.3921    577.24595    429.91634   -20.114023    32966.302 
  783600    306.57584   -1543.9328    580.40405    438.30846    604.66554    32966.302 
  783700    302.06261   -1505.6809    598.62827    474.14752   -54.627487    32966.302 
  783800    293.24531   -1533.0191    584.83724    392.70069   -915.32641    32966.302 
  783900    303.15346   -1471.6147     589.6303    504.20376   -252.55814    32966.302 
  784000    300.30128    -1491.905    596.18081    477.42218   -337.15779    32966.302 
  784100    295.19366   -1479.3572    571.07456     441.5089   -767.45527    32966.302 
  784200    285.76107   -1491.2856    587.23392    402.60873   -602.66928    32966.302 
  784300    309.56839   -1495.7931    571.85325      491.581    280.47455    32966.302 
  784400    311.82386   -1509.0908    574.33028    491.07358    -1058.519    32966.302 
  784500    292.25929   -1470.6638    617.28412    482.99426     -602.498    32966.302 
  784600    297.27014   -1508.6555    565.74758    416.37834    425.47841    32966.302 
  784700    296.74479   -1513.5088    591.57518     434.9505    -72.09777    32966.302 
  784800    300.50177   -1556.8754    611.10432    428.29211   -275.96775    32966.302 
  784900     300.0664    -1465.431    585.73756    492.37893   -241.28855    32966.302 
  785000     295.1734   -1491.2546    580.05533    438.49959   -413.45987    32966.302 
  785100    299.26952   -1436.8695    589.35945    520.91854    13.255127    32966.302 
  785200    293.30453   -1450.1082    568.14814     459.1933    319.23242    32966.302 
  785300    303.22904   -1430.0691    581.60134      538.066    87.648616    32966.302 
  785400    296.86729   -1474.7861     570.3169    452.97511   -87.762874    32966.302 
  785500    302.15359   -1494.7291    592.07506    478.96218   -113.66714    32966.302 
  785600    292.51382   -1477.8751    589.39066    449.05335    328.63638    32966.302 
  785700    306.28798   -1441.0315    576.28006    535.76947  -0.78221299    32966.302 
  785800    294.51044   -1487.5895    566.82133    425.89928   -449.72447    32966.302 
  785900    297.49146   -1477.5837    608.17837    490.89301   -801.36016    32966.302 
  786000    292.36229   -1470.4909    562.10998    428.46394   -322.23548    32966.302 
  786100    296.28862   -1528.0736    575.63399    402.35872    126.86352    32966.302 
  786200    295.23587   -1470.0625    581.87576    461.79771    18.946583    32966.302 
  786300    295.25498   -1439.3313    575.81723    486.55781   -38.117281    32966.302 
  786400     297.9826   -1487.7007    589.66778    464.51112   -411.55225    32966.302 
  786500     300.6896   -1484.6731    572.78028    463.02917   -778.34247    32966.302 
  786600    306.25541   -1517.1662    606.36917    489.57504     196.0732    32966.302 
  786700    304.42823    -1507.225    587.52317    472.31535    209.85934    32966.302 
  786800    303.31318   -1516.7065    556.98605    427.19804   -602.39376    32966.302 
  786900    298.75954   -1521.0178    546.79181    391.87065    14.287946    32966.302 
  787000    303.02257   -1534.4589    582.64767    433.77846   -570.40088    32966.302 
  787100    310.22564   -1477.6369    596.00804    536.89727   -623.76917    32966.302 
  787200    301.09704   -1481.0066    588.32569    484.10422    228.67434    32966.302 
  787300    301.16966   -1463.6468    575.12579    488.59619    530.44254    32966.302 
  787400      302.019   -1458.7275    602.27979    524.55309    108.20709    32966.302 
  787500    296.64762   -1475.4348    560.84365    441.84869    62.955431    32966.302 
  787600     298.3093   -1456.7237    591.36403     498.6783     652.0681    32966.302 
  787700    302.47815   -1492.2742    618.90848    509.73451    850.82227    32966.302 
  787800    297.34857   -1468.9076    595.57769    486.31503    14.771908    32966.302 
  787900    305.85075   -1454.0727      566.608    511.05702    865.05922    32966.302 
  788000    299.94198   -1492.5601     582.5672    461.51056   -41.152993    32966.302 
  788100    302.83912   -1488.7183    586.30456    482.33715   -220.42626    32966.302 
  788200    298.86063    -1468.328    586.27278    484.50377   -116.60591    32966.302 
  788300    299.53038   -1457.5763    614.19164    526.23678   -106.51294    32966.302 
  788400    309.22081   -1445.1735    586.05419    554.81222    292.67825    32966.302 
  788500    296.75384   -1525.8159    544.41593    375.52556   -411.65461    32966.302 
  788600    299.62661   -1487.3615    610.81105    493.51101   -351.21864    32966.302 
  788700    299.80533   -1542.6105    537.13988    365.40805    366.85306    32966.302 
  788800    301.15422   -1498.5658    547.28877    425.76944   -100.19188    32966.302 
  788900    310.80614   -1504.0749    583.38203    500.48766     424.5317    32966.302 
  789000    302.42728   -1489.3211    559.34031     452.8869   -448.20847    32966.302 
  789100    304.22308   -1527.8435    606.32708    469.56265   -264.01066    32966.302 
  789200    305.00866   -1505.3452    579.64016    468.96616    519.19006    32966.302 
  789300    301.35983   -1523.2619    555.86344    410.58822    438.47058    32966.302 
  789400    305.74052   -1503.0559    568.26212    463.22393     422.4645    32966.302 
  789500    294.15051   -1538.4229    584.75927    391.35795   -305.27755    32966.302 
  789600    297.65119   -1500.7449    571.57872    431.86257   -638.93198    32966.302 
  789700    293.09879   -1475.2021    583.48496    448.49545    110.68957    32966.302 
  789800    301.18484   -1506.1766    580.56222    451.57217    127.24076    32966.302 
  789900    303.13236   -1500.4233    572.50923    458.17757     257.6743    32966.302 
  790000    295.94478   -1512.4771    600.82733    441.57631    358.73276    32966.302 
  790100    295.15947   -1502.0344    594.51181    442.11258   -376.17687    32966.302 
  790200    307.30552   -1487.7153    577.89004    495.34842    603.01136    32966.302 
  790300     302.8836   -1548.6828     563.1416    399.41301   -128.77119    32966.302 
  790400    301.77968    -1564.176    574.50371    390.23413   -51.443018    32966.302 
  790500    300.94171   -1533.4737    561.30327    403.90435   -288.30259    32966.302 
  790600    301.22071   -1522.9805    564.16939     418.5394     14.96637    32966.302 
  790700    311.43903   -1521.5209    576.06042    478.61396   -331.00151    32966.302 
  790800    297.21646   -1511.5697    594.41209    441.88323   -550.92656    32966.302 
  790900    300.63636   -1516.9264    586.19089    443.94308   -240.50774    32966.302 
  791000    294.35033    -1519.697      543.543    369.78128    50.008933    32966.302 
  791100    297.08897   -1508.9505     613.6684    463.17579   -70.382233    32966.302 
  791200    298.36886   -1531.7931     566.2429    398.76006   -166.11704    32966.302 
  791300    302.39312    -1532.663    569.99812    420.04655   -255.75314    32966.302 
  791400    295.19198   -1499.0819    573.19325    423.89522   -500.45469    32966.302 
  791500     301.6059   -1528.2494    576.51339    427.37582   -436.43956    32966.302 
  791600    300.87533   -1493.8369    584.37756    466.31196    269.13437    32966.302 
  791700    291.92656   -1543.1306    593.73339    385.45525   -57.461454    32966.302 
  791800    308.05698   -1536.6801    577.84326    449.77305    357.11624    32966.302 
  791900    299.87859   -1489.2866    584.48577    466.41279    375.23461    32966.302 
  792000    303.03667   -1463.5655    599.97482     522.0635    26.002776    32966.302 
  792100    309.57693   -1501.3504    586.85991    501.06942   -250.30161    32966.302 
  792200    288.83266   -1468.4627    618.18227    470.42495   -213.73654    32966.302 
  792300      295.286   -1466.0727    593.42076    477.56177   -270.49893    32966.302 
  792400    297.43454   -1505.0918    551.14671    406.09296   -552.33078    32966.302 
  792500    291.04729   -1508.5945    566.80684    389.04428    393.29696    32966.302 
  792600    297.52021   -1546.9514    602.14824    415.62661   -353.60416    32966.302 
  792700    304.19181   -1507.5529    579.03083    462.41403   -383.43398    32966.302 
  792800    307.77298   -1482.2162    579.00183    504.09689    318.09036    32966.302 
  792900    313.14953   -1525.2854    591.68268    498.29307    128.40207    32966.302 
  793000    304.70142   -1497.9702    607.83396    503.13008    620.10457    32966.302 
  793100    306.64836   -1482.9588    587.82819    507.03826    469.15241    32966.302 
  793200    302.26704   -1459.5834    585.19101    507.74259   -1241.6706    32966.302 
  793300    296.18193   -1440.3311    595.21396    509.19331   -262.16957    32966.302 
  793400    308.77009   -1433.2727    563.32601    541.92388   -915.68552    32966.302 
  793500    302.40126   -1467.7876    592.73856    507.69963   -1302.0386    32966.302 
  793600    302.81169   -1442.5023    610.35128    552.47435   -524.75801    32966.302 
  793700    298.92707   -1469.5706    571.56143    468.85357   -768.56982    32966.302 
  793800    317.40377    -1490.629    579.52971    540.24932   -426.73904    32966.302 
  793900    295.78374    -1490.523    589.63826    451.60498   -494.63478    32966.302 
  794000    303.22211   -1469.2069    573.75772    491.05294   -1007.8327    32966.302 
  794100    292.64659   -1495.1969    584.46391    427.41181   -675.83083    32966.302 
  794200    294.87044   -1533.6711    606.87497    421.51741   -1260.2668    32966.302 
  794300    310.09391   -1483.6647    546.39614    480.65526   -690.82601    32966.302 
  794400    299.33287     -1477.06    538.59366    430.25196   -655.36682    32966.302 
  794500    292.91297   -1505.4026     587.2331    421.19343    -1030.275    32966.302 
  794600    301.29736   -1513.7612    609.86156    473.80138    -214.3212    32966.302 
  794700    303.37242   -1496.5418    579.21623     469.8638    198.45077    32966.302 
  794800     300.1375    -1466.212    580.08771    486.27321   -439.26454    32966.302 
  794900    296.09128   -1493.9157     592.1711    452.15129     346.4144    32966.302 
  795000    295.89699   -1444.4858    576.80725      485.329    46.614692    32966.302 
  795100    305.27407   -1514.9373    590.60235    471.54986    38.810279    32966.302 
  795200    298.38032   -1525.2023     579.2552    418.41563   -392.91672    32966.302 
  795300    306.37647   -1513.1722     570.8128     458.5662    409.28013    32966.302 
  795400    291.81277   -1491.1896    548.13941    391.28193    102.06627    32966.302 
  795500    302.39265   -1481.7285    564.74941    465.73022    31.296124    32966.302 
  795600    307.45322   -1490.7066    560.21165    475.35414    92.439302    32966.302 
  795700    302.79612   -1523.0664    563.29642    424.78423   -461.20143    32966.302 
  795800    309.64428   -1475.3914    588.50395    528.98043   -211.58688    32966.302 
  795900    303.23359   -1452.5064     559.3433    493.39144    546.44195    32966.302 
  796000    288.18292   -1473.8672    590.18555    434.05274   -548.63286    32966.302 
  796100    301.36597   -1459.1887    578.70277    497.52882    188.65897    32966.302 
  796200    312.46063   -1453.4728    547.94105    523.21405    85.628246    32966.302 
  796300     310.8222   -1466.3298    553.96356    508.88769    822.39811    32966.302 
  796400    300.61046   -1466.8125    576.18052    483.92821   -372.55744    32966.302 
  796500     302.7688   -1441.9177    591.25485    533.76643    -255.3445    32966.302 
  796600    307.41924   -1447.3419    556.18199    514.53374    748.14736    32966.302 
  796700    298.11799   -1456.0414    575.57374    482.69555    623.24383    32966.302 
  796800    291.77968   -1445.9571    588.52709     476.7508    739.40811    32966.302 
  796900    301.68574   -1480.9539    566.02852    464.55154    497.85685    32966.302 
  797000    307.34687   -1457.8177    581.91706    529.46218    888.83636    32966.302 
  797100     294.1796    -1497.236    567.00807    414.92668   -371.93081    32966.302 
  797200    298.04415   -1449.3015    559.30132    472.82532   -305.28083    32966.302 
  797300    304.29393    -1447.568     577.6577    521.49275   -20.589797    32966.302 
  797400    294.19528    -1488.299    576.52628    433.45363    334.54092    32966.302 
  797500    312.76971   -1477.2795    591.27781    544.15741   -592.78155    32966.302 
  797600    314.63709   -1468.6699     545.9053    515.93323    -302.5931    32966.302 
  797700    309.85873   -1477.8534    547.24348    486.23851   -498.18977    32966.302 
  797800    295.20877   -1478.1308    570.78355    442.51329   -694.78131    32966.302 
  797900    307.51811   -1463.3259    553.31475     496.1346   -781.94905    32966.302 
  798000     302.4978   -1427.7321    581.92546    537.38346   -515.68024    32966.302 
  798100    292.30956   -1450.8021    582.73291    468.53461    -1104.682    32966.302 
  798200    298.49105   -1452.2348    582.41117    495.04538   -694.99848    32966.302 
  798300    309.69959    -1427.404    582.17348    570.89024    226.11782    32966.302 
  798400    301.64057    -1416.641    605.41417    568.04355   -284.81128    32966.302 
  798500     305.5253   -1436.3777    562.57676    523.23264    49.607174    32966.302 
  798600    313.61796   -1455.9339    554.76239    532.86621    854.61537    32966.302 
  798700    296.94082   -1441.6704     570.7844    486.89447    561.89659    32966.302 
  798800    297.96601   -1458.2085     596.3159    500.57561   -117.39177    32966.302 
  798900    308.34611   -1413.7988    578.93189      575.065    379.24803    32966.302 
  799000    308.58965   -1448.2153    572.77754    535.60776    194.33008    32966.302 
  799100     304.1742   -1456.6594    584.71021    518.90635   -78.254698    32966.302 
  799200    298.38866   -1450.3776    557.83667    471.85987     -185.877    32966.302 
  799300    306.49981   -1496.8052    577.88605    482.57039    -837.0885    32966.302 
  799400    299.13321   -1476.1336    575.08116    466.75295   -680.31551    32966.302 
  799500    299.60679   -1454.0559    568.76657    484.68143   -1041.4156    32966.302 
  799600    314.66488   -1431.8985    574.48207    581.40841   -619.60999    32966.302 
  799700    306.37022   -1444.5403    555.61978    511.97654    -574.2575    32966.302 
  799800    297.37463   -1412.2646    581.97357    529.47305      -672.39    32966.302 
  799900    302.55497   -1438.9086    592.98516    537.52807   -647.20116    32966.302 
  800000    295.87051   -1429.3451    573.41324    496.95459   -764.71497    32966.302 
  800100    296.43387   -1433.2699    580.34671    502.53919   -648.77227    32966.302 
  800200    305.56659   -1468.6402    562.24005    490.82217    675.99291    32966.302 
  800300     302.7915   -1478.4009    579.34711    485.47936    344.73404    32966.302 
  800400    306.16623   -1464.2561    559.76728    495.47547    673.90051    32966.302 
  800500    306.81112   -1462.5478    548.14216    488.50747    286.64366    32966.302 
  800600    302.92001   -1447.4787    594.76683    532.40881   -519.74229    32966.302 
  800700    303.35997   -1458.1864    564.24104    493.18711     369.1387    32966.302 
  800800    310.97326   -1407.0134    579.23053    594.16182    461.51464    32966.302 
  800900    292.25578   -1438.1544    594.26483     492.4683      64.7403    32966.302 
  801000    296.58927   -1428.0915    567.20035     495.2819   -243.82405    32966.302 
  801100    298.90112   -1427.8239    572.77523     511.6954    478.85073    32966.302 
  801200    293.15356   -1505.8361    558.81304    393.43993    456.90971    32966.302 
  801300     297.4596   -1485.5052    560.58144    435.22891    450.01843    32966.302 
  801400      292.003   -1483.9999    578.34881    429.55093    77.924787    32966.302 
  801500    304.78088   -1444.9616    551.10205    499.77006    689.37194    32966.302 
  801600    309.25465   -1482.7312     566.3209    497.67592   -295.40073    32966.302 
  801700    293.61494   -1489.8859    562.78198    415.46877   -69.844103    32966.302 
  801800    292.41194   -1434.6348    584.74989    487.18695    534.92862    32966.302 
  801900    295.18056   -1464.4225    579.57625    464.88534    771.16451    32966.302 
  802000    302.72636   -1475.6613     582.9982     491.5721    55.779825    32966.302 
  802100    307.44024   -1471.4671    605.39771     539.7203    135.94854    32966.302 
  802200    293.90389   -1479.2263    563.26209    427.92972    514.01181    32966.302 
  802300    298.06896   -1469.9128    600.58484    493.61102   -9.0489149    32966.302 
  802400    303.62138   -1517.3993    576.50218    447.43067   -178.41054    32966.302 
  802500    308.53796    -1464.552    558.80797    505.06512    558.93561    32966.302 
  802600    301.70522   -1435.5153    573.72774    517.77848   -458.75024    32966.302 
  802700    299.23694   -1446.0349    601.15768    523.40245   -1270.4128    32966.302 
  802800    301.11819   -1441.9861    575.20654    510.10222    527.62281    32966.302 
  802900    303.09709   -1435.6623    561.08887    511.35702    456.85248    32966.302 
  803000    304.47386   -1458.8185    568.81565    502.22294   -768.75441    32966.302 
  803100    296.74237   -1466.9215    588.63279    478.58442   -865.30635    32966.302 
  803200    293.37926   -1422.6048    584.79226    503.68254   -371.83487    32966.302 
  803300    309.59576   -1425.9527    580.57895    570.27223   -147.41918    32966.302 
  803400    300.49304    -1430.927    562.32292    505.41919   -335.61846    32966.302 
  803500    292.96316   -1403.8569    586.46492    522.20037   -258.43073    32966.302 
  803600    299.92444   -1454.3242    556.76733    473.86642    245.61462    32966.302 
  803700     307.9574   -1474.2842     570.3011    504.17136   -220.79411    32966.302 
  803800    300.90393   -1482.9387    563.92013    456.88355    252.40829    32966.302 
  803900    293.72248   -1472.6681      577.943    448.33936   -305.08465    32966.302 
  804000    292.49798   -1490.9899     569.6801    416.15554   -721.86912    32966.302 
  804100    310.98944    -1408.006    570.88155    584.89425   -39.693942    32966.302 
  804200    298.63283   -1439.8656    567.04465    492.69637    491.23409    32966.302 
  804300    301.66364   -1461.7811    557.86928    475.46405    956.57825    32966.302 
  804400     305.1872   -1440.1885    587.86687    543.16596    656.08317    32966.302 
  804500    292.34514   -1409.3013    585.34429    512.80946    99.454777    32966.302 
  804600    303.55869   -1416.8953    592.66399    563.80982   -336.66817    32966.302 
  804700    294.47503    -1453.714    557.76698     450.5585   -10.726318    32966.302 
  804800    312.55065   -1438.5374    587.28293    577.90295     111.0806    32966.302 
  804900    294.65531   -1429.4514    578.76517    496.64363   -192.19285    32966.302 
  805000    299.19286   -1437.1215    582.18548    513.14211   -434.32847    32966.302 
  805100    291.62287    -1425.306    536.63807    444.79591   -431.08079    32966.302 
  805200    302.65194   -1428.6667    550.47369    505.70197   -316.90774    32966.302 
  805300    292.78845   -1449.2686    581.40739    470.93237   -860.07488    32966.302 
  805400    298.79115   -1467.4313    597.66942     496.4794   -562.84366    32966.302 
  805500     288.5448    -1461.468    550.00994    407.93113    -172.1829    32966.302 
  805600    302.78657   -1417.1624     577.2087    544.55685   -913.88612    32966.302 
  805700    301.85444   -1458.1756    544.71697    466.78971   -1143.2362    32966.302 
  805800     307.8151    -1474.375    576.84721    509.97602   -767.14407    32966.302 
  805900    312.34717   -1501.7425    530.36586     456.8504   -384.51892    32966.302 
  806000     301.1241   -1523.4874    556.61448    410.03588   -53.271466    32966.302 
  806100    294.83038   -1478.5346    560.05004     429.6458    506.06668    32966.302 
  806200    289.76272   -1503.0153    551.56125    373.50415    176.72622    32966.302 
  806300    302.54749   -1535.3064    559.54498     407.6559    774.23859    32966.302 
  806400    290.98799   -1485.1545    575.46957    420.87587    748.56019    32966.302 
  806500    299.74551   -1480.1558    566.93299    457.38233    379.35735    32966.302 
  806600    291.17199   -1502.1091    562.92151    392.21457    769.83527    32966.302 
  806700    295.13817   -1489.3065    527.80164    388.03297    309.68271    32966.302 
  806800    309.59162   -1436.8568    545.38893    524.15923   -145.77612    32966.302 
  806900    297.68852   -1489.2763    566.04655    437.96969   -221.45151    32966.302 
  807000    289.94794   -1435.8514    545.50387    435.45754   -371.53841    32966.302 
  807100    302.64825   -1454.9806    575.74416    504.64164   -693.42762    32966.302 
  807200    308.30035   -1495.3031     553.7785    468.19808   -665.53904    32966.302 
  807300    297.11572    -1467.638    543.91942     434.8617   -747.09517    32966.302 
  807400    311.75842   -1455.0675     579.3229    549.79025     -511.799    32966.302 
  807500    289.33075   -1478.8555    533.56711    377.69459    -807.0823    32966.302 
  807600    298.62887   -1487.7173      560.503    438.28492   -1140.7953    32966.302 
  807700    307.36123   -1499.7406    563.05728    468.74513   -230.12415    32966.302 
  807800    304.19538   -1506.0837      559.421    444.28971    255.10968    32966.302 
  807900    309.35799   -1511.7334    561.02307    463.84847    190.12567    32966.302 
  808000    300.09388   -1489.9063    552.27504    434.56682    911.49121    32966.302 
  808100     306.6598    -1470.465    583.12424    514.88038    642.55975    32966.302 
  808200    291.80535   -1492.7415    564.83757    406.39432    33.956578    32966.302 
  808300    298.42787   -1474.6928    560.45551    450.34282    483.53551    32966.302 
  808400    307.26388   -1461.7522    551.58792    494.81906   -175.63561    32966.302 
  808500    298.79348   -1460.3881    575.70639    481.57014   -646.48985    32966.302 
  808600        295.6   -1467.0986    542.27065    426.82155    153.59078    32966.302 
  808700    293.14138   -1471.8184    567.68098    436.26994    141.80877    32966.302 
  808800    308.36457   -1455.3156    557.13415    511.83486    429.95647    32966.302 
  808900    298.70861   -1435.9489    558.23568     488.1506    142.71274    32966.302 
  809000    310.46412   -1410.0973    566.96737    576.48673    371.65137    32966.302 
  809100    301.07577   -1473.3364    552.77337    456.12474    245.66674    32966.302 
  809200    301.76917    -1486.449    583.83834     477.2478    679.05834    32966.302 
  809300    304.87874   -1493.2879    548.85124    449.64041    215.74597    32966.302 
  809400    296.35533   -1445.9956    572.34765    481.45535   -188.28643    32966.302 
  809500    309.93059   -1472.3578    580.47383    525.29307   -7.2458594    32966.302 
  809600    303.79922   -1500.8117    538.49471    426.82392   -238.56367    32966.302 
  809700    300.42072   -1468.9307    545.20793    449.96978    457.44384    32966.302 
  809800    299.40704   -1436.6417     560.8333     493.2491   -89.757734    32966.302 
  809900    303.37306   -1494.1913    557.14807    450.14907   -386.67178    32966.302 
  810000    290.88847   -1460.1037    572.77107    442.77305    354.47193    32966.302 
  810100    302.05582   -1443.4349    574.55954    512.29374   -101.64291    32966.302 
  810200    294.61134   -1406.6264    577.14544    517.64788    37.381821    32966.302 
  810300    302.01812   -1471.6576    545.48847     454.8276   -156.55605    32966.302 
  810400    296.03629   -1442.1205    551.84573    463.36969   -560.75614    32966.302 
  810500    311.60654   -1477.3539    571.74716     519.2337   -209.22855    32966.302 
  810600    294.21204   -1426.2221    556.99109    476.07198   -427.48636    32966.302 
  810700    293.95328   -1437.8121    575.67984    481.98756   -325.94085    32966.302 
  810800    308.88496   -1445.6677    596.30346    563.03161     511.9598    32966.302 
  810900     293.8996   -1466.2994    580.01829    457.59327    317.47944    32966.302 
  811000    309.60189   -1416.2618    570.13931     569.5515    389.59532    32966.302 
  811100    298.19898   -1452.5661     553.6354    464.60275   -993.37303    32966.302 
  811200    305.14583   -1443.4194    570.91719    522.79618   -522.72085    32966.302 
  811300    299.18048     -1491.32    552.91518    429.61661     -178.448    32966.302 
  811400    298.88622   -1484.7822    556.04315    437.93685     269.7048    32966.302 
  811500    296.77544   -1517.1745    578.91306    418.76283    512.73038    32966.302 
  811600    305.40549   -1476.2976    553.15287    473.34102    1231.3842    32966.302 
  811700     306.2308   -1475.1888    559.42903     484.4997    410.14218    32966.302 
  811800    302.89012   -1474.7492    572.46581    482.70068   -137.53269    32966.302 
  811900    313.18289   -1448.2823     566.0484    549.81453   -96.081239    32966.302 
  812000    293.86505   -1449.2403    531.68958    426.16561    424.81926    32966.302 
  812100    303.24916   -1512.9206    565.64621    439.35138   -255.87747    32966.302 
  812200    303.47936   -1453.6227    554.39303    488.44875    176.77323    32966.302 
  812300    302.08048   -1471.9518    566.11577    475.44589    488.31356    32966.302 
  812400    294.27806   -1449.6478    553.50307    449.46013   -370.96905    32966.302 
  812500    286.39834   -1444.2256    577.32679    442.67553    172.88919    32966.302 
  812600    290.66816   -1408.0711    547.86025    468.88748    480.78886    32966.302 
  812700    296.11262   -1423.6139    589.62481    520.00439    360.65603    32966.302 
  812800    306.15148     -1443.55    591.60544    547.95227   -384.00415    32966.302 
  812900    307.72211   -1392.2113    554.22151    569.08878   -50.379078    32966.302 
  813000     291.7938   -1383.7906    580.64893    531.10376   -131.55284    32966.302 
  813100     308.9336   -1410.8806    609.70872    611.44639   -973.48531    32966.302 
  813200    292.90554   -1434.7087    563.61663    468.23679   -324.88928    32966.302 
  813300    310.60799   -1412.4097    570.48548    578.35029    336.72713    32966.302 
  813400     294.3028   -1426.8956    575.89072     494.7131   -414.26148    32966.302 
  813500    302.75054    -1429.339    577.83675    532.84355   -104.96817    32966.302 
  813600    289.99065   -1441.4975    563.65999    448.16296   -346.33457    32966.302 
  813700     304.2514   -1438.6425    561.36519    513.93133   -604.35453    32966.302 
  813800    284.57215   -1455.0137    558.53342    404.74371   -583.54471    32966.302 
  813900    297.93305   -1454.8737    569.91503    477.35882    117.70606    32966.302 
  814000    297.30277   -1437.3547    567.78401     489.8648   -326.16206    32966.302 
  814100    301.96657    -1464.088    570.41844    487.09153   -430.32988    32966.302 
  814200    295.18397   -1498.0081    574.52006    426.25911   -275.50009    32966.302 
  814300    301.12428   -1504.6242    529.12747    401.41288    615.90116    32966.302 
  814400    299.31183   -1484.7506    562.03041    445.90185    281.65191    32966.302 
  814500     307.7406   -1439.1669    578.59907    546.59535    270.86337    32966.302 
  814600    297.25779    -1459.651    553.17884    452.75772    655.47488    32966.302 
  814700    302.22005   -1466.7337    572.78583    487.97227    375.37514    32966.302 
  814800    298.82978   -1472.4273    583.61852    477.60914    594.55825    32966.302 
  814900     293.2566   -1491.7695     543.9601    393.12475    828.14622    32966.302 
  815000    304.40162   -1509.6373    598.91447     481.1726    467.44898    32966.302 
  815100    296.24101   -1488.8476    576.94791    442.68093    422.12775    32966.302 
  815200     308.2396   -1451.5897     571.6014    529.45661    797.46788    32966.302 
  815300    295.35908   -1472.1351    584.80795    463.22072    81.221883    32966.302 
  815400    297.00523   -1495.4228    582.98495    445.63712   -29.325875    32966.302 
  815500    298.94083   -1425.8048    582.40149     523.5223    834.26003    32966.302 
  815600    302.68637   -1484.2351    572.47326    472.29048    535.83403    32966.302 
  815700    307.39695   -1459.9807    584.19326    529.80436   -274.03753    32966.302 
  815800     293.8883   -1440.7795    538.59104    441.63424   -268.07179    32966.302 
  815900    291.13012   -1440.4092    595.10751    485.90898   -798.01283    32966.302 
  816000    302.43962   -1461.2143    562.80309    484.51288   -890.47951    32966.302 
  816100    296.73605   -1450.1602    572.18332    478.86725    172.41738    32966.302 
  816200    297.24634   -1418.8711    562.93879    503.24523   -331.65205    32966.302 
  816300    296.02194   -1438.7213    575.88126    490.73879   -518.96072    32966.302 
  816400    299.70534   -1464.5869    564.80097    470.63553   -255.82954    32966.302 
  816500    302.53429   -1409.5965    563.17117    536.93171    392.22937    32966.302 
  816600     298.9615   -1452.3729    555.35324    470.00054    32.181156    32966.302 
  816700     300.6691   -1481.0028     558.0385    451.86399   -230.92896    32966.302 
  816800     305.6617   -1427.5722    567.43135    537.51643    341.59646    32966.302 
  816900    294.41356   -1456.9289    584.72599    474.02156   -8.6899395    32966.302 
  817000    290.43687   -1469.9133    582.85337    440.98084   -404.11943    32966.302 
  817100    301.84843   -1453.4235    565.83404    492.63136    29.727227    32966.302 
  817200    307.85145   -1420.4527    554.11438    541.33171    134.22258    32966.302 
  817300    308.34649    -1412.291    594.35635    591.99898    129.79043    32966.302 
  817400    302.65829   -1470.5118    588.55428    501.96652    623.60103    32966.302 
  817500    302.49753   -1455.9635     568.7157    495.94108    724.68777    32966.302 
  817600    294.12162   -1513.6315     578.2026     409.4606     662.9302    32966.302 
  817700    303.83405   -1422.6529    585.06603     551.7133     363.8662    32966.302 
  817800     287.8892   -1424.0303    559.44639    451.80751    265.52838    32966.302 
  817900    293.22622   -1414.3645       542.94     469.3708    44.774815    32966.302 
  818000    291.06124   -1476.2748    565.77298    420.39391   -119.71256    32966.302 
  818100     288.5353   -1486.1841    575.42371    408.58531    66.749302    32966.302 
  818200    300.67225   -1421.5208    584.44133    537.76324    248.08369    32966.302 
  818300    301.39017   -1448.4271    586.50169    516.20005   -616.80856    32966.302 
  818400     299.1272   -1475.7351    569.97547     462.0182   -180.07552    32966.302 
  818500    290.52761   -1462.3387    540.60961    406.72656    463.82842    32966.302 
  818600    292.98861    -1505.988    595.73593    429.45664    20.828559    32966.302 
  818700    296.23947   -1437.9093    574.94818    491.61242    204.95085    32966.302 
  818800     293.4593   -1460.1569    537.95853    419.66264    448.29252    32966.302 
  818900    291.40802   -1464.2295    573.53223    441.78412    418.74769    32966.302 
  819000    292.30789   -1468.5694    609.56534    477.59212   -324.53992    32966.302 
  819100    294.65718    -1421.118    572.08642    498.30679    383.52804    32966.302 
  819200    295.86371   -1449.1762    592.91415    496.59331   -4.3443719    32966.302 
  819300    295.54434   -1483.2706    570.43423    438.55866   -518.98022    32966.302 
  819400    303.35691   -1405.6141    583.33829    564.84264    164.16415    32966.302 
  819500    291.95194   -1444.9454    566.45609     456.4792    118.27139    32966.302 
  819600    296.41643   -1449.2609     597.7818    503.90361   -550.82542    32966.302 
  819700    299.70075   -1438.5917    556.67725    488.48598   -413.30401    32966.302 
  819800    297.78065   -1419.2492    565.57981    507.95129   -158.79028    32966.302 
  819900    302.39882   -1415.1162    583.58131    551.20267   -38.355748    32966.302 
  820000    302.65923   -1452.2312    573.39542    505.09246    -277.6612    32966.302 
  820100    300.68397   -1489.5569    557.05704     442.3964    173.39721    32966.302 
  820200    302.56252   -1480.3003    577.00796    480.19372    264.11115    32966.302 
  820300    295.15465   -1472.1144    572.19875    449.69743   -39.651962    32966.302 
  820400    302.44171   -1447.7094    552.98115    488.20538   -103.48926    32966.302 
  820500    309.31042   -1466.5773    593.20429    540.96821    16.495527    32966.302 
  820600    296.72277   -1427.0704    601.23627    530.94935   -1024.4675    32966.302 
  820700    304.88299   -1472.6439    588.11176    509.56445   -508.00111    32966.302 
  820800    298.02292   -1461.9156    535.22804    436.04091   -361.72765    32966.302 
  820900    304.65784    -1483.037     599.3051    509.33517   -378.49977    32966.302 
  821000    293.41436   -1469.6967    565.48591    437.44477    152.10415    32966.302 
  821100    300.41412   -1433.0257    558.61912    499.25575    815.34467    32966.302 
  821200    290.61609   -1443.9472    583.03948    467.95251    53.051537    32966.302 
  821300     302.6133   -1468.4156    586.79866    502.10126    320.65093    32966.302 
  821400    292.78105   -1419.1401    575.21744    494.83699    273.99201    32966.302 
  821500    306.11356   -1462.6134    535.65361    472.76364    503.40175    32966.302 
  821600    301.40322   -1443.3813    595.21068    530.01445     608.6693    32966.302 
  821700    285.17291    -1452.304     578.9121    430.57916    325.35853    32966.302 
  821800    292.61372    -1489.723    552.16623    400.43785   -334.07035    32966.302 
  821900    309.26895   -1459.0786    613.03495    568.10803    119.50182    32966.302 
  822000    293.86052   -1480.5347    607.48943    470.65039    327.59173    32966.302 
  822100    298.85374   -1445.9479    609.23394    529.81353    356.13804    32966.302 
  822200    298.98583   -1470.1595    576.12809    473.10006   -321.64577    32966.302 
  822300    298.76236   -1440.9998    583.81049     508.9203    187.42117    32966.302 
  822400    302.42744   -1487.7314    585.05252    480.18954   -467.16333    32966.302 
  822500    297.95881    -1466.601    559.38345    455.21776   -592.93455    32966.302 
  822600    300.82657   -1454.7366    574.53258    495.34426     338.3146    32966.302 
  822700    307.36597   -1448.8156    605.10637    561.74094   -172.22469    32966.302 
  822800    308.44724   -1451.8761    572.46041    530.97865   -887.27559    32966.302 
  822900    298.06297     -1479.99    573.13322    456.05485   -384.12581    32966.302 
  823000    292.77254   -1476.8032    593.24977     455.1673   -929.88187    32966.302 
  823100     294.5234   -1444.1737    600.30449    502.85749   -200.29034    32966.302 
  823200    310.90056   -1478.3061    579.34036    522.64652   -339.81833    32966.302 
  823300    298.51214   -1448.7234     563.5791     479.8211    -339.8114    32966.302 
  823400    291.19391    -1437.267    569.44997    463.68538    144.96423    32966.302 
  823500    305.18149   -1464.3812    602.91178    533.99206   -274.12483    32966.302 
  823600    302.71737    -1446.353    573.49843    511.33957    360.95089    32966.302 
  823700    295.79724   -1447.2946    556.42707    461.68388   -183.16559    32966.302 
  823800    293.54338   -1448.2722    603.44189    497.41513   -157.68803    32966.302 
  823900    299.69337    -1439.895    582.36871    512.84038    91.790171    32966.302 
  824000    298.70013   -1459.1797    579.44708    486.09245   -665.59756    32966.302 
  824100    301.45163   -1478.9744    573.58203    473.01403   -275.14225    32966.302 
  824200    295.61825   -1462.5839    605.50137     494.6504   -590.65248    32966.302 
  824300    293.68397   -1438.1934    549.88315    454.57808    33.643426    32966.302 
  824400    295.55225   -1481.5227    596.54669    466.45521   -393.91492    32966.302 
  824500    304.14153   -1490.9006    597.45957    497.26516   -27.326371    32966.302 
  824600     296.2193     -1494.14    548.27247    408.61377   -158.80923    32966.302 
  824700    313.84135    -1479.436    607.50153    563.12472    -321.7989    32966.302 
  824800    300.44934   -1485.7927    567.46629    455.49697    552.77252    32966.302 
  824900    307.20877    -1458.021    574.04287    520.75318   -237.50816    32966.302 
  825000     299.9863   -1504.8079    581.30939    448.20768   -285.28816    32966.302 
  825100    302.02692   -1493.1174    585.89965    473.81924    114.69972    32966.302 
  825200    294.72401   -1476.1727    560.17415    431.64548    151.38547    32966.302 
  825300    300.06824   -1451.1408    575.89127    496.83129    -5.657202    32966.302 
  825400    295.71685    -1453.036    586.00255    485.15036     78.93494    32966.302 
  825500    292.46535    -1471.942    569.82377    435.19786   -255.90972    32966.302 
  825600    297.17497   -1475.3803    579.30041    462.77128   -332.32256    32966.302 
  825700    294.02146   -1503.5521    595.03984    435.91928    39.506581    32966.302 
  825800    306.32261   -1466.2715    597.10248    531.51031    506.53909    32966.302 
  825900    293.40257   -1449.2421    582.40252    474.76201   -391.80665    32966.302 
  826000    309.11648   -1508.4084    566.14569    471.19172   -8.8224657    32966.302 
  826100    310.45172   -1471.1067    590.56165    539.01483    520.76097    32966.302 
  826200     292.9598   -1485.7175    565.04038    418.89994    753.07006    32966.302 
  826300    306.03711   -1489.5177    570.16433    480.02048    603.00584    32966.302 
  826400    298.56185   -1424.6947    622.41918    562.91719   -150.32007    32966.302 
  826500    298.21342   -1464.8636    550.09561    448.83151   -277.53187    32966.302 
  826600    297.61916   -1439.8013     614.1893    535.27025   -405.55177    32966.302 
  826700    290.59142   -1460.3526    567.41277    435.80761   -401.11977    32966.302 
  826800    294.04418   -1440.6804    586.18532    490.04033   -1044.5323    32966.302 
  826900    312.61137     -1460.77     562.9313    531.59639   -861.42605    32966.302 
  827000    297.38661   -1490.6765    566.47654    435.61892   -811.90513    32966.302 
  827100    297.64013   -1453.7638    605.21411    512.42842   -680.92944    32966.302 
  827200    300.13199   -1458.2937    588.20554    502.28414   -368.89963    32966.302 
  827300    298.18039   -1434.2996    581.67058    510.81947     763.1868    32966.302 
  827400    279.76271   -1431.8399    600.13748    447.53005    39.367209    32966.302 
  827500    301.37472   -1424.7664    591.00266      544.291   -258.05387    32966.302 
  827600    304.47668   -1397.5458    565.79562    560.48852     377.4769    32966.302 
  827700    305.64548   -1423.9637    578.06721    551.68655   -413.61235    32966.302 
  827800    304.28499   -1458.4303    597.03331    529.96515   -521.30847    32966.302 
  827900    306.36089   -1426.1697    591.24833    565.93297    351.64331    32966.302 
  828000    300.82872   -1451.9472    617.16851    540.77946   -153.52171    32966.302 
  828100    296.55684   -1442.7329    611.05237    524.34419   -755.85611    32966.302 
  828200    291.07528   -1450.3014    570.16859    450.82715   -476.45655    32966.302 
  828300    298.53397   -1452.4168    613.97739     526.6259   -371.17316    32966.302 
  828400    301.44542   -1444.3053    569.09099    503.16377    -283.0829    32966.302 
  828500    300.23152   -1443.0242    579.12074    508.92394      42.5364    32966.302 
  828600    309.47404   -1466.0948    634.31048    583.30514   -684.86289    32966.302 
  828700    298.52274   -1436.5931    598.29227    526.71307   -103.94785    32966.302 
  828800    310.37973   -1447.7864    610.61618    582.06056    30.845703    32966.302 
  828900    305.05201   -1414.0541    580.21403    561.02929    834.17993    32966.302 
  829000    299.11422   -1404.0964    612.45368    576.07578    267.49036    32966.302 
  829100    291.71707   -1429.7321     604.3098    508.47229    5.9125885    32966.302 
  829200    295.10135   -1424.5485    600.42287    525.24373   -36.715307    32966.302 
  829300     301.7112   -1455.1383    574.57926    499.03428      343.706    32966.302 
  829400    308.32497   -1480.0852     583.8985     513.6485    55.693435    32966.302 
  829500    290.11988   -1496.9401    591.11259    420.76381   -873.40777    32966.302 
  829600    292.51797   -1490.3575    598.83324    446.03248   -288.48873    32966.302 
  829700    281.25773   -1512.4093    579.32928    352.98851   -813.81226    32966.302 
  829800    301.50857   -1500.4838    567.61188    445.79485   -655.48338    32966.302 
  829900    296.43783   -1463.8024    573.44525    465.12339   -527.21545    32966.302 
  830000    294.30869   -1474.1941    570.64406    442.19483     193.2932    32966.302 
  830100    308.89714   -1455.4127    613.26073    570.29958   -841.59215    32966.302 
  830200    308.78239   -1494.4307    584.50627    502.00236   -192.76909    32966.302 
  830300    300.55886   -1525.3726    539.93396    388.88561   -583.23139    32966.302 
  830400    295.09771   -1478.8339      587.544    458.06285   -105.52379    32966.302 
  830500    302.77524   -1473.4624     552.0637       463.06    207.00064    32966.302 
  830600    301.29904   -1516.7409    576.48356    437.45133   -168.12809    32966.302 
  830700     301.7343   -1507.2656    569.23314    441.66653   -400.51819    32966.302 
  830800    295.87299   -1471.8153    562.14014    443.22258    410.76171    32966.302 
  830900    294.58748   -1455.6771    598.60713    489.94975    -42.21313    32966.302 
  831000    303.68063   -1483.8685    623.70625     528.4364   -721.53268    32966.302 
  831100    304.97063   -1435.6883    564.92422    523.73322     514.1582    32966.302 
  831200    298.84099   -1440.2869    578.27705     504.4593   -99.021753    32966.302 
  831300    299.53121   -1489.2867    627.89353    508.23201   -215.45106    32966.302 
  831400     291.2767   -1479.7977    590.79958    442.88281   -358.13053    32966.302 
  831500    299.81382   -1465.5231    565.57388    470.96822   -5.8659209    32966.302 
  831600     304.5131   -1478.9691    634.17845    547.61453   -78.084612    32966.302 
  831700    300.94664   -1468.7977    566.55441    473.85403     558.3601    32966.302 
  831800    310.80111   -1478.1716     588.3618    531.34776      702.097    32966.302 
  831900    291.15051   -1489.6106      607.872     449.5653    410.79889    32966.302 
  832000    299.38159   -1478.7053    586.20394    476.43968     457.9888    32966.302 
  832100    299.89891   -1444.7932    586.28204    512.79539    590.79909    32966.302 
  832200    308.97992    -1454.949    565.81696    523.69795     341.2821    32966.302 
  832300    301.47145   -1436.5307    612.96772    554.93411    706.34091    32966.302 
  832400    303.49422   -1440.2566      594.381    541.87071    725.76053    32966.302 
  832500    295.52179   -1456.8184    551.36724    445.84071    639.88414    32966.302 
  832600    297.14703   -1472.1359    564.40711    450.99467   -59.826095    32966.302 
  832700    303.10231   -1463.0051    591.74612    514.69532    77.854549    32966.302 
  832800    301.40321   -1437.3168    577.22541    518.09367    546.57755    32966.302 
  832900    306.63902   -1445.1873     569.5033    526.44209     499.0424    32966.302 
  833000    300.28665   -1480.8121    572.28538    464.55276    108.37344    32966.302 
  833100    301.03624   -1422.2553    575.69707    529.94883    458.85152    32966.302 
  833200    309.84396   -1467.2056    585.72599    535.30127    382.14576    32966.302 
  833300    306.33512   -1496.0965    584.55305    489.19304    401.12439    32966.302 
  833400    291.56181    -1494.884    547.09827     385.3989    894.60132    32966.302 
  833500     308.3522   -1474.9454    574.52888    509.54323    1022.0728    32966.302 
  833600    304.77744   -1499.9126    589.76447    483.46583    728.85724    32966.302 
  833700    304.34969   -1478.8849    588.27604    501.04913    901.88207    32966.302 
  833800    297.39371    -1468.951    565.75001    456.65042    181.12512    32966.302 
  833900    308.88597   -1471.1863    572.03326     513.2474    163.86697    32966.302 
  834000    299.24767   -1467.0136    589.64137    490.95648    37.674604    32966.302 
  834100    304.52751   -1481.4067    573.59773    484.66212    530.87996    32966.302 
  834200    300.65471   -1498.5778    572.62497    448.80961    275.95662    32966.302 
  834300    304.20697   -1482.7453    565.24434    473.50446    120.71611    32966.302 
  834400    300.06618   -1452.8849    589.50041    508.68688   -58.290611    32966.302 
  834500    306.85219   -1439.6282    549.82365    513.29624   -231.14376    32966.302 
  834600     289.6211   -1474.1956     573.9876    424.10264   -897.55019    32966.302 
  834700      297.446   -1420.2444    590.58954    530.43562    -10.67689    32966.302 
  834800    299.07476   -1417.9047     556.2857    505.91909    337.66678    32966.302 
  834900    307.34117   -1450.1574    590.42713    545.60644   -21.043716    32966.302 
  835000    300.00305   -1451.7877    575.89722     495.8922   -441.02376    32966.302 
  835100    297.68482   -1449.3437    556.34675    468.18554   -583.28858    32966.302 
  835200    304.81194   -1456.4548    590.25918    527.57603   -978.45357    32966.302 
  835300    295.97398   -1462.8059    536.02004     426.5737   -304.79847    32966.302 
  835400    295.45329   -1450.1494    610.88584    511.71505   -90.219274    32966.302 
  835500    306.71912   -1494.2766    586.97303    495.18878    499.93656    32966.302 
  835600    296.38257   -1458.7189    571.98578    468.49475    485.47689    32966.302 
  835700    306.34332   -1464.9947    598.78643    534.56576    299.76877    32966.302 
  835800    297.27812   -1449.6822    573.02288    482.66353    446.15634    32966.302 
  835900    289.14313   -1463.5639     596.0148    454.57592    18.866051    32966.302 
  836000     296.4373   -1466.3808    572.06657    461.16388    367.53007    32966.302 
  836100    300.73436   -1453.9343    568.65527    489.84765    803.40866    32966.302 
  836200    306.52076   -1507.4816     594.7918    488.89558    774.48578    32966.302 
  836300    289.28572   -1499.8603     595.4042      418.321   -33.674906    32966.302 
  836400    309.08649   -1491.2518    563.71453    485.78009    156.03469    32966.302 
  836500    290.09338   -1464.6151    568.28605    430.14107   -180.81031    32966.302 
  836600    299.94462   -1517.2988    582.09435    436.31111   -596.98114    32966.302 
  836700    298.73606   -1452.0487    618.57713     532.5178   -74.051565    32966.302 
  836800    298.58164   -1474.0626    553.65141    444.87201    795.38157    32966.302 
  836900     293.0631   -1479.0721    593.25266    454.22999    862.44587    32966.302 
  837000    306.18288   -1426.9675    597.71487    570.78776    1379.9815    32966.302 
  837100    307.88366   -1436.6171    591.96403    563.16426     1489.919    32966.302 
  837200    300.82122   -1474.7561    609.07305     509.8408    1189.3364    32966.302 
  837300      298.133   -1406.4964    588.68846    545.42385    340.38302    32966.302 
  837400    295.29732    -1393.032    596.88612    554.11965    572.18847    32966.302 
  837500    298.83286   -1430.7831     592.3179    527.96674    350.79361    32966.302 
  837600    295.26061   -1439.9256    597.37336    507.54541   -175.57701    32966.302 
  837700    302.55944    -1458.364    586.97965    512.08765   -29.425284    32966.302 
  837800    331.09631    -1416.336    629.57895    727.20158    717.50707    32966.302 
  837900    297.05706   -1431.5007    583.02254    509.83379    504.64121    32966.302 
  838000    303.74442   -1443.1527    613.33611    559.07383    111.19256    32966.302 
  838100    298.91382   -1477.7342    562.18129    451.24926   -131.22877    32966.302 
  838200    302.83725   -1441.1553    563.05161    506.63856   -237.81206    32966.302 
  838300    290.76637   -1458.7665    564.34976     435.1307   -187.79968    32966.302 
  838400     314.3433   -1442.5327    565.18537    560.00705   -459.84396    32966.302 
  838500     301.6697   -1491.4638    586.82092    474.76077   -426.06483    32966.302 
  838600    304.64639     -1497.23    583.80862    479.59336    414.12187    32966.302 
  838700    300.37542   -1491.8849    569.90997    451.51051    80.155921    32966.302 
  838800    291.71387   -1428.6816    561.84225    467.04062   -489.11827    32966.302 
  838900    306.13268   -1487.1674    582.46383    495.10723   -679.31118    32966.302 
  839000    292.71453   -1486.3959    598.40919    450.46878    68.990924    32966.302 
  839100    305.99499   -1458.0769    563.70187    504.80622    209.26944    32966.302 
  839200    302.99299   -1500.8688    549.55693    434.14254   -657.13475    32966.302 
  839300    302.03087   -1448.9898    580.24924    512.31448    203.42835    32966.302 
  839400     302.7633   -1431.2564    563.03962    516.18738   -828.22731    32966.302 
  839500    296.87882   -1426.6581    582.64733    513.48627   -773.00463    32966.302 
  839600    298.94517   -1426.7894    575.86105    516.01715   -721.38565    32966.302 
  839700    299.28836   -1484.6101    581.39282    465.29745   -667.45678    32966.302 
  839800    295.74392   -1492.7794    585.05298    444.58121   -377.81933    32966.302 
  839900    303.84576   -1479.6776     581.4633    491.13941   -1059.8314    32966.302 
  840000     295.9522   -1474.4361    584.69881    463.52264   -349.83532    32966.302 
  840100    295.87952   -1498.2349    544.14817    398.84096    240.92063    32966.302 
  840200    303.30586   -1480.8286    564.64307    470.69958    38.913918    32966.302 
  840300    305.44973   -1498.8898    587.88193    485.68019    -588.7577    32966.302 
  840400    298.56717   -1512.5683    531.60843    384.25718   -511.58973    32966.302 
  840500    291.79111   -1464.3884    576.60592     446.4506   -157.15441    32966.302 
  840600    307.64944   -1491.2199     572.4761    488.00257    91.945075    32966.302 
  840700    300.46741   -1500.3788    549.88292    423.41023     304.3598    32966.302 
  840800    294.42787   -1479.5515    598.88122    465.61962    35.639967    32966.302 
  840900    293.28687   -1468.3405     606.8179       479.55    61.575582    32966.302 
  841000    307.94162   -1451.3559    560.18879    516.91523   -46.500115    32966.302 
  841100    294.80292   -1463.5753    597.76486    482.19441   -578.64001    32966.302 
  841200    300.40485   -1507.0748    568.11801    434.66321    304.04745    32966.302 
  841300    307.72126   -1512.3794     562.8425     457.5378    221.54038    32966.302 
  841400    303.03819   -1438.7254    583.97814    530.91386    516.25264    32966.302 
  841500    295.92917   -1507.9404    560.08799    405.30221    828.78542    32966.302 
  841600    311.92746   -1470.3756    602.42389    558.35617     532.6854    32966.302 
  841700    289.42727    -1456.982    561.58499    428.02729      310.492    32966.302 
  841800    303.47097   -1474.7188    604.42499    517.34619    869.82135    32966.302 
  841900    307.16388   -1458.9653    559.88327     505.4441    280.40489    32966.302 
  842000     302.3561   -1433.8934    590.30391    538.95269    48.420048    32966.302 
  842100    294.61252   -1442.2012    580.02271     484.9557    996.74991    32966.302 
  842200    300.62977   -1444.8305    584.15879    513.97669     517.4382    32966.302 
  842300    290.04705   -1447.2473    598.58352    477.59453    386.61301    32966.302 
  842400    306.32258   -1471.5428    585.83385    514.97022    318.40487    32966.302 
  842500     291.4795   -1478.4366     558.5065    412.87811    231.79278    32966.302 
  842600    285.18249   -1467.9111    575.22915    411.33286   -278.97807    32966.302 
  842700     306.9105   -1455.8799    566.38954    513.87713    486.66014    32966.302 
  842800    309.87481   -1462.8016    568.14297    522.26334    510.37711    32966.302 
  842900    291.77263   -1471.4594    581.72254     444.4118    269.77308    32966.302 
  843000    298.05042   -1475.0957    558.93802    446.69657    392.73151    32966.302 
  843100    298.32876   -1435.9375    568.82102    497.01047   -109.36478    32966.302 
  843200    300.82165   -1457.8921     560.4654    478.09912    96.866288    32966.302 
  843300    290.09333   -1478.6049    576.08498       423.95    184.88078    32966.302 
  843400    304.59873    -1458.406    566.34884    500.73961   -241.37102    32966.302 
  843500    295.11724   -1414.6069    578.34754    513.18267     215.5079    32966.302 
  843600    293.66361   -1446.8534    578.55389    474.49578    627.20316    32966.302 
  843700     306.7458   -1411.1238    569.37237    560.86294    1008.6928    32966.302 
  843800    308.38417   -1440.5453    563.64114    533.20177     321.7083    32966.302 
  843900    298.93744   -1428.5817     566.9712    505.29965   -394.21072    32966.302 
  844000    299.16103   -1451.6713    584.96644    501.22768    101.23371    32966.302 
  844100    302.95591    -1453.373    566.15103    498.06287    411.02487    32966.302 
  844200      308.323   -1457.7005     573.2217    525.34747    904.96866    32966.302 
  844300    300.06393    -1460.791    567.91133    479.18144    680.61448    32966.302 
  844400    303.15669   -1462.8108    557.12706    480.51916    361.34269    32966.302 
  844500    294.05342   -1477.7688    569.53593    436.34476    621.17931    32966.302 
  844600    292.65694   -1487.8182    560.63258    411.00659   -271.76291    32966.302 
  844700    300.75965    -1447.855    610.92214    538.30944   -363.54184    32966.302 
  844800    296.44636   -1448.9881    547.43435    453.96582    86.453146    32966.302 
  844900     301.9787   -1458.1536    586.25444    508.91733   -507.34866    32966.302 
  845000    293.69554   -1451.1302    547.86522     439.6763   -738.40847    32966.302 
  845100    300.20625   -1452.9266    592.11528    511.90061    147.29761    32966.302 
  845200    294.69958   -1428.6794     569.4176    488.27047   -280.32437    32966.302 
  845300    301.46684   -1448.4417    548.28401    478.31833    368.00804    32966.302 
  845400    304.18032   -1395.5962     581.5603    576.84769    462.51407    32966.302 
  845500    302.95686   -1394.7516    599.03447    589.57203    220.63554    32966.302 
  845600    290.99644   -1430.5668     589.8715    489.90414   -57.087907    32966.302 
  845700    305.38062   -1368.1734    581.69345     609.8921    624.87174    32966.302 
  845800    298.90317   -1363.9148    561.36473    564.20338   -275.70586    32966.302 
  845900    302.21811   -1404.0656    564.67022     542.5159    30.938685    32966.302 
  846000    299.35573   -1414.9722    584.00419    537.85484    347.76172    32966.302 
  846100    304.49107   -1408.0722    568.02381    552.25616    337.90869    32966.302 
  846200    301.38663   -1369.4989    603.07495    611.68526   -234.31169    32966.302 
  846300    305.97711   -1396.2213    586.65112    589.52929    115.57399    32966.302 
  846400    298.50193   -1419.2606    575.61406    521.27224    99.224935    32966.302 
  846500    301.55851   -1412.9487     563.8143    529.76077    51.655829    32966.302 
  846600    294.17624   -1419.9105    560.49206    485.72083    204.51817    32966.302 
  846700    303.22473    -1444.126    574.21874     516.6068   -478.54128    32966.302 
  846800    306.08898   -1470.6196     556.7477    485.73913    580.68237    32966.302 
  846900    292.46375   -1427.9295    569.84084    479.22016     501.3432    32966.302 
  847000    293.90728   -1458.1016    560.65115    446.45901    6.8923535    32966.302 
  847100    290.17675   -1425.1682    560.93722    462.62033    632.19919    32966.302 
  847200     309.2653   -1444.0594    564.56889    534.64449    33.125195    32966.302 
  847300     312.4875   -1460.4698    564.08018    532.47904    -139.9165    32966.302 
  847400    303.46815   -1417.9063    589.34741    559.06824    321.18519    32966.302 
  847500     303.5384   -1414.0554     578.8549    552.74781   -92.471553    32966.302 
  847600    299.92042   -1437.7717    561.98428    495.61745   -490.45041    32966.302 
  847700    309.72982   -1454.7266    601.05054    562.58296   -494.51168    32966.302 
  847800    289.87856   -1417.0636    562.39858    470.82283     49.39098    32966.302 
  847900    296.58921   -1452.8689    568.99848    472.30235    20.101124    32966.302 
  848000    301.75107   -1476.9253    559.40213    462.25254   -112.88199    32966.302 
  848100    298.47828   -1452.6425    554.97183    467.13992    77.352708    32966.302 
  848200    306.51953   -1429.5015    563.16628     535.2445    400.97518    32966.302 
  848300    307.72371    -1442.585    579.87298    544.37388   -289.54779    32966.302 
  848400    296.90085   -1425.4037    540.95481    473.14877    59.306369    32966.302 
  848500    294.14689   -1458.6764    570.01911    456.34772   -136.96044    32966.302 
  848600    309.13083   -1461.6069    568.33054     520.2437   -580.62388    32966.302 
  848700    296.17808   -1427.3642    568.65914    495.58773   -272.44314    32966.302 
  848800    295.26782   -1453.6012     548.5723    445.10169    152.11776    32966.302 
  848900     302.9991   -1469.9722     558.5772    474.08735   -162.73202    32966.302 
  849000    293.18823    -1446.225    563.56763    457.96414   -130.76633    32966.302 
  849100    291.24575   -1438.2387    589.81541    483.31619   -184.73871    32966.302 
  849200    300.72928   -1467.8355    595.77463    503.04259     260.3365    32966.302 
  849300     299.2813   -1473.9274    555.50548    450.06056    522.24691    32966.302 
  849400     293.1919   -1429.2676    551.62596    462.99672    452.90965    32966.302 
  849500    299.40818   -1437.1561    593.16999    525.07654   -281.28804    32966.302 
  849600    291.00491   -1484.1584    554.98826    401.46804   -258.16972    32966.302 
  849700    299.52363   -1488.7005    552.36295    433.25303    351.12667    32966.302 
  849800    297.43628   -1514.5537    571.85412    417.34646    504.95538    32966.302 
  849900    298.02366   -1466.7488    563.52089    459.50396     1007.769    32966.302 
  850000    306.72928   -1504.1157    555.83785    454.26095    779.43373    32966.302 
  850100    301.39948   -1473.3993    550.75371     455.5224     162.1746    32966.302 
  850200    302.87728   -1495.1061    589.86447    479.68367    380.37616    32966.302 
  850300    297.82496    -1476.447    551.53802    436.91434    356.94567    32966.302 
  850400    301.78766   -1462.5002    543.32323    460.76605   -146.63209    32966.302 
  850500    305.79318   -1427.5715    596.10866     566.7956    192.39884    32966.302 
  850600     299.6138   -1465.4878    590.22839    494.74345    692.10137    32966.302 
  850700    301.88887   -1479.7667    561.79589    462.43499     385.5253    32966.302 
  850800    297.12104   -1455.2493    583.08519    486.44047    335.23316    32966.302 
  850900    292.77228   -1457.2536    585.40302    466.86896    482.52394    32966.302 
  851000    301.51537   -1446.2335    585.17579    517.64015    273.67212    32966.302 
  851100    301.38973   -1519.3734    541.36521    400.11522   -112.80427    32966.302 
  851200    293.71021    -1476.582    554.03852    420.46481     72.56208    32966.302 
  851300    299.99744   -1482.3884    585.80839    475.17707   -170.93782    32966.302 
  851400    305.93899   -1509.2677    571.57258    461.23012    570.32348    32966.302 
  851500    299.42536   -1530.5428    553.77198    392.37038    678.92929    32966.302 
  851600    289.64193   -1480.1083    563.84974    408.14727    353.34802    32966.302 
  851700    300.70076   -1514.2497     561.5591    422.28246     563.7482    32966.302 
  851800    295.29812     -1490.47    582.09014    441.88927    1191.1622    32966.302 
  851900    295.02755   -1515.0869    572.79302    406.73807    996.81192    32966.302 
  852000    307.92366   -1489.8969    582.93292    501.03623      856.607    32966.302 
  852100    290.08265   -1480.2553    558.47793    404.64377    664.19292    32966.302 
  852200    290.83118   -1507.7678    571.75732    393.83334    267.58896    32966.302 
  852300    299.48328   -1477.8354     573.5396    465.11027   -183.84068    32966.302 
  852400    300.20731   -1453.4054    546.96243    466.27379    273.96546    32966.302 
  852500    290.69897   -1452.0125    566.25597    443.48273    100.01636    32966.302 
  852600    296.46662   -1450.3593    559.13719     464.3901    651.40796    32966.302 
  852700     310.0545   -1443.7768    572.82538    546.79216    219.73771    32966.302 
  852800    311.35415   -1444.0572    578.84176    558.47092    56.556874    32966.302 
  852900    303.79666   -1448.6901    561.12842    501.56759   -217.74144    32966.302 
  853000    305.94147   -1484.6801    547.46495    461.72136    -1197.982    32966.302 
  853100    304.79974    -1450.652     551.9662    495.03017    -958.5873    32966.302 
  853200    300.59718   -1420.5293    566.12131    520.09144   -717.06531    32966.302 
  853300    295.25553   -1424.5074    570.28147    495.84848   -609.12074    32966.302 
  853400    302.77323   -1418.3015    554.10406    520.25209   -501.40723    32966.302 
  853500    303.58394   -1463.8045    576.60112    500.95323    -662.7566    32966.302 
  853600    305.18166   -1453.8178    564.39867    506.04312   -418.51195    32966.302 
  853700    300.37574   -1455.2769    557.08366    475.29361    582.38204    32966.302 
  853800    299.50142   -1447.5052    534.28548    456.26929   -28.989051    32966.302 
  853900    301.29837   -1440.5798    560.29669    497.42261   -341.97616    32966.302 
  854000    307.00926    -1449.916    556.23817    510.14123   -30.186197    32966.302 
  854100    289.25694   -1436.3416    559.46953    445.77333    -96.68473    32966.302 
  854200    309.50622   -1449.0318    586.51586    552.72056   -252.55204    32966.302 
  854300    296.78523   -1455.3315     581.6066    483.34416    121.75291    32966.302 
  854400    291.06629   -1480.8343    552.31788    402.40241   -587.73978    32966.302 
  854500    296.77388   -1462.5729    595.55561    489.99991    102.71472    32966.302 
  854600    300.21078   -1412.1254    581.07449     541.6817    -651.0792    32966.302 
  854700    299.87869   -1442.7727    557.62886    486.07024   -2.1189261    32966.302 
  854800    290.59259   -1380.3002    551.11705    499.56967    289.36534    32966.302 
  854900    300.27183   -1427.7111    565.94213    511.24272    164.68529    32966.302 
  855000    297.61407   -1405.2579    577.70996    533.31102    340.84417    32966.302 
  855100    304.12533   -1401.1956    589.09318    578.52968    606.94508    32966.302 
  855200    299.55652   -1427.7557    536.59835    478.58359    170.86041    32966.302 
  855300    294.52951   -1417.2653    545.89797    475.38725    331.72403    32966.302 
  855400    306.69839   -1484.3019    565.97679    484.07247    150.39899    32966.302 
  855500    301.66858   -1385.7982    572.65492    566.25516     247.5943    32966.302 
  855600    289.73537   -1442.3704    569.14003    451.60277   -518.07648    32966.302 
  855700    297.28351   -1397.2746     558.6121    520.68497   -150.21859    32966.302 
  855800    307.70969    -1424.179    560.32804    543.17081   -170.69799    32966.302 
  855900     302.7676   -1443.1706    552.54693    493.80008   -18.305571    32966.302 
  856000    291.10548   -1421.1001    571.90631    481.90429    277.48697    32966.302 
  856100    289.28236     -1451.06    580.92496    452.62664   -312.30277    32966.302 
  856200    310.62102   -1429.3884    564.47544    555.42112    704.92841    32966.302 
  856300    302.09242    -1438.076     537.4519     480.7124    129.62561    32966.302 
  856400    295.48288   -1426.8537    554.03088    478.29117   -667.97735    32966.302 
  856500    303.95288   -1436.5295    560.25022    513.56424   -151.81667    32966.302 
  856600    300.80552   -1415.3954    554.56279    514.61942   -136.19107    32966.302 
  856700     302.0577   -1451.3214    547.06584    476.92224   -244.43078    32966.302 
  856800    298.16068   -1422.4369    541.22311    482.14459   -10.575688    32966.302 
  856900    314.89996   -1403.0282    571.82367    608.69525    723.53628    32966.302 
  857000    300.62158   -1398.0184    550.35614    526.94878   -223.36989    32966.302 
  857100    300.35329   -1424.6334    578.49133    527.24219   -652.00552    32966.302 
  857200    298.42064    -1390.392    566.00631    540.16136   -336.76285    32966.302 
  857300    300.70802   -1417.7725    569.08816    526.32188    130.55977    32966.302 
  857400    299.83582    -1427.524     570.6571    514.15116    438.13968    32966.302 
  857500    289.03639   -1414.9312    543.19533    449.90115    356.76901    32966.302 
  857600    305.85487   -1414.6156    577.35746     561.2824   -136.16054    32966.302 
  857700    297.94158    -1463.492    558.89223    457.75676   -224.55952    32966.302 
  857800    307.01933    -1416.061    551.98253    539.78662    222.51894    32966.302 
  857900    302.24949   -1403.3734    576.98622    555.66756    758.64237    32966.302 
  858000    309.07322   -1445.9454    580.93151    548.24272    307.68204    32966.302 
  858100    298.34391   -1432.8752    582.08653    513.40755    1539.2433    32966.302 
  858200     297.8898   -1415.1063    563.95747    510.97091    1243.1992    32966.302 
  858300    301.45918   -1437.5393    572.60369    513.50532    822.14495    32966.302 
  858400    299.63585   -1476.8272    579.12805     472.4045    184.37484    32966.302 
  858500     304.5799   -1461.4298    557.74295     489.0238    305.52935    32966.302 
  858600     293.0013   -1440.0421    527.74163    427.46632   -261.21452    32966.302 
  858700    301.53322   -1447.6743    566.79199    497.89725   -378.88224    32966.302 
  858800    298.81088   -1455.7902    547.33777    457.87904    261.65389    32966.302 
  858900     297.8829   -1420.4906    581.85073    523.44835   -141.36002    32966.302 
  859000    304.51264   -1407.2189    590.94551    576.12975    93.037922    32966.302 
  859100    307.05509   -1379.4207    568.75018    593.35814    433.61891    32966.302 
  859200    308.32513    -1379.286    569.96195    600.51195    60.351939    32966.302 
  859300    298.84609    -1445.193    580.43068    501.73014    497.39132    32966.302 
  859400    299.46524   -1456.8699    558.47009    470.92371    59.787312    32966.302 
  859500    301.76705   -1471.1476    532.20572    440.90684    -184.8073    32966.302 
  859600    291.94932   -1454.2439    541.03511    421.74774   -454.34324    32966.302 
  859700    294.98358   -1431.3216    555.70668    473.21597   -1008.2524    32966.302 
  859800     283.5257   -1429.4123    582.54086    449.56762   -744.94527    32966.302 
  859900    300.21459   -1474.5298    571.70663    469.92685   -657.36205    32966.302 
  860000    300.26434   -1448.1473    546.62932     471.4595    27.543907    32966.302 
  860100    311.56543    -1451.877    577.42765    550.20311   -503.96419    32966.302 
  860200    291.91991   -1445.0798     594.1233    483.86562   -431.38899    32966.302 
  860300    302.49197   -1487.4668    558.67622    454.37293   -158.27447    32966.302 
  860400    292.24981   -1465.6944    568.26107    438.89722    328.43413    32966.302 
  860500    300.81556    -1417.471    579.59365    537.62062    716.40937    32966.302 
  860600    295.36581    -1418.833    574.89956    506.64523    261.85044    32966.302 
  860700    300.26132    -1390.444    568.10953    550.62923    551.03212    32966.302 
  860800    305.36816   -1446.4205    593.94476    543.83931    426.54178    32966.302 
  860900    309.20853   -1443.9637    544.90793    514.81963     198.0614    32966.302 
  861000    302.13064   -1417.0542    550.97714    515.43419   -142.41562    32966.302 
  861100    301.34624   -1417.8366    593.01883    553.10674    -526.4928    32966.302 
  861200    306.07563   -1450.9539     557.5921    506.18823     152.9014    32966.302 
  861300    293.29735   -1450.6811    590.63117    481.07061   -206.85571    32966.302 
  861400    293.66679   -1433.7154    579.46572    488.56008    339.79525    32966.302 
  861500    296.68925   -1423.0314    586.79577    520.39457   -161.53901    32966.302 
  861600     293.7253   -1406.9225    583.83249    519.98735    224.45468    32966.302 
  861700    308.35012   -1413.1926    589.55531     586.3129    897.61845    32966.302 
  861800    303.01481   -1384.8487    592.69161    593.39713    200.10966    32966.302 
  861900    306.07339    -1369.059    603.99854     634.4793    -154.9292    32966.302 
  862000    303.63039   -1376.9763    585.11296    596.50564   -462.41355    32966.302 
  862100    295.19155   -1411.9382    570.18474    508.02843    -827.2273    32966.302 
  862200    298.53875   -1385.9349    570.04128    549.19346   -671.27355    32966.302 
  862300    305.13956   -1385.0774    584.70288    594.89526   -373.69719    32966.302 
  862400    291.43601   -1404.2381    588.05785    516.42909   -265.53251    32966.302 
  862500    291.09225   -1413.1958    596.66635    514.50809   -852.34751    32966.302 
  862600    292.21907    -1385.039    580.01713    531.16813    159.40653    32966.302 
  862700    296.93055   -1423.1807     560.1706    494.72346    132.48047    32966.302 
  862800    302.81799   -1492.4865    584.45458    476.62232    394.98155    32966.302 
  862900    300.45566   -1473.6327    548.68211     448.9017    173.57705    32966.302 
  863000    300.09268   -1424.4427    571.94872    519.69864    263.45407    32966.302 
  863100    295.35814   -1441.8502    560.69464    469.38807    35.840295    32966.302 
  863200    297.88643   -1451.4487    577.61302    488.26871    -477.3927    32966.302 
  863300    302.07721   -1404.8184    585.47235    561.92092   -570.47862    32966.302 
  863400    293.49535   -1406.7806     531.3687    466.61396    140.08212    32966.302 
  863500    290.15224   -1482.4425    584.56609    428.86286    151.39258    32966.302 
  863600    295.63215   -1458.1181    571.33986    465.01825   -468.42807    32966.302 
  863700    302.40801   -1451.7431    558.59846    489.63495   -300.40922    32966.302 
  863800     301.1598   -1459.9076    582.84227    500.00665   -81.527644    32966.302 
  863900    286.64085   -1488.6401    579.82201    401.86516   -55.291226    32966.302 
  864000    302.63027   -1460.8197    572.26234     495.2385    148.81941    32966.302 
  864100    296.07327   -1465.0887    570.14121    458.86608    288.91497    32966.302 
  864200    289.26888   -1480.5477    587.75675    429.90915    719.72977    32966.302 
  864300    290.45405   -1433.7222    573.80693     468.2041    431.11951    32966.302 
  864400    302.13301   -1412.5311    583.00404    551.99502    785.75436    32966.302 
  864500    291.70846   -1425.7846    562.34209    470.41264   -306.65062    32966.302 
  864600    307.15205    -1423.678    563.10083    543.89482   -651.80087    32966.302 
  864700    319.12569   -1421.5051    575.19651    612.91368   -226.76466    32966.302 
  864800    306.55541   -1431.7582     574.2219    544.20752   -618.10619    32966.302 
  864900     299.7002   -1426.7975    562.61872    506.21919    225.22102    32966.302 
  865000    291.38796   -1450.3146     544.0662    426.14128    325.16679    32966.302 
  865100     297.7982   -1383.8448     598.3906    576.24665    484.80894    32966.302 
  865200    304.09423   -1358.6951    601.77426    633.56906    531.47167    32966.302 
  865300    300.39524   -1402.1544    567.30612    538.72773    669.18793    32966.302 
  865400    303.32249     -1440.97    606.39371    552.38474    519.02134    32966.302 
  865500    303.74735   -1434.9688    576.38016     530.3151    290.56308    32966.302 
  865600    294.17187    -1454.347    587.08487    477.85713   -130.70048    32966.302 
  865700    290.74981   -1418.3036    563.30273     474.4708   -385.07943    32966.302 
  865800    296.32903   -1391.0265     594.9038     558.8603   -385.51323    32966.302 
  865900    307.34987   -1384.8968    582.20618    602.68587   -123.69756    32966.302 
  866000    295.30438   -1426.4646    561.22715    485.06033   -540.34411    32966.302 
  866100     301.6178   -1462.7094    582.82647    499.28337   -172.22805    32966.302 
  866200    294.88039   -1459.3243    543.43365    432.46837   -187.28698    32966.302 
  866300    307.74878   -1435.9292    598.93444    570.20583   -30.071848    32966.302 
  866400    304.74927   -1408.0053    597.76715    583.24696     800.4619    32966.302 
  866500    300.67878   -1476.4909    590.06319    488.44485    538.39819    32966.302 
  866600    305.19294   -1410.4026    581.46108    566.57235    1187.5579    32966.302 
  866700     296.5155   -1389.9779    609.90101    575.75882    389.15336    32966.302 
  866800    300.53636   -1449.5627    563.94692    488.60552    458.66198    32966.302 
  866900    309.81092     -1474.47    589.60932     531.7692   -99.847515    32966.302 
  867000    308.24748    -1468.897    572.44763     513.0315    358.67328    32966.302 
  867100    309.58919   -1453.0905    555.83232    518.35778    55.228443    32966.302 
  867200    298.73154   -1459.8779    546.34423    452.43498    41.361394    32966.302 
  867300    293.78172   -1479.8705    582.88093    446.34577   -820.05475    32966.302 
  867400    298.59905   -1450.8193    557.04001    471.58354   -186.38972    32966.302 
  867500    293.09388     -1451.58    571.11477    459.72489   -703.50164    32966.302 
  867600    311.06971   -1417.1259    559.83738    565.09721   -709.39097    32966.302 
  867700    297.95756   -1443.1889    581.45855    500.69926   -493.66503    32966.302 
  867800    298.46752   -1454.0299    573.62154    484.35307   -124.30775    32966.302 
  867900    299.83085   -1485.9948    536.85607     421.8566    550.03156    32966.302 
  868000    285.28567   -1463.7666    559.20781    399.92785    207.33039    32966.302 
  868100    308.02692   -1456.0701    569.95551    522.35777    309.22549    32966.302 
  868200    305.92726   -1472.1354    575.20248    501.93857   -176.02111    32966.302 
  868300    295.63365   -1450.2341    552.00482    453.57412    38.194116    32966.302 
  868400    310.03342   -1406.6408     556.9952    568.00162    193.19256    32966.302 
  868500    299.57827   -1408.7613    564.31337    525.39249    227.27071    32966.302 
  868600    296.38937   -1450.9125     567.4913    471.83781   -683.47227    32966.302 
  868700    302.08653   -1462.1211    561.43193    480.62039   -870.07886    32966.302 
  868800    298.40709   -1452.0996     586.1006     498.4861   -541.43779    32966.302 
  868900    309.74849   -1459.2888    559.51898    516.57451    448.93433    32966.302 
  869000    295.34584   -1451.3342    556.06876    455.22189    807.55337    32966.302 
  869100    307.78833   -1493.2165    552.80353    466.96843     494.2032    32966.302 
  869200    297.90762   -1494.8272    569.85082    437.22484     42.07743    32966.302 
  869300    304.08482   -1456.7621    558.35174    492.03653    257.35846    32966.302 
  869400     303.4989   -1450.0193    555.47868    493.22712    202.02527    32966.302 
  869500    298.02154   -1443.8234    558.52229    477.42103   -46.752983    32966.302 
  869600    302.25573    -1450.341    545.55325    477.29556    493.03631    32966.302 
  869700    295.30289   -1423.6822    581.38871     507.9975    198.66849    32966.302 
  869800    298.55786   -1437.9508     595.9352    523.15886    532.56004    32966.302 
  869900    304.72622   -1479.8046    577.25488    490.83003    683.79958    32966.302 
  870000    302.35594   -1449.3928     566.5624    499.71104    513.45826    32966.302 
  870100    304.06997   -1450.7799    578.42003     518.0191    386.25639    32966.302 
  870200    298.63116   -1460.5216    556.91364    461.90168   -779.14696    32966.302 
  870300    305.12527   -1488.4437    529.66342    436.42412   -307.30967    32966.302 
  870400    289.41024   -1481.2744    575.46957    417.54158   -288.64641    32966.302 
  870500    297.92982   -1462.6884    593.57498     493.1893    159.76293    32966.302 
  870600    311.79957   -1429.6463     569.3848    565.46162    105.58952    32966.302 
  870700    296.05178   -1490.7324    557.19694    420.17986   -104.86714    32966.302 
  870800    305.43567   -1409.3652    594.21891    581.47747   -373.32554    32966.302 
  870900    315.06027   -1439.0007    552.29025    553.92235   -390.31365    32966.302 
  871000    300.22283   -1454.2594    589.64057    508.16892   -177.69987    32966.302 
  871100    298.79542   -1429.4884    567.43793    504.21026   -213.29609    32966.302 
  871200    304.48297   -1431.3795    575.00788    535.89586    249.75206    32966.302 
  871300    298.81155   -1466.0093    567.48397    467.80918   -33.696311    32966.302 
  871400    289.45938    -1473.155    599.46688    449.88298    404.26563    32966.302 
  871500     306.1762   -1490.3998    539.49676    449.10683    236.28898    32966.302 
  871600     298.4508   -1497.4695    567.22094    434.43644    441.11301    32966.302 
  871700    297.06727   -1451.7969    550.28619    456.84801    335.91993    32966.302 
  871800    300.79975   -1499.3299    551.98307    428.07882     142.6616    32966.302 
  871900    290.11301   -1486.3912    577.77958    417.94833    107.70333    32966.302 
  872000    300.39393   -1505.1504    567.27813    435.69784    37.906837    32966.302 
  872100    295.49924   -1476.2244    564.36068    439.32504   -331.58259    32966.302 
  872200    297.49147   -1471.9138    574.38763    462.77226   -699.17877    32966.302 
  872300    298.75159   -1503.4237    552.69787    415.33452   -669.02318    32966.302 
  872400    298.02338   -1494.8447    562.62453    430.51039   -585.39751    32966.302 
  872500    304.29829   -1464.8583    591.42681    517.99147    69.531824    32966.302 
  872600    300.54262   -1454.3758    570.65144    490.52556    420.46519    32966.302 
  872700    290.04926   -1475.6349    576.13543    426.76892   -180.55834    32966.302 
  872800    307.33171   -1492.3317    540.15453    453.11627   -51.406815    32966.302 
  872900    294.79333   -1458.0679    574.05036    463.94348   -814.94365    32966.302 
  873000    303.49593   -1474.2154    540.06439    453.60319   -222.76857    32966.302 
  873100    294.54323   -1475.9136    560.07273    430.97649   -607.46622    32966.302 
  873200     293.1032   -1472.5264    588.60955    456.31585   -842.72597    32966.302 
  873300    296.39512   -1470.4228    539.61003    424.47252   -482.15161    32966.302 
  873400    296.47791   -1444.6417    589.79018    500.81232   -115.48573    32966.302 
  873500    301.24971   -1452.4185    576.33988    501.40453   -76.203857    32966.302 
  873600    299.86274   -1459.2228    572.91877    484.83712    -817.6232    32966.302 
  873700    303.58031   -1450.4651    567.04955    504.72444   -199.73132    32966.302 
  873800    303.15735   -1453.3189     547.1439    480.03098   -717.62836    32966.302 
  873900    299.47283   -1427.3369    562.95811    504.97947   -982.01864    32966.302 
  874000    289.44792    -1441.122    594.52428    476.92103   -280.92397    32966.302 
  874100    286.39197   -1464.9423    583.38393    427.98684   -827.56678    32966.302 
  874200    297.11032    -1471.779    559.76624    446.54273   -487.68862    32966.302 
  874300     290.0578   -1441.7575    591.17723    475.72712   -230.12702    32966.302 
  874400     301.1106    -1434.546    553.70692    496.00798    283.70943    32966.302 
  874500    307.27626   -1448.0748    571.79911    528.76431   -213.21179    32966.302 
  874600    306.39026   -1434.4498    582.66952    549.20834      388.748    32966.302 
  874700    301.56174   -1482.7797    579.52919    475.65947    253.78615    32966.302 
  874800    295.96753   -1435.9048    570.62394    488.04918    528.98962    32966.302 
  874900     303.0558   -1477.4133    569.57012    477.89844    -393.6313    32966.302 
  875000    287.77294      -1462.8    599.26076    452.32052    152.89486    32966.302 
  875100    300.31897   -1486.3097     555.7541     442.6717    43.015321    32966.302 
  875200    291.65704   -1489.7121    559.37343    403.28137    252.67327    32966.302 
  875300    294.65975   -1454.3786    560.58521    453.55682    353.94127    32966.302 
  875400    302.43342   -1468.8002    597.66116    511.75676    571.96142    32966.302 
  875500    303.28255   -1464.4882     567.1955    489.48575    195.20657    32966.302 
  875600    303.66718   -1491.1046    620.90656     518.3391    1016.0464    32966.302 
  875700    295.45148   -1469.6194    563.34051    444.69148    288.78361    32966.302 
  875800    300.52864   -1508.1999    535.01681    401.00296     608.3987    32966.302 
  875900    301.95411   -1470.8946    594.99451    504.80397     404.9336    32966.302 
  876000    297.36145   -1469.1268    579.99785    470.57493   -111.37943    32966.302 
  876100    299.08734   -1454.9169    591.14481    503.82356    441.81849    32966.302 
  876200    299.30194   -1470.1637    554.25833    452.67149    269.97627    32966.302 
  876300    298.22461   -1497.4205    577.94089    444.17111    360.65503    32966.302 
  876400    301.22913   -1481.1033     576.8946    473.18032    746.42993    32966.302 
  876500     293.1908    -1465.965    574.16827    448.83656    189.86816    32966.302 
  876600     299.0845   -1461.1043    583.88473    490.36302    553.61837    32966.302 
  876700     301.0191   -1453.9284    551.56281    474.06314    800.19443    32966.302 
  876800    300.00395   -1507.8968    588.30484    452.19483    514.66816    32966.302 
  876900    299.19549   -1463.2229    571.98079    476.84796    232.16194    32966.302 
  877000    298.28073   -1431.7767    550.21561    482.34625    26.933613    32966.302 
  877100    298.32262   -1434.4903    573.31712     502.9257   -442.34116    32966.302 
  877200    304.09604   -1464.7883    569.18708    494.89698   -927.72478    32966.302 
  877300    299.39057    -1494.906     576.4876    450.56368   -805.62312    32966.302 
  877400     306.9647   -1490.5733    544.12789    457.16992   -259.76792    32966.302 
  877500    295.45067   -1477.5222    556.80125    430.24574   -525.11711    32966.302 
  877600     299.6989    -1498.785    574.04163    445.64863   -266.29498    32966.302 
  877700    290.46724    -1484.276    561.25345    405.15713   -336.69506    32966.302 
  877800    285.14247     -1512.39    554.64573    346.08756   -255.67379    32966.302 
  877900    301.58865   -1490.1921     577.3453    466.18614   -200.70287    32966.302 
  878000    303.32791   -1513.1819     542.5894    416.39337    -824.3785    32966.302 
  878100    301.96464   -1458.4516    549.12397    471.42456   -4.9584408    32966.302 
  878200    287.80533   -1499.0067    535.16567    352.16683   -172.69551    32966.302 
  878300    299.39664   -1505.2106    585.50773    449.30707    544.91565    32966.302 
  878400    305.63235   -1448.4689    586.58271    535.63689    1070.3944    32966.302 
  878500    292.72671   -1489.9704    574.79829    423.33906    857.24158    32966.302 
  878600    301.88609   -1478.0281    592.88889    495.25384    887.50544    32966.302 
  878700    291.05481   -1450.7894    576.52817    456.60509    1247.2496    32966.302 
  878800    309.78941   -1467.5841     557.5929    506.54032    206.25826    32966.302 
  878900    303.93655   -1473.8458     583.7309    499.65399   -202.43056    32966.302 
  879000    304.68021   -1488.8689     541.4895    445.78995   -757.85607    32966.302 
  879100    297.40729   -1444.1693    602.17364    517.91782   -329.95482    32966.302 
  879200    291.91173   -1428.8054    551.36422    457.34348   -711.39306    32966.302 
  879300    302.39436   -1432.2842    557.54228    507.97521    57.617225    32966.302 
  879400    294.89897   -1450.0966    568.57239    466.91978   -18.767329    32966.302 
  879500    301.19167   -1431.0793    565.29551    511.43401   -75.066356    32966.302 
  879600    296.87528   -1471.8226    550.52869    436.18685   -373.48755    32966.302 
  879700    299.11041   -1481.2223    585.41531    471.89411   -68.614636    32966.302 
  879800    300.80654    -1469.868    566.00737    471.59615    23.936548    32966.302 
  879900    293.62689   -1451.0556    536.78633    428.35809    384.31411    32966.302 
  880000    304.56555   -1455.2709    591.24625    528.62037    89.695708    32966.302 
  880100    309.35226   -1455.4717    552.34645    511.40733   -493.85554    32966.302 
  880200    296.48563   -1453.9148    526.21527    427.99954    450.66582    32966.302 
  880300    299.37023   -1409.8929     579.2822    538.27845     631.0509    32966.302 
  880400     303.9451   -1462.2202    590.18051    517.76831    518.49581    32966.302 
  880500    295.48457    -1474.456    590.62665    467.29231    386.99102    32966.302 
  880600    317.62601   -1414.7141    536.45067    574.10137    534.58655    32966.302 
  880700    306.29422   -1450.4892    568.37287    518.43319    104.09095    32966.302 
  880800    295.41887   -1428.9137    593.32325    515.23087    152.61205    32966.302 
  880900    291.75109   -1483.4629    545.04581    395.63308    522.16392    32966.302 
  881000    298.72475   -1467.4447    543.35761    441.85057    151.59438    32966.302 
  881100    292.75761   -1437.2705    586.98017    488.36212    87.261583    32966.302 
  881200    305.15827   -1426.7651    553.01418    521.60444    402.32474    32966.302 
  881300    295.96819   -1423.8965    548.43449    477.87105    527.93364    32966.302 
  881400     290.9734   -1456.9658    558.80923    432.33747    270.32707    32966.302 
  881500    291.87721   -1450.8939    565.54655    449.27942   -185.88915    32966.302 
  881600    302.82902   -1447.4929    579.85702    517.06875     380.3495    32966.302 
  881700     302.0489   -1443.4449    575.04506    512.73764    161.37661    32966.302 
  881800    296.48694   -1451.8587    562.28717    466.13356    22.197727    32966.302 
  881900    302.57974   -1452.8237    556.59679    487.33789   -1287.4334    32966.302 
  882000    302.17944   -1420.7112     561.9459    522.96909   -1125.5065    32966.302 
  882100     295.7753   -1437.1515    555.75634    471.05591   -856.99757    32966.302 
  882200    292.90221   -1460.6163     545.5273    424.22472   -1343.9771    32966.302 
  882300      302.104    -1466.502    565.14642    480.03385   -1049.6802    32966.302 
  882400    299.34952   -1505.5619    535.52764     398.7602   -541.65062    32966.302 
  882500    304.29965   -1449.1506    579.61457    521.89316   -76.346548    32966.302 
  882600    303.27214   -1467.0266    583.34193    503.04615   -40.348079    32966.302 
  882700    293.26145   -1479.6409    525.96889    387.28431    1.2234548    32966.302 
  882800    300.89704   -1482.1754    545.27913    438.97434   -340.72004    32966.302 
  882900    294.05816   -1487.5101    557.32015    414.40936   -318.27494    32966.302 
  883000    299.10195   -1445.3521    565.37182    487.68211    196.09809    32966.302 
  883100    297.64308   -1457.7571    553.61523    456.84975    1038.4672    32966.302 
  883200    302.04616   -1474.6694     565.5921    472.04771    436.36829    32966.302 
  883300    291.07373   -1491.1225    572.31637     412.1467   -226.69657    32966.302 
  883400    295.59115   -1460.0905    573.17127    464.68982   -117.09176    32966.302 
  883500    304.95452   -1484.7646    530.85108    440.51011    124.46133    32966.302 
  883600    298.66147   -1446.6439    582.89202    501.89636    389.80954    32966.302 
  883700     292.3904   -1441.4789    563.39064    458.88515    391.09576    32966.302 
  883800     300.1514   -1432.1191    570.11414    510.45615    499.57529    32966.302 
  883900    302.68838   -1501.0064    574.27646    457.33163   -37.983371    32966.302 
  884000    295.62012   -1467.2226    541.08498    425.60391    620.68148    32966.302 
  884100    299.11279   -1470.6104    566.59331    463.69489   -36.007804    32966.302 
  884200    291.38954   -1516.8683    546.61374    362.14236   -132.85998    32966.302 
  884300    303.29314   -1473.7052    578.05354    491.17524   -26.883004    32966.302 
  884400    295.81049   -1395.6363    544.60417    501.57991    1043.5392    32966.302 
  884500    299.98497   -1449.2727    578.89694    501.32423    385.57959    32966.302 
  884600    304.68427   -1455.4202    559.98679    497.75449    197.16425    32966.302 
  884700    305.34327   -1405.5607    567.92709    558.56763    276.04361    32966.302 
  884800     291.4672   -1446.9695    562.49453    448.27703   -585.90829    32966.302 
  884900    306.03064   -1444.5407    572.95417    527.75773   -335.60668    32966.302 
  885000    294.28208   -1449.2358     570.2149    466.60229   -1131.9234    32966.302 
  885100    307.10101   -1385.4387    576.54869    595.34853   -233.80901    32966.302 
  885200     304.3559   -1466.8493    572.30644    497.14351    8.5830943    32966.302 
  885300    308.74997    -1433.112    570.79121    549.45779    311.15519    32966.302 
  885400    291.32784   -1455.2552     578.0142    454.87378    240.64418    32966.302 
  885500    296.71933    -1477.435    593.33069    472.66343    99.856965    32966.302 
  885600    321.82471   -1450.9623    595.85021    616.45152    673.00524    32966.302 
  885700    301.28433   -1433.4234    547.92885    492.14696     330.1499    32966.302 
  885800    304.47822   -1421.8793    550.10678    520.47317    474.72903    32966.302 
  885900    296.11557    -1429.629     595.4952    519.87325    985.39181    32966.302 
  886000    306.67644   -1454.4763    593.11115    540.93201    404.02605    32966.302 
  886100    290.82784   -1431.1666    581.71252    480.37442   -58.294328    32966.302 
  886200    309.63242   -1448.0825     574.3697    542.10088    299.35844    32966.302 
  886300    301.22048   -1441.5424    596.11997    531.92704   -306.51966    32966.302 
  886400    291.01127   -1373.4942     577.0482    534.22127    244.36034    32966.302 
  886500    311.42934   -1450.8269    554.98737    528.19065   -239.92048    32966.302 
  886600    307.11619   -1450.9152    586.38081    539.77366    145.11686    32966.302 
  886700    303.90116   -1434.4597    587.50404    542.65142    109.95826    32966.302 
  886800    299.86269   -1465.7798    570.96991    476.33104    368.84861    32966.302 
  886900    290.19195   -1470.3982    560.14208    416.66476   -16.955357    32966.302 
  887000    298.76895   -1493.3351    592.97326    465.77792    699.51826    32966.302 
  887100    294.74396   -1441.2623    582.82336    489.29633    909.58643    32966.302 
  887200    298.64748   -1466.3049    543.19585    442.47523    740.65848    32966.302 
  887300    302.32835   -1466.7155    586.04339    501.74321    571.82564    32966.302 
  887400     293.8964   -1469.0327    583.66058    458.48758    354.70207    32966.302 
  887500    298.61608   -1406.0372    550.48091    509.88438    200.68696    32966.302 
  887600    302.68236   -1395.2292    590.95824    579.76306   -330.42315    32966.302 
  887700     296.9621   -1452.9038    565.22799    470.20199   -1016.0206    32966.302 
  887800    304.70597   -1409.4993    597.78783    581.57561   -481.51463    32966.302 
  887900    302.69875   -1425.8015    568.47115    526.77862   -539.08354    32966.302 
  888000    301.37428   -1435.9952    590.07483    532.13241    41.466249    32966.302 
  888100    294.30353   -1433.2417    550.90081    463.38043    -518.0408    32966.302 
  888200    300.66204   -1420.6658     575.8212    529.95143   -501.72218    32966.302 
  888300    305.06027   -1475.4956    569.79428    489.20587   -944.19696    32966.302 
  888400    294.19222   -1448.7987    583.24268    479.65633   -496.77575    32966.302 
  888500    294.54107   -1406.1591    580.57833    521.22677   -477.39852    32966.302 
  888600    302.72375   -1431.4665    589.98866    542.74542   -282.83049    32966.302 
  888700    295.66548   -1426.8616    578.31308    503.40042   -446.15664    32966.302 
  888800    294.08491   -1448.5299    547.69008    443.88181   -209.16831    32966.302 
  888900    293.35397   -1448.8861    580.22759     472.7209   -205.61796    32966.302 
  889000    300.66231   -1460.6666    582.16173    496.29242   -456.69753    32966.302 
  889100    297.17704   -1452.9365    579.96027    485.88439   -382.79596    32966.302 
  889200    308.46745   -1386.6453    585.76391    609.60538    596.11117    32966.302 
  889300    296.34108     -1398.45    577.87007    534.45823    155.16906    32966.302 
  889400    297.30788   -1436.0575    610.63229    534.03366    403.55446    32966.302 
  889500    296.75569   -1424.9727    548.71824    480.67954    602.08104    32966.302 
  889600    307.93921   -1462.0985    575.29665    521.26952    986.47169    32966.302 
  889700    292.32822   -1411.1772    587.17963     512.6915     193.9232    32966.302 
  889800    292.97618   -1416.2164    549.23857    472.67411    294.64333    32966.302 
  889900    287.94828   -1441.5942    548.41862    423.48596   -15.304127    32966.302 
  890000    296.16974    -1418.207    617.43266    553.48039   -600.54115    32966.302 
  890100    292.63135   -1406.3589    576.22407    507.94032   -251.31953    32966.302 
  890200    296.03623   -1428.2233    568.16496     493.5858     610.2201    32966.302 
  890300    312.60385   -1464.3564    570.66097    535.70522    984.36176    32966.302 
  890400     288.3608   -1505.9226      540.658    353.28323   -391.07069    32966.302 
  890500     307.6844   -1477.5463    569.16745    498.52739   -683.89206    32966.302 
  890600    295.48332     -1456.99    538.81317    432.93914   -526.09385    32966.302 
  890700    294.67163   -1467.5328    569.35194    449.22365   -1523.8829    32966.302 
  890800     301.7161   -1464.8944    574.21334    488.93466   -578.37598    32966.302 
  890900    305.42116   -1510.4736    541.30558    427.38937   -23.373263    32966.302 
  891000    298.07309   -1536.4226    578.31639    404.85161   -276.18175    32966.302 
  891100     292.9857   -1526.4354    596.19039    409.45047   -529.52591    32966.302 
  891200    290.10289   -1450.8821      566.697    442.32853   -157.07873    32966.302 
  891300    303.58455   -1468.3904    567.60304    487.37195   -461.53764    32966.302 
  891400    300.47539    -1440.405    568.15904     501.6966    667.64689    32966.302 
  891500    312.31224   -1461.9596    569.94665    536.05433    644.41971    32966.302 
  891600    302.71522   -1463.6747    597.49758    518.00724    836.65053    32966.302 
  891700    289.99513   -1443.4316    559.03895    441.62818   -358.55908    32966.302 
  891800    291.09079   -1441.5066    570.77443     460.2987   -108.98484    32966.302 
  891900    291.49207    -1463.224    578.43144    448.07321   -105.00372    32966.302 
  892000    296.77118   -1479.0461    587.74421    465.70291   -122.67952    32966.302 
  892100    306.51011   -1520.9845    539.18234    419.73454    504.48246    32966.302 
  892200    302.82526   -1441.6917    597.32053    540.31631    279.67073    32966.302 
  892300    300.60446   -1475.9734    578.16615    476.72543   -482.88102    32966.302 
  892400    300.06296   -1473.9482    558.73533    456.84379    473.62963    32966.302 
  892500    294.43089   -1463.7154     570.6478    453.23606    757.84311    32966.302 
  892600    287.55572   -1453.5817    592.20218    453.48703    277.66503    32966.302 
  892700    296.94154   -1476.8732    604.97393    485.88452   -157.27033    32966.302 
  892800    293.69791   -1507.8673    541.09288    376.17765   -100.63515    32966.302 
  892900    294.80599    -1486.456    578.78251    440.34535   -51.863677    32966.302 
  893000    298.96572   -1453.7752    570.25049    483.51473    5.5116297    32966.302 
  893100    309.42548   -1461.2754     570.8282    524.42015    433.19979    32966.302 
  893200     296.2782   -1485.5531    577.81793    447.01542   -39.947519    32966.302 
  893300    302.47983   -1496.8471    574.27867    460.53955   -149.95091    32966.302 
  893400     295.1422   -1466.7729    574.46764    457.25091    -477.0241    32966.302 
  893500    308.58967   -1413.1146    576.46346    574.39447   -245.96628    32966.302 
  893600    305.80775     -1411.08    554.30868    541.55377   -102.48863    32966.302 
  893700    300.05934   -1425.0933    577.53094    524.47779   -467.92566    32966.302 
  893800    301.96616     -1429.69    576.17971    527.24892    423.50147    32966.302 
  893900    291.36133   -1411.1707    576.04979    497.14701   -19.856362    32966.302 
  894000     300.7135   -1415.8736    570.91332    530.07103     531.2984    32966.302 
  894100    300.94343   -1431.5039    547.68078     492.2595    959.79923    32966.302 
  894200    293.05234   -1451.3558    561.53454    450.17885    187.35992    32966.302 
  894300     300.4017   -1469.5379    577.27012    481.33777   -175.72859    32966.302 
  894400    292.28915   -1431.6734    579.95664    484.79369    249.64557    32966.302 
  894500    305.47521   -1477.5652    551.86538    471.10476    413.56234    32966.302 
  894600    302.54788   -1486.5553    546.83937    443.70321     192.1924    32966.302 
  894700    306.00912   -1475.0431      544.301    468.50379     109.1648    32966.302 
  894800    302.58038   -1442.8338    519.55611    460.29005   -9.5258427    32966.302 
  894900    300.05001   -1514.4235     548.0893    405.66331   -281.55067    32966.302 
  895000     290.5679    -1461.222    553.58539    421.00329   -240.49964    32966.302 
  895100    300.47947   -1452.0631    555.55066    477.44869    692.31483    32966.302 
  895200    291.92939   -1452.6935    545.48396    427.65583   -74.474904    32966.302 
  895300    300.13277    -1475.463    565.91821    462.83114    324.86809    32966.302 
  895400     287.4306   -1503.5217    563.03984    373.81257    446.64898    32966.302 
  895500    296.01432   -1464.1318     544.4319    433.84414   -25.913119    32966.302 
  895600    297.79059   -1474.9649    579.35326    466.05451   -332.85196    32966.302 
  895700    288.71667   -1457.9153    584.94965    447.20941    245.38591    32966.302 
  895800    295.81264   -1467.3534    544.94505     430.2135   -100.03285    32966.302 
  895900    312.14344   -1449.5315     560.7129    538.47681   -347.63201    32966.302 
  896000    304.09298   -1491.4599    553.35697    452.38127   -367.01103    32966.302 
  896100    292.09637    -1456.293    563.37234    442.70833     15.34245    32966.302 
  896200    306.00833   -1419.2475    571.09166    551.08637    187.47685    32966.302 
  896300    288.98398   -1428.2044    553.81066    447.00359    334.94514    32966.302 
  896400    310.77303   -1449.3128    542.28629    514.00259    532.02834    32966.302 
  896500    302.01987   -1494.7355    581.10343    467.37273    317.95153    32966.302 
  896600     305.2053   -1471.4659    560.80506    484.90947    25.307268    32966.302 
  896700    294.62642   -1469.6537    522.89769    400.44176   -507.85108    32966.302 
  896800    302.03395    -1427.953    545.38307    498.49925   -618.32958    32966.302 
  896900    298.75043   -1457.3164    547.31212    456.05078    -662.9812    32966.302 
  897000    298.66048   -1422.0784    554.85163    498.41694    -467.8402    32966.302 
  897100    303.59368   -1482.0756    557.90069    464.02621   -287.86673    32966.302 
  897200    302.93757   -1447.2379    567.89573    505.85886    -652.0177    32966.302 
  897300    298.12559    -1452.918    537.63055    447.91043   -795.04776    32966.302 
  897400    297.95076    -1450.659    555.13067    466.87021   -346.71796    32966.302 
  897500    302.09631   -1448.4117    573.68686    506.62948   -612.45754    32966.302 
  897600    300.45054   -1452.0546    574.04144    495.81571   -204.53689    32966.302 
  897700     298.6734   -1446.1712    539.28216    458.81384   -368.70098    32966.302 
  897800    295.21852   -1423.1833     571.5147    498.23659   -251.13493    32966.302 
  897900    299.86052   -1442.4479    574.30115    502.98428    20.873285    32966.302 
  898000    298.50029    -1448.991    560.08896    476.00925    76.935277    32966.302 
  898100    292.25305   -1495.7062    562.24018    402.87934     62.46381    32966.302 
  898200    297.23168   -1427.9294    540.32397    471.50502   -43.647219    32966.302 
  898300    293.77622   -1445.2461    546.78925     444.8533    -524.9725    32966.302 
  898400    308.61621   -1459.2889    540.04348    491.92151    102.94861    32966.302 
  898500    291.14968   -1395.5902    570.94603    506.65597    494.88574    32966.302 
  898600    299.49887    -1429.053    588.66459    529.08894    381.80146    32966.302 
  898700    313.03017   -1419.0929    566.77295     579.0301    1334.8666    32966.302 
  898800    301.62232   -1466.5208    569.77601    482.44208    518.81721    32966.302 
  898900    301.04439   -1485.9884    566.45066    457.00659    21.003383    32966.302 
  899000    292.24833   -1424.1344     543.1301    455.31951    8.5363059    32966.302 
  899100    307.26265   -1422.3822    562.22486    544.82036    920.67623    32966.302 
  899200    304.53739   -1395.3649    560.07314    557.22449    127.34795    32966.302 
  899300    295.13759   -1443.8917    519.38779    425.03123   -650.48691    32966.302 
  899400    300.89142   -1368.3952    577.79969    585.24933   -586.29375    32966.302 
  899500     304.5761   -1411.1879    543.02043    524.52577   -416.49997    32966.302 
  899600    307.69356   -1465.3313    553.37797    494.99471   -580.29209    32966.302 
  899700    304.55041   -1412.0358    551.44912    531.98915    48.343649    32966.302 
  899800    309.38212   -1449.3882    537.34661    502.62752   -257.42396    32966.302 
  899900    302.19037   -1433.1916    563.96307    512.55586   -120.63056    32966.302 
  900000    304.98173   -1457.2304    529.74606     467.0637    252.34282    32966.302 
  900100    291.34047   -1464.7741    560.61235    428.01083   -129.55963    32966.302 
  900200    294.79614   -1422.9048    543.82174    468.89074   -154.02028    32966.302 
  900300    309.34834   -1427.7903    544.83123    531.55554    144.45518    32966.302 
  900400    305.74606   -1421.4612    559.09032    535.67207   -311.94889    32966.302 
  900500    309.25961   -1424.7531    557.75531     547.1111    528.34557    32966.302 
  900600     302.1022   -1442.9652    521.48742    459.90346    649.47297    32966.302 
  900700    302.74641   -1447.5084    550.40813    487.22663   -94.906921    32966.302 
  900800    308.62901   -1486.9264     524.8841    449.18317    797.23993    32966.302 
  900900    294.42434   -1417.7357    525.95084    454.48894   -281.35549    32966.302 
  901000    309.79138   -1456.1992     549.5728    509.91403   -122.90458    32966.302 
  901100    299.09295    -1455.666    560.17953     472.1348    510.19374    32966.302 
  901200    285.43179   -1439.1058    561.00617    427.05506    627.00637    32966.302 
  901300    295.50185   -1458.4264    537.08795    429.86226    51.198106    32966.302 
  901400    297.99887   -1400.9439     592.8244    554.49903    819.25708    32966.302 
  901500    308.46193   -1451.0021    544.64267    504.10208    439.46739    32966.302 
  901600    297.22799   -1465.8435    577.50775    470.75788    169.09358    32966.302 
  901700    297.74397   -1404.5106    525.65825    482.60066    12.423038    32966.302 
  901800    301.27754   -1408.3651    568.23409    537.47939    76.502513    32966.302 
  901900    304.57875   -1427.3087    585.76769    551.16445    39.495393    32966.302 
  902000    292.72918    -1449.668    534.23346    423.08792   -273.93134    32966.302 
  902100    298.83619   -1459.3943    537.46142    444.51426   -27.484598    32966.302 
  902200    307.94247   -1421.5407    543.79436    530.33994   -187.70982    32966.302 
  902300    301.97675   -1448.8105    543.54727    475.54433   -288.24945    32966.302 
  902400    307.95875   -1408.4468    543.50834    543.22222    174.27464    32966.302 
  902500    299.20711   -1408.1693    537.30111    497.27506   -559.31302    32966.302 
  902600    300.44763   -1403.6792    572.33257    542.46896   -334.69166    32966.302 
  902700    306.20678    -1432.131    573.85855    541.87718    681.85406    32966.302 
  902800    301.57686   -1417.7402    546.20179    507.44068    184.09395    32966.302 
  902900    298.26162   -1408.9947    586.85535    541.68053    76.489827    32966.302 
  903000    290.43698   -1412.0253    550.14327    466.15922   -215.60023    32966.302 
  903100    293.91365   -1411.1128    529.00281    461.82854    359.26545    32966.302 
  903200    304.68217    -1425.807    588.01058    555.38189      122.618    32966.302 
  903300     300.8976   -1454.9983    556.63618      477.511    663.69998    32966.302 
  903400    299.96553   -1457.2148    559.71239    474.10874    736.60637    32966.302 
  903500    295.80171   -1431.2547    589.47339    510.79055    748.57052    32966.302 
  903600    297.64848   -1462.2018     555.1598    453.97428    1008.7417    32966.302 
  903700    317.11851   -1470.7073    550.47893    529.81591    1131.7301    32966.302 
  903800    301.73463   -1448.5806    557.03786    488.15776    732.24336    32966.302 
  903900    294.59024   -1438.1689    557.78039    466.64382    774.60389    32966.302 
  904000    301.88223   -1432.3044    521.81628    469.88729    1030.8981    32966.302 
  904100    305.87574   -1416.1838    554.49003    536.94222    716.56222    32966.302 
  904200     318.7464   -1397.8376    575.86262     635.5129    784.27654    32966.302 
  904300      296.049   -1385.7512     553.2395    521.19095    586.90646    32966.302 
  904400    297.77755   -1378.8655    548.97682    531.71784    699.06078    32966.302 
  904500    307.78136   -1386.1174    539.96028    561.19244    225.82134    32966.302 
  904600    298.17626   -1447.5541    546.31136    462.18682   -74.436663    32966.302 
  904700    311.46157   -1441.4584    555.05959    537.77871    510.40721    32966.302 
  904800    316.30667   -1368.4147    550.13383    628.05115   -759.59205    32966.302 
  904900    285.17329   -1398.6991    557.52027    462.79389   -989.59581    32966.302 
  905000    299.64641   -1394.9564    552.32378    527.51938   -991.50789    32966.302 
  905100    298.99318   -1436.5112    534.94199    465.59587    -1534.551    32966.302 
  905200    293.55299   -1413.9689     554.8365    483.15705   -1840.4473    32966.302 
  905300    299.97827   -1399.3276    546.63903    518.98088   -878.71333    32966.302 
  905400    306.37921    -1400.345    525.90752    526.50068   -857.44748    32966.302 
  905500      294.081   -1403.3722    516.48798    457.81956   -1018.8986    32966.302 
  905600    310.59885   -1445.2887    563.84141    538.78537   -829.76605    32966.302 
  905700    306.74217   -1379.3748    542.88013    566.10306    110.23141    32966.302 
  905800    285.92995   -1420.3456    547.05506    434.14202   -1006.8971    32966.302 
  905900    305.17727   -1416.9377    567.75834    546.26281   -472.92855    32966.302 
  906000    309.79898   -1437.4838    538.40001    517.49146   -190.93669    32966.302 
  906100    296.13252   -1444.6995    550.59079    459.97573   -171.57176    32966.302 
  906200    295.71783   -1441.2694    544.49647    455.41542    9.6148633    32966.302 
  906300    297.53517     -1411.83    536.96104    485.62928    568.08141    32966.302 
  906400    305.75205   -1383.9289    547.41561     561.5571    368.13782    32966.302 
  906500    297.94824   -1421.1952    548.38849     489.5803    225.33846    32966.302 
  906600    307.29986   -1404.7743    545.20579    545.57938    250.27702    32966.302 
  906700    291.00412   -1430.9359    540.60076     440.2994    101.75874    32966.302 
  906800    299.14211   -1402.8714    531.35128    496.32587    70.459456    32966.302 
  906900    305.91582   -1442.5842    579.92425    536.15928   -625.26078    32966.302 
  907000     301.3517   -1443.8897    558.89739    492.95716    118.20769    32966.302 
  907100    300.62402   -1428.5946     541.0289    487.05652    115.39979    32966.302 
  907200    302.03128   -1400.7506    532.75429    513.06061   -515.54589    32966.302 
  907300     291.2909   -1443.4488    555.67395    444.17102    119.61936    32966.302 
  907400     299.0973   -1442.7171    564.60121    489.52528    248.74636    32966.302 
  907500     297.6769   -1429.3231    547.44511    479.26826   -218.23094    32966.302 
  907600    298.24816   -1424.9133    555.87881    494.72385   -51.825676    32966.302 
  907700    305.54224   -1424.4506    542.08076    514.74123    -42.91008    32966.302 
  907800    304.04151   -1406.8162    558.47022    541.90283    321.13687    32966.302 
  907900    295.12379   -1389.5482    568.91686    528.84066    76.206345    32966.302 
  908000    302.09298   -1406.4174    563.09543    538.01707    485.65006    32966.302 
  908100     292.2911   -1412.5406    561.80595    485.78473    95.384667    32966.302 
  908200    300.06476   -1394.1243    567.73856    545.67912   -377.75205    32966.302 
  908300    299.33452   -1385.1236     563.3735    546.97569    166.19307    32966.302 
  908400    300.62993   -1399.5543    559.87574    534.97059   -375.26415    32966.302 
  908500    300.50426   -1409.8508    562.30994    526.53368   -694.24632    32966.302 
  908600    285.98463   -1425.6959    573.69922    455.68599   -312.88751    32966.302 
  908700    300.40082   -1437.3973    539.80755    476.01186   -440.20976    32966.302 
  908800    297.45553   -1416.9959     569.0479    512.18598   -858.72203    32966.302 
  908900    305.57543   -1424.6815    553.92333    526.50465   -608.63591    32966.302 
  909000    287.97057   -1426.8615    533.27793    423.17987    163.65681    32966.302 
  909100    299.85976   -1400.8368    582.35088    552.64162    434.89548    32966.302 
  909200    301.12336    -1437.899    574.76094     513.7673   -362.87455    32966.302 
  909300    304.02943   -1421.8588    541.61567    509.95053    348.33136    32966.302 
  909400    291.05745   -1422.8538    536.46612    444.49076    355.75871    32966.302 
  909500    288.82797   -1452.0623     560.3581    428.97982    379.57274    32966.302 
  909600    293.04697    -1455.908    558.17991    442.24755     236.2877    32966.302 
  909700    287.31579   -1449.5112    562.02856    426.28681    940.57062    32966.302 
  909800    292.40455   -1493.0932    559.65694    403.60182    244.45971    32966.302 
  909900    307.00357   -1450.1296    520.34156    474.00499    384.27501    32966.302 
  910000    289.96942   -1424.1009    539.72761    441.53003    968.90944    32966.302 
  910100    295.67456   -1444.8431    564.76161    471.90888    632.29609    32966.302 
  910200    307.36735   -1457.8501    558.30711    505.91352     655.9556    32966.302 
  910300    301.65429    -1456.499    542.20416    465.03824    814.43357    32966.302 
  910400    301.00258    -1449.199    554.24935    481.40347    626.86253    32966.302 
  910500    306.56231   -1448.2543    573.19639    526.71749    226.22897    32966.302 
  910600    290.68389   -1419.6684    567.11752    476.61944    660.18543    32966.302 
  910700    293.49292   -1430.5675    526.44311    437.89041     603.5439    32966.302 
  910800    309.02181    -1412.251    540.54272    541.31328    378.99887    32966.302 
  910900    294.57227   -1378.7702    553.78907    521.96905    409.39971    32966.302 
  911000    307.13475   -1409.6262    562.10914    556.87582    931.53506    32966.302 
  911100    309.94442   -1456.9867    578.88894    539.14247    572.58579    32966.302 
  911200      304.103   -1419.4913    545.62985    516.66861    1147.8001    32966.302 
  911300    297.81872   -1431.9155    548.50263    478.38182    1390.2033    32966.302 
  911400    305.56366   -1449.2057    562.86986    510.87316    528.52916    32966.302 
  911500    301.73008   -1460.7112    572.03133    490.99984    252.60533    32966.302 
  911600    292.74824   -1454.3531    553.14135    437.39791    206.53033    32966.302 
  911700    304.68278   -1429.4418    542.72855    506.46785    30.879708    32966.302 
  911800    303.61657   -1409.1928    557.73629    536.84928   -292.13917    32966.302 
  911900    306.15117   -1455.4659    588.94837    533.37788    476.84756    32966.302 
  912000    296.82713   -1397.6541     567.5445     527.1511    299.29773    32966.302 
  912100    298.71996   -1450.8655    546.58193    461.63214    35.072331    32966.302 
  912200    306.18533   -1392.7837    558.11556    565.38342    105.98538    32966.302 
  912300    294.28006    -1359.076    593.48716    580.02518   -57.290335    32966.302 
  912400    307.49515   -1410.6985    582.65114    577.99349   -658.92522    32966.302 
  912500    287.94379   -1418.7207    538.98721    436.90752   -653.64023    32966.302 
  912600    305.00787   -1365.2062    556.69039    586.15179    615.87513    32966.302 
  912700    301.53469   -1384.0259    546.97231    541.73271    22.155841    32966.302 
  912800    306.19767   -1433.3971     589.8439     556.5548    262.58439    32966.302 
  912900    301.07134   -1430.9442    533.76942    479.49275    131.27402    32966.302 
  913000    308.27696   -1431.5744     544.6217    522.66295    79.606513    32966.302 
  913100    294.61369   -1456.8626    571.32061    461.59755    219.13674    32966.302 
  913200    289.71712   -1419.5734    533.88975    439.06605    -97.19621    32966.302 
  913300    290.95839   -1451.7008    529.67833    408.40302   -30.291687    32966.302 
  913400      312.807   -1441.0349    536.47109    525.76573     210.0295    32966.302 
  913500    297.96994   -1451.0467    544.62993     456.0694    -176.8413    32966.302 
  913600    302.89468   -1408.6464     529.0021    505.36054    442.96435    32966.302 
  913700    306.45533   -1427.4866    567.30428    541.10391    604.58345    32966.302 
  913800    297.05966   -1429.6317    564.48585    493.17808    434.18356    32966.302 
  913900    301.71466   -1410.8756    536.14686    504.88042    378.43481    32966.302 
  914000    300.59868   -1434.9484    556.86375    496.42164    81.284884    32966.302 
  914100    295.45135   -1430.0765    558.46611     479.3594   -186.38349    32966.302 
  914200     295.2978   -1381.2879    553.65314    522.63295    503.86384    32966.302 
  914300    306.51233   -1429.0911    553.47786    525.93362   -38.132245    32966.302 
  914400    293.08709   -1472.4743    546.02765    413.71247   -455.64111    32966.302 
  914500    296.73566   -1408.1688    552.63656    501.31012   -107.58818    32966.302 
  914600    287.25774   -1457.3127    551.04306    407.23433   -157.89754    32966.302 
  914700    305.32211   -1410.1931     565.0709    550.98227    452.68044    32966.302 
  914800     292.8102   -1420.4245    554.59985    473.06833    367.00561    32966.302 
  914900    295.32866   -1381.4766    545.48552    514.41769   -347.47092    32966.302 
  915000    305.82533   -1409.4083    568.78908    557.78624   -717.72748    32966.302 
  915100    296.25137   -1427.2118     565.8483    493.26442    -676.6107    32966.302 
  915200     293.0213   -1407.8027    545.78816    477.84375    -272.1964    32966.302 
  915300    291.75317    -1409.853    555.21437    479.42101    -375.6438    32966.302 
  915400    298.42357   -1437.6524    577.00439    503.91248   -331.37543    32966.302 
  915500    294.36605   -1398.7805     537.8316    485.05825   -299.76547    32966.302 
  915600    306.41701    -1414.063    580.97259     568.0206    145.81435    32966.302 
  915700    290.90614    -1362.658    580.39356    547.92206   -854.88763    32966.302 
  915800    304.20039   -1379.9718    571.93498    582.93848    269.19394    32966.302 
  915900    287.55435   -1394.3533    567.47586    487.98288     614.7053    32966.302 
  916000    307.03066   -1422.8027    579.19333    560.30752   -233.98852    32966.302 
  916100    305.67627   -1407.7163    539.65027    529.65779     585.9181    32966.302 
  916200    302.26789   -1362.8944    540.63277    559.87726    1191.0107    32966.302 
  916300    292.09553   -1405.1056    563.98158    494.50107    648.37692    32966.302 
  916400    309.10681   -1464.3377     551.7424     500.8149   -127.16359    32966.302 
  916500    298.12082   -1377.4587     570.2624    555.97985    181.84497    32966.302 
  916600    300.27665    -1417.047    576.70051    532.68729    425.29372    32966.302 
  916700    289.89668   -1397.3881     569.6447    497.82733   -190.37318    32966.302 
  916800    310.43623   -1352.1829    542.13088    609.43709    936.02666    32966.302 
  916900    293.57307   -1320.2822    597.53177    619.63084    75.241181    32966.302 
  917000    306.50145   -1358.4303    558.96259    602.02942    161.14322    32966.302 
  917100    303.62943   -1378.5812    546.69048    556.47385     1013.948    32966.302 
  917200    303.51826   -1405.9023    554.24815    536.20209    777.27384    32966.302 
  917300    304.94269    -1402.877    597.78592    589.27845   -680.02587    32966.302 
  917400    296.08424    -1408.192     572.7669     518.4386   -911.30974    32966.302 
  917500    310.23042    -1362.858    570.62654    626.31655   -722.25576    32966.302 
  917600    306.43822   -1378.0168    586.56106    609.75218   -572.75079    32966.302 
  917700     293.1827   -1414.6558    557.75103    483.69146   -711.19029    32966.302 
  917800     297.8132   -1383.1632    570.89836    549.50462    156.74223    32966.302 
  917900    296.21573   -1377.5542    566.96994     543.8807   -291.29999    32966.302 
  918000    311.53436   -1415.9004    600.02476     608.6348    15.651121    32966.302 
  918100     303.2787   -1413.9819    551.94413    524.72308    112.22246    32966.302 
  918200    299.62709   -1384.8479    566.11878    551.33454    1137.2315    32966.302 
  918300    298.49656   -1363.7314    581.57248    582.73527   -120.94966    32966.302 
  918400    295.38912   -1426.5429    570.67591    494.81824   -205.13903    32966.302 
  918500    296.17234   -1392.0927    544.11246    506.28634    282.04564    32966.302 
  918600    302.21592   -1365.8615    589.11006    605.14976     343.4838    32966.302 
  918700    294.55671   -1389.6642    574.01942    531.23423   -386.61708    32966.302 
  918800    302.49824   -1439.6616    562.82329    506.35379    -288.7991    32966.302 
  918900    296.84298   -1369.0416    564.28774    552.57924    259.56981    32966.302 
  919000    297.16182   -1370.8946    590.95483    578.85129    193.58857    32966.302 
  919100    311.56376   -1421.0491    572.40603    576.00177   -372.37122    32966.302 
  919200     298.5203   -1389.0724    547.10151    523.03184   -51.694252    32966.302 
  919300    291.75861    -1405.211    539.37497    468.24845   -667.90426    32966.302 
  919400    303.10069   -1351.3629    569.96213    604.54612   -946.25606    32966.302 
  919500    297.31745   -1367.5722     559.7862    551.71668   -511.58007    32966.302 
  919600    301.70589    -1408.279    574.60776    545.89781   -332.17585    32966.302 
  919700    297.62148     -1429.35    538.00416    469.54697   -552.31519    32966.302 
  919800    307.35812   -1386.4659    546.99633    565.94474   -481.67094    32966.302 
  919900    298.54608   -1400.3581    556.18812    520.95072    318.59561    32966.302 
  920000    319.77047   -1395.4007    598.63659     665.4064    39.787157    32966.302 
  920100    297.38614   -1412.8794    539.27898    486.21632   -558.48676    32966.302 
  920200    298.84091   -1381.1423     549.2752    534.60165    52.082164    32966.302 
  920300    298.23974   -1396.6218    552.61574    519.71387    249.84922    32966.302 
  920400    299.86377   -1402.5145    561.55058    530.18195    68.253049    32966.302 
  920500    292.05016   -1434.6856    606.30086    507.03289    137.78378    32966.302 
  920600    292.42669   -1402.3096     576.6987    511.52844   -150.61424    32966.302 
  920700    307.11781   -1335.4588    593.34438    662.20102    101.71669    32966.302 
  920800    292.83836   -1398.0318    553.25497    494.24494   -494.75846    32966.302 
  920900    299.32828   -1373.0388    560.06448    555.72297   -388.45433    32966.302 
  921000    291.15026   -1378.7019    563.29921    515.90012     215.3943    32966.302 
  921100     291.3512    -1394.533    566.00799    503.69663    567.00656    32966.302 
  921200    299.52913   -1388.6988    535.49046     516.4074    335.94196    32966.302 
  921300    302.19244   -1398.9832    573.54627    556.35695    206.21938    32966.302 
  921400    305.14904   -1424.3236    552.84844    523.83796   -548.80351    32966.302 
  921500    309.47841   -1372.0098    554.92577    598.02535   -304.39436    32966.302 
  921600    303.58468   -1419.5351    564.46233    533.08716      3.67197    32966.302 
  921700    300.23251    -1392.419    543.22762    523.64053    311.26579    32966.302 
  921800      302.013   -1380.4203    566.12622    566.67924   -450.37963    32966.302 
  921900    300.71885   -1435.8217    563.00096    502.23508   -312.64182    32966.302 
  922000     305.3308    -1374.595    577.07493     598.6241   -237.09734    32966.302 
  922100    295.50484   -1373.2421    536.91095    514.88319   -44.307662    32966.302 
  922200    302.02083     -1381.13    565.24971    565.12893   -274.17005    32966.302 
  922300    302.92528   -1414.5208    563.80058    534.42458    42.501787    32966.302 
  922400    305.95679   -1414.7792    557.58834    541.81575    645.25487    32966.302 
  922500     305.1392   -1413.5497    551.87123    533.58965    123.86118    32966.302 
  922600    298.93549   -1436.3271     553.3952    483.96937    533.31647    32966.302 
  922700    304.17627   -1453.0172    583.11326    520.96109   -153.93102    32966.302 
  922800    305.16672   -1426.6795    568.73795    537.45242   -433.82873    32966.302 
  922900      299.027   -1499.3633    550.76333    418.71976   -287.50062    32966.302 
  923000    290.77851   -1470.3392    550.27567    409.53938    373.63164    32966.302 
  923100    296.85625   -1480.6568    530.18179    406.91875    -509.4342    32966.302 
  923200    290.70624   -1428.4771    577.36016    478.15557    -164.0641    32966.302 
  923300    292.98199   -1451.5055    571.84791    460.02092   -230.60894    32966.302 
  923400    296.85914   -1442.5969    552.37548    467.18559   -159.28421    32966.302 
  923500    302.42276   -1429.0702    569.05298    522.82979    -431.1604    32966.302 
  923600    300.48898   -1431.1448    553.25287    496.11274   -849.47263    32966.302 
  923700    294.95955   -1429.9246     582.6055    501.40193    243.31319    32966.302 
  923800    290.19768   -1446.0043    583.19143    464.13423    71.703466    32966.302 
  923900     309.2949   -1434.6997    561.38696     540.9576    39.420453    32966.302 
  924000    298.63021   -1468.9191     532.7596    429.34588   -443.36623    32966.302 
  924100     313.3796    -1414.516    559.46318    577.89503    87.344597    32966.302 
  924200    301.53572   -1446.6426    580.69475    512.84315     30.29081    32966.302 
  924300    298.23818   -1466.7323    530.58196    427.56242    370.99922    32966.302 
  924400    285.91173   -1470.1745    569.65755    406.83237    -474.7083    32966.302 
  924500    293.72012   -1406.5493    576.05806    512.56242   -525.60892    32966.302 
  924600    303.44744   -1440.0767    542.76647    490.22221   -897.17715    32966.302 
  924700    301.93234   -1418.9537    551.06122    512.71204    172.42833    32966.302 
  924800    301.00939    -1455.121    536.07423    457.33749   -374.78065    32966.302 
  924900    304.00806   -1432.3118    571.62938    529.41345   -26.954713    32966.302 
  925000    297.98347   -1424.4713    593.40846     531.4852   -519.58539    32966.302 
  925100    301.08111   -1423.0498    571.35322    525.01562   -678.32441    32966.302 
  925200    299.02047   -1446.1472    578.48398    499.62662   -392.26084    32966.302 
  925300    297.61677   -1461.3145    541.01301    440.56983   -156.63647    32966.302 
  925400    295.63671   -1430.2443    566.91417    488.48724    250.96668    32966.302 
  925500    306.82073   -1468.2319    587.88379    522.60886    1311.1933    32966.302 
  925600    298.79636   -1465.5717    574.19996    474.89331    442.91205    32966.302 
  925700    300.06729   -1467.5867    563.72306    468.21288    837.05682    32966.302 
  925800    306.34757   -1465.1776    566.37636    501.99221    789.55232    32966.302 
  925900     306.0216   -1467.9531    544.00418    475.35402    1008.8266    32966.302 
  926000    308.53451   -1429.5878    574.46031     555.6659    599.79685    32966.302 
  926100     295.7862   -1441.0882    575.65821    487.07095    420.45793    32966.302 
  926200    301.40708   -1414.7193    576.70533    540.18881    197.14463    32966.302 
  926300    294.64754   -1432.9242    557.58059    471.95075    304.26697    32966.302 
  926400    309.41152   -1442.3055      577.869    550.36706    61.944631    32966.302 
  926500    306.49386   -1369.4039    585.08677    617.14521    1289.7321    32966.302 
  926600    298.08232   -1423.5023    551.22648    490.72423    815.85685    32966.302 
  926700    292.70442   -1463.9572    570.40093    444.85305   -243.64975    32966.302 
  926800    306.43079   -1441.5812    573.59121      533.184   -466.26878    32966.302 
  926900     306.4075   -1411.3545    574.53868     564.2517   -114.99691    32966.302 
  927000    288.59695   -1429.2587    573.42823    463.79716   -94.445768    32966.302 
  927100    300.30718   -1424.0149    583.70697    532.86545    489.20302    32966.302 
  927200    296.60286   -1403.2815    595.78287     548.7365   -636.92515    32966.302 
  927300    290.26573   -1391.0695    566.54557    502.73423    272.21431    32966.302 
  927400    302.12762   -1388.4756    591.16176    584.18367     -446.472    32966.302 
  927500    294.46511   -1428.8323    573.45953    491.08733   -163.29064    32966.302 
  927600    304.14982   -1404.7226    569.55081    555.57236   -537.70059    32966.302 
  927700      307.992   -1389.1037    586.88465    606.09364   -1127.0486    32966.302 
  927800    304.87108   -1411.4102    562.43922    545.07113    -555.9186    32966.302 
  927900    301.82681    -1434.746    586.47369    531.84966   -684.08266    32966.302 
  928000     294.5032   -1468.8878    569.83898     447.5855   -263.32714    32966.302 
  928100    297.32077   -1470.2196    567.98878    457.28699    8.5131201    32966.302 
  928200    299.19649   -1452.1151    587.75195    503.73151    315.74303    32966.302 
  928300    297.38437   -1423.6287    551.47678    487.65671    333.93676    32966.302 
  928400    296.05614   -1396.9436    587.91206    544.70369    291.89267    32966.302 
  928500    300.82063   -1402.9334    580.44499    553.03277   -430.94448    32966.302 
  928600    299.78559   -1432.4251     550.6878    489.05113   -251.83631    32966.302 
  928700    293.25816    -1418.822    560.69144     482.8107   -1065.5264    32966.302 
  928800    294.92695   -1394.1696    577.06412    531.46644   -754.95635    32966.302 
  928900    300.45028   -1409.6941    566.57598     530.7096    120.06689    32966.302 
  929000    298.68894   -1412.4975    561.87811    515.15448    145.62116    32966.302 
  929100    301.66446   -1444.6442    562.10183    496.83726   -117.17709    32966.302 
  929200    302.67975   -1483.1482    564.28867    465.16254    569.13332    32966.302 
  929300    309.17025   -1453.6388    555.20112    515.26267    603.58082    32966.302 
  929400    295.18439   -1380.0439    579.03799    548.74319    630.15633    32966.302 
  929500    298.92115   -1445.7718      575.256    496.31987   -275.47974    32966.302 
  929600    296.64166   -1441.4147    534.88862    449.88647   -571.56337    32966.302 
  929700    303.39476   -1413.9216    547.72972     521.0996   -855.55205    32966.302 
  929800    303.43353   -1385.8989    570.43992    572.00979   -354.08033    32966.302 
  929900    294.87254   -1398.9054    555.46464    504.88234   -461.19754    32966.302 
  930000    311.96923   -1401.1527    572.61933     597.9655   -408.09785    32966.302 
  930100    299.58713   -1418.1064     585.5989     537.3734   -167.03845    32966.302 
  930200    287.20248   -1402.6887    586.94309     497.5057    491.13502    32966.302 
  930300    298.87557   -1400.4084    584.75133    550.97013   -147.90783    32966.302 
  930400    299.84613   -1408.6976    528.15127    490.51889   -438.57909    32966.302 
  930500    307.00165   -1415.1905    555.21304    543.80679    296.30007    32966.302 
  930600    299.69225   -1418.3144    560.74066    512.78783    39.491971    32966.302 
  930700    307.11316   -1416.7174    563.88167    551.45847   -235.70162    32966.302 
  930800    297.69391   -1398.7934    582.64977    545.08038    105.78229    32966.302 
  930900    291.54887   -1377.0987    595.08565    551.11242    144.35781    32966.302 
  931000    304.16381   -1409.2166    556.95948    538.55093    535.65801    32966.302 
  931100     306.0271    -1423.532    549.67265    525.46872     504.8034    32966.302 
  931200    298.94259   -1394.6845    575.18438    547.43357    295.12425    32966.302 
  931300    295.71494   -1412.8283    580.88441    520.23117     358.6193    32966.302 
  931400    294.91448    -1456.197    580.75963    473.07754    446.65118    32966.302 
  931500    304.00522   -1423.1814     553.9006    520.80215    858.93074    32966.302 
  931600    299.81812   -1457.0531    554.54371    468.42776    847.86046    32966.302 
  931700    299.73535    -1463.549    577.39879    484.40839    421.76588    32966.302 
  931800    297.17495   -1466.7975    570.47884    462.53241    375.07971    32966.302 
  931900     298.2597   -1432.4106    546.48706    477.88764   -492.95427    32966.302 
  932000    298.82641   -1450.2339    558.10583    474.27438   -348.95845    32966.302 
  932100    297.28451   -1422.3158    567.41043    504.44664    504.04922    32966.302 
  932200    292.46227   -1452.1799    561.04842     446.1706    -149.0966    32966.302 
  932300    307.92465   -1434.7412    557.70085    530.96433   -335.49832    32966.302 
  932400    292.14678    -1418.673    534.94768    452.13418   -444.15371    32966.302 
  932500    302.28806   -1401.1126    547.93026    529.04876   -37.469643    32966.302 
  932600    301.47175   -1439.3616    563.14097    502.27781   -773.13394    32966.302 
  932700    308.44695   -1397.3959     564.2353    577.23241   -126.58385    32966.302 
  932800    289.45399   -1392.5977    561.73039    492.67918   -131.67681    32966.302 
  932900     303.1888   -1404.1372    570.58593    552.79847    534.48061    32966.302 
  933000    294.59247   -1394.0265    564.83137    517.84736    718.48256    32966.302 
  933100    295.25382   -1426.5413    588.33014    511.85542    1279.9471    32966.302 
  933200    305.07979    -1405.121    563.35819    553.23366    552.60754    32966.302 
  933300     295.7056   -1356.6702    584.78017    580.24236    450.11503    32966.302 
  933400    308.61858    -1418.202     541.4178    534.39357    224.57324    32966.302 
  933500    313.81706   -1430.6308    595.74227    600.05963   0.50655513    32966.302 
  933600    292.76338   -1433.5636    563.79569    468.91102   -332.87908    32966.302 
  933700    313.12189   -1371.7218    564.50756    624.55523    1104.2463    32966.302 
  933800    289.33725   -1444.1068    553.06227    431.96811    406.15915    32966.302 
  933900    307.35335   -1417.8993    579.81656    567.30971   -107.50688    32966.302 
  934000    309.08356   -1357.4634    589.63655     645.4771    229.30158    32966.302 
  934100    303.72059   -1389.7876    541.07122    540.06507   -138.56307    32966.302 
  934200    297.43964   -1392.6476    567.51318    534.92698   -414.54882    32966.302 
  934300    308.33955   -1420.0574    544.91244    534.75699   -831.80306    32966.302 
  934400    304.14384    -1440.273    556.19172     506.6355   -180.99865    32966.302 
  934500    297.13846    -1432.338    550.77079    477.11701   -409.67584    32966.302 
  934600    303.12626   -1413.9351    549.69152    521.82017   -409.81097    32966.302 
  934700    296.19527   -1428.8786    554.61183    480.10462    78.795405    32966.302 
  934800    306.19035   -1382.7237    582.31244    599.66331    304.12316    32966.302 
  934900    300.69307   -1431.2592    586.18729    529.86602   -245.75311    32966.302 
  935000    297.12309   -1403.3167    584.64534    539.94255   -258.05733    32966.302 
  935100    302.56989   -1385.3615    578.49573    576.65401    140.07242    32966.302 
  935200    309.88523   -1398.0934    585.94297    604.81919    338.62273    32966.302 
  935300    302.37905   -1423.3539    583.43553    542.72872    306.51869    32966.302 
  935400    300.71741   -1445.0678      571.724    501.70539    9.8603238    32966.302 
  935500    309.66988   -1407.3435    573.42037    582.06183    -65.86465    32966.302 
  935600    305.76038    -1437.425    567.05438    527.73783    51.042958    32966.302 
  935700    300.32222   -1401.9001    576.86996    548.21205    67.113332    32966.302 
  935800    301.86712   -1458.3299    575.56246    497.53887    147.23163    32966.302 
  935900    293.44138   -1498.3168    561.42065    404.88296    132.47872    32966.302 
  936000    301.24517   -1539.8418    547.97614    385.59669    366.68755    32966.302 
  936100    300.85947   -1474.9117    552.71314    453.50017   -491.96154    32966.302 
  936200    292.41794   -1470.3404     570.3857    437.14462    9.6380625    32966.302 
  936300    304.59702    -1456.778     595.8237     531.8346    110.95224    32966.302 
  936400    306.92435   -1450.7868    552.75877    505.40282    173.26771    32966.302 
  936500    291.85556   -1469.3754    559.47334     424.6258   -876.58013    32966.302 
  936600    304.97356   -1504.8616    569.56799    459.21709    -671.2984    32966.302 
  936700    300.43182   -1523.5521    543.00049     393.1917   -316.72506    32966.302 
  936800    302.31287   -1531.2826    565.67523    416.73715    404.86607    32966.302 
  936900    306.76324   -1516.0037    576.26505     462.9555    513.65172    32966.302 
  937000    306.10932   -1531.1451    569.04097     437.5999    923.01205    32966.302 
  937100    298.43015   -1521.7657    554.29755    397.12241    929.14696    32966.302 
  937200    306.00902   -1454.3741    582.96281     527.8341    632.26668    32966.302 
  937300    299.99845   -1398.8681     575.6553    548.54886    642.49796    32966.302 
  937400    311.12453   -1454.4453    540.69378    508.88488    577.02897    32966.302 
  937500    293.28136   -1454.4241    575.17423    461.79752    856.31006    32966.302 
  937600    295.30847   -1454.6283    597.16449    492.85273   -158.53965    32966.302 
  937700    294.57084   -1456.1736    559.74852    450.51853    772.11596    32966.302 
  937800    292.02477   -1486.9614    575.35096    423.69115    325.92635    32966.302 
  937900    295.13126   -1434.5783    562.74278    477.67062    1155.4496    32966.302 
  938000    299.91321   -1419.4767    598.53926    550.43449    676.55859    32966.302 
  938100    314.84216   -1472.4148    546.92847    514.14918    168.91265    32966.302 
  938200    300.76046   -1474.7732    583.54813    484.02098   -1045.3904    32966.302 
  938300    300.26984   -1458.6529    527.20415    441.55393   -717.67598    32966.302 
  938400    301.32752   -1464.2594    567.13399    480.71353   -266.40758    32966.302 
  938500    302.80749   -1460.4738    592.49125    516.62366   -684.23403    32966.302 
  938600    303.52636   -1461.6608    544.82498    471.05752    188.19895    32966.302 
  938700    294.66112     -1491.34    566.71083    422.72722    107.50475    32966.302 
  938800    306.63431   -1482.8804    562.44928     481.6735   -140.63717    32966.302 
  938900     304.0049   -1493.9923    564.43099    460.52009    151.98897    32966.302 
  939000    298.04104   -1449.0594    541.88866    455.64059    -294.2087    32966.302 
  939100     292.9417   -1447.5504    586.79016    478.73403   -538.79784    32966.302 
  939200    292.95064   -1479.9811    552.33903    411.89303   -1078.7759    32966.302 
  939300    301.66193   -1477.5043    546.21432    448.07806   -312.91867    32966.302 
  939400    307.63195   -1466.1609    565.17886    505.68432   -554.82448    32966.302 
  939500    294.49499   -1485.5128    562.51622    423.60022   -617.86479    32966.302 
  939600     297.2981   -1433.9307    585.71307    511.19659   -259.88269    32966.302 
  939700    307.18482   -1396.2221    564.22474    572.62442    -686.7041    32966.302 
  939800     300.5753   -1421.7587    592.71911    545.35979   -752.26833    32966.302 
  939900    307.37762   -1449.4232    567.43692    523.51711   -737.18671    32966.302 
  940000    293.39234   -1431.8843    569.12599    478.79653    -403.6271    32966.302 
  940100    288.24926   -1459.4751    561.72311     420.2858   -704.69078    32966.302 
  940200     310.9264   -1448.3929    553.16534    526.50291    19.684539    32966.302 
  940300    299.79709   -1450.9382    587.29387    507.19664   -257.54621    32966.302 
  940400    301.70271   -1452.5646    607.76994    534.75982   -221.62713    32966.302 
  940500    298.59226   -1423.9619    571.97998    513.34993   -305.91665    32966.302 
  940600    292.18608   -1447.9667    546.47486    434.54728    2.7205124    32966.302 
  940700     306.8192   -1475.3635    594.94554    522.53203   -311.72196    32966.302 
  940800    299.58971   -1474.0847    548.03137     443.8394   -59.867469    32966.302 
  940900    307.35843   -1450.9064    538.11442    492.62368    529.20912    32966.302 
  941000    309.15511   -1447.0626     547.4614    514.02993   -205.32605    32966.302 
  941100    298.53121   -1425.0723     575.3909    515.37127   -487.57507    32966.302 
  941200    305.10654   -1435.0844    584.01836    544.05271   -528.68059    32966.302 
  941300    294.32539   -1459.6911    585.19996     471.3301   -490.40062    32966.302 
  941400    304.75886   -1429.1728    570.28919    534.64541   -754.25536    32966.302 
  941500    307.09952   -1445.2243    545.03262     504.0401   -374.64989    32966.302 
  941600     301.6968   -1411.6329    586.45223    554.34685    296.85541    32966.302 
  941700      306.642   -1454.3372    581.34881    529.15134   -565.88611    32966.302 
  941800    305.39919   -1469.1712    583.87554    511.16125   -286.35389    32966.302 
  941900    301.20027   -1435.7084    574.40965    515.95834   -526.97749    32966.302 
  942000    296.63622   -1469.2949    544.56811    431.66094   -139.86527    32966.302 
  942100    292.37655   -1526.0152    589.17052    400.06538   -515.18612    32966.302 
  942200    300.89845   -1462.0869    591.35448    505.14461   -518.86308    32966.302 
  942300    306.33987   -1481.0885    569.05771    488.72742   -471.78597    32966.302 
  942400    298.87592   -1452.0913    576.22514     490.7627   -605.75125    32966.302 
  942500     301.2283    -1431.219    553.81888    499.98515   -92.068116    32966.302 
  942600    297.98632   -1415.4911    597.31355    544.38359   -415.99155    32966.302 
  942700    292.08162   -1416.2785    584.96874    504.25168   -1175.9334    32966.302 
  942800    308.60833   -1396.6264    559.34662    573.85115   -338.41038    32966.302 
  942900    291.24031   -1422.3146    577.95612    487.35612   -794.73308    32966.302 
  943000    300.78666   -1479.5566    559.80571    455.61499   -246.63467    32966.302 
  943100    297.90913    -1457.294    573.92748    478.84166    236.65142    32966.302 
  943200    300.39026     -1434.29    599.68875    538.95207   -276.19995    32966.302 
  943300    296.99927   -1453.9299    558.88967    463.00757   -209.89509    32966.302 
  943400    293.11502   -1500.4406    557.49942    397.34559     -692.752    32966.302 
  943500    299.61597    -1504.268    602.44005    468.18489    444.95883    32966.302 
  943600    291.53271   -1491.2831     585.2274    426.99588    638.00844    32966.302 
  943700    291.83832    -1485.662    578.07253    426.85954    733.87202    32966.302 
  943800     294.1017   -1517.2695    566.67993    394.20892   -179.54141    32966.302 
  943900    299.50172    -1482.362    547.68342    434.81182    407.90217    32966.302 
  944000    299.82162   -1451.5723    571.08645    490.46727    686.77143    32966.302 
  944100    302.47662   -1475.2195    577.18699    485.06077    94.374481    32966.302 
  944200    299.12183   -1467.6951    590.80694    490.86516    442.10936    32966.302 
  944300    302.22838    -1434.615    550.91314    498.25628    151.18191    32966.302 
  944400    308.49082   -1410.4291    582.64551    582.81001   -573.44859    32966.302 
  944500    305.68945   -1455.5498    576.94902    519.18332   -770.76409    32966.302 
  944600    298.96887   -1500.1468    553.00883    419.91596   -644.91547    32966.302 
  944700    294.65608   -1489.7136      576.432    434.05182   -659.38704    32966.302 
  944800    306.74453   -1494.7354    589.38905    497.26223   -501.04578    32966.302 
  944900    307.69161   -1462.7486    571.48201    515.67254    329.24156    32966.302 
  945000    296.56162    -1433.284     586.4903    509.25289   -564.65614    32966.302 
  945100    302.32544     -1425.35    589.13522    546.18724   -152.03174    32966.302 
  945200    297.58331   -1450.7206    546.33428    456.33205   -689.12608    32966.302 
  945300    301.54013   -1455.4507    598.36183    521.72222   -828.90335    32966.302 
  945400    300.61332   -1450.4515    566.69118     490.8129   -568.16961    32966.302 
  945500    302.48933   -1425.8176     573.7767    531.11054    -882.7673    32966.302 
  945600    295.36062   -1426.1859    561.58494    485.95395   -682.54244    32966.302 
  945700    294.83721   -1433.9234    563.65232    477.89057   -469.63462    32966.302 
  945800    310.01745   -1455.4847     574.0053    536.09485    -819.5115    32966.302 
  945900    285.26958   -1449.7469    560.48317    415.14928   -590.00283    32966.302 
  946000    305.88017   -1418.8429       551.78    531.59333    -277.9136    32966.302 
  946100    311.62639   -1403.6554    592.13932    613.41513    -1045.635    32966.302 
  946200    296.65842   -1394.1734     583.9517    546.26753    61.424294    32966.302 
  946300     302.5067   -1416.2937    567.17497    534.11216   -715.37182    32966.302 
  946400    299.13705   -1406.0626    558.08964    519.84989   -1073.9916    32966.302 
  946500    297.38481   -1435.7428    557.43439    481.50226   -769.02712    32966.302 
  946600    295.45081   -1415.4007    569.57821    505.14485    162.86839    32966.302 
  946700    304.68961    -1428.923    579.31722    543.60657    477.04563    32966.302 
  946800    291.82216   -1449.7646    566.59444    451.20489   -47.635337    32966.302 
  946900    309.48261   -1455.4922    549.52102    509.15741   -62.747819    32966.302 
  947000    296.73884   -1435.1513     552.1284      473.834    71.154951    32966.302 
  947100    305.26727   -1458.5629    550.36122    487.65198   -371.40282    32966.302 
  947200    300.88686   -1472.2924    566.72893    470.26052    67.709788    32966.302 
  947300    289.65079   -1496.9995    556.57208    384.01894    341.15537    32966.302 
  947400    302.65837   -1488.9729    544.72071     439.6721     365.2106    32966.302 
  947500    301.34187   -1499.1936    543.99762    422.70856    148.19959    32966.302 
  947600    292.03447   -1496.0804    590.06828    429.33376   -390.48253    32966.302 
  947700    290.89143   -1483.9146    544.50815     390.7128    249.75528    32966.302 
  947800    306.53498   -1495.2502    521.93238    428.33259    329.03564    32966.302 
  947900    299.61027   -1497.1118    549.62763    422.50257    134.86717    32966.302 
  948000    293.00892    -1462.933    558.73133    435.59997   -211.92931    32966.302 
  948100    306.29996   -1448.2563    548.93416    501.25359   -50.151176    32966.302 
  948200     289.6081   -1445.1886    552.40067    431.46326   -1121.2677    32966.302 
  948300    305.05027   -1427.5155     596.4817    563.82771   -112.04804    32966.302 
  948400     301.7043   -1478.6588    538.00963    438.91262    412.83629    32966.302 
  948500    300.82067   -1469.2373     516.8032    423.08723     553.7198    32966.302 
  948600    303.49175   -1465.1891    557.88684    480.43281   -218.26474    32966.302 
  948700     310.7903   -1446.0506    547.76114    522.81863    60.286174    32966.302 
  948800    303.23056   -1488.8379    543.19055    440.89335   -693.27063    32966.302 
  948900     308.2184   -1453.7572     569.9118    525.50257   -269.00427    32966.302 
  949000    294.07861   -1462.0323    532.53971    415.20025     354.7822    32966.302 
  949100    304.46184   -1489.6118     539.4617    442.02073   -134.89795    32966.302 
  949200    294.90353    -1498.748    562.20808    411.92494   -552.29756    32966.302 
  949300    306.35598   -1446.1671    535.83906    490.50387   -192.77352    32966.302 
  949400    300.39658   -1469.4496    523.38552     427.5181   -181.86951    32966.302 
  949500    293.32435   -1494.7333    558.32481     404.8355   -709.08296    32966.302 
  949600    302.60162   -1432.4473     543.8819    495.09947    200.86217    32966.302 
  949700    301.24529   -1437.3194    546.69338    486.83687   -359.58944    32966.302 
  949800    308.93374   -1467.2338    566.05079    511.43584   -1236.9416    32966.302 
  949900    298.26243   -1437.2234    570.90178    497.50204   -821.24834    32966.302 
  950000    310.57618   -1421.0859    554.05227    553.09538   -574.94244    32966.302 
  950100    304.27409   -1428.7281    529.66622    492.25042   -134.33208    32966.302 
  950200    296.65665   -1429.8845    554.07153    480.66814   -382.01811    32966.302 
  950300    293.54987   -1436.5838    567.05313    472.74451   -1011.6948    32966.302 
  950400    314.65759   -1438.0274      535.201    535.96509   -380.68641    32966.302 
  950500    302.44659   -1435.3827    578.72678    526.30005   -272.80056    32966.302 
  950600    299.98829    -1466.621    527.76361    432.85781   -1034.9244    32966.302 
  950700    303.51639   -1447.4952    513.86657    454.21901   -428.60396    32966.302 
  950800    303.66071   -1426.0083    541.85604    504.35541   -463.74954    32966.302 
  950900    308.46216   -1446.4151    566.28867     530.3361    310.08658    32966.302 
  951000    297.74993   -1420.5703    555.33651    496.24643   -157.65327    32966.302 
  951100    296.94338   -1461.3723    548.89111    445.31099   -702.89057    32966.302 
  951200    300.12284   -1438.3118    567.30387    501.32251    -353.4904    32966.302 
  951300    295.04515   -1450.7364    558.97822    457.35429    290.78483    32966.302 
  951400    301.13348   -1470.6918    561.95559    468.21545    617.99255    32966.302 
  951500    297.95675   -1443.3054    569.19237     488.3129    597.14139    32966.302 
  951600    301.34527   -1425.4724    559.18952    511.63726    260.83634    32966.302 
  951700    301.35195   -1427.4323    540.54147    491.05983    217.19499    32966.302 
  951800    303.37069   -1408.4723    547.52794    526.23716    349.16568    32966.302 
  951900    306.78522   -1414.3169    569.45582    557.93352   -224.84998    32966.302 
  952000    311.06568   -1406.0855    553.37015    569.65197    230.85465    32966.302 
  952100    295.33423   -1418.6959    563.12007    494.85845    146.03354    32966.302 
  952200    308.68749   -1451.9961    564.43212    523.92887   -417.44332    32966.302 
  952300    295.71549   -1453.2862    540.92891    439.82035    249.48325    32966.302 
  952400    303.15062   -1448.7778    564.63776    502.03511   -616.25061    32966.302 
  952500    305.45623   -1431.4558    585.48312    550.74503   -887.28515    32966.302 
  952600    298.88701   -1403.8216    559.44609    522.30406   -308.57906    32966.302 
  952700    306.53213    -1379.775    548.69788     570.5602   -718.15731    32966.302 
  952800    298.77504   -1423.0796    610.56912    553.65715   -1091.2708    32966.302 
  952900    308.15201   -1416.8767    548.07334    540.24096   -440.95172    32966.302 
  953000    296.06992   -1386.3008     545.0507    512.54814    55.342668    32966.302 
  953100    293.54691   -1434.1071     575.0227    483.17722   -807.63908    32966.302 
  953200    294.91471   -1447.4215    555.86831    456.96277    141.82521    32966.302 
  953300    297.19938   -1456.0623    538.47915    441.37959    870.92711    32966.302 
  953400    290.43299   -1445.6098    573.12884    455.54208    382.39635    32966.302 
  953500      293.992   -1453.1385    542.50172    433.66001    392.21076    32966.302 
  953600    292.03163   -1388.3874    553.07063     500.0162    1185.0133    32966.302 
  953700    297.14021    -1388.275    572.61877    543.03602    221.20368    32966.302 
  953800    301.71641    -1407.747    574.40264    546.27279   -468.61313    32966.302 
  953900    293.89918   -1392.3364    598.74062    550.27659    -432.6485    32966.302 
  954000    294.50144   -1420.3946    530.72657    456.95827   -331.30539    32966.302 
  954100    302.93478   -1428.1987    594.17513    551.16473   -269.31434    32966.302 
  954200      308.216   -1425.6208      555.963    539.67918    171.50936    32966.302 
  954300    289.58018   -1425.1336    546.36459    445.35448   -153.03077    32966.302 
  954400    300.23996    -1409.405    561.50193    524.96297   -556.31014    32966.302 
  954500    298.55333    -1406.602    556.87792     515.4297   -773.65245    32966.302 
  954600    303.06718   -1384.3169     525.0333    526.51005    308.42315    32966.302 
  954700    296.80589   -1389.2662    560.40886    528.30616   -588.92368    32966.302 
  954800     305.5343   -1409.6648    555.78455    543.19452   -1041.3418    32966.302 
  954900    294.55895   -1392.9879    527.88262    481.78393   -496.90127    32966.302 
  955000    299.72221    -1399.962    547.85034    518.38692   -425.44003    32966.302 
  955100     294.9712   -1407.2468    566.41978    507.94725   -287.19781    32966.302 
  955200    302.03035    -1411.371    557.80939    527.49102   -315.53027    32966.302 
  955300    301.14848   -1383.1154    574.47908    568.38398   -183.97781    32966.302 
  955400      296.261   -1404.0287    570.76301    521.40631    738.78745    32966.302 
  955500    307.18664    -1425.585    559.97549    539.02065    -50.15382    32966.302 
  955600    301.08307   -1443.9503    544.34667    477.11762    398.59805    32966.302 
  955700    305.93774   -1421.8963    548.94781    525.97103    181.89597    32966.302 
  955800    302.82748   -1392.6796    559.77156    551.78962   -240.98957    32966.302 
  955900    303.12017   -1445.9162    546.45918    486.57899   -151.82148    32966.302 
  956000    294.83975   -1388.5447    530.70111    490.32962    840.48747    32966.302 
  956100    304.75872   -1437.8077    563.02864    518.74926    275.55838    32966.302 
  956200    295.42637   -1465.9626    555.74125    440.63419    261.73781    32966.302 
  956300    297.07203   -1432.3982    523.87437    449.85661    1213.5376    32966.302 
  956400    305.68211   -1433.9138    559.03622    522.87296    928.88918    32966.302 
  956500    304.53301   -1425.3839    570.87897    537.99133    519.48565    32966.302 
  956600    294.76448   -1415.8233    569.77582     501.7816    594.95399    32966.302 
  956700    306.80219   -1385.4332    559.97018    577.40917     912.0525    32966.302 
  956800     295.7379    -1410.477    562.83024    504.63328   -131.35045    32966.302 
  956900    305.40202   -1392.6261    546.52616    550.36993    691.48776    32966.302 
  957000    305.20094   -1379.7065    565.81973    581.66362   -141.44262    32966.302 
  957100    295.12572   -1392.1092    537.80832    495.17994    66.533033    32966.302 
  957200    303.89833    -1400.393    591.01244    580.21358   -959.54789    32966.302 
  957300    300.21466   -1361.3049    546.27958    557.72498     -746.324    32966.302 
  957400    307.76879   -1388.5893    534.88843    553.59117   -767.51628    32966.302 
  957500    299.18722   -1403.7739    575.83957    540.11799    87.459069    32966.302 
  957600    294.47897   -1407.8109    550.36985    489.08244    188.84531    32966.302 
  957700    298.57908    -1400.494    567.46888    532.24641   -279.82716    32966.302 
  957800    298.12418    -1423.163    570.80883    510.83732   -202.80391    32966.302 
  957900    294.18518    -1454.853    559.16641    449.49352    695.67831    32966.302 
  958000    299.86092   -1414.2358    557.83013    514.72716    720.16019    32966.302 
  958100    290.53488   -1444.6707    580.64621    464.46448   -29.628918    32966.302 
  958200    287.79541   -1402.1083    570.59098    484.44521   -454.46433    32966.302 
  958300     296.9133    -1388.623    531.62457    500.65626    294.46877    32966.302 
  958400    300.86432   -1426.4433    557.36923    506.64686    -140.5887    32966.302 
  958500    296.83453   -1420.1871    551.98962    489.09696   -73.828066    32966.302 
  958600    294.77438   -1390.2444    550.54618    508.17606   -598.41761    32966.302 
  958700     301.6788   -1430.7475    555.04614    503.74384   -182.14949    32966.302 
  958800    300.36961   -1420.8291    544.92576    497.55553    407.75693    32966.302 
  958900     290.6323   -1427.0569    555.01938     456.8969    601.12348    32966.302 
  959000    295.54201   -1392.3494    567.73739     526.7723    467.38661    32966.302 
  959100    300.78569   -1385.3536    564.52749     554.5353    594.73973    32966.302 
  959200    308.12297    -1423.149    533.18694    518.94948     -258.887    32966.302 
  959300    297.46109   -1396.4764    552.74351    516.42654   -125.40285    32966.302 
  959400    302.56356     -1429.33    561.68732     515.8481   -491.76161    32966.302 
  959500    301.45526   -1356.5503    560.13131    582.00409    265.57856    32966.302 
  959600    289.39465   -1349.0077    579.14612    553.41362    101.34971    32966.302 
  959700    306.61392   -1422.6221    555.07945     534.4687    289.45163    32966.302 
  959800    299.36436   -1376.9698    568.58571    560.47818    261.30844    32966.302 
  959900    296.53687   -1410.0353    574.98229    520.88041   -589.18524    32966.302 
  960000    302.58339   -1416.2096    524.41849    491.79035    179.28037    32966.302 
  960100    293.01519   -1431.9831    552.27449    460.12167    476.15839    32966.302 
  960200    290.83258   -1426.7618    549.14566    452.23403   -68.855977    32966.302 
  960300    293.22804   -1439.9787    552.87198    453.69691   -155.39436    32966.302 
  960400    299.91528   -1426.5839    564.36097    509.15844   -344.88989    32966.302 
  960500    304.34092   -1419.8685     543.8012    515.55056     344.0772    32966.302 
  960600    303.91473   -1431.3838    550.85494    509.14028    499.03299    32966.302 
  960700    297.95564   -1467.4099    552.24746    447.25844   -56.126782    32966.302 
  960800    301.45861   -1470.1003    542.14722     450.4853   -213.60992    32966.302 
  960900    300.37722   -1441.1941    548.06108    480.36066   -106.55726    32966.302 
  961000    297.30585   -1451.6499    541.65518    449.45487    44.452285    32966.302 
  961100    298.73103   -1424.8789    573.27765    514.36511   -195.06458    32966.302 
  961200    304.07526   -1424.3187    531.52984    497.61434    -141.3967    32966.302 
  961300    299.01458   -1431.1157    572.54068    508.68783     141.8838    32966.302 
  961400    288.03954    -1450.676    537.15242     403.5552    140.56343    32966.302 
  961500    298.60463   -1417.0644    549.86394    498.18785   -217.35739    32966.302 
  961600    309.22545    -1437.914    532.69965    508.73842     602.9535    32966.302 
  961700    298.31924   -1396.5119    565.05926    532.63078   -143.88917    32966.302 
  961800     294.7052   -1413.2861    557.83409    492.10599    146.75406    32966.302 
  961900    316.85437    -1480.109    546.49671    515.22416    260.34423    32966.302 
  962000    293.22332   -1461.1427    541.06452    420.70379    337.91678    32966.302 
  962100     300.6243   -1441.7222    544.51294     477.4142    342.06834    32966.302 
  962200    299.72114    -1444.354    569.46159     495.6013    205.92752    32966.302 
  962300    306.02969   -1465.5772    564.12308     497.8858   -149.58696    32966.302 
  962400    297.67615   -1478.7094    553.18805    435.62148   -227.07448    32966.302 
  962500    303.14124    -1501.236    533.67596    418.57223    410.29922    32966.302 
  962600    302.11852   -1472.2544    556.21788    465.41929    476.69985    32966.302 
  962700     295.1908   -1466.7121    543.69736     426.7637   -231.38862    32966.302 
  962800    298.56481    -1461.348    552.15359    456.01191    515.66252    32966.302 
  962900    307.77818   -1456.3779    553.62407    504.58118    348.71639    32966.302 
  963000    295.70594    -1472.745    553.45801    432.84694    9.0807713    32966.302 
  963100    301.23739   -1476.2739    537.81717    438.97006   -22.814246    32966.302 
  963200    303.70812   -1473.2658    541.59781     457.0564    266.23638    32966.302 
  963300    287.82468    -1442.697    550.78208    424.18151   -428.22195    32966.302 
  963400    293.74714   -1464.9908     553.8147    432.00104    201.40055    32966.302 
  963500    294.18968   -1436.4092    563.05445    471.84603   -52.603623    32966.302 
  963600    301.60728   -1431.3469    553.26625    501.03755     -342.616    32966.302 
  963700    291.83475   -1468.1739    548.87667    415.13539   -179.59089    32966.302 
  963800    303.43656   -1417.1454    541.09198    511.42927    282.84058    32966.302 
  963900    299.94667   -1414.6198    561.65256    518.55769   -316.96651    32966.302 
  964000    305.67192   -1398.9065    548.74654     547.5441   -480.58287    32966.302 
  964100    300.11821   -1403.9905    556.12283    524.44164   -191.52862    32966.302 
  964200    299.60439   -1433.3004    551.01135    487.67082    654.32078    32966.302 
  964300    307.39134   -1468.4731    537.13879     474.2318   -379.82231    32966.302 
  964400    300.14182   -1472.4973    543.80528    443.72531    37.779536    32966.302 
  964500    306.10228   -1510.1833    537.98016     427.4687    41.121009    32966.302 
  964600    296.17633   -1441.3619    545.10134    458.02428   -313.29435    32966.302 
  964700    308.68681   -1426.0815    502.58584    487.99414   -204.86828    32966.302 
  964800    306.89921   -1459.6789    548.17096    491.80785    170.25316    32966.302 
  964900    292.15259   -1486.8001    534.56332    383.64927    173.23814    32966.302 
  965000    299.16351   -1440.3908    578.71178    506.26489    431.43674    32966.302 
  965100    307.58564   -1438.9446    539.58901    507.09905    463.00032    32966.302 
  965200     300.1415   -1468.8192    543.98178    447.57841    628.29583    32966.302 
  965300    306.79049   -1466.8547    553.17005    489.13412      307.003    32966.302 
  965400    300.49234   -1450.4417    557.01705    480.59545    1284.2508    32966.302 
  965500    299.69569   -1479.7441    580.08365    470.71687    818.59569    32966.302 
  965600     303.0493    -1484.609    571.40225    472.50509    554.15574    32966.302 
  965700    297.70599   -1463.6355    538.79162    436.43536    1114.9278    32966.302 
  965800    302.18066   -1461.2956    542.82975    463.27418    515.54495    32966.302 
  965900    297.83534   -1461.8438    571.39554    471.42247    152.80558    32966.302 
  966000    294.48228   -1522.8244    520.49316    344.20737   -293.84385    32966.302 
  966100    298.25251   -1508.9762    544.77062    399.57273    540.28024    32966.302 
  966200    297.40268   -1473.7897    534.10213     420.2048    313.67196    32966.302 
  966300    295.18475   -1434.6872    559.35363    474.41723   -131.95496    32966.302 
  966400    297.06351   -1466.9714    561.18258    452.55267   -867.89989    32966.302 
  966500    305.31558   -1412.9259    539.11809    522.26683   -439.65566    32966.302 
  966600    297.06398   -1430.0243    545.66727    473.98664   -1318.3566    32966.302 
  966700    294.58098   -1519.6376    531.49243     358.8448   -1442.6495    32966.302 
  966800    301.24212   -1494.5976    537.50259    420.35344   -1033.6871    32966.302 
  966900    293.96084   -1422.4696    537.49723    459.18193   -842.96704    32966.302 
  967000    309.35645   -1447.9851    562.09149    528.65816   -745.20067    32966.302 
  967100    310.89056   -1447.9499    570.70362    544.32023   -813.74217    32966.302 
  967200    300.86848   -1383.4065    571.55013    563.88363     312.5615    32966.302 
  967300    301.85374   -1437.4794    581.25602    524.02174    199.51507    32966.302 
  967400    302.03138   -1403.1763    543.96507    521.84621   -322.35245    32966.302 
  967500    311.13398   -1399.4756    576.45334    599.65734   -126.52143    32966.302 
  967600      289.377   -1408.4467    570.06741    484.81521   -178.49927    32966.302 
  967700    292.74598   -1390.9364    552.00435    499.66728   -18.270923    32966.302 
  967800    301.22465   -1459.1935    563.30343     481.4785    220.52641    32966.302 
  967900    296.49564   -1446.1537    583.40949    493.00063   -188.22213    32966.302 
  968000    294.71493   -1403.1584    580.13944    524.58348   -591.27918    32966.302 
  968100    292.87316   -1409.0502    567.42703    497.55766   -706.67645    32966.302 
  968200    307.47711   -1438.3498    557.61724    525.22574    9.0394506    32966.302 
  968300    307.61904   -1449.5086    569.79421    526.89295   -498.22726    32966.302 
  968400    296.73105   -1469.0219    562.72607    450.52543   -561.31728    32966.302 
  968500    305.15696   -1468.5941    573.48089     500.2361   -303.29834    32966.302 
  968600    295.60663   -1441.3465    543.96088    454.29416    703.40588    32966.302 
  968700    294.13619   -1428.9539    594.39508    510.39738    491.86296    32966.302 
  968800    308.11294   -1450.9778    540.29118     498.1791    456.73035    32966.302 
  968900    307.49748   -1472.8402    567.11087    500.32221   -101.11966    32966.302 
  969000    300.54966   -1472.9609    580.43475    481.75598   -417.16819    32966.302 
  969100    298.83059   -1416.1021    563.05885    513.37837    242.59041    32966.302 
  969200    292.49802   -1396.3614    513.51476     454.6189   -135.33365    32966.302 
  969300    302.76974   -1462.9576    577.25297    498.72893   -1048.0275    32966.302 
  969400    286.96386   -1481.2832    544.09891    374.97593   -1763.7975    32966.302 
  969500    309.53211   -1455.6595    547.63211    507.32757    357.58324    32966.302 
  969600    301.29574   -1439.4158    568.13056    506.40843    403.65288    32966.302 
  969700    301.38088   -1477.9051    559.25016    459.42804   -932.56206    32966.302 
  969800    305.99357   -1502.6985    557.95477    454.43105    51.353113    32966.302 
  969900     299.9749   -1451.9096    558.56985    478.31423    853.55011    32966.302 
  970000     305.5529   -1474.2591    560.56383    483.46452    137.01005    32966.302 
  970100    301.85637    -1429.676    561.30275    511.88389    546.26607    32966.302 
  970200    305.81498   -1446.3703    574.09426    526.08208    51.573095    32966.302 
  970300    288.13588   -1460.8748    571.14887    427.79346   -665.52147    32966.302 
  970400    303.34684   -1462.4397    551.14604    475.77872    298.64896    32966.302 
  970500    297.47497    -1460.379    555.59608    455.43996    611.61181    32966.302 
  970600    304.13432   -1467.4144    555.03225    478.29106    23.949476    32966.302 
  970700    297.94504   -1453.5526    564.80463    473.62438   -227.97879    32966.302 
  970800    300.79936   -1450.6913    553.39691    478.12946   -105.88235    32966.302 
  970900    295.44049   -1452.2754    561.06012    459.70481    294.69879    32966.302 
  971000    304.52836   -1431.0785    591.06713    552.46365   -664.22329    32966.302 
  971100    292.51396   -1450.9035    545.67522    432.31015   -323.55212    32966.302 
  971200    307.70761   -1471.3606    576.29882    511.95048   -551.03539    32966.302 
  971300    301.99433   -1457.1945     572.5494    496.24289   -945.35169    32966.302 
  971400    308.38706   -1419.7576    566.07656    556.43809   -419.26246    32966.302 
  971500    304.13143   -1424.9611    561.19807    526.89696     -352.203    32966.302 
  971600     295.3424   -1424.5658    587.75183    513.65767   -621.60721    32966.302 
  971700    301.86809   -1422.8888    571.15408    528.57605   -1216.2841    32966.302 
  971800    298.26675   -1459.2071    546.50004    451.13637   -168.72028    32966.302 
  971900    298.16396   -1430.8739    575.34941    507.84891   -322.17854    32966.302 
  972000    297.72176   -1455.0352    573.45674    479.77299   -1202.2628    32966.302 
  972100    300.05425   -1468.5315     541.1815    444.66686   -439.52881    32966.302 
  972200    302.66555   -1476.0308    568.02707    475.95344    132.46426    32966.302 
  972300     295.0534   -1451.1528    533.38606    431.38339    397.58152    32966.302 
  972400    299.85418    -1511.131    530.91085    390.88183    38.356491    32966.302 
  972500    306.12015   -1513.4179    545.71095    432.04657    365.02784    32966.302 
  972600    303.49375   -1441.3757    572.89291    519.26142   -191.38917    32966.302 
  972700    306.40174   -1456.5896    562.96573    507.41726    605.99887    32966.302 
  972800    295.56706   -1494.2384    551.83854    409.09907    1204.3477    32966.302 
  972900    302.47469   -1468.7597    551.81931    466.14409    336.12239    32966.302 
  973000    300.34963   -1455.8295    584.92912    502.46706    556.23253    32966.302 
  973100    301.46191   -1468.5143    577.41709    487.35629    35.138183    32966.302 
  973200    295.69562   -1443.2096     541.7896    450.66678    922.92094    32966.302 
  973300    303.09983   -1462.0474    585.16323    509.05878    784.63342    32966.302 
  973400    306.95431   -1504.3563    572.28174    471.49324   -622.69735    32966.302 
  973500    303.97375   -1441.2179    578.51344     527.2345   -44.049772    32966.302 
  973600    288.82155   -1471.6129    546.95727    395.99902    673.65904    32966.302 
  973700    288.65829   -1478.0999    572.84332    414.65148   -147.49176    32966.302 
  973800    296.70116   -1464.0087    542.95851    435.63441    275.82387    32966.302 
  973900    298.31305   -1502.2888    584.99813    446.76444   -619.86573    32966.302 
  974000    306.04119   -1500.8794    577.17416    475.68726   -381.31097    32966.302 
  974100    297.37392   -1455.6087    554.10886    458.26106    744.99167    32966.302 
  974200    301.68538   -1453.5735       559.54    485.44176    95.431958    32966.302 
  974300     296.6913   -1465.6873    558.47622    449.42842   -523.78264    32966.302 
  974400    292.12231   -1511.5584    570.07414    394.26331   -665.00535    32966.302 
  974500    296.00536   -1482.1961    596.65337     467.9603   -104.42149    32966.302 
  974600    302.72968    -1456.394    528.91449    456.77096    649.31212    32966.302 
  974700    298.34604   -1485.7052    546.15953    424.66033    654.02182    32966.302 
  974800     301.6548   -1487.0832     578.7082    470.96045    1129.7337    32966.302 
  974900    309.87679    -1469.029    594.75088    542.65291     527.3342    32966.302 
  975000    296.36932   -1477.2357    543.63359    421.56515    169.18257    32966.302 
  975100    300.71994   -1443.3474    541.82301    473.53641    671.59582    32966.302 
  975200    299.81714   -1447.2533    560.49755    484.17696   -397.06199    32966.302 
  975300     305.5477   -1432.3527    587.30373    552.08698   -280.08193    32966.302 
  975400    295.23933   -1415.8386    550.03924    484.20094   -191.74226    32966.302 
  975500    296.13195   -1430.7331    571.13299    494.48173   -607.37406    32966.302 
  975600    301.16748    -1422.311    592.07573    546.87185   -1494.6857    32966.302 
  975700     308.7369   -1444.9936     526.2705    492.99567   -815.81538    32966.302 
  975800    297.40779   -1487.1374    552.97212    425.75045   -1157.3629    32966.302 
  975900    284.19816   -1460.4764    560.01644    399.05395   -1275.1515    32966.302 
  976000    296.81134   -1447.7058    574.70524    484.18784   -550.71078    32966.302 
  976100    303.28853   -1410.5147    549.23005    525.52116   -62.760291    32966.302 
  976200    294.84747   -1482.6604    565.33996    430.88808   -385.85264    32966.302 
  976300    299.57127   -1465.4782    587.13502    491.46516   -101.57713    32966.302 
  976400    309.86732   -1464.3017     558.9759    511.56192    513.16475    32966.302 
  976500    301.94148   -1478.0256    531.20203    433.82274   -220.78881    32966.302 
  976600    301.11668    -1435.864    597.71884    538.72974   -272.41372    32966.302 
  976700    296.29308   -1454.7565    557.55471    457.61686    -243.4769    32966.302 
  976800    299.41875   -1457.2504    546.60767    458.46824    291.38987    32966.302 
  976900    303.38838   -1450.7113    579.31614    515.86721    163.38267    32966.302 
  977000    284.40338   -1461.2917    572.56231    411.72287    712.84885    32966.302 
  977100    298.14729   -1492.4289    531.08437    401.95265    572.33073    32966.302 
  977200    305.99203   -1500.1679    573.16971     472.1695    421.58974    32966.302 
  977300    294.70632   -1453.1077    559.68393    454.13933    287.71335    32966.302 
  977400    306.13742   -1465.5613    558.12867    492.39987    935.76391    32966.302 
  977500     291.1687   -1449.5588    587.96418     469.7925    725.14349    32966.302 
  977600    299.14046    -1444.248    568.42831     492.0188     347.2939    32966.302 
  977700    315.45322    -1464.447    558.80303    536.78558    573.03897    32966.302 
  977800    304.67515   -1431.5852    545.83886    507.39986    609.69443    32966.302 
  977900    295.11154    -1415.731    560.53584     494.2208    59.418038    32966.302 
  978000    310.09128   -1458.2035     567.0742    526.78247    478.09462    32966.302 
  978100     299.8888   -1434.6676     535.2059    471.79858   -521.01272    32966.302 
  978200    295.90121   -1475.4289    528.91725    406.51513   -147.88267    32966.302 
  978300    305.92806   -1396.1913    575.08009    577.76398    560.29759    32966.302 
  978400    310.82528     -1423.56    574.21232    571.92038    565.13118    32966.302 
  978500    294.37863   -1431.5184    524.73692    439.28329   -22.461623    32966.302 
  978600    293.16449    -1433.474    574.67125    481.71028   -574.92771    32966.302 
  978700    290.45174   -1452.8504    567.13491    442.39325   -279.27921    32966.302 
  978800     294.5433   -1449.5887    530.04307    427.27209    340.55774    32966.302 
  978900    299.37078   -1469.7013    565.42576    464.61615   -161.71966    32966.302 
  979000    304.94646   -1398.6171    559.93938    555.70906    260.85683    32966.302 
  979100    303.64821   -1364.6893    561.01717    584.77836    334.34471    32966.302 
  979200    295.28553   -1405.9686    570.94496    515.18795    703.37566    32966.302 
  979300    290.97534   -1435.3461    547.75928    442.91615    12.405017    32966.302 
  979400    311.31991   -1380.4484    546.88557    589.96692   -11.843213    32966.302 
  979500    304.85057   -1408.5838    560.55529    545.91979   -674.37555    32966.302 
  979600    294.92933   -1406.7781    558.41715    500.22187   -167.36276    32966.302 
  979700    303.72779   -1437.6012    529.16485    480.37802    -263.0796    32966.302 
  979800    302.87123   -1447.5629    575.79923    513.13401   -583.90237    32966.302 
  979900     297.7828   -1461.5091     551.4311    451.55255   -536.57512    32966.302 
  980000    295.81856   -1394.3392    535.37415     493.6839   -7.1312457    32966.302 
  980100     293.9013   -1397.9651    567.52805    513.44502    365.24692    32966.302 
  980200     296.1781   -1456.5438     554.3084    452.05751     382.2819    32966.302 
  980300    309.82353   -1420.7636    557.39582    553.31972    32.263191    32966.302 
  980400    296.72004    -1396.571    546.64151    506.84146    283.21913    32966.302 
  980500     301.4643   -1480.3307    575.39697    473.53067   -782.28585    32966.302 
  980600    308.58923   -1439.5405    550.62421    522.12733   -583.45286    32966.302 
  980700    301.86119   -1394.0565    551.38131    537.60401    -169.3617    32966.302 
  980800    294.98333   -1456.8172     574.3784    466.39098   -640.15511    32966.302 
  980900    300.44405   -1421.1135    549.41425    502.09994   -399.30978    32966.302 
  981000    306.17886   -1391.5909    558.27524    566.70639    411.04347    32966.302 
  981100    295.45013   -1433.0543    571.77837    489.68835   -50.492894    32966.302 
  981200    305.50004   -1441.2673    558.90321      514.554    33.071994    32966.302 
  981300    295.70197   -1422.8825    551.07219    480.30547    389.66988    32966.302 
  981400    302.37865   -1427.7122    566.20746    521.14052    645.49953    32966.302 
  981500    292.95972     -1422.92    581.90248    498.55915   -230.28793    32966.302 
  981600    305.85687   -1411.1175     565.5212    552.95337    450.16203    32966.302 
  981700    297.48776   -1409.0327    568.70918    519.95787    -747.0932    32966.302 
  981800    308.15029   -1408.8776     539.0395    539.19835    354.12403    32966.302 
  981900    298.56976   -1391.5004    582.05399    555.78253    65.793664    32966.302 
  982000    293.96367   -1383.0168    572.31807    533.46857    625.88557    32966.302 
  982100    309.84195   -1405.0947    564.35139    576.02837    225.38444    32966.302 
  982200     311.7633   -1408.4948    579.89603    596.95846    321.75107    32966.302 
  982300    297.63719   -1410.1341    606.76153    557.59207    558.01869    32966.302 
  982400    293.96875   -1410.8457    589.97176    523.31655    870.60151    32966.302 
  982500    300.35466   -1430.9218    577.93192    520.40063    751.18104    32966.302 
  982600    300.80757   -1435.5331    561.84062    501.76896    237.07764    32966.302 
  982700    299.65012   -1442.3558    576.04873    503.86192     273.5339    32966.302 
  982800    298.22649   -1360.9402    561.63253    564.35167    165.99249    32966.302 
  982900    311.49358   -1402.7705    582.44451    603.99795    355.53897    32966.302 
  983000    300.56409   -1389.8724    551.71798    536.19373    388.23458    32966.302 
  983100    305.93945   -1422.6536    583.43983     559.7135    218.53751    32966.302 
  983200    301.44157   -1401.6297    580.82157    557.55229   -41.554107    32966.302 
  983300    305.43507   -1422.3045    542.09307    516.40953    181.69385    32966.302 
  983400    284.71796   -1434.2828    553.23435    420.84223    176.29494    32966.302 
  983500     304.8856   -1468.0655    564.37921    490.42218   -191.74906    32966.302 
  983600    304.92769    -1450.243    563.95644    508.01442   -50.067675    32966.302 
  983700     298.8925   -1411.9323    548.45512    503.22747    38.688285    32966.302 
  983800    309.84307   -1438.2842    587.18734       565.68    1.4256047    32966.302 
  983900    296.34433   -1437.6954    578.56727    495.92487   -906.12601    32966.302 
  984000    305.66553    -1454.389      560.448    503.73381    20.239641    32966.302 
  984100    301.32261   -1426.5696    589.20216    540.44907   -512.14498    32966.302 
  984200    300.50965   -1446.9847    576.59037    503.70491   -730.29857    32966.302 
  984300    309.79412   -1426.5955    568.94314    558.90067      -45.056    32966.302 
  984400    312.27917   -1436.4647    561.96224    553.41355     376.9161    32966.302 
  984500    303.25953   -1427.0694     584.7821    544.38585   -48.083185    32966.302 
  984600    297.53254   -1486.9996    552.44818    425.93474    41.900583    32966.302 
  984700    310.03193   -1464.7875    562.75245    515.60537    494.04366    32966.302 
  984800     300.7073   -1475.2394    565.36177    465.12537   -344.87909    32966.302 
  984900    303.88044    -1458.943    572.48783    503.05717   -604.79334    32966.302 
  985000    301.92719   -1428.1066    569.30143     521.7758   -665.57112    32966.302 
  985100    297.55259   -1432.2105    556.92056    485.28794   -897.44396    32966.302 
  985200    298.85649   -1420.9329    540.73607    486.34319   -1420.0732    32966.302 
  985300    304.56355   -1450.4939    562.61506    504.75701   -966.63169    32966.302 
  985400    305.31569   -1444.4949    599.84729    551.42748   -337.49042    32966.302 
  985500    302.28285   -1438.1351    589.50582    533.57802   -129.13574    32966.302 
  985600    308.38261   -1455.2046    565.88805    520.78223    413.72067    32966.302 
  985700    301.96457   -1426.9697     548.2014    501.98356    248.43679    32966.302 
  985800    293.63622   -1436.7443    600.16517    506.09087    132.13072    32966.302 
  985900    305.36928   -1451.1037    584.91111    530.12752   -42.126379    32966.302 
  986000    292.94929    -1435.505    570.59864    474.62261    396.51628    32966.302 
  986100    301.74176   -1382.2391    604.05035    601.54437    567.02029    32966.302 
  986200    300.86442   -1435.4288    554.26954    494.56211    326.65214    32966.302 
  986300    296.84347   -1475.0503    562.50195    444.78698   -96.512936    32966.302 
  986400    312.84948   -1419.4869    590.23501    601.27192    -123.0071    32966.302 
  986500    305.49354   -1441.4558    559.02224     514.4548   -213.24176    32966.302 
  986600    304.11645   -1422.4845     575.8162    543.92321    -452.9721    32966.302 
  986700    304.10884   -1450.1143      544.599    485.04137   -63.542564    32966.302 
  986800    300.52036   -1420.8145    611.26825    564.60191    -119.0232    32966.302 
  986900    299.93339   -1422.9394    585.08222    533.60699    214.35754    32966.302 
  987000    293.79051   -1378.7153    584.47426    549.13452    31.168288    32966.302 
  987100    297.45987   -1411.1203    597.96922    547.00276    288.85052    32966.302 
  987200    295.43526   -1436.8134    588.24637    502.32922    404.04307    32966.302 
  987300    302.78714    -1429.925    565.20957    519.79778    510.99192    32966.302 
  987400    294.16191   -1435.0638    579.55596     489.5659    807.83643    32966.302 
  987500    295.99318   -1448.5692    573.85388    478.73209    901.59792    32966.302 
  987600    295.75337   -1428.7616    594.93567    518.52492    965.67325    32966.302 
  987700    302.06059      -1438.2    581.73922    524.73019    323.77586    32966.302 
  987800    309.92653   -1412.5924    599.00435    603.57041    185.85825    32966.302 
  987900    297.72853    -1426.885     578.7737    513.27103   -629.13296    32966.302 
  988000    292.24904   -1371.4248    585.02095    549.92316   -119.54113    32966.302 
  988100    300.52475   -1376.3975    563.74369    561.51444   -544.00372    32966.302 
  988200    302.86125   -1462.0909    603.21713    525.97827   -262.91547    32966.302 
  988300    299.57004   -1461.9606    566.58634    474.42845    562.53816    32966.302 
  988400     295.5853   -1475.0024    588.55384    465.13379    436.19596    32966.302 
  988500    295.47798   -1462.6555    573.05449    461.49058   -78.935563    32966.302 
  988600    307.59738   -1438.6073    560.42907    528.33005    -828.2505    32966.302 
  988700    303.08799   -1434.4796    557.22917    508.63835   -520.49423    32966.302 
  988800    304.86247   -1420.8684    566.24693    539.38132   -1379.8503    32966.302 
  988900    292.33801   -1396.1333    586.62625    527.22681   -1352.3687    32966.302 
  989000    308.54086   -1418.8523    583.68962    575.65976   -1627.1143    32966.302 
  989100    300.36544   -1372.0125    628.63307    630.06036   -1581.1222    32966.302 
  989200    291.74102   -1373.7437    570.74299    531.00333    -754.6777    32966.302 
  989300    299.99473   -1406.3231    573.13195    538.55348   -467.75555    32966.302 
  989400     306.4184   -1401.0729    563.46334    563.50775   -277.66127    32966.302 
  989500    300.98801   -1387.2644    594.93935    583.96145    -965.9574    32966.302 
  989600    300.33363   -1409.0186    583.91792     548.1936    20.010197    32966.302 
  989700    296.59807   -1391.2328    569.82731    534.80777   -629.16934    32966.302 
  989800    305.11632   -1437.8419    567.75789    525.07947   -463.19173    32966.302 
  989900    305.65641    -1436.272    585.37213    546.73324   -557.47844    32966.302 
  990000    302.92365    -1432.171    584.50286    537.46924   -380.08303    32966.302 
  990100    292.35272   -1423.1122     599.6202     513.3091   -511.01561    32966.302 
  990200    299.55445   -1440.3576    544.22456    473.59838   -71.081386    32966.302 
  990300    311.31697   -1455.5815    573.43815    541.37299   -1179.1909    32966.302 
  990400    298.75403   -1471.5058    580.80818    475.37387   -563.20498    32966.302 
  990500    310.32362   -1436.5839    554.05632    536.44661   -332.34247    32966.302 
  990600     290.7472   -1439.0661     587.6351     478.0288    159.82145    32966.302 
  990700    296.17662   -1437.3348    599.54894    516.50035   -350.15017    32966.302 
  990800    302.43195   -1442.4205    551.21393    491.68244    431.58008    32966.302 
  990900    300.16198   -1434.3224    571.21878    509.40581    184.84195    32966.302 
  991000    302.65579   -1467.0955     573.0353    489.85234    24.935661    32966.302 
  991100    300.17829   -1447.5761    572.24525    497.25314    208.08365    32966.302 
  991200    299.33852   -1439.0021    586.08359    515.82564    252.69016    32966.302 
  991300     300.5603    -1467.851    587.15312    493.63294    92.759013    32966.302 
  991400    308.04946      -1461.7    546.90152    493.77702    40.738608    32966.302 
  991500    306.27457   -1454.1726    549.39854    495.68554    418.63559    32966.302 
  991600    308.25442   -1449.4445    582.48562    542.55375   -144.42716    32966.302 
  991700    289.96074   -1438.9814    565.90347     452.7857    89.422782    32966.302 
  991800    296.56352   -1433.6754    593.03248    515.41236    65.587945    32966.302 
  991900    298.22781   -1473.0648     573.8595    464.46001   -414.99384    32966.302 
  992000    299.33052   -1452.8879    574.51563    490.33527    642.19365    32966.302 
  992100    290.87943   -1447.1611     560.8146    443.71795    340.73119    32966.302 
  992200    299.30133   -1441.0807     544.6796      472.173     481.5671    32966.302 
  992300    290.84085   -1473.2587    590.09302    446.72238    470.84597    32966.302 
  992400    297.22908    -1488.402    583.14103    453.83765    50.953956    32966.302 
  992500    296.37932    -1455.419     556.1543    455.94827   -112.40447    32966.302 
  992600    296.74579    -1457.436    559.97285    459.42548   -219.27051    32966.302 
  992700    308.50953   -1484.8621    565.38245     491.1995   -318.67809    32966.302 
  992800    306.21814   -1491.5431    596.05004    504.70859     18.86557    32966.302 
  992900    302.91032   -1432.8708    585.50584    537.71141    170.64413    32966.302 
  993000    294.07145    -1402.712    585.97559     527.9237    112.31658    32966.302 
  993100    301.54978   -1425.1033    594.73769    548.48966    533.87585    32966.302 
  993200    305.59422   -1435.0021    578.09301    540.43964    23.766464    32966.302 
  993300    297.60415    -1477.984    538.62218     421.4518   -200.51912    32966.302 
  993400    294.86957   -1463.8753     563.6145    448.04877   -633.93784    32966.302 
  993500    309.47453   -1406.3533    587.36108    596.09941   -396.72443    32966.302 
  993600     303.9845   -1411.2137    559.40984    538.18431   -135.06892    32966.302 
  993700    309.47125   -1456.0445    538.37867    497.41085    30.638385    32966.302 
  993800    299.21828   -1492.8976    551.99331    427.28999    341.72173    32966.302 
  993900    301.27007   -1484.8136    546.28713    439.04975    368.06114    32966.302 
  994000    285.97208   -1489.5407     555.0805    373.16507    458.00528    32966.302 
  994100    291.89827   -1466.5512    591.47313    459.64507   -54.734867    32966.302 
  994200    297.61141   -1462.6809    568.91459    467.08055    203.36888    32966.302 
  994300    300.23086    -1430.621    580.14244    522.34585    588.27656    32966.302 
  994400    291.82818   -1422.0693    576.30037    488.63373    493.89516    32966.302 
  994500    283.73976   -1448.5104    595.26063    444.16803    587.18382    32966.302 
  994600    292.46153   -1442.6245    604.37807    499.05221    920.80471    32966.302 
  994700    299.07992   -1468.5112    590.06485    489.11529    1633.1042    32966.302 
  994800    306.32303   -1432.4977    561.86935    530.05295    1777.5182    32966.302 
  994900    297.21538   -1434.5938    583.88863    508.33077    562.55953    32966.302 
  995000     294.7824   -1447.3431    571.73295    472.30085    902.34464    32966.302 
  995100     297.4943   -1442.5542    565.25487    483.01195   -457.33191    32966.302 
  995200    292.32359   -1430.5336     591.3007    497.43497   -607.78645    32966.302 
  995300    305.15442   -1418.2035    563.37708    540.51132    94.515027    32966.302 
  995400    302.32298   -1407.3437    570.45634    545.50345   -371.31415    32966.302 
  995500    303.31944   -1459.5805    560.65113    488.01777   -694.89675    32966.302 
  995600    306.75084   -1437.2491    577.48932    542.87766   -514.23252    32966.302 
  995700    286.32261    -1420.306    555.64544    444.56748   -336.67833    32966.302 
  995800    302.94248   -1422.6511    564.34644    526.91885    213.06984    32966.302 
  995900    292.23507     -1420.96    567.78113    483.08428   -90.737446    32966.302 
  996000    310.36591   -1409.3875    571.66357    581.44368    366.16443    32966.302 
  996100    307.45582    -1446.847    558.66691    517.68088   -44.238682    32966.302 
  996200    293.75603    -1452.589    611.51372    502.14256   -577.18456    32966.302 
  996300    303.97467    -1470.235    568.86897    488.57723   -261.07752    32966.302 
  996400    295.66774   -1395.1084    581.87094    538.72178   -101.34473    32966.302 
  996500    287.54038   -1380.2189    584.21285    518.79032   -1073.8408    32966.302 
  996600    305.15704   -1383.1233    546.14951    558.37582    91.140042    32966.302 
  996700    296.70139   -1410.5602    581.02743    527.15291    13.719666    32966.302 
  996800    294.81346   -1427.6633    601.24585    521.63558      1063.16    32966.302 
  996900    304.22937   -1429.3039    602.25687    564.06082    463.38541    32966.302 
  997000     299.9483   -1419.8522    530.39613    482.07634    842.01542    32966.302 
  997100    294.41112   -1457.9915     562.9413    451.16312    1417.3115    32966.302 
  997200     299.6132   -1460.4071    589.70304    499.29607    446.35365    32966.302 
  997300     312.0547   -1414.0809    547.94763    560.75637    1136.3551    32966.302 
  997400    292.18072   -1439.6225     552.3775    448.76964    625.24165    32966.302 
  997500     297.1585   -1434.1163    588.46051       513.12   -348.58293    32966.302 
  997600    304.21402   -1455.8273    557.75687    492.96719   -516.93081    32966.302 
  997700    298.84886   -1470.5595    546.71497     442.6606   -275.85857    32966.302 
  997800    306.43416    -1443.078    578.56367    536.67501    -299.0062    32966.302 
  997900    301.02041    -1399.396     566.0805    543.11912   -249.57071    32966.302 
  998000    300.76854   -1453.3502    569.58103    491.51382     85.88628    32966.302 
  998100    304.06709   -1418.4385    579.71882     551.6461    532.78691    32966.302 
  998200    294.11932   -1415.2545    544.97025    474.59476    200.91289    32966.302 
  998300    306.11689   -1455.9149    546.79374     490.6175   -354.17061    32966.302 
  998400    309.61796   -1443.8978    562.30026    534.15001    441.95835    32966.302 
  998500    295.83821   -1488.0385    565.53897    430.23925    447.79496    32966.302 
  998600    295.11859   -1462.6877    553.35789    440.11839    30.196106    32966.302 
  998700     296.2884   -1468.3384    570.65865    457.11756    44.094507    32966.302 
  998800    311.43382   -1474.5683    523.65762    473.13998    503.15557    32966.302 
  998900    291.34602   -1496.5035    547.87388    383.56829   -209.67186    32966.302 
  999000    308.99918   -1484.9117    548.73865    476.74505   -581.36259    32966.302 
  999100    308.05161   -1501.7933     558.9108     465.7028    89.568076    32966.302 
  999200    313.87131   -1461.6384    520.42449    493.98233   -14.471205    32966.302 
  999300    289.90373   -1445.6978    578.25348    458.15866   -316.63661    32966.302 
  999400     291.2247   -1457.1266    573.88071     448.3973    247.94649    32966.302 
  999500    290.04964   -1472.1103    529.79201    383.95191    106.00006    32966.302 
  999600    296.31105   -1451.5769    603.62436    506.94827    607.39564    32966.302 
  999700    311.51992   -1449.9258    555.72071    530.23926    829.10482    32966.302 
  999800    294.55196   -1503.5415    557.32057    400.63634    595.24018    32966.302 
  999900    297.78048   -1441.4835     553.1604    473.29678    526.93976    32966.302 
 1000000    307.82654   -1488.2754     551.0778    470.35852   -479.48443    32966.302 
 1000100    291.34549   -1470.7099    579.82923    441.31484   -32.354336    32966.302 
 1000200    299.50102   -1476.9941    545.44098    437.93409    701.88021    32966.302 
 1000300    296.38437    -1493.036    522.94629    385.14637    320.10053    32966.302 
 1000400    305.19624   -1513.5086    569.86779    451.88811   -7.4306106    32966.302 
 1000500    295.17005   -1465.3199    544.07166    428.43532    1.9828104    32966.302 
 1000600    294.91078   -1471.6683    540.32586    417.15556   -260.08826    32966.302 
 1000700    303.91362    -1492.705    582.77023    479.72933    301.73282    32966.302 
 1000800    295.32315   -1520.6254     538.5598    368.31799    361.12276    32966.302 
 1000900    298.56674   -1496.8042    527.38808    395.79902   -133.99058    32966.302 
 1001000    297.63621   -1457.2096    552.08916    455.83979    -165.1128    32966.302 
 1001100    306.92637   -1458.2227    527.04387    472.26117    133.06099    32966.302 
 1001200    286.35401    -1458.429    535.48195    386.42461   -208.43835    32966.302 
 1001300    302.85369   -1491.4561    551.05051    444.41191   -506.61363    32966.302 
 1001400    299.10319   -1498.4088    546.20957     415.4688    -388.1695    32966.302 
 1001500    295.66025   -1507.8061    551.02682    395.14568    42.038691    32966.302 
 1001600     292.9153   -1448.0007    547.13582    438.50871   -5.5998807    32966.302 
 1001700    299.82716   -1510.1751    535.46033    396.26373    368.43772    32966.302 
 1001800    297.57996   -1477.0858    555.86945    439.48659    259.45998    32966.302 
 1001900     310.5801   -1461.5784     527.7744    486.34294    695.44875    32966.302 
 1002000    299.66826   -1429.3577    549.75496    490.64909   -29.223833    32966.302 
 1002100    304.36263   -1418.5344    554.00483    527.18765   -468.76963    32966.302 
 1002200    303.23175   -1448.9619    555.86935    493.45361   -808.66743    32966.302 
 1002300    295.03805   -1455.1533    571.14106    465.06772   -366.84059    32966.302 
 1002400    297.12254   -1411.7605    541.45137    488.30231   -170.50943    32966.302 
 1002500    293.68043   -1448.9035    579.22498    473.19369    532.77768    32966.302 
 1002600     298.6238   -1438.1035    547.27587    474.64837     502.6176    32966.302 
 1002700    300.14179   -1459.9476    540.06281    452.53235    925.54848    32966.302 
 1002800    306.97311   -1493.2925    555.97226    466.33353    49.598446    32966.302 
 1002900     304.0088    -1469.029    555.84388    476.91414    172.85582    32966.302 
 1003000    295.94583   -1406.1396    532.00027    479.09155    713.53922    32966.302 
 1003100    298.72779   -1457.6958    577.18242    485.43813   -371.02746    32966.302 
 1003200    298.99471    -1460.915    547.96975    454.22676   -104.14226    32966.302 
 1003300    312.55494   -1429.1972    554.55886    554.53868    60.599186    32966.302 
 1003400    301.79895   -1369.9096    548.27148    558.35648    847.64922    32966.302 
 1003500    290.72293   -1353.6083    565.91159    541.65213    833.63532    32966.302 
 1003600    308.38967   -1392.7191    549.06163    566.47364    502.84028    32966.302 
 1003700    296.54895   -1417.4375    573.78585    512.33697    453.79031    32966.302 
 1003800    306.98609   -1406.6249    602.62606    599.71424    923.21261    32966.302 
 1003900    288.50015   -1425.0588    540.13873    434.26497    853.10409    32966.302 
 1004000    298.88665   -1444.2992    545.58053    467.95924   -157.12334    32966.302 
 1004100     301.1298   -1457.8698    558.20242    477.26748   -765.47118    32966.302 
 1004200    302.69269   -1393.5548    578.98389    569.51033   -521.47084    32966.302 
 1004300    300.86691   -1406.6063     562.6016    531.72803   -843.35552    32966.302 
 1004400    298.70862   -1418.7501    538.74867    485.86245   -417.88287    32966.302 
 1004500     295.2671   -1471.0814    573.13186     452.1778   -115.23242    32966.302 
 1004600    307.04449   -1442.3482    567.77362    529.40557    9.4111043    32966.302 
 1004700     298.9542   -1465.4994    568.58813    470.07556   -155.63543    32966.302 
 1004800    303.10307    -1453.031     548.1392    481.06597    101.34285    32966.302 
 1004900    309.87832    -1443.321    553.61369     527.2307    -61.09087    32966.302 
 1005000    302.49643   -1440.9495    558.04526    500.27958    365.67725    32966.302 
 1005100    303.54212   -1434.3002    596.77896    550.44406    -21.67679    32966.302 
 1005200    300.50701   -1447.6267    564.81116    491.27157   -62.994245    32966.302 
 1005300    298.96757   -1453.1315    537.44837    451.36482    411.63104    32966.302 
 1005400    287.30554   -1512.6947    569.15809      370.186   -252.01203    32966.302 
 1005500    297.08377   -1486.5339    554.39613    426.29631   -566.67391    32966.302 
 1005600    304.61601   -1451.3626    536.35572    477.86891    432.57102    32966.302 
 1005700    293.41079   -1457.1945    566.72335    451.16801     744.1738    32966.302 
 1005800    293.49489   -1433.3567    564.50316    473.17018    844.11538    32966.302 
 1005900    293.27069   -1444.4791     569.7922    466.31167    326.44258    32966.302 
 1006000    297.67507   -1417.7768    578.54778    521.90889   -117.09472    32966.302 
 1006100    293.88472   -1448.8709     576.4647     471.4001   -146.04556    32966.302 
 1006200    304.68951   -1453.6284    544.07969    483.66316   -273.01198    32966.302 
 1006255    310.98876   -1442.2388    564.81906    544.59585   -360.62323    32966.302 
Loop time of 605.135 on 32 procs for 1000000 steps with 1535 atoms

Performance: 142.778 ns/day, 0.168 hours/ns, 1652.524 timesteps/s
100.0% CPU use with 32 MPI tasks x no OpenMP threads

MPI task timing breakdown:
Section |  min time  |  avg time  |  max time  |%varavg| %total
---------------------------------------------------------------
Pair    | 286.23     | 306.33     | 327.42     |  73.5 | 50.62
Bond    | 1.4311     | 1.8057     | 2.3908     |  13.6 |  0.30
Neigh   | 43.715     | 43.789     | 43.854     |   0.7 |  7.24
Comm    | 218.56     | 239.6      | 259.03     |  82.4 | 39.59
Output  | 0.39396    | 0.41198    | 0.9182     |  14.2 |  0.07
Modify  | 9.7488     | 9.916      | 10.156     |   3.6 |  1.64
Other   |            | 3.28       |            |       |  0.54

Nlocal:        47.9688 ave          82 max          10 min
Histogram: 1 0 4 4 3 11 3 4 0 2
Nghost:        2204.06 ave        2288 max        2122 min
Histogram: 3 4 2 4 0 6 6 2 4 1
Neighs:        6118.53 ave       12037 max         899 min
Histogram: 2 2 2 6 6 6 5 1 0 2

Total # of neighbors = 195793
Ave neighs/atom = 127.55244
Ave special neighs/atom = 2.0899023
Neighbor list builds = 49601
Dangerous builds = 0

# Output the system volume
variable v equal vol
print 'The system volume is $v'
The system volume is 32966.3023923928

# Outputs
variable A equal xhi-xlo
variable B equal yhi-ylo
variable C equal zhi-zlo
variable D equal xy
variable E equal xz
variable F equal yz
print 'Lattice vectors'
Lattice vectors
print '$A 0 0'
32.0644217803115 0 0
print '$D $B 0'
0 32.0644217803115 0
print '$E $F $C'
0 0 32.0644217803115
Total wall time: 0:10:11
