LAMMPS (29 Sep 2021 - Update 1)
# Test LAMMPS input file for single DeFDe

# Initialize simulation

clear

units real
atom_style full
boundary p p p
dielectric 1
special_bonds dreiding

bond_style harmonic
angle_style harmonic
dihedral_style harmonic
improper_style umbrella
pair_style hybrid/overlay hbond/dreiding/lj 4 9.0 11.0 90 lj/cut 8.50000

# Read data file
read_data frag5.dat
Reading data file ...
  triclinic box = (0.0000000 0.0000000 0.0000000) to (15.000000 15.000000 15.000000) with tilt (0.0000000 0.0000000 0.0000000)
  2 by 4 by 4 MPI processor grid
  reading atoms ...
  1504 atoms
  scanning bonds ...
  2 = max bonds/atom
  scanning angles ...
  3 = max angles/atom
  scanning impropers ...
  1 = max impropers/atom
  reading bonds ...
  1003 bonds
  reading angles ...
  503 angles
  reading impropers ...
  1 impropers
Finding 1-2 1-3 1-4 neighbors ...
  special bond factors lj:    0        0        1       
  special bond factors coul:  0        0        1       
     3 = max # of 1-2 neighbors
     2 = max # of 1-3 neighbors
     3 = max # of special neighbors
  special bonds CPU = 0.002 seconds
  read_data CPU = 0.016 seconds

# Dreiding potential information

bond_coeff 1 700 1.165
bond_coeff 2 350 0.935
bond_coeff 3 350 0.98

angle_coeff 1 50 120
angle_coeff 2 50 104.51


improper_coeff 1 40 0

pair_coeff 1 1 lj/cut 0.0957 3.4046
pair_coeff 1 2 lj/cut 0.0860649754545948 3.53100349192691
pair_coeff 1 3 lj/cut 0.0030935416596516 3.29710294046152
pair_coeff 1 4 lj/cut 0.0957 3.4046
pair_coeff 2 2 lj/cut 0.0774 3.6621
pair_coeff 2 3 lj/cut 0.00278208554864871 3.41951536039831
pair_coeff 2 4 lj/cut 0.0860649754545948 3.53100349192691
pair_coeff 3 3 lj/cut 1e-04 3.193
pair_coeff 3 4 lj/cut 0.0030935416596516 3.29710294046152
pair_coeff 4 4 lj/cut 0.0957 3.4046
pair_coeff 1 2 hbond/dreiding/lj 3 j 9.50 2.75 4 9.0 11.0 90
pair_coeff 2 2 hbond/dreiding/lj 3 j 9.50 2.75 4 9.0 11.0 90
pair_coeff 2 4 hbond/dreiding/lj 3 i 9.50 2.75 4 9.0 11.0 90
pair_coeff 1 4 hbond/dreiding/lj 3 j 9.50 2.75 4 9.0 11.0 90
pair_coeff 2 4 hbond/dreiding/lj 3 j 9.50 2.75 4 9.0 11.0 90
pair_coeff 4 4 hbond/dreiding/lj 3 j 9.50 2.75 4 9.0 11.0 90

neighbor 2 bin
neigh_modify every 2 one 10000

# Gemoetric relaxation
fix 1 all box/relax iso 1.0 vmax 0.001
minimize 1.0e-4 1.0e-6 10000 10000
WARNING: Using 'neigh_modify every 1 delay 0 check yes' setting during minimization (../min.cpp:188)
Neighbor list info ...
  update every 1 steps, delay 0 steps, check yes
  max neighbors/atom: 10000, page size: 100000
  master list distance cutoff = 13
  ghost atom cutoff = 13
  binsize = 6.5, bins = 3 3 3
  3 neighbor lists, perpetual/occasional/extra = 3 0 0
  (1) pair hbond/dreiding/lj, perpetual, skip from (3)
      attributes: full, newton on
      pair build: skip
      stencil: none
      bin: none
  (2) pair lj/cut, perpetual, half/full from (3)
      attributes: half, newton on
      pair build: halffull/newton
      stencil: none
      bin: none
  (3) neighbor class addition, perpetual
      attributes: full, newton on
      pair build: full/bin
      stencil: full/bin/3d
      bin: standard
Per MPI rank memory allocation (min/avg/max) = 10.22 | 10.58 | 11.26 Mbytes
Step Temp E_pair E_mol TotEng Press Volume 
       0            0 1.2107732e+17     204.8057 1.2107732e+17 9.8395022e+18         3375 
    5073            0   -1017.4488    18.391409   -999.05742    80.555457    38174.007 
Loop time of 4.77687 on 32 procs for 5073 steps with 1504 atoms

100.0% CPU use with 32 MPI tasks x no OpenMP threads

Minimization stats:
  Stopping criterion = energy tolerance
  Energy initial, next-to-last, final = 
    1.21077320616467e+17   -998.46758164775  -998.549912130753
  Force two-norm initial, final = 2.3764852e+19 95.021054
  Force max component initial, final = 1.4969890e+19 59.192981
  Final line search alpha, max atom move = 1.1747644e-05 0.00069537805
  Iterations, force evaluations = 5073 5076

MPI task timing breakdown:
Section |  min time  |  avg time  |  max time  |%varavg| %total
---------------------------------------------------------------
Pair    | 1.5652     | 2.4733     | 4.0661     |  33.8 | 51.78
Bond    | 0.0076931  | 0.010259   | 0.015823   |   1.8 |  0.21
Neigh   | 0.10471    | 0.1049     | 0.10507    |   0.0 |  2.20
Comm    | 0.26343    | 1.8564     | 2.7675     |  39.0 | 38.86
Output  | 0          | 0          | 0          |   0.0 |  0.00
Modify  | 0          | 0          | 0          |   0.0 |  0.00
Other   |            | 0.332      |            |       |  6.95

Nlocal:        47.0000 ave          74 max          36 min
Histogram: 5 6 9 7 1 1 1 0 0 2
Nghost:        1922.84 ave        1958 max        1879 min
Histogram: 1 1 2 4 4 8 1 5 4 2
Neighs:        4834.31 ave        8010 max        3010 min
Histogram: 2 2 11 6 5 3 1 0 0 2

Total # of neighbors = 154698
Ave neighs/atom = 102.85771
Ave special neighs/atom = 2.0026596
Neighbor list builds = 92
Dangerous builds = 0

# MD simulation
velocity all create 300.0 12345 rot yes dist gaussian
timestep 1.0
fix 2 all nvt temp 300.0 300.0 1

# Compute interaction energy
group WAT molecule <> 2 501
1500 atoms in group WAT
group MOL molecule 1
4 atoms in group MOL

compute w WAT group/group MOL pair yes
fix 3 all ave/time 10 5 100 c_w file outa

# Outputs
thermo 100 # Output thermodynamic data every nth step
#dump mf1 all xyz 10000 mol_*.xyz

# Run
run 1000000
Neighbor list info ...
  update every 2 steps, delay 10 steps, check yes
  max neighbors/atom: 10000, page size: 100000
  master list distance cutoff = 13
  ghost atom cutoff = 13
  binsize = 6.5, bins = 6 6 6
  4 neighbor lists, perpetual/occasional/extra = 3 1 0
  (1) pair hbond/dreiding/lj, perpetual, skip from (4)
      attributes: full, newton on
      pair build: skip
      stencil: none
      bin: none
  (2) pair lj/cut, perpetual, half/full from (4)
      attributes: half, newton on
      pair build: halffull/newton
      stencil: none
      bin: none
  (3) compute group/group, occasional, copy from (2)
      attributes: half, newton on
      pair build: copy
      stencil: none
      bin: none
  (4) neighbor class addition, perpetual
      attributes: full, newton on
      pair build: full/bin
      stencil: full/bin/3d
      bin: standard
Per MPI rank memory allocation (min/avg/max) = 9.070 | 9.095 | 9.425 Mbytes
Step Temp E_pair E_mol TotEng Press Volume 
    5073          300   -1017.4488    18.391409    344.98983    1690.0134    38174.007 
    5100    323.75722    -1024.146    256.31262    682.64998    929.95278    38174.007 
    5200     297.5908   -1055.2666     210.1096    488.09664   -649.02023    38174.007 
    5300    290.32379   -1063.3471    130.81553     368.1647    280.07501    38174.007 
    5400    307.82906   -1110.0391    179.10238    448.18599    273.30237    38174.007 
    5500    301.09932    -1100.373    186.77933    435.37873    405.42175    38174.007 
    5600    300.89484   -1116.6535    177.64976    409.05257    866.40754    38174.007 
    5700    302.46515   -1085.1403    167.56063    437.51179    1277.3963    38174.007 
    5800    298.33714    -1084.618    172.02309    424.00246     1050.151    38174.007 
    5900    309.71464   -1121.5786    174.00432    439.99607    646.91787    38174.007 
    6000     301.9373   -1114.1186    172.67171    411.27971    539.06417    38174.007 
    6100    308.87338   -1129.9868    184.82146    438.63606    400.32709    38174.007 
    6200    300.84531   -1080.5267    194.21437      461.522     359.1063    38174.007 
    6300    294.54643   -1089.5056    190.14377    420.25251     381.8425    38174.007 
    6400    294.98822   -1111.9863    186.24165    395.84908   -24.455228    38174.007 
    6500    292.45785   -1098.9904    188.78336    400.05018    223.04902    38174.007 
    6600    302.93163   -1134.8297    194.94997    417.30162    194.86688    38174.007 
    6700    309.15142   -1089.4007    191.74454    487.39092    451.67873    38174.007 
    6800    292.21976   -1150.2283    202.68294    361.64517     158.6583    38174.007 
    6900     299.3447   -1129.2171    194.94816    406.84251    498.24279    38174.007 
    7000    295.79802   -1118.4697    193.69605    400.44806   -121.95016    38174.007 
    7100    308.95936   -1116.7276    192.69762    460.15658    290.48972    38174.007 
    7200    304.57548   -1122.3989    191.34617    433.49333    370.14828    38174.007 
    7300    298.48569   -1161.2877    199.64746    375.62265    189.00297    38174.007 
    7400    302.79368   -1149.9951    194.29385     400.8621     341.3562    38174.007 
    7500    302.54396   -1165.8465    201.53421     391.1323    443.13994    38174.007 
    7600    295.05623    -1140.397     184.9487    366.45002    515.98895    38174.007 
    7700    292.39425   -1175.8148    191.91773    326.07523    385.87442    38174.007 
    7800    297.30762   -1135.6509    204.49508    400.82911    45.988301    38174.007 
    7900    300.03537   -1073.3536    199.06594    469.91807    287.74654    38174.007 
    8000    307.61747    -1077.637    208.75137    509.28909    632.94451    38174.007 
    8100    289.63984   -1052.3571    204.09807     449.3731    228.79514    38174.007 
    8200    296.49701   -1088.7382    201.86498    441.48005    655.43335    38174.007 
    8300    305.69066   -1076.7148     203.5845    496.41197     176.0174    38174.007 
    8400    306.54027   -1097.7273    214.62762    490.24902    146.77603    38174.007 
    8500    294.52615   -1110.2429    208.07824    417.35885   -230.29205    38174.007 
    8600    300.16951   -1108.5281    203.48857    439.76717   -462.60133    38174.007 
    8700    286.78917   -1139.1083    208.52737     354.2797    -187.3792    38174.007 
    8800     302.6228   -1161.9552    220.49476    414.33741    14.097058    38174.007 
    8900    290.96088   -1124.4914    221.78036    400.83951    360.70174    38174.007 
    9000    299.36977   -1125.1182    196.06863    412.17416    182.25377    38174.007 
    9100    307.17528   -1135.6828    226.23687    466.74776    637.44537    38174.007 
    9200    294.09228    -1126.161    218.94482    410.36359    328.28433    38174.007 
    9300    300.08429   -1129.0991    220.50761    435.83334    276.91282    38174.007 
    9400    300.65159   -1127.8324    210.33933    429.47343    182.73888    38174.007 
    9500    312.62801   -1104.5843    223.47242    519.51084    634.85277    38174.007 
    9600    302.95871   -1110.0148    227.79771    475.08563    1006.0118    38174.007 
    9700    292.13071    -1144.542    217.78943    382.03904    453.24651    38174.007 
    9800    309.13658     -1098.83    234.33306     520.4836    973.77263    38174.007 
    9900    290.99489   -1126.8211    226.23183    403.11367    854.78009    38174.007 
   10000    306.83867    -1150.228    224.03461    448.49211     593.2029    38174.007 
   10100    295.53068   -1178.3056    231.12323     376.8416    513.06461    38174.007 
   10200    300.07509    -1154.277    239.41848    429.52515    808.01723    38174.007 
   10300     303.5248   -1118.4362    234.98172    476.38448    603.41359    38174.007 
   10400    298.10573   -1149.8134    215.57232    401.31959    405.65764    38174.007 
   10500    312.49372   -1164.8988    235.51075    470.63302    47.621075    38174.007 
   10600    294.29184   -1193.7284    227.53447    352.27986   -107.89884    38174.007 
   10700    304.51519   -1182.8373      232.692    414.13075    538.51347    38174.007 
   10800    305.15662   -1181.3802    234.27521    420.04469    498.57077    38174.007 
   10900    306.29566   -1190.4977    223.05303    404.80808    378.58204    38174.007 
   11000    308.25699   -1164.0773    226.34544    443.30801    16.642704    38174.007 
   11100    307.30669   -1152.0065    248.98692    473.76275    490.27996    38174.007 
   11200    298.91262   -1129.9282    231.57337    440.82074   -119.67225    38174.007 
   11300    308.20711   -1162.8156    228.90281    446.90357     43.82514    38174.007 
   11400    305.54042   -1132.7745    240.85202    476.94673    426.66857    38174.007 
   11500    302.48313   -1097.6436    256.01216    513.54061    135.28432    38174.007 
   11600    299.83543   -1088.7457    246.94305    501.50731    36.198745    38174.007 
   11700    303.52977   -1104.3313    243.33382    498.86374    136.03244    38174.007 
   11800    301.88406   -1109.3629    238.87007     481.9953   -196.01388    38174.007 
   11900    300.11086   -1112.5289    266.30051    498.31551   -179.10259    38174.007 
   12000    290.88318   -1192.2597    244.64412    355.58688    438.71937    38174.007 
   12100    305.20287   -1209.0583    251.71592    410.01457    98.184939    38174.007 
   12200    291.11971   -1160.9882    239.25631    382.53028   -263.13353    38174.007 
   12300    295.73705   -1157.1897    251.94128    419.70018    -266.4136    38174.007 
   12400    305.19378   -1130.5913    247.61509    484.34004    576.54824    38174.007 
   12500    301.82609   -1139.4506    242.52467    455.30248     165.6815    38174.007 
   12600    309.60562   -1162.3284    252.92698    477.68053    134.71281    38174.007 
   12700    268.95802   -1163.2203    263.51335    305.26734   -148.12623    38174.007 
   12800    295.59292   -1153.4907    231.72228    402.53443     686.8685    38174.007 
   12900    310.86363   -1155.1636    278.76724    516.32167    199.04318    38174.007 
   13000    295.37828   -1165.5907    257.76892    415.51943    508.55811    38174.007 
   13100    293.08812   -1189.0218    252.16291    376.22201     777.3356    38174.007 
   13200    303.28979   -1187.9137    269.73435    440.60671    563.64248    38174.007 
   13300    294.38283   -1185.1267    272.32829    406.08305    691.20159    38174.007 
   13400    289.89998   -1159.5477    270.05648     409.3063    467.06528    38174.007 
   13500    305.29925   -1161.1014    248.17175    454.85909    12.769994    38174.007 
   13600    295.52559    -1202.208     269.0702    390.86341   -13.513943    38174.007 
   13700    300.84623   -1178.9642    258.93523    427.80954   -36.355247    38174.007 
   13800    298.63712   -1205.5405    263.02325    395.42413    248.95985    38174.007 
   13900    295.81959   -1141.3274    272.08305    456.07405    248.79242    38174.007 
   14000    302.28314   -1194.8886     267.3425    426.73003    190.74853    38174.007 
   14100    309.02266   -1176.2649    270.52582    478.73116    675.72515    38174.007 
   14200    297.23358     -1218.16    266.15009    379.64329    718.00227    38174.007 
   14300    302.17229   -1180.9579    268.56888    441.39041    700.64137    38174.007 
   14400    303.78974    -1212.874    256.76025    404.91218    719.52264    38174.007 
   14500    292.42554   -1198.6834    265.34602    376.77508    631.34814    38174.007 
   14600    303.53958   -1182.1386    287.70435    465.47089      721.946    38174.007 
   14700    309.11312   -1173.2914    259.03429    470.61832    670.22384    38174.007 
   14800    303.28154   -1133.3652    287.45921    512.84309    1128.8463    38174.007 
   14900    295.45284   -1196.7526    249.12739    376.05003    215.37362    38174.007 
   15000    298.44157   -1199.7136    272.88674    410.23841    582.05655    38174.007 
   15100    304.32426   -1224.4928    275.86237    414.79021     513.7714    38174.007 
   15200    291.01207    -1196.235    258.36277    365.90764    394.78001    38174.007 
   15300    295.56002   -1170.8615    263.75528    417.04916    257.76537    38174.007 
   15400    301.24723   -1221.7436     257.9796    385.87101    115.70262    38174.007 
   15500    294.90831   -1203.9203    258.29541    375.61078    93.774151    38174.007 
   15600    305.64841   -1205.9965     267.2889    430.64545    87.271557    38174.007 
   15700    303.55362   -1191.7021    273.67287    441.93876   -46.941109    38174.007 
   15800    295.71624    -1190.934    244.53852    378.45979     262.1311    38174.007 
   15900    295.86234   -1223.7643    270.13299    371.87859    362.23968    38174.007 
   16000    292.53195   -1207.5872    270.28763    373.28959    406.76958    38174.007 
   16100     301.9475   -1188.1478    275.51934    440.14391    597.22172    38174.007 
   16200    296.80922   -1244.5533    256.08953     341.2883    175.14062    38174.007 
   16300    306.29404   -1197.3248     254.9799    429.90066    394.45083    38174.007 
   16400    289.16969   -1230.5185    256.52823     321.5355    654.39339    38174.007 
   16500    294.64028   -1208.8657    273.51781    384.68696    305.11008    38174.007 
   16600    306.31739   -1197.0688    270.77917    446.06053    431.77194    38174.007 
   16700    295.17883   -1235.7069    252.43395    339.17465    603.18881    38174.007 
   16800    307.42181   -1239.8301    271.45555    408.92359     13.20647    38174.007 
   16900    298.06647   -1261.6383    282.23354    355.97995    272.03886    38174.007 
   17000    300.10462   -1215.1792    254.55943    383.89617     358.3038    38174.007 
   17100    293.03076   -1211.0815    272.97871     374.7212    274.08404    38174.007 
   17200    294.72059    -1232.098     273.4134    361.71004   -59.624929    38174.007 
   17300    299.07744   -1237.6476    269.18105    371.44743    464.71837    38174.007 
   17400    313.14857    -1221.642    277.56249    458.87537    97.635681    38174.007 
   17500    298.99563   -1214.7851    261.72446    386.48689     25.98461    38174.007 
   17600    288.93476   -1207.3279    272.58691    359.73222    214.05951    38174.007 
   17700     301.8838   -1214.1567    278.29126    416.62157    572.66214    38174.007 
   17800    290.55939   -1224.7254    289.20513    366.23153    454.32999    38174.007 
   17900    300.26382   -1234.0378    266.08314    377.27456    655.79231    38174.007 
   18000    307.15589   -1200.1249    266.68118    442.66309    446.10698    38174.007 
   18100    310.11611   -1202.8666    284.55841    471.06085    207.29731    38174.007 
   18200     304.1918   -1182.5273     288.6148    468.91471     458.0534    38174.007 
   18300    303.57244   -1202.1349    267.29132    425.20878    1.7672348    38174.007 
   18400    302.99735   -1162.8426    269.36103    463.99431    330.57563    38174.007 
   18500    294.99174   -1207.3081    266.87148    381.17284    330.18752    38174.007 
   18600    293.06399   -1202.2731    277.35605    388.05575    325.41005    38174.007 
   18700    297.91859   -1214.9518    300.07335    419.84379    711.34129    38174.007 
   18800    303.87252   -1196.3048    294.81374    459.90571     205.4057    38174.007 
   18900    298.69767   -1187.6887    277.05496    427.57887   -38.168948    38174.007 
   19000    304.89031   -1172.2657    293.78136     487.4723    517.83899    38174.007 
   19100    303.74792   -1202.4657    280.63443    439.00721   -273.41848    38174.007 
   19200    297.41292   -1194.0082    302.00441    440.45293    41.120475    38174.007 
   19300     302.8598   -1149.1378    285.71508    493.43693    147.21513    38174.007 
   19400     294.3774   -1200.5299    286.09398     404.4212   -26.136958    38174.007 
   19500    307.47141   -1183.1677    287.57297    481.92566    501.27705    38174.007 
   19600    299.00235   -1214.4592    284.01132    409.12981   -239.56008    38174.007 
   19700    296.91206   -1210.2168    289.47177     409.4678   -29.790063    38174.007 
   19800    298.61835   -1191.4211    291.18234    437.61846     68.29151    38174.007 
   19900    299.32702   -1198.2143    300.20714    443.02499    262.52776    38174.007 
   20000    303.07444   -1213.3579    279.75885    424.22213    357.73307    38174.007 
   20100    293.75686   -1214.5156    278.69512    380.25648    349.81985    38174.007 
   20200    304.86896   -1217.0322    276.09928    424.92805    333.45037    38174.007 
   20300    293.82326   -1172.0345    304.46285    448.80283   -229.84165    38174.007 
   20400    300.46517   -1208.5947    300.15314    437.68974    1.0231009    38174.007 
   20500    299.97396   -1223.0808    282.99656    403.84634   -456.15255    38174.007 
   20600    299.21809   -1241.8733    294.92676    393.59762    36.709365    38174.007 
   20700    289.78377    -1231.699    288.76096    355.33893   -438.80025    38174.007 
   20800    298.25061   -1208.6924    305.21154    432.72885    200.76383    38174.007 
   20900    300.44713   -1191.0191    268.83653     423.8679    83.239755    38174.007 
   21000    304.44078   -1209.5595    292.91239    447.29547    494.52393    38174.007 
   21100    300.80143   -1183.9742    318.90067    482.56428    306.11187    38174.007 
   21200    314.91676   -1235.6299    296.84426    472.09105     268.6179    38174.007 
   21300    297.82076   -1234.7397    293.21202    392.75624    97.000621    38174.007 
   21400     306.8122   -1204.0821    286.22091    456.70579    466.59907    38174.007 
   21500    291.28508   -1203.6468     308.8034     410.1596    167.51683    38174.007 
   21600    300.69201   -1272.5517    290.05666    364.65249    149.60003    38174.007 
   21700    303.41347   -1199.5058     296.5417    456.37607    302.19298    38174.007 
   21800    295.94313   -1228.2004    316.58837    414.25977   -18.116951    38174.007 
   21900    303.92368   -1255.9274    280.67603    386.37457    155.98008    38174.007 
   22000    290.98454   -1231.1692    314.54557    387.03296   -308.34902    38174.007 
   22100    306.83928   -1239.2245    320.72211    456.18585    189.99467    38174.007 
   22200     304.7102   -1222.4402    313.64989    456.35935   -294.34164    38174.007 
   22300    300.58321   -1212.8005    313.32242    447.18205    -171.1201    38174.007 
   22400     292.6288   -1225.5671    320.84265    406.29866   -288.99142    38174.007 
   22500    299.31553    -1233.328    309.64689    417.29961   -206.76435    38174.007 
   22600     294.0363   -1242.1677    313.72646    388.88767     396.0972    38174.007 
   22700    303.57369   -1226.7239    306.54405    439.87807    430.68542    38174.007 
   22800    300.70991   -1196.0314    306.94424    458.14067     153.3656    38174.007 
   22900    291.89638   -1260.8636    318.10484    364.98297    329.01075    38174.007 
   23000    298.06483   -1240.4878    317.16144    412.05105    98.712904    38174.007 
   23100    293.50868   -1220.2059     324.7281    419.48731    668.83107    38174.007 
   23200    297.68657   -1274.2486    315.37293    374.80709    78.119643    38174.007 
   23300    297.38266   -1297.5698    301.17659    335.92793    232.72294    38174.007 
   23400    301.68567   -1274.0115    329.51307    407.10089    160.77838    38174.007 
   23500    304.66191   -1216.3408    320.74868     469.3412    93.328573    38174.007 
   23600    293.93041   -1238.8231    313.40948    391.44093   -244.86832    38174.007 
   23700    294.38293   -1227.6753    310.43499    401.64159   -424.49872    38174.007 
   23800     308.4599   -1222.2892    320.57544    480.23517   -19.393278    38174.007 
   23900    306.29007   -1230.6989    331.79069     473.3196    119.57099    38174.007 
   24000    299.08854   -1272.9486    288.38404    355.39916   -267.94123    38174.007 
   24100    298.15041   -1306.0412    296.20871    325.92834    275.18657    38174.007 
   24200    291.69012   -1295.6637    318.39813    329.55208    478.81548    38174.007 
   24300    308.31045   -1312.6462     309.1882    377.82136    647.36264    38174.007 
   24400    308.96632   -1281.5679    302.49288    405.14273    1117.4887    38174.007 
   24500    300.49968   -1301.5181    310.82421    355.59199     878.4034    38174.007 
   24600    298.32147   -1219.4471    324.77841    441.85849    497.32876    38174.007 
   24700    294.59364   -1266.8987    328.88254    381.80971    615.40949    38174.007 
   24800      290.966   -1291.0634    326.79615    339.30627    584.70635    38174.007 
   24900    302.09456   -1257.3399    308.23269    404.32401    209.54506    38174.007 
   25000    299.62475   -1314.4032    329.90168    357.86454    2.3850552    38174.007 
   25100    305.96471   -1316.8053    344.14174    398.10647    387.63721    38174.007 
   25200     300.9255   -1289.0663    317.91323    377.04061    84.506409    38174.007 
   25300    296.82219   -1286.6558    333.72038    376.87474    422.17279    38174.007 
   25400    307.79546   -1284.6736      327.915    422.21356    236.94869    38174.007 
   25500    292.19543   -1304.5085    308.38649    312.95953   -11.328318    38174.007 
   25600     303.6347   -1317.0684    323.03724    366.30016    239.70798    38174.007 
   25700    310.64052   -1311.3563    334.41831    414.78049    415.82565    38174.007 
   25800     301.1795   -1279.7529     325.0775    394.65618   -24.559984    38174.007 
   25900    298.45449   -1327.0967    325.19936    335.22581   -92.404976    38174.007 
   26000    303.86586   -1309.7738    307.18703    358.78013    338.63718    38174.007 
   26100    304.27353   -1300.1756    323.66273    386.68044    512.79472    38174.007 
   26200    300.74083   -1299.5064    328.55381    376.41365    114.84271    38174.007 
   26300    301.41547   -1329.6214    326.08028    346.84763   -146.11475    38174.007 
   26400    298.28511   -1304.5706    329.53322    361.32692    500.34251    38174.007 
   26500    303.40727   -1298.7532    321.07447    381.63363    182.53064    38174.007 
   26600     292.0857   -1321.4409     321.5092    308.65822     72.15405    38174.007 
   26700     302.1501   -1265.0046    332.80395    421.47934   -726.87512    38174.007 
   26800    298.28764   -1280.2248    351.14676    407.29754   -640.36855    38174.007 
   26900    295.28253   -1276.2353    338.62427    385.30121    94.455488    38174.007 
   27000     296.7388   -1314.1327    301.87788    317.18179   -319.71592    38174.007 
   27100    302.04959   -1322.5038    315.89832    346.62421     120.6599    38174.007 
   27200    301.23314   -1320.5956    311.09645    340.07279   -265.99843    38174.007 
   27300    292.71113   -1311.7921    324.76202    324.36186    141.40498    38174.007 
   27400     297.1992    -1307.801    314.84998    338.54823   -83.602718    38174.007 
   27500    305.77051    -1295.319    331.88916    406.47024    530.54033    38174.007 
   27600    305.26533   -1284.9043    325.33384    408.06627    19.392305    38174.007 
   27700    306.75361   -1249.3968    350.55253    475.46017    652.65192    38174.007 
   27800    297.92938   -1285.2597    320.05112    369.56198    201.50903    38174.007 
   27900    308.04683   -1259.1766    335.32866    456.25036    991.43444    38174.007 
   28000    302.55035   -1265.2902    335.33453    425.51759     451.3849    38174.007 
   28100    300.04576   -1271.3086    319.62491    392.56859    362.15039    38174.007 
   28200    296.51585   -1255.9944    339.77443    412.21775    166.81536    38174.007 
   28300    309.39735   -1277.4469    319.25442    427.95636     87.66901    38174.007 
   28400    299.03438   -1292.8778    316.95078    363.79408   -64.821678    38174.007 
   28500    305.19462   -1281.1187    345.11105    431.31236    368.21232    38174.007 
   28600    302.62965   -1276.9248    356.69485     435.5985    40.768505    38174.007 
   28700    307.42017   -1262.6164    319.58655    434.26093    315.05762    38174.007 
   28800    307.69477   -1248.1905    360.29599    490.62653    501.76349    38174.007 
   28900    299.53377   -1261.6998    337.01241    417.27114   -50.891846    38174.007 
   29000    301.09438   -1269.2465    316.11096    395.81468    134.30893    38174.007 
   29100    307.48373    -1278.514    337.24494    436.30643   -126.16229    38174.007 
   29200    285.58289   -1319.2509    341.20949    301.41488   -526.84464    38174.007 
   29300    295.92837   -1290.0234    321.51838    357.30071   -172.68469    38174.007 
   29400    292.28987   -1309.5084    360.15875    360.15501    76.912647    38174.007 
   29500    304.64282   -1273.6443    344.42701    435.63051   -138.75097    38174.007 
   29600    296.19427   -1296.0495    334.80718    365.75468    562.41786    38174.007 
   29700    296.25209   -1293.1132    329.62059    363.76345    226.27806    38174.007 
   29800    293.58902   -1301.2547     338.9048    352.97513    388.86339    38174.007 
   29900    287.79125   -1287.1109    344.30198    346.54125   -256.59602    38174.007 
   30000     297.6999   -1340.3112    339.17819    332.60941    643.32981    38174.007 
   30100    289.42125   -1305.8169    345.40314    336.23902    412.54502    38174.007 
   30200    295.97507   -1302.7567    367.86606    391.12432    174.45157    38174.007 
   30300    299.42685   -1278.7047    348.89098    411.66575   -85.619358    38174.007 
   30400    290.22375   -1267.3683    356.34614    389.22597   -211.67971    38174.007 
   30500    294.67631   -1316.8644    337.29587    340.62775    245.85009    38174.007 
   30600    315.24241   -1311.0676    327.92266    429.19074    271.20198    38174.007 
   30700     298.4121   -1328.0151    375.11237     384.0305    55.808442    38174.007 
   30800    294.85754    -1373.138    354.29502     302.1652   -459.35804    38174.007 
   30900    309.10943   -1326.7331    340.40202    398.52783    211.61177    38174.007 
   31000    294.93088   -1356.6504    340.89928    305.58562    7.8838726    38174.007 
   31100    302.55875   -1327.2103    356.85422    385.15481   -303.67602    38174.007 
   31200     295.3519   -1324.3774    363.64542    362.49107    101.90734    38174.007 
   31300    305.36358   -1369.4697    347.39081    345.99801    211.04461    38174.007 
   31400    300.32726   -1318.4607    344.71685    371.76954    315.32527    38174.007 
   31500    306.66496   -1317.3795    341.67082    398.19868      196.932    38174.007 
   31600    292.69381   -1320.4102    339.64811    330.55225    208.46555    38174.007 
   31700    293.49148   -1306.7526    361.00545    369.14091    568.93683    38174.007 
   31800    294.15982   -1333.5221    361.21227    345.57244    101.76958    38174.007 
   31900    300.83065   -1301.3808    339.29547    385.68339   -562.16937    38174.007 
   32000    295.29358   -1313.9639    356.14823    365.14607    74.682842    38174.007 
   32100    300.92716   -1350.7812    345.06802    342.48792   -101.98994    38174.007 
   32200    312.37574   -1334.4333    340.56629    405.62554     319.1412    38174.007 
   32300    300.40038   -1320.6337    344.83034    370.03765    35.911293    38174.007 
   32400    294.34885   -1303.9996    347.06221    361.79186    69.222448    38174.007 
   32500    309.06902   -1326.7963    353.12881    411.01044    167.36537    38174.007 
   32600    292.88094   -1336.3959    342.21604    317.97289    393.43627    38174.007 
   32700    299.88816   -1365.2037       332.15    310.49244    606.82872    38174.007 
   32800    299.09924    -1378.072    359.04799    320.98766    742.54952    38174.007 
   32900    305.42984   -1407.3593    343.40824    304.42275    654.33724    38174.007 
   33000    297.10467   -1389.6706    363.20797    304.61305    574.09957    38174.007 
   33100    297.95041   -1386.8207    337.28394    285.32798     625.4397    38174.007 
   33200    297.53542   -1372.9006    366.96962    327.07455   -151.90929    38174.007 
   33300    295.72803   -1352.4894    355.40884    327.82759    285.46143    38174.007 
   33400    302.19035    -1347.725    348.84171    354.97709    73.284348    38174.007 
   33500    294.72451   -1323.5441    358.21492    355.08306    342.71291    38174.007 
   33600    306.76758   -1327.1272    362.21519    409.45509    455.07972    38174.007 
   33700    295.33034   -1369.9895    344.03278    297.16968     195.4523    38174.007 
   33800    308.14786   -1339.3676    366.79358    407.97691    95.896192    38174.007 
   33900    292.25109    -1347.707     341.0139    302.63782   -764.98648    38174.007 
   34000    289.42535   -1331.5824    371.83656    336.92527   -450.45874    38174.007 
   34100    301.06236   -1339.8011    350.61487    359.62054   -587.15673    38174.007 
   34200    303.49396    -1390.048    358.38567    328.03843   -308.89666    38174.007 
   34300    289.36279   -1401.7201    362.10709     256.7779   -255.33329    38174.007 
   34400    300.05094   -1364.8363     343.9664    323.40551    244.80254    38174.007 
   34500    294.42456    -1357.442    354.67686    316.30327   -357.46768    38174.007 
   34600    297.61421    -1339.457    355.69001    349.59151    9.7256658    38174.007 
   34700    299.73279    -1357.005    350.98778    336.83291    169.00995    38174.007 
   34800    304.22535   -1354.9677    363.84917    371.85894    107.25486    38174.007 
   34900    297.78117   -1352.0315    347.77258    329.84765    481.42165    38174.007 
   35000    305.56719   -1330.2893    351.28614    389.98595   -99.007842    38174.007 
   35100     297.9709   -1290.7508    373.05693    417.26273   -117.06911    38174.007 
   35200    296.90795   -1324.9599     363.3149    368.54938    -385.8147    38174.007 
   35300    310.59103    -1314.205    372.80789    450.09965   -10.266599    38174.007 
   35400     306.6909   -1351.7393    352.83118    375.11546   -389.55014    38174.007 
   35500    307.23387   -1331.6868    356.94642    401.71574   -111.96574    38174.007 
   35600    300.64046   -1321.2418    372.59023    398.26507   -236.46769    38174.007 
   35700    302.73864   -1373.1312    363.68845    346.87404    464.83954    38174.007 
   35800    295.18382    -1355.407    357.18613    324.24914    177.04545    38174.007 
   35900    293.15285   -1348.2061    359.48073    324.64557    482.88118    38174.007 
   36000     308.3575   -1342.6646    360.77793    399.60345    114.99066    38174.007 
   36100    290.57973   -1309.9721    371.98452     363.8554    440.66047    38174.007 
   36200    304.36361   -1310.3165    362.39799    415.67844    352.16669    38174.007 
   36300    300.83102    -1313.143    354.49696    389.12434    185.64451    38174.007 
   36400    298.23895   -1366.8629    357.66738    326.96199    76.374066    38174.007 
   36500    296.15703   -1309.2304    359.53108    377.13085   -292.17101    38174.007 
   36600    285.40377   -1328.1952    358.06762    308.52627   -196.58035    38174.007 
   36700    291.64515   -1342.0815    386.87266    351.40739   -371.34443    38174.007 
   36800    303.34177    -1366.168    360.03623    352.88715    40.209808    38174.007 
   36900    291.08452   -1340.7176    379.82351    343.21041   -20.802685    38174.007 
   37000    298.86284   -1348.8172    378.06535    368.20073    81.477406    38174.007 
   37100    297.36975   -1358.9043    365.74133    339.10033    356.41833    38174.007 
   37200    295.33033    -1338.267    383.42539    368.28477    257.39604    38174.007 
   37300    295.65844   -1339.5027    381.16359    366.25727    165.64773    38174.007 
   37400    305.48337   -1322.6763    392.58617    438.52345    181.79783    38174.007 
   37500    301.45266   -1328.1099    384.77379    407.21931   -146.09292    38174.007 
   37600    295.43517    -1359.969    374.10929    337.73634   -278.94816    38174.007 
   37700    295.39902   -1334.0771    388.33499    377.69198   -10.037169    38174.007 
   37800    311.45729   -1361.7078    362.27865    395.94855   -46.992304    38174.007 
   37900    308.70511   -1377.8179    363.99498    369.22455    21.408485    38174.007 
   38000    295.45173   -1397.5307    375.20541    301.34503   -140.92573    38174.007 
   38100    303.98624   -1358.2639    382.40538     386.0477    104.33349    38174.007 
   38200    303.96981   -1375.0556    381.11269    367.88966    93.051255    38174.007 
   38300    298.83634   -1378.8803    363.21924    323.17281    304.62804    38174.007 
   38400    292.41707   -1408.1944    371.79451    273.67467    249.55595    38174.007 
   38500    309.10076   -1399.4838    368.72111     354.0574    373.45868    38174.007 
   38600    317.69565   -1323.0913    380.17904    480.41432    368.15693    38174.007 
   38700    291.54084   -1368.4847    375.55588    313.22008    326.46542    38174.007 
   38800     292.9303   -1334.7425    365.33849    342.96989     598.3631    38174.007 
   38900    302.79417   -1397.0943    341.73793    301.20917    368.53526    38174.007 
   39000    301.78628   -1409.1792    364.70952    307.58035   -11.717825    38174.007 
   39100    294.12761   -1351.8392    361.36552     327.2643     300.6477    38174.007 
   39200    291.34452   -1346.2638    387.54297    346.54851    47.610829    38174.007 
   39300    294.86831   -1335.0834    373.12474    359.09779   -187.81984    38174.007 
   39400    304.16199   -1370.5115     361.1274    353.30956   -148.69164    38174.007 
   39500    317.69059   -1380.4193    356.16868    399.05332    363.80819    38174.007 
   39600    306.31174   -1334.4031    370.78493    408.70668   -60.267966    38174.007 
   39700    298.33664   -1345.8207    377.62463    368.39909    85.708031    38174.007 
   39800    291.98831    -1330.421    383.87344    361.60604    47.658872    38174.007 
   39900    298.38561   -1352.1351    386.71928    371.39874    135.51408    38174.007 
   40000    304.60974   -1415.7166     379.8186    328.80167    301.07364    38174.007 
   40100    310.14886   -1398.9437    363.23208    353.80415    234.05345    38174.007 
   40200    296.84082    -1378.363     377.7802    329.31086   -305.36229    38174.007 
   40300    289.34315   -1392.7814    362.01034    265.53185   -310.49393    38174.007 
   40400    298.42665   -1357.3421    371.55605    351.21239    237.24495    38174.007 
   40500    295.01135   -1420.8745    361.76706    262.58989   -57.205558    38174.007 
   40600    293.99683   -1392.9335    359.35651    283.57516    575.64315    38174.007 
   40700    305.32847   -1384.7762    367.77709    350.92052    750.81548    38174.007 
   40800    297.78705   -1403.6245    359.11844    289.62683    531.55881    38174.007 
   40900    302.68764   -1420.8023     365.0039    300.28986    365.80998    38174.007 
   41000    301.78253   -1371.5337      375.387    355.88659     133.2816    38174.007 
   41100    307.99577   -1355.0199    392.59151    417.44115    112.81545    38174.007 
   41200    303.81847    -1358.541     389.6043    392.21793   -398.28809    38174.007 
   41300    302.99161   -1367.6726    387.54219    377.31971   -257.71976    38174.007 
   41400    305.17124   -1375.9169    384.85689    376.15525   -694.87316    38174.007 
   41500    301.53794   -1394.8402       383.84    339.93723    8.5674699    38174.007 
   41600    293.90563   -1326.0827     408.1545    398.81535   -17.770608    38174.007 
   41700    298.25935   -1335.8342    365.20148    365.61619    61.592935    38174.007 
   41800     303.5009   -1318.3459    384.00758     425.3935    10.837143    38174.007 
   41900    294.33754    -1321.696    412.95477    409.93735    343.78831    38174.007 
   42000    300.45276   -1346.8672    366.51023    365.71871   -120.69584    38174.007 
   42100    303.01394   -1361.6914    383.02462    378.88338   -442.63053    38174.007 
   42200    297.08155    -1357.338    386.96835    360.60245     -426.043    38174.007 
   42300    297.70738   -1389.6906    406.53805    350.62339   -390.73194    38174.007 
   42400    289.20042   -1380.3871    400.91984    316.19615   -678.81003    38174.007 
   42500    287.48788   -1348.7256    377.07225    316.33767   -273.60279    38174.007 
   42600    305.42772   -1358.2716    367.56812    377.66086   -36.445302    38174.007 
   42700    311.74224    -1335.963    364.79148    425.48281    169.38736    38174.007 
   42800    300.15821   -1403.8839    375.90536    316.77751    81.652333    38174.007 
   42900    295.35576   -1375.3469    389.49178    337.38517     135.0161    38174.007 
   43000    301.90846   -1394.4985    367.80327     325.9022    210.98716    38174.007 
   43100    304.62135   -1425.5855    360.77603     299.9422    441.17841    38174.007 
   43200    301.93355   -1415.2802    409.38171     346.8114    239.09482    38174.007 
   43300     305.6224   -1396.2468    385.11181    358.10147    424.30865    38174.007 
   43400    299.53592   -1384.6496    378.31504    335.63357    496.54268    38174.007 
   43500    307.06312   -1377.5217    369.13499    367.30444     363.8993    38174.007 
   43600    299.33629   -1379.0132    391.94542    354.00591    308.46309    38174.007 
   43700    309.25881   -1398.6394    366.08564    352.97443    317.35312    38174.007 
   43800    298.95808   -1401.7729    353.51245    291.11878    477.27177    38174.007 
   43900    292.96225    -1435.628    373.29104    250.18005    126.92369    38174.007 
   44000     301.3434    -1453.522    350.72749    247.27137    470.30591    38174.007 
   44100    299.52376   -1438.7784    377.36215    280.49731    290.80057    38174.007 
   44200    302.62449   -1380.6028    375.36963    350.57223    335.28392    38174.007 
   44300    303.59769   -1386.4068    386.17499     359.9337    173.70384    38174.007 
   44400    294.58132   -1376.6682    357.90639    301.00887    388.67107    38174.007 
   44500    293.93414   -1392.5133    385.20153    309.55944     657.2688    38174.007 
   44600    304.36891   -1365.1015    392.60867     391.1278    585.30708    38174.007 
   44700    301.59327   -1356.5645    387.61319    382.23402    466.45063    38174.007 
   44800    291.43861   -1340.1526    365.56967    331.10796      455.662    38174.007 
   44900    297.81676   -1344.1084    396.41982    386.57741    815.55803    38174.007 
   45000    309.21986   -1338.5431    386.98646    433.79703    644.53285    38174.007 
   45100    299.18406    -1342.518    398.32616     396.1999    226.00437    38174.007 
   45200    295.28639   -1361.0329    409.43537    371.33199    859.02605    38174.007 
   45300    310.34256   -1399.5838    384.25709    375.05684     831.7305    38174.007 
   45400    295.15429   -1406.1173    404.31249    320.53292    431.32702    38174.007 
   45500    295.00865   -1395.6107    399.79137    325.86594    990.20191    38174.007 
   45600    310.23956   -1418.7771    379.48665    350.63165    520.68865    38174.007 
   45700    291.26522   -1374.8776    389.17539    319.21181    531.01482    38174.007 
   45800    298.59107    -1354.428    390.19589    373.50289    507.50439    38174.007 
   45900    306.07216   -1370.1901    374.27024    375.33161    397.25361    38174.007 
   46000    286.02364   -1358.8975    383.04891    305.58238     258.6049    38174.007 
   46100    293.77337   -1346.8179    395.74674    365.07981    -197.5894    38174.007 
   46200    299.35165   -1395.2159    375.01713    320.94378   -212.32321    38174.007 
   46300    297.00365    -1349.486     374.4451    355.58222   -624.06476    38174.007 
   46400    312.07045   -1394.1899    375.11331    379.04817    -588.4458    38174.007 
   46500    301.51743   -1391.4944    379.64855    338.99977   -660.83314    38174.007 
   46600    299.76284   -1412.5232    399.35538    329.81689    -748.6904    38174.007 
   46700    307.47605   -1334.6734    394.60966    437.47736   -601.26015    38174.007 
   46800    307.87053    -1366.002    396.86275    410.16924   -588.53296    38174.007 
   46900    306.90507   -1381.0142    404.01194    397.98079   -94.400986    38174.007 
   47000     285.6887   -1363.1111    402.86896    319.68821   -432.03628    38174.007 
   47100    298.29726   -1349.9337    410.03594    396.52091   -420.23091    38174.007 
   47200     287.7223   -1368.5526    384.37535    304.86393     14.00064    38174.007 
   47300    307.02359     -1401.22    389.53103     363.8251    56.321065    38174.007 
   47400     300.6695    -1411.292    402.82386    338.57858    193.86351    38174.007 
   47500    298.94252   -1381.7199    395.44949     353.0392    213.24148    38174.007 
   47600    297.36039   -1332.0641    393.03901    393.19628    220.03515    38174.007 
   47700    307.76695    -1373.404      400.699    406.13936     425.1105    38174.007 
   47800    299.94438   -1363.7987    389.64619     369.6456    575.28351    38174.007 
   47900    292.18455   -1352.7667    414.20122    370.46732   -241.10279    38174.007 
   48000    299.93406   -1353.7679    403.89646    393.88036    393.97831    38174.007 
   48100    305.18848   -1361.5352    407.93167    413.68889    96.878806    38174.007 
   48200    292.79247   -1375.4079    402.59725    338.94572     146.4015    38174.007 
   48300    298.12589    -1378.047    413.38404    370.98802    48.598829    38174.007 
   48400    289.42554    -1389.265    389.35339    296.76039   -530.04528    38174.007 
   48500    310.35101   -1361.6221    399.86671    428.66607    3.1896623    38174.007 
   48600     319.4209   -1392.3733    376.38049    415.06315   -591.53347    38174.007 
   48700    284.43153   -1387.6692    371.03941    257.66823   -332.54261    38174.007 
   48800    292.55848   -1391.1801     388.9123    308.44028   -99.130077    38174.007 
   48900    303.62032   -1406.6397    399.39414    353.02134    432.83246    38174.007 
   49000    293.83769   -1418.5224    392.76397    290.68071    230.83378    38174.007 
   49100     312.7364   -1340.0176     405.1445    466.23521   -90.781791    38174.007 
   49200    297.82053   -1366.7561    416.93405    384.46078   -116.54671    38174.007 
   49300    309.07072   -1397.2705    420.85734    408.27232    91.010819    38174.007 
   49400    292.32289   -1407.8999    401.84353    303.59615   -46.282887    38174.007 
   49500    292.78277   -1417.1282    400.18569    294.77041     432.2323    38174.007 
   49600    301.45104   -1389.0304    409.72625    371.24403    424.00223    38174.007 
   49700    291.78645   -1419.1372    407.15425    295.26627    206.55422    38174.007 
   49800    291.17363   -1392.4698    404.61848    316.65238   -157.64227    38174.007 
   49900    298.55721   -1366.7388    397.72003    368.56454   -216.27548    38174.007 
   50000    302.50277   -1367.8084    403.06386    390.51555     244.5992    38174.007 
   50100    302.44453   -1368.3399    405.46657    392.12577    529.45068    38174.007 
   50200    296.72717   -1362.8695    417.56949    384.08443    395.13945    38174.007 
   50300     294.7862   -1412.2898    394.78803    303.18679    366.64697    38174.007 
   50400    290.26091   -1343.2901    412.74044    369.86495    572.89569    38174.007 
   50500    287.87724    -1359.294    421.83593     352.2773    311.56431    38174.007 
   50600    299.45574     -1336.44    402.52056    407.68942    353.17626    38174.007 
   50700    297.18398   -1340.2697    413.63152    404.79283    154.84508    38174.007 
   50800    300.01523   -1348.4648    411.75388    407.40458    203.77403    38174.007 
   50900    309.08656   -1368.9989    415.69343    431.45098    409.22165    38174.007 
   51000    303.48382    -1385.065    418.80334    393.39364    282.32275    38174.007 
   51100    297.40654   -1367.6266    408.62818    373.42971   -28.889654    38174.007 
   51200    303.60281   -1347.6252     424.2024    436.76556    244.63312    38174.007 
   51300    293.53558   -1321.4834    433.81108    427.41331   -222.80423    38174.007 
   51400    305.65892   -1333.7892    424.79945    460.41036    433.55771    38174.007 
   51500    305.65421   -1372.0412      403.603    400.94079    757.24841    38174.007 
   51600      304.483   -1362.7214    432.02267     433.4331    53.533664    38174.007 
   51700    294.94916   -1354.8036    420.04948    386.66454   -323.30726    38174.007 
   51800    291.66297   -1321.1823     405.1591     390.6729   -157.46386    38174.007 
   51900    302.04444   -1304.1106    414.61293    463.70896   -258.56979    38174.007 
   52000    301.93878   -1350.5325    403.55266    405.75341    179.80364    38174.007 
   52100    307.74151   -1334.5545    439.28727    483.46321   -6.6361698    38174.007 
   52200     300.3371   -1319.1572     426.1085    452.50881    482.87827    38174.007 
   52300    292.37231   -1363.2421    414.75371    361.38563   -100.59611    38174.007 
   52400    307.43206   -1314.9478    425.56427    487.96053    334.27745    38174.007 
   52500    308.19153    -1358.391    414.38487    436.74046   -248.34311    38174.007 
   52600     313.4009   -1353.2831    429.79499    480.59731     297.6586    38174.007 
   52700    299.20689   -1364.8295    402.12462    377.78915    367.27531    38174.007 
   52800    309.40163   -1347.1883    440.67991    479.65959    285.56791    38174.007 
   52900    305.90512   -1397.8587    412.59653    385.24096    80.336039    38174.007 
   53000    290.45376   -1427.3526    401.08913    275.01516    26.782978    38174.007 
   53100    296.68354   -1479.7801     418.1727    267.58161   -82.609032    38174.007 
   53200      311.512   -1409.6539    397.03605    383.00494    376.38661    38174.007 
   53300    304.37753   -1404.8613     392.2826    351.08061    229.06159    38174.007 
   53400     307.4983   -1389.1395    403.16791    391.66925    267.73286    38174.007 
   53500    301.06308   -1384.3044    424.09478    388.60033    120.43826    38174.007 
   53600     298.0354   -1457.7381     391.0834    268.59085    492.07802    38174.007 
   53700    297.81909   -1409.2665    419.01422    344.02418    96.048336    38174.007 
   53800    294.99732   -1398.3758    429.73616    352.99484    17.273818    38174.007 
   53900    301.83311   -1415.6917    416.19548    352.76362   -223.88092    38174.007 
   54000    296.56361   -1363.2855    408.39877    373.76489    88.107774    38174.007 
   54100    305.09473   -1351.4389    439.17282     454.6064    202.96339    38174.007 
   54200    301.26269   -1337.3209    453.63378     466.0172    333.34274    38174.007 
   54300    308.12033   -1401.8967    418.78682    397.31772    64.078858    38174.007 
   54400    304.47002   -1410.3827    440.64148    394.33238    -158.3775    38174.007 
   54500    305.53081   -1341.3963    402.16082     429.5907   -99.122898    38174.007 
   54600    301.03466   -1410.1271    438.15721    376.71277    124.16281    38174.007 
   54700    293.88809   -1361.7312    413.75074    368.68454    208.57784    38174.007 
   54800    291.24884   -1380.1926      461.066    385.71407   -184.62216    38174.007 
   54900     295.2582   -1385.0179    459.46736    397.25267   -467.99673    38174.007 
   55000    302.35553   -1426.3298    422.21489    350.48551    97.047447    38174.007 
   55100    303.24564    -1418.549    414.75244    354.79168    181.71718    38174.007 
   55200    295.93166   -1384.0915     427.7767    369.50568   -201.86201    38174.007 
   55300    294.65741   -1368.5458    436.08634    387.65213    -175.5982    38174.007 
   55400    295.74544   -1389.2397    400.12595    335.87242    321.80559    38174.007 
   55500     303.9081   -1412.7254    443.74314     392.5739    490.20715    38174.007 
   55600    301.11701   -1416.8381    421.21935    353.43288    321.58852    38174.007 
   55700    296.81024   -1437.1257    419.21976    311.85066   -35.858495    38174.007 
   55800    314.19853   -1439.3693    398.39377    366.68334    397.13825    38174.007 
   55900    301.07571   -1427.0897    440.34365    362.12053   -391.13984    38174.007 
   56000    293.91125   -1457.9581    433.33867    292.14928     12.18987    38174.007 
   56100    308.98912   -1439.0483    432.57805    377.84968    73.843788    38174.007 
   56200    293.79116   -1470.9868    428.58319    273.82709    263.11507    38174.007 
   56300      296.167   -1457.8194    418.52701    287.58244    148.68551    38174.007 
   56400    310.15575   -1482.9546     407.9009    314.49294    307.67003    38174.007 
   56500    296.32865   -1470.4285    410.31295    267.48346    11.410238    38174.007 
   56600    301.34633   -1443.6477    409.60655    316.03784    -246.5431    38174.007 
   56700    292.60429   -1435.6543     410.8286    286.08761   -193.31452    38174.007 
   56800     289.8772   -1435.2672    407.02325    270.45155    466.56091    38174.007 
   56900    306.07351   -1456.5757    431.59896    346.28078    600.52463    38174.007 
   57000    298.43301   -1427.0499    422.33436    332.31138    55.062767    38174.007 
   57100    293.25287   -1417.0882     413.1851    309.91595    333.15403    38174.007 
   57200    302.03653   -1402.6513     410.0602    360.58006   -34.471116    38174.007 
   57300    286.62831   -1428.0919    400.07751    256.12561    270.45858    38174.007 
   57400    311.52715   -1461.6603    411.87424    345.90463    153.64888    38174.007 
   57500    300.68393   -1413.9126    401.65815    334.85693    192.29498    38174.007 
   57600    292.51228   -1455.0727    406.87593    262.30434    117.84913    38174.007 
   57700    301.14343    -1432.318    425.94299      342.795   -183.41223    38174.007 
   57800    298.21953   -1442.5929     439.3848    332.86237   -152.18129    38174.007 
   57900    305.54273   -1455.3557    430.25827    343.78215    127.79303    38174.007 
   58000    304.38176   -1420.4509      425.231    368.45832   -106.46493    38174.007 
   58100    297.13872   -1394.2121    441.66549    378.68166    -128.1678    38174.007 
   58200    307.31045   -1396.2699    418.31729    398.84658    -114.2884    38174.007 
   58300    308.22918   -1433.9958    425.01299    371.93247    400.53163    38174.007 
   58400    290.82026   -1457.7871    410.03729     255.1708   -348.73921    38174.007 
   58500    300.51566   -1445.9536    414.37824    314.78213    107.02583    38174.007 
   58600    295.14772   -1459.1366    411.83534    275.00704    313.09978    38174.007 
   58700    291.63356   -1409.1127    403.21953    300.67111    669.05784    38174.007 
   58800    298.56925   -1442.0192    416.95885    312.57687    220.25381    38174.007 
   58900    296.16302   -1412.9063    441.44641    355.39712   -58.800337    38174.007 
   59000    305.56698   -1406.7981    443.57922    405.76937   -474.01693    38174.007 
   59100     306.3369   -1394.2171    460.02615    438.24664   -167.94445    38174.007 
   59200    303.83793   -1437.9744    434.46306    357.73045   -245.73683    38174.007 
   59300    295.59753   -1435.2233    436.59463    325.69486   -340.01282    38174.007 
   59400    290.84379   -1388.7264    404.87867    319.17827   -344.12992    38174.007 
   59500    318.56253   -1350.8802    425.54727    501.87734    272.31233    38174.007 
   59600    293.48808   -1376.3565    433.49156    372.00785    11.647829    38174.007 
   59700    305.91992   -1385.3656    434.35838    419.56218    138.97188    38174.007 
   59800    292.80843   -1399.8123    436.96528    348.98093    410.20587    38174.007 
   59900    298.02144   -1437.7317    422.88072    320.33199    113.77903    38174.007 
   60000    296.67751   -1458.2925    421.10676    291.97623    203.27558    38174.007 
   60100    288.05592   -1424.8557    426.44443    292.12464   -200.89974    38174.007 
   60200    299.29232   -1442.2524    414.88196    313.50627   -57.166503    38174.007 
   60300    310.85184   -1396.5135    417.66203    413.81374    24.719266    38174.007 
   60400    292.66962   -1440.3581    421.49837    292.34627    291.59432    38174.007 
   60500    292.71294   -1401.7014    424.81228    334.51096    124.27751    38174.007 
   60600    299.96407   -1406.6468    439.64233    376.88184   -260.65326    38174.007 
   60700    292.87479   -1386.1884    403.56976    329.50655    597.06417    38174.007 
   60800    295.63003   -1381.6515    430.80153    373.61908   -108.04429    38174.007 
   60900    304.55778   -1390.9649    427.68679    401.18868    163.01693    38174.007 
   61000    291.94949   -1411.5253    440.28533    336.73971     247.6719    38174.007 
   61100    303.70098   -1434.4374    434.43793    360.62879    331.99438    38174.007 
   61200    296.60226   -1457.6174    427.10691    298.31437    422.85974    38174.007 
   61300    294.25919   -1456.2973    410.35445    272.38466    90.559767    38174.007 
   61400    296.79848   -1458.1465    421.12547    292.68296    288.21821    38174.007 
   61500    302.87463   -1485.3387    427.90532    299.49266     359.7462    38174.007 
   61600    293.73721   -1462.3796     413.9938    267.60315    17.634331    38174.007 
   61700    303.10011   -1454.8686    411.38325    314.45083   -110.12034    38174.007 
   61800    296.34088   -1439.1031     411.8014    300.35216    -675.7113    38174.007 
   61900    293.01627   -1485.0503    411.32595    239.03464   -350.60804    38174.007 
   62000    298.14286   -1489.5554    432.12256    278.29417   -369.86003    38174.007 
   62100    296.63515   -1476.2665    423.26692    275.97257    -81.97301    38174.007 
   62200    298.60517   -1442.0648    428.35266    324.08604   -132.99516    38174.007 
   62300    301.34763   -1429.6869    449.38984    369.78774     153.0042    38174.007 
   62400    304.00664   -1438.9043    425.22735    348.32066   -15.044847    38174.007 
   62500    304.92602   -1433.7611    419.88556    352.24111    359.35285    38174.007 
   62600    299.08487   -1456.2449     416.3879    300.09035     135.3868    38174.007 
   62700    303.54769    -1440.666    431.70523    350.98068    425.75995    38174.007 
   62800    301.45855   -1449.2833    444.78838    346.08683    25.799296    38174.007 
   62900    293.91314   -1433.6058    415.38392    298.55525    165.64069    38174.007 
   63000    296.42596   -1426.3159    420.09368    321.81273   0.81097482    38174.007 
   63100    289.98525   -1430.3377    438.54962    307.39156   -378.77376    38174.007 
   63200    304.11285   -1435.3986    411.49039    338.56527   -339.29199    38174.007 
   63300    308.49895   -1428.5094    461.41837    415.03288   -475.59693    38174.007 
   63400    306.80674    -1446.301    416.64769    344.88917   -259.75135    38174.007 
   63500    318.17276   -1474.5127    411.89993    362.85131    94.271125    38174.007 
   63600    282.98827   -1487.3006    434.61182    215.14325   -146.95106    38174.007 
   63700    292.78909   -1427.5012    427.08393      311.324    91.580038    38174.007 
   63800    294.17529   -1438.0261    426.29633    306.22187    191.94838    38174.007 
   63900    297.07788   -1448.5433    434.63095    317.04337    326.50425    38174.007 
   64000    302.21947   -1446.3215    421.98115    329.65051    202.56121    38174.007 
   64100    298.01048   -1435.3407    456.44051     356.2337   -262.09414    38174.007 
   64200    302.80084   -1432.3001    426.27468    350.57004   -464.11151    38174.007 
   64300    292.79255    -1421.719    421.90668    311.94442   -448.88594    38174.007 
   64400    301.83826   -1429.8739    421.00678    343.41584   -269.59024    38174.007 
   64500    311.22248   -1411.4207    430.16986    413.07491    13.021757    38174.007 
   64600    295.24451   -1433.5467    426.61802     315.8132   -437.80947    38174.007 
   64700    295.84938   -1418.8159    425.37092    332.00686   -37.373373    38174.007 
   64800    304.86895   -1392.2561    446.25611     419.8609    129.66554    38174.007 
   64900    303.54626   -1384.8372    448.07209    423.16993    105.00222    38174.007 
   65000    309.80657   -1386.8187    445.28939    446.45294   -66.007431    38174.007 
   65100    295.86723   -1371.4573     424.4579    378.53235   -192.29897    38174.007 
   65200    292.55453   -1405.6458    447.30099    352.34554   -462.24399    38174.007 
   65300    298.48649   -1416.2315    407.39602    328.43099    240.51992    38174.007 
   65400    302.55336   -1410.9667    416.70822     361.2282   -5.4551344    38174.007 
   65500    295.94744   -1397.8784    443.07571    371.08844   -188.14182    38174.007 
   65600    293.89827   -1429.6022    418.46114    305.56954   -24.166786    38174.007 
   65700    291.97351   -1431.6096    426.24392    302.72164   -197.41467    38174.007 
   65800    300.43156   -1400.0667    433.90744    379.82144   -452.36375    38174.007 
   65900    308.56664   -1442.5971    427.27829    367.10836   -751.78598    38174.007 
   66000     287.4161   -1434.2012    428.72276    282.19093   -985.97314    38174.007 
   66100    303.83469    -1451.943    402.43356     311.7178   -634.56604    38174.007 
   66200    294.41313   -1416.9228    421.24234    323.33669   -1171.2449    38174.007 
   66300    298.07125   -1396.9713    437.16907    375.60393   -986.69544    38174.007 
   66400    298.48844   -1430.9209    421.75077    328.10509   -561.20361    38174.007 
   66500    306.44046   -1453.3897    428.27756    347.78936   -363.27736    38174.007 
   66600    291.04792   -1412.2762    440.52125    332.18555    5.1848534    38174.007 
   66700    296.63013   -1438.7057    424.32531    314.56929   -641.29088    38174.007 
   66800    298.34258   -1446.7646    436.54474    326.40189   -1240.6127    38174.007 
   66900    310.07598   -1420.3152    447.48071    416.35472    -498.8078    38174.007 
   67000    297.19724   -1447.0842    414.61634    299.02254   -435.78547    38174.007 
   67100    308.07038   -1414.9121    418.07577    383.36748   -664.10034    38174.007 
   67200    304.43799   -1414.6297    437.78215    387.08265   -343.09085    38174.007 
   67300    293.78715   -1433.1594    422.10432    305.15761   -444.06875    38174.007 
   67400    306.02902   -1422.8998    432.55451    380.71291    187.86654    38174.007 
   67500    304.32863   -1462.7478    426.32976    327.02212    554.80211    38174.007 
   67600     295.5832   -1434.5256    433.60923    323.34294    316.78775    38174.007 
   67700    295.34681     -1457.57    411.55743    277.18768    180.63692    38174.007 
   67800    299.74443   -1488.8199    396.67433    250.75674    -10.89411    38174.007 
   67900    294.86265   -1502.2387    431.06845     249.8609    223.17416    38174.007 
   68000    298.72345   -1503.3876    417.01955    251.96001    203.78035    38174.007 
   68100    296.25751   -1477.9755    421.39009    270.69486   -68.931169    38174.007 
   68200    298.27937   -1480.7017    439.04989    294.68672   -65.030062    38174.007 
   68300    308.57004   -1469.2215    407.44714    320.66804    429.84729    38174.007 
   68400    304.43907   -1506.8328     439.8573    296.95945    488.54741    38174.007 
   68500    297.17234   -1513.0804    403.85451    222.15296   -275.08256    38174.007 
   68600    307.22478   -1493.7505    426.46601    309.13095    -374.6547    38174.007 
   68700    296.97271   -1454.0401    408.24917    284.69359    366.19512    38174.007 
   68800    285.63067     -1499.36    450.98719    231.29759   -164.20544    38174.007 
   68900    301.51288    -1515.564     433.7813    269.04246    29.789681    38174.007 
   69000    306.67852   -1456.0912    410.21491    328.09184    -28.51223    38174.007 
   69100    301.71246   -1427.7468    441.65858    365.63106    179.26899    38174.007 
   69200    298.53541   -1445.2161    403.28896    295.55849    350.38421    38174.007 
   69300    295.73927    -1412.494    407.39437    319.85888    272.13517    38174.007 
   69400    307.73164   -1405.4147    435.64849    408.91998   -63.116449    38174.007 
   69500    300.20476   -1446.1296    439.08937    337.92435    166.44544    38174.007 
   69600    301.60401   -1469.1955    427.15817    309.19618    248.48833    38174.007 
   69700    294.61882   -1428.8169     450.8742    341.99606    532.31356    38174.007 
   69800    298.24171   -1441.4569     421.7745    316.48742    411.97546    38174.007 
   69900     296.5029   -1443.3841    438.92417     323.9198   -150.28171    38174.007 
   70000    301.32078   -1447.6849    423.65185    325.93148    28.966883    38174.007 
   70100    292.02004   -1463.2617    437.45512    282.48923   -124.49771    38174.007 
   70200    306.97651   -1429.7422    447.16996    392.73091    138.68437    38174.007 
   70300    300.57262   -1426.6407    419.20876    339.18068   -122.14488    38174.007 
   70400    293.90145   -1425.9216    410.80449    301.60765   -199.67819    38174.007 
   70500    292.81932   -1459.0008    429.92183     282.7977   -499.58746    38174.007 
   70600    298.45278   -1417.9552    463.44272      382.603    127.91445    38174.007 
   70700    279.29271   -1384.9923    439.05284     305.3359    186.56855    38174.007 
   70800    289.75218   -1388.8911    447.15018    356.39446   -546.78279    38174.007 
   70900    305.69027   -1411.3289    415.68285    373.89445   -521.43577    38174.007 
   71000    305.57936   -1404.3959    455.64374    420.29155   -422.45855    38174.007 
   71100    296.18842    -1366.666    456.31394    416.61871   -338.48417    38174.007 
   71200    306.39451   -1434.2295    441.26914    379.73531   -126.54058    38174.007 
   71300    299.00787   -1468.4629    448.30141    319.44083   -651.16814    38174.007 
   71400    297.40821   -1464.1768    428.17978    296.43866   -1007.8588    38174.007 
   71500    310.90164   -1449.0028    402.38955    346.27506   -836.01332    38174.007 
   71600    286.84514   -1450.0544    424.54817    259.60521   -568.12365    38174.007 
   71700     306.8603   -1471.2395    422.61592    326.15889    359.26268    38174.007 
   71800    302.01384   -1434.3291    411.48058      330.221    182.62116    38174.007 
   71900    300.86951   -1437.5866    427.98895    338.34515    419.83666    38174.007 
   72000    297.46354   -1457.3746    426.05139    301.36024    387.08197    38174.007 
   72100    297.57918   -1452.2091    427.84632    308.83881    713.76095    38174.007 
   72200    288.03206   -1387.3297    444.01242     347.1117    647.23989    38174.007 
   72300    298.30487    -1383.141    439.33819    392.65002     378.6235    38174.007 
   72400    303.73247   -1434.4312     485.2027    411.54082    1274.4479    38174.007 
   72500    301.01382   -1430.8678    427.52003    345.24157     1053.834    38174.007 
   72600    299.97721   -1417.9009    429.90125    355.94548    59.753613    38174.007 
   72700    297.42042   -1373.3176      420.797     379.9697     101.6489    38174.007 
   72800    302.50934   -1374.5208    420.73216    401.50083    181.05453    38174.007 
   72900    296.37597   -1357.9873    472.02271    441.84649    616.79452    38174.007 
   73000    302.33602   -1374.4282     443.2928    423.37764    377.10456    38174.007 
   73100    301.04263   -1384.6489    432.72108    396.79055   -69.199162    38174.007 
   73200    299.97482   -1410.6475    408.40212    341.68904   -287.28589    38174.007 
   73300    303.69679   -1420.7267     447.4737    387.35643    554.62667    38174.007 
   73400    295.11279   -1405.3742    442.51955    359.29717    988.15322    38174.007 
   73500     295.7386   -1420.5419    450.65532    355.06895    283.46409    38174.007 
   73600    304.65856   -1390.2098     453.0515    427.76003    909.35927    38174.007 
   73700    309.37352   -1380.9915    464.99242    470.04299    594.32375    38174.007 
   73800    300.53074   -1385.4643    469.48952    430.45027    527.44354    38174.007 
   73900    297.49701    -1419.999    426.34148    339.17601    104.95169    38174.007 
   74000    298.12404   -1431.4845     446.8445    351.00264    70.387416    38174.007 
   74100    299.01346   -1479.5696    441.86019    301.91794   -318.83248    38174.007 
   74200    299.72977   -1440.7556    431.80052    333.88149   -397.46856    38174.007 
   74300    301.70457   -1447.6673    449.28847    353.30513    104.43774    38174.007 
   74400    301.06596   -1474.4955    443.90558    318.23305   -214.38336    38174.007 
   74500    307.19129   -1461.0293    456.38605    371.62215    149.15063    38174.007 
   74600    287.95234   -1430.5734    414.24032     273.7387     430.0493    38174.007 
   74700    298.93135   -1437.0693    431.47306     333.6633   -92.357714    38174.007 
   74800    314.32706   -1381.3659    439.30141    466.17021     520.6017    38174.007 
   74900    300.27255   -1392.9701    454.22776    406.52598    258.91164    38174.007 
   75000    303.64891   -1391.8832    457.44383    425.95552   -150.63734    38174.007 
   75100    300.25777   -1434.5938    454.19747    364.80581   -96.170965    38174.007 
   75200    288.74754   -1427.8956    452.80828    318.54714    107.63743    38174.007 
   75300    308.73238   -1430.6362    443.11787    395.65137   -65.589397    38174.007 
   75400    289.97665   -1415.6113    467.06811    350.59788   -245.09549    38174.007 
   75500    289.40704   -1427.5534    449.39289    318.42858   -391.40644    38174.007 
   75600    304.03466   -1401.2363    452.22808    413.11497   -122.05338    38174.007 
   75700    297.95067   -1436.8816    449.74171    347.72601   -359.51583    38174.007 
   75800    291.60871   -1424.8796    447.89951    329.47288    115.05541    38174.007 
   75900    296.87332   -1436.8002    443.53039    336.76941   -193.90106    38174.007 
   76000    291.14212   -1425.6461    437.51805    316.23447   -299.14425    38174.007 
   76100    298.87061   -1444.7892    440.18353     334.3817   -809.97631    38174.007 
   76200    306.48841   -1470.3686    439.09856    341.84632   -709.61258    38174.007 
   76300    298.83341    -1467.171    434.07771    305.72746    -24.91428    38174.007 
   76400    293.50172   -1394.9924    464.15745    384.09893    589.21665    38174.007 
   76500    297.47449   -1413.8093    457.74698    376.67025    24.189505    38174.007 
   76600     305.0278   -1439.9637    458.99128    385.60016    38.767493    38174.007 
   76700    297.02183   -1415.9763    430.37492    345.10323   -491.68837    38174.007 
   76800    298.88268   -1450.6685     442.1898    330.56282   -312.62148    38174.007 
   76900    299.75482   -1469.1088    413.56129    287.40129   -728.80058    38174.007 
   77000    300.34093   -1422.4291     452.1599    375.30547   -732.66193    38174.007 
   77100    295.67316   -1424.0421    453.65613    354.27638   -461.30962    38174.007 
   77200    296.79445   -1442.1834    405.59876    293.10125    16.393288    38174.007 
   77300    306.27788    -1454.584     478.8439    396.43302     332.9384    38174.007 
   77400    299.57359   -1433.3179    435.74586    344.56488     104.8631    38174.007 
   77500    296.58017   -1460.7531    438.12399    306.09673     630.2994    38174.007 
   77600    295.65649   -1466.4559    446.19272    304.32447    448.45237    38174.007 
   77700    294.40241    -1475.462    445.78588    289.29306    522.61666    38174.007 
   77800    298.39116   -1390.5174    432.86017    379.18222     287.4831    38174.007 
   77900    297.64808   -1374.3628    454.32915    413.47665    2.8450916    38174.007 
   78000    296.88527   -1381.4042    454.38069    403.06925   -372.84119    38174.007 
   78100    308.77818    -1428.836    441.64809      396.187   -2.7048601    38174.007 
   78200    309.52652   -1408.7834    416.95402    394.89822   -213.82673    38174.007 
   78300    286.17685   -1401.8533     445.2202    325.48428   -520.55624    38174.007 
   78400    300.90422   -1410.7329    436.41073    373.77615   -169.07246    38174.007 
   78500    299.49788   -1434.2595    437.03213     344.5703   -117.16809    38174.007 
   78600    299.38561   -1466.8953    443.87122    318.27064     109.5674    38174.007 
   78700    292.55816   -1474.7696    410.53131    246.46835   -25.052291    38174.007 
   78800    308.48093    -1432.419    445.51404     395.1382    348.95583    38174.007 
   78900     305.5777   -1457.3401     442.2087    353.90483   -225.56741    38174.007 
   79000    300.97368   -1429.2662    425.95146     345.0947   -37.088696    38174.007 
   79100    298.24532   -1447.2711    461.37725    350.29215   -247.10984    38174.007 
   79200    287.27084   -1445.5029    425.40202    266.91774   -356.81404    38174.007 
   79300    301.52563   -1450.3616    444.97811    345.49875   -501.09557    38174.007 
   79400    294.03655   -1414.2342    438.18117    341.27703   -382.10085    38174.007 
   79500     309.3904   -1395.6972    459.94077    450.36129   -462.03159    38174.007 
   79600    287.56772    -1388.188    432.65259    332.81328   -612.75068    38174.007 
   79700     289.8829   -1414.4175    441.26957    325.57311   -161.55104    38174.007 
   79800    305.08308   -1431.7231    458.78464    393.88179    -151.0281    38174.007 
   79900    302.97222   -1454.6025    443.73368    346.49443    323.97492    38174.007 
   80000    288.46468   -1470.4807    474.34591    296.23241    656.72432    38174.007 
   80100    302.62932   -1485.8602    429.56559    299.53244    209.40104    38174.007 
   80200    293.68945   -1478.4483    451.04057    288.36727    179.38456    38174.007 
   80300    311.44579   -1472.1178    440.12014     363.3286    310.74664    38174.007 
   80400     308.6639   -1448.6577    455.32569    389.53088   -320.87667    38174.007 
   80500    291.06634   -1427.4823    462.08507     338.6258   -450.02998    38174.007 
   80600    298.18085   -1480.0518    433.37283    289.21826   -252.76403    38174.007 
   80700    304.21004   -1472.9736    463.04188    352.97715    360.50634    38174.007 
   80800    296.86975   -1487.2778     470.5778    313.32327   -341.88902    38174.007 
   80900    296.59268   -1520.7912    411.51795    219.50866    199.39702    38174.007 
   81000     318.6811   -1514.8907    405.91069    318.76153    -102.7873    38174.007 
   81100    301.60207   -1491.8879    437.21854    296.55535    801.37805    38174.007 
   81200    307.84609   -1483.4355    446.66884    342.43227    1189.9686    38174.007 
   81300    303.70518   -1479.6621     446.7431    327.72809     772.4024    38174.007 
   81400    295.76696   -1460.3245    452.15087    316.90897    673.57726    38174.007 
   81500    304.66201   -1436.4831    448.63304    377.08372     1058.014    38174.007 
   81600    306.17714   -1415.5065     453.4972    409.71251    655.10135    38174.007 
   81700    307.36013   -1438.6563    418.72057    357.08607    205.31629    38174.007 
   81800    309.63179   -1449.4832    443.40657    381.12261    345.89661    38174.007 
   81900    273.03378   -1391.2463    449.69747    281.68557    176.29675    38174.007 
   82000    293.44463   -1417.2439    445.72002     343.1543    64.154163    38174.007 
   82100    290.90995   -1458.5443    449.58465    294.36274    225.59149    38174.007 
   82200    297.98755   -1469.6837    423.54011    288.88762   -267.47841    38174.007 
   82300    308.11007   -1414.5392    422.68772    388.53019   -458.16218    38174.007 
   82400    300.22339   -1411.3783    442.37282    376.04258   -969.05226    38174.007 
   82500    299.78231   -1407.1158    421.83318    357.78933   -680.65706    38174.007 
   82600    303.56165    -1393.433    437.54567    404.11663   -322.41404    38174.007 
   82700    302.82042   -1431.0578    443.23469    368.86005   -54.147946    38174.007 
   82800    310.42787   -1449.0219    432.38499     374.1288    750.11205    38174.007 
   82900    319.21578   -1467.7564    418.92274    381.30338    475.11015    38174.007 
   83000     303.2794   -1411.9224    423.43929    370.25634   -16.002478    38174.007 
   83100    306.30325   -1420.0737    425.62215    377.83523   -264.79585    38174.007 
   83200    308.89722   -1408.7536    436.31821    411.47281   -481.58171    38174.007 
   83300    287.81556   -1374.2097    431.57738    346.82668   -574.03933    38174.007 
   83400    296.85458   -1416.7883    426.90272     340.0697   -144.47373    38174.007 
   83500    294.10293   -1497.2575    409.53993    229.90984   -673.73477    38174.007 
   83600    308.05009   -1464.3016    445.49657    361.30792   -475.88336    38174.007 
   83700    305.75132   -1461.0206    424.39863    333.19207    220.50559    38174.007 
   83800    300.26057   -1432.7181    453.68691    366.18342    91.357644    38174.007 
   83900     300.8862   -1430.4335    467.18808    384.77217    735.94401    38174.007 
   84000     301.7883   -1457.8821    433.91489    328.09193    274.78414    38174.007 
   84100    290.11879   -1457.9461    444.61674    286.44855    830.78831    38174.007 
   84200    301.35099   -1439.9018    444.00901     354.2071    322.88042    38174.007 
   84300    295.11431   -1432.1383     429.9742    319.99452    840.75204    38174.007 
   84400    299.75114   -1426.1103    466.10969    382.93166    325.89881    38174.007 
   84500    297.16497   -1415.8764     435.3017    350.77115     155.1898    38174.007 
   84600     295.7702   -1457.8167    441.44763    308.72804    288.91378    38174.007 
   84700    298.06253   -1457.6799    460.81102     338.4982    878.35978    38174.007 
   84800    293.59649   -1391.4539    447.96032     371.8649    513.43953    38174.007 
   84900    302.24266   -1414.1564    434.20408    374.14238    192.47152    38174.007 
   85000    304.50725   -1437.3891    467.44346    394.29477    616.33892    38174.007 
   85100    303.53007   -1463.6743    452.52516    348.71338    400.94488    38174.007 
   85200    299.66667   -1459.9533     459.4264    342.02694    -193.0311    38174.007 
   85300    307.57688    -1449.807    423.00692    351.19273    -551.3589    38174.007 
   85400    296.50308   -1454.2593    432.38465    306.50582   -113.62159    38174.007 
   85500    284.86744   -1477.0744    458.98512    258.16174   -330.46262    38174.007 
   85600    306.57121   -1440.1911    442.79388    376.09009   -335.97163    38174.007 
   85700     283.6357   -1452.2504    431.56847    250.05072   -493.28077    38174.007 
   85800    298.92723   -1433.8882    440.11853    345.47138   -331.52229    38174.007 
   85900     298.2996   -1431.2217    438.31251    343.51998    230.11723    38174.007 
   86000     305.4716   -1425.7271    455.06509    397.89884    324.33621    38174.007 
   86100    293.31024    -1438.284    438.18283     313.9749   -88.124554    38174.007 
   86200    288.14228   -1435.5823    442.58906     297.9295   -283.41432    38174.007 
   86300    299.13493   -1442.9523    429.78065    326.99995   -164.31475    38174.007 
   86400    303.36804   -1409.6829    458.05323    407.50693   -36.583505    38174.007 
   86500    289.69263   -1451.9579    447.60419    293.51491   -51.408198    38174.007 
   86600    291.58602   -1453.7374    459.60576    312.21971    257.97481    38174.007 
   86700    313.28697   -1481.5303    460.11661    382.16121   -167.83608    38174.007 
   86800    298.16486   -1479.8378    404.31502     260.3028    181.80547    38174.007 
   86900    298.12226   -1489.0143     434.5436    281.16399    166.24258    38174.007 
   87000    301.52353   -1450.2684    443.83409    344.43859    334.45286    38174.007 
   87100    294.66197   -1462.2663    434.01496    291.88068    357.22116    38174.007 
   87200    309.75744   -1448.7597    450.08921    389.09169   -444.12399    38174.007 
   87300    293.34907   -1439.2733    435.07888    310.05566   -582.31656    38174.007 
   87400    298.22858   -1483.4356    425.57338     278.2488   -217.36158    38174.007 
   87500     290.9249   -1454.1518      442.271    291.50855   -554.39126    38174.007 
   87600    292.57248   -1485.0627    421.73701    247.44515   -523.73433    38174.007 
   87700    307.33614    -1516.514    438.15331    298.55366   -205.89983    38174.007 
   87800    301.06318   -1499.8704     441.9506    290.89071   -670.10558    38174.007 
   87900    294.58529   -1495.6931    412.50118    236.59659   -665.90272    38174.007 
   88000    293.54151   -1518.0453    420.12646    217.19337   -378.24264    38174.007 
   88100     294.7212   -1510.2427    435.61389    245.76856    687.43413    38174.007 
   88200    306.15351   -1520.6743    446.94235    297.88398    470.82357    38174.007 
   88300    287.70197    -1478.461    423.77973    234.26887    522.79865    38174.007 
   88400    301.59614   -1521.8729    454.13492    283.46018    364.24287    38174.007 
   88500    311.22108   -1478.3485    433.24851    349.21944    146.78273    38174.007 
   88600    292.90031   -1516.8319    432.52535      227.933    282.52077    38174.007 
   88700    299.07293   -1531.5832    420.02633    228.33694     126.9484    38174.007 
   88800    310.69587   -1500.0188    468.62822     360.5758    297.85725    38174.007 
   88900    296.05841    -1484.189    442.96743    285.16668    115.07799    38174.007 
   89000    298.78264   -1500.9472    438.99379    276.63991   -18.569024    38174.007 
   89100     297.9501   -1485.7131    439.96098    289.11126   -134.29955    38174.007 
   89200    304.60143   -1494.9641    456.23215    325.93046   -551.70146    38174.007 
   89300    307.64695   -1472.6233    469.34459    375.02809   -261.60068    38174.007 
   89400      303.449   -1493.4489    443.92201    309.97244   -129.70396    38174.007 
   89500    302.05263   -1487.9389    438.52824     303.8327    -219.7086    38174.007 
   89600    301.50102   -1482.5666    441.95898    310.16445    -151.8668    38174.007 
   89700    292.81324   -1474.0595    444.23269    282.02263   -403.64355    38174.007 
   89800    297.99664   -1503.1598    414.25329    246.16535   -92.394872    38174.007 
   89900     302.8018   -1541.2938    420.83053    236.13649    176.44006    38174.007 
   90000    272.92875   -1554.7407    454.82673    122.84979    297.35953    38174.007 
   90100    291.87078   -1541.7001      400.116      166.043    391.93714    38174.007 
   90200    297.56082   -1505.6675    434.99679    262.44862   -226.96047    38174.007 
   90300    296.95785   -1469.6099    456.00746    316.81552   -415.24483    38174.007 
   90400    295.47841   -1488.9136    419.33376    254.21001   -416.64108    38174.007 
   90500    294.75368   -1476.8944    420.21752    263.86597     -78.0237    38174.007 
   90600    297.94732   -1462.7402    433.59172    305.70248   -943.79497    38174.007 
   90700    288.88301   -1434.8249    458.34208    317.75858   -783.70296    38174.007 
   90800    300.34108   -1447.3011    427.12022    325.39445   -162.68176    38174.007 
   90900    297.78853   -1494.6794    459.08324    298.54334   -158.34521    38174.007 
   91000    298.06586   -1455.7374      449.501    329.14558   -45.038474    38174.007 
   91100    288.06899   -1503.8383    426.90803    213.66418    110.71469    38174.007 
   91200    287.25858   -1496.7806    438.55963    228.74267    59.141493    38174.007 
   91300    296.22735   -1505.7599    424.82099    246.20623     227.8027    38174.007 
   91400     308.6945   -1479.6928     451.3395    354.64673    515.45457    38174.007 
   91500    301.23942   -1487.1022    416.99658    279.49437   -25.357794    38174.007 
   91600    292.44846   -1472.9877    442.25359    279.48101   -203.27895    38174.007 
   91700    293.52632   -1513.7566    433.51243    234.79992   -112.04098    38174.007 
   91800     294.4135   -1468.4661    446.06959    296.62235   -14.583694    38174.007 
   91900    304.26901   -1447.5555     461.1566    376.77424    443.19825    38174.007 
   92000    291.20215   -1515.4178    460.11786    249.33154   -1.8591345    38174.007 
   92100    304.06709   -1548.3519    436.28613    250.20269   -37.409025    38174.007 
   92200    301.85634   -1484.5643    450.54787    318.34746  -0.61892455    38174.007 
   92300    301.58678   -1483.2992    439.00094    306.85805   -16.346275    38174.007 
   92400    296.85527   -1537.1907    432.42427    225.19193    -478.1023    38174.007 
   92500    297.68286   -1545.3071    463.48208    251.84108   -231.51097    38174.007 
   92600    306.89646   -1492.9716    431.24693    313.21978   -128.24757    38174.007 
   92700     294.6815   -1442.3368    429.01297    306.89575   -353.78248    38174.007 
   92800    305.37156   -1461.1778    467.41812    374.35301   -437.45579    38174.007 
   92900    303.41417   -1460.7763    454.93257    353.49957   -264.42664    38174.007 
   93000    288.87705   -1473.3653     445.1082    265.95754    250.39003    38174.007 
   93100    304.45426   -1473.0906    457.44136    348.35386    52.361336    38174.007 
   93200    288.34863    -1446.462    444.76179    290.14703   -251.37732    38174.007 
   93300    299.52425   -1461.3801     459.9851    340.52082    116.98514    38174.007 
   93400    298.28538   -1494.8192     433.6504    275.19673   -562.93689    38174.007 
   93500    294.47042   -1480.7485    452.33518    290.86049   -704.25756    38174.007 
   93600    303.06477    -1453.572    429.04484    333.25068   -197.27745    38174.007 
   93700    304.43059   -1419.8871    449.70882    393.71874   -224.25423    38174.007 
   93800    302.57501   -1429.1372    455.28132    381.72783    -421.9793    38174.007 
   93900    297.90249   -1461.2073    450.87854    324.32127   -507.54927    38174.007 
   94000    292.03629   -1418.2205    451.52126    341.66932    655.79736    38174.007 
   94100     297.3558   -1446.9081    454.16628      339.459    239.35667    38174.007 
   94200    307.64155   -1456.3851    436.34687    358.24435    270.28539    38174.007 
   94300    291.10221     -1465.51    436.33174    275.00554   -100.99703    38174.007 
   94400    295.71346   -1461.5617    447.91275    311.19392   -158.11815    38174.007 
   94500    307.71613   -1441.7172    440.05283    376.95231   -148.83523    38174.007 
   94600    297.60451   -1423.9445    431.00804    340.37864   -389.95241    38174.007 
   94700    295.44989   -1426.6616    470.81451    367.81491    -61.24496    38174.007 
   94800    296.74847   -1417.6036     467.1555    379.03176    527.59054    38174.007 
   94900    290.87989   -1443.2657    474.85288    334.77487    275.36693    38174.007 
   95000    300.60923   -1430.7978    475.31045     391.2894    120.10623    38174.007 
   95100    305.06254    -1459.767    423.72384    330.68509     40.54523    38174.007 
   95200    299.56427   -1422.8486    452.55506    371.80158    35.895362    38174.007 
   95300    310.87854   -1434.1027    468.30337    426.98549    282.12643    38174.007 
   95400    286.81104   -1434.6588    442.10677    292.40659    -11.45551    38174.007 
   95500    307.55877   -1412.0185    465.61777    431.51102     97.93263    38174.007 
   95600    303.26807   -1480.6405    459.17865    337.22692     593.5555    38174.007 
   95700    289.39271   -1444.5177    479.86012    331.86736    364.43367    38174.007 
   95800    304.77075   -1437.1425    478.83014    407.10866   -176.84298    38174.007 
   95900    297.10702   -1424.6587    457.72139     364.1489   -215.82717    38174.007 
   96000    296.42568   -1427.6352    443.68176    344.08033   -92.468299    38174.007 
   96100    299.20764   -1421.4204    464.20737    383.28435   -353.86584    38174.007 
   96200    305.51185   -1397.8628    475.44852    446.32694   -258.49852    38174.007 
   96300    289.53482   -1412.1089    470.03109    355.08383   -22.389483    38174.007 
   96400    305.14469   -1450.4954     458.5245    375.12539     355.9069    38174.007 
   96500    297.34984   -1473.9533    455.74157    313.96238    308.16693    38174.007 
   96600     297.0719   -1471.9604    474.08734     333.0558    822.89489    38174.007 
   96700    299.34268   -1465.5445    464.33705    339.89488    295.64478    38174.007 
   96800    291.92921    -1440.772    445.41395    312.53085    987.13824    38174.007 
   96900    309.13487   -1436.4131    455.16303    403.72287    729.06844    38174.007 
   97000    286.44913   -1439.6516    447.38237    291.06794    441.21317    38174.007 
   97100     311.6088   -1457.5785    445.42877    383.90679    402.44594    38174.007 
   97200    284.87638    -1456.269    471.96218    291.98425    252.57102    38174.007 
   97300    295.99519   -1463.0699    466.23441    329.26954    585.78876    38174.007 
   97400    307.35637   -1478.3795    457.53532    356.16075   -34.186726    38174.007 
   97500    304.64062   -1447.9476    469.87265    386.76302    49.908994    38174.007 
   97600    307.10775   -1451.3844    454.82598    379.33262    557.06837    38174.007 
   97700    306.30719   -1475.9242    443.01572    339.39596    73.055357    38174.007 
   97800    296.17627    -1499.069    431.21017    259.05749   -302.31981    38174.007 
   97900    305.36977   -1485.0095    468.26762     351.3628    -292.2647    38174.007 
   98000    294.02732   -1432.9649    470.43685    354.76066   -49.871849    38174.007 
   98100     295.5312   -1482.9418    462.66513    303.74964   -234.87204    38174.007 
   98200    291.72195   -1469.9746    472.04873    309.03442    547.72807    38174.007 
   98300    307.32939   -1493.6317    458.50067    341.75306     537.2514    38174.007 
   98400    298.92741   -1468.4274    465.41924    336.23375    196.96003    38174.007 
   98500    292.65168   -1506.7057    458.60375    263.02367    424.75514    38174.007 
   98600    301.29267   -1518.4912    466.08288     297.4303    541.36749    38174.007 
   98700    305.78929   -1490.3647    440.97782    320.59735    926.24699    38174.007 
   98800    289.78595    -1493.859    462.79935    267.22703    520.25985    38174.007 
   98900    292.94412   -1497.3437    487.23658    302.32865    192.40655    38174.007 
   99000    293.61005   -1490.5871    449.85407    274.68625     65.40232    38174.007 
   99100    297.09477   -1555.8084    448.11099    223.33397   -528.92183    38174.007 
   99200    293.90269   -1560.1775    432.02074    188.57366    83.617574    38174.007 
   99300    298.66106   -1573.1694    427.67053    192.54971    199.85809    38174.007 
   99400    294.67935   -1552.7668    442.53388    209.97694    190.91655    38174.007 
   99500    300.61613   -1510.8089    472.86175    308.86048   -9.7651371    38174.007 
   99600    301.66361   -1486.6725    432.57999    297.40801    47.862706    38174.007 
   99700     302.1316   -1495.8389    436.73883    294.49703    349.96246    38174.007 
   99800    305.76645   -1501.4186    457.04801    325.51125    522.51081    38174.007 
   99900    304.29406   -1516.8128     438.1752    284.64775    372.30941    38174.007 
  100000    303.39803    -1477.551    435.52271    317.24266    686.55865    38174.007 
  100100    302.45564   -1518.2668    431.56519    268.34733     350.4144    38174.007 
  100200    305.97915   -1493.9321    454.55382    331.45649   -69.172134    38174.007 
  100300    302.60229   -1487.3836    447.51774    315.84008    190.82778    38174.007 
  100400    303.19517   -1478.4061    452.09016    332.04616    76.283094    38174.007 
  100500    295.52586   -1489.3057    454.88387    289.58056   -587.22919    38174.007 
  100600    303.55322   -1561.4902    434.73256    233.20863    -351.7701    38174.007 
  100700    306.36909   -1480.4523     444.9725    337.10199    70.134534    38174.007 
  100800    300.77285     -1490.65    446.06509    302.92479    123.95022    38174.007 
  100900    298.63855   -1481.3252    465.07428    321.69683    425.96042    38174.007 
  101000    310.08213   -1461.5877    476.48239    404.11143     435.4137    38174.007 
  101100    304.91677   -1478.1856    456.72233    344.61187    29.999008    38174.007 
  101200    300.34801   -1459.0222    466.67122    353.25547   -327.14037    38174.007 
  101300    306.11343   -1457.2958     457.9746    372.11517   -94.407627    38174.007 
  101400    293.66123   -1479.8327    464.14952    299.96543   -594.74439    38174.007 
  101500    300.61223   -1450.4972    455.90713     352.2001   -189.18847    38174.007 
  101600    306.47241   -1508.1852    473.46446    338.32399   -84.074656    38174.007 
  101700    303.32134   -1530.4555     446.6663     275.1382   -6.7001019    38174.007 
  101800    314.57295   -1491.7483    430.94231    348.53035    1386.3747    38174.007 
  101900    290.50208   -1468.2568    469.49391    302.73224    528.94911    38174.007 
  102000     302.6844   -1485.8974    457.08016    327.25655    1219.2636    38174.007 
  102100    307.48649   -1467.3778    447.04097    357.25112    521.78615    38174.007 
  102200    297.81591   -1471.2256    477.39435    340.43094    568.14981    38174.007 
  102300    284.30462   -1469.3061    444.88952    249.31289    176.72658    38174.007 
  102400    297.24755   -1479.1962    448.30145    300.82115   -16.679465    38174.007 
  102500    294.02266   -1427.2939      445.075    335.04891   -367.71258    38174.007 
  102600    300.02138   -1448.6938    456.75957    352.20881     -413.987    38174.007 
  102700    297.76492   -1485.4936    474.67631    323.21648   -151.16549    38174.007 
  102800    293.13182   -1510.1703    446.88368    249.99005   -46.034369    38174.007 
  102900    298.06127    -1496.302    449.63886    288.69832    40.127247    38174.007 
  103000    300.39479   -1477.4024    461.46192    329.87554   -78.498262    38174.007 
  103100    298.35778   -1463.5956    459.45125    332.54546   -181.02059    38174.007 
  103200    284.96345   -1478.3479    463.35698    261.69019    17.761288    38174.007 
  103300    292.97175   -1536.6322    457.53997    233.46738   -82.757432    38174.007 
  103400    298.97176   -1481.0854    461.92318    320.27837   -399.64651    38174.007 
  103500    298.14008    -1480.986    443.70581    298.43437    441.75392    38174.007 
  103600     300.3534     -1494.82    441.53155    292.34211    310.49284    38174.007 
  103700    301.66823   -1488.9301    461.50741    324.09848    107.80989    38174.007 
  103800    305.12138   -1485.7307    458.53494    339.79609   -232.37565    38174.007 
  103900    289.77397   -1459.7235    447.04788    285.55741    26.859725    38174.007 
  104000    304.12904   -1459.8709    463.78894    366.46405   -438.82042    38174.007 
  104100    302.32313   -1506.8297    443.83426    291.45979    15.036907    38174.007 
  104200    298.25159    -1496.902    464.61149    303.92357    203.93245    38174.007 
  104300    299.33431   -1492.9446    448.53052    296.65074    99.751782    38174.007 
  104400    294.57761   -1462.1655    449.65035     307.2389   -26.597812    38174.007 
  104500    305.72839   -1468.1381    447.10694     348.6802   -298.66796    38174.007 
  104600    286.53096   -1438.5607    443.39963    288.54271   -30.957745    38174.007 
  104700    309.14483   -1457.0925    482.78345     410.7085   -722.83654    38174.007 
  104800    291.13485   -1451.6146    452.57201    305.28736   -502.18145    38174.007 
  104900    304.04619   -1442.7947    447.56406    366.94416   -825.11567    38174.007 
  105000    303.86675   -1407.3884    491.49472    445.47722   -1276.4609    38174.007 
  105100    300.04063   -1451.5844    446.85886    339.50378   -443.51965    38174.007 
  105200    298.68418    -1436.563    468.66033    370.24953   -289.12502    38174.007 
  105300    291.76522   -1452.9763    459.95087    314.12875   -428.45414    38174.007 
  105400    299.59991     -1450.62    448.00383    339.63859   -631.08525    38174.007 
  105500    306.82744   -1463.9413    460.26488    370.95886    -384.5126    38174.007 
  105600     298.1971    -1491.822    436.61144    280.75938    52.614949    38174.007 
  105700    295.98846   -1466.9149    467.91509    327.07511    351.94703    38174.007 
  105800    302.10423   -1480.5113    452.59497    325.55822    197.27747    38174.007 
  105900    295.46467   -1477.0979    463.25295    309.88326   -87.269458    38174.007 
  106000    301.86174   -1488.5052    450.16197    314.04486    322.29833    38174.007 
  106100    287.27827   -1476.6474    462.04347    272.44795    113.20382    38174.007 
  106200    300.38737   -1486.7354    472.73025     331.7776   -211.02025    38174.007 
  106300    299.79687   -1533.7788    465.16661    274.52497   -262.46219    38174.007 
  106400    300.90553   -1496.8476    450.13105    301.38764    80.943124    38174.007 
  106500    305.27509   -1509.1666    452.44269    310.95658    1.3285268    38174.007 
  106600    303.38577   -1501.6215     492.8396    350.43413    269.52331    38174.007 
  106700     295.0757   -1493.3664    450.79122    279.41039    14.987022    38174.007 
  106800    292.46406   -1460.1385    445.19597    295.34254    170.26632    38174.007 
  106900    307.05722   -1508.7723    450.00496    316.89736    123.94815    38174.007 
  107000    296.91297   -1494.4377    437.81513    273.59433   -310.55247    38174.007 
  107100    305.26776   -1404.6155    473.83316    436.86536   -270.85941    38174.007 
  107200    300.32459   -1414.1685    458.68651    390.01947   -857.08419    38174.007 
  107300    310.87772   -1463.1016    443.08296    372.76255   -1181.2413    38174.007 
  107400    299.49314   -1508.9601    440.03539    272.85172    -894.3582    38174.007 
  107500    299.13873   -1491.2923    452.64229    301.53859   -989.78223    38174.007 
  107600     302.8471   -1523.6916    434.15303    267.26411   -684.39695    38174.007 
  107700    304.60815   -1508.6939     456.7328    312.73142   -87.042524    38174.007 
  107800    296.87046   -1535.7884    445.41876    239.65673   -335.05401    38174.007 
  107900    297.81092   -1494.5814    447.12754    286.78597    56.340458    38174.007 
  108000    308.57469   -1528.7984      431.849    285.51378    379.68736    38174.007 
  108100    288.25258   -1561.4925    463.19258    193.11705   -88.535355    38174.007 
  108200    304.95394   -1513.8825    450.02586    302.38502    466.91016    38174.007 
  108300    289.60398   -1531.5041    449.76899     215.7363    509.93254    38174.007 
  108400    296.02239    -1516.712     443.7171    253.23203    918.96901    38174.007 
  108500    280.29593   -1510.1915     451.2774    196.85577    245.39029    38174.007 
  108600    297.15112    -1547.205     466.9321     251.0109    225.97039    38174.007 
  108700     309.4799   -1505.3526     448.8178     329.9839    232.50159    38174.007 
  108800    292.00746   -1490.1046    468.90556    287.04035    209.18135    38174.007 
  108900     301.0967    -1480.637    455.00391    323.32754    161.13267    38174.007 
  109000    311.69948   -1497.9086    463.34012    361.89429    191.58337    38174.007 
  109100    303.73661   -1511.7856    447.11704    296.11936    112.45749    38174.007 
  109200    306.55905   -1477.6799    456.24693    351.99985   -112.75992    38174.007 
  109300    303.82712   -1479.9134    469.76326    351.04321    114.46064    38174.007 
  109400    310.50054   -1508.3994    443.89568    326.58762    560.32342    38174.007 
  109500    306.49518   -1479.9968    481.04729    374.19717    752.70639    38174.007 
  109600     294.4843   -1524.4558    462.07106    256.95135    332.89685    38174.007 
  109700    286.06774   -1490.3678    457.48028    248.74102    321.72911    38174.007 
  109800    296.75406   -1489.0597    455.37897    295.82426    709.24215    38174.007 
  109900     299.0055   -1475.4376    457.38214    321.53627    362.04477    38174.007 
  110000    289.10834   -1493.2771    431.55984    233.53363   -532.32258    38174.007 
  110100    315.39135     -1527.14      423.239    309.10192   -139.28373    38174.007 
  110200    299.32401   -1480.9045    460.02654    320.14074    33.650407    38174.007 
  110300    293.82956   -1504.7703    459.80316    271.43558   -129.43108    38174.007 
  110400    294.73311   -1510.0436    456.46801     266.8752    182.68215    38174.007 
  110500    295.82768   -1488.2525    452.72912    289.83121    -287.3422    38174.007 
  110600    302.84442   -1502.1049    452.39094    307.07681    62.597882    38174.007 
  110700    296.54749   -1509.2754    430.98977     250.2938   -95.361815    38174.007 
  110800    293.11112   -1468.9369     465.9147     310.1618   -439.08928    38174.007 
  110900    293.88724   -1495.5222    442.35929    263.49824   -349.66408    38174.007 
  111000    294.65761   -1454.8459     454.4808    319.74735   -440.13008    38174.007 
  111100    307.51498   -1487.7833    458.25982    348.19206    414.92832    38174.007 
  111200    304.11374   -1499.7442    465.56397    328.29722    739.08088    38174.007 
  111300    297.28861   -1473.9582    469.76059    327.70226    875.22616    38174.007 
  111400    308.86768   -1468.0822    483.05384     398.7475    867.79784    38174.007 
  111500    288.82866   -1454.7918    454.59657    293.80269    198.94393    38174.007 
  111600    290.42404   -1466.2963    463.07055    297.91971   -84.763389    38174.007 
  111700    296.04632   -1443.5164    455.54516    338.36286   -147.50071    38174.007 
  111800     302.7466   -1465.9687    457.48253    347.86633   -532.31131    38174.007 
  111900    296.31234   -1510.5757     446.2668    263.21703   -515.61338    38174.007 
  112000    296.95684   -1502.9514    455.29211    282.75416   -464.99749    38174.007 
  112100    292.60491   -1489.0838    429.55917    251.39142   -168.91567    38174.007 
  112200    292.73082   -1420.4242    467.71363     358.7696   -319.13069    38174.007 
  112300    299.57375   -1454.4017    449.67239    337.40831   -386.55301    38174.007 
  112400    304.12657   -1437.5239    467.58791    392.59895    181.01528    38174.007 
  112500    293.18258   -1476.3361    467.35628    304.52438    6.8376599    38174.007 
  112600    304.41468   -1438.2975     457.0966    382.62488     128.9362    38174.007 
  112700    304.87871   -1452.7005    460.85982    374.06402     372.0112    38174.007 
  112800    294.82691   -1446.4176    473.56209    348.01549    463.09029    38174.007 
  112900    285.31992   -1461.4474    453.77719    270.60796    969.69749    38174.007 
  113000    310.74143   -1461.4487    447.06546    377.78727    510.97977    38174.007 
  113100    297.93424    -1452.354    451.52805    333.96636    1031.9708    38174.007 
  113200    300.34479   -1502.3935    449.22375    292.42224    1238.5207    38174.007 
  113300    309.80673   -1480.4111     449.2627    356.83454    438.44634    38174.007 
  113400    289.77682   -1431.4254    492.10384    358.92423     69.37057    38174.007 
  113500    293.99822   -1428.3392     464.9606    353.77972    176.89937    38174.007 
  113600    294.20988   -1471.6716    443.36426    289.79928    26.272802    38174.007 
  113700    293.46252   -1441.3895    458.58879    331.95764   -646.09621    38174.007 
  113800    297.67703   -1432.7596    468.68789    369.56821    -442.6347    38174.007 
  113900    304.13145   -1446.8998    448.95389    364.61085   -470.04438    38174.007 
  114000    295.81344   -1466.5234    453.75638    312.52383   -438.36237    38174.007 
  114100    293.96246    -1422.111    456.70838    351.59548   -27.163283    38174.007 
  114200    307.44071   -1485.9437    462.23496    353.67406   -102.83874    38174.007 
  114300    303.78399   -1431.3282    469.09336    398.76524    479.89626    38174.007 
  114400    297.00287   -1447.0206    460.74697    344.34599    212.12337    38174.007 
  114500     305.5255   -1436.9585    468.46422    400.30811    323.27286    38174.007 
  114600     294.8357   -1424.2299    471.53305    368.21356    199.76173    38174.007 
  114700    304.60067   -1468.3901    445.45016    341.71906    439.74855    38174.007 
  114800    298.71343   -1464.4252     465.0496     338.9076    617.69641    38174.007 
  114900    297.27321   -1495.3031    454.76805    291.29574    6.1386206    38174.007 
  115000    309.69805   -1457.6935    447.86754    377.67011     84.57104    38174.007 
  115100    304.42074   -1446.1227    487.49855    405.22866     130.3875    38174.007 
  115200    297.80167   -1420.9819    456.77411    369.99053   -135.15515    38174.007 
  115300     295.0411   -1451.2338    427.52763    298.12445   -324.58958    38174.007 
  115400    305.49265   -1481.8845    438.81414    325.58481   -278.67688    38174.007 
  115500    304.38398   -1474.7211    438.62646    327.59357    68.504759    38174.007 
  115600    294.61239   -1439.7263    458.29887    338.48246    737.26493    38174.007 
  115700    297.73402   -1444.7333    472.78208    361.94406    975.59774    38174.007 
  115800    288.54337   -1460.1093    478.60264    311.21306     653.8206    38174.007 
  115900    301.34729    -1425.337    485.14185    409.88814    768.97711    38174.007 
  116000    310.48567   -1412.5895     455.7115    434.14666    174.02395    38174.007 
  116100    304.80418   -1445.5595    459.14177    379.15298    600.06236    38174.007 
  116200    301.20774   -1419.2802    469.74322    399.92114    507.11076    38174.007 
  116300    300.87291    -1454.252    459.38593      353.092    506.92441    38174.007 
  116400    297.77874   -1435.2581    446.10198    344.93953    170.30716    38174.007 
  116500    307.74128   -1442.4291    446.55304    382.85336    285.43716    38174.007 
  116600     298.6634   -1460.7944    462.26564    339.53033     452.5661    38174.007 
  116700    301.59327   -1461.9725    459.17296    348.38587   -16.833568    38174.007 
  116800    296.95079   -1442.9477    470.45373    357.89235    355.13797    38174.007 
  116900    299.63118   -1505.6881    445.42757    282.13435   -329.87083    38174.007 
  117000    297.71163   -1435.3525     457.3962    355.83869    -125.0566    38174.007 
  117100    301.77688   -1420.0703    458.91354    390.85119   -180.69581    38174.007 
  117200    297.00177   -1410.1005    476.71323    397.22746   -425.91635    38174.007 
  117300    304.37116   -1431.3175    446.00846    378.32168   -23.802582    38174.007 
  117400    302.47406   -1433.3222    439.88055     361.6898    319.92184    38174.007 
  117500    290.28771    -1465.671    467.73583     302.5995    204.51102    38174.007 
  117600    308.30799   -1492.1769    459.13658    348.22804    293.99973    38174.007 
  117700    298.90555   -1495.6814    428.72606    272.18861   -129.81148    38174.007 
  117800    306.66216   -1478.1032    444.67567    340.46727    147.11082    38174.007 
  117900     293.3425   -1478.3719    441.13941    276.98815    50.488702    38174.007 
  118000    301.95029   -1492.7988    450.13795    310.12401   -138.24894    38174.007 
  118100    297.62824   -1465.4728    476.18696    344.13559   -570.05913    38174.007 
  118200    298.09185   -1466.5994    436.39463    305.29373   -490.78409    38174.007 
  118300    297.67825    -1470.265    452.26531    315.64574   -88.451464    38174.007 
  118400     300.8038   -1469.8552    444.55163    322.34488   -865.15598    38174.007 
  118500    299.39958   -1483.8057    444.71468    302.26621   -540.26344    38174.007 
  118600    292.83039   -1524.6922     446.2098    233.44389   -248.34294    38174.007 
  118700    296.63699   -1502.1951    473.95724    300.74259   -593.78076    38174.007 
  118800    301.09487   -1532.3175    439.82176    256.45667   -468.55949    38174.007 
  118900    303.38776   -1506.0951    447.40861    300.53846   -165.54229    38174.007 
  119000    300.68126    -1482.894    458.37156    322.57701    305.56137    38174.007 
  119100    293.09162    -1457.516    456.35124    311.93184    9.5780029    38174.007 
  119200    303.18606   -1457.9811    437.80488     338.1451    334.26578    38174.007 
  119300    310.19043   -1463.5529    447.24533    373.39442    158.88649    38174.007 
  119400    298.51144   -1510.4917    443.00488    269.89143    167.99095    38174.007 
  119500    301.89365     -1505.84    464.48039    311.17153   -499.15187    38174.007 
  119600    308.93149   -1468.5256    459.59761    375.13376    -566.4326    38174.007 
  119700    303.47382   -1429.4549    466.56708     396.7227   -263.52145    38174.007 
  119800    293.83746   -1440.6729    456.53722    332.30244    243.53237    38174.007 
  119900    310.66654   -1453.6968    464.34937     402.4876    96.634372    38174.007 
  120000    305.41974   -1445.9433    472.98661    395.37186    362.24243    38174.007 
  120100    295.95265   -1463.6306    469.11301     331.3969   -186.41343    38174.007 
  120200    302.60195   -1495.1236    468.94678    329.52754    350.08661    38174.007 
  120300    302.95896   -1457.5528    449.21789    348.96895    34.193676    38174.007 
  120400     292.4925   -1445.4671     457.7922    322.73763    614.12867    38174.007 
  120500    306.49336   -1451.6901    464.04259    385.49102    636.29603    38174.007 
  120600     291.6791   -1459.1747    479.78716    327.38081   -129.48919    38174.007 
  120700    303.62291    -1413.512    445.65305    392.41957    437.64201    38174.007 
  120800    291.41206   -1436.3548    456.18452     325.4016   -406.63146    38174.007 
  120900    303.34612   -1434.5045    488.78552    413.31937   -155.08062    38174.007 
  121000    304.80154   -1428.0366    462.04232    399.56459   -234.86208    38174.007 
  121100    302.96241   -1419.6863    482.14564    419.77863   -783.20339    38174.007 
  121200     288.3762   -1452.0607    443.54931    283.45941   -390.46405    38174.007 
  121300    293.09599   -1410.6826    494.20981    396.64336   -545.96375    38174.007 
  121400    291.19195   -1416.9158    474.93994    362.60993   -206.00756    38174.007 
  121500    301.92074   -1417.4134    476.03475     411.2738   -396.05483    38174.007 
  121600    300.38586   -1421.6699    485.91116    410.01722   -692.95448    38174.007 
  121700    300.14599   -1443.9988    474.66055     375.3631    -483.9013    38174.007 
  121800    308.44786   -1425.1813    470.57383    427.28752   -418.03946    38174.007 
  121900    301.53026   -1416.7875    491.00154     425.1171   -556.56565    38174.007 
  122000    297.05329   -1451.0647    460.42188     340.2027     153.2125    38174.007 
  122100    305.61176   -1465.7099    467.01586    370.49474    -142.5804    38174.007 
  122200    300.73576   -1442.0332    459.86458    365.17498   -154.32023    38174.007 
  122300    294.19603   -1471.6134    469.00289    315.43405   -754.83722    38174.007 
  122400    299.69889   -1441.8559    461.31161    362.15398    166.79438    38174.007 
  122500    308.41867     -1481.16    455.47832    356.08258    91.239124    38174.007 
  122600    289.81684   -1502.4142    474.15442    270.16536   -112.97104    38174.007 
  122700    304.95133   -1512.4875       475.81     329.5525    492.47537    38174.007 
  122800    291.66265    -1509.201    473.82845    271.32205    605.36068    38174.007 
  122900    292.14595   -1503.6426    461.04596    266.26321    192.81301    38174.007 
  123000    296.98423     -1510.46    478.92532    299.00144    182.21279    38174.007 
  123100    290.45147   -1434.7772      477.892    344.38318   -253.52238    38174.007 
  123200    303.84495   -1458.0879    457.90803    361.09333   -79.905071    38174.007 
  123300     292.0439    -1475.028    487.98659    321.36122   -586.84715    38174.007 
  123400    297.46671   -1418.2739    475.38851    389.81236   -226.65827    38174.007 
  123500    303.20894   -1515.7199    445.54186    288.24577    79.090448    38174.007 
  123600    296.16655   -1504.3078    475.76421    298.32919    505.34238    38174.007 
  123700    288.05489   -1509.9948    459.41415    239.95057    996.04665    38174.007 
  123800    307.22831   -1519.6075    462.09278    318.91653    904.17109    38174.007 
  123900    313.16079   -1511.5365    439.10881    330.58193    418.07986    38174.007 
  124000    294.23347   -1535.0698    466.54821    249.69071    284.60124    38174.007 
  124100    299.12726   -1510.7371    463.48995    292.89008    458.00603    38174.007 
  124200    299.19958   -1508.9975    456.74002    288.20378    509.53357    38174.007 
  124300    294.85161   -1553.1386    440.98928    208.83231    528.36714    38174.007 
  124400    309.14156   -1512.4609    469.02191    341.56392    188.92316    38174.007 
  124500    297.25328   -1513.5022    480.19858     298.4379   -659.44517    38174.007 
  124600    314.39714   -1490.7632    450.46155    368.24705   -256.76629    38174.007 
  124700    292.85036   -1518.7725    454.07351    247.31673   -730.54878    38174.007 
  124800    297.38551   -1492.7915    458.53761    298.08005   -482.67835    38174.007 
  124900    302.26116   -1460.3099    470.60355    364.47125   -364.67342    38174.007 
  125000    300.89659   -1515.4738    466.63911    299.22944   -38.618118    38174.007 
  125100    298.30265   -1517.8508    480.57365    299.16576    700.98291    38174.007 
  125200    304.14116   -1519.4529    469.04812    312.19554    423.89349    38174.007 
  125300    293.89328   -1550.8094    468.60813    234.48691    208.22463    38174.007 
  125400    291.80872   -1490.8778    470.07798    286.54924    1.7660967    38174.007 
  125500    305.70795   -1512.0922    476.79517    334.32277    186.38696    38174.007 
  125600    295.97602   -1507.6115    459.60849    278.01616   -319.72008    38174.007 
  125700    302.31099   -1515.3711    487.13552    326.16526    197.21638    38174.007 
  125800    300.63752   -1535.3995    463.15315    274.65709    19.819321    38174.007 
  125900     291.6595   -1563.6125    435.62262    178.69057    293.89574    38174.007 
  126000    313.28304   -1511.0336    488.58914    381.11292    526.27775    38174.007 
  126100    287.36124   -1508.7018    485.04256    263.76439    270.93995    38174.007 
  126200    301.90695    -1509.048    463.98557    307.52831   -143.64464    38174.007 
  126300    296.58743   -1498.4981    479.48055    309.74082   -323.66506    38174.007 
  126400    296.59309   -1499.5743    472.91363    302.12309   -420.24255    38174.007 
  126500    305.38645   -1476.9998    486.40615    377.58572    93.969745    38174.007 
  126600    306.56301   -1465.7855    453.52231    361.18739   -135.48271    38174.007 
  126700    295.84103   -1477.4602    494.18131    342.13551   -361.42761    38174.007 
  126800    293.92904   -1460.4023     490.5276    346.97373   -356.36935    38174.007 
  126900    308.18283   -1501.2386    482.05568    361.52465   -191.23346    38174.007 
  127000    300.02037   -1524.7644    466.62369     285.9978    -178.1715    38174.007 
  127100    300.12631   -1544.2133    446.22881    246.62866   -33.147527    38174.007 
  127200    293.83861   -1533.6744    476.69118       259.46   -601.87035    38174.007 
  127300    296.08751   -1553.1233     476.5299     249.9253   -5.6759304    38174.007 
  127400    299.33895   -1535.4344     498.7108    304.36199   -32.301259    38174.007 
  127500    296.02393   -1521.6009    466.59486    271.22775   -681.28338    38174.007 
  127600    309.40836   -1522.5581    469.57717    333.21725    171.71478    38174.007 
  127700    304.95812   -1519.5532    484.96753    331.67477   -426.73186    38174.007 
  127800    304.46749   -1511.4451    469.33826    321.95547     -763.206    38174.007 
  127900    296.86891    -1501.244    471.51123     300.2867    -808.4352    38174.007 
  128000    296.42428   -1448.5928    480.41462    359.84926   -771.99003    38174.007 
  128100    290.27453   -1462.4317    478.78461    316.82857   -340.90677    38174.007 
  128200    300.32589   -1475.9931    464.65126    334.16544    63.037741    38174.007 
  128300    315.80844   -1488.9698    480.77086    406.67261    629.69638    38174.007 
  128400    302.44629   -1487.8321    469.56631     336.7412    513.35915    38174.007 
  128500    305.56023   -1527.3882     470.6221    312.19181    814.44665    38174.007 
  128600    292.30572   -1504.5636    491.36909    296.38121    132.52532    38174.007 
  128700    305.10479   -1463.8388    488.41552    391.49421     356.9987    38174.007 
  128800    303.67654   -1517.7388    487.49183    330.27174    169.97062    38174.007 
  128900    308.59247   -1484.2345    469.55555    367.86396   -83.453936    38174.007 
  129000    305.40153   -1483.5771     459.6514    344.32131   -504.69912    38174.007 
  129100    298.78249   -1510.4316    485.68807    313.84907    34.373972    38174.007 
  129200    291.74288   -1494.2663    493.63517    306.42298   -132.89933    38174.007 
  129300    286.40765   -1487.9393    475.59947    270.81158   -453.81488    38174.007 
  129400    295.52385   -1503.2899    444.93961    265.64305   -615.60731    38174.007 
  129500    303.75928   -1461.9787    469.55957     368.4703    102.38421    38174.007 
  129600     288.2567   -1455.9522    477.75584    313.23905   -744.19276    38174.007 
  129700    292.54695   -1439.6821      484.327    355.30128   -122.86146    38174.007 
  129800    296.82832   -1467.6886    480.73367    342.88267   -151.36133    38174.007 
  129900    301.14058   -1466.1151    456.82739    339.86954   -378.88865    38174.007 
  130000    306.41376   -1483.8996    464.88242    353.76473    -393.6692    38174.007 
  130100    292.32463   -1465.6373    465.33195    309.35503   -74.835412    38174.007 
  130200    297.52669   -1490.7858      474.028    316.20866    45.232582    38174.007 
  130300    306.46418   -1474.0156     467.1814    366.17358   -381.78569    38174.007 
  130400    312.79691   -1485.9255    436.51389    351.96787   -189.69427    38174.007 
  130500    295.78344   -1491.0006    463.27049    297.42633    450.04187    38174.007 
  130600    297.22688   -1464.1216    473.04635    340.54798    193.58879    38174.007 
  130700    304.29512   -1534.6628    474.67448    303.30179   -500.65948    38174.007 
  130800    302.21756   -1483.7432    467.77044    338.00953    13.060254    38174.007 
  130900    311.71239    -1493.207    477.95827    381.27183     603.6044    38174.007 
  131000    306.27324   -1490.1259    508.31856    390.34505    328.33663    38174.007 
  131100    296.91593   -1440.9312    458.06548    347.36439    162.14305    38174.007 
  131200    302.64971   -1492.6011    448.53879    311.85605   -130.56802    38174.007 
  131300    301.65568   -1507.5115    462.41833    306.37184     248.9942    38174.007 
  131400    305.55425   -1481.7738    465.16456    352.32192    288.17329    38174.007 
  131500    308.74551   -1541.1304    449.27467    291.37278    66.502803    38174.007 
  131600    296.28227   -1478.2341    461.07693    310.23407    251.52018    38174.007 
  131700    296.99342   -1484.0959    482.56168    329.04312     771.8937    38174.007 
  131800    306.31087   -1524.1897    473.47336    321.60462    405.94635    38174.007 
  131900    300.98442   -1506.4085    457.81999    299.86905    314.26471    38174.007 
  132000     308.0093    -1475.949    475.35972    379.34091   -441.73756    38174.007 
  132100    305.01431   -1503.9856    478.45607    340.98259   -494.96153    38174.007 
  132200    299.12075   -1525.6119    418.41008     232.9062   -715.79713    38174.007 
  132300    301.57515   -1493.6924     467.9078    325.31955   -231.22831    38174.007 
  132400     288.6599   -1512.2033    457.12251    238.16101   -19.422548    38174.007 
  132500    297.28182   -1528.9502    462.30835    265.22755    351.70013    38174.007 
  132600    295.05774    -1481.711     445.7455    285.93964    205.74488    38174.007 
  132700    283.33951   -1468.9147    476.90267    277.39358   -348.64858    38174.007 
  132800    291.52906   -1468.2271    470.62978    308.49879   -385.18211    38174.007 
  132900    297.53514   -1512.5199    457.62142    278.10582   -443.59826    38174.007 
  133000    296.20767   -1499.4262    457.26265    284.89348   -521.59899    38174.007 
  133100    301.44722   -1466.3597    459.01186    343.18317   -290.93421    38174.007 
  133200    301.26345   -1477.4255    463.12988     335.4121    -319.6797    38174.007 
  133300    312.44548   -1492.6324    476.98602    384.15863    302.32718    38174.007 
  133400    291.61714    -1485.666    470.94495    291.76963    715.73458    38174.007 
  133500    308.16816   -1492.7119    470.10795      358.038    638.51753    38174.007 
  133600    291.23273   -1480.1314    470.91472    295.55184    974.15541    38174.007 
  133700    311.34874   -1482.2183    460.54196      373.215    548.75442    38174.007 
  133800    312.01275   -1498.0578    468.21304    368.02151      630.566    38174.007 
  133900    296.49803   -1527.8357    496.97643    297.49858    742.13865    38174.007 
  134000    302.73809   -1487.9205    475.96181     344.3556    505.36092    38174.007 
  134100    290.95389   -1507.1912     447.5755    243.90351   -302.23391    38174.007 
  134200    304.14979   -1514.9828    481.58607     329.2422    54.088442    38174.007 
  134300    297.76561   -1537.2984    431.73416    228.47256    441.81861    38174.007 
  134400    301.95898   -1546.0314     468.7064    275.49877    159.53629    38174.007 
  134500     292.9104   -1543.2497    484.91147    253.94651    627.31893    38174.007 
  134600    293.36275   -1545.1929    461.90121    231.01962    615.73422    38174.007 
  134700    297.37204   -1519.6526     479.4939    292.11492    589.13699    38174.007 
  134800    304.06632   -1523.5136    481.83024    320.58163    782.75751    38174.007 
  134900    286.38541   -1526.2539    470.54293    227.34083    440.84727    38174.007 
  135000    295.41179   -1503.6684    443.96679     263.7898   -441.81595    38174.007 
  135100    308.36681   -1516.2047    465.20573    330.53294    -265.0806    38174.007 
  135200    294.32866   -1494.2991    474.65982    298.99946   -343.21945    38174.007 
  135300    299.74393   -1470.0937    486.40045    359.20679   -770.93523    38174.007 
  135400    295.50533   -1468.2374     460.6411    316.31409   -793.13484    38174.007 
  135500    291.97341   -1461.4347    465.96406     312.6162   -27.421009    38174.007 
  135600    295.33646   -1474.2647    457.79838    306.68759   -94.967247    38174.007 
  135700    311.73198    -1464.912    462.56642    394.26281    400.79349    38174.007 
  135800    288.11969   -1505.4668    466.50436    251.85916   -121.71112    38174.007 
  135900    293.78853   -1516.1952    477.79249    277.81613   -255.23021    38174.007 
  136000    309.88199   -1483.0123    479.90919    385.21697      279.385    38174.007 
  136100     310.1293   -1497.2448    477.02014    369.20348    386.49537    38174.007 
  136200    305.90621    -1458.599    452.66929    364.57828    5.7164287    38174.007 
  136300    313.70169   -1463.6407    487.09644    428.88876    429.98084    38174.007 
  136400    293.44409   -1489.2436    496.89004    322.32222   -4.1661147    38174.007 
  136500    305.09759   -1491.2791    465.25089    340.85708    597.39307    38174.007 
  136600     307.3888   -1507.4863    454.83099    324.49495    347.95255    38174.007 
  136700    302.96036   -1504.9837    467.58736    319.91386     117.6492    38174.007 
  136800    287.09653   -1490.4103    478.59885    274.42623   -208.69175    38174.007 
  136900    306.76819   -1480.1418     488.1296     382.3576   -601.45859    38174.007 
  137000    306.56302   -1478.8328    473.22976    367.84761   -375.58592    38174.007 
  137100    305.89628   -1495.2142    465.28465    340.53393    130.93696    38174.007 
  137200    292.99113   -1488.9949    468.98097    292.63246    197.18498    38174.007 
  137300    300.88623    -1476.438    488.71715    360.29689    357.84888    38174.007 
  137400    290.78135   -1470.9586    463.60334    295.39098    87.662262    38174.007 
  137500      293.325   -1452.1253    481.09769    343.11462    126.76072    38174.007 
  137600    306.18937   -1415.5515    473.53328    429.75841    73.278783    38174.007 
  137700    294.99012     -1484.33    479.28069    316.55293    143.78414    38174.007 
  137800    303.31346    -1478.276    475.78199    356.39807    605.54036    38174.007 
  137900    302.46245   -1494.8126    453.94069    314.20749    408.27768    38174.007 
  138000    292.23648   -1495.9032    455.14947    268.51177      476.462    38174.007 
  138100    303.52799   -1517.9565    476.42894    318.32568    6.6272596    38174.007 
  138200    282.98126   -1495.8254     467.3047    239.27989   -70.734928    38174.007 
  138300    299.29872   -1543.5929    467.58166    264.89422    217.81271    38174.007 
  138400    294.92749   -1547.6249    454.54683    228.24355    252.79041    38174.007 
  138500    307.82285   -1534.7515    459.51544    303.85879    267.01181    38174.007 
  138600    307.42636   -1489.8242    451.20904    338.70333    165.60232    38174.007 
  138700    302.64599   -1514.7755      464.398    305.52422   -53.627034    38174.007 
  138800    300.24385   -1506.6462    445.52118    284.01471   -447.40259    38174.007 
  138900    293.23172   -1498.4294     468.0862    283.38108   -512.32597    38174.007 
  139000    289.68909   -1549.0956    473.03669    221.79379   -181.18929    38174.007 
  139100    307.00668   -1498.0611    454.93372    332.31089    -333.4151    38174.007 
  139200    297.45558   -1494.2375    459.11651    297.52685    119.72803    38174.007 
  139300    311.10383   -1508.9982    467.16516    351.96108   -426.98788    38174.007 
  139400    297.66908   -1500.4749    448.21551    281.34502   -298.97731    38174.007 
  139500    305.72888   -1499.4885    471.91088    342.13588   -226.90315    38174.007 
  139600    287.02732   -1489.6986    428.84544    225.07448   -352.70225    38174.007 
  139700    307.18365   -1475.8761    469.96166    370.31675   -111.83071    38174.007 
  139800     306.8063   -1502.1474     457.6129    330.00601   -99.100573    38174.007 
  139900    310.35873   -1516.3393    461.73362    335.85029    -280.2281    38174.007 
  140000    294.84977    -1539.504    477.10756    258.57697   -193.13892    38174.007 
  140100    308.55296   -1552.7342    443.19415    272.82581   -185.87662    38174.007 
  140200    306.27642   -1507.1445    458.67502    323.69715    300.62655    38174.007 
  140300    300.95756   -1536.0382    462.39975    274.69881   -65.034422    38174.007 
  140400    304.46336   -1503.1436    443.59493    304.49515   -427.85171    38174.007 
  140500    293.33316   -1507.1698    461.86332    268.87227   -35.323447    38174.007 
  140600    296.86022   -1506.6779    466.70163     290.0043   -309.60671    38174.007 
  140700    307.62161   -1452.6374    467.34789     392.9037   -568.19468    38174.007 
  140800    297.66676   -1476.2857    477.95622     335.2645   -485.11088    38174.007 
  140900     301.7728   -1513.9127    458.08731     296.1643   -112.41167    38174.007 
  141000    306.57626   -1489.0335    470.35526    354.83168   -356.76729    38174.007 
  141100    291.99398   -1457.7526    476.23651    326.66295   -293.01143    38174.007 
  141200    304.12377   -1440.2703    450.87908    373.13116   -105.86854    38174.007 
  141300    307.55632   -1444.6722    472.84886    406.07742   -835.14531    38174.007 
  141400    291.63665   -1489.3131    461.11026    278.37529   -495.89332    38174.007 
  141500    294.14982   -1507.5555    469.27745    279.55951   -198.58527    38174.007 
  141600    301.81701   -1506.8269    465.90058    311.26141   -434.94214    38174.007 
  141700    298.25026   -1472.5971    469.40497      333.016   -264.88851    38174.007 
  141800    302.09427   -1517.9979    470.36142    305.79344   -301.52402    38174.007 
  141900    298.08894   -1517.3112    454.29141    272.46561   -432.39999    38174.007 
  142000    298.76516   -1520.9445    463.38333    280.95385   -1374.2528    38174.007 
  142100     305.2173   -1460.7502    464.97061    371.64201   -834.19853    38174.007 
  142200    314.89787   -1505.4536    477.53215    382.87061   -646.09392    38174.007 
  142300    311.66951   -1511.5932    460.64674    345.38202   -705.98188    38174.007 
  142400    309.11449   -1487.4927    437.87383    335.26275   -424.07763    38174.007 
  142500    307.42319   -1483.5627    508.35079    402.09241   -496.94676    38174.007 
  142600    307.63682   -1489.8819     453.7099    342.08944   -111.59633    38174.007 
  142700    294.41295   -1464.3852    451.80736    306.43855   -314.48862    38174.007 
  142800    303.48776     -1480.52    465.56671    344.71972   -180.51554    38174.007 
  142900    299.67393    -1492.496    475.18257    325.27296   -449.02622    38174.007 
  143000    304.37348   -1516.2019    463.67257    311.11175    -373.2026    38174.007 
  143100    301.76121   -1535.6425    431.71614    248.01142    109.45781    38174.007 
  143200    299.72664   -1533.4877    461.44424    270.77902   -184.92177    38174.007 
  143300    306.14563   -1519.2775    447.76228    300.06545    192.33478    38174.007 
  143400    294.16668    -1470.027    477.05706    324.94312    -19.46057    38174.007 
  143500    299.06364   -1494.7701    488.90839    333.99054    48.514756    38174.007 
  143600    297.77687   -1505.8903    454.45973    282.65668   -390.07238    38174.007 
  143700    290.12459    -1513.453    466.50354    252.85435    318.43586    38174.007 
  143800    297.62045   -1541.9764    460.50486    251.91497   -39.808941    38174.007 
  143900    313.31933   -1541.5205    437.46287    299.66234   -408.50654    38174.007 
  144000    305.77252   -1457.8336    457.61552    369.69097    237.86105    38174.007 
  144100     296.7354   -1474.4436    487.60428    342.58205    21.352371    38174.007 
  144200    291.56458   -1452.2709    441.09736    295.08169   -411.49288    38174.007 
  144300    304.42806   -1448.7753    463.63102    378.74137   -597.75385    38174.007 
  144400    302.90403   -1469.4662     454.2867    341.87824    -186.0284    38174.007 
  144500    293.28817   -1459.7857    476.48792    330.67945   -1063.7275    38174.007 
  144600     299.3121   -1468.4183    469.44658    341.99367   -567.72296    38174.007 
  144700    300.04216   -1457.9666    455.02946    341.29902   -358.43939    38174.007 
  144800    302.45541   -1457.4338    457.33026    354.94435   -145.00765    38174.007 
  144900     295.2693   -1494.5389    443.66689    271.98096   -26.683966    38174.007 
  145000    300.95487   -1454.7868    461.92702    355.46543    254.05766    38174.007 
  145100      292.663   -1490.7728    459.17907    279.58261    19.168673    38174.007 
  145200    300.26661   -1490.6083    454.74654    309.37995    209.80348    38174.007 
  145300    306.95712   -1503.8922    454.77346    326.09752   -40.646998    38174.007 
  145400    288.84509   -1462.3193    468.95948     300.7117   -111.31799    38174.007 
  145500    310.78394   -1492.6109     452.2014    351.95155    403.03564    38174.007 
  145600     297.7446   -1504.9661    457.26068    286.23725    973.65055    38174.007 
  145700    298.78014   -1523.9079     478.4207    293.09484    75.284609    38174.007 
  145800    305.14044   -1581.0435    447.35195    233.38573   -190.31659    38174.007 
  145900    306.37216   -1560.5851    455.08503     267.0955      257.495    38174.007 
  146000    306.13177   -1533.5523    469.77596    307.74224   -121.61787    38174.007 
  146100    303.60468   -1543.4572    457.28224    274.02185    656.36981    38174.007 
  146200    304.91548    -1536.112    443.75909    273.71641    177.67639    38174.007 
  146300    301.61398   -1525.6656    450.22313     275.8357    354.77222    38174.007 
  146400      290.269   -1537.1787    461.17366    224.44581    305.63259    38174.007 
  146500    305.40719   -1507.9475    462.14808    322.47292    417.28314    38174.007 
  146600    299.29355   -1504.6885    474.29014    310.48387   -233.34554    38174.007 
  146700    299.50965   -1503.9066     474.8298    312.77357    1044.6212    38174.007 
  146800    306.62349   -1534.1194    469.85191    309.45402    482.32113    38174.007 
  146900    297.22672   -1499.0399    463.95474    296.53739    170.29014    38174.007 
  147000     295.3139   -1465.3726    451.95844    309.63859    25.981268    38174.007 
  147100    300.84543   -1503.5494    496.94337    341.22883    -409.8893    38174.007 
  147200     307.0761   -1489.0874    454.69369    341.35556   -1.9152103    38174.007 
  147300    297.11572   -1547.1262     460.7571    244.75612    295.87434    38174.007 
  147400    302.08929    -1499.228    484.12495    338.30454    241.24655    38174.007 
  147500    299.30089   -1549.7322    464.32884    255.51179    223.33066    38174.007 
  147600    304.66306   -1510.0835    473.89398    328.74896    579.24549    38174.007 
  147700    301.08074   -1527.5493    459.03381    280.37365   -65.009508    38174.007 
  147800    308.36042   -1549.2158    494.58317    326.87057    1325.6636    38174.007 
  147900    303.83353   -1513.4872    475.93331    323.66823    534.21793    38174.007 
  148000    303.31152   -1468.2235    446.38064    337.04057    280.43251    38174.007 
  148100    299.96029   -1505.3217    483.27274    321.82036     -61.4547    38174.007 
  148200    301.29457   -1517.8365    463.34816    295.35878   -259.64141    38174.007 
  148300    306.34325   -1507.8107    457.81395    322.46922    123.80166    38174.007 
  148400    303.88282   -1514.8344    475.98085    322.58931   -515.69009    38174.007 
  148500    305.50382   -1501.1454    463.35532     330.9152    -473.1271    38174.007 
  148600     295.1954   -1509.2565    451.10415    264.36954   -786.85093    38174.007 
  148700     304.5725   -1521.6002    468.96914    311.90173   -1015.7998    38174.007 
  148800    298.09226   -1533.1904     456.8959    259.20579   -744.55186    38174.007 
  148900     297.0333   -1526.6272    466.32249    270.45125   -614.57398    38174.007 
  149000    298.83324   -1523.4152    478.92711    294.33194   -335.12656    38174.007 
  149100    294.15628   -1509.1366    476.98046    285.71035   -366.82093    38174.007 
  149200    291.09935   -1512.9103    471.39299    262.65363   -781.68639    38174.007 
  149300    309.31071   -1526.5255    449.16357    308.39874   -330.19551    38174.007 
  149400    295.31724   -1529.6303    466.79206    260.22949   -528.23856    38174.007 
  149500    308.64261   -1548.0879    465.70946    300.38907   -508.71906    38174.007 
  149600    308.80185   -1553.2729    467.44853    297.65656    416.38369    38174.007 
  149700     306.5349   -1559.9571    472.76938    286.13697    464.02121    38174.007 
  149800    307.01832   -1504.1145    468.02968     339.4056   -297.00794    38174.007 
  149900    309.14547   -1538.4267    489.60843    336.20211   -324.00913    38174.007 
  150000    293.23325   -1545.7628    470.57018    238.53852   -225.14661    38174.007 
  150100    299.70919   -1540.7349    486.25153    288.26103   -278.31089    38174.007 
  150200    298.99051   -1479.2098    474.28605    334.60087    -145.3614    38174.007 
  150300    309.35834   -1460.6932    514.26465    439.54553   -187.06924    38174.007 
  150400    298.82152   -1521.6619    497.20505    314.31057    -25.73325    38174.007 
  150500    300.39567    -1519.056    466.63914    293.40311   -300.96661    38174.007 
  150600    300.13548   -1542.7595    485.81674    287.71145   -62.997004    38174.007 
  150700    298.68924    -1537.268    457.98887    258.89567   -376.23944    38174.007 
  150800    305.01704   -1561.8914    459.18002    263.81303    199.68169    38174.007 
  150900     296.9343   -1534.0392    448.77607    245.04928    742.54363    38174.007 
  151000    298.97152   -1589.1683    446.41618    196.68736    134.43834    38174.007 
  151100    296.96393   -1559.4896    496.92443    267.88001    658.37339    38174.007 
  151200    301.27433    -1562.884     464.0775    250.94999     135.9027    38174.007 
  151300     307.6818    -1504.414    478.15045    352.19935    125.01378    38174.007 
  151400    294.30352    -1527.277    486.25424    277.50331   -440.55821    38174.007 
  151500    307.72191   -1505.3321     489.3925      362.703   -17.077372    38174.007 
  151600    296.48669   -1545.0858    492.42686    275.64815   -265.10084    38174.007 
  151700    299.13343   -1546.1867    473.11246    267.09064   -173.94047    38174.007 
  151800    287.96323   -1543.1564    463.60639     210.5706   -29.464268    38174.007 
  151900    311.36083    -1538.314    441.82552    298.45707   -51.000324    38174.007 
  152000    306.49083   -1494.9528    456.41947     334.5939    -134.4033    38174.007 
  152100    304.74944   -1506.3961    494.44323     353.3726    137.11016    38174.007 
  152200    312.40371   -1543.5377    480.79867    336.87884    274.27688    38174.007 
  152300    304.01158   -1548.3408    469.93728    283.61625   -41.391108    38174.007 
  152400    294.97293   -1532.9403    483.58025    272.16512    407.09183    38174.007 
  152500    303.93716    -1557.899    462.63844    266.42578    305.22046    38174.007 
  152600    302.10621   -1523.4998    487.22219    317.20582     283.5718    38174.007 
  152700    296.89612    -1567.856     472.1229    234.40826   -16.408804    38174.007 
  152800    307.51471    -1555.811     458.4697    280.37308    147.11524    38174.007 
  152900     292.9317     -1599.68    457.92099    170.62109   -465.33477    38174.007 
  153000    310.16374   -1543.1822    470.81212    317.21231    73.394251    38174.007 
  153100    297.24637   -1526.8113    469.83939    274.73862   -121.08668    38174.007 
  153200    304.75139    -1541.299     478.5696    302.60482    139.10529    38174.007 
  153300    296.99737   -1561.5753    478.41976    247.43948    198.73833    38174.007 
  153400    302.25088   -1538.1433    473.19216    289.18042    122.21072    38174.007 
  153500    309.54674   -1575.6208    484.20333     295.4007   -297.14667    38174.007 
  153600    298.02111   -1506.1345    489.24754     318.2945   -295.47764    38174.007 
  153700    304.78499    -1516.821     459.1518     307.8156   -68.662141    38174.007 
  153800    294.45176   -1537.2571    497.56274    279.49586   -656.21019    38174.007 
  153900    293.02449   -1493.6153    505.40711    324.58766   -96.894373    38174.007 
  154000    300.35037   -1430.4098    491.38808    406.59526    3.6723367    38174.007 
  154100    305.44366   -1491.8468    483.72379     360.3127    109.13062    38174.007 
  154200    292.36419    -1512.688    467.14151    264.29109    625.56117    38174.007 
  154300    301.55379   -1494.2581    482.24646    338.99688    159.33764    38174.007 
  154400    305.96827   -1499.4304    470.31801    341.67363    40.911995    38174.007 
  154500    297.98014   -1487.8587    484.50806    331.64737   -19.501861    38174.007 
  154600    298.63486   -1526.6196    460.34022    271.65186    241.63544    38174.007 
  154700    306.72832    -1552.735    490.28013    311.73632    394.15934    38174.007 
  154800    298.31616   -1499.1217      472.185    309.56664    135.42721    38174.007 
  154900    298.45729    -1458.004    464.81523     343.9469    396.84014    38174.007 
  155000    299.14263   -1468.0819    488.57132    360.69557   -448.36995    38174.007 
  155100    295.39971   -1475.4569    472.55487    320.53526    16.077754    38174.007 
  155200    295.24624   -1487.8069    494.00452    328.94723   -157.76765    38174.007 
  155300     300.8984   -1536.7942    475.17636    286.45433    191.91625    38174.007 
  155400    289.27812   -1516.6113     478.9413    258.34156      540.143    38174.007 
  155500     296.4344   -1512.9561     481.5426    296.65931    687.57389    38174.007 
  155600    297.86795   -1546.9219    488.10692    275.68031    158.63287    38174.007 
  155700    307.18727   -1531.7082    459.88756    304.42672    215.03926    38174.007 
  155800     298.7748   -1548.2369    459.47707    249.79828    424.09029    38174.007 
  155900    290.60796   -1520.9779    441.78755    222.77906     261.7798    38174.007 
  156000    305.96076   -1513.7682    469.65243    326.63659    254.44703    38174.007 
  156100    293.31075   -1508.2711    466.07958     271.8868   -207.45909    38174.007 
  156200      291.367   -1510.7475    468.13587    262.75841    40.698342    38174.007 
  156300    300.41554    -1532.494     477.7728    291.18771   -230.93044    38174.007 
  156400    307.99025   -1539.3652    463.75383    304.23345   -288.70265    38174.007 
  156500    297.50326   -1543.3142    451.29385    240.84111   -207.07796    38174.007 
  156600    303.88917   -1480.9779    478.27341    358.76686     135.2779    38174.007 
  156700    292.61243    -1533.805    481.84145    258.98618    230.36803    38174.007 
  156800    309.71977   -1482.8619    484.47808    389.20955    150.49287    38174.007 
  156900    287.78525   -1464.3984    476.35047    301.27532    157.68856    38174.007 
  157000    297.99531   -1452.3309    490.76952    373.50458   -604.13543    38174.007 
  157100    312.42624    -1483.355    458.41259    374.77632   -543.30695    38174.007 
  157200    297.66517   -1485.6338    468.09558     316.0486   -457.08566    38174.007 
  157300    301.57877   -1486.9482    474.98542    339.15762    282.39685    38174.007 
  157400    301.54837   -1501.3463    463.66788    313.30576   -185.34036    38174.007 
  157500    302.77265   -1494.9949    444.97997    306.45428   -378.73544    38174.007 
  157600    295.20671    -1481.723    455.90014    296.74967   -115.76711    38174.007 
  157700    294.67251   -1527.4358    461.16281    253.90626    419.37302    38174.007 
  157800    297.16534   -1523.0812    472.61638    280.88272    309.60487    38174.007 
  157900    299.24569   -1522.4702    466.58497    284.78255    272.33652    38174.007 
  158000    305.09339   -1488.5075     479.1028    357.46173    305.40317    38174.007 
  158100    296.93333   -1521.9056    474.94106    283.34355    366.99136    38174.007 
  158200    307.27257   -1467.8149    468.26206    377.07668    26.100826    38174.007 
  158300    304.39478   -1532.3886    481.18074    312.52872     239.3328    38174.007 
  158400    299.64078   -1558.1089    435.55521    219.88418    822.03169    38174.007 
  158500    289.96782   -1578.6904    455.01443    175.42557    208.42611    38174.007 
  158600    295.81431   -1543.8484    490.99633    272.44261    629.60744    38174.007 
  158700    308.99755   -1545.2216    492.84109    331.97722    138.36953    38174.007 
  158800    290.94223   -1541.9636    460.99701    222.50038    175.98307    38174.007 
  158900    315.95586   -1521.8711    469.50657    363.16752    382.67625    38174.007 
  159000    293.97407   -1533.6874    468.42303    251.78574    245.56932    38174.007 
  159100    307.57478   -1542.2222    478.50614    314.26744     262.4116    38174.007 
  159200    297.72817   -1503.1981    463.74155    294.41251    329.40796    38174.007 
  159300    304.89575   -1525.2416    457.61208    298.35145    33.760354    38174.007 
  159400    299.28188   -1496.1137    478.78441    323.50063    363.85681    38174.007 
  159500    296.02563   -1474.0092     470.6688    322.90101   -140.61662    38174.007 
  159600    303.90796   -1495.2119    460.29529    326.63889    245.60004    38174.007 
  159700    307.87718   -1549.7897    446.81433    276.36293    306.40978    38174.007 
  159800    296.77754   -1574.7477     443.1289    197.99132   -168.18307    38174.007 
  159900    302.93656   -1594.5907    462.88998    225.50279    461.32061    38174.007 
  160000    299.04638   -1552.9699    462.48582    249.29083    350.16177    38174.007 
  160100     301.6834   -1561.4043    472.02645    262.21132     434.3884    38174.007 
  160200    302.13404   -1533.8208    454.18711    273.97441     1296.719    38174.007 
  160300    308.20023    -1531.799    457.49383    306.48039    665.28975    38174.007 
  160400    297.11004   -1544.6114    454.97521     241.4636    200.84634    38174.007 
  160500    293.34182   -1551.9155    452.16152    214.46351   -176.30606    38174.007 
  160600    305.35503    -1537.651    446.76103    277.14869   -47.511375    38174.007 
  160700    302.96307   -1516.5144    454.87298    295.68082   -168.61304    38174.007 
  160800    296.29365    -1514.851    469.17417    281.76534   -860.18857    38174.007 
  160900     297.6206   -1499.6738    437.51189    271.22526   -459.95817    38174.007 
  161000    292.27905   -1504.3714    464.38321    269.46796   -244.21189    38174.007 
  161100    295.15458   -1541.9947    454.01213    234.35641   -178.17934    38174.007 
  161200    314.95237   -1472.7523    462.43228    400.71616    373.48683    38174.007 
  161300    307.19566   -1494.1031    464.19904     346.3809     370.2959    38174.007 
  161400    292.49374   -1497.7242     454.2694    266.96322   -163.08991    38174.007 
  161500    288.79402   -1505.7396    468.36984    256.47296    236.45035    38174.007 
  161600    308.51059   -1521.4547    463.25635    323.97765    167.24235    38174.007 
  161700    310.09018   -1460.3845    465.69277     394.5611    321.64491    38174.007 
  161800     297.1542   -1480.5477    457.89306    308.64296     23.45777    38174.007 
  161900    300.97687   -1496.4013    456.91337    308.93584     964.0972    38174.007 
  162000    296.07535   -1519.1223    457.23927    264.58119     381.9374    38174.007 
  162100    305.63484   -1525.3618    483.51694    327.44733    375.20493    38174.007 
  162200    303.03871   -1504.3741    462.67638    315.96345    458.92826    38174.007 
  162300    305.36306    -1506.015    453.51931    315.57889    525.61251    38174.007 
  162400     301.4962   -1466.1417    456.90493    341.51374    336.12091    38174.007 
  162500     299.6302   -1465.0744    492.71056    370.02667    391.76251    38174.007 
  162600    302.94699   -1458.6988    447.48661    346.03809     48.94265    38174.007 
  162700    310.00232    -1514.036    407.10413    281.92738   -87.685633    38174.007 
  162800    306.75212    -1474.055    476.54368    376.78646    -299.1838    38174.007 
  162900    303.59402   -1495.8284    459.62435    323.94496   -96.239318    38174.007 
  163000    298.22179   -1500.5993    425.94517    261.42648   -96.018444    38174.007 
  163100    302.57283   -1462.6592    479.26412    372.17882     215.7674    38174.007 
  163200    290.50991   -1469.5807    474.17326    306.12276    145.02096    38174.007 
  163300    296.61346    -1446.875    477.18978     359.1898   -67.934701    38174.007 
  163400    298.07034   -1445.9973    451.32634    340.73109   -366.62306    38174.007 
  163500    310.94669   -1491.6079    447.47931    348.96159    98.814034    38174.007 
  163600    290.91677   -1445.3882    455.13468    313.09943   -489.62911    38174.007 
  163700    302.71909    -1518.773    465.36785    302.82402       -330.7    38174.007 
  163800    305.14133   -1486.6996    466.99209    347.37374    750.75271    38174.007 
  163900    298.13059   -1432.0897    457.97031    361.55258    2.6272223    38174.007 
  164000    288.99171   -1465.6976    442.84151    271.87228    191.90573    38174.007 
  164100     304.0467   -1435.5606    478.93446    405.55098    820.67282    38174.007 
  164200    302.42404   -1436.5813    463.57342    381.89943    601.08403    38174.007 
  164300     296.3286   -1475.1283    445.84291    298.31342    388.91772    38174.007 
  164400    306.36504   -1512.9141    462.37864    322.02814   -99.949519    38174.007 
  164500    293.18622   -1492.2748    479.96792    301.21352   -83.661886    38174.007 
  164600    291.90602   -1533.1447    434.95737    209.59755    69.850324    38174.007 
  164700    300.04968   -1527.4118    437.63928    254.49733   -12.284329    38174.007 
  164800    302.77042   -1526.3455    445.87202    275.98566    364.71149    38174.007 
  164900    300.98628   -1528.6259     456.6101    276.45009   -62.027725    38174.007 
  165000    307.45858   -1535.8441    451.98377    293.60255    19.293618    38174.007 
  165100    301.53572   -1527.5116    464.93745    288.35334    299.58878    38174.007 
  165200     303.3886   -1532.8149    451.12571    277.53953   -568.70441    38174.007 
  165300    290.00118   -1467.7011    437.50057    269.05047   -776.55827    38174.007 
  165400    291.52949   -1474.5404    433.13215    264.68976   -706.99987    38174.007 
  165500    304.65054   -1498.8211    472.57858    338.63986    154.64759    38174.007 
  165600    297.37025   -1521.3664    419.06461    229.96374   -618.35206    38174.007 
  165700    300.08834    -1501.001     434.9975    278.43956   -113.08096    38174.007 
  165800    300.83263   -1475.8255    466.74896    338.70099    158.55378    38174.007 
  165900    305.75494   -1495.4153    435.34446    309.75941    30.196265    38174.007 
  166000    302.00911   -1505.5133    450.31009    297.84523   -226.59161    38174.007 
  166100     306.5598   -1524.6956    444.99453    293.73513   -745.75298    38174.007 
  166200    298.26774   -1488.5101     454.4706     302.2469    104.66418    38174.007 
  166300    292.28986   -1536.9354    463.54746    236.11671   -492.44814    38174.007 
  166400    298.51113   -1522.7393    449.18207    263.81963    429.81985    38174.007 
  166500    295.22556   -1535.9824    411.23383    197.90846     183.6655    38174.007 
  166600    292.85759   -1495.9901    460.63301    276.69107    213.41838    38174.007 
  166700    301.61443   -1488.5942    451.16911    313.85501    104.59705    38174.007 
  166800    301.71586    -1481.446    471.55162    341.84021    475.89741    38174.007 
  166900    302.82926   -1499.8742    450.49547    307.34402   -297.57452    38174.007 
  167000    292.12968   -1498.0661     439.2631    249.98397    246.47958    38174.007 
  167100    297.60596   -1525.2856    455.08947    263.12548    452.39339    38174.007 
  167200    287.68062   -1523.3145    451.01741    216.55734    335.26694    38174.007 
  167300    300.42948   -1535.3699    456.26292    266.86444    37.876548    38174.007 
  167400    309.73195   -1496.5066    452.19949    343.34085    408.76256    38174.007 
  167500    300.03371   -1516.0878    439.08263    267.19315    390.21833    38174.007 
  167600    303.79959   -1526.3826    428.46754    263.15499   -145.85382    38174.007 
  167700    302.05541   -1504.8288     459.4022    307.82921     28.59315    38174.007 
  167800    306.91602   -1504.7714    445.95339     316.2141 0.0031130754    38174.007 
  167900    292.22365   -1453.2421    481.38564    337.35151    41.393099    38174.007 
  168000    306.66295   -1477.2809    469.25521    365.87258    54.253837    38174.007 
  168100    299.68988   -1478.2598    439.87835    304.27643   -478.67746    38174.007 
  168200    299.85592   -1471.8783    452.46486    323.98831     334.8047    38174.007 
  168300    307.94348   -1501.8513    456.41586    334.19991    411.20119    38174.007 
  168400    292.05082   -1509.2679    450.67056    249.83639    677.15066    38174.007 
  168500    309.53732   -1494.6819    472.31861    364.41266    760.68435    38174.007 
  168600    304.02194   -1471.0174    456.96537    348.01417    838.77595    38174.007 
  168700    300.99137   -1499.3029    452.13551    301.32138   -196.49511    38174.007 
  168800    292.89867   -1515.2149    453.05462    250.07193    31.144863    38174.007 
  168900    298.50333   -1520.7554    444.43958    261.02608    49.329237    38174.007 
  169000    304.98707   -1526.2789    438.54336     278.6546    -383.8392    38174.007 
  169100    294.05077   -1520.0347    432.20705     229.5661   -320.30488    38174.007 
  169200    299.52556   -1534.7453    398.92549    206.10194   -464.63786    38174.007 
  169300    308.47978   -1455.2152    465.12959    391.95239   -445.07924    38174.007 
  169400    302.51297   -1451.9116    435.14135    338.53547   -735.39716    38174.007 
  169500    296.79591   -1498.4306    458.29853    289.56037   -90.088563    38174.007 
  169600    294.34652   -1473.0471    471.74775     317.4194   -410.02736    38174.007 
  169700    303.01353   -1510.0771    452.64043     300.1117   -56.245362    38174.007 
  169800     297.8838   -1467.7517    434.89721    301.71191    27.964684    38174.007 
  169900    304.17376   -1509.3334     450.6701     304.0831    970.39692    38174.007 
  170000    304.88735   -1556.6849    451.66468     260.9231    710.65042    38174.007 
  170100    308.27845    -1549.712    448.37082    279.79484    727.57536    38174.007 
  170200    294.14873   -1562.9218    434.62871    189.53958    380.76951    38174.007 
  170300      288.586   -1576.6416    459.76314    176.03231     539.4112    38174.007 
  170400    286.22926   -1519.5333    461.82006    224.63892    215.72186    38174.007 
  170500    313.67376   -1498.4416     462.2312    369.09748     230.8249    38174.007 
  170600    309.79834   -1527.6777      460.894    321.16167    118.27878    38174.007 
  170700     293.2015   -1537.0028    441.73283    218.31888    457.02779    38174.007 
  170800    309.01671   -1509.2636    462.93775    338.11762   -143.41434    38174.007 
  170900    303.10891   -1529.1216    464.73282     293.5869     403.4581    38174.007 
  171000    297.73554   -1489.6879    434.83304    279.04728    702.80326    38174.007 
  171100    303.35925   -1445.3186    452.82117    366.59975    1102.6327    38174.007 
  171200    291.52857   -1432.7845    462.58568    335.89511     547.3502    38174.007 
  171300    303.68549   -1431.9928    445.82457    374.39062    456.33627    38174.007 
  171400    294.58354   -1451.9506    477.06431    344.89433   -251.20634    38174.007 
  171500    299.64463   -1488.1636    461.15753    315.44904   -320.67208    38174.007 
  171600    294.61201   -1476.0652    456.21192    300.05493   -64.810051    38174.007 
  171700    302.76942   -1491.4723     483.7096    348.69205    587.83605    38174.007 
  171800    290.79009   -1503.3346    454.06272    253.51356    351.17458    38174.007 
  171900    309.42747   -1522.9272    443.63732    306.99391    455.03394    38174.007 
  172000     299.9055    -1499.934    464.08634    307.77623   -57.177114    38174.007 
  172100     293.0789   -1514.8285    455.06787    253.27897    -18.36819    38174.007 
  172200     307.7949   -1504.5763    472.43717    346.83048    175.00848    38174.007 
  172300    294.75286   -1468.8046    443.61293    295.34761   -319.35066    38174.007 
  172400    299.54815   -1473.7138    430.05726    298.36631    124.86579    38174.007 
  172500    303.07411   -1498.9481    449.53305    308.40471    190.75992    38174.007 
  172600    294.94096   -1540.0414    452.33728    233.67782    104.83888    38174.007 
  172700    298.76607   -1507.8968    450.25996    280.88218   -119.72073    38174.007 
  172800    296.32728     -1489.03    447.12984    285.69267   -244.75765    38174.007 
  172900    297.17226   -1469.8154    443.31454    304.87766   -115.12838    38174.007 
  173000    310.64532   -1475.6569    473.21105    389.29409     323.3323    38174.007 
  173100    295.04204   -1444.9613    456.20271    333.07623    468.74798    38174.007 
  173200     297.9201   -1494.8751    467.11679    306.97067   -153.53262    38174.007 
  173300    293.06211   -1504.2263    434.75317    243.49128    834.18544    38174.007 
  173400    283.51597   -1478.8278     478.6064     269.9748    89.129911    38174.007 
  173500    299.48916   -1498.4216    453.26358    296.60063   -407.02069    38174.007 
  173600    291.24837   -1480.1879    448.40697    273.05767    23.400157    38174.007 
  173700    294.45572   -1479.0359    505.31235    345.48443   -68.168966    38174.007 
  173800    302.30655   -1474.3002     462.2227    342.30344   -532.96703    38174.007 
  173900    304.09539   -1504.5154    472.21855    330.09836    60.460256    38174.007 
  174000    305.73655   -1515.5514    442.58213    296.77859   -21.819227    38174.007 
  174100    302.78992   -1508.3704    435.48505    283.66124   -40.681426    38174.007 
  174200    304.27621   -1487.5476    463.81084    339.46861    327.35043    38174.007 
  174300    293.06637   -1499.7795    475.10947    288.31351     518.0052    38174.007 
  174400    312.83651   -1515.1012    451.28468     337.7403     41.10891    38174.007 
  174500    293.63775   -1527.4378    456.95222    245.05779    241.44376    38174.007 
  174600    293.46452   -1476.6205    453.11356    291.26036    573.14984    38174.007 
  174700    309.41543   -1533.2277    455.21662    308.21876   -179.75503    38174.007 
  174800    299.79019   -1541.2666     465.2509    267.09158    272.13745    38174.007 
  174900    304.64194   -1503.7596    447.97552    309.05976    10.364149    38174.007 
  175000    305.81383   -1494.3847     435.9791     311.6885   -330.67962    38174.007 
  175100    300.18322   -1509.0177    471.37111    307.22154   -162.22383    38174.007 
  175200    300.56125   -1515.2482    448.04402    279.35751   -416.22185    38174.007 
  175300    289.36149   -1529.1299     450.8574    218.11258   -154.93001    38174.007 
  175400    295.71308   -1513.3582    465.81578    277.29874   -73.743272    38174.007 
  175500    302.62608   -1506.7207    468.32653    317.41839    420.64839    38174.007 
  175600    305.49361   -1510.9744    439.54042    297.22548    401.77443    38174.007 
  175700    304.27005   -1535.8737    482.45553    309.75955   -25.623422    38174.007 
  175800    304.95491   -1520.5716    466.43461      312.109    327.44157    38174.007 
  175900     290.8617   -1492.3745      488.006    298.73768    10.463328    38174.007 
  176000    298.34067   -1498.4074    471.01324    309.21905   -82.523957    38174.007 
  176100    291.75136   -1544.8363    451.92293    214.17868   -38.805386    38174.007 
  176200    308.68233   -1481.9423    468.37929    369.38247    350.49587    38174.007 
  176300    296.54501   -1500.7152    476.71059    304.56375    471.82223    38174.007 
  176400    300.26428    -1518.013    474.25792    301.47612    352.91276    38174.007 
  176500    287.27987   -1471.2575    460.71972    276.52128   -462.59383    38174.007 
  176600    302.43681   -1464.6503    464.43113    354.74537   -92.727209    38174.007 
  176700    293.55533   -1603.9631     441.1263    152.33732    87.763776    38174.007 
  176800    302.27182   -1509.7572    458.87309    303.34124   -435.88459    38174.007 
  176900    303.81993   -1512.8811    427.37898    275.65903   -571.76276    38174.007 
  177000    291.42648   -1500.0911    449.76961    255.31502   -452.57458    38174.007 
  177100    301.73923   -1502.2692    461.93627     311.5063   -200.88904    38174.007 
  177200    303.44046   -1529.5075    467.02632     296.9799   -152.59909    38174.007 
  177300    305.53918   -1499.3974    481.93359    351.39989    212.26845    38174.007 
  177400    295.54724   -1536.7217    458.47153    245.84804   -460.54349    38174.007 
  177500    306.10093   -1510.3384    455.02303    316.06501   -63.545899    38174.007 
  177600    300.71892   -1479.5136    480.65654     348.4111    76.949414    38174.007 
  177700    299.05914    -1492.272    456.45148    304.01153   -317.63582    38174.007 
  177800    300.85485   -1482.6287    459.40518     324.6536    362.42659    38174.007 
  177900    303.48871   -1468.5062    464.83136    356.00233    193.35838    38174.007 
  178000    298.94799   -1490.0305    461.98301    311.28659    541.93721    38174.007 
  178100    301.24209    -1508.808     454.1526    294.95661    437.35314    38174.007 
  178200    305.38294   -1472.1521    480.24753    376.25913    64.380683    38174.007 
  178300    298.58935    -1439.597    504.01558    402.14591    52.931021    38174.007 
  178400    305.95121   -1466.3946    468.35719    372.67217    90.717827    38174.007 
  178500    298.24598   -1515.1333    471.03335    292.08899   -50.339708    38174.007 
  178600    302.27333   -1529.9031     470.0659    294.39497   -20.029419    38174.007 
  178700    307.70498   -1530.6392     483.1086    331.03619    222.07279    38174.007 
  178800    295.35474   -1540.3973    446.16667    229.00511   -87.017203    38174.007 
  178900    307.97598   -1503.5395    458.74744     334.9889    201.45509    38174.007 
  179000    292.50936   -1509.2663    470.22072     271.4424    222.26919    38174.007 
  179100    298.52783    -1512.212    457.19578    282.43553    163.87844    38174.007 
  179200    298.85965   -1521.1997    452.79803    270.53659    313.04937    38174.007 
  179300    304.55407   -1538.7327    451.80424    277.52169    108.57504    38174.007 
  179400     285.7647    -1513.921    452.09023    218.44004   -105.02686    38174.007 
  179500    302.65796   -1541.7641    452.10896    266.30023   -472.31006    38174.007 
  179600    301.43523   -1546.0237    477.48951    281.94312   -603.38842    38174.007 
  179700    304.49697   -1532.7756    468.96011     300.3789    125.57097    38174.007 
  179800    288.47556   -1547.5986    456.89666    201.71398   -361.92677    38174.007 
  179900    295.39945   -1523.2183    437.71314     237.9309   -716.03174    38174.007 
  180000    303.37428   -1529.8588     454.8785    284.18422   -730.29722    38174.007 
  180100    303.73432   -1510.8104    483.23522    333.20243    152.99536    38174.007 
  180200    310.00234   -1528.1054    445.48522    306.23907   -163.83674    38174.007 
  180300    308.16528   -1510.4322     457.0944    327.29117   -229.73842    38174.007 
  180400    277.83327    -1494.475    469.37483    219.63661   -525.20055    38174.007 
  180500    295.50536   -1460.8348    472.31107    335.38682   -947.92339    38174.007 
  180600    296.54218   -1455.4528    495.94096    369.04383   -598.77533    38174.007 
  180700     295.7859   -1475.9636    469.71767    318.92147   -243.90948    38174.007 
  180800    302.17149   -1418.9188    477.21692    412.07396   -314.61371    38174.007 
  180900    295.14114   -1450.4895    484.34207    356.13139   -336.51737    38174.007 
  181000    295.05992   -1474.8805    473.43248    320.46687   -403.18311    38174.007 
  181100    297.39541   -1432.0287    476.87425    377.22378   -309.77792    38174.007 
  181200    291.11387   -1452.1151    468.33539    320.45627   -199.93952    38174.007 
  181300    292.31835   -1513.5164    445.34036    241.45621   -409.87101    38174.007 
  181400    298.78914   -1487.5922    497.77357    348.80383    73.833895    38174.007 
  181500    293.75166   -1508.0628    456.35355    264.34444   -66.117522    38174.007 
  181600    295.57298   -1535.4858    464.94771    253.67545    164.53997    38174.007 
  181700    297.23972   -1529.9984    481.49608    283.17845      587.992    38174.007 
  181800    295.28542   -1532.8516    472.01672    262.09027    471.72434    38174.007 
  181900    292.81976   -1501.9528    470.52828    280.45414    518.88884    38174.007 
  182000    307.71285   -1468.6937    471.08563    380.99399    406.85258    38174.007 
  182100    306.65047   -1525.5908    461.35946    309.61105    206.63007    38174.007 
  182200    297.11125   -1484.1909    459.33583    306.25013    203.77222    38174.007 
  182300    303.07497   -1498.2173    481.13458    340.74089    507.31301    38174.007 
  182400      299.771   -1500.7906    486.67098     328.9017    1166.5079    38174.007 
  182500    292.58754    -1477.394    465.61195    299.05619    367.49562    38174.007 
  182600    291.53749   -1486.7151    441.90525    261.32398    286.89418    38174.007 
  182700    301.09832   -1529.3695    471.95258    291.55098    526.46128    38174.007 
  182800    298.87417   -1477.8138    471.91877    333.10829     462.0199    38174.007 
  182900    297.21113   -1499.6277    492.88344    324.80839    486.89844    38174.007 
  183000    293.57582   -1517.4397    474.02494    271.85116    471.34159    38174.007 
  183100    304.43863   -1482.8957    486.65046    367.68773     174.6237    38174.007 
  183200    296.50668   -1486.4845    475.81625    317.72838    629.01388    38174.007 
  183300    299.36951   -1504.4412    496.96576    333.74713    176.35867    38174.007 
  183400     290.2073   -1509.7286    471.17657    261.62237     25.97735    38174.007 
  183500    296.86341    -1501.521    488.97402    317.44787   -484.87165    38174.007 
  183600    285.97882   -1490.2868    476.02956    266.97291   -284.04108    38174.007 
  183700    291.17707   -1498.3065    471.37237    277.58498    311.57062    38174.007 
  183800    308.16333   -1449.4834    484.35121    415.48804    -211.6139    38174.007 
  183900    306.95504   -1449.6684     492.4813    418.01982    679.55288    38174.007 
  184000    293.73964   -1476.7365     497.8094    337.07273    491.75809    38174.007 
  184100    306.05622   -1484.4284    472.00724    358.75894    657.51119    38174.007 
  184200    297.35944    -1459.004    472.85514    346.06826    288.34767    38174.007 
  184300    308.05545   -1467.4075    464.94159      377.671    236.84409    38174.007 
  184400    301.34225   -1457.3145    488.94971    381.69593    44.737892    38174.007 
  184500    294.14066     -1439.55    502.55299    380.79951    593.10741    38174.007 
  184600    296.07972    -1484.218    461.66689    303.93268     153.3678    38174.007 
  184700    292.34715   -1468.8749     489.6462    330.53256    479.50633    38174.007 
  184800    305.76734   -1505.1812    481.15537    345.86002    13.254873    38174.007 
  184900    302.12516   -1505.3906    467.93837    316.11605    138.26267    38174.007 
  185000    302.83522   -1527.1403    478.27185    307.88106    80.667041    38174.007 
  185100    302.80239   -1521.6537    460.64938    295.59814   -17.261957    38174.007 
  185200    298.60531   -1466.9889    456.28622     327.0961    26.403444    38174.007 
  185300    303.86074   -1462.3378    466.08418     365.0904   -148.02987    38174.007 
  185400    292.27061   -1472.5196    490.68157    327.58037   -65.887903    38174.007 
  185500      302.412   -1472.1967     467.9479    350.60458   -258.00551    38174.007 
  185600    295.79882   -1491.5734    460.95905    294.61096   -415.51879    38174.007 
  185700    304.90891   -1511.6878    476.04103    330.39316    57.054377    38174.007 
  185800    299.30094   -1471.8777     471.1126    340.15027   -332.23498    38174.007 
  185900    293.96271   -1478.5638    456.54783    294.98323    127.11762    38174.007 
  186000    293.08408    -1486.457    470.86297    297.46882    307.34645    38174.007 
  186100    296.52572    -1528.911     467.3223    266.89319   -281.44808    38174.007 
  186200    309.68542   -1473.8857    470.41753    383.97127     353.5926    38174.007 
  186300    298.25314   -1494.6274    476.84231      318.436    82.861742    38174.007 
  186400    291.38054   -1475.7669    487.59793    317.26175    84.303396    38174.007 
  186500    300.52872   -1521.1621    481.70405    306.95799    661.23679    38174.007 
  186600    303.68131    -1490.565    478.86228    348.83735    -188.7808    38174.007 
  186700    299.55495   -1509.7789    474.46614     306.7406   -162.15182    38174.007 
  186800    310.40603   -1454.9652    479.33426    415.03697   -540.47741    38174.007 
  186900    297.04476   -1481.0429    499.51179    349.27626   -625.10958    38174.007 
  187000    291.99552   -1496.6866     496.1958    307.69517   -37.839466    38174.007 
  187100    294.39083   -1483.6045    478.23421    313.54697    5.4929992    38174.007 
  187200    294.00002   -1447.4601      479.728    349.43431    26.050526    38174.007 
  187300    307.49782   -1487.6951    484.07292    374.01651    126.97817    38174.007 
  187400    302.68109   -1454.6883    464.21134    365.58201   -33.794578    38174.007 
  187500    296.23411   -1480.3296     465.2844    312.13026   -293.20958    38174.007 
  187600    299.83899   -1512.9615    484.27304    314.63741    -690.1908    38174.007 
  187700    298.89326   -1500.7911    464.19317    302.49096     111.7002    38174.007 
  187800    298.96398    -1515.368    484.02124    308.05897   -126.11977    38174.007 
  187900    293.93809   -1507.1567    474.43941    284.17168    -939.9965    38174.007 
  188000    292.26168     -1527.42    466.17387    248.13221   -254.66467    38174.007 
  188100    302.96464   -1518.5586    461.09336    299.86402    121.68445    38174.007 
  188200    294.21273   -1518.4499    499.84885     299.5183    263.72819    38174.007 
  188300    293.79122   -1497.7177    463.27959    281.79285    45.454991    38174.007 
  188400    297.70734   -1493.4878    461.52394    301.81193   -606.69385    38174.007 
  188500    294.71489   -1478.3505     471.5958    313.61441   -638.73135    38174.007 
  188600    287.23986    -1498.239    483.89515    272.53597   -488.64199    38174.007 
  188700    299.18603   -1544.4595      465.109    261.05001   -224.88342    38174.007 
  188800    303.13394   -1534.2921    490.33404    314.12973   -194.80369    38174.007 
  188900    294.18399   -1506.1935    476.67169    288.46877   -728.52622    38174.007 
  189000    304.90212   -1502.7006    468.27026    331.57917   -316.21602    38174.007 
  189100    308.99917   -1551.5645    466.87827    299.67876   -27.492008    38174.007 
  189200    307.68112   -1573.9924    454.18295     258.6505   -66.819445    38174.007 
  189300      297.216   -1560.9203     474.9751    245.62934   -6.1359615    38174.007 
  189400    307.31694   -1570.8422    492.26862    298.25468    395.59022    38174.007 
  189500    298.23083   -1548.2548    470.53304    258.39931    199.32441    38174.007 
  189600    294.87291    -1561.217     463.1837    223.04375    380.89972    38174.007 
  189700    305.58478   -1562.1034    473.69168    280.65626    963.25561    38174.007 
  189800    301.83673   -1556.0189    481.89496     278.1521    369.37055    38174.007 
  189900    302.12771   -1560.8955     462.6243    255.30854    377.74489    38174.007 
  190000    300.70996   -1535.0447    458.31972    270.50301    214.89882    38174.007 
  190100     305.4862   -1521.0784    440.83899    288.38686   -402.68649    38174.007 
  190200    289.61125   -1570.1125    474.25618     201.6477   -266.32496    38174.007 
  190300    294.23744   -1543.9313    475.73341    250.03215     384.6249    38174.007 
  190400    301.71707   -1557.8228    450.81983    244.73701    858.54611    38174.007 
  190500    298.08796    -1585.468    471.41846    221.43141    9.5224046    38174.007 
  190600    295.14293   -1562.7963    483.29011    242.78061   -43.090495    38174.007 
  190700    310.28577   -1548.4703    438.30002    279.95878   -112.00957    38174.007 
  190800    295.43257   -1503.1791    465.65536    286.06071   -305.66926    38174.007 
  190900    301.05166   -1515.5735    464.60107    297.78642    59.224438    38174.007 
  191000    291.88996   -1507.2298    471.90312    272.38635    268.60609    38174.007 
  191100    300.04395   -1490.4857     484.0851    337.84357    240.63897    38174.007 
  191200    307.97018      -1504.1    475.49206      351.147    369.47456    38174.007 
  191300    292.64245    -1519.227    487.60221    279.45951   -20.781101    38174.007 
  191400    304.26953   -1503.9172    471.26039     330.5186   -91.750872    38174.007 
  191500    300.03177   -1532.2339    474.24435    286.19998   -519.05337    38174.007 
  191600    308.28067   -1500.3441     456.0502    336.85206   -583.64967    38174.007 
  191700    305.15676   -1507.1124     480.7276    340.76548   -728.69038    38174.007 
  191800    291.69644   -1521.3968    461.78362    247.23284    -489.0309    38174.007 
  191900    301.00324   -1544.3258    483.05166    287.26776   -475.85483    38174.007 
  192000    305.82174   -1532.1829      457.376    295.32267   -629.22437    38174.007 
  192100    303.35456   -1458.1502    487.54269    388.46874   -541.14095    38174.007 
  192200    300.05181   -1493.8731    500.64252    351.04883   -216.30937    38174.007 
  192300    312.86747   -1516.8831    450.66317    335.47566   -582.58848    38174.007 
  192400    303.86647   -1529.5193    468.65107    300.50141   -631.45635    38174.007 
  192500    305.47182   -1511.6817    450.31211    307.19227   -713.45967    38174.007 
  192600    301.93956   -1518.3067    466.00737    300.43743   -442.38801    38174.007 
  192700    305.50684   -1493.3921    478.73632      354.063   -473.79811    38174.007 
  192800     311.5126   -1511.6139    473.26928    357.28092   -513.22771    38174.007 
  192900    299.28538   -1497.7203    493.64013    336.76549   -345.42908    38174.007 
  193000    298.57099   -1482.6662    461.70384     316.6827   -45.209501    38174.007 
  193100    288.69899   -1494.9599    448.71261    247.16964   -713.20628    38174.007 
  193200    293.49658   -1505.8437    480.46684     289.5341      121.093    38174.007 
  193300    290.68837   -1512.8922    452.00629    241.44376    297.84432    38174.007 
  193400    305.23511   -1526.9921    477.84223    318.35153    691.10117    38174.007 
  193500    300.88755   -1532.8134    457.00971    272.21995    407.05375    38174.007 
  193600    303.43973    -1566.735    485.66092    278.38374    219.97281    38174.007 
  193700     297.7025   -1555.6872    467.66615    245.73303     545.7067    38174.007 
  193800    305.83883   -1588.4746    479.15251    260.88405    127.79338    38174.007 
  193900    307.59305   -1554.5554    468.98537    292.49523   -371.15179    38174.007 
  194000    294.45055   -1558.1623    460.65809    221.68059   -542.58509    38174.007 
  194100    304.12811   -1522.6785    459.24046    299.10376   -872.63229    38174.007 
  194200    292.22731   -1507.0188    480.98612    283.19172   -1318.2944    38174.007 
  194300    305.97337   -1502.3103    446.42437    314.92297   -1009.1181    38174.007 
  194400    298.08236   -1517.9491    461.05059     278.5574   -1194.0503    38174.007 
  194500    295.05193   -1553.4423    455.90431    224.34119   -609.25103    38174.007 
  194600     307.6888    -1549.335    481.65377    310.81307   -44.809716    38174.007 
  194700    311.40011   -1551.0756    457.01694    301.06291    75.764541    38174.007 
  194800    308.10995   -1555.6122    485.63901    310.40785   -532.08998    38174.007 
  194900    304.99262   -1584.3515    471.11331     253.1768    -121.2759    38174.007 
  195000    293.60979   -1555.9123    476.05261    235.55843    153.39996    38174.007 
  195100    295.67014   -1534.6761    496.63836    286.61105   -81.515169    38174.007 
  195200    288.30877   -1552.3735    481.53599     220.8312    470.37479    38174.007 
  195300    310.92052   -1554.8136    469.10235    307.26163    416.96052    38174.007 
  195400     304.5313   -1571.9643    468.40801    260.79196   -78.268776    38174.007 
  195500    314.53557   -1578.3599    482.15986    312.96886   -171.86253    38174.007 
  195600    295.30442   -1585.3847     472.9852    210.61086   -141.85907    38174.007 
  195700    300.18825   -1542.8639     464.2941    266.32083    380.54209    38174.007 
  195800    298.26439   -1534.9035    490.95213    292.32012   -313.32575    38174.007 
  195900    301.28782   -1513.8646    472.99978    308.95207    100.53071    38174.007 
  196000    295.03079     -1549.16    472.83103    245.45542    19.349442    38174.007 
  196100    299.92513   -1545.5928    490.42851    288.54759    100.12725    38174.007 
  196200    297.42367   -1528.8272    482.81001    286.48774   -290.13159    38174.007 
  196300    308.60461   -1515.7215    471.67233    338.54811   -185.92879    38174.007 
  196400    299.52701   -1567.3604    471.22618    245.79402   -596.61162    38174.007 
  196500    293.46839   -1545.3308    472.10549    241.55935   -775.15338    38174.007 
  196600    297.84357   -1549.1672    456.50617    241.72501   -564.48762    38174.007 
  196700    310.10102   -1517.3094    439.13547    311.12753   -378.90863    38174.007 
  196800    300.14961   -1540.8632    482.26562    286.11991   -758.16811    38174.007 
  196900    300.54151   -1548.0826    456.51219    254.90288    139.27445    38174.007 
  197000    311.91735   -1557.7121    485.76216    325.48889    314.76858    38174.007 
  197100     293.8028   -1507.7998    484.42814    292.91111    17.178968    38174.007 
  197200    309.86798   -1541.5066    486.07629    332.82704   -575.42347    38174.007 
  197300    291.57312   -1540.4163    457.66625    223.54347   -731.86687    38174.007 
  197400    301.84375   -1514.9257    470.45896    307.84083   -579.79141    38174.007 
  197500    315.32728   -1543.1882    450.85317    320.38083   -288.30627    38174.007 
  197600     291.5813   -1540.5526     480.5445    246.32202   -450.46238    38174.007 
  197700    304.42901   -1568.8828    461.98496    256.99203    388.64386    38174.007 
  197800    294.44712   -1567.0866    475.33112    227.41398    537.03376    38174.007 
  197900    301.69344   -1613.7809    463.08539    200.93863    88.446109    38174.007 
  198000    306.54294   -1598.8974    487.79902    262.26227    8.3865086    38174.007 
  198100    292.45536   -1564.6012    465.39916    211.04402     214.2273    38174.007 
  198200    295.83862   -1546.5743    468.64035    247.46969   -407.81971    38174.007 
  198300    303.12834   -1513.8302    490.11784    334.35036    175.55784    38174.007 
  198400    306.00849   -1542.9771    498.95708    326.94618   -175.46646    38174.007 
  198500    299.20767   -1512.6477     453.8134    281.66319    88.832654    38174.007 
  198600     309.4738   -1527.0948    505.82582    365.22236     856.1678    38174.007 
  198700    301.15346   -1509.2103    484.66009    324.66467    772.37757    38174.007 
  198800    308.74481    -1510.632    484.53656    357.12991    656.91754    38174.007 
  198900     297.1971   -1539.1426    457.44912    249.79636    230.95291    38174.007 
  199000    301.27802   -1532.5001    466.17271    283.44556    -655.4561    38174.007 
  199100    300.94593   -1568.1059    445.01585    225.19513    9.4521822    38174.007 
  199200    305.87578   -1545.6143    457.16513    281.92249    273.43544    38174.007 
  199300    289.78747   -1562.7216     453.4542    189.02611   -133.06827    38174.007 
  199400    294.34512   -1589.0407    490.33533    220.00715    103.82852    38174.007 
  199500    301.37095   -1488.9585    484.41726    345.64811   -402.96558    38174.007 
  199600    300.53771   -1508.8705     449.7852    287.37094   -897.07936    38174.007 
  199700      297.528    -1531.378    470.36481    271.95914   -427.46764    38174.007 
  199800    285.03116   -1490.8297    468.65387    254.80863   -556.23709    38174.007 
  199900    295.58554   -1553.0409    484.35108    255.57994   -697.74349    38174.007 
  200000    303.54768   -1561.2699    463.69771    262.36924    55.994357    38174.007 
  200100    306.94258   -1547.8044    461.16407     288.5108    185.92989    38174.007 
  200200    298.06699   -1535.1587     468.7715    268.99985   -309.54988    38174.007 
  200300    295.71913   -1552.8483    463.09206    235.11204   -84.989785    38174.007 
  200400    305.99967   -1541.3842    499.53422     329.0767    108.20186    38174.007 
  200500    302.39461   -1565.1055    498.67755    288.34759    410.85895    38174.007 
  200600    297.19199   -1556.2777    463.51766    238.70686    795.21538    38174.007 
  200700    289.43764   -1545.2294     507.0499    258.54674   -229.22445    38174.007 
  200800    289.74847   -1563.8794    495.95332    230.19268    304.80393    38174.007 
  200900    299.69472   -1566.3333    458.06546    234.41174   -120.01044    38174.007 
  201000    301.05292   -1540.2631    500.84098    309.34233    326.31892    38174.007 
  201100    302.94534   -1519.5278    491.22378    328.93877   -224.98399    38174.007 
  201200    291.83056   -1560.3003    471.44328     218.5899    315.60442    38174.007 
  201300    307.64162   -1596.9196    450.52229    231.88558   -76.848262    38174.007 
  201400    304.56306   -1517.4831    463.83224    310.83962    232.81476    38174.007 
  201500    292.26105   -1534.4403    473.48008    248.41537   -235.98195    38174.007 
  201600    297.77202   -1551.4916    475.67907    258.25298   -19.256038    38174.007 
  201700     306.8687   -1533.9107    497.24551    338.15487    505.84656    38174.007 
  201800    291.80264   -1552.6512    472.57694    227.24753     43.64528    38174.007 
  201900    288.64041   -1538.7332    486.62834    241.04961   -487.21698    38174.007 
  202000    298.39058   -1511.2708    480.49127     306.0573    267.35229    38174.007 
  202100    296.55484   -1524.3253    515.12664    319.41371   -205.42214    38174.007 
  202200    287.58482   -1545.3171    455.30825    198.41646    104.44621    38174.007 
  202300    299.23149   -1543.4879    479.70305    276.81931   -136.37262    38174.007 
  202400    299.55259   -1488.7519    506.09817    359.38909   -401.72945    38174.007 
  202500    304.22964   -1501.2029    523.91692     385.7107   -724.77532    38174.007 
  202600    295.24319   -1529.5757    456.91707    250.07734    79.764577    38174.007 
  202700    297.96528   -1495.6661     493.2847    332.55003   -116.14239    38174.007 
  202800     297.6154   -1496.9176    484.88619    321.33243    10.345007    38174.007 
  202900     297.8274   -1538.8008    506.05237    301.56522     779.4804    38174.007 
  203000    294.64485   -1530.0844    486.93815    276.90904    659.21805    38174.007 
  203100    297.77952   -1566.6013    484.68274    252.18059     520.6185    38174.007 
  203200    311.02731   -1569.9793    476.27864    299.75073    618.49566    38174.007 
  203300    291.42503   -1535.6899    473.99804    243.93811    295.01764    38174.007 
  203400    303.00666   -1525.1985    490.25921    322.57822    1150.7451    38174.007 
  203500     299.3413   -1536.2424    469.44485    274.29862    325.62332    38174.007 
  203600    300.93423   -1558.5707     479.1187     268.7808    509.98232    38174.007 
  203700    294.08294   -1525.9549    457.40074     248.9837    422.40971    38174.007 
  203800    306.23647   -1509.3265    482.70646    345.36761   -553.68336    38174.007 
  203900     290.6514   -1536.7592    481.09107    246.49597   -1071.9549    38174.007 
  204000    296.59765   -1578.1255     434.8455     185.5242   -758.38894    38174.007 
  204100    309.44002    -1516.297    473.26257    343.30558   -447.06293    38174.007 
  204200    304.86184   -1534.2129    481.41284    313.02902   -98.005721    38174.007 
  204300    293.14068    -1571.834    468.94033    210.42271    97.251642    38174.007 
  204400    294.32187   -1570.8323    466.02162    213.79764    671.24423    38174.007 
  204500    305.13877   -1578.0162    478.53325    267.58679    604.99333    38174.007 
  204600    292.02109   -1557.2121    478.91473    230.00317   -239.95332    38174.007 
  204700    294.02212   -1580.1818    482.06185    219.14549    -313.8717    38174.007 
  204800     292.9357   -1537.6706    455.46888    230.19639   -373.31957    38174.007 
  204900    296.28591   -1547.8402    461.88944    241.45677   -423.66982    38174.007 
  205000    295.17086   -1525.1261    491.30389    288.58977    -1047.975    38174.007 
  205100    298.26992   -1539.9211    481.00157    277.37669   -448.68809    38174.007 
  205200    309.96422   -1538.1077    471.52566    322.10649   -835.67492    38174.007 
  205300    308.06315    -1579.523    509.28761    309.93603    6.8428395    38174.007 
  205400    298.49365   -1573.0531    473.49237    237.73783   -671.74529    38174.007 
  205500    295.16774   -1586.2884    454.80092    190.91049   -593.52816    38174.007 
  205600      308.077   -1531.2667    479.09747     328.0642   -201.99023    38174.007 
  205700    301.94589   -1582.2491    463.52711     234.0432   -91.717378    38174.007 
  205800    302.16326   -1534.3546    469.74697     289.1314   -122.90617    38174.007 
  205900    294.09462    -1571.287    462.77304    209.07623   -419.72003    38174.007 
  206000    302.56212   -1522.7582    505.40037    338.16812    290.02618    38174.007 
  206100    301.45016   -1555.1859    452.13861    247.49693     127.1999    38174.007 
  206200    301.36408   -1554.0086    454.48853    250.63851   -179.03497    38174.007 
  206300    297.90002   -1500.3125    474.58872     308.9152   -556.68529    38174.007 
  206400     301.0797   -1527.3106    466.47801    288.05193   -616.61587    38174.007 
  206500    304.26707   -1552.0245    477.36251    288.50244   -471.86895    38174.007 
  206600    297.89704    -1606.854     456.6877    184.45934    236.57243    38174.007 
  206700    293.14425   -1553.8328    450.10595    209.60557   -75.124634    38174.007 
  206800    297.85465   -1522.9855    496.58811    308.03833    315.67004    38174.007 
  206900    295.14838   -1527.4407    471.64047    266.51096     165.6643    38174.007 
  207000    304.40602   -1569.6628     467.9648    262.08894   -230.97305    38174.007 
  207100      306.673    -1536.719    488.47601    325.70035   -380.53227    38174.007 
  207200    296.54214   -1536.2146    475.80928    268.15024   -709.98138    38174.007 
  207300    308.72401   -1526.9573    466.97881    323.15365   -528.13207    38174.007 
  207400    307.05529   -1502.9439    478.54216     351.2543    216.73681    38174.007 
  207500    292.59033     -1521.95    481.10557    270.00639   -79.340998    38174.007 
  207600    290.01147   -1496.0483    505.65224    308.90105    450.80672    38174.007 
  207700    301.28489   -1527.8533    484.17183    306.12228    337.20964    38174.007 
  207800    309.23528   -1508.6023    494.68453    371.50496    151.47495    38174.007 
  207900    299.64215   -1548.6195    456.49092    250.31541   -112.63175    38174.007 
  208000    307.57634    -1557.843    472.10078    292.24821   -96.055165    38174.007 
  208100    303.72394   -1510.6996    471.42381    321.45526   -441.16086    38174.007 
  208200    305.87893   -1566.0978     497.0485    301.33647     103.5502    38174.007 
  208300     296.9698   -1484.0478    474.65806    321.08177   -202.43496    38174.007 
  208400    304.75266   -1538.3404    480.45451    307.45403   -14.847867    38174.007 
  208500    309.31364   -1536.2654    499.18994    348.69838   -147.72201    38174.007 
  208600    307.79996   -1538.6253    474.62276    314.98975    92.485387    38174.007 
  208700    306.46617   -1529.9846    472.25962     315.2917     92.60183    38174.007 
  208800    297.71831    -1502.605    492.73679    323.95672    115.46194    38174.007 
  208900    308.34072   -1558.9887    482.67849    305.10481    189.13124    38174.007 
  209000    297.01861   -1558.8764    467.09827      238.912    49.266691    38174.007 
  209100    308.09683   -1573.1476    472.45474    279.62947    205.49022    38174.007 
  209200    297.73613   -1545.6677    478.17602    266.41306   -30.522398    38174.007 
  209300    298.73177   -1545.7968    475.16703     267.7356   -33.908448    38174.007 
  209400    270.55373   -1523.0452    433.23616    122.31427    100.46742    38174.007 
  209500    361.48987   -1537.6795     479.7855    561.63758    568.70133    38174.007 
  209600    299.03881   -1543.6794    464.52835    260.58996    99.941585    38174.007 
  209700    294.13054   -1505.9644    514.78011    326.56685       438.18    38174.007 
  209800    294.55456   -1554.9829    461.92905    226.59697    491.35703    38174.007 
  209900    306.08906    -1521.877    492.93786    342.38807     538.6652    38174.007 
  210000     299.8361   -1542.5014    454.88746    255.69896    680.51353    38174.007 
  210100     299.3802   -1518.4826    492.31575    315.10361    349.88906    38174.007 
  210200    299.20208   -1514.5625    469.54742    295.45737    787.73241    38174.007 
  210300    293.64384    -1552.815    470.29441    233.05013    365.11631    38174.007 
  210400    303.92873   -1562.7726     495.5083    294.38429    641.47209    38174.007 
  210500    296.64765   -1548.3078    472.87158    253.59198    158.18174    38174.007 
  210600    305.99463   -1516.7024    494.96682    349.16856    258.27677    38174.007 
  210700     298.2656   -1535.2457     461.3804    262.41159    277.70918    38174.007 
  210800    303.56093   -1552.4108    459.07792    266.66786    656.80266    38174.007 
  210900    297.00512   -1569.4437     463.8597    225.04569    379.23453    38174.007 
  211000    307.05228   -1553.1772    483.55383    306.01922    387.17162    38174.007 
  211100    303.75312   -1570.4278    447.48069    237.91468    220.52315    38174.007 
  211200    303.36404   -1620.3962    458.62665    197.34912      142.769    38174.007 
  211300    299.62338   -1565.8491    500.39723     276.9081   -272.54915    38174.007 
  211400    298.96159   -1569.3609    463.64949    233.68357   -557.72753    38174.007 
  211500    294.93971    -1501.619    470.66046    290.41777   -562.11647    38174.007 
  211600    290.98518   -1487.3546     487.9515    304.25634   -1008.2399    38174.007 
  211700    295.37412    -1522.255    472.52036    273.58798   -201.34931    38174.007 
  211800    298.57292   -1534.3834    438.93707    242.20744   -140.98432    38174.007 
  211900    305.92524   -1499.5751    480.59664    351.61482    -712.2006    38174.007 
  212000    300.80832   -1492.2505    508.22501    363.64316   -516.55712    38174.007 
  212100    292.63878   -1520.2895    450.85543    241.63371   -115.98413    38174.007 
  212200    308.13692   -1527.7023    489.73059     342.5302   -408.86958    38174.007 
  212300    304.26998   -1537.8365    474.99885    300.33977   -70.277252    38174.007 
  212400    297.56786   -1570.4783    480.16341    242.83596   -426.15608    38174.007 
  212500    314.71325   -1514.7784    468.96674    364.15329    368.55859    38174.007 
  212600    306.28461   -1543.2442    465.61323    294.57233    244.57701    38174.007 
  212700    303.40246   -1501.6807    461.73501    319.34514    257.92043    38174.007 
  212800    307.10728   -1499.5231    500.98405    377.34988   -76.649678    38174.007 
  212900    298.08929   -1537.9687    444.95872    242.47696   -266.53681    38174.007 
  213000    299.11676   -1523.7319    486.16835    302.52664   -426.78601    38174.007 
  213100    297.92349   -1542.4927    460.05161      252.303     24.70128    38174.007 
  213200     307.0362    -1554.489    463.90016    284.98173    273.26462    38174.007 
  213300    297.00292   -1516.9759    493.87113    307.51509    282.37874    38174.007 
  213400    306.53078   -1506.0079      467.921    335.21933   -60.339699    38174.007 
  213500    292.40125   -1532.9856    450.39144    227.40945   -10.780176    38174.007 
  213600    303.14999   -1529.2839    476.50369    305.37949    20.243049    38174.007 
  213700    290.61478   -1547.9731    486.69194    240.71884    440.95423    38174.007 
  213800    299.62559   -1553.8483    490.37454     278.8961    633.73019    38174.007 
  213900    296.57127   -1546.2705    462.69915    245.11462    226.06687    38174.007 
  214000    300.90447   -1563.1497    503.32021    288.26993    144.26242    38174.007 
  214100    305.93915   -1520.6482    467.27823    317.28567    28.966028    38174.007 
  214200    299.83309   -1544.2179     466.5399    265.62149    492.04006    38174.007 
  214300    302.00684   -1513.3704     476.4709    316.13875    390.25523    38174.007 
  214400    311.33403    -1510.074    469.76386    354.51534   -399.24941    38174.007 
  214500    294.23375   -1546.7055    490.52801    262.03601    88.183104    38174.007 
  214600    313.08042    -1545.877    478.59804    335.37059    9.9413969    38174.007 
  214700    295.24425   -1545.5699    485.07762     262.2485    -102.3053    38174.007 
  214800    299.77647   -1551.1888    464.10038     255.9574    2.1776914    38174.007 
  214900    286.81706   -1551.4648    504.14399    237.66482   -143.01372    38174.007 
  215000    299.39692   -1578.8766    474.93747    237.40618   -154.72945    38174.007 
  215100    301.19772   -1527.7297     477.2267     298.9102   -220.97128    38174.007 
  215200    306.96403   -1578.1009    482.31893    279.46524    307.27935    38174.007 
  215300    302.97831   -1572.7967     468.5614    253.15524    218.66297    38174.007 
  215400    299.01094   -1582.6462     493.3519    250.32179    506.27738    38174.007 
  215500    302.52855   -1571.3397    492.68915    276.72501    467.45661    38174.007 
  215600    297.98374   -1575.1587    486.99621    246.85155    105.94912    38174.007 
  215700    295.32064   -1596.9424    460.93143    187.07197    -486.1331    38174.007 
  215800    304.97026   -1609.1251    486.15573    243.34545   -146.79019    38174.007 
  215900    306.08171   -1593.1772    468.79841    246.91552   -438.64056    38174.007 
  216000    302.25537   -1597.9531    471.74275    227.94137   -82.714561    38174.007 
  216100    290.02699   -1618.3731     478.5635      159.557   -408.55764    38174.007 
  216200    303.59705   -1580.6669    496.24356    275.73927   -985.62551    38174.007 
  216300    304.90124   -1582.4109    477.62103    261.21572    143.71821    38174.007 
  216400    296.20086   -1616.2611    508.93575    219.70115    46.866117    38174.007 
  216500    297.42075   -1585.5424    514.80367    261.75311    -23.13574    38174.007 
  216600     293.6937   -1574.3398    462.53067    203.98486   -602.19076    38174.007 
  216700    304.99712   -1589.7156    460.98435    237.70392   -175.03148    38174.007 
  216800    297.93027   -1548.2954    490.29561     276.7748   -372.98732    38174.007 
  216900    293.30508   -1564.1945    473.49524    223.35373   -449.66373    38174.007 
  217000    303.52476   -1567.7669    481.77461    273.84646   -399.63714    38174.007 
  217100    296.34273   -1553.5082    503.55157    277.70552    -558.2191    38174.007 
  217200     306.5826   -1533.6164    477.27163    317.19357   -615.49173    38174.007 
  217300     311.2896   -1541.3831    508.09607    361.33944   -299.68674    38174.007 
  217400     296.0399   -1547.8478    476.69778    255.15538   -199.20565    38174.007 
  217500    290.54012   -1542.1862    490.38744    249.86673    459.19417    38174.007 
  217600     299.8189   -1580.2821    499.12804    262.08183    871.68868    38174.007 
  217700    309.28685   -1555.3002    486.03962    316.39325    1100.5603    38174.007 
  217800    297.19781   -1554.1727    504.90796    282.22828    395.39986    38174.007 
  217900    298.31796   -1511.7986    472.31693    297.02979   -8.5118054    38174.007 
  218000    303.16755   -1558.4095    492.86952    292.69842   -68.971859    38174.007 
  218100    302.42025   -1528.9109    495.29578    321.27522   -386.10322    38174.007 
  218200    299.67006   -1530.9581    504.16326    315.77425    87.803738    38174.007 
  218300    295.95611   -1528.3887    490.92357    288.46489    195.45508    38174.007 
  218400    302.48046   -1546.8604    524.44806     332.7477    621.02004    38174.007 
  218500    305.27677   -1562.3744    505.31819    310.63178    492.34821    38174.007 
  218600    307.96471   -1583.8377    480.21461    276.10731    666.08992    38174.007 
  218700    289.33859   -1528.2443    488.50468    256.54284    450.77772    38174.007 
  218800    305.53936     -1505.93    511.68602     374.6205    382.60922    38174.007 
  218900    297.20922   -1495.6732    479.28555    315.15644    103.97009    38174.007 
  219000    308.18732   -1549.3022     478.2719    309.69744   0.27826371    38174.007 
  219100    291.65686   -1544.8021    457.89737    219.76401   -575.84827    38174.007 
  219200    291.96046   -1515.4097    501.98119    294.60028   -736.23011    38174.007 
  219300    303.67073   -1484.1723    486.94776    363.26815   -119.88653    38174.007 
  219400    314.60661   -1505.1176    490.48673     394.8563   -357.85979    38174.007 
  219500    305.96075   -1507.0753     479.5217    343.19872   -677.52391    38174.007 
  219600    300.76404    -1466.406    483.37145    364.43572   -500.56507    38174.007 
  219700     308.1826   -1477.8232    477.87398     380.7574   -245.34997    38174.007 
  219800    290.91011   -1527.5206    472.35411    248.15659    21.908251    38174.007 
  219900    304.68335   -1516.8628    495.31744     343.4841    256.10314    38174.007 
  220000    306.45017   -1548.0476    480.61813    305.51558    134.93365    38174.007 
  220100    292.39818   -1542.8044    443.38876    210.57427    42.587905    38174.007 
  220200    294.02097   -1493.4919     492.3523    316.12063   -255.70613    38174.007 
  220300    293.08321   -1558.6978    458.80184    213.16302   -123.29606    38174.007 
  220400    298.87193   -1586.3287      454.283    206.94759   -169.59751    38174.007 
  220500    305.73766   -1581.7499    462.82224     250.8252   -348.78966    38174.007 
  220600     308.0515   -1538.6257    463.81187    305.30542   -103.22465    38174.007 
  220700     303.8008   -1550.9531    462.17787    272.30022   -17.845346    38174.007 
  220800     308.4284   -1556.8552    515.43176    340.38438    58.020663    38174.007 
  220900    308.60669   -1518.4823    470.27554    334.39978   -141.04874    38174.007 
  221000    308.56356    -1538.454    478.85491    322.81422    32.313574    38174.007 
  221100    294.17562   -1555.8463    486.92387    249.03071   -303.38898    38174.007 
  221200    304.97264   -1570.0537    459.96388    256.23562    136.63567    38174.007 
  221300    299.51567   -1555.4377    475.27004    261.70977   -275.71681    38174.007 
  221400    297.81827   -1562.3733    467.27473     239.1742   -567.94919    38174.007 
  221500    304.09559   -1558.2517    493.42117    297.56559   -407.76387    38174.007 
  221600     293.4494   -1525.3418    481.34469     270.7024   -320.35705    38174.007 
  221700    305.21886   -1520.9018    482.90488    329.43161   -254.89569    38174.007 
  221800    297.49169   -1460.4989    494.94111    367.25181   -177.18024    38174.007 
  221900    302.72827   -1503.1315     493.2044    346.34322   -177.51456    38174.007 
  222000    308.91227   -1558.2526    462.64375     288.3668   -254.56178    38174.007 
  222100    296.89858   -1523.4449    459.66202     266.3695   -126.24354    38174.007 
  222200     300.3055   -1521.3196     493.9209    318.01723   -31.054951    38174.007 
  222300    294.91847   -1517.1364     462.1988    266.34362   -294.84431    38174.007 
  222400    309.56108   -1520.4062    480.42591    346.90213   -40.698403    38174.007 
  222500    294.04026   -1523.6125    489.35185    283.08605   -291.36976    38174.007 
  222600    285.34412    -1532.564    484.92836    230.75098     -167.476    38174.007 
  222700     302.0956    -1527.509    495.51151    321.43842   -487.86345    38174.007 
  222800    295.89539   -1552.5733    511.42628    284.51093   -472.98482    38174.007 
  222900    298.37377   -1517.1328    468.38336    288.01204   -976.48427    38174.007 
  223000    307.10221    -1518.312    470.81894    328.37325   -409.43252    38174.007 
  223100    300.53014   -1550.6025    482.04237    277.86223   -364.50852    38174.007 
  223200    298.78968   -1522.9398    467.59953    283.28453    355.60335    38174.007 
  223300    297.61517   -1541.7489    501.38232    292.99629   -215.08721    38174.007 
  223400    305.18291   -1551.7628    456.82806    272.33278    88.232481    38174.007 
  223500    298.22138   -1530.2796    491.25608     297.0552    277.69397    38174.007 
  223600    296.97684   -1533.0118    495.97453    293.46576   -354.80737    38174.007 
  223700    299.36204   -1496.4981    472.39455    317.08555   -94.024718    38174.007 
  223800     297.4102    -1555.243    513.22688    290.42842   -83.120612    38174.007 
  223900    289.97441   -1566.5348     451.8014    184.39758   -218.66399    38174.007 
  224000    293.43501   -1588.9941    475.56734     201.2083   -271.43268    38174.007 
  224100    302.44848   -1559.8401    484.62264     279.7994    222.29335    38174.007 
  224200     301.9305   -1581.7162     465.3925     236.3725    11.349805    38174.007 
  224300    297.37418   -1592.9574    479.69528    219.02109    618.98693    38174.007 
  224400    300.67436   -1587.0173    473.00066     233.0519   -31.159473    38174.007 
  224500    302.62674   -1556.2688    468.63071    268.17738    4.2695283    38174.007 
  224600    300.34305   -1550.9403    464.01862    258.66247    -349.4109    38174.007 
  224700    298.73738   -1563.4406    510.53032    285.48024    264.51869    38174.007 
  224800    306.36949   -1584.6826    460.82144    248.72245    27.951443    38174.007 
  224900    303.07548   -1573.7531    471.76459    255.83742   -146.74556    38174.007 
  225000     307.9526   -1558.5699     485.7065    306.81271   -494.40153    38174.007 
  225100    307.68812    -1560.243    484.28107    302.52925    132.35997    38174.007 
  225200     292.1353   -1578.9025     492.7626    222.67224   -330.92997    38174.007 
  225300    295.56628   -1584.1687    496.11403    236.12879    251.16114    38174.007 
  225400    298.33314   -1577.3372    464.25978    223.50202    584.14013    38174.007 
  225500    303.32871   -1559.1111    491.55196    291.40131    554.48445    38174.007 
  225600    302.25118   -1526.3928    473.93441    301.67449    309.42268    38174.007 
  225700    297.96469   -1530.9867    483.25763    287.19965    488.39629    38174.007 
  225800    301.51099   -1520.3776    497.74493    328.18402    18.467403    38174.007 
  225900    308.26353   -1512.1781    472.82014    341.71124    272.16975    38174.007 
  226000    305.30602   -1554.1422    502.65191    316.32877    67.064263    38174.007 
  226100    299.64378   -1527.3561    497.34713    312.44239   -498.29887    38174.007 
  226200     303.7939   -1559.6861     458.6167    259.97513   -283.74086    38174.007 
  226300    309.23236   -1630.2102    444.21751    199.41698   -713.83118    38174.007 
  226400    294.24773   -1594.6211    464.53947    188.19452    -626.1292    38174.007 
  226500    304.79104   -1565.8966    489.33803    288.95329    74.246127    38174.007 
  226600    295.09641   -1569.6806    487.02094    239.41871    361.00445    38174.007 
  226700    299.13608   -1562.7994    474.50794    251.88526    449.78646    38174.007 
  226800    296.42118   -1544.4334    454.36612    237.94633   -68.670176    38174.007 
  226900     299.7336    -1516.384    502.13688    328.60658   -177.90865    38174.007 
  227000    302.52902   -1537.2918    480.58059    298.66644     101.6789    38174.007 
  227100     295.2267   -1569.2663     490.9997    244.39552     153.7164    38174.007 
  227200    300.52608   -1567.2726    486.94529    266.07691    375.08941    38174.007 
  227300    297.71886   -1582.1344     480.8133    232.50628    462.65129    38174.007 
  227400    289.80276   -1591.1648     470.0236     177.2208    271.31967    38174.007 
  227500    299.40295   -1554.4765    470.75797    257.65388   -317.79123    38174.007 
  227600    300.40239   -1563.9023    466.50305    248.45075   -266.87872    38174.007 
  227700    294.17195   -1550.2805     481.0399    248.69604   -458.22922    38174.007 
  227800    297.47512   -1544.0112    500.56118     289.2854   -332.26117    38174.007 
  227900     310.7601    -1570.294    461.12252    283.08276    169.83769    38174.007 
  228000    295.78414   -1626.4041    465.31661    164.07204    96.254378    38174.007 
  228100    295.80272   -1582.6227    475.10509    217.72515    264.68846    38174.007 
  228200    295.90267   -1541.1677    474.82394    259.34688    208.76393    38174.007 
  228300    295.83085   -1516.8805    469.43418    277.92249    447.49589    38174.007 
  228400    301.71519   -1527.4141    500.19145     324.5089    119.70043    38174.007 
  228500    292.57846   -1537.6326    483.25063    256.41557    237.08705    38174.007 
  228600    300.89671   -1582.4883    448.52408    214.10045    60.134821    38174.007 
  228700    301.85541   -1576.7079    475.74958    251.40143    305.93292    38174.007 
  228800    309.00103   -1577.4619    475.38174    282.29311     369.5454    38174.007 
  228900    294.89627   -1569.6389    471.78782    223.33059    455.82091    38174.007 
  229000     301.1173   -1557.1779     479.8567    271.73177   -200.31362    38174.007 
  229100    305.68954   -1509.4952    489.22401     349.2661    220.60301    38174.007 
  229200    299.34037   -1544.5883      469.317     265.8207    170.40952    38174.007 
  229300    296.88454   -1514.6422    468.42416    283.87143    12.318256    38174.007 
  229400    294.46977   -1526.3904    481.73439    274.61498    3.0567301    38174.007 
  229500    299.25164   -1518.9592    470.39459    292.12992    111.13465    38174.007 
  229600    303.83732   -1519.2067    481.16425    323.19654    447.51338    38174.007 
  229700     291.2594    -1526.981    478.55892    256.46586    517.58312    38174.007 
  229800    300.23848   -1553.1705    482.35033    274.29553   -725.83206    38174.007 
  229900    291.30921   -1502.3452    477.45864    280.22458     85.06277    38174.007 
  230000     298.0289   -1523.9584     502.6582    313.91626    363.41098    38174.007 
  230100    295.88606   -1545.4542    489.59313    269.75503   -82.898321    38174.007 
  230200    293.09984   -1499.2511    468.48652    282.36884    616.81707    38174.007 
  230300    298.74336   -1514.1923    469.98249    294.20746    1.0358195    38174.007 
  230400    308.28337   -1490.7949    492.19527    382.55835   -129.38226    38174.007 
  230500    299.26942   -1521.9154    487.56445     306.4232   -138.06242    38174.007 
  230600    308.76568   -1523.0584    475.17752    335.43797   -105.84425    38174.007 
  230700    304.36585    -1520.153    477.65489    321.10883    209.59689    38174.007 
  230800    299.34389   -1516.3105    475.56255    300.35984    48.965574    38174.007 
  230900    295.23737   -1487.6939    503.71976    338.73579    103.58219    38174.007 
  231000    299.67214   -1484.6213    507.17341    365.13047   -315.84987    38174.007 
  231100    305.73695   -1466.8391    478.96769    381.87827    113.52916    38174.007 
  231200    305.96102   -1508.8081    501.77712     363.7226   -193.01103    38174.007 
  231300    303.79793   -1527.2373    471.27633    305.10163   -302.35644    38174.007 
  231400    295.60052   -1563.2884    456.54661    217.59509   -596.37156    38174.007 
  231500    306.02071   -1553.9039    483.26154    300.37859   -219.75335    38174.007 
  231600    296.93802   -1560.2565    483.93596    254.00858    147.50828    38174.007 
  231700     306.8745   -1520.0653    468.51983     323.3006    393.66923    38174.007 
  231800    298.53339   -1560.3958    483.34574    260.42648     217.4258    38174.007 
  231900    300.33004   -1547.3489    481.07548    279.25244   -281.76595    38174.007 
  232000    292.39491   -1559.1054    490.66225    241.53206   -775.11731    38174.007 
  232100     298.0549   -1523.8968    478.91631    290.35241    389.42243    38174.007 
  232200     296.5857   -1521.7752    477.52066    284.49612   -335.12919    38174.007 
  232300    298.21414   -1551.3019    474.17281    258.91721   -700.61202    38174.007 
  232400    301.03352   -1536.1229    487.76204    300.31674   -351.66175    38174.007 
  232500    282.74948   -1561.3087     463.6989    169.15234   -441.94828    38174.007 
  232600    296.69191   -1546.3539     496.1023     278.9749    524.90311    38174.007 
  232700    296.00674   -1561.2324    481.84857    246.77294    462.46451    38174.007 
  232800    308.18176    -1538.534    475.36088    317.52969    472.89102    38174.007 
  232900    298.01488   -1534.7528    472.60415    273.00492    502.34601    38174.007 
  233000    303.78341   -1576.9631    452.92604    236.96047    232.15403    38174.007 
  233100     295.4902   -1597.2469    470.52078    197.11649   -121.61824    38174.007 
  233200     295.8096   -1575.0394    504.27112    254.50525    270.82635    38174.007 
  233300     305.8564   -1560.0107    463.57632    273.85045    506.08774    38174.007 
  233400    302.42074   -1549.5305    498.85585    304.21787   -295.73066    38174.007 
  233500    307.55315   -1531.0366    471.76019    318.61013    542.18203    38174.007 
  233600     292.3523   -1524.3246    512.24549    297.70527   -386.85486    38174.007 
  233700     302.2875   -1512.5784    482.39466     324.1119   -128.13064    38174.007 
  233800    304.81213   -1567.8697    493.99406    291.73076   -351.86397    38174.007 
  233900    301.61386   -1623.7142    456.01697    183.58032    471.60997    38174.007 
  234000    301.82822   -1562.4301    520.50764    310.31556     425.0659    38174.007 
  234100    311.82434    -1543.712    470.72082    324.03098    908.85889    38174.007 
  234200    302.00622    -1556.148     489.4342    286.32164     378.8472    38174.007 
  234300    297.46162   -1528.8891    473.08184    276.86763    418.17021    38174.007 
  234400    308.01888   -1519.9987    491.54135    351.51573    376.16056    38174.007 
  234500    289.61318   -1549.6463    500.39136    248.25768    708.98199    38174.007 
  234600    291.08566   -1516.8332    498.58981    285.86619    722.47138    38174.007 
  234700    297.95433   -1546.0145    476.63077    265.49862    111.98669    38174.007 
  234800    296.89476   -1516.2354    472.53748    286.43732    316.25299    38174.007 
  234900    296.23507   -1554.2691    481.98449    254.89519    165.78166    38174.007 
  235000    304.69357    -1566.926    459.36719    257.51636    368.79277    38174.007 
  235100    299.16327   -1565.5229    496.20701    270.98271   -645.25871    38174.007 
  235200    299.24873   -1586.6257    455.53778    209.59356   -203.44546    38174.007 
  235300    301.96418     -1552.08    474.32944    275.09654    -644.6745    38174.007 
  235400    307.91356   -1546.8316    473.69713    306.36678   -112.36049    38174.007 
  235500    297.98137   -1585.8292    490.83045    240.00479   -307.90353    38174.007 
  235600    297.16424   -1564.5994    443.95329    210.69651    483.78428    38174.007 
  235700    299.08532   -1602.6019    492.82607    230.17353    704.33547    38174.007 
  235800    294.68297   -1551.2249    458.76998    227.77125   -107.73892    38174.007 
  235900    294.88017   -1497.4111    491.80034     315.4988   -239.58271    38174.007 
  236000    310.83591   -1565.5461    462.30145    289.34921   -406.13921    38174.007 
  236100    291.82325   -1540.4279     481.5943    248.58048   -104.31641    38174.007 
  236200    301.61338   -1540.8355    482.50861    292.94849   -85.159869    38174.007 
  236300    300.45011   -1483.4402    509.30059    371.92417    671.85238    38174.007 
  236400    306.19757   -1530.4037    496.28522    337.69484    262.59516    38174.007 
  236500    296.35828   -1499.5101    496.93453    325.15618    824.69491    38174.007 
  236600    307.13889   -1490.2555    501.94992    387.72507    210.75241    38174.007 
  236700    302.16142   -1526.7395    511.45794    338.44914    228.99416    38174.007 
  236800    298.81224   -1518.7751    489.60544    309.55623     175.2587    38174.007 
  236900    308.99697   -1507.8152     488.3792    364.91916   -146.30075    38174.007 
  237000    299.72921   -1507.0756    497.21688    332.97536   -284.58561    38174.007 
  237100    305.65435   -1538.4235    477.39628     308.3524   -168.97269    38174.007 
  237200    294.45463   -1529.1333    491.62311    281.69291   -329.11257    38174.007 
  237300    295.09031   -1551.2081    501.47234    272.31534   -699.56072    38174.007 
  237400    302.46924   -1489.8454    497.24914    362.51362   -157.67839    38174.007 
  237500    306.33412   -1503.8987    505.30251    373.82894   -248.39692    38174.007 
  237600    293.59319   -1501.0459    466.89605    281.19382    299.99743    38174.007 
  237700    299.96136   -1477.6889    501.94588    368.13116    -146.3007    38174.007 
  237800    303.42615   -1469.0459    495.06056    385.41162    -572.0637    38174.007 
  237900    305.56305   -1455.2292    499.19903    412.94039   -223.48362    38174.007 
  238000    302.17267   -1483.5757    492.99352    363.19897   -446.09772    38174.007 
  238100    298.87783   -1491.0114      474.867    322.87535    344.11048    38174.007 
  238200    304.27006    -1529.934    486.24319    319.48696    303.38194    38174.007 
  238300    306.06509   -1504.5336    480.01794    346.70421    10.313953    38174.007 
  238400    295.18805   -1511.0795    509.72742    321.13685    689.28824    38174.007 
  238500    300.46332   -1514.1964    511.71897    343.64551    580.52405    38174.007 
  238600      301.852   -1525.1951    499.73703    326.88647   -107.78087    38174.007 
  238700    307.17867    -1509.625    487.20614    353.78992   -590.01191    38174.007 
  238800    302.22732   -1530.8062    486.99334    310.21315   -428.74312    38174.007 
  238900    290.79306   -1555.4922    470.27499    217.58152    368.88088    38174.007 
  239000    303.87862   -1559.5835     479.6157     281.4563   -129.25193    38174.007 
  239100    298.96302   -1530.5038    520.59351    329.49109   -340.65253    38174.007 
  239200    294.37804   -1555.6331    489.74755    252.97445   -643.68837    38174.007 
  239300      290.357   -1524.5169    492.42837    268.75651   -2.3307434    38174.007 
  239400    300.92523    -1541.707    466.78223    273.26766   -645.90618    38174.007 
  239500    302.46176   -1553.7364    468.38384     269.7238   -571.41836    38174.007 
  239600    295.69934   -1556.7208    470.06041    238.11924   -649.79107    38174.007 
  239700    306.55891   -1565.9637    441.92721    249.39577   -749.23025    38174.007 
  239800    305.85391   -1487.6072    497.61969    380.28613   -548.81866    38174.007 
  239900    298.74886   -1553.4355     461.1968    246.20327   -750.97419    38174.007 
  240000    296.34094   -1527.6377    488.62872    288.64508   -915.11393    38174.007 
  240100     304.8488   -1557.0251    464.70551      273.451   -755.72704    38174.007 
  240200    292.30426   -1558.4143    454.31078    205.46557   -62.583881    38174.007 
  240300    296.10201   -1543.3642    501.02091    284.24036   -83.685538    38174.007 
  240400    294.12057   -1550.3177    465.23204     232.6208     527.4566    38174.007 
  240500    292.70512   -1526.5648    499.86713     284.6674    184.02253    38174.007 
  240600    303.47261   -1469.6653    471.89599    361.83576    634.70171    38174.007 
  240700    293.86154   -1522.3741    466.95588    261.12771    483.83208    38174.007 
  240800    299.44592    -1513.744    452.17722    279.99807    763.12527    38174.007 
  240900    306.01724   -1520.1738    478.83349     329.6651    562.95563    38174.007 
  241000    289.55423   -1530.7954    497.19722    263.65038    537.66083    38174.007 
  241100    299.75257   -1558.8049    473.62535     257.7592   -21.900132    38174.007 
  241200    306.29982   -1508.2153    506.35875    370.41491   -176.18499    38174.007 
  241300     313.1963   -1502.1588    471.35029    372.36023   -107.78754    38174.007 
  241400    304.89563   -1506.9255    477.68443    336.73939    93.806721    38174.007 
  241500    292.46487   -1541.2469    468.99901    238.04082    302.12411    38174.007 
  241600    293.56251   -1514.4087    477.39981    278.19737    290.42609    38174.007 
  241700    294.50988   -1466.3763    493.01735    346.09172    433.68151    38174.007 
  241800    296.64246   -1509.1103    484.95421    304.84882     410.9895    38174.007 
  241900    305.25141   -1542.1734    486.18525    311.58623    768.30608    38174.007 
  242000    298.29598   -1537.0701    468.73002    268.07289    489.77974    38174.007 
  242100    301.90555   -1541.8263    472.60697     283.3651    519.63022    38174.007 
  242200    300.59321   -1504.3448    485.32492    327.68503    773.57408    38174.007 
  242300    306.48162   -1526.8127    492.31218    338.58539    114.20593    38174.007 
  242400    297.81279   -1522.3399    455.64458    267.55291   -432.47149    38174.007 
  242500    305.21475   -1515.9586    481.85426    333.30582   -30.366188    38174.007 
  242600    297.54531   -1553.3827    478.75835    258.42547   -138.67898    38174.007 
  242700    299.84197   -1502.6818    486.71979    327.37728   -144.24836    38174.007 
  242800    303.37601   -1523.3253    468.32646    304.17347   -267.94219    38174.007 
  242900    306.41632   -1540.0765    474.82177    307.53858    454.16829    38174.007 
  243000    298.95862   -1554.3513    465.76592    250.79632    215.92511    38174.007 
  243100     293.0057   -1541.9301    479.62634    250.40789   -184.61039    38174.007 
  243200    301.27121   -1530.0153    483.16913     302.8963    103.70465    38174.007 
  243300    306.72249   -1536.2318    465.99336    303.92656    16.166615    38174.007 
  243400    301.85905   -1547.3293    484.87057    289.91738    1.3983134    38174.007 
  243500    294.36254   -1534.3246    494.14063    278.60654   -356.65513    38174.007 
  243600    302.44327   -1519.0415    487.90005    323.85206   -33.531637    38174.007 
  243700    296.44593   -1545.3439    473.89627    256.67682   -162.56923    38174.007 
  243800    291.90783   -1561.6033     471.9375    218.12729   -375.14759    38174.007 
  243900    308.68017   -1537.4462    459.29232    304.78188   -306.95919    38174.007 
  244000    298.43144   -1514.7951    495.57151    317.79622    78.167664    38174.007 
  244100    296.12372   -1524.0066    490.47958    293.15385    23.384014    38174.007 
  244200    296.05475   -1461.2155    501.30369    366.46012   -709.90422    38174.007 
  244300    290.79013   -1521.2299    474.23188    255.78755   -641.67792    38174.007 
  244400    306.68324   -1513.6771     457.1741     317.4862   -323.18027    38174.007 
  244500    304.19209     -1547.28     476.5248    292.07321     93.56489    38174.007 
  244600    290.49402   -1504.7769      476.011    272.69306    236.93076    38174.007 
  244700      299.538   -1462.0253    483.19239     363.1445   -348.65759    38174.007 
  244800    297.44007   -1477.8086    475.38697    330.15672   -584.22406    38174.007 
  244900    304.65342   -1484.8127    470.82422    350.90682   -594.85322    38174.007 
  245000    294.46054   -1518.8325    461.01813    261.41525   -616.07616    38174.007 
  245100    306.85092   -1533.5616    492.14516      333.324    -356.0707    38174.007 
  245200    305.82444    -1486.735    459.68833    343.09494   -332.90626    38174.007 
  245300     287.4611   -1439.0699    457.24088    306.04204   -670.83976    38174.007 
  245400    299.59323   -1488.3243    485.92304    339.82362   -461.37121    38174.007 
  245500    308.17847   -1523.8405    463.46135    320.30894   -251.66139    38174.007 
  245600    296.84541   -1496.1837    483.61007     317.3406    106.61747    38174.007 
  245700    303.93522    -1487.047    501.12769    375.75834    218.16099    38174.007 
  245800    293.39653   -1478.5304    485.17716    321.10939    687.61715    38174.007 
  245900    296.54866   -1489.0079    485.39624    324.97307     371.5147    38174.007 
  246000    294.14239   -1497.2227    472.19559    292.77713    539.95957    38174.007 
  246100    291.99969   -1493.5628    484.36455    299.00632    387.51638    38174.007 
  246200     294.5379    -1508.658    491.12571    302.04391    699.87086    38174.007 
  246300    303.68586   -1530.5469    491.80275    321.81634    557.25328    38174.007 
  246400    300.28433   -1492.9515    458.42091    310.79051    245.39614    38174.007 
  246500    302.02843   -1564.2223    498.89536    287.80803    182.10561    38174.007 
  246600    295.39875   -1523.8265    454.35958    253.96602    828.08359    38174.007 
  246700    306.57821   -1494.4361    523.42463    402.50723    635.36893    38174.007 
  246800    310.97094   -1544.2166    453.66197    302.64422    342.16059    38174.007 
  246900    297.32039   -1515.4809    474.37294    290.93424    164.41522    38174.007 
  247000    290.38345   -1521.0388     479.8744    259.79925    196.02042    38174.007 
  247100    291.73215   -1525.3428    468.43415    250.09728   -67.209425    38174.007 
  247200    304.67696   -1495.1739    501.98831    371.81518   -583.48704    38174.007 
  247300    297.23727   -1556.0364    465.48039    241.11372   -146.97101    38174.007 
  247400    302.00312   -1513.5336    475.44888    314.93686   -540.23705    38174.007 
  247500     314.2352   -1516.6927    469.62632    360.75676   -323.23176    38174.007 
  247600     300.5575   -1510.1595    483.84699    320.23241   -78.758368    38174.007 
  247700    301.96503   -1519.7443     461.9418     295.0484   -42.612349    38174.007 
  247800    307.75076   -1516.3116    520.17946     382.6398   -422.05205    38174.007 
  247900    304.05079   -1503.2881    470.89508    329.80246    159.38487    38174.007 
  248000    306.07158   -1511.2689    477.18936    337.16935   -94.150377    38174.007 
  248100     299.8064   -1536.2932    462.02087    268.90755   -310.34399    38174.007 
  248200     296.7926   -1544.7118    494.07745    279.04327    254.65011    38174.007 
  248300    307.96551   -1604.7899    479.58566    254.52974   -131.63075    38174.007 
  248400    300.80002   -1550.4942    464.70963    261.84687     -145.663    38174.007 
  248500    302.65197   -1561.0212     469.6814    264.58874   -327.37263    38174.007 
  248600    301.01476   -1529.3081    458.23817    277.52367    -728.4383    38174.007 
  248700    301.18616   -1495.5692    464.31007     318.1023   -422.57663    38174.007 
  248800     299.6943   -1537.3413    459.20389    264.54027    468.18021    38174.007 
  248900    308.51385   -1526.2273    501.99441    357.95776    144.57432    38174.007 
  249000    298.45371    -1510.855    467.45784    293.72249   -72.301136    38174.007 
  249100    305.19579   -1512.9545    469.35814    323.72886    139.77666    38174.007 
  249200    302.37577   -1528.7274    476.47878    302.44247   -165.14761    38174.007 
  249300    301.15241   -1497.2283     459.8257     311.8076   -932.05899    38174.007 
  249400    295.84818   -1507.1902    482.33894    300.59519   -1063.7614    38174.007 
  249500    295.43065   -1529.6866    464.59163    258.48086   -407.30489    38174.007 
  249600    303.78926   -1524.0704    469.42683    306.38017    25.041532    38174.007 
  249700    307.67737   -1524.2225    465.07982    319.30041    248.31053    38174.007 
  249800    299.37241   -1544.0257    437.92069    235.13051    581.84023    38174.007 
  249900    306.95247   -1568.1544    477.95787    284.99882    275.06465    38174.007 
  250000    304.88122    -1558.749    498.48321    305.65005    1157.3523    38174.007 
  250100    309.09164   -1539.3592    481.74681    327.16685    1378.7378    38174.007 
  250200    303.02224   -1515.2228    463.45314     305.8177     271.0029    38174.007 
  250300    297.89031   -1514.4385     465.4975     285.6545   -460.10242    38174.007 
  250400    298.15291   -1565.5216    484.77332    255.02366   -209.54303    38174.007 
  250500    302.88343    -1579.558    470.98233    248.38977   -426.07144    38174.007 
  250600    292.80702   -1573.9117    431.79345    169.70333   -713.23077    38174.007 
  250700    295.19768   -1517.1001    482.57895    288.01093   -753.82327    38174.007 
  250800    306.40562   -1545.3596     490.1136    317.49947   -82.663545    38174.007 
  250900    302.31848   -1515.0809     474.0044    313.35788     90.82711    38174.007 
  251000    295.79138   -1525.9338    464.86966    264.12785   -26.161155    38174.007 
  251100    293.43691   -1523.6492    483.41284    274.40722    299.23331    38174.007 
  251200    292.24394   -1483.3675    481.83862    307.76998    155.50818    38174.007 
  251300    293.33369   -1458.4687    486.50942    342.22182     -231.069    38174.007 
  251400     293.4286   -1442.5445    475.91805    347.97991    1.2738344    38174.007 
  251500    294.70117   -1489.8161    476.20661    306.69819   -341.13624    38174.007 
  251600    303.66196   -1482.7247    478.32248    356.05123  -0.45067336    38174.007 
  251700    309.96298   -1492.4465    472.27788    368.51429    134.26542    38174.007 
  251800    296.66592   -1501.0144    480.68838    308.78399    76.255466    38174.007 
  251900     284.7827   -1548.5437    481.52272    208.85043    279.92706    38174.007 
  252000    298.98999   -1519.6091    456.27786    276.19099    412.77646    38174.007 
  252100    283.81256   -1485.8614    519.18208    304.84568    654.07736    38174.007 
  252200    288.93454   -1523.6412    471.45708    242.28816   -42.813053    38174.007 
  252300    319.08248   -1523.8448    486.39438    392.08932    214.49693    38174.007 
  252400    292.29477   -1502.6124     470.4965    277.41068   -69.624731    38174.007 
  252500    296.68016   -1505.6074    472.57914    296.14557   -371.78142    38174.007 
  252600    310.52199     -1575.44     461.1414    276.88878    179.45482    38174.007 
  252700    296.95674   -1558.1907    479.97589    252.19812    113.51167    38174.007 
  252800    301.54602   -1575.8614    448.89022    224.00246    674.66031    38174.007 
  252900    306.13547   -1548.8159    452.27881    274.99804    284.50364    38174.007 
  253000    299.49375    -1572.631    466.94057    236.08874    368.26873    38174.007 
  253100    299.96639   -1546.1253     481.2934    279.06473    746.80922    38174.007 
  253200    298.28421   -1518.8958    425.98833    243.45274    323.15242    38174.007 
  253300    304.97586   -1520.4574    467.83886    313.72138    483.16781    38174.007 
  253400    298.59643    -1525.557    476.13175    288.33383   -83.500719    38174.007 
  253500    305.64982   -1502.2745    456.87366    323.95852   -306.40506    38174.007 
  253600    303.26604   -1517.9206     458.7354    299.49444    493.47679    38174.007 
  253700    300.13204   -1517.7813    463.43062    290.28812    354.27335    38174.007 
  253800    304.39335   -1537.7705    451.71768    277.67736     -117.234    38174.007 
  253900    306.10003   -1541.4968    457.06652    286.94606   -24.620007    38174.007 
  254000    292.49983   -1499.3604    476.97194    288.05689   -122.04731    38174.007 
  254100    306.21065   -1479.9859    463.44353    355.32958   -448.13661    38174.007 
  254200    297.78077   -1509.2359    474.82658    299.69545   -401.07913    38174.007 
  254300     304.3273   -1509.0902     463.5386    317.88261   -189.23646    38174.007 
  254400    297.10574   -1540.1939    470.54823     261.4348   -232.90964    38174.007 
  254500    297.86387    -1539.639    454.09916    248.93718   -255.39771    38174.007 
  254600    299.56509   -1461.2252     475.1136    355.98719   -266.55308    38174.007 
  254700    297.51605   -1520.0622    467.81156    280.66809   -366.32507    38174.007 
  254800    290.43507    -1525.524    460.47853    236.14936   -300.03412    38174.007 
  254900    301.57932   -1476.6518    460.04374    334.51483   -123.36188    38174.007 
  255000    288.80223   -1498.3568    480.22569    275.74843   -49.845038    38174.007 
  255100     306.4813   -1547.3396    499.92555    325.67046    524.31195    38174.007 
  255200    311.00309    -1515.363    475.41735    353.39718    550.16429    38174.007 
  255300    302.70417   -1487.6806    465.87821    334.35997    73.620153    38174.007 
  255400    302.26326   -1506.3649    448.40372    296.22586   -280.82995    38174.007 
  255500    305.60818   -1544.1888    495.58215    320.56614    155.99192    38174.007 
  255600    297.98116   -1532.4595     463.5901    266.13317    309.09557    38174.007 
  255700    294.25279   -1518.1297    471.43988    271.60904   -37.800253    38174.007 
  255800    292.19175   -1525.0909    474.90902    258.88319   -95.492863    38174.007 
  255900    303.68696   -1482.6035    453.81157    331.77347    49.068648    38174.007 
  256000    301.85752   -1521.5721    470.05994    300.85703    18.575471    38174.007 
  256100    292.02426   -1539.6365    459.52132    228.19948    270.01045    38174.007 
  256200    291.55224   -1528.0113    479.63628    257.82492    37.757705    38174.007 
  256300    293.67609   -1510.8188    467.94669    272.84304   -508.93228    38174.007 
  256400    301.89708     -1493.08    473.76154    333.22799   -329.89643    38174.007 
  256500    302.54912   -1538.9478    462.60909    279.12896    -167.4846    38174.007 
  256600    300.24024   -1562.8084    459.87898     242.1941   -130.63344    38174.007 
  256700    297.90005   -1556.2936    462.51043    240.85595    402.61073    38174.007 
  256800    307.54686   -1575.7511    454.28627    256.39359    276.30552    38174.007 
  256900    300.94755   -1530.4741    491.86279    309.68112    231.17644    38174.007 
  257000    298.51439   -1518.8763    464.88657    283.40176     585.1434    38174.007 
  257100    301.92802   -1508.7566    498.25391     342.1824    683.66527    38174.007 
  257200    294.87426   -1506.6229    480.14542    294.60561    101.53611    38174.007 
  257300    292.45924   -1525.1841    448.61635    233.69572    -242.2509    38174.007 
  257400    304.26978   -1528.6511    498.08506    332.61047   -676.71237    38174.007 
  257500    294.79601   -1519.3915    467.78419    269.12526   -89.533617    38174.007 
  257600    304.12583   -1527.2763    476.91051    312.16588   -124.51589    38174.007 
  257700    293.48221   -1585.7108     481.1354    210.27116    93.539323    38174.007 
  257800    303.44408   -1517.8049    469.54512    311.21748    67.461513    38174.007 
  257900    296.54864   -1500.0292    467.48847    296.04385   -262.48634    38174.007 
  258000    294.99967   -1500.6392    486.04701    307.05283   -76.578504    38174.007 
  258100     313.6219   -1533.7145    491.89007    363.25107   -402.99509    38174.007 
  258200    299.44421   -1537.7423    466.64294    270.45791    88.714703    38174.007 
  258300    297.50273   -1563.9772    505.48976    274.37165   -413.60907    38174.007 
  258400    308.46028   -1513.5632    481.34308    349.73053   -150.27774    38174.007 
  258500    304.97206   -1537.4432    493.01945    321.89905     56.26008    38174.007 
  258600    293.86773   -1531.4848    484.59545    269.68443    174.18707    38174.007 
  258700    300.64359   -1519.8435    482.63374    309.72089   -155.67964    38174.007 
  258800    307.88645   -1536.2517    484.76352    327.89163   -268.55399    38174.007 
  258900    295.09666   -1535.4626    471.37341    257.99028    281.94507    38174.007 
  259000    294.51879   -1509.9533    485.43734     294.9746    406.86186    38174.007 
  259100    305.55714   -1527.5381     484.2082    325.61426    478.51757    38174.007 
  259200    299.52126   -1498.0772    462.65516    306.48039    737.10244    38174.007 
  259300    296.15376   -1510.4373    486.45339    302.83162   -270.37498    38174.007 
  259400    306.90378   -1526.5242    465.28871    313.74182   -426.74064    38174.007 
  259500    299.80269   -1498.3451    473.55267    318.37084   -991.86742    38174.007 
  259600    300.81436   -1513.7658    458.37872    292.30861   -535.63388    38174.007 
  259700    302.19524   -1502.8288    490.15659    341.21007   -1149.4266    38174.007 
  259800     293.8764   -1478.6978    484.51809    322.43283   -837.21798    38174.007 
  259900    299.78333   -1512.8624    468.12027    298.33439   -207.03126    38174.007 
  260000    294.28169   -1480.1134    513.99892    352.31381    726.12294    38174.007 
  260100    301.74126   -1466.5384    483.53505    368.84502    705.06365    38174.007 
  260200    298.12178   -1491.7457     487.2548    331.14164   -127.79733    38174.007 
  260300    303.83955    -1488.093    503.23716    376.39316    386.31981    38174.007 
  260400     297.4554   -1474.8246    466.02398     323.8464    192.98963    38174.007 
  260500    305.27375   -1469.8537    453.46739     351.2882    985.15552    38174.007 
  260600    300.19383   -1516.4016    501.47403    329.98804    1398.2778    38174.007 
  260700    302.06688   -1511.5268    513.59051    355.37095    1117.2519    38174.007 
  260800    301.70968   -1501.0824    493.94682    344.57126    436.12925    38174.007 
  260900    310.76359   -1487.1647     475.5909    380.69608    421.03317    38174.007 
  261000    301.50375   -1515.9652    484.39196    319.21107   -252.90527    38174.007 
  261100    303.80807   -1547.6214     465.1491    278.63573    559.34272    38174.007 
  261200    304.96088   -1535.4783    472.62156    303.41603    25.528236    38174.007 
  261300    297.34895   -1547.1774    468.20508    253.19778    378.83958    38174.007 
  261400     305.8857   -1526.6832    467.28635     311.0193    240.62623    38174.007 
  261500    296.45967   -1577.3904    492.10227    242.89792    135.93728    38174.007 
  261600    296.62885   -1529.8011    494.31356    293.45647    652.78408    38174.007 
  261700    309.54295   -1526.6673      493.844    353.97792    659.79358    38174.007 
  261800    303.45771   -1506.0741    504.76908    358.23333    558.52607    38174.007 
  261900    293.91542   -1528.2074    498.44512    287.02512    181.12073    38174.007 
  262000    297.69336   -1500.5458    471.97062    305.13799    245.47402    38174.007 
  262100    299.21115   -1488.6709    463.55776    315.39992   -536.37729    38174.007 
  262200    298.85443   -1496.7982    472.28324    314.39996   -96.799114    38174.007 
  262300    288.26727   -1456.8384     497.3865    332.03082   -575.14989    38174.007 
  262400    294.96124   -1511.4104    457.77345    267.83592   -779.23293    38174.007 
  262500     296.3686   -1513.6279    467.65632    281.80646   -323.05018    38174.007 
  262600    296.36324   -1508.0683    483.31776    303.00344    3.8335786    38174.007 
  262700    311.06883   -1526.3502    469.02213    336.30922    58.496328    38174.007 
  262800    302.46948   -1577.1833    447.26789    225.19545    5.8153386    38174.007 
  262900    316.38183   -1543.6599    466.71901    340.49958    261.55596    38174.007 
  263000    295.66163   -1539.3985    492.60598    277.81814   -266.57196    38174.007 
  263100    308.91779   -1538.5917    462.79336      308.202   -489.69166    38174.007 
  263200    305.13342   -1487.9617    464.38423    343.46833    21.972664    38174.007 
  263300      296.779   -1524.8688    479.09268    283.84056   -203.69223    38174.007 
  263400    309.88198   -1544.2462    469.09662    313.17052    264.64225    38174.007 
  263500    290.78572   -1550.6612    466.24504    218.34965   -85.129633    38174.007 
  263600    295.63241   -1533.3766    490.97736    282.08049    -15.62697    38174.007 
  263700    305.16988   -1535.5217    486.59287    318.28032   -458.06403    38174.007 
  263800    298.00162    -1545.153      459.191    249.13214   -47.102676    38174.007 
  263900    295.14194   -1550.1237     467.4332    239.59188    42.285021    38174.007 
  264000    296.46739   -1510.3414    459.06184    276.94103   -92.201207    38174.007 
  264100    299.89572   -1499.9398    480.14046    323.78067   -12.772119    38174.007 
  264200    304.37904   -1561.1613    483.37047    285.87524    273.55757    38174.007 
  264300    301.57548   -1516.0309    478.66759    313.74231    511.25999    38174.007 
  264400    307.35223   -1534.8277    458.31897     300.4777    460.43069    38174.007 
  264500    300.11545   -1530.6716    490.47321    304.36605    381.57571    38174.007 
  264600     298.6764   -1529.5573     486.5773     295.1373    325.11449    38174.007 
  264700    290.85862   -1551.4526    467.14695    218.78682    120.87449    38174.007 
  264800    291.51311   -1503.4641    481.33251     283.8931     131.6474    38174.007 
  264900     304.8366    -1531.158    481.62213    316.18015    1242.1485    38174.007 
  265000    297.34649   -1521.0966    486.34212    297.40461    548.95436    38174.007 
  265100    303.94046   -1510.6848    475.92449    326.94085    393.71391    38174.007 
  265200    307.39003   -1484.5392    473.42562    366.04213    547.57101    38174.007 
  265300    303.31728   -1516.5229    466.17477    308.56108    140.80103    38174.007 
  265400    302.57987   -1489.9945    479.30534    344.91628    237.37239    38174.007 
  265500    309.96341   -1501.6808    480.52699    367.53111   -84.014929    38174.007 
  265600    310.62177   -1503.2517     460.7824     349.1652    101.00955    38174.007 
  265700     294.3614   -1566.7465    434.53301    186.57194    167.59942    38174.007 
  265800    296.68522   -1536.8485    470.32323    262.67127   -148.08694    38174.007 
  265900    297.01314   -1480.3017    498.03948    348.40336    42.463962    38174.007 
  266000    302.52169   -1478.9171    492.79816    369.22584    460.73594    38174.007 
  266100    318.77897   -1499.8403    469.75122     398.0909   -111.27828    38174.007 
  266200    299.91135   -1491.2996    480.80117    333.15165    126.17455    38174.007 
  266300     299.1794   -1483.3456    483.53198    340.55716    54.581763    38174.007 
  266400    295.46859   -1511.7624    476.57909    288.56253   -25.610485    38174.007 
  266500    308.79636   -1511.7691    503.56264    375.24987    453.69762    38174.007 
  266600    298.03696   -1491.1054    470.50509    314.65218     265.0203    38174.007 
  266700    296.86956    -1511.936    488.70509     306.7915   -27.160531    38174.007 
  266800    295.32496   -1488.5877    473.87317    308.38776   -152.98385    38174.007 
  266900    298.31547    -1562.034    445.97196    220.43828   -207.89152    38174.007 
  267000    294.22665   -1543.1559    472.22115    247.24699   -62.075568    38174.007 
  267100    306.33439   -1506.1009    480.14811    346.47354   -179.64554    38174.007 
  267200    300.51898   -1539.4044    473.86645     280.8344   -267.05241    38174.007 
  267300    295.52633   -1508.7187    461.66856    276.95436   -95.453935    38174.007 
  267400    297.81063   -1491.1173     476.9847    320.10594   -472.94091    38174.007 
  267500    300.69025   -1496.3227    467.85207    318.66902   -368.17219    38174.007 
  267600    300.44789   -1502.4222    484.73476    328.36648   -87.011571    38174.007 
  267700    297.51534   -1472.5576     486.1745    346.53253    143.04626    38174.007 
  267800    303.63068   -1536.3144    455.86551    279.86434    196.20834    38174.007 
  267900    297.19585   -1560.8219    471.25274    241.91507    358.07068    38174.007 
  268000    291.27439   -1525.4521    501.66426    281.16737     1027.758    38174.007 
  268100    298.11579   -1519.6488    484.51958    300.47644    197.14561    38174.007 
  268200    304.94861   -1503.7877     507.3765    369.80657    366.07641    38174.007 
  268300    297.96966   -1486.9104     470.2407    318.28131    180.72162    38174.007 
  268400    296.13001   -1521.8635    463.25311    268.09869    301.93913    38174.007 
  268500    307.41064   -1517.7123    498.48441    358.02018    61.217815    38174.007 
  268600    301.82204   -1513.1579    492.91191    331.96432    149.85757    38174.007 
  268700    301.67991   -1516.2708    494.58161    329.88435     125.2005    38174.007 
  268800    301.58211   -1538.7888    468.14262    280.48913   -341.60698    38174.007 
  268900    297.88252   -1507.8662    490.03949    316.73391   -139.90994    38174.007 
  269000    308.68183   -1500.5649    492.81533     375.1936   -282.09741    38174.007 
  269100    299.00049   -1520.2495    490.52222    309.84197    92.380657    38174.007 
  269200    297.30522   -1547.3293     480.6672    265.31207    207.71526    38174.007 
  269300     304.2583   -1549.5547    529.13878    342.70916      401.875    38174.007 
  269400    308.83724    -1533.691     501.0427    350.99121    753.86347    38174.007 
  269500    304.60034   -1543.5964    477.66209     298.7232    369.98404    38174.007 
  269600    290.80191   -1542.0855    492.88263    253.63551   -333.13057    38174.007 
  269700    307.34286   -1576.4375    441.87845    242.38538    266.46042    38174.007 
  269800    299.42024   -1580.2089    496.26926     257.5102    338.79953    38174.007 
  269900    299.36548   -1562.4025    501.50488     280.3069    572.03312    38174.007 
  270000    290.21071   -1558.9414    487.81763    229.06589    269.51829    38174.007 
  270100    294.84493   -1553.8419    500.67911     267.7889    -6.120127    38174.007 
  270200    302.32024   -1514.6598    473.40838    313.19083    -16.26202    38174.007 
  270300    302.94976   -1533.6741     489.1923    312.78082    -122.3004    38174.007 
  270400    293.19123   -1568.4256    461.06187    206.17914   -108.83438    38174.007 
  270500    286.97816   -1518.6256    482.94126      250.023   -117.58084    38174.007 
  270600    288.35138   -1522.3499     475.0323    244.54198   -258.21216    38174.007 
  270700    304.49017   -1490.9376    489.60898    362.83525    137.51207    38174.007 
  270800    301.59603   -1561.7731    462.12406    251.54868   -375.25587    38174.007 
  270900     303.0638   -1620.3204    484.52198    221.97518   -303.37348    38174.007 
  271000    300.51781    -1580.782    482.03471    247.61986   -196.51693    38174.007 
  271100    293.36994   -1573.9734    454.49824    194.86837    -411.6227    38174.007 
  271200    309.31326   -1549.8472    485.60718    321.53214   -350.46751    38174.007 
  271300    300.57787   -1593.6434    461.76562    214.75838    95.663696    38174.007 
  271400    297.68526     -1548.73    500.25995    285.20684   -447.24656    38174.007 
  271500    300.63122   -1551.8948    458.58195    253.56234    340.63401    38174.007 
  271600     292.4345    -1589.389    482.45293    203.21661   -11.538472    38174.007 
  271700    302.68927    -1587.869    493.74451    261.97116    889.92254    38174.007 
  271800    305.79201   -1586.4904    488.80012    272.30611    782.58451    38174.007 
  271900    293.00679   -1578.3458      469.897    204.26773    451.13329    38174.007 
  272000    300.83397   -1585.4888    461.07256    223.36737    244.16379    38174.007 
  272100    303.72892    -1572.562    482.87933     271.0708    337.91128    38174.007 
  272200    308.58089   -1577.8428    461.34334    265.99151    216.01203    38174.007 
  272300    311.09126   -1552.0896     468.8193     310.4675   -52.452517    38174.007 
  272400    297.58345   -1553.4537     510.9724    290.73942    81.287187    38174.007 
  272500    306.48991   -1588.1788    479.22435    264.16858    139.08233    38174.007 
  272600    299.43264   -1559.3941    475.66709    257.77838   -8.9194585    38174.007 
  272700    300.07598   -1573.3294      487.287    258.34528    174.38855    38174.007 
  272800     300.6868   -1580.5979    474.05612    240.58242   -392.49534    38174.007 
  272900    299.87953   -1551.4937    475.29436    267.30819   -336.35619    38174.007 
  273000    295.31067   -1516.3494    477.37893    284.06786   -1003.4068    38174.007 
  273100    298.11181   -1551.0939    472.17072    256.66469   -425.08323    38174.007 
  273200    305.76441    -1547.053    492.57968    315.39936   -848.29142    38174.007 
  273300    300.72435    -1548.177    481.47511    280.59059   -490.78906    38174.007 
  273400    299.67081   -1590.2177    451.41119    203.76592   -53.296042    38174.007 
  273500    310.08427    -1560.071    497.43989    326.59522    278.22078    38174.007 
  273600    304.19444   -1546.0139    493.22594    310.05099    79.555879    38174.007 
  273700    308.55116    -1521.102     509.8944    371.15023    800.78187    38174.007 
  273800    294.16139   -1553.9804    482.55075    246.45973    239.75111    38174.007 
  273900    307.03476   -1513.3083    487.64692    349.90265   -615.65992    38174.007 
  274000     299.8026   -1552.1046    465.02836    256.08659    -397.4835    38174.007 
  274100    289.60298    -1555.102     476.2673    218.63228    -354.2077    38174.007 
  274200    308.09114   -1572.6722    471.94775    279.57239    418.65039    38174.007 
  274300    305.16092   -1556.4109    484.39102    295.14911    705.90843    38174.007 
  274400    298.87636   -1565.9837    487.25418    260.28368     611.5704    38174.007 
  274500    307.00778   -1574.3754    485.19974    286.26753    366.74044    38174.007 
  274600    296.39896    -1548.554    486.57273    265.93278    306.82073    38174.007 
  274700    304.72435    -1596.342    478.91101    247.78213    215.50439    38174.007 
  274800    296.61593   -1572.4952     486.9822    243.37311   -18.990567    38174.007 
  274900     295.8678   -1549.5236    477.59256    253.60328   -285.56631    38174.007 
  275000    297.42845   -1527.1518    470.25778    275.63231   -236.80004    38174.007 
  275100    296.20499   -1566.8494    484.24998    244.44561   -268.81995    38174.007 
  275200    301.53118   -1591.3164    472.61816    232.20888   -290.64598    38174.007 
  275300     303.3961   -1579.3771    504.91639    284.80164   -790.36759    38174.007 
  275400    298.63712   -1569.6328    474.46193    242.77042   -267.89488    38174.007 
  275500    296.94666   -1642.6529    440.66237    128.37724   -377.13729    38174.007 
  275600    307.89763   -1640.2043    467.50577    206.73134   -359.45307    38174.007 
  275700    299.28872   -1586.5755    485.52907    239.81417   -120.35389    38174.007 
  275800    298.69189   -1573.5648    463.29354    227.91547   -95.076342    38174.007 
  275900    288.57828   -1600.7717    497.20534    189.30976   -78.918388    38174.007 
  276000    295.52935   -1590.8482    482.55885    215.72866   -70.562412    38174.007 
  276100    293.41839    -1596.518    469.50095    187.54356   -294.48024    38174.007 
  276200    298.85676   -1577.8989    464.55418     225.5806   -868.49941    38174.007 
  276300    295.18848   -1610.4524    472.41577    184.45425   -579.62574    38174.007 
  276400    310.42949   -1546.3568     500.1838    344.60001     27.69176    38174.007 
  276500    305.33225   -1628.7044    493.48483    232.71703    99.565012    38174.007 
  276600    290.70597   -1566.1434    511.27034    247.53547    461.17932    38174.007 
  276700    298.16595   -1609.9385    480.56639    206.45833    34.659332    38174.007 
  276800    295.48565   -1628.6342    484.88099    180.06904    135.80849    38174.007 
  276900    289.24502   -1578.7461    520.65107     237.7682   -192.05461    38174.007 
  277000    300.89784   -1656.5632    472.17549      163.682    220.28746    38174.007 
  277100    295.54776   -1631.6158    494.32196    186.80671     357.9006    38174.007 
  277200    303.32609   -1657.0133    490.21377    192.14909    491.30748    38174.007 
  277300    299.59912   -1604.7781     508.5449    246.01804    130.58708    38174.007 
  277400    307.89553   -1602.4086     494.0978    271.10967     361.1709    38174.007 
  277500    286.19594   -1581.8291     491.8963    192.27012   -276.56252    38174.007 
  277600    300.31288   -1563.4051    500.35482    282.39873   -519.95451    38174.007 
  277700    292.30505   -1625.8693    466.96568    150.66902   -356.20749    38174.007 
  277800     297.1566   -1580.0542    484.72904    235.98323   -148.13691    38174.007 
  277900    297.24425   -1578.3067    488.29468    241.68902   -134.81655    38174.007 
  278000    302.68999   -1586.2087    494.18357    264.07365    96.507388    38174.007 
  278100     304.6773   -1584.4953    494.55114    275.05818   -135.62605    38174.007 
  278200    306.46456   -1582.3487    489.83078    280.49164   -29.018274    38174.007 
  278300    306.50702   -1531.4216    491.04041     332.8185    306.19569    38174.007 
  278400     296.6607   -1504.2291     497.3541    322.21171     -143.627    38174.007 
  278500     310.4955   -1539.6257    480.74427    332.18734   -120.52769    38174.007 
  278600    308.30413   -1568.7294    495.56461    308.08626    33.583438    38174.007 
  278700    295.76194   -1562.5306    495.08683    257.61633    129.27179    38174.007 
  278800     302.3884   -1558.2506    477.60549    274.10258   -151.72905    38174.007 
  278900    302.68253   -1599.6418    467.58496    224.00859    423.09488    38174.007 
  279000    304.26616   -1614.9061    484.62298    232.87722   -191.94495    38174.007 
  279100    294.75362   -1560.5948    492.31727    252.26506     430.0728    38174.007 
  279200    296.18359   -1590.5075    505.75649    242.19812   -1.0524285    38174.007 
  279300    302.68053   -1576.7311    477.56996     256.8953    434.55219    38174.007 
  279400    311.19291   -1515.4886    488.49303     367.1977    230.86777    38174.007 
  279500    298.46268   -1571.5829    494.48895    260.06591   -23.450639    38174.007 
  279600    298.81895   -1536.9131    479.72244    281.56526   -230.03881    38174.007 
  279700    294.45988   -1543.1411    485.50933    261.59487   -151.63187    38174.007 
  279800    295.84165   -1556.7616     508.2855    276.94113   -602.52434    38174.007 
  279900    302.89863   -1560.7705    469.57539    265.83848   -684.42173    38174.007 
  280000    293.79904   -1564.9564    479.73036    231.03995    -1051.523    38174.007 
  280100    299.94033   -1566.4032    491.63757    269.01429   -380.12101    38174.007 
  280200      304.948   -1554.0107     469.2002    281.40459   -952.68094    38174.007 
  280300    288.20448   -1552.9793    489.68107    227.90326   -660.97197    38174.007 
  280400    305.44033   -1526.0373    494.05853    336.44199   -28.954474    38174.007 
  280500    294.71951   -1535.2412    477.65494    262.80353   -234.54803    38174.007 
  280600    295.84875   -1537.7972    485.37298    273.02477   -6.7571291    38174.007 
  280700    306.46124   -1561.0194    496.23253    308.20776   -118.76211    38174.007 
  280800    296.75424    -1548.116    488.70188     270.0916   -244.86573    38174.007 
  280900    294.89877    -1572.445    441.18915    189.93702   -348.77105    38174.007 
  281000    308.28916   -1561.6402    463.89938    283.44311    192.60616    38174.007 
  281100    297.31509   -1550.0391    477.36645    259.34575    616.13127    38174.007 
  281200    298.05729   -1566.2288    500.25418      269.369    395.94971    38174.007 
  281300    300.12631   -1561.0578    489.80639    273.36168    286.14571    38174.007 
  281400    302.27389   -1543.8528    489.63813    300.01994    257.03144    38174.007 
  281500    304.98134   -1521.7407    497.06239    341.68608    860.92873    38174.007 
  281600    304.23742   -1538.7721    464.88623    289.14564     681.3681    38174.007 
  281700    304.75201     -1497.44    484.23816    352.13516    10.582918    38174.007 
  281800    300.01274   -1466.6868    496.41269    373.83023   -66.257748    38174.007 
  281900     300.9235   -1485.5704    465.00675    327.62102   -182.49302    38174.007 
  282000    311.60948   -1480.0232    517.57588    433.61226    64.991828    38174.007 
  282100    309.63726   -1452.6183    494.86561    429.47103   -390.85707    38174.007 
  282200    295.40814   -1467.5474    529.67252    385.60015   -537.99697    38174.007 
  282300    284.05808   -1499.3702    473.80602    247.06074   -473.87367    38174.007 
  282400    300.01191   -1471.9227    486.19099    358.36892   -68.045969    38174.007 
  282500    300.90981   -1508.6317    492.47495    331.96657    173.81841    38174.007 
  282600    301.03581   -1524.8085     498.7463     322.6256   -114.57913    38174.007 
  282700    286.65342   -1536.6199    491.01873     238.6513   -116.09316    38174.007 
  282800    303.68696   -1533.0661    490.39458    317.89388    26.422939    38174.007 
  282900    293.06839   -1487.2727    489.80505    315.52492     62.35591    38174.007 
  283000    296.29208   -1468.1553     502.3026    361.58254   -462.55766    38174.007 
  283100    301.96115   -1485.5873    509.19564    376.44191    513.50188    38174.007 
  283200     298.6926   -1513.2928    480.13167    305.02871    100.61636    38174.007 
  283300     291.1288   -1517.0433    479.49286    266.75246   -24.361847    38174.007 
  283400    304.41532   -1521.7548    493.98424    336.05801    247.79887    38174.007 
  283500    299.42236   -1526.8184    474.87429    289.51523    229.03197    38174.007 
  283600    296.16075   -1493.5845    502.77208    336.03442    214.83208    38174.007 
  283700    298.93257   -1509.6815    501.34063    330.92416    444.41479    38174.007 
  283800    300.40189   -1495.2929    490.29537    340.85022    748.57972    38174.007 
  283900    296.68619   -1534.9958    487.12893    281.33402    341.80971    38174.007 
  284000    302.89743   -1497.8663    476.01638    335.17827    244.57201    38174.007 
  284100    302.54876   -1565.5287    490.67529    280.61272    387.90624    38174.007 
  284200    305.09947   -1494.4357     466.4583    338.91624     168.3921    38174.007 
  284300    296.65652   -1495.2994    473.76793    307.53647    292.58128    38174.007 
  284400     303.4408   -1473.4778    480.41448    366.39922    532.35567    38174.007 
  284500    288.40337   -1461.1419    505.66549     336.6161     641.2756    38174.007 
  284600    306.22467   -1504.4618    484.79113    352.26413    539.90672    38174.007 
  284700     299.2492   -1475.5174    485.66694    350.83306    146.02871    38174.007 
  284800    291.12831   -1453.7356    503.55659     354.1217   -204.20332    38174.007 
  284900    307.28574    -1505.439    476.60444    347.85395    242.91412    38174.007 
  285000    306.60473   -1533.8647    482.15399    321.92683   -698.82197    38174.007 
  285100     293.8971   -1496.2177    453.61199     274.0996   -588.71382    38174.007 
  285200    300.31509   -1483.4642    510.54747    372.54217   -290.10368    38174.007 
  285300    297.02485   -1530.3666    477.05568    277.40721     364.2473    38174.007 
  285400    307.74837   -1491.7246    447.22041    334.25701   -104.09066    38174.007 
  285500    303.48309    -1495.393    512.68975    376.94883    431.85939    38174.007 
  285600    296.11527   -1532.4103     448.7061    242.93885    346.71681    38174.007 
  285700    290.25633    -1521.842    473.51606    252.06816     805.2394    38174.007 
  285800     303.5106   -1502.3712    487.81403    345.21814    280.28196    38174.007 
  285900    298.74759   -1522.3225    452.20525    268.31902   -120.02589    38174.007 
  286000     298.6008   -1513.4295    485.55583    309.90499    100.41118    38174.007 
  286100    303.09174   -1500.5446    469.61487    326.96905   -185.64984    38174.007 
  286200    295.37058   -1537.9483    451.27901    236.63743    78.066808    38174.007 
  286300    299.73355    -1495.276    508.01885    355.59642    164.39301    38174.007 
  286400    297.10654    -1524.835    443.85042    250.09957    123.33278    38174.007 
  286500    289.05278   -1454.3111    469.39457    310.08549   -116.53865    38174.007 
  286600    297.99481   -1484.4929    482.45139    333.02222    134.18737    38174.007 
  286700    304.58145   -1510.6819    474.97768    328.86868     57.27097    38174.007 
  286800    302.21649   -1500.7388    482.95208     336.1908     229.5751    38174.007 
  286900    297.13699   -1508.9284    465.45673    287.74883   -352.12302    38174.007 
  287000     290.9903   -1457.1854    467.31499    313.81199    166.81402    38174.007 
  287100    304.12424   -1539.4119    479.34048    302.45308    340.51762    38174.007 
  287200    299.41887   -1531.2848    500.53646    310.69542    124.25568    38174.007 
  287300    297.64861   -1495.3224    477.78008    315.97037    457.25189    38174.007 
  287400    300.02251   -1473.9268    496.87641    367.09773   -146.59773    38174.007 
  287500    309.63311   -1469.5106     485.2118    402.90631       67.267    38174.007 
  287600    304.27653   -1487.0065     465.7832    341.98346    289.60855    38174.007 
  287700    298.34932   -1462.0182     490.9665    365.60028   -175.84524    38174.007 
  287800    302.87007   -1486.5058    475.36438    345.76422    9.4908719    38174.007 
  287900    298.25355   -1477.6631    487.61858    346.17838   -224.39326    38174.007 
  288000    297.82528   -1486.0075    504.12191    352.41862   -173.22941    38174.007 
  288100    306.83526   -1487.3464    478.68065    366.00452   -186.47182    38174.007 
  288200    293.72643   -1483.8374    500.16984    332.27309   -373.57344    38174.007 
  288300    303.73892   -1451.0343    463.69105    373.45498   -529.87578    38174.007 
  288400    292.91445   -1475.8701    486.19226    322.62504   -252.43815    38174.007 
  288500    296.18209   -1456.3106    470.64674    341.27858   -337.15675    38174.007 
  288600    300.35515   -1459.6758    475.39501    361.35762    -69.58595    38174.007 
  288700    298.93049   -1473.3704    490.20604    356.09132   -174.70199    38174.007 
  288800    303.22722   -1485.7946    463.21252    335.92361   -565.08668    38174.007 
  288900    294.45952   -1520.0208    475.00867    274.21285   -417.24867    38174.007 
  289000    298.27526   -1521.2014    480.45604    295.57478   -449.71299    38174.007 
  289100    285.10277   -1536.8858    502.05185    242.47133   -66.032723    38174.007 
  289200    297.77929   -1506.0139    468.02444    296.10871    337.52297    38174.007 
  289300    298.32108   -1494.0513    458.89663    301.37078    610.59611    38174.007 
  289400    289.25071   -1490.1506     494.8435    300.58166    632.15207    38174.007 
  289500    299.89972   -1496.6999    486.33872    333.23681    461.04798    38174.007 
  289600    305.06258    -1516.245    463.95955    314.44291    306.68512    38174.007 
  289700    293.43988   -1511.0056    483.02188    286.67314   -385.26581    38174.007 
  289800    304.41877   -1517.4328    446.28981    292.70107   -296.93238    38174.007 
  289900    294.53861   -1537.5855    481.40387    263.39778    376.75457    38174.007 
  290000    296.22874   -1518.8997    497.84812    306.09985   -20.963124    38174.007 
  290100    294.24318   -1537.2069    466.02508    247.07398   -54.189774    38174.007 
  290200    305.52223   -1500.7428    502.86199    370.90685   -145.18857    38174.007 
  290300    298.59402   -1482.8253     492.5449    347.46782    -230.2512    38174.007 
  290400    309.88821   -1489.1146    490.06706    389.30047   -98.441751    38174.007 
  290500    309.07112   -1501.7769    492.94938     375.8598    298.14028    38174.007 
  290600    306.19342   -1483.1659     476.0818     364.7106    206.84444    38174.007 
  290700    294.72106   -1530.7786    463.33381    252.95191     208.8799    38174.007 
  290800    298.07919   -1514.2585    469.08539    290.26861    242.68561    38174.007 
  290900    293.14449   -1566.8388    482.21228    228.70694    87.124039    38174.007 
  291000    286.16643   -1556.1971    485.90304    211.77663   -235.60374    38174.007 
  291100     301.5806   -1502.8571    471.72234    319.99378    355.90521    38174.007 
  291200    288.78428   -1473.4236    497.67189    318.04739    32.522932    38174.007 
  291300    305.53096   -1509.0373    489.66841    349.45788    62.610654    38174.007 
  291400    309.97569   -1514.1629     493.6378     368.2148    712.85578    38174.007 
  291500    300.24385   -1551.6174    467.58648    261.10887    312.89881    38174.007 
  291600    300.03676   -1533.3939    450.64951    261.46758    177.94331    38174.007 
  291700    285.05107   -1534.2159    465.05284    207.91064   -146.72164    38174.007 
  291800    308.20125    -1561.878    496.33632    315.24849    264.26571    38174.007 
  291900    299.42056    -1548.009     466.8242    260.26647   -361.11257    38174.007 
  292000    299.89629   -1503.7507    479.84394    319.67587    91.439014    38174.007 
  292100    301.00946   -1507.6616    456.97673    297.88494   -340.17032    38174.007 
  292200    294.60644   -1509.6193    473.24709    283.51108    -657.9662    38174.007 
  292300    303.58585   -1511.4474    474.10936    322.77442   -328.35178    38174.007 
  292400    301.24989   -1521.3831    499.36191    327.62581   -217.71968    38174.007 
  292500    299.12707   -1515.6416    462.70108    287.19588    44.255725    38174.007 
  292600    315.90507   -1522.3149    473.16131    366.15086   -16.331381    38174.007 
  292700    284.24417    -1559.027    485.38989    199.82155    154.30611    38174.007 
  292800    307.62165   -1564.1977    488.31508    302.31088   -61.709815    38174.007 
  292900    298.27628   -1538.8345    474.00919    271.49938   -726.38164    38174.007 
  293000    311.46452   -1538.4036    474.94283    331.94937   -244.76729    38174.007 
  293100    300.75295   -1537.8458    473.65121    283.22602   -696.86574    38174.007 
  293200    300.75466   -1510.7606    478.82728     315.4949   -363.41584    38174.007 
  293300    291.58874   -1508.2599    473.68907    271.79265   -496.02645    38174.007 
  293400    301.71979   -1487.5671    501.22132     365.4064   -83.260569    38174.007 
  293500    293.28251   -1489.6276     496.8834    321.20763   -34.317072    38174.007 
  293600    297.92627   -1524.1179    476.97713    287.61586   -5.0343776    38174.007 
  293700    305.67065   -1493.7062    496.76557    372.51204   -509.44804    38174.007 
  293800    300.28561   -1525.9477    443.29276    262.67191   -124.92594    38174.007 
  293900    301.42347   -1492.2945    502.54984    360.67999   -223.84083    38174.007 
  294000    291.45987   -1498.2847      485.532     293.0334    162.96044    38174.007 
  294100    303.37124   -1554.5241     477.5887    282.21555   -156.12214    38174.007 
  294200    301.69842   -1520.1142    465.25283    296.79505    6.8645593    38174.007 
  294300    299.68005   -1531.2375    481.73368    293.10998   -546.17908    38174.007 
  294400    301.50671   -1517.4161    485.64447    319.02589    30.933188    38174.007 
  294500    295.54461   -1522.4336    477.92258    279.57536    227.30162    38174.007 
  294600     296.6572   -1576.3629     486.1235     238.8316    73.997203    38174.007 
  294700    294.25037   -1550.6439    479.46533    247.10946   -668.99354    38174.007 
  294800    302.95319   -1545.9802    493.24331    304.54108    144.36959    38174.007 
  294900    301.40289   -1557.5655    476.37049    269.13738   -137.38287    38174.007 
  295000     293.0017   -1512.1507     505.1589    305.70191   -435.97072    38174.007 
  295100    298.53154   -1548.6004    466.57377    255.44172     -273.574    38174.007 
  295200    301.51329   -1528.1386    481.57468    304.26307    -355.2095    38174.007 
  295300    297.24772   -1516.7854    463.07213    278.00336    -530.1365    38174.007 
  295400    302.75213   -1540.0666    471.54513    287.85577   -934.13364    38174.007 
  295500     297.6774      -1514.5    470.54375    289.68537   -364.60748    38174.007 
  295600    306.64042   -1512.1433    501.17366    362.82775   -549.87957    38174.007 
  295700    300.01224   -1524.8465    482.45651    301.71214   -391.82478    38174.007 
  295800    295.44939   -1516.1513    459.89992    267.40842   -323.12205    38174.007 
  295900    303.36834   -1536.9754    469.72869    291.89119   -397.00669    38174.007 
  296000    302.47691   -1497.7165    470.10942    327.53714   -144.56002    38174.007 
  296100     300.9734   -1490.8961    487.44137    344.95356   -20.843824    38174.007 
  296200    296.42647    -1514.661    482.50498     295.8813    308.02321    38174.007 
  296300    299.28625   -1473.2744    484.87843    352.45359   -254.46399    38174.007 
  296400    295.53472   -1482.0309    465.79341    307.80464   -78.918557    38174.007 
  296500    293.57864   -1484.4749     476.9305    307.73411   -723.25965    38174.007 
  296600    289.58724   -1467.1287    504.50221    334.76995   -948.78663    38174.007 
  296700    294.94185   -1447.3891    468.26037     342.2572    -693.9621    38174.007 
  296800    306.37499   -1481.1386    491.34288    382.81245   -726.43222    38174.007 
  296900    296.73543   -1485.9395     494.0605    337.54246   -408.94555    38174.007 
  297000    304.65109   -1481.6585    489.55107    372.77744   -298.28612    38174.007 
  297100    307.19154   -1485.7137    501.82739    392.38018   -213.60669    38174.007 
  297200    297.93662   -1531.7299    492.78817    295.86131   -263.02595    38174.007 
  297300    305.07543   -1506.9515    458.56113    318.39564    150.00425    38174.007 
  297400    301.87036   -1497.4576     513.1677    368.13687    269.57689    38174.007 
  297500     305.7026   -1499.4523    489.96781    360.11129    564.95145    38174.007 
  297600    305.62677   -1556.1178    497.44394    310.58218   -33.812603    38174.007 
  297700    291.47903   -1538.8971    463.06088    230.03575    240.93176    38174.007 
  297800     302.4239   -1510.8474    488.61675    332.67606   -149.49489    38174.007 
  297900    299.08665   -1519.6478    490.31053    310.61807    -313.1316    38174.007 
  298000    294.09417   -1498.9112    499.56093    318.23797   -409.25842    38174.007 
  298100    302.16805   -1517.2301    494.46208     330.9924   -554.93693    38174.007 
  298200    295.13166    -1495.109    496.22716     323.3545   -786.02004    38174.007 
  298300    301.36986   -1493.8601    513.36765    369.69202   -1208.6876    38174.007 
  298400     293.4434   -1482.7889    489.62682    321.51059   -536.59943    38174.007 
  298500    300.66606    -1461.045    495.68529     381.6716   -318.14051    38174.007 
  298600    298.44788   -1480.1547    530.62003    387.55879   -134.01986    38174.007 
  298700    300.52245   -1507.2511    518.21406    357.35085   -65.998022    38174.007 
  298800    295.02026   -1489.2344    506.05611    338.55889    528.08764    38174.007 
  298900    297.46025   -1476.5006    504.48985    360.65804    59.754528    38174.007 
  299000    307.70735   -1472.3764    511.77365    417.97459    249.97474    38174.007 
  299100      289.903   -1495.8533    486.52387     289.4817   -24.723772    38174.007 
  299200    290.65193   -1489.1514    480.21575     293.2308    255.83344    38174.007 
  299300    289.43359   -1492.1207    493.59447    298.18181   -489.26503    38174.007 
  299400     302.2615   -1497.4994    485.86863    342.54834   -135.43291    38174.007 
  299500    297.26689   -1527.8907    493.02375     296.9355   -722.08287    38174.007 
  299600    296.60207   -1486.7012    489.14977    331.27256   -472.02469    38174.007 
  299700    292.93492   -1484.9765    503.66049     331.0786   -120.51386    38174.007 
  299800     289.1906   -1513.1376      475.258    257.73988   -220.76396    38174.007 
  299900     296.9435   -1491.1423     491.1353    330.34665   -204.47829    38174.007 
  300000    301.60465   -1485.4936    493.90352     359.6462   -281.23468    38174.007 
  300100    297.16685   -1479.5382    470.90568    322.72176   -279.92912    38174.007 
  300200    304.36767   -1522.7745    491.03229    331.87294    21.695834    38174.007 
  300300    298.56919   -1559.9643    477.05558    254.72823   -45.392907    38174.007 
  300400    302.62025   -1549.5429    482.25652    288.49997    575.60829    38174.007 
  300500    294.24009   -1538.7538    495.02459    274.51271    93.822566    38174.007 
  300600    293.80165   -1502.5114    495.57668    309.34296    471.82867    38174.007 
  300700    309.95614   -1505.4869    491.12925    374.29472    257.23223    38174.007 
  300800    293.07388    -1513.791    494.16496    293.39113    489.27288    38174.007 
  300900    297.31963   -1519.3665    482.27825     294.9505    292.04414    38174.007 
  301000    298.05667   -1526.7713    499.00573    307.57526    815.55275    38174.007 
  301100    294.43209   -1508.0856    468.25111     279.2676    183.16021    38174.007 
  301200    303.02222   -1543.3782    468.72044    282.92952    -374.0351    38174.007 
  301300    305.78548   -1519.5155    495.81558    346.26724   -442.19687    38174.007 
  301400    302.63006   -1564.9641    469.95078    260.81698   -648.48032    38174.007 
  301500    296.65793   -1502.3934    504.43847    331.11936    250.51436    38174.007 
  301600    303.57746     -1500.05    477.12717      337.152    170.92378    38174.007 
  301700    290.75742   -1548.2028    492.10566     246.5419    32.490619    38174.007 
  301800    293.57902   -1541.8564    478.60494    252.02881   -743.94781    38174.007 
  301900    303.29742   -1555.7225    453.57817    256.67586   -1184.0556    38174.007 
  302000    311.48654   -1549.0636    484.05252    330.49768   -792.38844    38174.007 
  302100    309.35391   -1514.7165    491.78139    363.01909   -332.80802    38174.007 
  302200    298.52878   -1515.0938    468.27056    290.63274    196.42004    38174.007 
  302300    291.01126   -1541.4807    486.83579    249.13138    387.37526    38174.007 
  302400    305.29689   -1521.6704    508.17036    354.27808    586.24942    38174.007 
  302500    290.35988   -1582.6649    452.49713    170.69027   -118.56404    38174.007 
  302600    299.20096   -1540.8598    470.00824    269.61585   -711.98545    38174.007 
  302700    297.67287   -1536.8778    494.43804     291.1816   -474.08553    38174.007 
  302800    308.48815   -1522.2146      472.343    332.20389   -755.68279    38174.007 
  302900    302.75585   -1500.9382    474.25517    329.71084   -205.13149    38174.007 
  303000    307.59777   -1540.8063    498.38653    335.66668   -480.67957    38174.007 
  303100    311.76641   -1546.7222    465.39121    315.43167   -529.32545    38174.007 
  303200    297.96601   -1508.2216    475.55604     302.2691    322.75271    38174.007 
  303300    295.56966   -1512.9272    482.56264     293.8341    400.24015    38174.007 
  303400    292.84451   -1571.4899    472.50557    213.00515    342.77681    38174.007 
  303500    304.64354   -1574.1891    484.22953     274.8915    1024.8313    38174.007 
  303600    301.58561   -1511.6337    462.04092    301.55826    338.57676    38174.007 
  303700    292.19405   -1539.2238    487.85818    257.70974    315.41966    38174.007 
  303800    310.09182   -1556.1751    492.51619     325.6013   -477.45643    38174.007 
  303900    294.42853   -1521.0829    442.13502    240.13825   -689.70417    38174.007 
  304000    303.52422   -1553.6316    469.44339    275.64814   -617.61682    38174.007 
  304100    298.34316   -1582.6146     466.2407    220.25042   -687.37392    38174.007 
  304200    316.44759   -1557.4774    468.61285    328.87044   -364.44779    38174.007 
  304300     295.9991   -1561.2086    455.20945    220.12349    31.197526    38174.007 
  304400      296.473   -1551.5874    471.88959    248.54791   -188.70976    38174.007 
  304500     306.0123   -1564.9348    478.97942    285.02791    41.301918    38174.007 
  304600    306.44887   -1548.5209    447.70711    272.12543   -63.870625    38174.007 
  304700    295.37923   -1546.2445    471.71976    248.82067   -559.22613    38174.007 
  304800    288.65506   -1518.7727    458.13417    232.58158   -212.60271    38174.007 
  304900    311.26576   -1545.4276    465.03394    314.12599   -427.70545    38174.007 
  305000    304.55814   -1549.1588    459.75445    275.06411   -119.60125    38174.007 
  305100    291.63184   -1552.4947    454.75739    208.81931   -685.90869    38174.007 
  305200    302.46316   -1506.7664    471.86471    320.18088   -31.092943    38174.007 
  305300    301.92657   -1542.4837    465.65016    275.84507   -43.434294    38174.007 
  305400    296.32733   -1554.0717    462.71082    236.23223    89.196807    38174.007 
  305500    290.17985    -1563.784    461.76505    198.03243    98.241642    38174.007 
  305600    299.84985   -1576.4173    460.68868    227.64593    387.90142    38174.007 
  305700    303.66676   -1537.6347    477.63631    300.47651    225.54702    38174.007 
  305800    302.52351   -1522.7414    483.43144    316.04303   -140.83525    38174.007 
  305900    294.12551   -1510.9291    454.22336    261.02282   -264.14882    38174.007 
  306000    297.64517   -1516.6467    478.98456    295.83507    74.211491    38174.007 
  306100    295.65878    -1532.626    480.86206    272.83402    220.21505    38174.007 
  306200    315.55211   -1539.7028    499.50186    373.52224   -175.59431    38174.007 
  306300    294.64097   -1509.6022    468.66064    279.09638   -100.04618    38174.007 
  306400     295.8564   -1501.1581    469.08848    293.41364    455.98557    38174.007 
  306500    306.20273   -1572.7988    508.11266    307.15038    702.25425    38174.007 
  306600    303.82275   -1581.6381    461.59187    241.12754    630.27811    38174.007 
  306700    310.09851   -1527.4529    480.01023    341.84747    292.47728    38174.007 
  306800    301.72577   -1534.6319    491.20384    308.35097   -127.48846    38174.007 
  306900    291.83813   -1574.8882    457.39237    189.98498   -214.50906    38174.007 
  307000    295.84179   -1592.3022     480.1247    213.24035   -490.42558    38174.007 
  307100    301.32885   -1570.3355    474.04499    253.71021   -510.72444    38174.007 
  307200    300.49332   -1564.9194    455.63022    236.96821    -94.42744    38174.007 
  307300    305.41757   -1560.8227    474.49185    281.98796   -165.57314    38174.007 
  307400    292.85181   -1548.4136    460.43954    224.04816   -41.204615    38174.007 
  307500    295.07667   -1547.6237    464.42627    238.79259    207.34051    38174.007 
  307600    300.85339   -1550.2218    469.96403    267.61282    432.91192    38174.007 
  307700    303.13853   -1551.6645    478.04715    284.49107    363.11756    38174.007 
  307800    307.90414   -1487.1415    476.23916    368.55675   -224.02117    38174.007 
  307900    310.65461   -1495.8667    495.38924    391.30415   -283.01927    38174.007 
  308000    300.10744   -1533.0799    464.15274    275.60142    236.69027    38174.007 
  308100     299.0682   -1542.6647    481.13158    278.33946    336.03806    38174.007 
  308200     297.0771   -1539.9804     459.3041     250.2759    124.67223    38174.007 
  308300    302.97132   -1557.5045    490.80738     290.6621       284.17    38174.007 
  308400    298.91304   -1528.1808    479.84597    290.84263    566.82242    38174.007 
  308500    301.17581   -1544.8861    479.99378    284.42277    6.5429189    38174.007 
  308600    303.27611   -1539.2277    454.55634     274.0534     451.3374    38174.007 
  308700    291.17618   -1539.1509     483.8357    249.19994    532.87774    38174.007 
  308800    299.72476   -1512.3103    471.08106    301.58485   -2.8597164    38174.007 
  308900    296.06194   -1545.1813    499.61696    280.83977    149.86259    38174.007 
  309000    302.08941   -1560.3067    478.32577    271.42723     378.9445    38174.007 
  309100    303.42156   -1558.7738    462.10107    262.70363    466.91041    38174.007 
  309200    295.89129   -1544.9374    481.16836    261.87056    495.88669    38174.007 
  309300     293.2505   -1563.5922    496.23458    246.45079    348.50008    38174.007 
  309400    295.37004   -1607.1662    449.59676     165.7349   -17.560105    38174.007 
  309500    293.55983   -1588.5561    495.47914    222.11733    120.50325    38174.007 
  309600    303.61845   -1549.8012    476.09815    286.55547   -199.08389    38174.007 
  309700     298.0254   -1565.6376    456.55934    226.12247   -182.50034    38174.007 
  309800     296.4485   -1577.6162    486.02943     236.5492   -30.721429    38174.007 
  309900    287.71509   -1585.6686    463.98155    167.32188   -270.37115    38174.007 
  310000     297.3571    -1600.386    469.44964    201.27028   -128.14422    38174.007 
  310100    298.82457   -1590.6925      476.084    224.17261    217.61651    38174.007 
  310200    291.24956   -1601.3603     442.4246    145.90819   -109.92817    38174.007 
  310300    307.09797   -1584.7155    462.07828    253.21007    131.32399    38174.007 
  310400    306.93302   -1557.4902    481.29605    298.91411   -139.96142    38174.007 
  310500    296.29281   -1581.6474    442.86385    188.65488    349.40452    38174.007 
  310600    298.98461   -1512.8724    488.62096    315.24671    40.698822    38174.007 
  310700    295.26638   -1535.6091    454.77898    242.00977    458.48703    38174.007 
  310800    293.40372   -1570.9701    496.45347    239.97826    696.36103    38174.007 
  310900    291.76852   -1572.9888    478.17459    212.35472   -239.59975    38174.007 
  311000    303.51037   -1544.8332    476.20239    291.14345     159.0447    38174.007 
  311100    297.65845   -1560.6072     454.7607    227.71026   -143.44525    38174.007 
  311200    300.90258   -1538.1307    471.97698    281.93723    121.02702    38174.007 
  311300    300.56127   -1542.9595    474.90942    278.51175    268.52005    38174.007 
  311400    298.80465   -1538.0168     466.0827    266.75783   -452.54901    38174.007 
  311500     300.6552   -1524.2512    500.70791    323.43941    66.841902    38174.007 
  311600    291.60097   -1557.2094    487.70002    236.90894   -246.68108    38174.007 
  311700    307.80917   -1533.6735     475.4198    320.77985     92.88445    38174.007 
  311800    291.55783   -1579.2994    466.23999    193.16557   -306.48884    38174.007 
  311900    301.81421   -1564.1595    494.28447    282.30018    211.50187    38174.007 
  312000     306.5228   -1561.2373    446.36305    258.39619    433.89734    38174.007 
  312100    299.29412   -1585.2594    473.62795    229.25331   -164.47522    38174.007 
  312200    294.62287   -1617.2709    485.16759    187.85356    89.886633    38174.007 
  312300    303.93182   -1544.5935    478.10318    295.17213   -27.316337    38174.007 
  312400    299.29423   -1545.0388    481.87437     277.7209   -325.95794    38174.007 
  312500    306.36958   -1550.1465    490.24428    312.68177    166.63017    38174.007 
  312600    297.51959   -1511.1706    454.56104    276.32513   -413.82238    38174.007 
  312700    307.76643   -1567.6022    468.87297    280.11288   -9.9334994    38174.007 
  312800    310.89304   -1553.3517    462.36184    301.85998   -157.16085    38174.007 
  312900    299.88778   -1593.5677    462.96704    212.94384    414.81328    38174.007 
  313000    293.32754   -1549.5119    473.67731    238.31903   -121.09878    38174.007 
  313100    296.63988   -1575.5529    471.62137    225.06182    261.32322    38174.007 
  313200    282.10093   -1603.9512    451.11775    111.02315   -234.05922    38174.007 
  313300    300.48246   -1628.8697    473.76806    191.10709   -287.78261    38174.007 
  313400    296.47894   -1568.3691    455.55565    215.45895   -272.40104    38174.007 
  313500    304.47679   -1571.6555    494.22246    286.67089    269.23351    38174.007 
  313600    299.47141   -1580.0284     445.0746    206.72527     525.1786    38174.007 
  313700    300.01701   -1552.4168    478.05659    269.76326    416.52671    38174.007 
  313800    305.14189   -1550.1202    480.48745    297.45101    489.83421    38174.007 
  313900    293.34466   -1536.3834     459.1116    236.95847    409.50548    38174.007 
  314000     301.6109   -1554.9197    471.83666    268.18127    44.517171    38174.007 
  314100    305.60795   -1527.3173    461.31651      303.171   -158.29659    38174.007 
  314200    307.06785   -1532.6559    461.28027    304.33669   -280.61436    38174.007 
  314300    300.41845   -1535.8764    462.58972    272.63533    84.601897    38174.007 
  314400    305.40976   -1527.5484    462.19275    302.92815    635.72403    38174.007 
  314500    297.62243   -1521.9854    443.47112     254.8811   -270.92437    38174.007 
  314600    303.61964   -1551.7823    511.32998    319.81146   -99.438869    38174.007 
  314700    294.67004   -1568.1009    453.01681    205.08415    -108.8425    38174.007 
  314800    300.16413   -1538.3517    463.09854    269.52939   -130.82434    38174.007 
  314900    306.19297   -1496.6798     470.6267    345.73961   -465.07726    38174.007 
  315000    303.08271   -1534.4674    469.25506    292.64599   -793.22783    38174.007 
  315100    298.07428   -1535.3352    459.80655    259.89108   -197.58785    38174.007 
  315200    288.69226   -1507.2233    463.89103    250.05454    -553.5471    38174.007 
  315300    307.63509   -1506.4984     471.9752    343.73048   -320.83208    38174.007 
  315400    306.05934   -1498.7176    482.36523    354.84162   -501.86441    38174.007 
  315500    303.85131    -1534.212    448.79523    275.88498   -293.45698    38174.007 
  315600    303.34878   -1558.9433    476.35336    276.46034   -256.23741    38174.007 
  315700    296.19396   -1509.5772    501.13553    318.55389    54.366467    38174.007 
  315800    303.87044   -1503.9374    465.47768    322.92775    34.637241    38174.007 
  315900    297.06642   -1493.4192    473.63064    311.11578   -383.66827    38174.007 
  316000    294.67135   -1528.4851    497.25176    288.94072   -271.49856    38174.007 
  316100    301.42928   -1520.3345    446.15772    276.27391    221.19532    38174.007 
  316200    294.80341   -1520.2278     489.5269    290.06482    153.80569    38174.007 
  316300     289.5079   -1479.1489    472.29337     290.1855    30.969331    38174.007 
  316400    314.38238   -1505.0645    495.59883    399.01686   -366.24754    38174.007 
  316500    295.17168    -1464.608    458.03525    315.84292   -380.31832    38174.007 
  316600    306.97719   -1477.3676    471.68586    369.62441   -369.05181    38174.007 
  316700    297.89918   -1505.3427    484.89389    314.18647   -499.16866    38174.007 
  316800    296.50997   -1517.6063    464.14737    274.95246   -325.28864    38174.007 
  316900    304.04811    -1489.585    472.72341    345.32184   -19.391979    38174.007 
  317000     299.2735    -1511.315     468.4666    297.94398    298.20628    38174.007 
  317100    297.95232   -1503.8081    487.08804    318.15328    766.81644    38174.007 
  317200    296.35701   -1534.6753    465.48743    258.53819    457.50416    38174.007 
  317300    301.47452   -1513.2686    490.44637    327.83115    33.926818    38174.007 
  317400    301.50919   -1501.6515    453.09886      302.256   -54.724499    38174.007 
  317500    291.97261    -1531.269    490.32163    267.13586    425.66109    38174.007 
  317600    301.34664   -1512.2502    456.56362     294.3938   -139.50911    38174.007 
  317700     298.2415   -1519.2562    485.21878    302.13146    149.70186    38174.007 
  317800    303.58535   -1502.9603    461.55138    318.70129   -228.66198    38174.007 
  317900    290.04351    -1541.121     476.5626    234.88223   -204.44002    38174.007 
  318000    309.32017   -1526.8059    475.86693    334.86415   -6.8036931    38174.007 
  318100     283.0933   -1540.9657     468.8426    196.17949    -430.4202    38174.007 
  318200    306.65889   -1531.2419    439.41413    282.05231    62.987977    38174.007 
  318300    307.70278   -1527.8743    457.34319    308.02578   -463.33292    38174.007 
  318400    312.04206   -1500.1374    448.50514    346.36538   -537.92508    38174.007 
  318500    293.93059   -1494.4723    470.85151    293.23461   -876.65476    38174.007 
  318600    298.39296   -1465.4496    502.77503    374.17291   -419.60611    38174.007 
  318700    289.31169   -1478.9886    471.71422    288.88758    133.70117    38174.007 
  318800    300.48069   -1473.3928    475.24791    348.05591   -256.81181    38174.007 
  318900    290.40586   -1507.3113    447.93268    241.68542   -801.53093    38174.007 
  319000     303.4219   -1508.8974    462.81119    313.29173   -355.65247    38174.007 
  319100    294.17947   -1539.9387    476.65218    254.68383   -193.99698    38174.007 
  319200    293.04167    -1507.227    464.29019    269.93601   -630.52934    38174.007 
  319300    300.41991   -1511.7401    461.11888    295.30731   -659.43052    38174.007 
  319400    295.84604   -1476.6548    485.56889    334.35091   -383.21565    38174.007 
  319500    312.60173   -1516.2106    487.61624    371.91063   -319.98074    38174.007 
  319600     303.9592   -1513.4778    444.98767    293.29496   -204.52128    38174.007 
  319700    295.73088   -1499.6721    477.35929    302.60812   -589.11158    38174.007 
  319800     307.2253   -1534.5411     459.5044    301.38109    -340.9325    38174.007 
  319900    302.10709   -1489.5629    467.39855    331.32302    55.249756    38174.007 
  320000    295.43825   -1493.6366    464.20184    294.17516    143.72406    38174.007 
  320100     291.5434   -1490.4761    493.21552    308.89976    476.74162    38174.007 
  320200    297.90626   -1511.6655    514.56095    337.56247    1000.5351    38174.007 
  320300    305.45313   -1480.2343     456.4197    344.66358    702.89395    38174.007 
  320400    319.28479   -1486.9619     477.1887    420.67291    767.94966    38174.007 
  320500    305.27462   -1496.9937    460.55918    331.24387    534.93003    38174.007 
  320600    293.89657   -1505.1963    496.64099    308.14757    443.13811    38174.007 
  320700    295.60799   -1482.6303    484.47542    326.21548    276.65799    38174.007 
  320800    305.06316    -1488.692    479.82723    357.86623    194.96325    38174.007 
  320900    304.60337   -1508.3986    489.20955    345.48199   -94.704778    38174.007 
  321000    299.68875   -1471.8176     471.5847    342.41992   -283.16272    38174.007 
  321100    295.55374   -1464.1887    493.68517    353.62375   -343.23091    38174.007 
  321200    307.97011   -1466.1885    448.05007    361.61618   -124.03467    38174.007 
  321300    293.45661   -1526.8872     475.8158    263.66045    275.87019    38174.007 
  321400    304.96049   -1441.7424    495.98246    420.51105    903.77141    38174.007 
  321500    299.67295   -1460.5969    481.30905    363.29415    885.78594    38174.007 
  321600    295.01034   -1454.8303    472.75432    339.61683    607.06251    38174.007 
  321700    306.64915   -1486.7769    452.18628    339.24591   -87.114834    38174.007 
  321800    296.98854   -1487.6155    459.99288    302.93288    188.28804    38174.007 
  321900    292.50722   -1482.1641    474.97112    303.28545    332.34882    38174.007 
  322000    296.66932   -1495.6022    460.31498    293.83806    346.78691    38174.007 
  322100    299.89473   -1521.0753    450.89864    273.39897    76.463005    38174.007 
  322200    297.08419   -1472.8286    481.23071    339.38608    483.49597    38174.007 
  322300    300.98904   -1481.6784    484.95988    351.75973   -9.0417509    38174.007 
  322400     300.0639   -1490.2458     459.8558    313.94348    1.5657612    38174.007 
  322500    299.77153   -1504.2347    487.25864    326.04763    -372.0592    38174.007 
  322600     284.0795   -1481.4013    450.41789    241.73749   -140.86646    38174.007 
  322700    303.69549   -1484.3451    476.11657    352.37508   -25.370873    38174.007 
  322800    285.92527   -1513.7025    482.01464    249.30241     -303.504    38174.007 
  322900    310.11024   -1497.9162    456.31024    347.73678    408.93619    38174.007 
  323000    303.10395   -1480.7642    464.73381    341.92303   -1067.5134    38174.007 
  323100    306.36311   -1472.1103    478.25123    378.69595   -712.43389    38174.007 
  323200    309.38684   -1499.9474    471.22601    357.38031   -338.82884    38174.007 
  323300    295.91406   -1497.8475    482.24985     310.1439   -214.67536    38174.007 
  323400    293.52128   -1479.4856    462.01973     297.5557   -214.71473    38174.007 
  323500     299.0168   -1507.3139     470.2128    302.54127    268.20512    38174.007 
  323600    305.09718   -1525.4298    484.19587    325.64947    421.61588    38174.007 
  323700    302.95839   -1534.6538    451.95047    274.59799    84.342999    38174.007 
  323800    299.94014   -1523.5596    471.94207     292.1615    228.34337    38174.007 
  323900    303.19022   -1491.6375    462.85436    329.55686   -25.820356    38174.007 
  324000    305.79215    -1478.675    472.25695    363.57892    443.83264    38174.007 
  324100    295.83795   -1480.9968    457.60381    302.00762    331.38893    38174.007 
  324200    299.38795   -1488.3241    471.92594    324.90701    86.214123    38174.007 
  324300    303.62145   -1484.3007    461.18845    337.15964    320.54278    38174.007 
  324400    305.35162    -1477.985    454.44053     344.4789      631.427    38174.007 
  324500    290.27734   -1501.1753    485.91268    285.22562    82.629601    38174.007 
  324600    301.13864   -1547.3771    454.99394    256.76537    206.90191    38174.007 
  324700    303.00175   -1519.6757    446.32403    284.14384   -113.26988    38174.007 
  324800    294.52534   -1502.1874     432.1088    249.44128   -503.53706    38174.007 
  324900    293.13036   -1486.8489    454.02604    280.44732   -958.37352    38174.007 
  325000    301.33195   -1470.0126    464.19375    344.19579   -557.61542    38174.007 
  325100    300.44568   -1495.5609    455.03099    305.51401   -42.441595    38174.007 
  325200    308.73335   -1526.5523    468.18699    324.80875   -243.46971    38174.007 
  325300    286.90132    -1507.417    442.07297    220.01909    254.25363    38174.007 
  325400    295.60645   -1500.9371    449.86117    273.28749    -241.5036    38174.007 
  325500    305.91153   -1573.5396    456.32614    253.31837   -342.58969    38174.007 
  325600    304.61078   -1494.9477    456.53105    326.28759    105.85228    38174.007 
  325700    301.26828   -1505.2924    454.23105    298.66799   -699.99132    38174.007 
  325800    299.35064   -1532.5422    435.13269    243.72846   -57.712346    38174.007 
  325900    296.03589   -1518.3838    458.17219    266.07584   -257.14075    38174.007 
  326000    292.32814   -1546.7074    438.06924     201.0379   -417.72804    38174.007 
  326100    305.96879   -1507.5285    451.59039    314.85025   -226.38379    38174.007 
  326200    297.46659   -1502.5865    478.57027    308.68093    53.827262    38174.007 
  326300    296.97569   -1534.1042    451.22847    247.62219    3.8698791    38174.007 
  326400    300.14036   -1539.0306    440.78261    246.42806   -66.296496    38174.007 
  326500    300.10499    -1504.691    485.14259     324.9692   -154.33445    38174.007 
  326600    294.72889   -1520.9671    484.47867    283.94347   -12.304948    38174.007 
  326700    307.75177   -1514.5132    450.74537    315.00858    114.71589    38174.007 
  326800    299.08533    -1528.069    477.12035    289.00071   -201.98709    38174.007 
  326900    297.63533   -1517.3194    446.76653    262.90033   -361.71337    38174.007 
  327000    299.22782   -1495.4381    487.74818    332.89786    95.749025    38174.007 
  327100    306.22889   -1509.5096    469.96806     332.4121    251.37064    38174.007 
  327200    301.25225   -1478.7674    475.08118    345.97129    135.72059    38174.007 
  327300    289.13475   -1458.9637    475.32916    311.73466    132.11457    38174.007 
  327400    296.20682    -1460.505    463.40074    329.94896    201.21523    38174.007 
  327500    294.56117   -1443.4365    468.85091    345.09485   -90.610452    38174.007 
  327600     303.2884   -1489.8803    469.32091    338.22038    557.19124    38174.007 
  327700    300.71362   -1506.8863    452.58408    292.94217    178.21664    38174.007 
  327800    301.46479    -1550.502    458.47537    258.58307     9.396349    38174.007 
  327900    299.89247   -1504.7158    467.79473    306.64439   -290.99516    38174.007 
  328000    295.10941    -1471.301    468.31913    319.15476   -449.17463    38174.007 
  328100    301.34603   -1450.2999    454.59026    354.36805   -426.21627    38174.007 
  328200    308.82676   -1484.4027    478.18218    377.37202    413.70316    38174.007 
  328300    305.35236   -1467.7188    461.61284    361.92076    514.72344    38174.007 
  328400    304.67629   -1463.2884     470.2625    371.97189    717.87718    38174.007 
  328500    289.30445    -1515.258    463.76735    244.63887     38.28251    38174.007 
  328600    297.65925   -1475.2167    500.13179     358.4754    635.14782    38174.007 
  328700      307.415   -1453.2562    485.61543    409.62679    225.04921    38174.007 
  328800    305.51374   -1455.3489    469.16277    382.56356    125.57233    38174.007 
  328900    300.17931   -1458.8023    458.26097    344.30926   -56.614245    38174.007 
  329000    307.96401   -1491.5563    500.74043    388.91141   -421.47945    38174.007 
  329100    292.36799   -1450.9571    476.55779    335.45536   -382.93559    38174.007 
  329200    309.46993   -1445.3772    462.91099    404.00782    559.71523    38174.007 
  329300    306.48173   -1513.6446    475.97614    335.41795    325.40202    38174.007 
  329400    303.97229   -1472.3399     467.9605    357.46434    915.93703    38174.007 
  329500    304.77309    -1524.893    452.28943    292.82787    236.15074    38174.007 
  329600    305.05577   -1518.1031    473.47581    322.07058    428.76166    38174.007 
  329700    290.96461   -1498.4018    481.80647    286.97195    133.67955    38174.007 
  329800    302.46125   -1553.7992    465.58767    266.86245   -123.37749    38174.007 
  329900    293.46757    -1514.836     467.8155    267.76041   -72.114307    38174.007 
  330000    304.32411   -1493.9422    480.80537    350.28312   -316.73227    38174.007 
  330100    298.25484   -1462.0926    503.75286    377.88889   -775.43782    38174.007 
  330200     298.2399   -1469.7533    454.44898    320.85738    -372.5724    38174.007 
  330300    308.55854   -1531.1333    462.55927    313.81676   -339.33013    38174.007 
  330400    294.44552   -1494.2114     465.0496    290.00057   -299.21889    38174.007 
  330500    295.93634   -1492.5329    459.07431    292.38278   -611.36637    38174.007 
  330600    289.68253   -1435.6032    474.27361    336.49378   -1297.1744    38174.007 
  330700    297.95186    -1468.786    470.27493    336.36023   -705.76943    38174.007 
  330800    293.82181   -1452.3209     469.9051    333.95221   -831.35626    38174.007 
  330900    301.69811   -1447.7752    486.84021    390.72009   -654.09496    38174.007 
  331000    291.86466    -1471.922    474.12994    309.80755   -760.41278    38174.007 
  331100     304.5582   -1437.9291    480.96728    407.50687    220.97235    38174.007 
  331200    290.89573    -1493.597    490.29058    299.95228     401.0146    38174.007 
  331300    301.76476   -1486.3447    467.61341    333.22235    260.82092    38174.007 
  331400    302.47847   -1494.3344    456.65048    317.46729    103.00399    38174.007 
  331500    297.11313   -1498.5162    470.88238    303.47978    102.61004    38174.007 
  331600    306.82275   -1469.8839    478.87283    383.60311    393.88415    38174.007 
  331700    313.89064   -1485.4083    461.69407    382.56533    339.68642    38174.007 
  331800      305.795   -1479.1508    509.18774    400.04667   -118.05878    38174.007 
  331900    301.86899    -1486.503    467.14307    333.06064    962.25143    38174.007 
  332000    302.99745   -1525.8764     462.9682    294.56804    900.64665    38174.007 
  332100    297.75163   -1496.1926    481.81466    319.59632    580.60056    38174.007 
  332200     300.7941   -1551.8686    471.75748    267.49388    505.80593    38174.007 
  332300    291.72011    -1543.456     463.4057     226.9017    -63.28771    38174.007 
  332400    300.40026   -1544.5552    464.26353    265.54884   -56.145168    38174.007 
  332500    298.29779   -1534.9928    462.77852    264.20675   -217.24112    38174.007 
  332600    289.89834   -1540.4566    469.20966    227.54332   -52.899599    38174.007 
  332700    301.40772   -1556.9311    479.55816    272.98113    226.63127    38174.007 
  332800    297.87714   -1526.9744    469.86004    277.42207    66.595557    38174.007 
  332900    281.82725   -1551.7231     472.1615    183.06887   -117.64872    38174.007 
  333000    299.77216   -1549.5326    491.23054    284.72447    563.94019    38174.007 
  333100    309.40378   -1512.6577    456.67103    330.19098   -5.6511242    38174.007 
  333200    304.49329   -1513.3996    496.91183    347.69013   -110.57107    38174.007 
  333300    302.39212   -1541.2691     459.1587    272.65393   -416.21645    38174.007 
  333400     304.2128   -1547.6681    485.45911    300.71231    148.39229    38174.007 
  333500    302.91449    -1516.107    466.10555    307.10322    314.87842    38174.007 
  333600    287.46852   -1496.0506    456.07065    247.92425   -644.39643    38174.007 
  333700    308.65781   -1509.3716    468.83346    342.29748   -320.34135    38174.007 
  333800    301.01004   -1515.2821    470.61249    303.90276   -559.53799    38174.007 
  333900    313.21369   -1542.1745    473.19667    334.26884   -98.418373    38174.007 
  334000    307.68335   -1554.5942    473.05885    296.93454    72.482302    38174.007 
  334100    307.46364   -1523.5164    476.83839    330.80746   -296.05588    38174.007 
  334200    297.21353   -1513.1538     439.4625     257.8721   -965.51098    38174.007 
  334300    303.59872   -1512.1101     480.5687    328.62867   -420.66202    38174.007 
  334400    297.26022   -1530.7464    465.36349    266.38966   -572.50095    38174.007 
  334500    302.70242   -1537.7738    470.73697    289.11768    267.29312    38174.007 
  334600    295.42049   -1575.5866    486.46387    234.40763     33.74638    38174.007 
  334700    302.40293   -1581.0407    455.88971    229.66174    472.71966    38174.007 
  334800    294.91781   -1525.1653    496.58364    292.69661    880.48248    38174.007 
  334900    307.47414   -1539.0213    465.94564     304.4569    440.68838    38174.007 
  335000    297.27368   -1548.6482     486.4129    269.59762    -91.09692    38174.007 
  335100     296.9026   -1518.4894    487.24338    298.92441   0.56360094    38174.007 
  335200    302.61667   -1490.2893    475.62175    341.10273   -215.26932    38174.007 
  335300    300.46841   -1529.0739    469.53008    286.60193   -137.08844    38174.007 
  335400    298.08532   -1546.8123    481.96929    270.62617  -0.83955963    38174.007 
  335500    300.09782   -1515.9093    478.84118    307.41733     113.7323    38174.007 
  335600    302.56865    -1538.169    453.78213    271.16837      282.343    38174.007 
  335700    299.16103   -1557.2805     481.4098    264.41788     146.0319    38174.007 
  335800    295.73225   -1558.3282    494.05931    260.65816   -359.49304    38174.007 
  335900    306.10436   -1528.7184    483.50174    326.17907    34.698056    38174.007 
  336000    298.67779   -1527.0446     460.8532    271.93211    33.108947    38174.007 
  336100    301.26474   -1551.7405    474.74487    272.71791   -64.987405    38174.007 
  336200    297.49572   -1528.6793    488.06687    292.21522   -59.109085    38174.007 
  336300     301.2469   -1512.1805    492.63662    330.08968   -775.23629    38174.007 
  336400    304.08733   -1531.9389    484.08536    314.50557     210.6202    38174.007 
  336500    305.24294   -1525.7098    472.04147    313.86807   -283.45175    38174.007 
  336600    309.21414   -1515.8525    467.99203     337.4676   -451.20686    38174.007 
  336700    292.40478    -1533.022      481.031    258.02842   -542.71972    38174.007 
  336800    304.24039   -1512.2828    456.67077    307.43282   -354.82735    38174.007 
  336900    298.88623   -1543.0275    488.70597    284.73586    -83.48483    38174.007 
  337000    295.23706   -1499.2565    454.40652    277.85853     300.7465    38174.007 
  337100    304.34713   -1495.9408    523.63977    391.22203    319.86677    38174.007 
  337200    296.88861   -1512.5563    484.70501    302.25642    420.15481    38174.007 
  337300    305.30557   -1545.7309    474.82286    296.90898    440.41065    38174.007 
  337400    297.96451   -1546.0861    452.80319      241.645     266.8906    38174.007 
  337500    304.32926   -1485.4401    502.56301    380.56594   -111.42126    38174.007 
  337600    312.84127   -1519.0665    496.92904    379.44071   -125.76161    38174.007 
  337700    290.88984   -1553.7361    479.42423    228.92043   -144.38068    38174.007 
  337800    302.56037   -1491.0671    491.39315    355.84416   -75.218185    38174.007 
  337900    298.97668   -1519.7138    468.89154    288.64039   -273.10516    38174.007 
  338000    305.33189   -1500.6471    500.50787    367.79577   0.10267598    38174.007 
  338100    316.81736   -1575.0695    471.23731    315.55954    331.64139    38174.007 
  338200    296.50498   -1503.5427    486.58581    311.43212   -94.030413    38174.007 
  338300    295.76122   -1554.8193     497.3288    267.56633   -411.43071    38174.007 
  338400    301.53739   -1493.1688     500.1464    357.91257   -249.67268    38174.007 
  338500     288.5505   -1478.0058    495.58093    310.32682   -702.83287    38174.007 
  338600    302.79863   -1504.7639    502.01336    353.83506   -427.89476    38174.007 
  338700    307.80287    -1515.404    485.45401    349.05538   -341.33244    38174.007 
  338800    307.70775   -1547.2054    503.29173    334.66554   -521.75469    38174.007 
  338900    304.11772   -1548.7433    474.09214    287.84417   -541.50944    38174.007 
  339000    302.93764   -1535.6565    485.00804    306.55986   -1016.8738    38174.007 
  339100    308.09405   -1517.9232    467.93299    330.31966   -713.37495    38174.007 
  339200    301.42627   -1510.6675    478.23559    318.00527   -357.94526    38174.007 
  339300    301.38293    -1544.799    494.84138    300.28532    10.254382    38174.007 
  339400    301.31532   -1523.6672    482.81588    309.08879    8.0900815    38174.007 
  339500    307.93391   -1505.7744    498.19578    372.01377    38.219463    38174.007 
  339600    309.37554   -1534.8275    504.43636    355.66006    9.7204806    38174.007 
  339700    293.06202   -1517.7197    481.07943    276.32372    -313.7489    38174.007 
  339800    297.38272   -1526.9168    503.23547    308.64012   -390.26737    38174.007 
  339900    307.93951   -1549.3977    462.41791    292.63776   -221.00126    38174.007 
  340000    294.54377    -1599.349    477.75903    198.01249      148.614    38174.007 
  340100    292.62092   -1568.2891    484.77705    227.47581   -719.27125    38174.007 
  340200    298.41242   -1591.1497    505.16396    250.94891   -262.29246    38174.007 
  340300    295.38474   -1560.9002    469.22842    231.69841   -283.63012    38174.007 
  340400    306.07883   -1559.8779    466.52773    277.93117   -234.93565    38174.007 
  340500    304.45794   -1503.3292    497.38373    358.07403    126.33648    38174.007 
  340600    305.26077   -1513.9863    479.43046    333.06052   -174.49708    38174.007 
  340700     293.1236   -1566.2421    484.18075    231.17856   -50.273002    38174.007 
  340800    304.64445   -1520.0511    494.20226    339.00622    51.724032    38174.007 
  340900    286.47582   -1533.5138    477.55274    227.49573   -470.35182    38174.007 
  341000     301.6468   -1532.4992    484.78896    303.71499   -244.69473    38174.007 
  341100    307.51721    -1550.595    486.63945    313.76995   -223.08293    38174.007 
  341200    296.79309   -1551.3426    484.23811    262.57527   -207.27744    38174.007 
  341300    302.18278   -1559.5603    487.77172     282.0379   -7.8343559    38174.007 
  341400    304.67546     -1537.32    492.80249    320.47651   -162.21453    38174.007 
  341500    294.35413   -1515.3802    513.64496    317.01768     76.11586    38174.007 
  341600    310.44649   -1541.7842    494.89591    343.96089    32.703939    38174.007 
  341700    293.60185   -1538.7386    499.07766    275.72163    357.36203    38174.007 
  341800     299.2926    -1529.371    464.28906    275.79601    -265.8684    38174.007 
  341900    303.43024   -1472.4948    514.34624     401.2667    -391.9314    38174.007 
  342000    313.21709    -1549.079    468.74497    322.92783    -577.6087    38174.007 
  342100    307.68569   -1536.1171    478.49287    320.85615   -492.55516    38174.007 
  342200    292.01799   -1615.0126    457.91552    151.18953   -1021.8882    38174.007 
  342300    299.50654   -1579.0497    502.70784    265.49461   -237.64999    38174.007 
  342400     293.7076     -1614.75    500.43013    201.53645    201.29921    38174.007 
  342500    304.14666   -1579.7796    497.40221    280.24748    203.38348    38174.007 
  342600    303.97609   -1541.4174    473.98893    294.43224    159.51382    38174.007 
  342700    292.00821    -1535.582    495.65315     268.3139    114.49857    38174.007 
  342800    307.69877   -1531.4435    519.13086    366.22634    220.03423    38174.007 
  342900    297.41509   -1560.6119     499.7935    271.64801    188.45527    38174.007 
  343000    298.19016   -1599.8746    505.84894    241.91318    149.00404    38174.007 
  343100    303.02373   -1585.7701    493.03942    264.86341    112.33248    38174.007 
  343200    296.72988   -1559.7662    496.26989     265.9003   -66.234116    38174.007 
  343300    303.24425   -1537.1743    519.28906    340.69674   -330.42102    38174.007 
  343400    291.86261   -1516.7698    476.72133    267.54201   -383.17793    38174.007 
  343500    297.02865   -1539.0689    482.03733    273.70357   -216.66586    38174.007 
  343600    300.13198    -1549.585     485.3927    280.44625   -713.72915    38174.007 
  343700    297.35825   -1582.1055    494.84491    244.95122   -595.61966    38174.007 
  343800    294.19499   -1600.5173    490.75482    208.27742   -993.41564    38174.007 
  343900     298.0466   -1547.0225    487.39755     275.6708   -1164.3461    38174.007 
  344000    296.92889   -1542.1353    493.57638    281.72923   -820.87943    38174.007 
  344100    294.78364   -1567.5656    482.36978    235.48134   -583.12421    38174.007 
  344200     304.7246   -1548.8802    502.18459    318.51858    4.2469031    38174.007 
  344300    302.70392   -1493.5895    490.49393    353.06562   -181.76381    38174.007 
  344400     284.9398   -1552.7074    476.02241    199.89014   -1055.7525    38174.007 
  344500    290.96462   -1516.9762    486.61202    273.20311    -586.7436    38174.007 
  344600    307.21899   -1525.2694    522.76207    373.88209   -630.72892    38174.007 
  344700    297.48133   -1555.3393    515.03127     292.4552   -71.125027    38174.007 
  344800    313.64771   -1599.1725    476.11636      282.135    132.68489    38174.007 
  344900    304.96259   -1567.7437    526.24322    324.77998   -152.55318    38174.007 
  345000    299.28552   -1560.1227       478.39     259.1135   -586.77952    38174.007 
  345100    301.87373   -1570.0694    484.34157    266.71398   -754.35049    38174.007 
  345200    307.51245   -1606.1677    475.69562    247.23215   -1428.1411    38174.007 
  345300    305.76704   -1594.2175    486.22313    261.89015   -450.04735    38174.007 
  345400    299.04882   -1574.8607    498.42874    263.35389   -59.855975    38174.007 
  345500     295.3147   -1549.3399    488.75386    262.47034   -64.416282    38174.007 
  345600    303.02079   -1548.2938    486.00057    295.28766    -485.6728    38174.007 
  345700    302.42925   -1544.7851    481.67536     291.8209   -371.21482    38174.007 
  345800    298.47453   -1526.5939    499.05211    309.67109   -330.31972    38174.007 
  345900     290.3659   -1555.5714    486.93177    232.24536     -454.133    38174.007 
  346000    298.34902   -1589.1486    478.61143    226.11342   -441.76397    38174.007 
  346100    295.69321   -1532.8832    471.00712    262.87606   -130.23268    38174.007 
  346200     305.2252   -1528.9402    492.53158     331.0484   -96.671827    38174.007 
  346300    301.58818   -1560.7362    477.36684    267.79315   -236.07768    38174.007 
  346400    303.95667   -1542.3066    535.01272    354.47985     95.86399    38174.007 
  346500    304.15083   -1545.3944    498.49439    315.74359   -115.09663    38174.007 
  346600    301.12861   -1550.5701    488.79451    287.32799     272.9887    38174.007 
  346700    296.26948   -1496.0266    473.70169    305.00898    228.84881    38174.007 
  346800    291.21021   -1536.3565    504.89262    273.20375    63.323436    38174.007 
  346900    292.84285   -1552.3683    477.04879    236.66255   -10.986561    38174.007 
  347000    299.88063   -1546.8581    499.19575    295.85011   -99.282782    38174.007 
  347100     307.8899    -1533.385    525.77829    371.78857    691.42405    38174.007 
  347200    298.98344   -1566.8506    474.46688    247.10916    734.33375    38174.007 
  347300    306.46237   -1540.8934    521.27983     353.3861    348.99317    38174.007 
  347400    304.17522   -1565.6535    478.10016    275.19953    7.7690798    38174.007 
  347500    302.97906   -1557.4151    471.74207    271.72083    73.787939    38174.007 
  347600    309.09444   -1545.0061     477.2891    317.07478   -172.75312    38174.007 
  347700    295.11203   -1531.4071     486.7818    277.52308   -703.85247    38174.007 
  347800     306.6711   -1520.3272    527.53585    381.14351   -428.81811    38174.007 
  347900    296.65961   -1537.0613    493.00215    285.02265    240.60466    38174.007 
  348000    303.15443   -1546.4342    487.15546    298.90089    597.80512    38174.007 
  348100    299.16939   -1543.6211    474.58976    271.29461    382.28305    38174.007 
  348200    296.16947   -1549.9866     482.8848    259.78413    85.807412    38174.007 
  348300     297.3938   -1560.9983    475.88132    247.25407   -20.360259    38174.007 
  348400    292.25046   -1554.5446    494.05923    248.84267   -369.18345    38174.007 
  348500    302.62887   -1578.6538    462.06947    239.24067    129.53273    38174.007 
  348600    296.72774   -1547.3244    494.96243    277.02502    831.76871    38174.007 
  348700    302.26451   -1544.2851    501.06878    310.97625    326.61887    38174.007 
  348800    298.27972   -1556.0572    505.77021    286.05315    684.16099    38174.007 
  348900    294.96466   -1506.2675    495.91133    311.13197     437.4305    38174.007 
  349000    306.53732   -1542.5071    490.90189    321.73022    28.941347    38174.007 
  349100    298.68255   -1591.4843    470.13326    216.79378    490.41364    38174.007 
  349200    300.64016   -1537.7724    518.87004    328.01285    66.454651    38174.007 
  349300    301.50744    -1568.813    455.89099    237.87879    17.204482    38174.007 
  349400    303.95811   -1515.0679    468.43121    315.14353    183.29206    38174.007 
  349500    298.46227   -1539.8186    484.43655    281.77592    10.196943    38174.007 
  349600    297.93271   -1521.3642    480.19358    293.61479   -65.627148    38174.007 
  349700    300.99785   -1534.1303    461.79103    276.17854   -568.56971    38174.007 
  349800    311.61704   -1509.1583    508.25681    395.19193    -407.5578    38174.007 
  349900    301.17573   -1512.3441    490.87074    327.84135    88.216068    38174.007 
  350000    309.76737   -1541.8591    489.52525    335.47278    215.23809    38174.007 
  350100     299.5583   -1543.8885    473.22481    271.40465    452.48775    38174.007 
  350200    306.54277   -1534.8993    490.80601    329.26654    197.53853    38174.007 
  350300    300.52827    -1531.004    501.06224    316.47222    484.28468    38174.007 
  350400    303.83553   -1542.7942    478.79246    297.22933    621.09635    38174.007 
  350500     289.6355   -1513.0959    491.45806    275.97476    -111.4964    38174.007 
  350600    312.48957   -1557.5822    461.92129    304.34158    282.20028    38174.007 
  350700    299.49529   -1495.9586    501.89423    347.72172    181.55054    38174.007 
  350800     286.6392   -1528.9168    484.32459    239.59653   -430.11011    38174.007 
  350900    303.53169   -1535.5156    478.29755    302.65177   -160.72146    38174.007 
  351000    302.26723   -1542.6665    481.19008    292.72837    479.54874    38174.007 
  351100    295.56341   -1550.6411    472.70734    246.23684    -706.5748    38174.007 
  351200    300.98646   -1537.7495    469.19532    279.91254   -86.596155    38174.007 
  351300    305.30819   -1562.2496    476.72014    282.29936     17.52233    38174.007 
  351400    293.75619   -1536.2104    488.54415    268.40781    -229.7199    38174.007 
  351500    312.21561   -1531.8466    468.59375    335.52224    59.608719    38174.007 
  351600    302.76233   -1537.4482    497.38028    316.35503   -200.89114    38174.007 
  351700    293.98195   -1536.1043    487.45775     268.4389    68.557103    38174.007 
  351800    307.78138   -1521.2792    459.77299    317.40282    46.237766    38174.007 
  351900    294.24038   -1555.5339    501.28804    263.99737   -218.60768    38174.007 
  352000    300.05445   -1530.4504    508.81805    322.65888    28.437712    38174.007 
  352100    295.86315   -1567.0102     474.3449    232.84817   -282.92368    38174.007 
  352200    303.30466   -1596.8212    458.93806    220.96952    231.46147    38174.007 
  352300    308.40669   -1570.0565    456.57234    268.22639    566.37537    38174.007 
  352400    306.75751   -1568.3637    467.25429    273.21253    152.51266    38174.007 
  352500      301.297   -1525.6146     469.3169    293.56038   -375.48517    38174.007 
  352600    301.84937   -1574.2795    482.67337    260.72654   -100.52719    38174.007 
  352700     292.4903   -1591.8946    483.79091     202.2989    118.80134    38174.007 
  352800    306.32539    -1576.023    485.07296    281.43595    30.146986    38174.007 
  352900    303.19204   -1574.8135    486.49762    270.03225    495.84441    38174.007 
  353000      288.711    -1570.563    488.95393    211.86168    485.96935    38174.007 
  353100    304.30917   -1554.2351    493.41318    302.53106    503.66231    38174.007 
  353200    284.30165   -1565.9716    469.94127    177.68589    40.843331    38174.007 
  353300    302.19265   -1570.1343    496.38441    280.12073   -85.740261    38174.007 
  353400    301.48636   -1565.2586    507.30055    292.74833   -91.997705    38174.007 
  353500    301.00804   -1588.6628     483.6634    243.56406    -223.0007    38174.007 
  353600    292.80643   -1576.1145    475.36396    211.06841   -261.07954    38174.007 
  353700    310.03448   -1559.8336    506.08228    335.25197   -239.62124    38174.007 
  353800    304.18975   -1540.5566    469.17248     291.4339   -28.483052    38174.007 
  353900    295.02518   -1526.0366    492.96018    288.68287    256.95219    38174.007 
  354000    300.18688   -1590.6659    498.23302    252.45156    40.962146    38174.007 
  354100    294.27296   -1553.1646      480.702    245.92657    113.93078    38174.007 
  354200    303.19684   -1552.0484    478.42527    284.74641   -674.03051    38174.007 
  354300     289.8007   -1567.8539    453.05326     183.5521   -393.98019    38174.007 
  354400    298.42693   -1551.4739    478.47326    263.99897   -453.04979    38174.007 
  354500    296.59475   -1582.5197    512.60646    258.87797   -196.60374    38174.007 
  354600    299.75882   -1560.9021     513.4944    295.55899   -225.00165    38174.007 
  354700    305.86485   -1536.3287    495.83533    329.82937    68.121483    38174.007 
  354800    293.04101   -1541.2417    474.48917    246.11735    -247.2281    38174.007 
  354900    299.78034   -1534.9038    513.24969    321.40906    46.281005    38174.007 
  355000    293.69872   -1530.6841    489.21268    274.34513    347.58967    38174.007 
  355100     301.6919   -1501.8798    495.19816    344.94563    -33.49283    38174.007 
  355200      292.369   -1512.0667    503.09526     300.8877    430.42762    38174.007 
  355300    289.91659   -1553.0317    497.29269    243.13296    366.34174    38174.007 
  355400    310.72629   -1502.2239       494.86     384.7388      283.215    38174.007 
  355500    299.38725   -1500.4166    510.03661    350.92208    86.346088    38174.007 
  355600    308.25551   -1505.3362    497.12357    372.82061   -356.90307    38174.007 
  355700    308.21698     -1500.78    499.03882    379.11941   -631.49806    38174.007 
  355800    298.65335   -1488.0765     482.8484    332.78589   -555.87172    38174.007 
  355900    293.93722   -1518.3343    497.01329      295.564   -1236.9662    38174.007 
  356000    307.11151   -1509.2725    505.18024    371.81566   -1063.3911    38174.007 
  356100    297.21024   -1493.6243    490.95927    328.88363   -873.43396    38174.007 
  356200    287.19163   -1499.7648    518.75848    305.65737   -440.73282    38174.007 
  356300    305.38912   -1558.1085    482.95226    293.03513   -565.99596    38174.007 
  356400    298.95464   -1541.0847    484.95025     283.2294   -257.74506    38174.007 
  356500    300.87509   -1548.6498    496.86061    296.17856   -161.20051    38174.007 
  356600    300.97173   -1579.9538    482.48713    250.93405    258.63488    38174.007 
  356700    296.69419   -1572.7115    477.28008    233.80528    175.04835    38174.007 
  356800    295.70701   -1518.6026    527.30624    333.51761    106.53138    38174.007 
  356900    297.54015   -1543.8249    504.50141    293.70323    108.58754    38174.007 
  357000    308.59939   -1557.2476    513.75085    339.07707    12.914688    38174.007 
  357100    300.90922   -1562.6346    494.32295    279.80904    277.60644    38174.007 
  357200    298.20688   -1524.9047    481.04222    292.15128   -432.43678    38174.007 
  357300    302.55877   -1527.6894    505.04671     332.8682   -110.76945    38174.007 
  357400    299.10869   -1547.7025    500.55343    292.90492   -1106.6126    38174.007 
  357500    300.37078   -1584.6016    472.12314    233.22992   -667.23589    38174.007 
  357600    306.60459   -1599.3565    481.20238    255.48275   -388.54066    38174.007 
  357700    299.53648   -1609.2697    461.54481    194.24573   -376.42872    38174.007 
  357800    311.92089   -1570.1522     522.5815    349.88402   -261.91971    38174.007 
  357900    299.24488   -1559.2083    495.56683    277.02267    -493.6322    38174.007 
  358000    303.81731   -1575.0208    470.19466    256.32328   -316.28256    38174.007 
  358100    305.82445   -1575.5735    502.73417    297.30242   -334.38777    38174.007 
  358200    304.63985   -1537.9599    481.43855    308.31316    32.229544    38174.007 
  358300    299.37681   -1542.4826    487.91201    286.68465   -119.58993    38174.007 
  358400    299.85846   -1552.7206    499.49739    290.18989    109.31231    38174.007 
  358500    309.26555   -1572.8547    478.65613    291.35978    428.79509    38174.007 
  358600    295.90933   -1547.7802    503.58574     281.5259    469.41185    38174.007 
  358700     288.1283    -1567.049    513.51696    237.32814   -351.98677    38174.007 
  358800    296.96084   -1528.1077    488.03507    290.35872   -31.389175    38174.007 
  358900    297.44253   -1564.6681    488.94215    256.86347   -295.54447    38174.007 
  359000    309.81758   -1549.9608    470.94026    309.01098   -692.49057    38174.007 
  359100    303.38536   -1539.5165    488.03574    307.73347   -448.74806    38174.007 
  359200    305.45668   -1530.5365     494.4693    332.42678   -395.69528    38174.007 
  359300    289.65993   -1538.8805    500.30512    259.14672   -473.60292    38174.007 
  359400     294.6581   -1540.0765     486.5071    266.54527   -782.80943    38174.007 
  359500     300.4979   -1555.0483    483.84554    275.07519   -117.09224    38174.007 
  359600    306.04003   -1586.2468    507.48307    292.34381    257.70446    38174.007 
  359700     289.9097   -1581.4039    509.14905    226.58629    137.34806    38174.007 
  359800    299.27143   -1567.5877    486.24285    259.43828    426.50329    38174.007 
  359900    305.82604   -1559.2905    483.82353    294.68188   -251.90443    38174.007 
  360000    294.28624   -1578.7932    481.13661    220.79207   -388.90703    38174.007 
  360100    303.69479   -1593.9066    483.31412    250.00799    339.21978    38174.007 
  360200    300.33226   -1608.4161    497.80669    234.92644    478.00013    38174.007 
  360300    299.95203   -1593.8601    480.24027    230.21248   -155.12155    38174.007 
  360400     306.4032   -1582.9888      468.538    258.28379    -274.1586    38174.007 
  360500    300.31338    -1570.623    459.23001    234.05821   -895.62464    38174.007 
  360600    297.40384    -1553.876    475.55026    254.09033   -980.94711    38174.007 
  360700     305.9883     -1557.54    465.10052    278.43627   -734.79552    38174.007 
  360800    296.80654   -1535.7731    494.06386    288.03081   -554.23754    38174.007 
  360900    306.09256   -1566.1877    478.92642    284.08164   -211.64456    38174.007 
  361000    297.32394   -1577.1049    460.80542    215.75861   -196.88274    38174.007 
  361100    296.48888   -1566.9114    470.29258    231.69813    210.68391    38174.007 
  361200    312.24528   -1594.4112    493.71185    298.20865     665.3125    38174.007 
  361300    310.76531   -1539.4469    477.11822    329.94882    402.68785    38174.007 
  361400    301.98396   -1559.9432    474.60147    267.59394    309.22366    38174.007 
  361500    296.71299   -1511.0323    502.57031      320.859    586.13638    38174.007 
  361600    303.63817   -1544.0245    490.79571    307.11809    745.59032    38174.007 
  361700     303.5162   -1529.1895    480.89074     311.5016    1150.0119    38174.007 
  361800    289.58958   -1571.0598    487.03447    213.38163    87.097453    38174.007 
  361900    304.22553   -1570.0594    475.65973    268.57865    149.67955    38174.007 
  362000    293.89909   -1581.3598    457.42023    192.77468   -414.65239    38174.007 
  362100    308.56662   -1565.5768    482.51031    299.36061    53.749969    38174.007 
  362200     298.3145   -1549.5179    486.60963    273.58771   -187.98716    38174.007 
  362300    291.66412   -1597.3796    459.07243    168.39398   -350.91221    38174.007 
  362400    304.00805   -1564.2538    480.37509    278.12526    63.986055    38174.007 
  362500    308.63719   -1548.6478    455.54404    289.63944    127.88311    38174.007 
  362600    306.32004   -1479.1187    473.77806    367.02141     695.7007    38174.007 
  362700    308.77791   -1518.5677     485.8913    350.69729    520.18744    38174.007 
  362800    285.94792    -1525.307    483.87856    239.66325    554.18881    38174.007 
  362900    310.15093   -1521.4975    486.82031    354.84779    7.4495709    38174.007 
  363000    295.69202   -1495.5211    474.11198    303.33767    338.73578    38174.007 
  363100    303.43363   -1520.6861    485.56774    324.31205   -16.145362    38174.007 
  363200    295.79392   -1527.8099    471.63325    269.02671   -57.435785    38174.007 
  363300    301.34062   -1536.7825    452.07502      265.346   -636.09309    38174.007 
  363400    306.02391   -1510.1984    486.60798    347.44496   -614.85959    38174.007 
  363500     298.6521   -1524.6635    475.50428    288.84923    234.00443    38174.007 
  363600    297.60772   -1554.0547    485.18683    264.46156   -44.035244    38174.007 
  363700     301.2709   -1512.8911    461.42298    298.27299    458.26399    38174.007 
  363800    303.92072   -1498.9386     492.1639    354.83802    671.74821    38174.007 
  363900    304.81448   -1573.7648     466.5278    258.37994    407.56803    38174.007 
  364000    298.03762   -1554.9996    455.39932    235.65517   -434.95623    38174.007 
  364100    301.04446    -1569.127    460.41389    240.01344   -187.10154    38174.007 
  364200    302.38668   -1567.4071     481.3709    268.70373   -217.66726    38174.007 
  364300     300.3766   -1534.3189     463.2916    274.70714   -289.33974    38174.007 
  364400    303.52396   -1539.3282    454.07703    274.58393    103.49637    38174.007 
  364500    308.49116   -1545.9312    462.21161    298.36938   -592.74259    38174.007 
  364600    296.36075   -1528.4335    479.63935    278.94867   -214.13863    38174.007 
  364700    298.47624    -1532.927    485.00284    289.29642    -241.8597    38174.007 
  364800    306.23607   -1550.0204    476.39846    298.36392   -231.04437    38174.007 
  364900    303.61471   -1540.2107    462.08262    282.11361   -337.17674    38174.007 
  365000    304.54082   -1547.8009    461.78982    278.37977   -175.57431    38174.007 
  365100    300.57425   -1546.9049    469.44805    269.16316    138.02579    38174.007 
  365200    299.31202   -1509.7148    458.52077    289.77097   -267.39395    38174.007 
  365300    300.42799   -1511.8371    472.55914     306.6867   -712.89177    38174.007 
  365400    292.30375   -1499.8173    506.68019    316.42974   -123.10242    38174.007 
  365500    304.70285   -1523.0258    460.35098    302.44194   -658.53507    38174.007 
  365600    302.05857   -1521.3904    479.81578    311.69532   -34.697316    38174.007 
  365700    303.24408   -1547.2986    477.91012    289.19271    964.46284    38174.007 
  365800    314.77618   -1537.2776    456.32038    329.28969    790.51966    38174.007 
  365900    289.77434   -1532.2141    490.83657    256.85718    122.03464    38174.007 
  366000    297.71324   -1540.8153    484.16451    277.15141    172.26543    38174.007 
  366100    294.53102   -1533.2167    466.08854    252.41717    153.22666    38174.007 
  366200    316.52979   -1518.0909    466.56789    366.58026    370.93174    38174.007 
  366300    296.81366   -1525.8015    463.80651    267.77701    358.05279    38174.007 
  366400    295.55316   -1534.0672    474.43505    264.49258    532.50383    38174.007 
  366500    303.91754    -1560.255    478.36705    279.71055    57.017545    38174.007 
  366600    303.95243   -1556.7797    488.90918    293.88426    570.61306    38174.007 
  366700     297.3747    -1545.622    489.49144    276.15488    248.12365    38174.007 
  366800    298.70881   -1515.5917    480.12403    302.79483   -514.69678    38174.007 
  366900    299.07221   -1542.8714    479.63722    276.65641   -316.97258    38174.007 
  367000    297.30042   -1502.5268    482.24568    311.67162   -591.18897    38174.007 
  367100    303.34161   -1540.6975    465.45176    283.77246   -77.506975    38174.007 
  367200    307.41519   -1526.2373    467.61284    318.64404   -74.865851    38174.007 
  367300    292.56842   -1569.4826    481.60257     222.8726    -184.6268    38174.007 
  367400    306.35098   -1538.1592    471.49751    305.83899   -18.622984    38174.007 
  367500     303.1389   -1543.4238    474.94481    289.63104   -11.328184    38174.007 
  367600    301.79927   -1536.9506    487.03204    302.18968    229.81645    38174.007 
  367700    305.42753   -1520.9141    474.25228    321.70158    90.251954    38174.007 
  367800    304.05775   -1556.1154    451.30377    257.41496   -376.22124    38174.007 
  367900    296.81527   -1543.8257    463.56057    249.51397   -107.33762    38174.007 
  368000    292.11568   -1536.3826    456.59442     228.9361   -340.93804    38174.007 
  368100     298.7574   -1535.1076    461.00824    264.38087   -331.73691    38174.007 
  368200    295.23011   -1556.8671    476.12458    241.93486   -807.35675    38174.007 
  368300    306.58964   -1524.0787    473.26627    322.75748     46.05991    38174.007 
  368400    301.74332   -1566.3047     445.5249    231.07781     -194.264    38174.007 
  368500    295.09487   -1516.6097    487.75265    293.21448    45.028224    38174.007 
  368600     299.6643   -1523.3412    459.18819    278.39022   -156.99878    38174.007 
  368700      292.155   -1505.9971     464.6317    267.53504    91.888513    38174.007 
  368800    295.04148   -1534.1651    457.44146    245.10867   -401.07971    38174.007 
  368900    296.34868     -1581.34    457.72435    204.07315   -107.03977    38174.007 
  369000    304.87471   -1571.9304    445.64562    239.60188   -8.0176921    38174.007 
  369100    291.91546   -1575.8906    459.35238    191.28899   -37.878129    38174.007 
  369200    295.04734   -1569.4463    470.08547    222.49769   -22.434791    38174.007 
  369300    293.38648   -1594.5094    441.99561    161.90387    266.37513    38174.007 
  369400    303.71385   -1577.3829    459.09292    242.39596   -363.54147    38174.007 
  369500    294.08892   -1588.4881    447.03613    176.11268   -295.66503    38174.007 
  369600    296.97871    -1576.256    439.32523    193.58061   -522.49461    38174.007 
  369700    300.85062   -1524.9373    452.87327    275.79419   -228.88733    38174.007 
  369800    296.10485   -1516.7287    489.17821    299.04589   -331.38375    38174.007 
  369900    298.13726    -1515.532    461.92146    282.09129     -149.706    38174.007 
  370000    299.30773   -1527.3547     445.0797    258.67079    205.39912    38174.007 
  370100    296.09884   -1574.0347    454.68965    207.22436   -302.32276    38174.007 
  370200    300.19097   -1536.8604    470.43926    278.48172    -210.3061    38174.007 
  370300    295.38268    -1544.684    450.76554    229.44245   -77.589918    38174.007 
  370400    288.07287   -1512.6188    466.05924    244.05229   -342.90269    38174.007 
  370500    295.99903   -1530.1949    457.72526    253.65262    38.768908    38174.007 
  370600    289.99041   -1526.2395    489.83666     262.7998   -10.918898    38174.007 
  370700    305.36292   -1501.9362    459.31617    325.45395    -465.1347    38174.007 
  370800    302.56098   -1488.7745    480.12125    346.86757   -287.78695    38174.007 
  370900    293.25935   -1479.1308    483.02283    317.74006    39.346511    38174.007 
  371000    283.99389   -1487.3173    456.59991    241.61996    81.978637    38174.007 
  371100    297.01233   -1465.7627    469.19828    334.09758    342.33305    38174.007 
  371200    291.20142   -1482.9052    470.73436    292.45741    268.73168    38174.007 
  371300    305.30079   -1486.4496    464.98217     346.3282    51.136174    38174.007 
  371400    301.91254   -1480.4678    443.95004    316.09792    -32.86727    38174.007 
  371500    305.21465   -1459.5436    476.29519    384.16128   -199.04037    38174.007 
  371600    297.63627   -1500.4249    477.60241    310.63485    490.15149    38174.007 
  371700    294.41686   -1513.3671    463.05583    268.72263    105.65713    38174.007 
  371800    289.82719   -1507.3025    478.72356    269.89255   -397.88964    38174.007 
  371900    293.19425   -1467.7361    490.50099     336.3213   -307.18148    38174.007 
  372000    298.43418   -1439.7489    480.11098    377.39417    -169.3305    38174.007 
  372100    312.16867   -1438.1274    474.98549    435.42284   -34.479769    38174.007 
  372200    303.13631    -1455.488    485.28182     387.8922   -470.94964    38174.007 
  372300    293.24637   -1457.7971    470.78321    326.77605   -552.84373    38174.007 
  372400    295.72575      -1405.3    482.78875    402.38669   -1138.1201    38174.007 
  372500    300.00856   -1446.1785    480.19751    378.10464   -956.97529    38174.007 
  372600    309.38966   -1455.3672    452.12459    382.87186   -649.96734    38174.007 
  372700    307.60148   -1508.3998    459.73013     329.4334   -631.69804    38174.007 
  372800    305.50626   -1517.1365    454.42476    306.00448   -297.86604    38174.007 
  372900    300.89938   -1456.7106    483.85221    375.21823   -570.73619    38174.007 
  373000    303.40209   -1516.5044     446.1166    288.90134   -366.00509    38174.007 
  373100    291.77566   -1478.4281    469.54081     298.3136    513.58055    38174.007 
  373200    303.95056   -1511.5093    465.98873    316.22587    410.02002    38174.007 
  373300    294.90392   -1513.1371    520.77876    328.85765    466.37358    38174.007 
  373400    294.00167   -1491.2664    453.62444    279.53177    452.72758    38174.007 
  373500    303.83471    -1511.918    487.73356    337.04293    110.48118    38174.007 
  373600    318.47351   -1489.8484    478.23286    415.19593    213.45232    38174.007 
  373700    309.08115   -1488.4708    501.55812    397.81961    332.18399    38174.007 
  373800    301.09888   -1508.5931    480.01604    320.39329     445.3517    38174.007 
  373900    302.02774   -1507.6798    470.18622    315.63825   -121.32172    38174.007 
  374000    303.72931   -1517.9402    456.46241    299.27735   -138.40203    38174.007 
  374100    304.48505   -1552.6152    473.15039    284.67614   -81.032519    38174.007 
  374200    300.76142   -1494.0761    492.89419    346.27665    45.116502    38174.007 
  374300    307.82305   -1550.1177    481.12696    310.10498     104.8784    38174.007 
  374400    296.67467   -1521.5283    475.14731    282.76828    92.311963    38174.007 
  374500    296.92037   -1523.0946    475.05885    282.21431   -280.70424    38174.007 
  374600    300.28124   -1479.8063    451.64391    317.14487   -339.29389    38174.007 
  374700    297.31511   -1485.6983    482.51804    328.83825   -313.80793    38174.007 
  374800    292.65531   -1479.2775    450.90397    282.76837   -679.98392    38174.007 
  374900     298.2151   -1498.5008    470.33229    307.88211   -417.25731    38174.007 
  375000    291.83415   -1528.2419    471.87317     251.0942   -402.22561    38174.007 
  375100    296.57852   -1534.6032    484.60325    278.71855    69.388471    38174.007 
  375200    300.28106   -1515.6756     439.3271    268.95794   -140.27741    38174.007 
  375300    305.86432   -1489.0433    479.46185    360.73889   -273.58565    38174.007 
  375400    297.42092   -1570.1448    456.13276    218.48058    5.7754267    38174.007 
  375500    297.41146   -1566.1233    443.61021    209.93708    70.620924    38174.007 
  375600    302.34203   -1566.3514    464.25323    252.44173    -232.4269    38174.007 
  375700    297.61159   -1564.2376    469.42546    238.53466   -106.94018    38174.007 
  375800    305.07218    -1600.543    464.76369    230.99208   -9.6718905    38174.007 
  375900    296.41636   -1555.7275    480.77003    253.03449   -647.10601    38174.007 
  376000    304.09025   -1518.9573    460.98953    304.40445   -645.76782    38174.007 
  376100    291.96185   -1559.7053    474.50437    222.83417   -663.04449    38174.007 
  376200    303.52889   -1539.3555    464.90275    285.40446   -343.08688    38174.007 
  376300    295.19655   -1557.9417    466.54822    231.13356   -372.77291    38174.007 
  376400     296.5243   -1551.9899    472.14941    248.63514   -534.53564    38174.007 
  376500    307.08342   -1550.5738    474.64653    299.85482   -109.59748    38174.007 
  376600    289.09352   -1535.9894    482.13624    241.33134    5.5236499    38174.007 
  376700    305.06397   -1510.6877      464.213       320.26   -74.512638    38174.007 
  376800    302.99828    -1535.099    475.69956    298.08061   -277.97716    38174.007 
  376900    308.81166   -1540.7217    465.63897    308.44219   -51.945606    38174.007 
  377000    301.26385   -1478.6877    449.24286    320.26467   -407.61795    38174.007 
  377100    296.84245   -1519.9431    460.11842    270.07622   -487.45143    38174.007 
  377200    289.02359   -1491.1469    497.74069      301.465   -131.48878    38174.007 
  377300    304.13836   -1483.2958    492.90309    372.19501    14.073315    38174.007 
  377400    296.43513   -1494.4845    481.58901     315.1806   -40.004394    38174.007 
  377500    306.31823   -1505.8806     470.7475    337.22086   -424.80371    38174.007 
  377600       306.51   -1500.4352    457.07591    329.85375   -196.49063    38174.007 
  377700    293.20549   -1497.1482    487.30516    303.76377   -540.90721    38174.007 
  377800    301.51041   -1491.8052    476.59086    335.59981    214.18417    38174.007 
  377900    291.33474   -1506.4642    474.11415    272.87549   -163.53658    38174.007 
  378000    298.37997   -1486.8843    459.37292    309.27785   -73.146998    38174.007 
  378100    292.92364   -1472.8385    474.45239    313.95796   -160.79549    38174.007 
  378200    300.76713   -1476.2912    489.91985    361.11279    187.76839    38174.007 
  378300    305.16762    -1499.162    478.73828    346.77531   -85.267083    38174.007 
  378400    290.33653   -1507.7307    453.50975    246.53241   -330.35662    38174.007 
  378500    296.18437   -1487.0204    468.42711    308.35933   -1037.5594    38174.007 
  378600    296.14277   -1474.3473    453.28624    305.70525   -912.61315    38174.007 
  378700    299.14255   -1523.3334     468.4414    285.31378   -587.19219    38174.007 
  378800    280.23454   -1506.1982    464.12432    213.42104   -153.16525    38174.007 
  378900    297.09586   -1518.0179    495.32701    308.34537    343.49398    38174.007 
  379000    292.26689   -1518.6374    494.65977     285.4241    769.98279    38174.007 
  379100      297.913    -1530.785    481.94038     285.8525    341.46772    38174.007 
  379200    284.78324    -1487.483     462.4701    250.86083   -10.051957    38174.007 
  379300    297.02992   -1524.3513    495.46157    301.85107   -44.199273    38174.007 
  379400     303.8824   -1498.6901    485.29038    348.04122   -151.73998    38174.007 
  379500    288.75845   -1469.7968    455.38536    279.27192    528.51397    38174.007 
  379600    294.66544   -1486.7091    483.52037    316.95881    23.689732    38174.007 
  379700    295.58624   -1502.8657    466.45621    287.86344   -403.25188    38174.007 
  379800    301.74887   -1506.6553    462.91505    308.14223   -55.504514    38174.007 
  379900    294.85242   -1496.9445    473.36192    297.40267   -210.77612    38174.007 
  380000     295.6358   -1507.7518    485.30644     302.0496    129.37513    38174.007 
  380100    301.28159   -1512.3178    497.35817    334.82934     58.20826    38174.007 
  380200    294.56446   -1535.4482    461.13342    245.38035    23.777182    38174.007 
  380300     296.4324   -1496.7427    464.74925    296.07036   -483.35469    38174.007 
  380400     298.0625   -1482.0086     472.7791     326.1374   -163.04574    38174.007 
  380500    302.26156   -1479.1696    479.62612    354.63588   -211.42411    38174.007 
  380600    299.92801   -1505.0626    472.69574    311.35787   -420.62197    38174.007 
  380700    306.33785   -1523.0316    458.18109    307.59133    -885.1144    38174.007 
  380800    304.89683   -1515.4808    450.80613    301.31121   -907.47085    38174.007 
  380900    281.35986   -1552.0363    462.46259    170.96276   -831.72967    38174.007 
  381000    303.68886   -1509.1152     475.3677    326.82645   -271.45123    38174.007 
  381100     304.6318   -1505.4276    472.30283    331.67373   -326.52689    38174.007 
  381200    302.66494   -1542.2068    468.44718    282.22702   -74.105265    38174.007 
  381300    294.94322   -1508.2269    473.79908    286.96425   -305.95305    38174.007 
  381400    296.11928   -1511.2233    447.40471    262.84247    180.75353    38174.007 
  381500    304.84041   -1540.1467    494.37699    319.96329   -39.301684    38174.007 
  381600    304.53396   -1491.1248    484.65513    357.89043    255.27817    38174.007 
  381700    307.22565   -1505.0806    464.69231    336.03097    324.23403    38174.007 
  381800    292.62394    -1558.524    476.53109    229.00843    151.02694    38174.007 
  381900    302.72788   -1522.5049    440.86093    274.62463    338.34619    38174.007 
  382000    287.13041   -1570.4503    489.71158     205.6507    522.66413    38174.007 
  382100    292.84064   -1559.7808    471.47683    223.66818    450.82978    38174.007 
  382200    298.94713   -1530.5192    513.75614    322.56716     410.5981    38174.007 
  382300    294.32024   -1523.9563    469.83197    264.47674   -104.36129    38174.007 
  382400    302.80559   -1489.4348    494.26576    361.44773    -426.0305    38174.007 
  382500    305.07484   -1530.5466    464.80927      301.046   -838.97433    38174.007 
  382600    298.94307   -1495.3662    486.38067    330.32653   -388.95502    38174.007 
  382700    298.17559   -1508.7129    479.93187    307.09256   -395.06942    38174.007 
  382800    300.41333    -1523.902    493.81278    315.80981    294.74671    38174.007 
  382900     305.1307   -1474.7516    497.26853    389.55049    243.66829    38174.007 
  383000    309.42758   -1474.5169    472.85409    384.62148    649.80496    38174.007 
  383100    306.52354   -1492.2951    478.54675     359.5254    371.22413    38174.007 
  383200    292.66424   -1491.0676    483.81357    303.92784    638.25134    38174.007 
  383300    318.09497   -1486.3834    474.11878    412.85092    463.78166    38174.007 
  383400    297.14379   -1463.4042    493.17258    361.01935    373.52169    38174.007 
  383500    312.88798    -1523.845    492.26302    370.20539    175.57641    38174.007 
  383600    293.90838   -1511.9578    465.18083    269.97886    50.383067    38174.007 
  383700    308.49761   -1500.1257    486.52482    368.51697    170.92185    38174.007 
  383800    307.35063    -1508.943    464.90603    332.94231    71.363201    38174.007 
  383900    302.20916   -1512.6321    479.30659    320.61915    116.45062    38174.007 
  384000    300.09923   -1480.4237    490.18461    354.25275    297.13221    38174.007 
  384100    305.15465   -1542.0465    459.71112    284.80553    358.13475    38174.007 
  384200    299.23064   -1528.4907    469.84387     281.9536    206.97518    38174.007 
  384300     302.0048    -1496.145    484.74287    341.62695    320.81413    38174.007 
  384400    314.09027   -1514.6117    477.34475    369.90693    441.96533    38174.007 
  384500    293.52522   -1520.4827    451.48819    246.04468    555.37108    38174.007 
  384600    300.07683   -1489.4835    489.97515    344.88308   -461.43872    38174.007 
  384700    288.00327   -1524.9181    494.72942    260.11136   -356.27173    38174.007 
  384800    291.92605   -1542.7444    483.55838     248.6887   -333.73895    38174.007 
  384900    293.18441   -1521.0575    477.24963    269.70445   -818.59935    38174.007 
  385000     308.7697   -1539.0752    491.58724    335.84892     6.684148    38174.007 
  385100    301.18152   -1525.4471    465.14543    289.03902    -128.8583    38174.007 
  385200    303.11719   -1520.3346    484.36227    322.04048     148.9077    38174.007 
  385300    292.46636   -1501.2775    480.50115    289.51901    331.81912    38174.007 
  385400    294.23938   -1528.4633    482.32741    272.10282    1090.3345    38174.007 
  385500    303.08337   -1547.5097    495.40441    305.75597    971.80749    38174.007 
  385600    297.19017   -1589.0168    448.53429    190.97626    1056.7817    38174.007 
  385700    307.21225   -1554.3336    485.19271    307.21838    444.75864    38174.007 
  385800    294.12481    -1534.258    498.61231     282.0798    1077.7853    38174.007 
  385900    289.76398   -1524.3392    454.48741    228.33649     101.3359    38174.007 
  386000    295.03631      -1542.8    496.00099    275.01014    130.44616    38174.007 
  386100    295.64627   -1566.4512    474.66973    232.76039     96.54821    38174.007 
  386200    294.18786   -1597.4662    458.85576    179.39749    420.65531    38174.007 
  386300    301.59192   -1557.0716     504.2476    298.35526    949.65456    38174.007 
  386400    300.58601    -1572.009    480.87908    255.54274    1021.1544    38174.007 
  386500    299.99652   -1560.3165    479.61767    263.33282    888.50291    38174.007 
  386600     300.4527   -1575.6871    469.31372    239.70203    990.59905    38174.007 
  386700    294.96884    -1539.606    476.97213    258.87302    842.78464    38174.007 
  386800    299.67113   -1541.0098    481.85055    283.41457    197.27262    38174.007 
  386900    296.73386   -1596.7461    453.09821    185.76653   -269.96845    38174.007 
  387000    297.41762   -1526.3642    463.81005    269.92365   -407.09313    38174.007 
  387100    307.62668   -1518.8096    460.25277    319.65912   -288.78471    38174.007 
  387200    302.99578   -1533.0801    478.01829    302.40699   -490.66667    38174.007 
  387300    296.90146   -1529.2464    476.35766    277.27654   -143.51524    38174.007 
  387400    300.14122   -1479.7699     477.3621     342.2721   -285.33152    38174.007 
  387500    297.13027    -1509.789    476.28294    297.68439    93.642785    38174.007 
  387600    304.27745   -1527.0669    470.98561     307.1296   -419.38643    38174.007 
  387700    302.55065   -1535.9011    486.10917    305.68264   -640.81659    38174.007 
  387800    294.99557   -1566.2231    468.85523    224.25872    -872.1411    38174.007 
  387900     292.1216   -1566.1116    477.16379    219.80304   -994.24622    38174.007 
  388000    300.43098   -1532.4601    503.20287    316.72087   -674.44835    38174.007 
  388100    305.69224   -1521.1573    457.81839    306.21043   -645.78891    38174.007 
  388200    297.09939   -1520.7925    491.86911    302.12867   -298.59721    38174.007 
  388300    309.63727   -1518.8436    471.77974    340.15989   -190.36146    38174.007 
  388400    303.63481   -1519.1938    478.04901    319.18701    -442.3991    38174.007 
  388500    296.11776   -1518.8528    477.30205    285.10347   -196.16724    38174.007 
  388600    301.25473    -1500.179    467.89607     317.3857   -235.66228    38174.007 
  388700    301.59316   -1522.2194    473.69887    302.66431    13.017922    38174.007 
  388800     311.0488   -1565.6463    454.55372    282.45505   -306.70909    38174.007 
  388900     299.2909   -1513.0251    485.29952    313.14475   -122.22773    38174.007 
  389000    292.19475   -1532.7808     488.0996    264.39729    362.25682    38174.007 
  389100    298.56995   -1521.4245    488.09347    304.30942   -62.074303    38174.007 
  389200    311.52178   -1562.0947    474.36246     307.9344    429.03142    38174.007 
  389300    296.33394   -1529.2659    480.29872    278.65552    51.554078    38174.007 
  389400    307.35265   -1463.3366    487.21075    400.86239    259.60675    38174.007 
  389500    297.32822   -1511.3439    445.54515    266.27849   -26.767547    38174.007 
  389600    300.27919   -1517.4371    476.72247    304.58344    204.49831    38174.007 
  389700     304.0639   -1479.7102    494.13461    376.67863    153.57401    38174.007 
  389800      294.938   -1540.4956    484.36923    265.24229   -154.73319    38174.007 
  389900    307.19119    -1509.356    483.69048    350.59943    91.940804    38174.007 
  390000    311.62387   -1497.7915    478.63563    376.96816    25.368492    38174.007 
  390100    298.78392   -1502.9421    476.32294    311.97989   -206.92665    38174.007 
  390200    291.36828   -1489.4363    473.94144     289.8809   -549.13586    38174.007 
  390300    307.03683   -1488.7288    508.56331    395.40791   -729.70837    38174.007 
  390400    297.36851   -1496.8052     460.9764    296.42899   -334.09762    38174.007 
  390500    296.41804   -1528.3249    477.21675    276.89133   -304.08901    38174.007 
  390600    303.17786   -1530.1388    479.39659    307.54229   -357.55297    38174.007 
  390700    305.96923   -1527.8391    457.07324    300.02447    -656.1303    38174.007 
  390800    293.77315   -1545.3802    486.09581    256.86561   -689.27751    38174.007 
  390900    293.72416   -1540.2942    498.53876    274.17504    47.092275    38174.007 
  391000    299.12427   -1496.5993    488.07325    331.59782   -311.98479    38174.007 
  391100    303.70973   -1507.0057    497.57583    351.23752   -109.46518    38174.007 
  391200    306.61719   -1488.0123    480.31604    365.99708    218.11925    38174.007 
  391300    303.33335   -1479.1369    475.34359    355.18787   -414.80382    38174.007 
  391400    303.02731   -1441.0578    507.13781    423.69012    147.95304    38174.007 
  391500    289.84904   -1492.4553     485.1038    291.21789   -59.056519    38174.007 
  391600    304.52576    -1522.789    475.15836    316.69274   -271.04248    38174.007 
  391700    300.34798   -1467.7866    487.05431    364.87396     46.52874    38174.007 
  391800    296.35313   -1504.1209    481.90915    305.49691    284.61725    38174.007 
  391900    300.67632   -1508.1199    484.13097    323.08837    141.23454    38174.007 
  392000    298.87363   -1527.6334    484.83408    296.20161   -80.273276    38174.007 
  392100    306.57146   -1516.0001    483.99525    341.48354    72.197469    38174.007 
  392200    295.09045   -1483.1104    481.89898    320.84032   -54.458572    38174.007 
  392300    306.21645   -1468.9931    495.65844    398.56328   -136.89404    38174.007 
  392400    307.94795    -1509.725    470.65786    340.58821   -466.80917    38174.007 
  392500    301.83863   -1531.6001    489.77904    310.46352   -197.03973    38174.007 
  392600    292.76846   -1520.1267    483.50754    275.02969   -149.70048    38174.007 
  392700    295.44287   -1489.4384    505.05847    339.25066    339.32153    38174.007 
  392800    307.91908   -1487.3005    479.98556    372.21105    14.579625    38174.007 
  392900    309.73241   -1540.8814    478.00975    324.77834   -137.09988    38174.007 
  393000    290.77845   -1556.1705    448.20405    194.76681   -29.094607    38174.007 
  393100    313.20477   -1587.6932    481.61794    297.13149    195.86319    38174.007 
  393200    300.57814    -1557.039    480.19208    269.79048    -709.5174    38174.007 
  393300    299.10363   -1552.2213    460.54727    248.35738    -719.5153    38174.007 
  393400    306.16446   -1536.8732    474.20255    308.99431   -731.55759    38174.007 
  393500    301.32995   -1529.4597    496.35019    316.89614   -298.41239    38174.007 
  393600    298.33558   -1516.7839    483.85916    303.66568    225.16437    38174.007 
  393700    304.08743   -1538.5287    481.98427    305.81512   -696.82424    38174.007 
  393800    309.05016   -1540.9143    487.52183    331.20098   -663.95292    38174.007 
  393900    311.27676   -1480.7162    489.29379    403.14649   -23.087097    38174.007 
  394000    294.48878   -1570.9768    485.72358    234.10286   -789.07506    38174.007 
  394100    297.20885   -1525.6724    497.23811    303.10813   -195.08591    38174.007 
  394200    296.97804   -1563.0322     503.0724    270.54863    93.665381    38174.007 
  394300    315.55987   -1569.7855     484.4467    328.41916   -285.50045    38174.007 
  394400     291.9464   -1554.7821    480.37361    233.55731   -235.17492    38174.007 
  394500    289.33718   -1576.7133    480.75433    200.31719   -15.152593    38174.007 
  394600    306.18214   -1538.9225    463.57664    296.39838    357.69062    38174.007 
  394700     309.4664   -1527.2049    504.33138    363.58465   -313.53813    38174.007 
  394800    293.34884   -1534.1599    475.01746    255.10655   -410.63114    38174.007 
  394900    295.54927   -1547.9987    469.83529    245.94393   -395.66731    38174.007 
  395000    299.64537   -1542.3623    495.34806    295.44421   -41.403945    38174.007 
  395100    295.38078   -1539.2409    487.27512    271.38659    53.396463    38174.007 
  395200    303.99848   -1541.4808    448.40501    268.88533    43.905188    38174.007 
  395300    297.62112   -1530.5711    490.16166    292.98005   -62.234533    38174.007 
  395400    296.81831   -1544.6547    499.64032    284.77845    280.13084    38174.007 
  395500    304.10686   -1533.7234    496.07156     324.7948    314.00362    38174.007 
  395600    300.58621   -1517.7181    484.57793    313.53338    498.92522    38174.007 
  395700     310.5888   -1555.1504    494.55187    330.88821      101.338    38174.007 
  395800    302.52809   -1496.9666    494.02912    352.43606   -165.33486    38174.007 
  395900    294.35604    -1519.704     499.4131    298.47048   -226.15869    38174.007 
  396000    291.26591   -1545.1951    476.20126    235.92327   -83.742472    38174.007 
  396100    301.74701   -1509.4953    505.27865    347.65752    5.9836023    38174.007 
  396200    296.18363   -1529.8492    494.69346    291.79362   -110.32708    38174.007 
  396300    289.21806   -1490.3565    490.94481    296.33078    366.34971    38174.007 
  396400    293.11057   -1546.1196    507.57072    274.63265    294.32005    38174.007 
  396500    287.43257   -1527.0226    508.22188    268.94245    104.69267    38174.007 
  396600    306.95608   -1538.7027     485.4966    322.00547    267.43798    38174.007 
  396700    294.54162   -1537.0118    506.99579     289.5768   -302.10523    38174.007 
  396800     299.8975   -1470.1533    518.92822    392.36298    179.93041    38174.007 
  396900    290.53137   -1513.8367    481.13857    268.92813   -556.16324    38174.007 
  397000    294.19232   -1497.8586    523.96978    344.13907   -657.13042    38174.007 
  397100    299.51088   -1518.9166    502.29655    325.23583   -710.43634    38174.007 
  397200    309.02786   -1515.0512    488.90302    358.34532   -169.16514    38174.007 
  397300     289.7395   -1531.5276    502.01245    268.56342   -226.78656    38174.007 
  397400    297.60455   -1544.2848    497.81589     286.8464   -228.25923    38174.007 
  397500    291.71187   -1512.8344    495.52296    289.60375   -566.68543    38174.007 
  397600    291.11052   -1481.9631    511.58783    333.84572   -693.46511    38174.007 
  397700    296.26447   -1526.3322    488.44659     289.4259   -183.44101    38174.007 
  397800    289.50175    -1543.696    496.40664    249.72406   -390.66029    38174.007 
  397900    295.52532   -1593.8705    476.76292    206.89242   -243.10562    38174.007 
  398000    299.25261   -1573.8819    492.22428    259.04127   -322.28567    38174.007 
  398100    305.70605   -1560.6431    524.17735    333.14547     97.17821    38174.007 
  398200    283.05576   -1576.1898    504.55585    196.50043    206.27153    38174.007 
  398300    298.33751   -1547.0012    497.14436    286.74214    538.40169    38174.007 
  398400      304.739   -1583.8071    498.67069    280.14229    256.09955    38174.007 
  398500    304.92129   -1561.5056    496.63185     301.2217    291.87166    38174.007 
  398600     308.1839   -1570.7509    483.41674    293.37826     194.8385    38174.007 
  398700    291.30149   -1554.8332    513.34791    263.59123    185.37763    38174.007 
  398800    301.48305    -1571.308    499.99618    279.37971   -236.03872    38174.007 
  398900    300.41562   -1592.0803    502.09446    255.92343   -88.827178    38174.007 
  399000    294.17275   -1551.1142    493.23767    260.06378   -182.34266    38174.007 
  399100    295.13252   -1552.7008    504.17538    273.71474     408.4605    38174.007 
  399200     302.9399   -1562.5023    472.55268    267.26885    798.69148    38174.007 
  399300    300.30051   -1530.1143    482.77233    298.05158    321.60898    38174.007 
  399400    292.21712   -1567.0256    500.95497     243.1081    334.89676    38174.007 
  399500    291.02541   -1554.7148    478.05068    227.17554    336.76343    38174.007 
  399600    310.99848   -1582.4532    486.82715    297.69607    94.582366    38174.007 
  399700    303.05489   -1544.8516    503.25995      316.142    659.16784    38174.007 
  399800    294.95553   -1546.2295    480.41282    255.63057    79.309202    38174.007 
  399900    300.03734   -1550.2993    540.13396    334.04922    820.44772    38174.007 
  400000    291.33675   -1544.3459    498.83373    259.72235    496.23678    38174.007 
  400100    299.31954   -1574.1808    508.69898    275.51683    228.69901    38174.007 
  400200    305.35326   -1524.5672    505.29585    348.75932   -191.05864    38174.007 
  400300    299.33667   -1587.1886    486.37737    240.26419   -187.44154    38174.007 
  400400    297.82553    -1615.092     498.3169    217.53022     337.3315    38174.007 
  400500     298.3901   -1598.9543    483.88525    221.76557    234.05875    38174.007 
  400600    298.25188   -1588.7784    483.67231    231.10926    329.81154    38174.007 
  400700    307.65593   -1627.3837    488.99266    239.95596    379.93083    38174.007 
  400800    292.35903   -1591.7309    486.91253     204.9961    79.220489    38174.007 
  400900    304.99924   -1577.0556     502.5636    291.95265   -46.408369    38174.007 
  401000    307.01411   -1590.9124    463.85555    248.41467    123.45624    38174.007 
  401100    301.25224   -1562.4791    484.89753     272.0759    50.092741    38174.007 
  401200    296.01509    -1520.237    513.77466    319.73187   -204.99095    38174.007 
  401300    308.62241   -1550.0894    490.89316    323.48081   -407.33973    38174.007 
  401400    302.74551   -1554.2632     480.8806    282.96498   -130.16745    38174.007 
  401500    299.76835   -1512.7316      482.448     312.7258   -1091.9605    38174.007 
  401600    300.25574    -1574.026    495.17681    266.34378    26.600764    38174.007 
  401700    306.68037   -1565.1178    468.53392    277.39242    156.87609    38174.007 
  401800    307.28524   -1546.5931    505.45889    335.55206    809.42709    38174.007 
  401900    292.65658   -1564.6938    491.56288    238.01666    252.74208    38174.007 
  402000    291.49645   -1551.9017    488.82395    242.87222    -597.7468    38174.007 
  402100    306.95011   -1554.5872    491.27421    311.87183   -675.87455    38174.007 
  402200    308.81632   -1514.4937    490.24929    359.30131   -427.01012    38174.007 
  402300     297.3223   -1494.5858    527.97749    365.44244   -837.88617    38174.007 
  402400    303.78827    -1537.702    492.99596    316.31319   -157.02072    38174.007 
  402500    304.18997   -1533.0193    512.14955    341.94927    -463.6567    38174.007 
  402600    301.52394   -1514.9188     473.1438    309.09972   -417.40174    38174.007 
  402700    301.89677    -1505.459    479.54524    326.63129    -1055.937    38174.007 
  402800    307.25703   -1508.0657    501.22916     369.7234   -443.51304    38174.007 
  402900    301.44062   -1519.2373    504.83541    336.09959   -185.12803    38174.007 
  403000    311.46455   -1511.9833    489.89051    373.31743   -224.14354    38174.007 
  403100    290.34651   -1516.5508    500.43875    284.68603   -577.80937    38174.007 
  403200    303.39226   -1476.7465    518.66499     401.1636    55.151018    38174.007 
  403300    298.00125   -1505.9001     505.6176    334.81003    99.153877    38174.007 
  403400    305.93992   -1539.8494    490.41647    321.22605    265.45268    38174.007 
  403500    296.17515   -1550.2726    497.30114    273.93987   -6.4715816    38174.007 
  403600    301.75489   -1543.7953    501.67031    309.78447    182.80654    38174.007 
  403700    302.41731   -1576.9413    490.61254    268.54844    460.14416    38174.007 
  403800    299.26647   -1569.8642    498.00664    268.90337    620.08868    38174.007 
  403900    300.83653   -1535.9297    487.56435    299.42973    782.11434    38174.007 
  404000    307.84657   -1560.7388    476.54709    295.00939    746.17289    38174.007 
  404100    292.10754   -1547.7956    472.62274    233.51496    58.007289    38174.007 
  404200    297.00941   -1541.1316    463.53043    253.04781    482.15686    38174.007 
  404300    298.34987   -1560.8575    458.54534    234.34228   -309.88981    38174.007 
  404400    305.83185   -1565.8384    485.77629    290.11274    171.97205    38174.007 
  404500    299.49564   -1536.4977    506.14334    311.43328     481.5684    38174.007 
  404600    301.19073   -1541.4651    494.41642    302.33321   -148.84625    38174.007 
  404700    294.90622   -1538.4451     477.8406    260.62176    302.91797    38174.007 
  404800    306.19795   -1483.6012    513.01883    401.23273    317.85561    38174.007 
  404900    295.49909   -1510.4776    490.42662     303.8315     153.7341    38174.007 
  405000    295.40936   -1489.2393    502.94175    337.18286   -122.10762    38174.007 
  405100    300.79796    -1465.358    502.06472    384.32897     87.43784    38174.007 
  405200    292.81428   -1504.3252    496.21702    303.74587   -530.21387    38174.007 
  405300    300.97868   -1503.9319    474.03573    318.53572   -347.78547    38174.007 
  405400    306.93332   -1528.3722    492.43802    339.17547   -255.10875    38174.007 
  405500    303.55695   -1498.4483      469.188    330.72271   -653.90804    38174.007 
  405600    295.09194   -1473.2597    516.16788    364.96653   -349.44734    38174.007 
  405700    289.85479   -1549.8452    490.64027    239.39021   -145.02345    38174.007 
  405800    288.82603   -1527.1476    495.66901    262.50755   -126.64686    38174.007 
  405900    312.46377   -1546.8073    495.77646    348.85606    70.030794    38174.007 
  406000    300.37174   -1552.7981    476.64914    269.56374   -161.85627    38174.007 
  406100    298.50175   -1586.9967    476.94465    227.28278    208.67635    38174.007 
  406200    304.12747   -1554.7675    490.34019    298.11163    130.57524    38174.007 
  406300    295.80373   -1518.6693    479.42131    285.99936     415.7331    38174.007 
  406400    310.33501    -1563.095    472.05129    299.30602   -226.53717    38174.007 
  406500    298.42183   -1538.5882    481.71416    280.10279    -25.14779    38174.007 
  406600    304.55752   -1553.9813    500.64481    311.12916    47.299693    38174.007 
  406700    296.67243   -1567.3071    460.47928    222.31141   -282.04107    38174.007 
  406800     297.0537   -1549.1265    478.65289    260.37373   -27.327073    38174.007 
  406900    297.27661   -1574.2666     502.6184    260.19786    165.37024    38174.007 
  407000    294.83847   -1533.8632    465.27956    252.33912    64.278085    38174.007 
  407100    310.09847   -1586.2671    487.45821    290.48105    374.01595    38174.007 
  407200    296.38431   -1538.7272    473.92506     263.0462    120.06128    38174.007 
  407300    303.44533   -1512.2348     505.0146    352.26269   -7.4905787    38174.007 
  407400    299.79298   -1530.5652    460.79627    273.35085   -145.99941    38174.007 
  407500    305.09686   -1517.6703     484.6799    333.89152    -357.0016    38174.007 
  407600    309.91239   -1553.2961    497.01464    332.17492    155.52675    38174.007 
  407700    296.23886   -1486.6883    469.83429    310.34272    402.97047    38174.007 
  407800    292.82636   -1495.8117    499.47291    315.56946   -574.79515    38174.007 
  407900    295.11748    -1498.199    498.12909    322.10291   -195.84452    38174.007 
  408000    293.11193   -1530.7479    478.51973    260.95943   -175.29747    38174.007 
  408100    296.42293   -1493.5839    511.57869    346.01623    910.66446    38174.007 
  408200    295.13467    -1516.037    492.93378    299.14664    558.16529    38174.007 
  408300    298.78398   -1508.6219     522.6217    352.59905     660.7557    38174.007 
  408400    299.94208   -1495.8324    498.41898    346.37438    414.01494    38174.007 
  408500    290.96825   -1459.0382    535.15073    379.69606    -186.7644    38174.007 
  408600    299.15583   -1483.8121    503.46324    359.91643   -466.87457    38174.007 
  408700     291.9417   -1507.9359    476.20939    276.21829   -408.73902    38174.007 
  408800    300.68194   -1478.2448     487.7691    356.62669   -377.67911    38174.007 
  408900     313.1635   -1501.8824     479.9205    381.05995   -490.27179    38174.007 
  409000    311.00184   -1495.7481    470.94947    368.53862    80.305727    38174.007 
  409100    294.27541   -1486.5201    470.84994    302.72998   -14.220543    38174.007 
  409200    309.39359   -1486.0872    497.98247    398.02732    -666.3797    38174.007 
  409300    305.16881   -1517.3303    489.09696    338.97104   -581.66848    38174.007 
  409400    294.20826   -1521.1185    475.50357    272.48444   -358.99196    38174.007 
  409500    296.01289   -1535.4697    478.76347    269.47813   -299.39441    38174.007 
  409600     297.1904     -1529.14    489.47632    291.79614    283.89882    38174.007 
  409700     299.2913   -1532.4601    467.27351    275.68557    276.66975    38174.007 
  409800    296.73732   -1570.7226     518.2295    276.93686   -640.35891    38174.007 
  409900    294.25602   -1576.1633    445.76065    187.91069    86.842431    38174.007 
  410000    304.89284   -1533.8079    501.23756     333.3976    494.44377    38174.007 
  410100    299.56698   -1567.7695    502.59588    276.93361    424.24629    38174.007 
  410200     295.4125   -1572.3599    468.53288    219.66754    594.36865    38174.007 
  410300    310.51996   -1586.2862    499.28682    304.17894    283.19801    38174.007 
  410400    299.01479   -1574.2787    473.40993    238.76462    5.5367924    38174.007 
  410500    299.98898   -1540.9488    492.90488    295.95394    -3.783513    38174.007 
  410600    310.24639    -1557.986    488.33711    320.30382    31.134746    38174.007 
  410700    312.51138   -1565.6701    498.63408    333.06422    272.52103    38174.007 
  410800    295.98336   -1535.2193    485.66061    276.49332   -157.19663    38174.007 
  410900    304.83935   -1517.8051    524.64515    372.56832    727.68621    38174.007 
  411000    299.63378   -1518.4545     482.4375    306.38954     217.5348    38174.007 
  411100    303.04364   -1496.5183    492.54793    353.71289   -52.644224    38174.007 
  411200    297.15554   -1534.9928    471.60234    267.91316    355.01402    38174.007 
  411300     307.4834   -1568.7054    487.00436    295.87303    89.108902    38174.007 
  411400    292.56875   -1570.3693    474.08739    214.47223    37.024442    38174.007 
  411500    300.33212   -1595.0951    469.40506    219.84512    409.17853    38174.007 
  411600    295.56077   -1590.3803    492.15393    225.93246   -153.74813    38174.007 
  411700    296.53739   -1580.6253    484.29093    232.19981    501.44547    38174.007 
  411800    301.16767   -1556.0954    505.16828    298.35148     31.86277    38174.007 
  411900    298.06631   -1548.6069    474.47092    261.24807    249.29504    38174.007 
  412000    296.74685   -1527.1158    499.64515    302.00201    -161.6996    38174.007 
  412100    298.74883   -1531.6296    484.59441    291.40658   -125.04872    38174.007 
  412200    300.56374   -1527.6366    476.29712     295.2334   -222.01605    38174.007 
  412300    297.19831   -1540.1251    508.44798    299.81808   -641.50052    38174.007 
  412400    303.10421   -1529.4249    493.35817    321.88783    487.14476    38174.007 
  412500    296.20775    -1519.604    512.94733     320.4007     -126.666    38174.007 
  412600    295.44282    -1519.087    468.49803    273.04137   -562.73967    38174.007 
  412700     313.7035   -1555.3286    480.21893    330.33141   -746.70254    38174.007 
  412800    294.39184   -1573.1728    507.18087    252.92983   -722.04369    38174.007 
  412900    305.29636   -1565.1154    486.13954    288.79992   -375.96721    38174.007 
  413000    295.53424   -1598.3964    506.92789    232.57146    -67.87844    38174.007 
  413100    309.36712   -1610.0432    455.06245    231.03265    284.81565    38174.007 
  413200    297.26478    -1609.555     507.8296    230.06761   -271.02876    38174.007 
  413300    307.36429   -1551.1015    476.38356    302.32255    130.92039    38174.007 
  413400    290.83566   -1567.2138    481.41172    217.18746   -436.55409    38174.007 
  413500    296.31411   -1557.2962    484.00186    254.23954    46.130327    38174.007 
  413600    298.57849   -1559.8889    500.57191    278.36166    469.45754    38174.007 
  413700    292.04639   -1601.1443    487.10195    194.37151    750.93349    38174.007 
  413800    301.92575   -1560.5307    456.95063    249.09482    445.21038    38174.007 
  413900    305.94898   -1510.0877    481.30164    341.91358    235.20519    38174.007 
  414000    295.57273   -1551.7042    503.01284    275.52098    340.48027    38174.007 
  414100    310.07481    -1557.705    494.60996    326.08891    112.14962    38174.007 
  414200    299.30922   -1539.9348    496.53337    297.55101   -535.66448    38174.007 
  414300    301.95021   -1539.5128    504.29891    317.57063   -191.98857    38174.007 
  414400    303.90678   -1559.7569    490.22509    292.01848   -225.40843    38174.007 
  414500    299.13165   -1558.2607    498.35861     280.2548   -275.07378    38174.007 
  414600     298.6957   -1600.7475    485.35167    222.80794   -697.32643    38174.007 
  414700    296.74129   -1593.0175    470.96218    207.39244   -847.21033    38174.007 
  414800    299.61507   -1562.5419    491.32344    271.10429     -356.228    38174.007 
  414900    298.48624    -1593.273    508.48881    252.48115   -413.71706    38174.007 
  415000    307.37747   -1560.9124    463.61867    279.80571   -221.38901    38174.007 
  415100    300.56147   -1574.1766    482.48276    254.86883   -376.28999    38174.007 
  415200    314.15459    -1572.946    507.46585    341.98191   -458.71695    38174.007 
  415300    305.83051   -1589.8176    470.15249    250.50379   -77.709688    38174.007 
  415400    295.58341    -1582.171    488.40717    230.49638    7.9380082    38174.007 
  415500    292.00957   -1545.0709    479.17797    242.35599    154.96291    38174.007 
  415600    306.28309   -1542.9598    478.14401    307.38065    580.95402    38174.007 
  415700    291.20881   -1506.1123    513.40193    311.95092    237.58607    38174.007 
  415800    306.08361    -1523.749    492.47065    340.02442    256.74418    38174.007 
  415900    301.76616   -1538.2829    490.75552    304.43252    179.65392    38174.007 
  416000    294.28671   -1539.3776    502.35725    281.43047    305.19378    38174.007 
  416100    300.80607   -1547.7685    508.02529    307.91537    256.76267    38174.007 
  416200    292.09702   -1553.8259    493.06763    247.88238     220.2841    38174.007 
  416300    294.95544   -1557.6529    497.13882    260.93275    57.473158    38174.007 
  416400    300.89121   -1538.3374    496.52679    306.22942   -353.01477    38174.007 
  416500    294.90177   -1538.1271     484.4766    267.55589    148.19048    38174.007 
  416600    298.15964   -1560.8287    491.96657    266.94002    131.39962    38174.007 
  416700     300.0778   -1579.1735    508.07296    273.29531    327.89258    38174.007 
  416800    294.52694   -1595.3246    471.94471    196.14723    502.16558    38174.007 
  416900     295.0521   -1570.2023    493.25955    244.93711    535.48228    38174.007 
  417000    301.21169     -1584.13    496.22247    261.56826    623.90466    38174.007 
  417100    299.50673   -1576.8314    500.86487    265.87081    549.04864    38174.007 
  417200    300.48539   -1556.3542    482.86513    272.73278   -243.10086    38174.007 
  417300     313.3177   -1552.3968    496.68915    348.00498   -134.14227    38174.007 
  417400    295.53891   -1547.9758    489.96515    266.05023   -601.68694    38174.007 
  417500    299.32493   -1531.0512    463.03157    273.00321     208.0864    38174.007 
  417600    309.82483   -1531.6509    490.94404    347.35722    338.19963    38174.007 
  417700    301.50933   -1546.7376    477.01878    281.09052     518.8563    38174.007 
  417800    301.50882   -1543.0742    469.62227    277.35506    98.100007    38174.007 
  417900    302.25731   -1565.8365     487.9212    276.24505    147.94925    38174.007 
  418000    293.55485   -1534.1794    461.42834    242.42091   -83.983953    38174.007 
  418100    286.03165   -1540.4301    480.48959    221.52639    674.48739    38174.007 
  418200    311.15124   -1539.7933    475.50333    329.71659    922.07297    38174.007 
  418300     294.7551   -1557.1488    498.13157    261.53202    844.78756    38174.007 
  418400    300.43863   -1538.4507    478.76097    286.32263    807.90185    38174.007 
  418500     299.8871   -1541.8202    484.91631    286.63758     241.2376    38174.007 
  418600     306.3839   -1522.9811     480.1017    329.76872    99.839771    38174.007 
  418700    290.54727   -1478.3722    500.51633     323.8417    454.83527    38174.007 
  418800     305.8155   -1481.7391     484.7231    373.08559    258.33669    38174.007 
  418900    296.46297   -1480.8455     500.4175    347.77281   -98.923918    38174.007 
  419000    296.49716   -1488.2842    474.99508    315.06483    -513.8389    38174.007 
  419100    310.31602   -1506.4375    506.53921    390.36631   -262.59884    38174.007 
  419200    307.99696   -1505.2039    466.23185    340.90289    152.62288    38174.007 
  419300    307.87843   -1534.0081    474.69138    320.02719    148.24016    38174.007 
  419400    302.40124    -1510.792    496.18673    340.19988    32.315366    38174.007 
  419500    293.89552   -1571.2382    487.01211    232.47215    134.54969    38174.007 
  419600     300.3233   -1526.6096    506.46001    325.34608    173.15526    38174.007 
  419700    310.54809   -1525.1504    491.93868     358.0926    491.64845    38174.007 
  419800    305.46478   -1516.6183    480.61363    332.52561    199.08113    38174.007 
  419900    295.66729   -1531.4744    499.35894     292.5205   -43.098108    38174.007 
  420000    298.27561   -1548.8595     466.8382    254.30042    615.20448    38174.007 
  420100    311.70668   -1541.0955     479.7875    335.18699     698.9433    38174.007 
  420200    299.59696    -1520.247    505.75181    327.74633   -78.445049    38174.007 
  420300    298.36335   -1562.0383     463.4331    238.10957    144.74576    38174.007 
  420400    299.52334    -1518.639     482.4142    305.68699    132.36216    38174.007 
  420500    294.87892   -1514.0278    492.71198     299.7882   -64.723597    38174.007 
  420600    298.58178   -1508.1372    514.44872    344.00493   -484.81969    38174.007 
  420700    298.80279   -1539.0594    483.76499    283.38917   -664.06869    38174.007 
  420800    298.81478   -1536.0339     480.3428    283.04621   -415.36911    38174.007 
  420900    302.68212   -1530.1602    486.03419     311.9376   -318.73488    38174.007 
  421000    303.32281   -1534.1106    487.00996    311.83333    7.8144428    38174.007 
  421100    293.33002   -1536.3828     484.2849    262.06679    234.20903    38174.007 
  421200    301.61762   -1519.9459    487.71654    319.06507    275.58298    38174.007 
  421300    299.56593   -1507.1387    498.48003    333.44382    392.16167    38174.007 
  421400    299.95172   -1559.0807    465.47589    250.22609   -34.099136    38174.007 
  421500    302.33782   -1520.0838     505.8754     340.3126    611.38571    38174.007 
  421600    305.27822   -1494.6547      523.852    396.89181    22.848057    38174.007 
  421700    293.40106   -1534.6602    466.08466    245.90747   -12.649539    38174.007 
  421800    292.48116   -1534.3802    482.23329    258.21471    82.092221    38174.007 
  421900    304.14803   -1529.9386    513.89189    346.58435    229.98434    38174.007 
  422000    295.01075    -1527.163    508.06467    302.59635   -305.62645    38174.007 
  422100    296.27968    -1522.033    490.71299    296.05959    -57.18628    38174.007 
  422200    310.32963   -1506.3229    490.71719    374.71986   -31.080068    38174.007 
  422300    293.09042   -1484.9381    522.39203    350.54519   -424.21549    38174.007 
  422400    291.00282   -1497.1864     509.5778    316.12988   -429.62148    38174.007 
  422500    296.04195   -1519.8139    493.60433    300.10499   -461.08427    38174.007 
  422600    297.41298   -1526.3691    500.25697    306.34487   -56.461679    38174.007 
  422700    299.36104   -1515.0514    501.90715    328.04038    234.59495    38174.007 
  422800    296.85972   -1512.9119    508.07773    325.14412    489.35139    38174.007 
  422900    299.68557   -1553.6602    495.43073    284.40914   -169.81839    38174.007 
  423000    291.46999   -1511.6261    520.91789    315.12326   -473.94414    38174.007 
  423100    306.59755   -1534.9405    492.78228     331.4471   -571.92863    38174.007 
  423200     310.8048   -1522.2171    498.93603    369.17342   -694.32887    38174.007 
  423300    308.01501   -1517.1422    493.02964    355.84319   -338.07907    38174.007 
  423400    310.29823   -1559.6751    491.66519    322.17504   -142.91508    38174.007 
  423500    309.63624   -1527.3277     491.5359    351.42732   -168.90417    38174.007 
  423600     300.1766   -1557.7966    475.15689    262.19876   -218.02457    38174.007 
  423700    308.76502   -1532.0436     538.7568     390.0291    -538.5146    38174.007 
  423800    294.67178    -1533.987    474.54413    260.73312   -86.640885    38174.007 
  423900    302.10463   -1534.8211    478.24499    296.90019   -335.72472    38174.007 
  424000    298.67171   -1551.1778    459.59728    246.51585   -425.09935    38174.007 
  424100    302.22124   -1547.8155    494.29914    300.48243   -610.97167    38174.007 
  424200    304.04726   -1570.2389     493.3262    285.26692   -378.06442    38174.007 
  424300    306.33518   -1557.3353    498.52857    313.62313   -297.69877    38174.007 
  424400     305.1312   -1597.3144    474.25201    243.97346   -26.363488    38174.007 
  424500    302.41313   -1563.7521    530.82718    321.93356    72.412586    38174.007 
  424600    301.49691   -1578.2144    481.11334    253.65257   -464.65827    38174.007 
  424700    301.41832   -1604.2083    456.40204    202.59534   -361.01843    38174.007 
  424800    305.90984   -1542.2176    515.18584    343.49249    179.82946    38174.007 
  424900    304.94897   -1517.1766    442.18591    291.22871    204.22983    38174.007 
  425000    304.45709   -1571.9525    509.52737    301.59063    500.61671    38174.007 
  425100    294.45345   -1596.1855    472.29268    195.30505    337.52785    38174.007 
  425200    309.30048   -1525.3695    501.84361    362.18899   -524.24726    38174.007 
  425300    303.83188   -1543.9221    501.27383    318.56639   -191.11619    38174.007 
  425400    293.69187   -1567.3146    494.40327    242.87454   -426.18144    38174.007 
  425500    292.19833   -1526.1073    486.22531    269.21257   -483.89752    38174.007 
  425600    303.01605    -1547.251    495.66235    305.97092   -350.98641    38174.007 
  425700    297.53379   -1543.8316    472.23228     261.3989    -503.5839    38174.007 
  425800    301.44082    -1599.105    477.96151    229.35888    115.38332    38174.007 
  425900    309.38696   -1589.2416    517.44376    314.30442    519.12988    38174.007 
  426000    301.00842   -1545.9124    495.37424    298.02694   -440.02285    38174.007 
  426100    315.35882   -1567.6577    500.02715    345.22667   -41.140101    38174.007 
  426200    317.27438   -1546.5501    477.56223    352.45132   -212.22701    38174.007 
  426300    293.84872    -1538.296      487.062    265.25453   -13.822163    38174.007 
  426400    300.59277   -1595.4452     466.9053    218.16305    -170.3091    38174.007 
  426500    297.94589   -1550.0488    479.25365    264.04933   -427.53278    38174.007 
  426600     297.4583   -1567.5952    484.78184    249.84662   -643.42764    38174.007 
  426700     306.5073   -1546.3067    470.45308    297.34734   -393.05471    38174.007 
  426800    309.34892   -1545.8924    482.74371    322.78323     -509.961    38174.007 
  426900    296.81025   -1545.1104    489.99009    274.63639   -160.13255    38174.007 
  427000    299.18685   -1555.5716    491.90335    276.73595   -76.883573    38174.007 
  427100    301.05331   -1588.4953    483.24687    243.51775   -300.70156    38174.007 
  427200    297.51796   -1595.1257    480.44836    218.25002    -197.6804    38174.007 
  427300    308.66583   -1582.9135    488.17979    288.13784    83.341094    38174.007 
  427400    297.23029   -1585.3233    485.23174    231.54698   -91.912637    38174.007 
  427500    298.00557   -1629.5927     486.9958    192.51501   -57.258011    38174.007 
  427600    290.55339   -1587.8297    473.11314    187.00834   -346.13917    38174.007 
  427700    307.54215    -1596.937     481.4311     262.3314   -180.23124    38174.007 
  427800    306.82997   -1543.9974    501.30557    331.95477   -280.69218    38174.007 
  427900    302.16257   -1566.3274     486.6977    274.10622   -237.55843    38174.007 
  428000    297.86472   -1569.9816    485.37802    249.87725   -13.839679    38174.007 
  428100      305.083    -1561.787    494.51378     299.5467   -339.63523    38174.007 
  428200    305.18294   -1590.8665    476.05336    252.45454   -145.34345    38174.007 
  428300    310.24129   -1514.2189     508.0406    383.75156    -747.8101    38174.007 
  428400    298.28354    -1540.124    515.59372    311.82696   -734.40438    38174.007 
  428500    291.83073   -1567.4684    498.64722    238.62644   -975.51846    38174.007 
  428600    289.53734   -1542.7691    487.71666    242.12046   -670.18386    38174.007 
  428700    299.02691   -1591.0039    475.43392    224.11766   -685.83908    38174.007 
  428800    300.57156   -1578.9947    475.65234    243.26555    14.447872    38174.007 
  428900    292.96922   -1558.0932    488.94464    243.39969   -220.83065    38174.007 
  429000    306.74991   -1538.4155    501.96904    337.84144    -261.0284    38174.007 
  429100    300.56493   -1559.8199     489.0074    275.76574   -653.69779    38174.007 
  429200     299.7069   -1522.9815    506.51079    326.26342   -214.25594    38174.007 
  429300     306.9865   -1555.6913    489.70194    309.35854    286.58085    38174.007 
  429400    293.72939   -1540.5359      487.133    262.55105    506.06706    38174.007 
  429500    296.77726   -1546.9501    475.24454    257.90334    37.101826    38174.007 
  429600     303.0621   -1544.5457    481.80848    295.02876   -363.34201    38174.007 
  429700    303.79651   -1527.5143    491.06325    324.60513    -104.4624    38174.007 
  429800     311.1604   -1505.1561    514.66997    403.56144    77.984425    38174.007 
  429900    291.85492   -1583.3886    475.98204    200.14939   -172.35058    38174.007 
  430000    294.07615   -1564.2675    476.04349    229.28344    236.22558    38174.007 
  430100     293.1734   -1546.0207    531.52828    298.97052    570.95394    38174.007 
  430200    289.22424   -1588.3628    509.63567    217.04298     298.7769    38174.007 
  430300    301.39298   -1543.6665    475.20317    281.82474   -125.75377    38174.007 
  430400    290.54592   -1554.6426    478.16532    225.21424    160.14023    38174.007 
  430500    304.66504   -1508.1756    483.31811    340.08982    337.08712    38174.007 
  430600     305.1372   -1558.4782    511.58054    320.16505    17.468155    38174.007 
  430700    300.20841    -1579.527    476.19158    241.64556    102.91129    38174.007 
  430800    310.21237   -1535.5143    495.38918    349.67519    454.34757    38174.007 
  430900    302.61658   -1573.8005    513.64287    295.61237    401.60108    38174.007 
  431000    314.06931   -1530.1122    505.46875     382.4365    925.93255    38174.007 
  431100    309.53686   -1590.4006    498.05087     294.4242    765.67402    38174.007 
  431200    297.54763   -1583.4323    498.18666    247.81456    414.77785    38174.007 
  431300    302.61012   -1541.9142    501.23482    315.06167    194.39478    38174.007 
  431400    289.45242   -1556.2797      522.965    263.47772   -415.63237    38174.007 
  431500    296.33932   -1571.0109     492.3397    248.97562   -59.779075    38174.007 
  431600    306.04021   -1589.5805     477.8162    259.34406    837.52799    38174.007 
  431700    296.54544   -1573.5298    506.53801    261.57853    722.96812    38174.007 
  431800    292.50319   -1614.8687    511.68142    207.27309    1080.5196    38174.007 
  431900    305.29202   -1556.3578    516.87338    328.27198    1105.0297    38174.007 
  432000    302.99255   -1586.9656    488.69176    259.18051    372.49685    38174.007 
  432100    299.51864    -1585.535     516.7074    273.06305    621.37664    38174.007 
  432200    305.66137   -1563.5932    485.67116    291.48904    89.180818    38174.007 
  432300    291.40561   -1593.0591     501.9446    214.42855   -85.505369    38174.007 
  432400    291.41515   -1593.3224    501.68566    213.94906   -548.49826    38174.007 
  432500    304.82656   -1594.9657    497.93786    268.64313   -564.20426    38174.007 
  432600     295.9554   -1576.5067     498.7672    248.18732   -235.20081    38174.007 
  432700    311.19772   -1609.9785    477.28871    261.52498   -263.80749    38174.007 
  432800    298.09983   -1604.5325    494.41899    225.42067   -54.647182    38174.007 
  432900    291.08667    -1557.742    505.73909    252.11126   -630.74714    38174.007 
  433000    311.38256    -1558.449    476.16065    312.75457   -716.18429    38174.007 
  433100    296.12329   -1568.6914    500.36269     258.3503   -392.09349    38174.007 
  433200    302.95828   -1572.3964    476.51042    261.41482    -263.2158    38174.007 
  433300    299.60212   -1577.1968    498.98095    264.04884    -101.8646    38174.007 
  433400    307.43349   -1594.9947    483.14137     265.4971   -360.61554    38174.007 
  433500    300.31186   -1610.1954    506.64958    241.89864   -36.443646    38174.007 
  433600    299.31608   -1588.9332    492.34037    244.39038   -185.52526    38174.007 
  433700    304.71733    -1583.717    483.79141    265.25603   -180.44692    38174.007 
  433800    305.32682   -1568.3954    498.29699    297.81389    113.79665    38174.007 
  433900    297.97097    -1568.323    475.46045     242.0944    186.58497    38174.007 
  434000    298.29955    -1614.555    470.77613    192.65014   -429.54688    38174.007 
  434100    299.27248   -1613.2345    486.02669    213.58007   -266.48627    38174.007 
  434200     309.5038   -1575.6211    467.22264    278.22733     93.37201    38174.007 
  434300    305.81545    -1532.983    509.71674    346.83512     35.82671    38174.007 
  434400    289.84751   -1562.4006    499.24091    235.40283   -240.48201    38174.007 
  434500    301.73083   -1566.5241    500.90448    286.18208   -282.66537    38174.007 
  434600    297.94083   -1617.1075    474.18995    191.90432     10.83807    38174.007 
  434700    298.82723   -1580.2226    498.13847     256.7089    81.377359    38174.007 
  434800    302.31212   -1588.6598    490.95574     256.7019   -256.08041    38174.007 
  434900     300.7759   -1591.9305    485.67795    241.27091   -559.28631    38174.007 
  435000    297.46509   -1612.2664    499.84636    220.27042    81.294706    38174.007 
  435100    298.38856   -1605.5716    481.12117    212.37726     303.7226    38174.007 
  435200    300.90384    -1596.675    499.96962    251.39121    626.06432    38174.007 
  435300    300.78809   -1561.2568    480.82391    267.14517    668.05846    38174.007 
  435400    300.30288   -1597.6132    485.58779    233.37876    272.63635    38174.007 
  435500    299.58378   -1612.0499    467.03728    197.16992   -137.52317    38174.007 
  435600    306.01615   -1560.5973    489.34054    299.74377      454.373    38174.007 
  435700    299.13091   -1593.4702    497.46333    244.14674    266.00203    38174.007 
  435800    296.60826   -1590.3708     496.2186    234.69954    695.34993    38174.007 
  435900      294.368   -1552.8413    502.59267    268.56644    491.67503    38174.007 
  436000    311.56854   -1552.8424    523.00005    366.03385   -412.67824    38174.007 
  436100    296.76908    -1560.681    490.30537    259.19662   -207.60082    38174.007 
  436200    305.58514   -1586.8756    485.46447    267.65847   -575.78082    38174.007 
  436300    301.80176   -1576.4347    465.50155    241.18629   -147.72001    38174.007 
  436400    309.67823   -1586.1566    506.14108    307.39172    297.98796    38174.007 
  436500    288.90229   -1565.4479    480.46576    209.34564    194.31408    38174.007 
  436600    298.10552   -1553.8017    493.68574    275.44376    205.50356    38174.007 
  436700    309.19991   -1576.3867    505.76298    314.64054    514.30746    38174.007 
  436800      304.116   -1615.4952    484.21792    231.21026   -176.86037    38174.007 
  436900    296.29898   -1614.9119    482.68502    195.23923    -607.3529    38174.007 
  437000    294.29556   -1628.5528    469.73574    159.67346    19.176212    38174.007 
  437100    297.30636   -1617.0482    488.88417    203.81528   -46.053484    38174.007 
  437200    307.54832   -1591.0694    492.51155    279.30702    88.912329    38174.007 
  437300    285.15144   -1563.1473    490.93817    205.31419   -235.93156    38174.007 
  437400      309.308   -1576.4509    493.24436    302.54202   -214.63733    38174.007 
  437500    301.30766   -1567.5863    482.72224    265.04169    -229.6781    38174.007 
  437600     294.8001   -1586.3004    492.91963    227.37012    -498.5944    38174.007 
  437700    298.06992   -1609.0549    467.03719    193.38246   -390.39104    38174.007 
  437800    296.80698   -1578.5751    491.13129    242.29823    131.01723    38174.007 
  437900    299.28868   -1577.9753     501.7165    264.60163   -1123.3258    38174.007 
  438000    293.88624   -1571.7945     492.3535    237.21564   -322.05055    38174.007 
  438100    293.20479   -1599.8112    483.20853    197.00103    104.44146    38174.007 
  438200    295.41316   -1587.6238     464.8829    200.75655   -610.41126    38174.007 
  438300    291.15196   -1559.1506    502.21505    247.47111   -353.53718    38174.007 
  438400    294.68248   -1555.6418    508.23513    272.81728   -319.45868    38174.007 
  438500     297.8549   -1548.9407    473.66542    259.16158   -444.76129    38174.007 
  438600    297.12585   -1557.3958       505.64     279.4148   -176.26603    38174.007 
  438700    292.21144   -1591.8868    485.24935    202.51582     700.5397    38174.007 
  438800    310.76103   -1540.8563     473.1783    324.58036    939.41613    38174.007 
  438900    293.52763   -1531.9115    499.67051    282.80908    658.55983    38174.007 
  439000    293.85331   -1590.2016    488.52765    214.83514    111.37866    38174.007 
  439100    298.10408   -1573.8225    467.89864    229.62935    402.57764    38174.007 
  439200    295.56082   -1516.7737    502.40651    309.79188    236.28115    38174.007 
  439300    292.64152   -1571.9358     520.3376    259.48193    635.07675    38174.007 
  439400    300.57941   -1545.9567    489.22735     289.9138    434.72278    38174.007 
  439500    302.79935   -1548.7844    503.31101    311.11543    871.80325    38174.007 
  439600    309.25105   -1593.3262    487.70091    279.86819    55.392537    38174.007 
  439700    316.80551   -1539.8249    466.38312    345.89681   -320.08231    38174.007 
  439800    295.12767   -1550.0302    494.64488     266.8331   -573.51179    38174.007 
  439900     304.1258   -1587.0818    530.99376    306.44342   -497.30116    38174.007 
  440000    298.48588    -1572.879    469.36687    233.75161   -85.937665    38174.007 
  440100    307.43103   -1570.0422    479.44355    286.74076    334.43138    38174.007 
  440200    311.88777   -1575.2656    505.03436    327.07504   -357.89465    38174.007 
  440300    303.14023   -1618.0562    476.79239    216.85215   -342.93287    38174.007 
  440400    303.43805   -1563.9054    479.79935    275.34421    91.660785    38174.007 
  440500    308.85951    -1557.837     475.1386    301.04086   -200.84601    38174.007 
  440600    290.67074   -1542.8991    497.48345    256.83502   -253.68145    38174.007 
  440700    292.16471   -1580.4436    495.31626    223.81661    419.12502    38174.007 
  440800    304.82704     -1614.44    483.83756    235.07073    252.46632    38174.007 
  440900    299.44037   -1589.2815    478.64361    230.90218    358.41829    38174.007 
  441000    301.23976   -1575.9005    497.29178    270.99281   -44.290076    38174.007 
  441100    289.90956   -1570.5412    494.70894    223.00821   -165.93732    38174.007 
  441200    303.16251   -1595.1526    467.25692    230.32017    -187.6237    38174.007 
  441300    294.04863   -1558.3348    492.41588    251.46531   -290.16341    38174.007 
  441400    298.39388   -1554.9535    496.70617    278.60421   -376.44757    38174.007 
  441500    292.40335   -1570.7777     490.1727    229.40803    140.05539    38174.007 
  441600    294.35886   -1575.5564    472.02845    215.24612    104.45409    38174.007 
  441700    290.64236   -1573.3891    495.72079    224.45528   -135.76092    38174.007 
  441800     303.2532   -1584.5028    485.21174    259.33098   -6.7126415    38174.007 
  441900    298.72186   -1551.2988    496.37557    283.39771   -186.64487    38174.007 
  442000    298.10704   -1584.6959    505.95109    256.82172   -589.98397    38174.007 
  442100    293.74965   -1596.3164    466.50245    186.23069   -324.20453    38174.007 
  442200    298.72988   -1600.3926    488.03642    226.00069   -212.28223    38174.007 
  442300     306.7555   -1579.3511    494.94207     289.9039    283.15476    38174.007 
  442400    305.31942   -1541.3022    480.71556    307.29248   -447.84431    38174.007 
  442500    287.58722   -1544.3416    490.25827    234.35271   -527.87684    38174.007 
  442600    296.76437   -1538.5357    478.56908    269.58447   -722.93299    38174.007 
  442700    298.78931   -1561.6185    461.64996    238.65459   -489.67947    38174.007 
  442800    294.13227   -1574.8846    483.71709    226.59142   -343.19241    38174.007 
  442900     296.3135   -1581.9407     473.3904    218.98088   -529.72933    38174.007 
  443000    302.31255   -1589.1674    484.11251    249.35298    94.712796    38174.007 
  443100    299.10546   -1592.6243    477.31882    224.73405    240.13291    38174.007 
  443200    308.38927   -1574.2924    477.72165    285.06176    372.69332    38174.007 
  443300    300.65273   -1572.5702    474.05903    248.46039    55.292057    38174.007 
  443400     296.3767   -1600.7563    486.31031    213.36829   -75.401951    38174.007 
  443500    303.75702   -1595.6248    469.55258    234.80706    393.74441    38174.007 
  443600    291.69608   -1599.6155    487.23647    194.46534    203.48484    38174.007 
  443700    305.34515   -1589.5649     483.3453    261.77478    513.86419    38174.007 
  443800    296.33254   -1629.1379    494.40314    192.88172    135.28191    38174.007 
  443900    289.78227   -1579.1913    485.24002    204.31895   -173.40096    38174.007 
  444000    304.21184   -1590.5739    458.15017    230.49317   -179.12203    38174.007 
  444100    307.22876   -1584.7906    481.26902    272.91165     734.4022    38174.007 
  444200    295.17805   -1604.7875    486.66112    204.31778    188.75817    38174.007 
  444300    299.92096   -1585.9396    472.16385    229.91737    -111.1705    38174.007 
  444400    301.28337   -1594.2995    493.59348    249.09097   -986.28536    38174.007 
  444500    306.18576   -1613.9419    448.06431    205.88283   -489.07809    38174.007 
  444600    307.66716   -1597.3884    463.54874    244.55767   -832.85563    38174.007 
  444700     309.2749   -1578.7894    485.10957    291.92048   -289.71264    38174.007 
  444800    296.19436   -1614.3005    471.47623    184.17312   -305.00241    38174.007 
  444900    295.54239   -1592.6047    481.87325    213.34506   -561.45264    38174.007 
  445000    303.67839   -1579.8732    482.68604    263.33981   -337.86076    38174.007 
  445100    299.91395   -1618.0209    461.09671    186.73751   -528.06692    38174.007 
  445200    287.84449   -1602.1802    461.61736    149.02586   -52.088199    38174.007 
  445300    306.28792   -1596.2221    486.29102    262.28704   -240.57842    38174.007 
  445400    309.95252   -1592.5902     476.0022    272.04811   -52.199277    38174.007 
  445500    314.97889   -1584.9866    500.01281    326.18123   -212.62016    38174.007 
  445600    299.41345   -1595.1569    484.59216     230.8546   -452.31725    38174.007 
  445700    292.69453   -1586.8882    477.55375    201.98313   -193.64929    38174.007 
  445800    301.86887   -1570.8923    472.05088     253.5786    -455.6991    38174.007 
  445900    295.29634   -1529.8286    476.29559    269.44106   -38.471776    38174.007 
  446000    294.27834   -1572.2298    509.65661     255.8401   -444.42047    38174.007 
  446100    300.63696    -1582.162      454.139    218.87797     54.85926    38174.007 
  446200      292.847   -1534.5392    508.94184    286.40332   -491.27551    38174.007 
  446300    295.44831   -1516.1736     514.1443    321.62564   -324.49575    38174.007 
  446400    302.33166   -1558.0694    470.61198    267.03598   -47.210031    38174.007 
  446500    289.15476   -1558.9062    479.39039    215.94311   -381.09375    38174.007 
  446600    290.89099   -1519.2146    503.75898    287.78183   -356.39008    38174.007 
  446700    299.20288   -1527.4614     498.4572    311.47182   -73.607114    38174.007 
  446800    296.65751   -1561.8157    474.08969    241.34638   -706.77464    38174.007 
  446900    298.29671   -1542.3161    482.86321    276.96338   -232.08669    38174.007 
  447000    304.08162   -1539.3927    468.15744    291.09823   -342.67368    38174.007 
  447100    297.98163   -1566.8658    470.42754    238.56634   -89.037787    38174.007 
  447200    291.96285    -1546.932    494.09545    255.20301   -309.95536    38174.007 
  447300    309.72424   -1549.3741    482.90444    321.14369    52.923603    38174.007 
  447400    295.37843    -1561.444    491.22191    253.11977    -139.8979    38174.007 
  447500    299.44745   -1530.7038    515.02278    325.89077   -228.56107    38174.007 
  447600    302.96629    -1539.677    485.63352    303.29327   -538.43828    38174.007 
  447700    300.75617   -1556.1994    507.09769     298.3333   -271.18977    38174.007 
  447800    313.49272   -1552.7779    493.68817    345.40702    -708.2277    38174.007 
  447900    297.17124   -1531.4119    480.86701    280.82906   -593.83719    38174.007 
  448000    299.00536   -1528.4278    477.14174    288.30509   -1079.8917    38174.007 
  448100    314.89063   -1582.5856    504.57279    332.74685   -86.930947    38174.007 
  448200     297.9922   -1541.5693    478.90573    272.38841     383.8603    38174.007 
  448300    311.81045   -1563.9793    478.78343    311.76411   -46.752449    38174.007 
  448400    303.48519   -1587.9026    509.14472    280.90357    360.10164    38174.007 
  448500     286.4595    -1549.975    474.59557    208.00428    424.18362    38174.007 
  448600    300.14804   -1585.5658    495.13605    254.28071    109.96975    38174.007 
  448700    286.51142   -1606.1022    469.91437    147.42843   -104.77685    38174.007 
  448800    303.92253   -1565.5156    494.95969    291.06493   -87.660598    38174.007 
  448900    300.52173   -1537.3529    503.95504    312.98682    186.76785    38174.007 
  449000    289.56552   -1578.7907    478.33595    196.84439    313.68778    38174.007 
  449100     312.7971   -1561.7897     497.3698    336.96038   -143.47958    38174.007 
  449200    312.12327   -1585.7929    477.31692    289.88546    226.97753    38174.007 
  449300    295.64831   -1579.5733    471.02584    216.00349    66.175573    38174.007 
  449400    298.46735   -1576.6374    484.36877    244.91208   -656.48952    38174.007 
  449500    317.43208   -1581.6282    487.77276    328.29034     57.00622    38174.007 
  449600    295.66416   -1585.9636    484.93838    223.59676   -151.84114    38174.007 
  449700    295.01109    -1549.403    491.51143    263.80458   -59.695015    38174.007 
  449800    298.86674   -1557.8375    491.48252    272.61511    468.94955    38174.007 
  449900    300.80397    -1588.513    499.87846    259.01464   -46.757088    38174.007 
  450000    298.32207   -1582.8321    476.02317    229.72091   -417.22653    38174.007 
  450100    299.22349    -1536.133    516.14975    320.58509    -337.5742    38174.007 
  450200    303.51342   -1519.0734    527.39958    368.11405   -125.12843    38174.007 
  450300    304.16268    -1507.524    485.59956    340.77225    133.89587    38174.007 
  450400    293.27948   -1541.7908    546.91305    319.06046   -691.58975    38174.007 
  450500    302.06324   -1563.1692    476.28286    266.40457    31.016588    38174.007 
  450600    300.15767    -1543.674     516.5069    317.58649    -297.5652    38174.007 
  450700      304.817   -1521.0656      499.415    343.97755   -540.42204    38174.007 
  450800    306.24439   -1525.2125    492.16035    338.97099   -365.45586    38174.007 
  450900    297.71048   -1518.7319    516.34731    331.40524   -189.27814    38174.007 
  451000    307.06449   -1515.5668    508.57025    368.70073   -338.69738    38174.007 
  451100    296.54619   -1516.9073    480.89589     292.5622   -764.06582    38174.007 
  451200    306.80802   -1535.5526    479.92783    318.92352   -588.38105    38174.007 
  451300    308.83288   -1553.7467    528.11496    357.98823   -560.68674    38174.007 
  451400    298.88138   -1557.8854    459.75597    240.90623   -202.80519    38174.007 
  451500    297.02004   -1581.4531    509.21507    258.45857   -169.08436    38174.007 
  451600    300.86206     -1581.27    507.36546    274.00489   -897.49592    38174.007 
  451700    311.41711   -1551.4823    462.80258    306.51794    -571.3533    38174.007 
  451800    313.00119   -1563.6163    487.86829    326.54663   -550.62593    38174.007 
  451900    296.25875   -1586.5021    512.77019    253.55395   -658.59904    38174.007 
  452000    306.09324    -1583.078    487.19077     275.4587    413.42557    38174.007 
  452100    303.23136   -1590.4444    505.68066    273.76047    1033.1591    38174.007 
  452200    299.90828    -1628.794    498.27713    213.11945    584.80071    38174.007 
  452300    306.88162   -1615.2407    480.07076    239.70807    894.74482    38174.007 
  452400    291.83816   -1592.4246    507.46167    222.51798    780.13002    38174.007 
  452500    296.02491   -1599.8784    455.25757    181.61734    401.15599    38174.007 
  452600    293.26331   -1594.0381    475.20102    195.02874    593.23139    38174.007 
  452700     302.2778   -1582.3576    486.34833    258.24286   -25.785284    38174.007 
  452800    303.04128   -1579.2718    496.38151    274.78238   -262.30176    38174.007 
  452900    296.33329   -1583.7901    486.14245    229.97215    74.300429    38174.007 
  453000    292.99735   -1526.5259    501.12074    287.26908   -376.47178    38174.007 
  453100    293.34166   -1596.0274    486.51884    204.70827   -209.96871    38174.007 
  453200    301.56182   -1557.7038    510.70929    304.04989    501.72986    38174.007 
  453300    304.32109   -1554.1135     476.4258    285.71871   -159.33102    38174.007 
  453400    298.65451   -1556.2926    466.92968    248.65631   -62.150078    38174.007 
  453500    301.71767   -1553.7215    493.18531    291.20645    -473.2375    38174.007 
  453600    304.15431   -1571.2997    487.61572    278.97521   -196.26928    38174.007 
  453700    300.77702   -1547.1683    482.74789    283.10798   -355.86127    38174.007 
  453800    293.43948    -1587.627    491.24753    218.27567   -406.99763    38174.007 
  453900    288.80521   -1536.3205    452.70009    210.27248   -307.37864    38174.007 
  454000    300.75122   -1568.8269    501.19008      279.776     -632.703    38174.007 
  454100    291.95626   -1580.3291    458.52827    186.20917   -328.94281    38174.007 
  454200    307.74667   -1590.6342    486.31895    274.43829   -548.90257    38174.007 
  454300    291.32454   -1539.8117    476.58869    241.95682   -511.90861    38174.007 
  454400    307.97399   -1512.7138    459.57623     326.6344   -705.45354    38174.007 
  454500    309.64487   -1548.3694    479.75604    318.64449   -294.77707    38174.007 
  454600    297.84052   -1542.3718    479.86918    271.86983   -101.03633    38174.007 
  454700    300.39571   -1561.2903    479.45593    263.98569    754.92969    38174.007 
  454800    303.37993   -1545.9354      482.723    295.97742    451.55649    38174.007 
  454900    296.07796   -1528.9056    490.88677    288.45712    493.20787    38174.007 
  455000    302.34356   -1573.4106    496.61867     277.7548    721.21689    38174.007 
  455100    297.44197   -1535.9407    503.84459    300.49082    381.50036    38174.007 
  455200    302.69614   -1532.8598    500.05541    323.32201     -647.109    38174.007 
  455300    296.95102   -1521.0417    506.35875    315.70443   -260.57343    38174.007 
  455400     305.3996     -1530.43    472.85277    310.66106   -433.44093    38174.007 
  455500    302.78092    -1522.463    480.74285    314.78601   -361.18074    38174.007 
  455600     294.8128   -1561.8625    471.35241    230.29764    22.001783    38174.007 
  455700    295.49468   -1573.4503    502.09216    252.50459   -177.27074    38174.007 
  455800    297.48198   -1520.8048    484.53519    296.49656    501.95679    38174.007 
  455900    309.70487   -1570.7388    510.17916    326.96698    35.643004    38174.007 
  456000    299.55021   -1552.8927    470.80377    259.94322     204.0463    38174.007 
  456100    305.99257   -1558.3996    464.05132    276.54661   -112.17091    38174.007 
  456200     298.4164   -1566.0881    478.88431    249.74869   -556.31482    38174.007 
  456300    287.17921   -1527.5607    495.78768    254.83508   -20.936452    38174.007 
  456400     297.9268    -1514.948    505.96446    325.77545     448.8577    38174.007 
  456500     289.4193   -1561.9289    495.89513    230.61027    154.06993    38174.007 
  456600    303.68802   -1546.3752    476.78779    290.98277    303.01892    38174.007 
  456700    295.48685    -1561.641    524.01703    286.20368    372.03447    38174.007 
  456800    296.46407   -1581.6787    496.62024    243.14726    576.04078    38174.007 
  456900    296.22179   -1508.1958      487.766    306.69044    500.21425    38174.007 
  457000    299.28954    -1551.062    496.44694    286.24917    87.926587    38174.007 
  457100     297.2278   -1513.5894    498.64208    316.68003    432.80919    38174.007 
  457200    304.39955   -1545.9332    485.32384     303.1486   -165.66566    38174.007 
  457300    301.05683   -1555.4858    505.96457    299.26079    82.598809    38174.007 
  457400    289.33868   -1534.3736    506.97418    268.88343   -20.480118    38174.007 
  457500    304.45792   -1496.7419    499.74106    367.01865    -122.3498    38174.007 
  457600    305.60773   -1538.9898    505.76431    335.94526   -121.79146    38174.007 
  457700    295.03727   -1554.9595    487.26011    254.11401    108.23578    38174.007 
  457800    305.59623   -1538.7732    482.02856    312.37453    459.59407    38174.007 
  457900    305.01384   -1566.9923    482.98709    282.50484   -310.40463    38174.007 
  458000    301.41503   -1594.9927    476.15288    231.54702    331.93965    38174.007 
  458100    299.52286   -1594.1473     476.6153    224.37758     268.9927    38174.007 
  458200    311.33002    -1608.385    508.63499    295.05753   -206.80942    38174.007 
  458300    295.31666   -1596.7757    475.08821    201.37764     265.4502    38174.007 
  458400    308.61396   -1557.4695    478.24354    303.41313    98.328786    38174.007 
  458500    312.71578   -1566.0385    481.51184    316.48925   -206.11718    38174.007 
  458600    296.50542   -1583.2076    486.60156    231.78497    160.52366    38174.007 
  458700    298.16427   -1569.5709    489.30701      255.559   -94.723287    38174.007 
  458800    294.47734   -1576.1985    507.41422    250.52061    54.520241    38174.007 
  458900    302.26696   -1586.0547    473.95853    242.10743   -207.76875    38174.007 
  459000    303.11125   -1588.1301    469.74922    239.60525    71.514861    38174.007 
  459100    304.65608   -1583.4073    494.32289    275.82284    14.281054    38174.007 
  459200    296.64493   -1565.3984    467.41888    231.03652   -63.740729    38174.007 
  459300    290.07687   -1585.5079     477.2645    191.34668    388.30953    38174.007 
  459400    308.70011     -1598.77    485.01449    269.26958   -160.99348    38174.007 
  459500    295.56662   -1584.6083    485.78022    225.35696    219.29586    38174.007 
  459600    307.57578   -1616.3605    486.14167    247.76911    201.75632    38174.007 
  459700    299.84588   -1672.9706    480.10426    150.49044   -268.59063    38174.007 
  459800    297.75246   -1671.1483    467.04151    129.87111   -252.41664    38174.007 
  459900    299.69963   -1647.7246    463.98963     158.9666   -231.92089    38174.007 
  460000    297.89706   -1615.3037     504.0117    223.33373   -650.55956    38174.007 
  460100    287.16919   -1574.7547    484.87331    196.68178   -728.35391    38174.007 
  460200    305.00982   -1567.5328    494.17122    293.13045   -374.18034    38174.007 
  460300    307.38605   -1572.6279    497.12817    301.63817    428.17276    38174.007 
  460400    301.24222   -1616.8231    478.09292    210.88245   -465.00891    38174.007 
  460500    302.77158   -1617.4414    508.98845    248.01143    15.316809    38174.007 
  460600    296.38005   -1610.6349    483.13594    200.33039    530.33669    38174.007 
  460700    303.51922   -1586.7082    475.10839     248.2141   -102.29786    38174.007 
  460800    299.74244   -1577.9475    478.75173    243.69757    155.17327    38174.007 
  460900    306.37416   -1570.5006    484.85162    286.95546    594.01481    38174.007 
  461000    303.38095   -1587.1496    479.67364    251.71846     676.0756    38174.007 
  461100     294.8333   -1614.3278    485.22419    191.79601    510.26251    38174.007 
  461200    296.33842   -1563.3869    489.40668     253.6626    178.43914    38174.007 
  461300    304.95152   -1569.7625     484.1322    280.60057    318.35531    38174.007 
  461400    297.95102   -1575.0315    500.15984    259.99584    383.76092    38174.007 
  461500    300.62885   -1606.4875    471.68552    212.06263    563.95544    38174.007 
  461600    308.58839   -1576.8808    502.84999    308.49381    275.80328    38174.007 
  461700    303.32028   -1532.5393      475.191     301.5743    90.324962    38174.007 
  461800     293.5451   -1582.0568    457.99198    191.06342   -311.29455    38174.007 
  461900    301.32098   -1606.5293    472.87128    216.30744   -417.19827    38174.007 
  462000    300.89279   -1591.0124    458.34449    215.37916   -202.67378    38174.007 
  462100     293.8331   -1596.5725    509.14255    228.98861    -338.8661    38174.007 
  462200    297.92578   -1588.0762      480.783    227.46119   -582.43103    38174.007 
  462300    299.07053   -1547.2072     481.3047    273.98061   -462.04737    38174.007 
  462400    301.11047   -1566.5367    476.02273    258.50837    -1775.728    38174.007 
  462500    311.43699   -1538.6986    480.80147    337.38967   -1310.9467    38174.007 
  462600    295.77548   -1553.8146    469.30968    240.61579   -961.13469    38174.007 
  462700    309.92199   -1533.0928    505.46689    360.87346   -285.77409    38174.007 
  462800    299.82466   -1558.7947    491.41601    275.88303   -359.99592    38174.007 
  462900     304.1312   -1539.1797     487.6257    311.00166     112.2737    38174.007 
  463000    301.25336   -1579.2599    469.05351    239.45608    56.427657    38174.007 
  463100    306.84002   -1558.2019    491.11218    307.60186    337.39489    38174.007 
  463200    297.38659    -1511.049    483.32953    304.61929   -244.65293    38174.007 
  463300    302.05117   -1571.3814    473.51476    255.37023   -79.046165    38174.007 
  463400    304.09988    -1535.946    521.40074    347.87011    177.89509    38174.007 
  463500    291.50671   -1561.4929    484.84281    229.34593    147.47766    38174.007 
  463600    297.91116   -1571.4933    478.80884    242.00443   -190.28993    38174.007 
  463700    298.99234   -1611.0317     442.8296    171.33071    95.499937    38174.007 
  463800    302.89646   -1582.7708    476.98497    251.23795    156.57681    38174.007 
  463900    302.20105   -1553.4585     482.4049    282.85465     170.5364    38174.007 
  464000    298.51496   -1592.2162    489.30424    234.48208    116.04933    38174.007 
  464100    310.66391   -1554.6935    500.49229    337.62199   -226.68752    38174.007 
  464200    308.63749   -1525.0373    466.49169    324.19897   -295.22491    38174.007 
  464300    297.69987   -1584.9317    463.03318    211.84376   -526.48838    38174.007 
  464400    302.39786   -1574.6675    494.06883    274.19134   -280.76975    38174.007 
  464500    300.84962   -1542.6024    497.88034    303.13162   -250.45487    38174.007 
  464600    295.21492   -1573.5484     475.2182    224.27918   -37.930748    38174.007 
  464700    303.33565   -1566.0938    476.96412    269.86182     184.5455    38174.007 
  464800    292.04804   -1565.9941    468.76569    211.19276    281.22407    38174.007 
  464900    306.24385   -1565.1294    466.31748    273.20873     598.7426    38174.007 
  465000    293.11824    -1542.843     481.1738    251.54672    351.77051    38174.007 
  465100    312.43991   -1568.2291    471.63937    303.19032    529.02383    38174.007 
  465200    301.17523   -1555.7454    505.00915    298.57621   -4.3332073    38174.007 
  465300    314.85517   -1573.7133    457.87062    294.75811   -294.78385    38174.007 
  465400    299.27861   -1560.5775    500.55904     280.7968   -434.86898    38174.007 
  465500    297.47249   -1579.7125    464.35647    217.36759   -444.44293    38174.007 
  465600     300.0806   -1538.9039    493.53999    299.04449   -614.02599    38174.007 
  465700    296.39632   -1531.2822    476.47719    273.09715   -83.909299    38174.007 
  465800    299.92567   -1549.9021    488.92859    282.74069   -182.93751    38174.007 
  465900    303.24432   -1555.6809    494.96476    297.86624    308.54245    38174.007 
  466000     286.8569   -1586.1623    497.54847    196.55021   -151.41673    38174.007 
  466100    294.62483    -1591.221    495.68697    224.43161    288.09387    38174.007 
  466200    289.59918   -1575.4768    465.62373    187.59693   -492.99923    38174.007 
  466300    300.14033   -1572.3829    519.92904    292.22211   -327.07376    38174.007 
  466400    299.51738   -1573.0436    460.72752    229.56894   -308.16843    38174.007 
  466500    306.30149   -1517.2111    490.73823    345.80603   -562.60147    38174.007 
  466600    298.99385   -1555.9643    474.29287    257.86816   -684.57232    38174.007 
  466700    306.16515    -1589.003    475.92739    258.59252   -331.76554    38174.007 
  466800    303.08545   -1602.1225    496.60085    252.34893    592.87656    38174.007 
  466900    294.91043   -1584.6225    490.02263    226.64528    728.76221    38174.007 
  467000     303.2705   -1555.2829    481.39997    284.81669    533.09133    38174.007 
  467100    309.68878   -1535.0733     467.9338    320.31501    393.69694    38174.007 
  467200    301.37897   -1517.3355    479.10787    311.99761    83.897893    38174.007 
  467300    300.91817   -1567.9425     495.1748     275.3931    390.99167    38174.007 
  467400    308.06912   -1563.4574    505.68617    322.42695    587.84764    38174.007 
  467500    292.54661   -1597.4006    479.23445    192.48872   -316.79181    38174.007 
  467600    306.23145   -1583.9957    470.58448    258.55388    33.033805    38174.007 
  467700    300.74846   -1567.1435    501.74199    281.99902   -150.01768    38174.007 
  467800    307.83586    -1597.506     496.5464    278.19351    47.119919    38174.007 
  467900    305.69733   -1570.3365    473.05064    272.28634     303.5481    38174.007 
  468000    309.71324   -1583.6725     488.5632    292.45478   -103.37978    38174.007 
  468100    308.61957   -1564.8028    476.09035    293.95185   -207.70775    38174.007 
  468200    297.72238   -1614.2939    493.24177      212.791   -915.73782    38174.007 
  468300    299.54798   -1563.6636    474.44353    252.80209   -359.00936    38174.007 
  468400    298.68591   -1573.2817    487.24453     252.1228   -50.439887    38174.007 
  468500    291.67158   -1578.9646    464.08672    191.85676   -595.54028    38174.007 
  468600    303.09065   -1531.3864    461.56032    288.06776   -479.80414    38174.007 
  468700    303.47458   -1544.2307    497.37183      312.755   -493.13265    38174.007 
  468800    295.23882   -1583.3537    467.66115    207.02386   -41.225097    38174.007 
  468900    299.65864   -1550.2364    498.15471    290.43618   -29.479965    38174.007 
  469000    290.43168   -1513.4228    481.87972    269.63663   -36.816277    38174.007 
  469100     291.4586   -1512.9513    495.47458    288.30373    -577.9935    38174.007 
  469200     299.9549   -1513.5148    499.23347    329.56386    -556.7272    38174.007 
  469300    296.07705   -1516.3407    496.56402    306.69514   -214.18549    38174.007 
  469400    303.86282   -1569.3211    472.49754    264.52968    15.204224    38174.007 
  469500    300.73014   -1539.8991    512.03879    319.45808    120.32038    38174.007 
  469600     294.3579   -1567.2685    478.30093    229.80221    189.33167    38174.007 
  469700    311.43657   -1535.8846    482.62648    342.02674    104.88293    38174.007 
  469800    296.03644   -1537.3913    503.27836    292.17699   -144.60219    38174.007 
  469900    299.68742   -1534.0159    497.61252    306.24344   -97.827021    38174.007 
  470000    293.20018   -1528.8899    495.64235    280.33543   -44.459203    38174.007 
  470100     302.7516   -1531.4737    475.28362    300.18483   -857.15544    38174.007 
  470200    293.24728   -1572.5208    469.64447    210.91769    81.919232    38174.007 
  470300    295.82734   -1520.1015    511.24919    316.50074    297.41136    38174.007 
  470400    293.38899   -1575.4644    507.79225    246.75671   -413.11501    38174.007 
  470500     303.7037   -1500.8396    503.16042    362.96121   -499.91212    38174.007 
  470600    298.54755   -1553.0634    471.77585    256.25253   -564.05754    38174.007 
  470700    289.63707   -1540.5858    469.45936    226.49327   -853.18425    38174.007 
  470800    303.75135   -1541.1412     483.9049    303.61759   -566.51843    38174.007 
  470900    306.76908   -1522.5954     478.6551    330.43353   -556.64411    38174.007 
  471000    297.77038   -1558.1417    498.00247    273.91901    205.50271    38174.007 
  471100    308.13031    -1559.173    495.36138     316.6607    215.59827    38174.007 
  471200    296.80093   -1518.1097     505.4276    317.03283    588.67687    38174.007 
  471300    296.12579   -1549.3676    488.40482    265.72739    321.44243    38174.007 
  471400    291.25725   -1527.9843    485.60275    262.49677    400.44274    38174.007 
  471500    303.67775   -1548.4216    455.13453    267.23711    199.39503    38174.007 
  471600    299.97465   -1555.2979    479.97095     268.6067    34.592689    38174.007 
  471700    287.44364   -1550.9481    479.96533    216.81008    143.27593    38174.007 
  471800    317.79512   -1573.3121    496.56535    347.02539   -87.662433    38174.007 
  471900    294.05876   -1565.4128    480.33118    232.34799    457.68647    38174.007 
  472000    309.60807   -1557.5574    498.44938    327.98486   -185.49424    38174.007 
  472100    293.73964    -1534.969    462.39676    243.42755   -450.14934    38174.007 
  472200    296.92092   -1597.1138    506.53093    239.66961   -219.39171    38174.007 
  472300    305.27757    -1572.176    480.61978    276.13539    314.17626    38174.007 
  472400    298.00047   -1544.2901    478.09068    268.88966   -204.43464    38174.007 
  472500      300.079   -1564.8976    494.21407    273.71763    12.398838    38174.007 
  472600    298.01099   -1572.6788    489.10798    251.56537    -499.5967    38174.007 
  472700    308.81883   -1555.5187    494.08085    322.11913   -136.87782    38174.007 
  472800    296.88412   -1546.4342    507.50632    291.15978    404.90369    38174.007 
  472900    304.72648   -1585.3426    490.54516    270.42525    726.95965    38174.007 
  473000    307.11932   -1540.5207    488.92142    324.34364   -68.428314    38174.007 
  473100    300.33505   -1561.8639    476.73036    260.41484    292.21763    38174.007 
  473200    297.18435    -1541.676    492.79628    282.55298    634.77173    38174.007 
  473300    294.20234   -1545.9035    500.52156    272.69086    288.45468    38174.007 
  473400    294.52271   -1539.6876    470.74036    250.56087    454.58632    38174.007 
  473500    295.15663   -1544.7753    480.22789    257.80076     -74.0822    38174.007 
  473600    298.46842   -1524.7572     524.0607    336.48899    704.67697    38174.007 
  473700    302.74151   -1560.7644    476.74393     272.3092    551.83879    38174.007 
  473800    300.74474   -1565.0949    497.51495    279.80387    637.16979    38174.007 
  473900    297.74343   -1504.6308    501.47214    330.77878    385.42575    38174.007 
  474000     297.5419   -1544.1146    494.94104      283.861     606.8056    38174.007 
  474100    292.75994   -1517.4489    516.72176     310.8835     970.2277    38174.007 
  474200    291.43832   -1515.1608    489.26377    279.79259   -187.65409    38174.007 
  474300    308.59291   -1508.9808    508.85618    382.42023   -57.903855    38174.007 
  474400    299.99213   -1520.9654    488.66157    311.70817   -193.49427    38174.007 
  474500    305.23639   -1553.2696    472.08411    286.32159   -77.520454    38174.007 
  474600    299.48713   -1530.0483    472.33927    284.04045   -521.56365    38174.007 
  474700    310.25319   -1502.3587    488.49494    376.11943   -627.26047    38174.007 
  474800    290.59377   -1538.8998    482.16089    245.16699   -656.43738    38174.007 
  474900    302.81483    -1500.357    479.97078    336.27189     349.5644    38174.007 
  475000    298.28656   -1524.1543    495.29345     307.5099    258.32455    38174.007 
  475100    294.63091   -1523.8677    485.42753    281.55265     101.2157    38174.007 
  475200    295.28686   -1528.1858    461.20023    255.94608    -252.2038    38174.007 
  475300    306.38993   -1481.2817    490.89499    382.28844   -177.14839    38174.007 
  475400    304.77773   -1503.6001    482.22759    344.07975    99.151416    38174.007 
  475500     291.8151   -1533.7103    489.15825    262.82554    285.97169    38174.007 
  475600    289.55631   -1570.9608    483.64497    209.94204    45.996752    38174.007 
  475700    287.40408   -1528.8378    481.03116    239.80894    250.85212    38174.007 
  475800    289.99234    -1564.697    498.79057    233.30496     221.8367    38174.007 
  475900    297.86632   -1538.8727    492.56362    288.17895    587.29204    38174.007 
  476000    297.32543   -1545.9426    467.89298    254.01517    169.31656    38174.007 
  476100    306.53556    -1540.739    496.59964    329.18823   -57.080656    38174.007 
  476200    301.96504   -1513.4369    482.84685     322.2609   -521.89616    38174.007 
  476300    295.63616   -1521.5628    502.42842    305.36214   -814.45709    38174.007 
  476400    301.03493    -1569.121    480.52545    260.08837   -409.86828    38174.007 
  476500    291.25328    -1534.756    488.02572    258.13023   -201.21473    38174.007 
  476600    303.28562   -1538.5472    499.84846    320.06862   -20.128221    38174.007 
  476700    302.71835    -1498.846     464.2254    321.60525    -54.46373    38174.007 
  476800    309.79034   -1549.2174    495.51686    334.20897    212.41069    38174.007 
  476900    306.49966   -1517.7782    497.29749    352.68599    30.626304    38174.007 
  477000    294.07912   -1540.7038    471.72669    248.54367    129.43483    38174.007 
  477100     305.5724   -1552.1217    516.89342    333.78419    238.53082    38174.007 
  477200    302.06689   -1536.6442    446.81573    263.47874    185.74831    38174.007 
  477300    303.04042    -1524.731    503.90018    336.83801    64.772128    38174.007 
  477400    290.08454   -1535.7077    474.31515     238.2319   -38.902639    38174.007 
  477500    299.77501   -1555.6138    463.06475    250.49018    52.312161    38174.007 
  477600    308.14315   -1540.4974    458.68361    298.71606    40.958456    38174.007 
  477700     304.1191   -1530.8897     486.3441    317.95588   -304.62136    38174.007 
  477800    300.76097   -1509.1633    505.46206    343.75522   -198.78165    38174.007 
  477900    311.53169    -1527.924    489.11186     356.8989   -55.121696    38174.007 
  478000    293.37018   -1531.0166    487.28265     270.6107    396.02519    38174.007 
  478100    298.10445   -1553.5903    495.12924    277.09381   -89.916697    38174.007 
  478200    301.05841   -1545.8034    465.49748    268.48314   -196.46827    38174.007 
  478300    297.81413   -1547.4175     503.7609    290.59764   -61.519802    38174.007 
  478400    292.64759   -1542.5192    473.21209    241.80013   -75.974539    38174.007 
  478500    296.22195   -1522.4973    494.60827    299.23198   -267.52902    38174.007 
  478600    290.22981   -1526.1225    487.93931     262.0921    310.91922    38174.007 
  478700    296.99837   -1483.7103    497.34343    344.23267    397.99061    38174.007 
  478800    292.79937    -1447.957    499.30853    363.13878    410.83906    38174.007 
  478900    301.21841   -1532.0791    494.08243    311.50925   -416.99303    38174.007 
  479000    295.63115   -1526.8366    493.21855    290.85613    152.04704    38174.007 
  479100    291.38153   -1541.8803    471.11321    234.66804    533.88141    38174.007 
  479200    310.97836   -1514.8924    509.73336    388.07296    403.24656    38174.007 
  479300    302.84083   -1525.3465    495.04216    326.47021    495.59241    38174.007 
  479400    300.46358   -1525.5921    462.24857     282.7806     406.5973    38174.007 
  479500    297.62059    -1513.343    481.31682    301.36093     383.3791    38174.007 
  479600    294.53521   -1480.3178    517.16397    356.41029    1193.5034    38174.007 
  479700    302.91008   -1516.1698    474.58171    315.49672    1246.3631    38174.007 
  479800    294.22839   -1494.4508     504.5377    328.27641    981.02218    38174.007 
  479900    289.03894   -1537.2692    497.32587    254.99661    584.62958    38174.007 
  480000    300.23038   -1546.6935    470.84592    269.23182    759.20619    38174.007 
  480100    293.53352   -1538.2874    490.26163    267.05066    455.47636    38174.007 
  480200    301.19468   -1555.8149    482.44797    276.03263   -134.85052    38174.007 
  480300    292.71456   -1633.8379    485.73856    163.30805   -189.47382    38174.007 
  480400      299.552   -1603.1632     472.9897    211.86667   -338.75487    38174.007 
  480500    298.96802   -1584.2089     480.0165    235.23145   -793.79854    38174.007 
  480600    321.69676   -1604.6426    464.23633    300.84588   -374.72644    38174.007 
  480700    292.57168    -1552.943    492.93371    250.75796   -438.85733    38174.007 
  480800    309.42227   -1547.2552     483.6945    322.69982   -43.494452    38174.007 
  480900    297.41388   -1513.9416    471.29618    289.81562    558.38734    38174.007 
  481000    298.06663   -1560.4804    465.89779    240.80288    243.61384    38174.007 
  481100    302.45567   -1575.8732    494.04926    273.22513    320.60128    38174.007 
  481200    301.03018     -1527.14    487.67315    309.19577    373.95935    38174.007 
  481300    295.90533   -1570.5288    491.70297    246.87664    363.99244    38174.007 
  481400    297.79878   -1541.8619    487.60646    279.93001    231.64403    38174.007 
  481500     304.4842   -1554.1887    496.68608    306.63453    382.31863    38174.007 
  481600    304.41401   -1552.9175    458.96852    269.87369     351.3954    38174.007 
  481700    303.14354   -1549.6439    486.55739    295.04436    203.56085    38174.007 
  481800    304.84959   -1552.4078    482.50319    295.86962    479.69143    38174.007 
  481900    295.32335   -1556.7457    456.34298     222.6924    445.44496    38174.007 
  482000    301.27177    -1539.519    498.64174    308.86766     237.4636    38174.007 
  482100    292.73092   -1489.2677    482.32712    304.54006    116.44798    38174.007 
  482200    306.16167   -1539.2934    484.66141    317.02048   -905.77223    38174.007 
  482300    302.82355   -1530.8464    469.28497    295.13578   -250.67422    38174.007 
  482400    307.86169   -1532.3557    495.01224    341.92541   -70.527721    38174.007 
  482500    305.42383   -1537.9474    457.63362     288.0331   -76.929887    38174.007 
  482600    291.97847   -1543.4927    496.75016    261.36698    494.94235    38174.007 
  482700    305.04172   -1509.9848    501.13108    357.78127    270.17138    38174.007 
  482800    297.89904   -1502.8282    466.73779    298.54421    402.83073    38174.007 
  482900    299.45501   -1554.6142    459.94089    246.93224     249.8787    38174.007 
  483000    295.82272   -1584.6702    490.87119    231.53332   -306.99037    38174.007 
  483100    312.06918   -1531.0803    474.43599    341.47472    341.22255    38174.007 
  483200    300.91524   -1531.6606    506.57393      323.061    314.89193    38174.007 
  483300    309.15462   -1510.8395    458.36744    332.58934     132.7057    38174.007 
  483400    289.54035   -1552.4166    472.64323    217.41298   -70.861865    38174.007 
  483500    301.64967   -1558.3578    487.45229    280.53255   -418.52796    38174.007 
  483600    301.62396   -1538.9674    481.68244    294.03788   -439.29845    38174.007 
  483700    300.71734   -1520.6432    491.06973    317.68756   -326.06299    38174.007 
  483800    302.02856   -1535.5984    479.02211    296.55921    279.99002    38174.007 
  483900    299.51072   -1568.2416    480.58139    254.19504    466.51095    38174.007 
  484000    295.03214   -1575.9734    484.27773    230.09478    626.90101    38174.007 
  484100    294.34189   -1586.3472    460.65385    193.00466    257.42465    38174.007 
  484200    302.12708   -1537.1504    470.14554    286.57203    1023.4973    38174.007 
  484300    307.53994    -1584.283    481.96724    275.51157    222.66921    38174.007 
  484400    292.42246    -1582.343    498.83394    226.58963    126.75601    38174.007 
  484500    292.95414   -1570.9729    472.60037    214.10815    111.86422    38174.007 
  484600     295.1108   -1568.3206    483.83667    237.65892    313.84623    38174.007 
  484700    310.36765   -1603.7747    470.85671    257.57791     526.8847    38174.007 
  484800    305.58256   -1620.1944    494.71077    243.57438    1159.9011    38174.007 
  484900    296.48522   -1594.8217    471.31027    204.78904    936.99383    38174.007 
  485000     293.6354   -1583.6519    478.52589    210.40689    543.93521    38174.007 
  485100    288.05374   -1598.6634     466.3222    158.18489    605.82723    38174.007 
  485200    290.12295    -1553.637    486.50773    232.66721    274.94791    38174.007 
  485300    300.70686   -1569.5472    460.74324    238.41013   -1.9009115    38174.007 
  485400    310.11755   -1594.8107    446.73013    241.29488    116.65673    38174.007 
  485500    306.61025   -1589.6598    468.39252    252.39492    -526.1817    38174.007 
  485600    302.63157   -1572.6193    464.62543    247.84324   -359.38969    38174.007 
  485700    297.73061   -1595.8721    489.27524    227.28323   -653.74661    38174.007 
  485800    296.68636   -1526.9826    484.26964    286.48869   -861.33854    38174.007 
  485900    288.00436   -1561.4337    483.04695     211.9182   -573.47896    38174.007 
  486000    292.32276   -1583.6555    463.73372     189.7302   -651.54902    38174.007 
  486100    300.98321   -1595.5523    446.01261    198.91247   -292.80314    38174.007 
  486200    301.34288   -1580.2633    462.41967    232.21993   -298.20451    38174.007 
  486300    292.00149   -1587.2446    479.67319    200.64126    68.177607    38174.007 
  486400    295.24178    -1588.899    501.20629    235.03698     176.5739    38174.007 
  486500    303.10718   -1556.2728    487.27962     288.9747    166.01557    38174.007 
  486600    297.97176   -1518.8002    474.47929    290.63949   -54.221021    38174.007 
  486700    305.87573   -1557.1098    469.61751     282.8792   -62.814794    38174.007 
  486800    286.64816   -1614.3443    479.21104    149.09569   -486.13986    38174.007 
  486900    298.27661   -1584.0245    457.50283    209.80456   -493.14073    38174.007 
  487000    307.22028   -1590.8207      471.042    256.61657   -76.467833    38174.007 
  487100    305.43269   -1583.1078    491.71887    276.99765    55.277666    38174.007 
  487200    299.44543   -1632.1735    465.89943     175.2886   -250.84678    38174.007 
  487300    319.07883   -1578.2554    463.42315    314.69119    321.88189    38174.007 
  487400    302.94093   -1567.7547    466.73721    256.20557   -89.035436    38174.007 
  487500    291.47445   -1606.0814    453.03644    152.80646    121.09866    38174.007 
  487600    299.30747   -1626.3266     460.9153     175.5333    207.15625    38174.007 
  487700    303.95438    -1585.765    468.42052    244.41895   -82.187694    38174.007 
  487800    302.33481   -1611.6367    481.82067    224.69154   -27.460058    38174.007 
  487900    295.23513   -1621.2639    465.83102    167.26699    536.63179    38174.007 
  488000    305.41061   -1542.9395    467.84597    293.19416    782.59814    38174.007 
  488100    299.16082   -1555.3894    480.46116    265.35938    119.16612    38174.007 
  488200    300.23806   -1577.9827    452.75813    219.88923    479.05313    38174.007 
  488300    297.55932   -1586.3297    524.07305    270.85596   -5.4362182    38174.007 
  488400     312.4611   -1563.0483    457.38952    294.21611   -137.01314    38174.007 
  488500    298.43583   -1528.5543    489.00715    297.49237    575.04167    38174.007 
  488600    311.99977   -1536.6736    517.66287     378.7974     362.8568    38174.007 
  488700    305.43505   -1529.9562    476.50018    314.94108    430.06378    38174.007 
  488800    292.15435    -1537.545    510.49599    281.84853    406.71293    38174.007 
  488900    303.25711   -1528.1432    505.05246    335.54891    704.28557    38174.007 
  489000    301.40872   -1552.4591    490.38178    288.28117    434.77746    38174.007 
  489100    306.19517   -1591.6122    480.32878    260.51917    602.37598    38174.007 
  489200    296.16373   -1570.1636    466.73523    223.43179    611.31433    38174.007 
  489300    293.18048   -1578.3582    478.49805    213.63459   -40.772152    38174.007 
  489400    291.38085   -1536.7501    501.40632    270.08828    280.11873    38174.007 
  489500    293.48743   -1531.3901    478.10283    261.58265   -28.228857    38174.007 
  489600    297.18169   -1557.5441    487.48965    261.36631   -151.75705    38174.007 
  489700    302.29377   -1556.0689    457.67851    255.93331   -103.70797    38174.007 
  489800     292.3236   -1550.2187    536.22787    295.66495    71.500054    38174.007 
  489900    302.78776   -1572.1005    455.46079    239.89711    60.734196    38174.007 
  490000    312.04679   -1581.9935    500.86368    316.88899    309.97081    38174.007 
  490100    302.62135   -1541.1055    495.88483    310.57063   -89.585561    38174.007 
  490200    282.57006   -1527.7881    452.88973    191.05998   -564.56662    38174.007 
  490300    304.24077   -1514.1016      517.629    366.57395   -498.23581    38174.007 
  490400    303.82691   -1524.6454    460.61292    297.15995    13.998132    38174.007 
  490500    296.42111   -1538.0589    484.65641    274.61079   -375.80672    38174.007 
  490600    298.72599   -1550.2372    489.17614    277.27848   -136.32276    38174.007 
  490700     302.4508   -1551.2318    482.32196    286.11745    441.61439    38174.007 
  490800    294.56136   -1538.0113    493.62136    275.29135    827.54883    38174.007 
  490900    296.59544   -1469.3787    497.59454    357.01017    505.55864    38174.007 
  491000    302.14069   -1549.9539    465.18402    268.86796    441.68377    38174.007 
  491100    291.83578   -1588.2659    485.32229    204.52669    401.49439    38174.007 
  491200    303.55232   -1548.2792    512.60206    324.28511    340.41605    38174.007 
  491300    296.67858   -1555.1492    487.29199    261.30956    66.825183    38174.007 
  491400    306.11173   -1513.7406    528.98512    386.67329   -16.434485    38174.007 
  491500    301.99294   -1523.3026    479.07158    308.74488     88.84811    38174.007 
  491600    294.44482   -1580.7009    468.12038    206.57866   -31.074089    38174.007 
  491700    292.15225   -1519.6574    483.50011    272.73077   -606.49648    38174.007 
  491800     307.2001   -1524.1081    486.84044    339.03714    -451.8531    38174.007 
  491900    301.46388   -1515.5489    485.68415    320.74087   -499.88166    38174.007 
  492000    292.09291   -1516.2342    507.40763    299.79571    206.90017    38174.007 
  492100    296.57342   -1515.1092    504.61295    318.19944    32.381035    38174.007 
  492200    303.94943   -1517.7358    502.64563    346.65116    349.38604    38174.007 
  492300    299.63679   -1529.0306    484.32718    297.71657   -296.12431    38174.007 
  492400    315.31382   -1534.5758    500.46159    378.54135   -66.065953    38174.007 
  492500    292.02339   -1524.5264    490.61936    274.40372   -510.74543    38174.007 
  492600    290.66657   -1570.5269    487.36144    219.06653   -498.96959    38174.007 
  492700    297.67727   -1556.4321    471.93339    249.14236   -756.15132    38174.007 
  492800    305.70069   -1555.5631    517.76428    331.78839    -325.8563    38174.007 
  492900    302.42147   -1493.6879    482.09146    343.29936   -341.65925    38174.007 
  493000    304.89877   -1507.1246    513.70767    372.57755    187.00804    38174.007 
  493100    299.86502   -1522.9941    503.90782    324.35626    302.23385    38174.007 
  493200     303.8747   -1534.7261      493.371    320.05138   -577.51121    38174.007 
  493300    300.65657   -1535.6493    476.71956    288.05907    -573.8521    38174.007 
  493400     313.4894    -1511.081    483.69819    377.09905   -119.43753    38174.007 
  493500    294.64598   -1515.6782    510.01972    314.40191   -516.32466    38174.007 
  493600    305.20364   -1483.9078    497.40243    380.85499   -368.27941    38174.007 
  493700    301.31151   -1508.4773    485.07643    326.52215    -271.1714    38174.007 
  493800     292.5407   -1527.5973    498.86096    281.89206   -141.34319    38174.007 
  493900    301.26791   -1547.9241    466.74655    268.55013   -147.04081    38174.007 
  494000    298.34362   -1536.1331    494.33447    294.82778   -61.524459    38174.007 
  494100     293.4917   -1516.2534    479.22639    277.86204   -472.76792    38174.007 
  494200    310.61519   -1469.5619    487.85426    409.89735   -512.20055    38174.007 
  494300    300.79014   -1488.3835    497.33658    356.54028   -755.37988    38174.007 
  494400    294.91999   -1497.9306    476.18467    299.54202   -648.71567    38174.007 
  494500    297.31463   -1521.5119    485.69967    296.20411   -691.44243    38174.007 
  494600    304.26094   -1476.4821    496.86638    383.52124   -697.06336    38174.007 
  494700     308.9901   -1512.6049    520.44725    392.16663   -297.96104    38174.007 
  494800    302.24024   -1527.4203    482.66418     309.3278   -168.15841    38174.007 
  494900    298.60931   -1507.6302    521.23009     351.4166    -21.84567    38174.007 
  495000    297.32183   -1498.0022    487.36974    321.41618   -182.62823    38174.007 
  495100    283.05407   -1490.4995    505.25584    282.88315     23.87029    38174.007 
  495200    298.86732   -1510.3834    500.84821    329.43749    301.62316    38174.007 
  495300    296.18162   -1486.9732    493.92624    333.89338    156.28023    38174.007 
  495400    301.98785   -1469.2903    504.83546    388.49824   -169.36621    38174.007 
  495500    296.86249   -1471.4582    499.93101    358.46354   -452.71469    38174.007 
  495600    297.06736   -1492.1451    497.11816    335.88168   -98.428974    38174.007 
  495700    306.36978   -1482.8319    508.76257    398.51555   -227.56233    38174.007 
  495800    294.34216   -1489.7233    499.37517    328.35108   -354.23331    38174.007 
  495900    291.16431   -1506.9983     515.9853    313.44896    118.85695    38174.007 
  496000    297.60515   -1479.1951    513.49578    367.61867   -99.106911    38174.007 
  496100    290.39371   -1487.6457     513.1776    326.54152    -317.4824    38174.007 
  496200    295.86292   -1522.3199    510.42674    313.61933    332.96299    38174.007 
  496300    291.09279   -1509.9299    514.18057    308.39225    235.53481    38174.007 
  496400    301.18538   -1496.1201    516.32807    369.56594    212.79604    38174.007 
  496500    300.70916    -1527.729    501.19051     320.6859   -12.977943    38174.007 
  496600    294.51451   -1529.9841    493.52974    283.01703   -741.22666    38174.007 
  496700    305.97465   -1538.5011    480.83357    313.14712   -777.31508    38174.007 
  496800    303.44993   -1550.0597    493.97922    303.42306   -106.96896    38174.007 
  496900    296.54158   -1559.8996    501.40028    270.05365    -291.4711    38174.007 
  497000    302.94764     -1565.15    518.38864    310.49181   -123.25254    38174.007 
  497100    297.85131   -1555.0159    478.37672    257.78158   -81.801967    38174.007 
  497200    311.72708   -1547.2088    517.92036      367.298    -66.47303    38174.007 
  497300    307.31505   -1522.4297    484.38161    338.77176   -126.68019    38174.007 
  497400    292.32414    -1515.795    520.30823    314.17148    179.90217    38174.007 
  497500    294.70778   -1548.7993    496.87389    268.41181    9.2586179    38174.007 
  497600    306.30021   -1563.5901    496.43799    305.12104   -261.13496    38174.007 
  497700    302.50981   -1564.3606    472.52336    263.45431   -478.61651    38174.007 
  497800    296.43168   -1553.5758    504.15071    278.63551   -294.68663    38174.007 
  497900    301.35969    -1585.711    465.10467    229.53256   -557.33624    38174.007 
  498000    291.87882   -1569.5783    456.46733    194.55207   -1008.0732    38174.007 
  498100    302.59331   -1557.6489    495.21896    293.23578   -105.60246    38174.007 
  498200    312.85624   -1563.1817    499.43337    337.89696    138.46057    38174.007 
  498300    301.36526   -1591.1464    482.96285    241.98028    -97.80185    38174.007 
  498400    308.47827   -1550.8829    503.41453    334.56285    190.49007    38174.007 
  498500    299.90398    -1532.376    501.27713    312.51819    286.48711    38174.007 
  498600    297.79245   -1569.3442     498.6696    263.48243   -28.187752    38174.007 
  498700    298.27764    -1549.481      507.375    294.22478    164.82867    38174.007 
  498800    305.63532   -1563.0235    498.76796    305.03881    152.01375    38174.007 
  498900    305.14146   -1601.6454    492.90648    258.34286   -205.22828    38174.007 
  499000    303.67914    -1579.692    505.02736    285.86576    400.93269    38174.007 
  499100    289.41222   -1584.2289    485.57749    197.96096    214.82373    38174.007 
  499200    297.58475   -1531.5875    523.41315    325.05223    248.42942    38174.007 
  499300     303.3607   -1573.8074    480.49719    265.79353    324.70434    38174.007 
  499400    296.98521   -1558.6719    500.26449    272.13309     63.15901    38174.007 
  499500    300.65197   -1583.3175    497.18598    260.83668   -82.117031    38174.007 
  499600     305.9708   -1568.4325    508.71623    311.08109    17.045923    38174.007 
  499700     298.5629   -1575.3806    511.47392    273.70218    299.17032    38174.007 
  499800     302.9417   -1574.2587    495.81421    278.78208   -165.60129    38174.007 
  499900    300.30057   -1539.8823    476.84292    282.35442   -378.83667    38174.007 
  500000    297.81716   -1545.7582    489.30569     277.8153   -192.06365    38174.007 
  500100    312.86327   -1563.1603    506.14332     344.6598   -38.526772    38174.007 
  500200    289.79468   -1582.0995    483.84586    200.07219    271.61585    38174.007 
  500300    305.15379    -1568.424     478.6928    277.40584   -24.189184    38174.007 
  500400    303.25529   -1557.3213    499.29409    300.60425    400.33819    38174.007 
  500500    309.63543   -1599.4876    474.46053    262.18838     110.9254    38174.007 
  500600    309.83431    -1547.276    507.91678    348.74732    131.34505    38174.007 
  500700    293.96779   -1547.9108    486.94809    256.05929   -539.28037    38174.007 
  500800    286.25556   -1517.2282    503.71117      268.953    98.551576    38174.007 
  500900    302.11711   -1566.8279    481.42318    268.12753   -629.28551    38174.007 
  501000     291.6794   -1536.9049     510.4102    280.27499   -106.18504    38174.007 
  501100    299.78713   -1541.9385     519.6411    320.79616   -691.54372    38174.007 
  501200    294.55402   -1560.7324    480.44621    239.36223   -312.98518    38174.007 
  501300    297.86122   -1568.1703    496.56994    262.86484   -369.23448    38174.007 
  501400    297.96052   -1530.7858    517.53847    321.66278   -211.03552    38174.007 
  501500    296.01496   -1547.3886    508.60606    287.41111    37.807927    38174.007 
  501600    298.67029   -1545.4572    487.11396    279.74669    206.13238    38174.007 
  501700    301.80034   -1580.0146    476.08922    248.18765    231.96299    38174.007 
  501800    300.02648   -1602.7193    518.23735    259.68397    121.77367    38174.007 
  501900    303.72762   -1555.4511    529.11824    334.41472    410.81472    38174.007 
  502000    298.99031   -1559.4301     475.3954    255.48899    422.93674    38174.007 
  502100    292.64593    -1590.576     489.9031    210.42695    225.66516    38174.007 
  502200    307.46745   -1587.3369    506.32024    296.48594    313.89163    38174.007 
  502300    293.54921   -1547.2848    479.42075    247.28269    825.44875    38174.007 
  502400    299.99682   -1575.1476    509.75754    278.64296    802.02059    38174.007 
  502500    283.81848   -1580.0003    499.82686    191.37801    650.34503    38174.007 
  502600    311.63912   -1549.0538    516.53001    363.66854    573.74583    38174.007 
  502700    296.98495   -1600.0372    487.34769    217.84978    730.82308    38174.007 
  502800    284.91668   -1596.4592    482.73245    162.74486    340.08544    38174.007 
  502900     307.1777   -1599.9001    464.55346    240.85781    113.59104    38174.007 
  503000     283.7593   -1527.7373    491.63621    235.18527    77.952159    38174.007 
  503100    297.03028   -1522.5573    494.13756    302.32274    645.81549    38174.007 
  503200    297.66108   -1621.0297     486.9732    199.51201    15.504315    38174.007 
  503300    294.50091   -1558.4548    486.64729    247.60296    4.6457395    38174.007 
  503400    291.50327   -1505.7489    499.99756    300.22925    145.93675    38174.007 
  503500    296.01909   -1581.3984    492.01768    236.83144    787.05578    38174.007 
  503600    301.42895   -1586.5713    494.45141    258.32924    487.38637    38174.007 
  503700    296.79123   -1540.5982    505.51833    294.59162    342.98745    38174.007 
  503800    293.24045   -1552.3608    507.78108    269.18365    361.88905    38174.007 
  503900    293.58904   -1527.2304    483.65968    271.75439    338.85834    38174.007 
  504000    303.96992   -1520.1799    506.77571    348.42889    496.06604    38174.007 
  504100    285.83939   -1554.1946    487.06144    213.47232    585.33771    38174.007 
  504200    287.24347   -1539.8207    509.74099    256.81627     -182.429    38174.007 
  504300    291.38134   -1518.6057    485.40471    272.23334    120.54012    38174.007 
  504400    305.71272   -1481.8823    478.77518    366.53399    113.58742    38174.007 
  504500    301.54386   -1528.3165    462.67904    285.32653     211.6729    38174.007 
  504600    305.32891   -1517.0249    516.10983     367.0065   -176.54562    38174.007 
  504700    291.91449   -1507.7458    521.85726    321.93432   -255.06178    38174.007 
  504800    302.39219   -1513.7494     483.7585    324.77375   -1249.1826    38174.007 
  504900    291.40843   -1525.6628    501.00747    280.90031   -667.84732    38174.007 
  505000    296.16702   -1573.3911    481.68939    235.17315   -294.44917    38174.007 
  505100    295.49363   -1516.0441    506.42418    314.23809   -586.58167    38174.007 
  505200    288.59567   -1514.1761    480.29687     259.0748   -684.84076    38174.007 
  505300    302.46604   -1520.1685    490.10608    325.03308   -264.09424    38174.007 
  505400    308.00141   -1573.0113    479.80493    286.68843    314.01033    38174.007 
  505500    291.41488   -1505.1943    481.08734     281.4776    717.05907    38174.007 
  505600    304.16512    -1515.827    516.54547     363.4261   -252.28785    38174.007 
  505700    292.19515   -1527.9632    504.12745    285.24449  -0.47844217    38174.007 
  505800    300.19543   -1526.5929    465.11215    283.44203   -356.16841    38174.007 
  505900    301.00877   -1557.3565    506.14153    297.35173   -94.827759    38174.007 
  506000    312.95403   -1532.3514    463.46609    333.19805   -344.17921    38174.007 
  506100    296.47651   -1552.8245    499.92096     275.3579   -428.68583    38174.007 
  506200    298.54404   -1541.6553    513.83301    309.70204   -813.31156    38174.007 
  506300    302.75549   -1517.4178    487.05135    326.02578   -157.10742    38174.007 
  506400    307.93889    -1494.117     506.3364    391.83409    130.56503    38174.007 
  506500    288.91485   -1501.9362    478.40187    270.84972   -322.12284    38174.007 
  506600    307.63431   -1542.7494    493.05706    328.55783    417.00619    38174.007 
  506700     303.1446   -1537.3086    475.08762    295.91454    80.890164    38174.007 
  506800    302.80538   -1538.5862     509.9436     327.9732    616.97331    38174.007 
  506900    298.15493    -1541.404    451.06933    245.44636      546.751    38174.007 
  507000    304.59415   -1541.6443    504.14601    327.13148    260.50611    38174.007 
  507100     296.0513   -1529.2928    487.75335    284.81702   -167.90906    38174.007 
  507200    301.52224   -1496.6016    464.87928    319.14477    374.07826    38174.007 
  507300    302.85063   -1555.2011    487.69274    289.31019    755.50886    38174.007 
  507400    302.74076   -1582.8757    501.82153    275.27211    436.40053    38174.007 
  507500    295.47563    -1549.178    486.94802    261.54738    350.58512    38174.007 
  507600    312.14499   -1572.2495    466.87628    293.08546    334.41866    38174.007 
  507700    299.09364   -1518.8786    473.07992    294.18791   -94.467531    38174.007 
  507800    297.88745   -1530.9382    468.89791    272.54241   -166.67354    38174.007 
  507900    279.98107   -1501.3761    504.78294    257.76614    22.442925    38174.007 
  508000     303.8081   -1515.9129    505.90197    351.09718     887.5899    38174.007 
  508100    309.75008   -1488.6758    495.34836    394.40167    436.80052    38174.007 
  508200    309.47793   -1503.7914    478.73493    361.45336   -146.08245    38174.007 
  508300    312.49134   -1518.7634    486.19423    367.44124   -280.57208    38174.007 
  508400    300.39752   -1508.1877    468.11546    305.75595   -150.27478    38174.007 
  508500    311.71294   -1498.3959    515.09278    413.21997   -804.80731    38174.007 
  508600    292.86065   -1502.6075    492.94692    302.40132   -620.82228    38174.007 
  508700    294.85573    -1489.972    484.72224    315.75041   -753.44635    38174.007 
  508800    287.61754   -1514.5372    472.42078    246.45547   -1103.3808    38174.007 
  508900    306.84829   -1508.5592    489.00197    355.17147   -742.08078    38174.007 
  509000    302.99106   -1496.3659    491.31389    352.39568    129.77302    38174.007 
  509100     298.7472    -1523.844    475.92297    290.51344   -404.23464    38174.007 
  509200    306.17162   -1525.3025    463.46312    309.85769    59.410721    38174.007 
  509300    300.84694    -1530.552    479.11826    296.40797     156.1038    38174.007 
  509400    302.05488   -1525.1299    496.76381    324.88733    421.85327    38174.007 
  509500    298.67462   -1502.4021    493.15595    328.86315    345.99154    38174.007 
  509600    298.03199   -1514.0285    475.05116     296.2529   -248.06562    38174.007 
  509700    297.88611   -1503.8117    490.92144    321.68646    164.33361    38174.007 
  509800    301.23789   -1502.2733     499.2601    346.58002    69.437678    38174.007 
  509900    297.48259    -1512.012    487.91344    308.67034    82.070938    38174.007 
  510000    301.03191   -1563.3464    455.63215    240.95617   -153.47728    38174.007 
  510100    295.82059   -1538.4662    475.76307     262.6197   -674.26539    38174.007 
  510200    293.77658   -1560.0103    491.27198    247.42698   -106.87858    38174.007 
  510300    300.41314   -1536.4893     475.9865    285.39545   -366.55717    38174.007 
  510400    291.89262   -1488.5717    489.62127     308.7745   -110.43748    38174.007 
  510500    306.14618   -1485.3144    492.50917    378.77786   -306.41098    38174.007 
  510600    289.54498    -1502.052    478.00453    273.15967    351.04032    38174.007 
  510700    304.53773   -1526.7286     476.3094    313.95783    705.08334    38174.007 
  510800    312.15311   -1528.9139    464.85598    334.43722    577.62396    38174.007 
  510900    307.47433   -1514.4739    497.74196    360.80145    650.94424    38174.007 
  511000    305.16985   -1499.3819    504.24229    372.06943    760.06198    38174.007 
  511100    293.43301    -1479.516     465.6425    300.75261    224.36108    38174.007 
  511200     303.2189   -1496.9429    513.28121    374.80671    161.25045    38174.007 
  511300    306.17241    -1458.445    515.84801    429.10368    72.025916    38174.007 
  511400    301.75627   -1482.0436    479.62078    349.49283    20.210772    38174.007 
  511500    289.28374   -1522.4587     467.1901    240.76809   -406.38642    38174.007 
  511600    300.23324    -1525.113    468.61998    288.59915    348.83404    38174.007 
  511700    296.30544   -1504.2798    497.08188    320.29715   -202.89693    38174.007 
  511800    289.69992   -1544.1072    458.64151    212.43559   -381.85856    38174.007 
  511900    290.65167   -1518.9827    469.92547    253.10799   -645.89262    38174.007 
  512000    305.24659   -1469.1503    501.67991    400.08235    -223.3254    38174.007 
  512100    303.00555    -1525.812    476.26982    307.97035   -663.76878    38174.007 
  512200    300.87747   -1539.4156     476.4199    284.98278   -567.63218    38174.007 
  512300    298.86408   -1509.7477      483.322    312.53242   -333.03241    38174.007 
  512400    312.57211   -1508.6285    465.03321    356.77699   -294.15379    38174.007 
  512500    293.31086   -1546.9281    481.08259    248.23336   -463.31461    38174.007 
  512600    302.73462   -1537.6972    465.26955    283.87115   -506.89065    38174.007 
  512700    296.63374   -1531.4323    457.15545    254.68898   -831.14338    38174.007 
  512800     299.5291   -1571.7828     490.2186    260.37338   -633.24425    38174.007 
  512900    296.32422   -1542.7131    465.81364    250.67967    224.22807    38174.007 
  513000    311.22498   -1560.5631    483.70382    317.47768   -388.45316    38174.007 
  513100    309.96658    -1551.571    467.25456    304.38265    246.61342    38174.007 
  513200    304.62852   -1602.5187    481.80752    244.07258    308.21444    38174.007 
  513300    293.60426   -1556.0008    492.81746       252.21    363.28403    38174.007 
  513400    297.42756   -1576.7109    493.80996    249.62131     161.8456    38174.007 
  513500    307.65774   -1524.8624    488.94769    342.44048   -255.74751    38174.007 
  513600    308.62668   -1586.8671    467.76565     263.5947   -52.388834    38174.007 
  513700    303.56405   -1625.2235    472.28629    207.07752    167.14286    38174.007 
  513800    300.68295   -1636.4899    479.58391    190.20102    35.386864    38174.007 
  513900    293.89975   -1585.8923     475.6598    206.48467    208.90145    38174.007 
  514000    297.69304   -1586.4952    496.58218    243.79864    482.28168    38174.007 
  514100    300.52814   -1579.1551    442.63626    209.89461    470.84899    38174.007 
  514200     302.3481   -1563.7293    486.00481    276.84258    668.70056    38174.007 
  514300    297.35057   -1563.6302    486.58215    255.12932    552.99013    38174.007 
  514400    311.18164   -1514.5642    476.79151     356.3701    726.32044    38174.007 
  514500    292.62524    -1570.057    498.79669    239.74682    239.15047    38174.007 
  514600    292.14095   -1558.6401    511.17577    261.37314    302.61016    38174.007 
  514700    299.35351   -1569.2922    491.56998    263.42862    447.07846    38174.007 
  514800    304.96562   -1618.2869    477.70367     225.7108    184.46959    38174.007 
  514900    294.08224   -1590.9318    462.58146    189.18439   -260.36023    38174.007 
  515000    303.92709   -1599.3876    474.28037    236.53399    51.487809    38174.007 
  515100    307.11242   -1595.5453    486.99019    267.35691    192.49617    38174.007 
  515200    311.35562   -1571.4012     473.4365    296.95753    558.24485    38174.007 
  515300     300.6089   -1620.3016    490.41212    216.88572    391.89751    38174.007 
  515400    302.98515    -1581.882    489.15191    264.69116    462.51195    38174.007 
  515500    301.18808   -1587.1593     472.9889    235.19967   -7.8913627    38174.007 
  515600    286.10602   -1549.2188     477.9815    210.56278    -268.6132    38174.007 
  515700    300.15805   -1585.8156    488.27311    247.21286   -584.97211    38174.007 
  515800    294.00434   -1567.9412    489.51474    238.75923   -311.34051    38174.007 
  515900    294.89709   -1569.6136      483.824    235.39581    187.68783    38174.007 
  516000    304.90711   -1548.5415    483.38512    300.87553    110.87874    38174.007 
  516100    289.40248   -1527.1466    510.20963     279.6317    128.92348    38174.007 
  516200     297.3643    -1543.271    485.41349    274.38141   -411.86198    38174.007 
  516300    308.73227   -1536.6011    501.91553    348.48364   -268.97463    38174.007 
  516400    282.50832   -1544.8223    469.11265    189.97218    -644.2428    38174.007 
  516500    294.72271   -1553.9506    483.73634    250.18993   -290.21843    38174.007 
  516600    300.55588   -1530.7986    481.78725    297.52631   -429.90275    38174.007 
  516700    301.64133   -1585.3918    476.42321    242.43203   -336.93354    38174.007 
  516800    296.75288   -1579.3383    476.36554    226.52692    6.6905139    38174.007 
  516900    305.34223   -1528.1469    486.59582    326.43018   -246.71084    38174.007 
  517000    298.95853   -1560.8127     475.5876    254.15625   -831.29492    38174.007 
  517100     299.8354   -1571.0492    497.60809    269.86871   -533.36754    38174.007 
  517200    298.48913   -1553.8212    492.60352    276.06058   -488.22618    38174.007 
  517300    301.10062   -1537.3434    465.04605    276.68087   -86.820105    38174.007 
  517400    317.57926   -1546.5554    491.75856    368.00822   -299.60054    38174.007 
  517500    296.50233    -1546.212    468.74999    250.91511    5.5108243    38174.007 
  517600    291.26231   -1575.6252    484.81091    214.08679    51.997214    38174.007 
  517700    305.20869   -1533.0555    485.49273     319.8202    350.64018    38174.007 
  517800      302.783   -1522.1377    495.70019      330.078   -127.02637    38174.007 
  517900    286.76483   -1558.7596    479.12672    205.11873   -570.44748    38174.007 
  518000    305.17944   -1578.1835    492.85804    281.92653   -539.35013    38174.007 
  518100    302.81755    -1583.437    496.53025    269.76354   -120.20112    38174.007 
  518200     299.0076   -1537.1448    473.34763    275.80397    85.744713    38174.007 
  518300    303.31445   -1507.1329     508.8904    360.65406   -90.798189    38174.007 
  518400    301.90591   -1526.1461    466.41995    292.85992   -166.14197    38174.007 
  518500    297.42476   -1548.8234    502.10864      285.795     121.5277    38174.007 
  518600    291.30699   -1518.0234    489.90986     276.9877    197.73357    38174.007 
  518700    293.19716   -1525.0024    540.12853    328.69562    463.41446    38174.007 
  518800    297.33781   -1570.9582    465.82621    226.98819    278.23174    38174.007 
  518900    297.53147   -1545.6766    504.78137    292.09259    18.815002    38174.007 
  519000    297.13023   -1580.5071    451.34003    202.02313    -346.0524    38174.007 
  519100    306.86467   -1511.7199    471.51967    334.60189    -214.5035    38174.007 
  519200    298.74173   -1536.2807    494.63546    296.76478   -459.66835    38174.007 
  519300    294.81472   -1494.7489    477.48957    303.55704    83.421159    38174.007 
  519400    304.03573   -1514.5799    498.84503    346.39312   -514.72277    38174.007 
  519500    296.04853   -1534.6408    470.73712    262.44035   -638.02515    38174.007 
  519600    293.32902   -1539.7206    478.00189     252.4415   -406.24574    38174.007 
  519700    294.15663   -1521.2356    473.40287    270.03534   -541.72267    38174.007 
  519800    299.70938   -1522.9697     482.0293    301.80481   -460.53124    38174.007 
  519900     292.2816   -1519.0608    458.99102    249.39779   -181.56286    38174.007 
  520000     290.1759   -1516.1689    491.07435    274.93926   -479.16369    38174.007 
  520100    299.50691   -1539.2957    489.04401    291.58643   -47.562428    38174.007 
  520200     307.4791   -1512.8875    458.03239    322.69965   -205.09695    38174.007 
  520300    297.28218   -1558.5016    464.38559    237.75502   -597.13774    38174.007 
  520400    301.29855   -1512.5331    459.74742    297.07927   -350.07283    38174.007 
  520500    302.12978   -1535.6975    478.11348    296.00496    134.47975    38174.007 
  520600    293.00409   -1578.8544    481.07583    214.92588    77.686042    38174.007 
  520700    302.26238    -1554.876    491.22656    290.53368    468.64145    38174.007 
  520800     293.8184   -1532.0173    486.89702    271.23242    198.13819    38174.007 
  520900    295.14927    -1564.014    446.67398    204.97517    121.09341    38174.007 
  521000    302.17817   -1545.6554    477.48435    285.63474    485.25777    38174.007 
  521100    303.62537   -1518.5273    500.97719    342.73939    165.62618    38174.007 
  521200    296.53896   -1527.6515    492.67127    293.56097   -212.99068    38174.007 
  521300    291.28866   -1566.5807    492.11641    230.55485    175.02591    38174.007 
  521400    303.14969   -1582.2972    468.32673    244.18794   -11.538033    38174.007 
  521500    295.37382   -1600.8472    499.09921    221.57322    263.87981    38174.007 
  521600    297.66296   -1585.6503    493.05912    240.98576   -122.19113    38174.007 
  521700    296.09179   -1551.5546    472.09224    247.07555    -224.9251    38174.007 
  521800    281.27993   -1558.9282    494.77546    196.02561   -5.8924547    38174.007 
  521900    296.47838   -1563.6593    498.25344    262.86398    648.98148    38174.007 
  522000    302.24545   -1528.3539    478.54062    304.29391    548.51288    38174.007 
  522100    290.46476   -1597.2237    480.23302    184.33723    611.55199    38174.007 
  522200    297.52239   -1557.6242    505.62218    280.94516    637.37758    38174.007 
  522300    300.80694   -1524.0548    516.90366    340.51133    505.42899    38174.007 
  522400    307.51716   -1534.8406    471.42828    314.31298    536.78931    38174.007 
  522500    294.42406   -1559.9158    502.89966    262.04999   -60.297392    38174.007 
  522600    303.86101    -1566.347    481.93565    276.93382   -88.554459    38174.007 
  522700    303.78011   -1576.7537    463.41085    247.63986   -141.73727    38174.007 
  522800    302.32314   -1571.3918     476.0451    259.10863    -483.9248    38174.007 
  522900     307.0411   -1583.0363    485.61521    278.17139   -525.08323    38174.007 
  523000    297.27529   -1551.2055    468.50314    249.13777   -541.28592    38174.007 
  523100    295.08301   -1555.3149    492.49396    259.19746   -626.46478    38174.007 
  523200    307.55598   -1572.5901    463.17256    268.48168   -165.61713    38174.007 
  523300    296.32414    -1568.845    487.17078    245.90458    248.85599    38174.007 
  523400    302.92661   -1540.2685    505.80968    322.70015    501.42514    38174.007 
  523500    308.58163   -1542.4208    471.54187    311.61537    366.98787    38174.007 
  523600    306.22372   -1554.1683     494.6541     312.4163    1081.2962    38174.007 
  523700    309.91832   -1578.2251      478.694    288.95177    297.62398    38174.007 
  523800    300.57316   -1524.3193    480.50047     302.7963    28.211307    38174.007 
  523900    296.87544   -1553.4875    482.57573    259.13699    14.645576    38174.007 
  524000    295.67517   -1545.6142     494.3535    273.41059    -224.8389    38174.007 
  524100    302.69208   -1519.7161    497.16586    333.55797   -64.966537    38174.007 
  524200    306.53941   -1533.5815    489.90288    329.66622   -500.83555    38174.007 
  524300    301.45116    -1511.301    457.30863    296.55633     131.3354    38174.007 
  524400    305.42059    -1526.229     495.0303    337.13363   -193.01966    38174.007 
  524500    298.66099   -1553.2348    463.55201    248.36549    -135.2396    38174.007 
  524600    304.22048   -1504.7084    484.39618    342.64345   -290.96508    38174.007 
  524700    291.94314   -1564.1547    477.16955    220.96614    1.3136433    38174.007 
  524800    296.72286   -1517.1938    488.36669     300.5381    41.831869    38174.007 
  524900    294.16187   -1584.9763    506.95978    239.87496    204.69581    38174.007 
  525000    296.22872   -1551.6094    478.24988    253.79185    319.92639    38174.007 
  525100    300.82203   -1536.3401    490.47417    301.86415    767.43112    38174.007 
  525200    292.88409   -1505.6458    461.32285    267.84386    690.49544    38174.007 
  525300     313.1165   -1549.4195    470.09564     323.4874    796.41145    38174.007 
  525400    303.16224   -1544.6278    475.95851    289.54529    417.08686    38174.007 
  525500    297.91778    -1509.645     484.4475    309.52106   -130.89633    38174.007 
  525600    294.33728   -1514.9946     442.8478    246.53061   -479.96625    38174.007 
  525700    307.10499   -1525.0482    467.80017    318.63068   -397.41729    38174.007 
  525800    297.61943   -1520.2843    506.93325    320.03086    122.99556    38174.007 
  525900    294.05052   -1512.4076    470.35164    275.33668    127.78516    38174.007 
  526000    299.11158   -1540.8626    519.12053    318.32486    632.45995    38174.007 
  526100     290.8295   -1529.2421    483.29535    257.01519    644.77781    38174.007 
  526200     283.9455   -1522.3122    524.55108    274.35944    216.30222    38174.007 
  526300    303.29301   -1529.5541    472.23804    301.48436   -23.829941    38174.007 
  526400    303.09012   -1543.7336    466.65755    280.81538    280.08795    38174.007 
  526500    304.45143   -1544.6397    483.63889    302.98959    22.349311    38174.007 
  526600    299.33756   -1561.9497    490.08659    269.21633     306.1988    38174.007 
  526700    291.06075   -1537.1835     516.1158    282.93033      415.766    38174.007 
  526800    301.97682   -1529.2012    459.95846    283.66094    464.63681    38174.007 
  526900    293.73462    -1531.474    474.88022    259.38357   -43.322921    38174.007 
  527000     287.9455   -1527.9395    478.99561    241.09734   -505.19993    38174.007 
  527100    288.91714   -1525.6282    460.48325    229.24929    28.710435    38174.007 
  527200    295.30183   -1516.3084    477.86927    284.55965    699.38057    38174.007 
  527300      303.292   -1483.3989    486.31721    361.71429   -152.12458    38174.007 
  527400    288.79176   -1517.9505    480.95093    256.83301   -504.72465    38174.007 
  527500    306.52202    -1496.062     475.1927    352.39765   -415.70194    38174.007 
  527600    306.83611   -1520.7756     449.6571    303.55563   -330.05467    38174.007 
  527700    308.11948    -1486.332     502.1689    396.26071   -556.11594    38174.007 
  527800    295.46816    -1485.058    472.65622    311.34216   -840.43547    38174.007 
  527900    293.18404   -1517.5781    474.43867    270.37126   -487.86579    38174.007 
  528000    300.12926   -1479.5053    473.77243    338.89346   -293.87458    38174.007 
  528100    293.63783   -1523.1406     498.2193    290.62242   -315.37683    38174.007 
  528200    303.28117   -1522.2632    492.16521     328.6494   -414.39602    38174.007 
  528300    290.70838   -1560.1321    486.36993     228.6572   -804.52991    38174.007 
  528400    308.66105   -1492.1237    492.52624    383.25267   -211.67567    38174.007 
  528500    298.39714   -1496.9545    475.41229    315.32396   -358.91064    38174.007 
  528600    297.31086   -1500.7684     495.2794    326.51047    141.77158    38174.007 
  528700    297.24425   -1563.6789    470.95335     238.9755    389.57857    38174.007 
  528800    296.75596   -1562.0546    485.99265    253.45145    585.65233    38174.007 
  528900    288.15825   -1522.8434    489.00669    257.15759    794.62757    38174.007 
  529000    303.97744    -1497.612     466.8118    331.06665    275.08414    38174.007 
  529100    307.99021   -1505.2275    492.59188    367.20904   -608.06108    38174.007 
  529200    292.15935    -1516.812    472.08126     264.1892   -166.13231    38174.007 
  529300    302.46502   -1485.2496    482.85744    352.69877   -583.39606    38174.007 
  529400    311.25697   -1445.7207    466.08432    414.84383   -1287.4838    38174.007 
  529500    305.80982   -1482.9649    487.06653    374.17774   -1288.4273    38174.007 
  529600    297.82142   -1527.1568    482.98883    290.11887   -1081.4565    38174.007 
  529700    295.22514   -1502.6057     499.5899    319.63934   -460.04419    38174.007 
  529800    291.62823   -1547.1075     490.9238    250.35667   -681.94669    38174.007 
  529900    292.47506   -1505.5089    471.86591    276.69134    92.722351    38174.007 
  530000    302.71532   -1492.2294    493.10954    357.09247    192.20126    38174.007 
  530100    305.93157   -1533.0774    471.74086    309.28507    540.98397    38174.007 
  530200    303.70492   -1482.8735    446.69568    324.46803    307.63253    38174.007 
  530300    306.26442   -1517.8806    490.37394    344.60622    106.64551    38174.007 
  530400    298.88905   -1549.1846    450.44238    240.32777    198.80442    38174.007 
  530500    288.09458   -1552.2529    495.09375    233.54996    47.874049    38174.007 
  530600    296.35436   -1536.5592     489.4762     280.6312    207.05706    38174.007 
  530700    303.85951   -1505.0712    479.54133    335.80861    87.078931    38174.007 
  530800    286.58799   -1514.2779    468.95152    238.63293    3.7227296    38174.007 
  530900     293.5861   -1463.4987    504.50976    356.32301   -215.72463    38174.007 
  531000    288.10285   -1456.0487    479.55411    314.25154    355.15669    38174.007 
  531100    314.07774   -1464.0635    472.78895    415.84318    67.921183    38174.007 
  531200    297.82353   -1477.2201    482.53107    339.60731    625.78536    38174.007 
  531300    304.43511   -1481.2396    467.68838    350.36606    856.07215    38174.007 
  531400    295.98918   -1464.4507    496.33942    357.96687    635.88666    38174.007 
  531500      299.088   -1431.4129    495.35132    403.89978    157.36764    38174.007 
  531600    300.64071   -1458.9994    477.60575    365.52411   -396.95973    38174.007 
  531700    297.56917   -1487.7351    464.98521    310.40681    142.01852    38174.007 
  531800    300.45033   -1494.5646    478.70258    330.20281    447.08606    38174.007 
  531900    301.05689   -1459.5035    493.55854    382.83734    267.37952    38174.007 
  532000    297.33865   -1458.4861     483.0025     356.6404     284.8277    38174.007 
  532100    299.10882   -1529.9135    479.17353    289.31465    302.94999    38174.007 
  532200    300.86729   -1514.6438    463.81225    297.10127    238.89866    38174.007 
  532300    289.18442    -1481.249    505.02952    319.37223   -99.598642    38174.007 
  532400    285.91962    -1517.003    489.86034    253.82226   -54.893894    38174.007 
  532500    299.53458   -1488.1195    466.58936    320.43202   -163.68362    38174.007 
  532600    305.83275   -1502.4531    518.30124    386.02709   -10.119915    38174.007 
  532700    305.06346   -1508.1054    445.50887    304.13583     179.1807    38174.007 
  532800    301.78765   -1517.8179    472.74833    306.98662    299.62661    38174.007 
  532900     291.3703   -1508.3762     475.4394    272.44801   -280.69239    38174.007 
  533000    292.28581   -1552.1843    458.30793     215.6101   -581.28322    38174.007 
  533100    306.80019   -1560.4782    474.20628    288.24127    326.67219    38174.007 
  533200    314.90399   -1523.0615    499.58663    387.34455    269.28569    38174.007 
  533300    300.37939   -1499.6922    471.40821    317.46303   -519.87145    38174.007 
  533400    307.89998   -1510.5219    461.08522    330.00368   -190.81202    38174.007 
  533500    300.54004   -1516.1298    472.67602    303.01295   -153.83397    38174.007 
  533600    301.14898    -1502.125      480.368    327.43792    27.098293    38174.007 
  533700    291.08997   -1532.3164    472.86056    244.67312    298.30777    38174.007 
  533800    300.48063   -1515.8224    474.32095    304.69905   -404.08733    38174.007 
  533900    300.64623   -1488.6092    504.39016    362.72345    95.605771    38174.007 
  534000    300.17808   -1507.2639    455.38971    292.97091   -252.02925    38174.007 
  534100    288.63619   -1517.1792    490.19238    266.14881   -808.27036    38174.007 
  534200    288.40151   -1514.6807    495.50612    272.90958    -109.8762    38174.007 
  534300    302.91066   -1513.6127    480.99805    324.47276   -387.13794    38174.007 
  534400    303.86322   -1504.1172     460.5489    317.78679   -263.65023    38174.007 
  534500    303.46653   -1482.2557    489.75957    367.08175    184.71532    38174.007 
  534600    298.70337   -1508.7165    488.20845    317.73011     82.60566    38174.007 
  534700     294.6488    -1531.037    477.93188    266.96786    343.62951    38174.007 
  534800    307.21382    -1519.321    454.47166    311.51698     285.3641    38174.007 
  534900    297.86696   -1531.9347    497.22757    299.78378    389.49063    38174.007 
  535000    288.45083   -1493.8424    464.74613    263.20889   -749.52212    38174.007 
  535100    292.84073    -1479.925    475.84468    307.89225   -720.21857    38174.007 
  535200    299.55837    -1515.734    488.05038    314.38506     318.0769    38174.007 
  535300     298.5523   -1535.5615    479.96991    281.96971   -385.20863    38174.007 
  535400    298.22283   -1521.5044    461.74127    276.32215   -402.74903    38174.007 
  535500    308.55239   -1534.2529    463.40002    311.51048   -38.012912    38174.007 
  535600    307.09317   -1536.9482    458.85146    297.72899   -199.22783    38174.007 
  535700    309.95291   -1540.1146    482.60138    331.12467   -759.55714    38174.007 
  535800    307.02912   -1597.4193    447.04963    225.16912   -1130.8309    38174.007 
  535900    295.34788   -1525.7874    507.55774    304.97539   -1077.2564    38174.007 
  536000    298.11456   -1564.3225    483.01346    254.29115   -453.48297    38174.007 
  536100    302.89928   -1562.8758    475.75559    269.91624   -157.60779    38174.007 
  536200    299.11802   -1526.4838    489.96675    303.57879    106.32203    38174.007 
  536300    299.23851   -1549.7746    460.30913    251.17019    354.21223    38174.007 
  536400    299.44719   -1585.1569    472.80753    229.22121   -143.42965    38174.007 
  536500    307.40133   -1521.1445    493.38913    349.45104    20.774985    38174.007 
  536600    293.22458   -1514.3705    454.90347    254.22522   -517.85893    38174.007 
  536700    300.52958   -1505.1769    499.72854     340.9715   -113.15299    38174.007 
  536800    299.68501   -1510.0443    487.29807    319.88979    93.127148    38174.007 
  536900     294.6255   -1496.0663    482.21271      306.115    12.777469    38174.007 
  537000    305.67478   -1522.0115    474.11999    321.57969    470.50586    38174.007 
  537100    290.16607   -1488.4601    469.11731    280.64695   -11.836488    38174.007 
  537200    299.53994   -1452.4061    506.24546    395.82543   -320.18834    38174.007 
  537300    295.34036   -1505.3531    507.94462    325.76284   -534.95767    38174.007 
  537400     297.5199   -1490.7909      468.638    310.78316   -759.73471    38174.007 
  537500    304.54983   -1497.2274    483.00555    350.20936   -522.64284    38174.007 
  537600    299.19446   -1492.9294    487.08894    334.59787   -61.889865    38174.007 
  537700    304.95055   -1519.1204     461.4865    308.59253   -67.606772    38174.007 
  537800    297.22532   -1501.8175    484.95357    314.75231   -289.95871    38174.007 
  537900    311.74147   -1496.0352    470.43344    371.04911    125.96069    38174.007 
  538000    306.02371   -1533.6429    471.81724    309.20871    61.072125    38174.007 
  538100    286.77331   -1500.1433    480.45438    265.10069      163.813    38174.007 
  538200    309.38341   -1511.4625    480.32519    354.94912    290.70311    38174.007 
  538300    305.40656   -1521.5691    500.49461    347.19499    314.95331    38174.007 
  538400    301.00455   -1475.4276    469.83172    342.95188    112.33265    38174.007 
  538500    303.59719   -1506.6894    509.96765     363.4415    288.12433    38174.007 
  538600     291.3778   -1493.4302    501.03299    313.02125   -45.868233    38174.007 
  538700    309.82537   -1473.4747    482.19805    396.78982   -306.22905    38174.007 
  538800    301.63459   -1477.8436    467.81703    341.34388   -301.04616    38174.007 
  538900    301.46169   -1442.7132    520.49767    428.38033   -231.69326    38174.007 
  539000    307.62995   -1445.2908    487.54312    420.48293     -70.4415    38174.007 
  539100    305.19678   -1440.8986    506.80771    433.23872   -217.97978    38174.007 
  539200    304.30863    -1528.509    481.91054     316.7521   -660.51874    38174.007 
  539300      294.121   -1542.3132    471.66291    247.05809    78.677384    38174.007 
  539400    298.65973   -1518.0588    474.27932    294.26311    462.01338    38174.007 
  539500    308.21336   -1545.0397    456.06189    291.86666    659.09188    38174.007 
  539600    304.51085   -1575.9145    455.84357    244.18565    255.08976    38174.007 
  539700     311.9005   -1543.5107    470.60017    324.45279    47.216413    38174.007 
  539800    292.45459   -1519.5607    492.16826    282.85016   -58.417408    38174.007 
  539900    308.40413   -1548.9233    451.03145    283.80722   -413.48061    38174.007 
  540000    302.50089   -1507.3738    461.59478    309.47264   -443.09256    38174.007 
  540100    306.77229   -1522.1818     452.4093    304.61563   -429.62172    38174.007 
  540200    306.74234   -1522.2896    479.01793    330.98232   -379.02219    38174.007 
  540300    296.74402   -1513.5051    473.49181    289.44668   -399.21411    38174.007 
  540400    310.21563   -1487.3378    459.27184    361.74893   -397.54288    38174.007 
  540500    302.27532   -1509.5367    462.42065    307.12501   -449.99306    38174.007 
  540600    300.08801   -1566.8093    469.13563    246.76789    88.809681    38174.007 
  540700    305.79637   -1544.7037    473.10468    298.41684    207.37321    38174.007 
  540800    302.14418   -1550.1418    470.12875    273.64048   -265.72164    38174.007 
  540900    301.24402   -1509.9286    483.98714    323.67921   -660.53008    38174.007 
  541000    292.96001   -1536.2811    469.46938    245.69527   -811.87524    38174.007 
  541100    300.85241   -1521.9869    477.61716     303.4964   -263.94928    38174.007 
  541200    296.81267   -1512.3714    462.08076    279.47686   -244.01004    38174.007 
  541300    294.39341   -1541.0809    455.69804      233.546    139.79645    38174.007 
  541400    296.46306   -1542.3601    470.51732    256.35838    -322.5472    38174.007 
  541500    292.61081   -1549.7325     472.6527    233.86274    297.37517    38174.007 
  541600     312.2809   -1545.7423    511.65835    364.98367   -143.03626    38174.007 
  541700    297.26537   -1559.0627    462.78254    235.51556   -91.173851    38174.007 
  541800    303.10934   -1550.5317    468.92509    276.37096    217.06183    38174.007 
  541900    296.16263   -1564.7127    455.76488    217.90742    281.82756    38174.007 
  542000    306.24008   -1550.8021    495.07384    316.27555    633.87304    38174.007 
  542100     298.1853    -1527.081     486.4722    295.30826    235.90771    38174.007 
  542200    287.27661   -1540.8161    493.20621    239.43459   -35.114758    38174.007 
  542300    300.21163   -1581.4013    465.46256    229.05662   -57.375268    38174.007 
  542400    310.59034   -1562.3504    458.98178    288.12501   -428.03222    38174.007 
  542500    302.91393   -1557.1734    467.68861    267.61737   -589.77487    38174.007 
  542600    296.02191   -1582.9046    463.40654    206.72672   -207.55278    38174.007 
  542700    302.23599   -1598.3575    463.29904    219.00641   -176.16647    38174.007 
  542800    290.79015   -1579.3995    499.39825    222.78441    152.94155    38174.007 
  542900    305.65515   -1589.2419    490.52349    270.66477    279.75799    38174.007 
  543000    294.47602   -1553.0968    457.57311    223.77528    497.71475    38174.007 
  543100    308.01976   -1577.1466    469.16779     271.9982    333.42167    38174.007 
  543200    301.02079   -1544.3701    493.53829    297.78873    608.79298    38174.007 
  543300    307.22141   -1547.7214    480.96553    309.64445   -34.270755    38174.007 
  543400    302.06204   -1539.0254    472.38587    286.64596    50.708677    38174.007 
  543500    300.38457   -1561.7028    475.31417     259.3815   -491.90895    38174.007 
  543600    296.97195    -1579.705    466.19313    216.96921    -285.3225    38174.007 
  543700    298.89783   -1550.5465    477.85591     266.4187    -199.2879    38174.007 
  543800    298.79707   -1541.0111    460.96411    258.61091   -711.77991    38174.007 
  543900    308.96201   -1555.5627    488.65285    317.28859   -546.14795    38174.007 
  544000    295.61994   -1532.7967    474.05632    265.68347    40.475544    38174.007 
  544100    293.13153   -1551.2567    475.12367    237.14236   -453.33736    38174.007 
  544200    308.33279   -1563.0152    464.64847    283.01277   -247.63022    38174.007 
  544300    302.30245    -1537.892    454.88427    271.35485   -400.66206    38174.007 
  544400    299.59552   -1577.8828    471.21257    235.56491    127.51887    38174.007 
  544500    307.76566    -1543.639    497.99635    333.19598    -463.1676    38174.007 
  544600     298.3144   -1543.8551    470.16758    262.80793    -608.1547    38174.007 
  544700    310.27499   -1603.4607     432.1797    218.79982   -867.15364    38174.007 
  544800    308.10524    -1553.449    459.09276    286.00377   -694.56023    38174.007 
  544900    286.92852   -1538.0356    476.96664    224.41598   -1042.5585    38174.007 
  545000    296.69307     -1580.33    482.39446    231.29613   -865.31845    38174.007 
  545100    305.98414   -1550.6081    485.10378    305.35281   -82.905725    38174.007 
  545200    290.65412   -1574.6109    469.44869    197.01402    458.38757    38174.007 
  545300    298.62577   -1562.4737    478.85255    254.26932     70.54059    38174.007 
  545400    306.22192   -1535.5072    485.49958    321.91483    93.319386    38174.007 
  545500     294.1375   -1519.6192    485.88197    284.04509     -478.535    38174.007 
  545600    284.96296    -1494.054     490.0116    272.63659   -234.19988    38174.007 
  545700    296.09403   -1540.5546    491.85058    277.84389   -575.13952    38174.007 
  545800    298.24951   -1548.2971    456.04882     243.9565   -247.60996    38174.007 
  545900    304.71146   -1542.4779    463.37171    286.04909   -133.15861    38174.007 
  546000    296.08577   -1463.1712    518.73904    382.07872    299.36071    38174.007 
  546100    295.61609    -1511.727    475.14122    287.82091    304.77973    38174.007 
  546200    290.60227   -1497.2535    524.56628    329.25671    241.07484    38174.007 
  546300    306.36324   -1477.4785    492.82739     387.9045    292.90395    38174.007 
  546400    309.93776   -1488.8977    466.84416    366.51641   -116.16722    38174.007 
  546500    302.48275   -1504.7719    464.65241    315.05083    -290.3047    38174.007 
  546600    307.74988   -1545.9627    491.12115    323.92638   -2.7997458    38174.007 
  546700    308.76623   -1511.4479    466.07534    337.94874    38.922506    38174.007 
  546800    292.60852   -1521.7035    521.18551    310.41424   -174.63763    38174.007 
  546900    309.60754   -1510.1577    487.47917    364.41202    57.636604    38174.007 
  547000    305.17684   -1519.6965    475.03372    322.57752   -256.81214    38174.007 
  547100    298.91638   -1500.7612    487.71737    326.14866   -178.46449    38174.007 
  547200    291.15111   -1511.1023    479.11569    272.41624   -508.61611    38174.007 
  547300    302.80129   -1543.1424    478.83185    292.28695   -220.63729    38174.007 
  547400    310.74906   -1549.8336    467.84797    310.21912   -720.57613    38174.007 
  547500    305.50957   -1518.0904    481.45343    332.09403   -223.77437    38174.007 
  547600    308.79078   -1577.2384    452.44988    258.64278   -538.02419    38174.007 
  547700    303.96147   -1524.2824    474.21927    311.73211   -166.05818    38174.007 
  547800    292.01407   -1533.6646    480.31934    254.92372   -510.30961    38174.007 
  547900    299.39141   -1532.5772    491.12367    299.86709   -278.38548    38174.007 
  548000    310.26358   -1528.1205    474.91372    336.82295   -448.37569    38174.007 
  548100    308.71049   -1541.3182    481.00573    322.75919   -330.41691    38174.007 
  548200    300.86816   -1521.7485    462.78586    288.97408   -386.61711    38174.007 
  548300    300.86495   -1569.1079    448.53904    227.35349   -80.210955    38174.007 
  548400    305.16903   -1549.2316    486.49113    304.46482    -477.1504    38174.007 
  548500    289.20995   -1574.1931    478.38027    199.89327    307.21488    38174.007 
  548600    296.12015   -1567.9463    475.24538    233.96402   -305.66687    38174.007 
  548700    304.44157   -1565.8086    493.32242    291.46003   -435.80414    38174.007 
  548800    288.73553   -1571.6204    464.66104     186.6213   -568.97216    38174.007 
  548900     300.1017   -1585.8136    476.16439    234.85374   -749.18064    38174.007 
  549000    295.29166   -1579.8396    502.85579    245.96935   -964.65651    38174.007 
  549100    288.39369    -1566.275    480.96778    206.74199   -455.55657    38174.007 
  549200    311.62658   -1580.1772    481.42364    297.38257   -219.04395    38174.007 
  549300    295.51674   -1600.5845    464.42359    187.80065   -693.04727    38174.007 
  549400    301.20058   -1550.3494    496.60814    295.68475   -278.19375    38174.007 
  549500    297.07476   -1539.5836    481.66093    273.01907     176.3625    38174.007 
  549600    297.47074   -1597.1425    495.49727    231.07058    769.88923    38174.007 
  549700    304.14397   -1579.6749    481.32174    264.25978    396.23243    38174.007 
  549800     295.3568   -1577.0273     486.0306    232.24827    408.63733    38174.007 
  549900    302.10371   -1574.5934    473.22776     252.1066    345.34361    38174.007 
  550000    302.46715   -1583.3149    454.78112    226.56673   -109.27523    38174.007 
  550100     297.5783   -1565.4595    467.54049    235.27866   -2.7630782    38174.007 
  550200    295.68306   -1567.3646    502.97389    260.31595    38.356594    38174.007 
  550300    301.71825   -1540.0538    485.17128     296.8628    47.493415    38174.007 
  550400    293.43672    -1592.616    459.97406    182.00077   -83.597741    38174.007 
  550500    301.65794   -1579.4244      497.701    269.75166   -700.11199    38174.007 
  550600    298.46659   -1581.2491    472.20302    228.13128   -602.67604    38174.007 
  550700    293.65905   -1514.5057    466.22548    267.35863   -548.87535    38174.007 
  550800     305.5836   -1531.2881    522.83223    360.60679   -454.30659    38174.007 
  550900    286.34683   -1541.5214    485.79615    227.15366    207.55635    38174.007 
  551000    306.35219   -1524.9119    502.86684    350.46102     4.375331    38174.007 
  551100    301.51911    -1543.949     494.2577    301.16181     545.5017    38174.007 
  551200    308.63022   -1548.7639    511.43379    345.38194    606.51666    38174.007 
  551300     297.4398   -1562.1452    493.01486    263.44685    335.89945    38174.007 
  551400     295.9816    -1551.968      483.181    257.25719    166.81821    38174.007 
  551500    306.67615   -1586.0034    469.92774    257.88179    281.01507    38174.007 
  551600    298.51671   -1587.2554     478.0361    228.18262    570.49693    38174.007 
  551700    305.32757   -1595.5166    470.55615    242.95513    536.03027    38174.007 
  551800    292.65593   -1576.6919    494.80474    229.25747   -127.76005    38174.007 
  551900    297.72418   -1578.9951    454.38182    209.23798   -80.009261    38174.007 
  552000    297.63395   -1544.9653    497.20841    285.69005   -14.862225    38174.007 
  552100    303.21467   -1547.0337     492.3673    303.78314    308.10461    38174.007 
  552200    297.12985    -1539.441    476.39118    268.13867    329.14218    38174.007 
  552300        296.7    -1517.826    500.87699    312.31373   -227.94055    38174.007 
  552400     305.2843   -1551.9229    469.02345    284.82226    55.443563    38174.007 
  552500    303.51638   -1534.3799    488.65889    314.08019    -316.3065    38174.007 
  552600    295.52945   -1534.3991    453.08966    242.70906    54.312876    38174.007 
  552700     300.0498   -1582.1326    459.01019    221.14797   -512.51766    38174.007 
  552800    302.53367   -1552.0553    479.53327    282.87648   -67.003357    38174.007 
  552900    289.67253   -1557.8509    488.81739     228.7451    328.42172    38174.007 
  553000    295.23976   -1556.3802     462.9949     229.3353    174.94083    38174.007 
  553100    305.27596     -1596.68    493.19407    264.19849    308.60285    38174.007 
  553200    294.56858   -1560.0053    475.90718    235.61553    487.53785    38174.007 
  553300    298.24873   -1552.3987     487.2398    271.04239    677.12707    38174.007 
  553400    296.46916   -1581.2043     491.4108      238.435    451.84216    38174.007 
  553500    296.23656   -1610.7214    470.51266    186.97771   -42.229217    38174.007 
  553600    294.49829   -1619.3256    469.88909     169.9622    -52.77273    38174.007 
  553700    310.09611    -1591.165    460.46613    258.58049    -433.3517    38174.007 
  553800    308.72813   -1621.6733     463.5168     224.9941   -225.60964    38174.007 
  553900    301.43497   -1569.6536    475.92401    256.74653    388.54744    38174.007 
  554000    287.39216   -1598.3593    487.41746    176.62033    612.38959    38174.007 
  554100    301.22568   -1615.8446    489.88829    223.58219    814.10308    38174.007 
  554200    305.93899   -1588.6233    468.30452    250.33608    904.59826    38174.007 
  554300    305.95531   -1576.3659    475.51723    269.87932    447.58915    38174.007 
  554400    296.65265   -1583.0148    472.50537    218.54117     83.75985    38174.007 
  554500     302.2651   -1570.5061    480.64987    264.33905   -293.13727    38174.007 
  554600     309.1116   -1564.5446    504.66393    324.98792   -58.250733    38174.007 
  554700    299.56139   -1607.7185    479.77247    214.13617   -184.64151    38174.007 
  554800    292.63566   -1595.3673    479.36089     195.0474   -477.70825    38174.007 
  554900    297.82069   -1599.8233    493.77378    228.23407   -616.46893    38174.007 
  555000    299.03614   -1602.0276    468.89651    206.59793    296.56677    38174.007 
  555100    298.69316   -1616.9218    490.46874    211.73936     342.2349    38174.007 
  555200    293.06099   -1620.0603    460.02666    152.92575    144.99012    38174.007 
  555300    295.22559   -1606.7103    479.73222    195.67908    226.29023    38174.007 
  555400    309.93105   -1611.0198    474.38885    251.90897   -97.031745    38174.007 
  555500     306.8809   -1602.1877    458.74441    231.43146   -224.86461    38174.007 
  555600    296.71308   -1550.5658    470.89454    249.65009    218.06762    38174.007 
  555700     303.0301   -1557.1138    468.57199    269.08076    264.79666    38174.007 
  555800    296.41649   -1550.5173     515.5348    293.01009    436.26204    38174.007 
  555900    281.91137   -1537.3135    497.38329    223.07716    1.2456138    38174.007 
  556000    308.36768   -1545.2863    475.91994    312.16939     631.3874    38174.007 
  556100    312.16949   -1585.2149    479.24455    292.59807    632.06444    38174.007 
  556200    296.83913   -1531.9573    495.67754    293.60631    409.63003    38174.007 
  556300    300.35163   -1571.9019    469.38157    243.10228    802.89742    38174.007 
  556400    303.78139   -1540.5984    503.37083    323.76087    540.70926    38174.007 
  556500    298.63228   -1549.8164    486.32218     274.4254    555.41977    38174.007 
  556600    290.39829   -1543.8221    481.47523    238.68322    463.49248    38174.007 
  556700    309.08786   -1548.6936    492.50482    328.57353       295.19    38174.007 
  556800    293.38247   -1533.7605    505.32749    285.96663     203.4986    38174.007 
  556900    303.26864   -1525.8897    497.04036    329.84191    538.09556    38174.007 
  557000    298.16772   -1540.4164    506.32137     301.7433     196.7501    38174.007 
  557100    295.25138   -1523.2941    494.88919    294.36778    428.69693    38174.007 
  557200    310.90497   -1513.3444    516.23083    395.78966    927.61994    38174.007 
  557300    300.73076   -1480.1628    508.32022    375.47855   -9.0330207    38174.007 
  557400    292.38512   -1531.0952    524.98452    303.82077   -167.39025    38174.007 
  557500    298.06903   -1522.4069    495.75216    308.74149   -198.87671    38174.007 
  557600    300.18212   -1529.8303    481.23336    296.26623    287.34218    38174.007 
  557700    295.79215   -1522.5946    494.14833    296.74918     170.9948    38174.007 
  557800    313.11305   -1558.9618    497.55395    341.38799     283.5549    38174.007 
  557900    304.15502   -1549.9234    500.50535    313.24429    1029.9027    38174.007 
  558000    295.61211   -1543.1879    478.31372    259.51463    268.87617    38174.007 
  558100    293.44162   -1527.9705    505.41713    292.11136    582.91648    38174.007 
  558200    304.78234   -1549.5909    499.26178    315.14377   -30.626537    38174.007 
  558300    307.78485   -1557.0721     496.6513     318.5038    -54.03799    38174.007 
  558400    290.73185   -1563.9543    487.40566    225.97585   -73.077542    38174.007 
  558500      303.975        -1582     480.9782    260.83405   -142.13145    38174.007 
  558600    297.16877   -1586.0434    483.23949      228.559   -219.65481    38174.007 
  558700    294.99949   -1567.5188    484.84864    238.97407   -516.31605    38174.007 
  558800    295.80405   -1572.1251    476.79258    229.91621   -722.37038    38174.007 
  558900    292.95999   -1567.6359    518.34761    263.21854   -796.14215    38174.007 
  559000    306.09908   -1616.5224    488.42584    243.27553   -820.47959    38174.007 
  559100    294.30845   -1556.6002    506.87187    268.81991   -565.69359    38174.007 
  559200    294.82573   -1599.7976    510.72311    231.79123   -352.98186    38174.007 
  559300     295.7349   -1609.6091    464.82449    180.15435   -152.73689    38174.007 
  559400    298.66181   -1600.2564    494.36864     232.1642   -61.143571    38174.007 
  559500    302.49663   -1602.0955      489.298    242.43509    -166.7693    38174.007 
  559600    302.82412   -1605.2093    503.34323    254.83368    573.85481    38174.007 
  559700    302.97218   -1597.9541    486.92117    246.33014    334.12149    38174.007 
  559800    298.17219   -1602.3261     480.5695    214.10182   -119.70968    38174.007 
  559900    299.28968   -1638.2606    499.93714    202.54146    472.00907    38174.007 
  560000    299.21194   -1633.6672    469.81595    176.66532    174.42286    38174.007 
  560100    301.42851   -1637.6873    460.34645    173.10632    535.85962    38174.007 
  560200    297.56366   -1615.7466    490.35236    207.73782    265.38717    38174.007 
  560300     301.8218   -1605.9275    480.24471    226.52644    390.64775    38174.007 
  560400    310.86564    -1557.237    480.20637    315.69644    700.18367    38174.007 
  560500    289.99856   -1597.2657    488.12856    190.10212    381.30934    38174.007 
  560600    296.82492   -1577.9193     489.6092     241.5123    209.31507    38174.007 
  560700     300.0697   -1591.0397    480.36972    233.68955   -473.69972    38174.007 
  560800    293.58976   -1594.6799     498.8345    219.48291    29.645424    38174.007 
  560900    311.83472    -1622.661    474.65095    249.05862    429.30147    38174.007 
  561000    312.18049   -1629.3202    468.08912    237.38668    400.03824    38174.007 
  561100    283.48855    -1579.426    483.22515    173.87255    18.326832    38174.007 
  561200    311.30031   -1557.8817    481.52565    318.31837    -275.9346    38174.007 
  561300    298.46282    -1511.586     473.8744    299.44888   -561.79091    38174.007 
  561400    304.36444    -1547.487    516.31117    332.42481   -735.20903    38174.007 
  561500    303.42804   -1550.8656    467.01021    275.55005     -156.143    38174.007 
  561600    304.89911   -1555.6748    490.98363    301.30489   -27.135165    38174.007 
  561700    286.05199   -1576.7615    498.43942    203.23594    -25.63281    38174.007 
  561800    300.76499   -1561.3777    501.90735    288.00418    557.24354    38174.007 
  561900    307.04626   -1546.0982    487.08266    316.60012    596.52865    38174.007 
  562000    297.78894   -1553.6664    494.83222    275.30716    646.47843    38174.007 
  562100    302.71803   -1542.4938    501.73049    315.46113    721.83511    38174.007 
  562200    307.07407   -1569.3312    501.83193    308.24098    438.56672    38174.007 
  562300    301.36258   -1531.5499     475.9823    294.58424     333.4963    38174.007 
  562400    299.00017   -1551.5606    458.79285    246.80007     348.4334    38174.007 
  562500    298.93476    -1552.916    492.79443    279.15324    106.40033    38174.007 
  562600    302.27944   -1505.4556    509.89946     358.7034    355.06277    38174.007 
  562700    290.05281   -1544.3729    468.20334    223.31275   -461.88014    38174.007 
  562800    298.23357   -1520.7982    491.17281    306.50803   -371.35168    38174.007 
  562900    294.92957   -1548.1073    477.73727    250.96095    -159.0809    38174.007 
  563000    302.30138   -1508.0482    481.97671     328.2863   -441.11216    38174.007 
  563100    301.77763   -1485.2689    504.80878    371.55118    86.507236    38174.007 
  563200    298.68414   -1501.8191    478.34321    314.67609    -215.1381    38174.007 
  563300     295.9947   -1515.0013    464.90494    276.00657   -227.41085    38174.007 
  563400    292.90563    -1576.033    488.53021     224.7606    4.4832234    38174.007 
  563500    300.13448   -1512.1735    484.03707    316.51334    325.90524    38174.007 
  563600    286.11539   -1556.8274    497.13885    222.15341      213.642    38174.007 
  563700    299.34222   -1525.4191    500.05571     315.7369   -41.368451    38174.007 
  563800    299.00873   -1539.1269    502.08795    302.56728    -131.8861    38174.007 
  563900    302.83322   -1522.7191    490.22736    324.24876   -565.56505    38174.007 
  564000    314.46204   -1542.1751    497.06282     363.7272   -969.76025    38174.007 
  564100    302.16949    -1503.847    486.17721    336.09712   -135.10055    38174.007 
  564200    295.23693   -1512.1176    506.21254    316.80292   -430.01697    38174.007 
  564300    301.24887   -1523.6215    469.58164    295.60251   -411.30618    38174.007 
  564400    296.89024   -1494.5717    489.52716    325.07048   -644.35669    38174.007 
  564500    309.69095   -1495.6576    509.53584    401.34245   -656.49777    38174.007 
  564600    297.95436    -1529.069    470.73897    276.55248    -829.3975    38174.007 
  564700    298.68522   -1539.2638    485.01689    283.90991   -595.83831    38174.007 
  564800    296.43828   -1518.0076    459.27857     269.3611    97.092184    38174.007 
  564900    300.20674   -1515.7394    472.05162    301.28567   -595.95212    38174.007 
  565000    283.44164   -1489.8057    523.27793    303.33539   -692.45991    38174.007 
  565100    290.91381   -1517.4323    507.12106    293.02846   -351.85955    38174.007 
  565200    290.68574   -1523.7102    513.20811    291.81581    68.580302    38174.007 
  565300    292.99981    -1525.588    516.25339    303.35067   -214.21064    38174.007 
  565400    301.34797    -1518.652    515.02298    346.45734   -259.71425    38174.007 
  565500    308.71328   -1496.2838    506.77965    393.57992    432.25339    38174.007 
  565600    306.28444   -1485.2728    522.20892     409.1386    327.90853    38174.007 
  565700    311.62828   -1550.4154    489.98354    335.71188    87.704365    38174.007 
  565800    308.33139   -1575.9353    503.19269    308.63064    394.76046    38174.007 
  565900    291.65577   -1596.9095    503.44875    213.20308    31.760527    38174.007 
  566000    307.10403   -1570.4812    521.24281    326.63605    348.51462    38174.007 
  566100    295.54726   -1608.6342    471.11268     186.5768    522.14313    38174.007 
  566200    297.71059   -1572.7051    492.05526    253.14045    487.25853    38174.007 
  566300    306.40997   -1587.0167    490.15331    275.90151    213.16413    38174.007 
  566400    302.61332   -1570.9452    510.16905     294.9792    662.08439    38174.007 
  566500    299.11001   -1534.6962     485.3595    290.72324    62.336913    38174.007 
  566600    302.30539   -1556.9034    477.36866    274.84103   -101.20697    38174.007 
  566700     295.0929   -1584.5247    491.33491    228.87288   -378.78826    38174.007 
  566800    293.81888   -1597.8357    446.57256    165.09168   -228.26733    38174.007 
  566900    303.82555   -1593.2144    517.82896    285.80084   -187.33211    38174.007 
  567000    283.91071   -1578.7822    471.30447    164.48697   -40.669623    38174.007 
  567100     308.5668   -1568.4013    486.10741    300.13395   -84.496997    38174.007 
  567200    300.46569   -1587.0179    487.31191     246.4276    34.609268    38174.007 
  567300    290.10366   -1580.7933    492.50744    211.42424   -211.07613    38174.007 
  567400    295.58313   -1580.9772    468.70812    211.98986    -208.4222    38174.007 
  567500    303.82288   -1570.0709    505.52558    296.62904    -857.2131    38174.007 
  567600    293.50028   -1552.3302    502.88427    265.48158   -425.20693    38174.007 
  567700    304.34262   -1598.3171    466.81305    231.99876    7.4035376    38174.007 
  567800    311.99291   -1548.8113    503.04155    352.00763   -70.623273    38174.007 
  567900      298.615   -1571.5623     516.5177    282.79764    -63.73779    38174.007 
  568000    309.08181   -1602.2757    502.61108    285.07058   -153.94982    38174.007 
  568100    294.14716   -1552.4893    492.41686    257.75312    83.040054    38174.007 
  568200    306.77005   -1604.5917    485.77123    255.55766    313.37886    38174.007 
  568300    301.21757   -1568.1642    495.06345    276.40141   -525.28788    38174.007 
  568400     311.5533   -1542.7395    501.10232    354.17074   -437.65919    38174.007 
  568500    304.65167   -1536.9245     481.2585    309.22144   -127.51688    38174.007 
  568600    289.39436   -1576.2268    483.75012    204.05565   -77.181598    38174.007 
  568700    308.01087   -1610.9973    473.37564    242.31559   -139.40401    38174.007 
  568800    303.03511   -1635.3524    484.64808     206.9407   -459.59029    38174.007 
  568900    314.88933   -1583.9148    479.09961     305.9386   -167.93124    38174.007 
  569000    314.81925   -1579.7106    483.11634    313.84555    118.36306    38174.007 
  569100    291.51303   -1546.7919    499.56769    258.80004    171.12574    38174.007 
  569200    297.89795   -1569.6569    491.47717    256.44995   -136.93837    38174.007 
  569300    296.13304   -1584.0521    475.00078    217.67139    272.53979    38174.007 
  569400    305.50639   -1609.7596    510.03246    268.98965   -2.2311336    38174.007 
  569500    298.92539   -1610.3566    484.82811     213.7043   -166.73049    38174.007 
  569600    308.70235   -1599.7294    491.21915    274.52492   -569.60777    38174.007 
  569700    292.50804   -1565.2222     497.8799    243.13976   -475.19655    38174.007 
  569800     318.2138   -1556.7888     481.8752    350.73436   -370.33477    38174.007 
  569900    298.70436   -1586.2593    463.26176    215.24508    -441.9386    38174.007 
  570000    307.53105   -1614.2708    483.82862    247.34539    162.07565    38174.007 
  570100    303.89185   -1619.0195    500.58934    243.05319    147.76737    38174.007 
  570200    305.03105   -1582.0647    514.15525    298.67774    653.37969    38174.007 
  570300    298.76899   -1574.6625    495.66251    259.53218   -349.85948    38174.007 
  570400    295.95656   -1598.3577    489.11374    216.68809   -196.79332    38174.007 
  570500     297.6814   -1640.8635    465.91428    158.71033   -88.627839    38174.007 
  570600    303.79342   -1555.8456     510.6702    315.86697    349.51484    38174.007 
  570700     306.4165   -1554.0827    477.79128    296.50276   -103.34921    38174.007 
  570800    300.70357   -1574.4807    499.21292    271.93163    402.78116    38174.007 
  570900    300.17243   -1563.2619    467.54964    249.10753   -333.28135    38174.007 
  571000    301.46762    -1552.874    492.13448    289.88289   -29.059065    38174.007 
  571100    290.64266   -1511.8428    515.37944    305.66151   -323.24638    38174.007 
  571200    297.92368   -1580.1968    494.19802    248.74626    123.50453    38174.007 
  571300    296.97781   -1575.7473    472.32076    227.08084    89.483213    38174.007 
  571400    299.01154   -1613.2971    469.33514    195.65677   -65.700164    38174.007 
  571500    295.09115   -1588.7251    499.54541    232.87508   -664.52349    38174.007 
  571600    294.92763   -1582.5819    474.31777    213.05815    70.935236    38174.007 
  571700    291.41418   -1598.3878    471.30791    178.50151    259.08057    38174.007 
  571800    305.91971   -1567.4864    514.63042    317.71255   -422.22395    38174.007 
  571900    299.72305   -1612.7977    499.70854    229.71731   -548.71301    38174.007 
  572000    299.66161   -1610.6965    482.17307    214.00783   -529.58399    38174.007 
  572100    296.61323   -1585.9857    491.72773    234.61602   -650.10011    38174.007 
  572200    296.17863   -1562.1833     474.9034    239.64697   -766.72729    38174.007 
  572300    306.52499   -1561.2114    475.71423     287.7831   -330.56483    38174.007 
  572400    305.93012   -1562.6036    507.34098    315.35253   -197.45664    38174.007 
  572500    301.07175   -1562.6388    494.06798    280.27804    293.57583    38174.007 
  572600    292.55571   -1570.0427    481.17077    221.82376    163.53178    38174.007 
  572700    308.17921   -1545.7131    502.11983     337.0981    264.82081    38174.007 
  572800    284.82555   -1546.2064    493.89004    223.74702     454.2223    38174.007 
  572900    299.22072   -1558.0131    493.10371    275.64656   -193.52262    38174.007 
  573000    296.93069   -1484.7744    509.00463    354.52644   -649.14641    38174.007 
  573100    296.25681   -1523.6045    501.78074    305.45342   -708.19143    38174.007 
  573200    300.40001   -1521.9347    511.01884    334.92351   -509.57596    38174.007 
  573300    294.71484   -1532.3814    482.19866    270.18613   -706.98746    38174.007 
  573400    297.98021   -1560.6749    497.26692    271.59033   -693.51151    38174.007 
  573500    291.13081   -1548.4916    464.64001    220.46034    361.12566    38174.007 
  573600    299.66653   -1595.8017    525.54008    272.29163    193.61523    38174.007 
  573700    302.34609   -1526.5895    511.13869    339.10728    220.00761    38174.007 
  573800    297.67937   -1563.0325    478.36696    248.98488    613.04622    38174.007 
  573900    305.87488   -1564.6621    521.39584    327.10134   -222.04838    38174.007 
  574000    295.61226   -1518.1788    484.90049    291.11117   -328.48128    38174.007 
  574100    295.31807   -1570.6873    500.58375    252.96788   -341.79614    38174.007 
  574200    298.57678   -1566.4127    468.13342     239.3917   -27.475416    38174.007 
  574300    302.79843   -1567.2833    495.55325    284.85462    317.12912    38174.007 
  574400    291.18735   -1584.4718    482.14462    202.23796   -237.89304    38174.007 
  574500    300.59683   -1585.2159    493.67157    255.17679      124.307    38174.007 
  574600    308.84665   -1591.1135    493.16086    285.72895   -186.43353    38174.007 
  574700    297.55422   -1556.1764     473.6944    250.60775     375.1032    38174.007 
  574800    290.89327   -1542.8135    503.24478    263.67901    115.58392    38174.007 
  574900      297.876   -1571.6388    479.30643    242.19901    109.33365    38174.007 
  575000    310.85637   -1558.7356     479.7969     313.7468   -236.94008    38174.007 
  575100    303.03646   -1558.9182    498.65275    297.38558    366.19657    38174.007 
  575200    289.33047   -1588.2872    483.90817    191.86704    288.65421    38174.007 
  575300    311.70757   -1559.0426    471.35112    308.80753    179.06237    38174.007 
  575400    298.86258   -1521.4171    490.04839    307.58278    550.61202    38174.007 
  575500     298.7102   -1515.5704    470.94265    293.64096     236.6902    38174.007 
  575600     306.0717   -1536.2921    479.77645    314.73381    55.017931    38174.007 
  575700    291.79373   -1544.9063    495.01433    257.38985     645.8977    38174.007 
  575800    302.30799   -1546.5585    503.97023    311.79918    671.89913    38174.007 
  575900    307.23836   -1562.3229    487.93073    302.08403    750.98666    38174.007 
  576000     301.4448   -1573.8851    455.71129    232.34637    90.978619    38174.007 
  576100     304.4334   -1518.0582    504.02517     349.8765    135.25645    38174.007 
  576200    297.61345   -1522.3318    467.09604    278.11939    139.35762    38174.007 
  576300    309.05969   -1523.0402    482.97425    344.57016   -258.75556    38174.007 
  576400    311.66139   -1486.7311    518.18238    427.74347   -76.093716    38174.007 
  576500    296.95249   -1494.2039     486.9336    323.12366   -587.44265    38174.007 
  576600    298.09014   -1543.8974    491.68431     283.2777    144.79242    38174.007 
  576700    302.73739   -1530.6281    518.34166     344.0247   -359.68677    38174.007 
  576800    303.18831   -1538.4438    480.14049    300.02811   -95.989244    38174.007 
  576900    293.73434   -1565.5555    478.91909    229.33964   -125.67269    38174.007 
  577000    305.22518   -1576.0949     497.0307     288.3927   -201.22492    38174.007 
  577100    306.63166   -1535.2497    513.76377    352.27222    514.71239    38174.007 
  577200    296.80239   -1531.0464    469.25031    267.92534   -254.14431    38174.007 
  577300    294.02332   -1560.3531    496.57057    253.48824   0.74103189    38174.007 
  577400    305.09716    -1560.694    464.65323    270.84262    567.91148    38174.007 
  577500    295.19323   -1552.8872    488.36543    257.99041    432.13878    38174.007 
  577600    295.96628   -1520.0743    480.78381    286.68509    -204.0412    38174.007 
  577700    302.84499   -1545.0961    510.91021    322.60733    183.45454    38174.007 
  577800    293.21424   -1535.3134    479.36298    257.69551    72.085901    38174.007 
  577900    292.13777   -1518.9031    480.81788    270.73802   -26.392429    38174.007 
  578000    300.41867    -1551.369    497.61923     292.1732    155.58057    38174.007 
  578100    295.44498   -1543.1355    478.86474    259.36929   -74.278813    38174.007 
  578200    303.14085   -1523.6335    489.15712     323.6424   -39.990798    38174.007 
  578300    293.48173    -1529.376    476.20258    261.67099   -777.94502    38174.007 
  578400    299.76375   -1511.8667    493.92467     325.0468   -457.51038    38174.007 
  578500    293.77525   -1550.9888    503.72667    268.89725   -88.753031    38174.007 
  578600    287.62321   -1550.6375    471.68505    209.64486   -503.31126    38174.007 
  578700    297.96511   -1530.4129    495.50239    300.02006    5.7076644    38174.007 
  578800    296.21565   -1495.1282    474.68515    306.64971    -196.5921    38174.007 
  578900    294.45324   -1500.9087    505.82573    324.11394   -468.75929    38174.007 
  579000    317.22714    -1510.833    474.19306    384.58756   -25.820389    38174.007 
  579100    294.43982   -1541.0971    469.83088    247.87055    455.91382    38174.007 
  579200    310.89404   -1524.0606    495.31519    364.10889    787.25857    38174.007 
  579300    299.36021   -1516.5067    476.13904    300.81328    -225.8269    38174.007 
  579400    296.64607   -1478.0602    502.95016    353.91106   -200.06508    38174.007 
  579500    295.57713   -1496.6086    496.25033    323.87385   -209.35612    38174.007 
  579600    310.13015   -1527.0926    525.74718    388.08653    681.41315    38174.007 
  579700     292.8759   -1503.5456    500.21336    308.79789    451.91716    38174.007 
  579800     293.0636   -1526.4579    499.78732    286.30052    113.97001    38174.007 
  579900    301.72305   -1502.8955    490.68197     339.5533   -113.03894    38174.007 
  580000    301.59023   -1544.9852    500.11117    306.29772    232.43021    38174.007 
  580100    301.74002   -1523.9958    497.70042    325.54748   -85.955099    38174.007 
  580200    291.04639   -1560.4821    480.27717    223.72873   -322.99039    38174.007 
  580300    297.93649   -1530.7518     492.1678    296.21843   -206.90883    38174.007 
  580400    301.21363   -1536.4859    493.93061    306.92926   -198.06023    38174.007 
  580500     296.9994   -1528.7431     503.1426    305.00357   -260.48379    38174.007 
  580600     298.1823   -1556.1616    488.96773    268.70983   -310.76598    38174.007 
  580700    307.74984    -1551.306    495.15243    322.61415   -126.14635    38174.007 
  580800    304.15973   -1511.1338    520.90968    372.45942   -265.21665    38174.007 
  580900    302.44043   -1516.8423    454.65477     292.7932   -611.75173    38174.007 
  581000    300.86305   -1532.4697    488.65898     304.1032   -341.53255    38174.007 
  581100    299.79492     -1526.57     499.6418    316.20029   -172.32565    38174.007 
  581200     298.8876   -1538.9421    469.49661    269.61806   -106.01179    38174.007 
  581300    299.21294   -1539.4748    466.57031    267.61655   -425.62007    38174.007 
  581400    291.28859   -1534.0679    500.36871    271.31953   -204.47093    38174.007 
  581500    293.66789   -1552.5307    481.22553    244.37319    123.31035    38174.007 
  581600    282.83905   -1558.6745    475.88367     184.3726    293.24553    38174.007 
  581700    301.41584   -1582.5691    492.60504    260.42639    400.20765    38174.007 
  581800    305.88673   -1532.2532    524.13326    362.30076    303.54269    38174.007 
  581900    297.91763   -1544.4658    489.36956     279.6217    296.56305    38174.007 
  582000    297.94436   -1579.6315      473.159    228.36516      -184.42    38174.007 
  582100    299.52133   -1583.9864    495.09178    253.00811     468.5056    38174.007 
  582200    312.86854   -1597.7199     478.3575    282.33789    644.94035    38174.007 
  582300     295.4474   -1586.3412    479.81959    217.12929    83.799983    38174.007 
  582400    302.12635   -1538.9543    486.48277    301.10208   -466.66434    38174.007 
  582500    306.15325   -1538.4145    509.81154     343.0118   -452.44372    38174.007 
  582600    302.07913   -1577.8919    482.45094    257.92115    -359.0122    38174.007 
  582700    311.25633   -1560.3185    465.30451    299.46339   -128.91125    38174.007 
  582800    295.96933   -1572.8003    480.24691    233.43583   -199.28851    38174.007 
  582900    308.43943   -1548.6209    493.78229    327.01859   -400.18479    38174.007 
  583000    294.77371    -1549.566    515.92677    286.99346   -235.21322    38174.007 
  583100    313.28435   -1553.0503    492.91906    343.43201    9.8544561    38174.007 
  583200    294.53497    -1549.976    513.92192    283.50901   -189.62023    38174.007 
  583300    306.70789    -1579.443    458.92861    253.58527    180.28035    38174.007 
  583400    293.25793   -1582.2436    488.35225    219.95041    75.511029    38174.007 
  583500    292.91462   -1576.3134    486.11699    222.10722   -75.914947    38174.007 
  583600     296.6404   -1593.6398      479.923    215.27888    333.20164    38174.007 
  583700     294.6041   -1615.3166    480.97846    185.53466    274.99733    38174.007 
  583800    311.01041   -1574.3566    497.47443    316.49342    606.47552    38174.007 
  583900    301.19562   -1592.3434    475.47557    232.53605   -60.976231    38174.007 
  584000    296.65537   -1579.8955     476.3126     225.4799    75.005511    38174.007 
  584100    296.54448   -1588.2653    481.09577    221.39639   -218.25911    38174.007 
  584200    297.18159   -1582.6065    507.32404    256.13788   -355.24806    38174.007 
  584300    298.32946   -1545.1239     471.1476    262.58663   -116.66328    38174.007 
  584400    302.88508   -1537.9082    473.94756    293.01224   -1059.1362    38174.007 
  584500     301.0442   -1519.2404    485.66114    315.14614   -543.25223    38174.007 
  584600    306.82563   -1530.5636    501.91445    345.97803   -448.72083    38174.007 
  584700    291.95541   -1565.1363    488.76008    231.62999   -151.91593    38174.007 
  584800    291.14288   -1541.2162     492.4032      255.553    374.37251    38174.007 
  584900    304.87267   -1550.0035    482.89345    298.76748   -182.96936    38174.007 
  585000    299.55668   -1571.4032    463.47562    234.13351    23.223193    38174.007 
  585100    298.79421   -1565.2284    489.91558    263.33235   -517.59587    38174.007 
  585200     291.2583   -1498.5164    511.68296    318.04961   -264.29257    38174.007 
  585300    298.12499   -1537.3004    487.54822     285.8947    597.92515    38174.007 
  585400     303.1312   -1544.5475    470.17622    283.70427    236.11617    38174.007 
  585500    296.52683   -1543.6006    496.02786    280.91414    988.78182    38174.007 
  585600     308.5738   -1554.4957    510.45521    338.41872    973.63544    38174.007 
  585700     300.1857   -1579.9453    481.88404    246.81792    993.58212    38174.007 
  585800    302.69462   -1568.9328     485.4203     272.6071    582.47407    38174.007 
  585900    302.48827   -1575.7681    486.90733    266.33432    348.54872    38174.007 
  586000    304.89616   -1537.3674    471.52173    300.13711    181.64912    38174.007 
  586100    307.52182   -1568.3664    475.36596    284.74574   -37.881626    38174.007 
  586200    297.31617   -1581.6913    481.22621    231.55818     278.4579    38174.007 
  586300    299.66644   -1580.7463      495.027    256.83358    398.33895    38174.007 
  586400    302.84758   -1562.8104    496.16887    290.16337    615.51277    38174.007 
  586500    304.17797   -1573.5086    471.33685    260.59342    137.19717    38174.007 
  586600    292.68713   -1605.6135    502.19259    207.86351   -446.48818    38174.007 
  586700    307.18774   -1569.6579     485.6574    292.24895   -480.14997    38174.007 
  586800    291.42198   -1558.7358    489.22033    236.10088   -567.09965    38174.007 
  586900    298.44415   -1574.7251    487.90082    250.25253    -605.1404    38174.007 
  587000    297.06022   -1581.8001    481.96951    231.04597    265.26492    38174.007 
  587100    302.09107   -1583.8744    462.57361    232.11483   -38.389601    38174.007 
  587200    297.31051   -1588.9594     505.7074    248.74588   -118.73447    38174.007 
  587300     310.1038   -1567.7802    485.07591    306.60962     -198.277    38174.007 
  587400    290.25476   -1584.3005    483.82395    199.91048   -698.56323    38174.007 
  587500    302.87161   -1572.7317     496.4821    280.66287    -608.4609    38174.007 
  587600    302.12947   -1574.2711    486.02552    265.34204   -65.820948    38174.007 
  587700    295.02338   -1603.4209    491.04332    209.37362   -569.87724    38174.007 
  587800     299.7675   -1596.7336    483.04923    229.32119   -243.15949    38174.007 
  587900    302.64428   -1592.4452    471.55365    235.00252   -234.38149    38174.007 
  588000    289.73464   -1604.9632    481.02976     174.1234   -353.98379    38174.007 
  588100    293.21411   -1620.3722    487.79326    181.06649   -245.85178    38174.007 
  588200    305.34605   -1593.4547    485.43858    259.98223    197.59676    38174.007 
  588300    299.71694   -1612.3532    509.02793    239.45379    478.76999    38174.007 
  588400    293.20886   -1569.2603    498.88446    243.24608   -97.282861    38174.007 
  588500     297.5374   -1524.2667    529.66108    338.40879    286.26307    38174.007 
  588600    305.71685    -1557.255    503.00053    315.40513   -222.33557    38174.007 
  588700    297.86252   -1586.4791    497.38288    245.37475     -289.802    38174.007 
  588800    314.17955   -1568.7833    484.11263     322.9032    586.53778    38174.007 
  588900    293.49283   -1632.4622    483.77969    166.21157   -186.45976    38174.007 
  589000    299.07106   -1596.2915    487.64175    231.23565     449.5711    38174.007 
  589100    297.82166   -1590.5021    506.72005    250.50592    461.52576    38174.007 
  589200    298.79477   -1609.0246    494.97453    224.59759    598.83193    38174.007 
  589300    310.30245   -1607.4193    520.16339    302.94793    382.87469    38174.007 
  589400    303.78906   -1618.2942    454.16371    196.89233    225.81296    38174.007 
  589500    299.40523   -1614.8614    504.85198    231.37315    566.84336    38174.007 
  589600    293.66788   -1589.8167    469.92221     195.7839    110.32879    38174.007 
  589700    310.99707   -1550.1386    513.63215    356.80936    202.18827    38174.007 
  589800    302.77768   -1560.0707    497.81129    294.23226    238.98913    38174.007 
  589900    311.76601   -1556.5158    466.46493    306.70994    330.30543    38174.007 
  590000    300.35595   -1548.3394    534.95401    332.25652    367.36937    38174.007 
  590100    299.04116    -1535.384    481.66422    286.03173   -83.840534    38174.007 
  590200    300.48014   -1546.1599    514.63584    314.67431   -41.153569    38174.007 
  590300    302.66316    -1567.541    486.19977    274.63737   -191.82734    38174.007 
  590400    292.92742   -1571.2388     492.6169     233.7391   -257.38894    38174.007 
  590500    304.36453   -1583.8591    494.42057    274.16248   -140.60673    38174.007 
  590600    302.19114   -1562.9808    494.76877    285.65187    120.19399    38174.007 
  590700    289.73409   -1544.7271    495.81419    249.14148     161.7614    38174.007 
  590800    304.99016   -1540.6541    496.01328    321.76313    148.63667    38174.007 
  590900    297.07114   -1571.4691    503.86313    263.31951    86.397622    38174.007 
  591000    307.23277   -1588.8721    487.28346    274.86259   -167.11394    38174.007 
  591100    302.76092   -1563.9642    475.66384    268.11623    278.14111    38174.007 
  591200    291.43747   -1541.3208    518.03421    282.39924    91.873756    38174.007 
  591300    303.17646   -1507.0452    506.86798    358.10104   -292.64173    38174.007 
  591400     308.7684   -1576.9438    489.81441    296.20173   -691.32413    38174.007 
  591500    307.29115   -1541.8058    485.19824    320.10523   -798.33463    38174.007 
  591600    307.60581    -1631.711    465.32181    211.73327   -716.47518    38174.007 
  591700    304.65178   -1618.9574    490.18911    236.11963    -761.7601    38174.007 
  591800    299.18514   -1570.9949    503.16986    272.57154    -847.6051    38174.007 
  591900    297.93402   -1592.3315    489.03816    231.49802   -387.28426    38174.007 
  592000    295.42391   -1571.7261    508.00277    259.82233   -667.35064    38174.007 
  592100     296.3438    -1554.717    504.54719    277.49713   -428.89151    38174.007 
  592200    298.33401   -1614.0193    472.97801    195.54206    77.828614    38174.007 
  592300    308.65192   -1580.5337    508.46412    310.73966   -329.37971    38174.007 
  592400    294.21131   -1541.7662    487.82166    264.16846   -420.83551    38174.007 
  592500    304.28656   -1567.4887     490.9281    286.69115   -196.11902    38174.007 
  592600    305.22235   -1600.0261    510.00198     277.4201   -312.88336    38174.007 
  592700    305.20651   -1571.2393    495.39906    291.53298   -442.53066    38174.007 
  592800    308.38647   -1555.6977    467.22634    293.14862   -595.98054    38174.007 
  592900    300.02897   -1562.9421    497.35221     278.5871   -459.66846    38174.007 
  593000    307.25744    -1591.364     482.0507    267.24838   -166.70742    38174.007 
  593100    291.93099   -1565.6795    497.53824    239.75552   -864.03664    38174.007 
  593200    305.11023   -1580.9543    473.64356    259.63118   -1060.6335    38174.007 
  593300    301.37458   -1581.5947    494.12313    262.73401   -847.13064    38174.007 
  593400    298.51295   -1529.4849    516.64784    324.54804   -978.17949    38174.007 
  593500    293.04233   -1573.2467    460.43879    200.06787   -558.40827    38174.007 
  593600     301.0487   -1583.5428    511.95007    277.15291   -262.63883    38174.007 
  593700    300.11965   -1595.8176    475.49079    224.25646   -656.48201    38174.007 
  593800    299.04882   -1612.2424    496.98439    224.52784    217.29595    38174.007 
  593900    291.33236   -1629.5336    502.15736    177.83857     285.2804    38174.007 
  594000    303.34685   -1655.3975    484.68081    188.32493    31.874445    38174.007 
  594100    308.14373   -1635.2328    469.17426     214.4739   -389.64388    38174.007 
  594200      293.621   -1560.9783    488.35086    242.84094   -866.38296    38174.007 
  594300    306.47512   -1575.9935     480.4545    277.51782   -811.97134    38174.007 
  594400    307.12152   -1575.6357    497.70192    298.01904   -648.05277    38174.007 
  594500    297.52948   -1572.1696     492.6425    253.45181   -614.29968    38174.007 
  594600    305.94776   -1574.8775    518.29908    314.11571   -200.85185    38174.007 
  594700     306.2016   -1564.9755    487.47126    294.32718   -325.40217    38174.007 
  594800    300.83839   -1637.9714    474.42491     184.2569   -358.63985    38174.007 
  594900    294.61953   -1615.7793    521.49217    225.65482    98.729116    38174.007 
  595000    294.36264   -1604.4708    479.12748    193.44769    80.038876    38174.007 
  595100    292.37721   -1576.4655    476.54143    209.97189    803.24433    38174.007 
  595200    302.96237   -1574.9301    540.41892    322.80794    868.42606    38174.007 
  595300    297.52324     -1586.97    493.03635    239.01728    344.25952    38174.007 
  595400    304.43151   -1606.2679     485.5622    243.19541    595.48545    38174.007 
  595500    307.33375   -1595.9034    483.66876    264.66892    86.645813    38174.007 
  595600    297.79131   -1544.7747    507.16287    296.54008   -212.47064    38174.007 
  595700    293.80775   -1554.4428    481.82032    243.68253   -98.173115    38174.007 
  595800    289.86475   -1587.5839    520.23764    231.29348   -180.81188    38174.007 
  595900    300.60496   -1592.8236    483.82946    237.76345     23.22033    38174.007 
  596000    302.19456   -1561.9493    503.67882    295.60873     135.4921    38174.007 
  596100     313.6019   -1598.8156     508.4896    314.65994    463.16898    38174.007 
  596200    298.24284   -1598.8146    502.62416    239.98443    586.46922    38174.007 
  596300    299.46235   -1584.7308    490.07634    246.98407   -197.62211    38174.007 
  596400    309.21248   -1607.3368    495.43702    273.42084    12.660041    38174.007 
  596500    290.18314   -1600.5215    489.81751    189.36221    294.41414    38174.007 
  596600    301.58456   -1602.1249    505.51449    254.53595    159.23328    38174.007 
  596700    304.96511   -1583.8803    471.74539    254.15684   -229.61682    38174.007 
  596800    292.35312   -1579.9725     505.5832    235.39869   -610.01101    38174.007 
  596900    301.26365   -1557.4983    478.20817    270.41853   -316.94956    38174.007 
  597000    304.01685   -1525.1526    528.50277     365.3936   -486.15262    38174.007 
  597100     295.4386   -1542.9501    497.54267    278.20406    -773.5884    38174.007 
  597200    292.30237   -1530.0171    490.92945    270.47304   -455.27914    38174.007 
  597300     296.1513   -1549.3471    522.86741    300.32473   -100.12744    38174.007 
  597400    291.92338   -1531.8436    512.61917    288.63833     112.2569    38174.007 
  597500    302.24827   -1560.3219    496.83042    290.62839    319.34697    38174.007 
  597600    304.57852   -1569.2526    521.76604    317.07317    741.01875    38174.007 
  597700    297.48698    -1553.703    477.48019    256.56574    227.33164    38174.007 
  597800    305.62203   -1566.2456    489.71191    292.70117    345.21495    38174.007 
  597900    297.68287   -1540.5809    494.47417    287.55946    229.57142    38174.007 
  598000    296.13126   -1541.8682     510.4054    295.25192    322.69419    38174.007 
  598100    297.24772   -1540.6567    482.36174    273.42165   -164.10649    38174.007 
  598200    304.71399   -1518.0734    489.74005    336.83329    188.65416    38174.007 
  598300    302.05558   -1528.3179    491.27453    316.21318   -385.86512    38174.007 
  598400    294.43437   -1492.2264    508.97833    335.86425   -580.14514    38174.007 
  598500    293.62701   -1565.8525    490.15131    239.79411   -57.224154    38174.007 
  598600    294.58691   -1582.5552    526.86339    264.10395    274.68034    38174.007 
  598700    303.30324   -1611.6129     499.1957    246.42913    115.46336    38174.007 
  598800    294.55685   -1621.1267    496.90915    195.44355    158.27907    38174.007 
  598900    308.91964   -1558.4076    495.16982    320.77089    33.478643    38174.007 
  599000    302.37849   -1533.1689    500.46916    322.00348   -118.70382    38174.007 
  599100    294.50791   -1549.0344    492.47707    262.88454     66.97844    38174.007 
  599200    308.38792   -1508.1801    534.44959      407.896    90.046771    38174.007 
  599300    293.24033   -1512.5016    510.43368    311.69491   -312.52324    38174.007 
  599400    305.33039   -1521.9432    520.03084    366.01591    246.83571    38174.007 
  599500    287.11926   -1473.1174    523.22284    336.44499   -428.46113    38174.007 
  599600    295.57935   -1518.7355    479.66388     285.1704   -32.834011    38174.007 
  599700    295.17156   -1545.6029    503.79141    280.60361   -23.920433    38174.007 
  599800    300.32486   -1506.7053    507.31899    346.11634   -204.84341    38174.007 
  599900    302.01105     -1525.38    496.20862    323.88569    571.73635    38174.007 
  600000     303.1744   -1539.2682    507.18846    326.18929   -70.056756    38174.007 
  600100    294.13212   -1541.2531    489.05946    265.56464    -556.3861    38174.007 
  600200    294.48048   -1507.6677    473.79203    285.44325   -344.38653    38174.007 
  600300    295.87397   -1489.3517    512.57882    348.78911   -169.30484    38174.007 
  600400    298.79122   -1515.8337    491.59957    314.39759   -143.04047    38174.007 
  600500    308.31773   -1515.3691    502.76207    368.70494   -153.00103    38174.007 
  600600    299.89064   -1524.8043    485.39747    304.15048   -100.83823    38174.007 
  600700    293.85441   -1579.5662    483.97756    220.92543    88.039051    38174.007 
  600800    302.46285   -1497.2511    496.42167    354.25183    385.82612    38174.007 
  600900    295.49433   -1511.4678    517.00569    329.39902    183.78995    38174.007 
  601000    301.20373   -1502.6998    521.57867    368.31909    245.54336    38174.007 
  601100     307.3078   -1529.6983    480.27131    327.36034    9.9811374    38174.007 
  601200    292.00935   -1509.4776    503.78075    302.55102   -358.19927    38174.007 
  601300    296.70601    -1482.684    507.53763    354.14331    128.65976    38174.007 
  601400    300.04275   -1514.4366    523.04278    352.84499   -24.254651    38174.007 
  601500    295.44325   -1563.9771    481.94917    241.60437    -318.0269    38174.007 
  601600    307.14771   -1543.1922    491.17287    324.05074    154.62451    38174.007 
  601700    307.26038   -1564.0944    491.99593     304.4764   -186.36908    38174.007 
  601800    281.96914   -1555.6817    469.27758      176.862   -457.98844    38174.007 
  601900    294.30773   -1567.5159    505.34601    256.37509   -199.73958    38174.007 
  602000    300.10839   -1537.1357    493.96168    301.35878   -323.13271    38174.007 
  602100    293.41549   -1547.4274    503.04327    270.16344   -75.415719    38174.007 
  602200    294.35327   -1515.9496    505.05178     307.8512   -388.08667    38174.007 
  602300    317.09795   -1496.8302    494.14404    417.96259   -595.04364    38174.007 
  602400    305.19436   -1516.6693    515.35724    366.00672    -585.3231    38174.007 
  602500    303.09716   -1548.9059     484.6633    293.68039   -212.64322    38174.007 
  602600    307.50934   -1546.8025    494.71307    325.60092    266.04199    38174.007 
  602700    299.95435   -1534.4434    494.20943    303.60874    421.99168    38174.007 
  602800    293.24949   -1508.7624    481.22091    286.26245    19.991147    38174.007 
  602900    294.55645   -1505.0943    511.90579     326.4708    317.32266    38174.007 
  603000    308.57124   -1520.1104    492.23636     354.5737    359.65925    38174.007 
  603100    296.56059   -1525.0334    515.75857    319.36328     322.7804    38174.007 
  603200    294.92518   -1519.3585    529.26676    331.21956   -349.47024    38174.007 
  603300    287.13071   -1511.2515    508.13821    283.27751    -123.7494    38174.007 
  603400    300.02828   -1505.1384    486.77166    325.80726    185.79974    38174.007 
  603500    311.38821    -1543.235    479.04655    330.87983    169.93014    38174.007 
  603600    291.36979   -1510.3687    486.15914    281.17296   -3.0456061    38174.007 
  603700     294.4752   -1559.9907    475.73969    235.04431    37.729926    38174.007 
  603800    295.95855   -1550.2081    497.46854    273.20135   -92.741458    38174.007 
  603900    303.88205   -1541.4993    494.91218    314.85234    162.70693    38174.007 
  604000    303.40452   -1551.1522    477.20206    285.34988   -459.70656    38174.007 
  604100    295.96935   -1574.4746    492.57849    244.09313    -553.2148    38174.007 
  604200    296.31351   -1576.7651    476.32502    227.09108    242.03988    38174.007 
  604300    294.49591   -1584.4342    508.71131    243.66518     88.80498    38174.007 
  604400    294.16855   -1592.9445    475.84299    200.81989   -199.05552    38174.007 
  604500     308.8007   -1582.6798     449.6829    250.47891    195.99686    38174.007 
  604600    299.95952   -1576.6343    474.96022    242.19175   -130.94431    38174.007 
  604700    301.19198   -1548.7337     476.6661    277.31987   -93.310902    38174.007 
  604800    315.89955   -1552.6479    528.39093    391.02283    469.37506    38174.007 
  604900    297.40544   -1541.1583    465.57334    256.83828   -417.22789    38174.007 
  605000    311.83625    -1584.933    489.04183    301.18438    238.85849    38174.007 
  605100    304.29775   -1575.7661    503.95451    291.49031     383.9448    38174.007 
  605200    304.63821   -1626.6267    478.74498    216.94547    397.81141    38174.007 
  605300    302.67578   -1587.8219    521.60763    289.82094    255.72135    38174.007 
  605400    300.04061   -1575.6495    466.35012    234.92979    1053.0201    38174.007 
  605500    294.58118   -1587.2259    484.57256    217.11673    115.83808    38174.007 
  605600     299.7036   -1540.5887    509.01388    311.14444   -194.21081    38174.007 
  605700    295.07883   -1523.9518    463.68672    261.73455   -166.82785    38174.007 
  605800    295.98346   -1566.6928    507.62876     266.9885    -207.5379    38174.007 
  605900    296.48379   -1526.6753    475.41407    277.03284   -392.90568    38174.007 
  606000    289.26829   -1544.7141    491.01233    242.26577   -653.24072    38174.007 
  606100    299.88742   -1546.0522    486.65817    284.14881    272.37524    38174.007 
  606200     308.0629   -1544.5054    505.63935     341.3043    483.22394    38174.007 
  606300    299.71341   -1569.0484    479.38816      253.103    715.14441    38174.007 
  606400    303.04339   -1607.8807    505.57038    255.37181    464.55065    38174.007 
  606500    300.36733   -1615.9748    465.81309     195.5312    366.66485    38174.007 
  606600    294.58923   -1616.7752    473.99294    177.02389    477.37694    38174.007 
  606700    303.58096   -1609.2017    494.79154    245.68038    2.5517702    38174.007 
  606800    290.98772   -1618.1916    459.75699    145.23622    382.77437    38174.007 
  606900     298.4892    -1628.697    458.38451     166.9662     234.2782    38174.007 
  607000    302.73911   -1628.9657    476.78734    204.14057    278.36274    38174.007 
  607100    305.97268   -1640.7969    487.90639    217.91531    38.168071    38174.007 
  607200    303.69603   -1596.1399    464.76167    229.22779   -126.04998    38174.007 
  607300    296.79681    -1561.203    497.15527    265.64867    -87.86627    38174.007 
  607400    309.14145   -1565.6239    489.35747    308.73596   -241.37197    38174.007 
  607500    296.37689   -1551.3841    486.22778    262.65883    302.23139    38174.007 
  607600    290.82013   -1555.2598     488.3897     236.0499    165.04432    38174.007 
  607700    316.75511   -1565.0542    484.80453    338.86309    391.01762    38174.007 
  607800    301.49717   -1580.0088    492.02426    262.77026      1125.48    38174.007 
  607900    299.21939    -1600.652    465.44788    205.34593    421.43845    38174.007 
  608000    299.40407   -1529.2218    492.73778    304.89333     580.0031    38174.007 
  608100    301.05828   -1605.7812    468.65742    211.66475    93.170522    38174.007 
  608200    314.72262   -1574.2627    495.93614    331.68029    78.500421    38174.007 
  608300    302.93864   -1579.4232    470.67532    248.46498   -437.28496    38174.007 
  608400    300.99416   -1556.6442    483.49162    275.34869   -430.95367    38174.007 
  608500    301.34123   -1564.5748    480.40744    265.88875   -382.27226    38174.007 
  608600    288.51599   -1522.1928    486.81154     257.2158   -310.08487    38174.007 
  608700     308.9246   -1526.8567    478.73895    335.91308    40.366871    38174.007 
  608800    296.21245   -1512.8102    502.63021    316.89846   -7.5926041    38174.007 
  608900     299.1458   -1531.9631    508.35442    316.61159    428.42798    38174.007 
  609000     301.3298   -1549.8767    511.72029    311.84854    637.70495    38174.007 
  609100    301.99734   -1550.3034    503.85785     306.5501    251.19083    38174.007 
  609200    292.13016   -1596.1591    486.54128    199.17134    454.62681    38174.007 
  609300    309.98286   -1572.3261    501.55981    318.00579    223.35874    38174.007 
  609400    298.44634   -1593.8826    466.71652    209.92055    105.42392    38174.007 
  609500    292.87545   -1590.2855    507.49659     229.3392   -317.21213    38174.007 
  609600    309.15781   -1569.1309    488.39208    304.33687    241.23128    38174.007 
  609700    310.38695    -1621.132    488.60815    258.05859    85.196887    38174.007 
  609800    294.89922   -1622.7218    473.47732    171.95053   -135.45423    38174.007 
  609900    297.33177   -1620.3193    480.04536    191.81917    133.80531    38174.007 
  610000    289.68185   -1594.0892    493.03367    196.76483   -64.105502    38174.007 
  610100    302.41837   -1571.5312     479.3338    262.68448    289.65408    38174.007 
  610200    301.12785    -1589.698    471.26978    230.67194    97.609337    38174.007 
  610300    300.17163   -1544.1403    488.09202    288.76785   -478.05652    38174.007 
  610400    302.18995   -1557.9358    482.96239    278.88514   -567.31205    38174.007 
  610500    294.68345   -1591.9729    461.53321    189.78862   -120.53035    38174.007 
  610600    298.96434   -1545.4881    498.61785    292.53705  -0.20202979    38174.007 
  610700     289.7607   -1515.3531    506.77729    289.59773    393.97663    38174.007 
  610800    302.96345   -1500.4438    491.95183    348.83203    613.94987    38174.007 
  610900    291.98888   -1553.5684    494.25072    248.83847     423.7342    38174.007 
  611000    305.92881   -1578.6924     475.1491    267.06594     644.4851    38174.007 
  611100    300.30153   -1555.7126    508.15484    297.84034    279.40459    38174.007 
  611200    300.31734   -1548.9786    488.80772    285.29813    34.911625    38174.007 
  611300    296.75003   -1546.0156    474.62338    258.09465   -367.02787    38174.007 
  611400    301.86804   -1614.1221    464.75174    203.04601    228.11989    38174.007 
  611500    304.91726   -1637.1889    494.15232    223.04077    578.85118    38174.007 
  611600    291.48083   -1618.8748    458.59716    145.60235   -155.78379    38174.007 
  611700    289.60972    -1609.126    476.48481      164.856    435.13204    38174.007 
  611800    304.55448   -1587.7767    471.56509    248.24036    46.390877    38174.007 
  611900    304.32815    -1601.902    482.04255    243.57854    22.884981    38174.007 
  612000    301.05793   -1595.2636    466.78761    220.31092    808.19815    38174.007 
  612100    304.37229   -1638.0205    494.48433    220.09959    475.78537    38174.007 
  612200    295.51265   -1592.6768    490.43009    221.69648    994.26216    38174.007 
  612300    305.03163   -1563.5046    480.35689    283.44202    943.21871    38174.007 
  612400    299.16466   -1595.7739    495.80057    240.33145    471.73371    38174.007 
  612500    293.88574   -1565.1373    484.62094    236.13799    712.10049    38174.007 
  612600    299.26939    -1551.154    489.04253     278.6626    271.90577    38174.007 
  612700    285.83787    -1542.455    498.80784    236.95159    19.396303    38174.007 
  612800    305.05353   -1590.5759    469.00553    245.11747   -17.060711    38174.007 
  612900    304.81334   -1582.1347    471.14412    254.62115   -182.70226    38174.007 
  613000    295.42886   -1619.6068    472.61555    176.57654   -515.40747    38174.007 
  613100    297.42303   -1603.6122    457.47884    186.36864   -387.55038    38174.007 
  613200    293.50072    -1630.038    449.57534    134.46677   -207.48049    38174.007 
  613300    310.54289     -1598.86    485.16722    277.58833    264.01251    38174.007 
  613400    297.85456   -1559.8898    479.52367    254.06919    182.43424    38174.007 
  613500     287.3081   -1569.2325    481.02062     198.9737   -762.52148    38174.007 
  613600    295.08692   -1592.4035    507.94604    237.57846   -961.74898    38174.007 
  613700    284.49998   -1542.5699    479.99353    212.02831   -902.49683    38174.007 
  613800    296.58939   -1547.7712    476.27438    257.27041   -1090.9706    38174.007 
  613900    304.35994   -1539.4864    491.25968    315.35371    -889.9175    38174.007 
  614000    293.44939    -1530.299     489.7651    274.16557    -506.2414    38174.007 
  614100    287.12226   -1559.2645     464.5112    191.59964   -545.24411    38174.007 
  614200     297.8357    -1571.738    498.32232    260.93512   -173.06947    38174.007 
  614300    294.90503   -1603.3443    464.71729    182.59401    -116.3667    38174.007 
  614400    298.91215   -1521.0267    482.59387    300.74067   -86.598368    38174.007 
  614500     309.0577   -1520.0122    481.19844    345.81344    -27.23365    38174.007 
  614600    299.63677    -1553.823    501.62335    290.22027   -191.13539    38174.007 
  614700    307.47751    -1535.346    470.35909    312.56074    232.18863    38174.007 
  614800    301.47783    -1562.198    510.31533    298.78546   -367.95017    38174.007 
  614900     302.6371   -1566.2453    464.55757    254.17413     714.4535    38174.007 
  615000    301.06113   -1585.8474    494.45846    257.41233    139.77665    38174.007 
  615100    298.34475   -1600.4387    499.54637    235.73918    476.83036    38174.007 
  615200    300.70388   -1599.2935    458.64606    206.55327    512.16648    38174.007 
  615300    307.16607   -1576.7936    488.33324    287.69206      207.908    38174.007 
  615400    310.22572   -1515.3462    485.44564    359.95953    575.65121    38174.007 
  615500    308.85978   -1490.8023    500.89529    393.83347    402.81476    38174.007 
  615600    305.46046   -1517.1087    483.69677    335.09907   -211.88139    38174.007 
  615700    297.89317   -1509.2386    489.70898    315.07871    96.615164    38174.007 
  615800    296.13254   -1552.6056    472.86402    246.97884    93.665302    38174.007 
  615900    304.07368   -1538.6227     485.0233     308.6986   -30.617455    38174.007 
  616000    300.64837    -1555.743    502.94886    294.15795   -111.84888    38174.007 
  616100    293.80452   -1560.3651    487.67056    243.59598   -272.54313    38174.007 
  616200    308.36254   -1550.8905    489.24481    319.86703    76.074216    38174.007 
  616300    296.92132   -1551.8021    488.32933    266.78152   -283.06699    38174.007 
  616400    293.68167   -1530.0238     484.3297    270.04608   -415.24883    38174.007 
  616500    304.01946   -1490.7285     490.4463    361.77288   -387.58368    38174.007 
  616600    306.47364   -1551.4027    498.78988    320.43733   -39.141969    38174.007 
  616700    300.59197   -1571.2946    488.47331    263.87805   -456.10188    38174.007 
  616800    307.31427   -1542.2325     478.2707    312.85458   -751.87474    38174.007 
  616900    304.21842   -1554.5768    472.75207    281.12172   -316.70974    38174.007 
  617000    300.17088   -1566.2567    484.28459    262.84071   -276.01681    38174.007 
  617100    306.18591   -1563.4806     480.7419     289.0224   -464.37511    38174.007 
  617200    312.98983   -1601.9182    447.11378    247.43929    133.84448    38174.007 
  617300     312.5255   -1556.9472    482.35499    325.57128     212.7139    38174.007 
  617400    307.83534   -1594.9059    464.51889    248.76376    -416.1229    38174.007 
  617500    294.62866   -1590.3813    480.18123    209.78271     189.8487    38174.007 
  617600    304.21213    -1561.188    482.69029     284.4205     -103.938    38174.007 
  617700    303.84686   -1578.6857    469.52199     252.1181     131.0173    38174.007 
  617800    299.14705   -1553.1339    478.89219    265.98417    555.82008    38174.007 
  617900    302.30222   -1574.5897     510.0951    289.86696    1100.7344    38174.007 
  618000    301.17993   -1536.3584    498.77559    311.75071    460.82321    38174.007 
  618100    294.19604    -1519.868    512.34947    310.52603    179.85888    38174.007 
  618200    298.78232    -1512.146     484.6859    311.13177   -354.91455    38174.007 
  618300     301.2152   -1504.6597    504.08841    348.92023   -978.34385    38174.007 
  618400     292.5065   -1546.4077    498.67523    262.74272   -196.54814    38174.007 
  618500    309.69839   -1506.8361    485.07923    365.74072   -389.51937    38174.007 
  618600    297.91357   -1579.9658     467.7414    222.47525   -399.24137    38174.007 
  618700    298.41608    -1530.011    461.86667    268.80672   -33.920863    38174.007 
  618800    293.32167   -1542.2461    474.48564    246.36683   -180.36918    38174.007 
  618900    296.87412   -1529.3156    464.02481      264.752    28.196617    38174.007 
  619000    305.55325   -1516.6342    489.02967    341.32211   -318.45724    38174.007 
  619100    290.53434   -1526.5784    479.63607    254.69728   -41.446427    38174.007 
  619200     306.4578   -1515.8889    479.62803    336.71835   -282.69092    38174.007 
  619300    307.21356   -1539.5429    489.81313    326.63542   -252.67282    38174.007 
  619400    295.70267   -1520.3125    475.37647    279.85848   -317.06064    38174.007 
  619500    298.87965   -1505.9581    468.56271    301.63256   -188.57312    38174.007 
  619600    296.55405   -1522.2681    491.53548    297.87624    125.32634    38174.007 
  619700    298.57249   -1524.5201    477.47628    290.60795   -103.66086    38174.007 
  619800    297.18335   -1537.7692    465.14835    258.80734   -306.22585    38174.007 
  619900    299.51197   -1527.2113     506.2771    320.92665    43.364658    38174.007 
  620000     293.7799   -1508.4785    476.05332    283.75509   -122.48077    38174.007 
  620100    296.33607   -1484.1461     495.3224    338.80856   -165.73429    38174.007 
  620200     301.1173   -1484.5897    494.19833    358.66151    -223.3882    38174.007 
  620300    299.36338   -1534.5216    453.45193    260.12542    1.3180301    38174.007 
  620400    291.79208   -1513.3358    493.08334    287.02199    511.85243    38174.007 
  620500    294.83846   -1476.2323    481.14775    325.83822    660.20089    38174.007 
  620600    306.22252   -1547.3001    505.69959    330.32467    283.02291    38174.007 
  620700    308.57779   -1569.0645    484.29684    297.70943    155.25462    38174.007 
  620800    299.45459   -1492.9989    485.33975     333.9446   -545.77105    38174.007 
  620900    302.28786   -1530.8552    472.05223    295.49431   -831.62455    38174.007 
  621000    295.87831   -1538.8744    492.62034    279.32732   -116.05599    38174.007 
  621100    294.27059   -1509.8598     475.0092    283.52798   -825.55077    38174.007 
  621200    307.99443   -1506.1643    511.42877    385.12803   -102.50203    38174.007 
  621300    295.28905   -1521.1752     473.3223    275.08853   -281.29485    38174.007 
  621400    292.58465   -1500.1752    511.87801    322.52812   -433.30448    38174.007 
  621500    295.84238    -1508.378     498.0422     315.0847   -509.46662    38174.007 
  621600     307.6109   -1519.5546    473.33625     331.9269   -136.70495    38174.007 
  621700    301.81025    -1527.796    470.74289    295.10435    445.35704    38174.007 
  621800    307.02185   -1516.8633    472.45273    331.09571    127.35385    38174.007 
  621900     302.8052   -1509.1925    505.46085    352.88333    401.91285    38174.007 
  622000    291.64445   -1496.2922    512.69847    323.01935    203.97418    38174.007 
  622100    305.64906    -1511.365    470.68302    328.67389   -238.51321    38174.007 
  622200    308.01781   -1484.2995    470.20299     365.8718   -465.65733    38174.007 
  622300    303.06612   -1514.8436     495.4927      338.433   -467.13469    38174.007 
  622400    308.05464   -1503.0243    488.02707    365.13611    97.076877    38174.007 
  622500    299.53738   -1498.4348    476.44515    319.98498    137.45312    38174.007 
  622600    305.00445   -1522.3239    486.39398    330.53811     398.8058    38174.007 
  622700    293.87109   -1520.9148    493.80808    289.48201    348.47344    38174.007 
  622800    298.39912   -1577.8303    469.69116    228.73588    110.06592    38174.007 
  622900    296.52538   -1553.7455    489.65704    264.39191    116.07779    38174.007 
  623000    287.22237   -1549.1611    469.29452    206.93489    223.13529    38174.007 
  623100    307.02434   -1546.0537    471.34906    300.81273    577.77206    38174.007 
  623200    294.38871   -1575.6304    483.39462    226.67207    76.117515    38174.007 
  623300     307.5902   -1515.8331    489.95837    352.17787    457.12551    38174.007 
  623400    292.77357   -1503.6207     506.3867    314.43772    276.90312    38174.007 
  623500    299.06326   -1533.4345    480.34702    286.76304    286.65887    38174.007 
  623600    298.19141   -1504.0791    506.06171    337.92708    545.84072    38174.007 
  623700    300.60042   -1516.7425    474.11971    304.11443    263.56867    38174.007 
  623800    299.27122   -1498.4317    509.36046    351.71098    610.57804    38174.007 
  623900    299.75478   -1508.6746    512.69901    346.97302    31.433553    38174.007 
  624000    303.19672   -1500.1695    497.28356    355.48313     22.05392    38174.007 
  624100    297.56013   -1524.4599    465.35976    274.01611    422.75586    38174.007 
  624200    300.27708   -1507.1483     490.9325    329.07288   -200.44515    38174.007 
  624300    294.22083    -1473.095     471.4255    316.48614   -373.25694    38174.007 
  624400    293.95054   -1466.2362    481.90092    332.60942   -500.57536    38174.007 
  624500    280.93422   -1452.7684    500.94781    306.80891    -578.4515    38174.007 
  624600    301.98788   -1470.6267    476.42925    358.75584   -661.86263    38174.007 
  624700    302.51117   -1453.0859    498.08253    400.29431   -202.59536    38174.007 
  624800    307.08158   -1477.3264    495.63146    394.07885    170.38076    38174.007 
  624900    293.52603   -1504.1993    481.85179    292.69539   -24.789627    38174.007 
  625000    300.90624   -1525.9274     487.0013     309.1813    307.77053    38174.007 
  625100     307.4214   -1526.2613    454.25653    305.29154   -489.72392    38174.007 
  625200    312.29366   -1551.0415    471.77957    319.86285    666.72024    38174.007 
  625300    313.07294   -1538.7584    475.02527     338.8829    947.56265    38174.007 
  625400    292.54193   -1536.0853    474.83143    249.38007    411.79037    38174.007 
  625500    299.59491   -1524.3478     470.2223    288.10688    470.62533    38174.007 
  625600    307.37337   -1537.2876    494.72409    334.51764    22.222311    38174.007 
  625700    302.73045   -1526.7664    464.96863    294.48227   -307.01497    38174.007 
  625800    311.78029    -1526.124    470.96893    341.66975   -142.14335    38174.007 
  625900    295.92558    -1510.025    456.82726    272.59546   -614.20996    38174.007 
  626000    299.23437   -1515.3162     474.2625    299.56338   -460.45923    38174.007 
  626100     289.3816   -1520.8192    493.68195    269.33792   -315.08199    38174.007 
  626200    305.29271   -1540.8028    484.92487    311.88153   -274.94575    38174.007 
  626300    298.14546   -1554.2694    472.53661    254.00586    494.72549    38174.007 
  626400    304.46843   -1498.9303    468.45848    333.59472   -68.345459    38174.007 
  626500    289.06779   -1556.9069    477.85693    216.01925   -433.92692    38174.007 
  626600    301.26575   -1528.2157    468.31178     289.8141   -2.4755019    38174.007 
  626700    303.37922   -1518.0322    476.94146    318.09593   -462.91041    38174.007 
  626800    296.62332   -1493.4408    484.57506    320.05344   -119.63406    38174.007 
  626900    303.55591   -1495.0219     502.8857    367.84212    -159.8134    38174.007 
  627000    300.74019   -1503.0404    481.87473    326.19778    586.36686    38174.007 
  627100    296.54981   -1528.7363    474.53259    274.38618    526.80687    38174.007 
  627200    295.87056   -1543.7906    509.46598    291.22215    192.41745    38174.007 
  627300    303.16713   -1515.8533    481.70732    324.09051    208.19469    38174.007 
  627400    304.80372   -1529.6897    490.40454    326.28349    217.82896    38174.007 
  627500    304.22965   -1526.8456    470.46896    306.62009    340.47277    38174.007 
  627600    297.59916   -1536.7481    468.81515    265.35817    179.39628    38174.007 
  627700    304.80001   -1560.2149    467.69249    273.02965     359.7611    38174.007 
  627800    298.23385   -1541.6326    478.51839    273.02041    391.35418    38174.007 
  627900    307.42603   -1546.5273    483.87952    314.66929     455.2293    38174.007 
  628000    307.33062    -1527.581    454.66994    303.97854   -71.977788    38174.007 
  628100    290.93966   -1524.9231    492.47122    271.00364   -128.27717    38174.007 
  628200    305.03496   -1533.6757    467.80914    300.73809   -536.37386    38174.007 
  628300    294.89319   -1562.9978    472.41048    230.58063   -253.51796    38174.007 
  628400    303.53065   -1516.0045    463.34233    307.20298    64.976914    38174.007 
  628500    317.19636   -1524.8842    482.29464    378.50012    109.28748    38174.007 
  628600    306.91807   -1547.8949    482.03513    309.18157    7.5096678    38174.007 
  628700    298.80136   -1548.0205    472.85626    263.51293   -304.09377    38174.007 
  628800    292.81195   -1513.0732    468.69113    267.46156   -197.00407    38174.007 
  628900    305.38892     -1497.86    455.92242    326.25288   -434.88638    38174.007 
  629000    306.47548   -1532.8576    467.81965    308.02047   -2.3743595    38174.007 
  629100    292.30723   -1525.8219    448.02434    231.78485    -267.5099    38174.007 
  629200    303.59009   -1537.0451    460.47994    283.56626    562.00784    38174.007 
  629300     294.7596   -1528.3295    465.98677    258.22666    301.31045    38174.007 
  629400    295.43714   -1543.5753    451.28896    231.31854    363.70379    38174.007 
  629500    302.61127   -1555.7451    465.27304    265.27408    230.62227    38174.007 
  629600    300.28288   -1541.1091    469.51699    273.72251    261.86202    38174.007 
  629700    298.92943   -1483.3565    450.70662    306.60105    94.150958    38174.007 
  629800    299.59981   -1477.3021    473.03879      337.991    301.89433    38174.007 
  629900    298.69666   -1473.5477    483.25206    347.91241    339.49378    38174.007 
  630000    293.75795   -1510.5791    473.17976    278.68255    473.50646    38174.007 
  630100    297.56521   -1564.4868      474.543    243.19525   -307.78951    38174.007 
  630200     303.0866   -1548.7195     453.0739    262.23011   -109.44437    38174.007 
  630300    298.22096   -1547.5352    446.06383     234.6055    88.657382    38174.007 
  630400      302.387   -1517.9169    486.40424    323.22868    104.81404    38174.007 
  630500    302.83472   -1512.6172    485.06092    329.19095    201.83147    38174.007 
  630600    292.48251   -1551.3776    450.84797    209.83807   -427.00319    38174.007 
  630700    299.04174   -1529.4798    431.24405    241.51836   -470.33166    38174.007 
  630800    288.39583   -1505.8247    434.25287    220.48687   -326.38729    38174.007 
  630900    302.71187   -1516.5014    466.91083    306.60625    22.527159    38174.007 
  631000    306.28306   -1489.5584    480.04827    362.68616   -273.63269    38174.007 
  631100    290.21274    -1518.968    455.47983    236.71057   -617.55802    38174.007 
  631200    307.86707   -1480.5111    483.14106    381.92295   -110.01216    38174.007 
  631300    297.04827   -1504.8127    450.78588     276.7962    53.149437    38174.007 
  631400    295.60793   -1533.4453    463.26364    254.18842   -133.13304    38174.007 
  631500    303.56669   -1523.7465    461.50129    297.78142   -409.42051    38174.007 
  631600    299.82371   -1523.3114    443.79489     263.7409    -166.6602    38174.007 
  631700    299.60473   -1503.7669    458.48344    296.99287   -456.78801    38174.007 
  631800    305.87212   -1476.6477    465.96958    359.67718   -430.62861    38174.007 
  631900    303.53573   -1489.4027    484.65379    355.13896    28.861364    38174.007 
  632000    306.48166   -1497.2831    488.12035    363.92336   -232.78521    38174.007 
  632100    289.15428   -1467.1442    462.08278    290.39531   -417.81216    38174.007 
  632200    302.74632   -1458.7896    446.61458    344.17622   -213.90053    38174.007 
  632300    297.24648   -1493.2493    436.69051    275.15229   -577.49326    38174.007 
  632400    297.80093   -1449.5912    481.83511    366.43896    132.78564    38174.007 
  632500     291.2726   -1538.2789    453.88769     220.5559    175.52678    38174.007 
  632600    290.37471   -1518.4479    460.43328    242.90976    359.60319    38174.007 
  632700    302.83644    -1497.562    461.25132    320.44423    294.50431    38174.007 
  632800    300.80257   -1521.7163    458.47221    284.39883    676.74089    38174.007 
  632900     292.9265   -1508.5034    470.88289    274.73641   -67.965441    38174.007 
  633000    305.74573   -1527.5513     491.3228    333.56056    665.39937    38174.007 
  633100    298.05304   -1500.6262    462.18445     296.8828   -161.35617    38174.007 
  633200    303.38363   -1538.7968    484.18716    304.59677     160.2871    38174.007 
  633300    302.06222   -1542.0926    473.14961    284.34338    130.77426    38174.007 
  633400    301.71793   -1572.7495    469.74886    248.74317    146.53483    38174.007 
  633500    302.55793   -1555.5478    445.19129    245.15072   -169.52857    38174.007 
  633600    299.34578   -1514.8874    474.18318    300.41205   -545.19705    38174.007 
  633700    300.27433   -1586.5756    467.45205    226.15267    134.36648    38174.007 
  633800    304.43875   -1584.6612    460.54039    239.81276    335.59444    38174.007 
  633900    300.33556   -1552.1123    457.90974    251.34808   -149.39767    38174.007 
  634000    303.84192   -1529.9536    472.10364    303.40974    -122.4164    38174.007 
  634100    297.14112   -1551.5749    452.80104    232.46516    78.850573    38174.007 
  634200    301.14285   -1532.4418    450.65747    267.38305   -233.22259    38174.007 
  634300    309.93331   -1485.3383    471.77875    374.99045   -41.414852    38174.007 
  634400    295.13349   -1558.9533    465.64244    228.93362    550.50599    38174.007 
  634500    293.65571    -1591.217    440.45039    164.85727    289.95372    38174.007 
  634600    300.70354   -1576.8317    462.78616    233.15365    562.43973    38174.007 
  634700    294.34343   -1534.9426    500.24982    284.01211    596.40649    38174.007 
  634800    304.29799   -1512.0872    479.05162    330.26732    927.96058    38174.007 
  634900     302.2503   -1543.4369    462.90896    273.60099    422.18099    38174.007 
  635000    298.27839   -1529.9857    468.20924    274.55773    245.93825    38174.007 
  635100    304.52689   -1520.5087    480.43385    324.25359    -223.3807    38174.007 
  635200    303.06693   -1489.4997    483.22053    351.50844    90.943369    38174.007 
  635300    297.84023   -1490.1136      477.652    321.90952   -101.09645    38174.007 
  635400    309.93625   -1543.4381    451.96995     297.0951    27.663331    38174.007 
  635500    300.12013   -1544.5401    479.34442     279.3898   -134.12751    38174.007 
  635600     288.7904   -1512.8357    455.87905    236.86981      173.493    38174.007 
  635700    301.99182   -1536.8634    461.75991    277.86743      171.923    38174.007 
  635800    303.72067   -1554.1354    447.61938    254.20043   -159.13814    38174.007 
  635900    302.33669   -1531.1993    468.89157    292.20827   -500.41144    38174.007 
  636000    306.04169   -1541.9745    461.74747    290.88793   -754.25774    38174.007 
  636100    301.75165   -1518.7157    480.81933    313.99861   -110.44359    38174.007 
  636200     294.0183   -1498.4019    481.49734    300.34378    101.90965    38174.007 
  636300    293.41868   -1523.0437    496.52335    288.04159    174.77636    38174.007 
  636400    299.44745   -1550.0195    480.27889    271.83116    312.05357    38174.007 
  636500    293.82059   -1535.2324    446.80569    227.93585   -217.77065    38174.007 
  636600    293.94562      -1483.4    474.14463    307.66727   -577.30047    38174.007 
  636700    282.80304   -1489.0671    483.77061     261.7057   -891.62067    38174.007 
  636800    294.74411   -1496.5823    465.40447    289.32217   -767.78886    38174.007 
  636900    306.07018   -1525.0739    463.11348    309.28225   -92.424677    38174.007 
  637000    295.85103   -1509.5782    470.92111    286.80215    52.143267    38174.007 
  637100    290.87922   -1506.7296    473.03382    269.48899    264.31807    38174.007 
  637200    302.79925   -1497.6327     473.3295    332.28515    350.43484    38174.007 
  637300    300.51822    -1532.772    461.89117    275.48818     343.1344    38174.007 
  637400    290.94798   -1538.6741    476.16883    240.98753    80.046089    38174.007 
  637500    303.47609   -1518.4948    461.53367    302.65954   -266.28137    38174.007 
  637600    311.98778    -1536.554    449.57119    310.77154   -379.91471    38174.007 
  637700    313.49287   -1482.0391     483.8933    406.35166   -77.711211    38174.007 
  637800    306.24761   -1507.3707    483.61913    348.28595   -499.53287    38174.007 
  637900    303.40832   -1518.2736    468.64934    309.69281   -467.77992    38174.007 
  638000    295.19195   -1570.6479    478.44313    230.30162   -825.26131    38174.007 
  638100     299.8516   -1490.2067    452.16417    305.33985   -167.95198    38174.007 
  638200    305.68296   -1547.0692    472.12731    294.56593   -602.32645    38174.007 
  638300    308.36727   -1511.7973    456.84446    326.58106   -268.25894    38174.007 
  638400    307.25447   -1535.4127    459.40507    300.54079    425.55802    38174.007 
  638500    308.43637   -1500.1794    465.78665    347.45082    252.39259    38174.007 
  638600    304.52172   -1496.6248    475.80433    343.48485     276.1753    38174.007 
  638700    292.63007   -1511.9783    482.37247    281.42294      254.855    38174.007 
  638800    303.78815   -1528.2171    486.80542    319.60711     221.1248    38174.007 
  638900    302.40489    -1541.671    458.68101    271.83152    368.39727    38174.007 
  639000    302.34929   -1561.6884    476.68701    269.57107    402.52712    38174.007 
  639100     313.8462    -1545.628    476.73816    337.19057     368.4959    38174.007 
  639200    303.06575   -1525.7124    453.79269    285.86259   -75.890003    38174.007 
  639300    304.56892   -1509.7629    480.13569    334.88955   -200.35877    38174.007 
  639400    305.54492   -1521.5408    454.10825    301.45681    117.29572    38174.007 
  639500    293.59997   -1502.5721    457.28439     270.0864     404.1768    38174.007 
  639600    290.47406   -1493.5176    462.50431    270.35626    257.88959    38174.007 
  639700    290.96582   -1476.1809    477.43899    304.83075    232.40251    38174.007 
  639800    297.67928   -1494.8356    459.04144     297.8559    293.68371    38174.007 
  639900     298.7863    -1454.312    487.41657    371.71423    452.06998    38174.007 
  640000    293.61314   -1560.3523    481.31727    236.39812    440.82641    38174.007 
  640100    303.53349   -1517.7888    477.11482    319.20384    562.43557    38174.007 
  640200    295.22786   -1519.8939    487.18232    289.95574    173.20036    38174.007 
  640300    299.71432   -1510.7543    475.56525    307.57833    331.05732    38174.007 
  640400    307.73717   -1536.2067    459.31563    301.81993    8.4705625    38174.007 
  640500    301.52192   -1513.6569    443.30351    280.51226    136.66212    38174.007 
  640600    286.60882   -1486.4828    468.18698    265.75682    45.749199    38174.007 
  640700    296.36111    -1493.541    461.20629    295.40972   -167.65101    38174.007 
  640800    304.68797   -1497.1409    478.30261    346.21181   -452.75933    38174.007 
  640900    298.56304    -1495.032    462.41824    304.99571    -370.9685    38174.007 
  641000    306.21062   -1536.0145    463.41148    299.26882   -85.111072    38174.007 
  641100     307.0569    -1496.052    486.43295    366.04425   -221.35865    38174.007 
  641200    301.24581   -1489.8371    470.53119    330.32278   -184.06967    38174.007 
  641300    301.98657   -1497.3242    467.53991    323.16314    382.42554    38174.007 
  641400    293.76376   -1529.8025    485.91697    272.22235    300.60043    38174.007 
  641500    306.20573   -1521.3697    456.71658    307.19674      234.899    38174.007 
  641600     298.8296   -1493.3933    461.81726    307.22763    283.96651    38174.007 
  641700    294.24578   -1509.8487    474.67756    283.09624    467.56967    38174.007 
  641800    286.61462    -1512.121    487.72764    259.68526    495.17998    38174.007 
  641900    303.98396   -1510.3266    449.96942    301.53885    348.75862    38174.007 
  642000    298.30399   -1516.5395    476.79167    296.70105    99.644694    38174.007 
  642100     300.1374   -1554.3308    441.23975    231.57174    181.49197    38174.007 
  642200    287.17985   -1565.8108    446.38877    167.18888    46.108595    38174.007 
  642300    301.13286   -1571.2576    477.77737    255.64247    715.53882    38174.007 
  642400    295.71346   -1540.6992    466.87114    251.01475    88.353263    38174.007 
  642500    310.74511   -1546.8338    466.90482    312.25808    162.79185    38174.007 
  642600    298.14452   -1525.1735    445.16299    255.72383    181.66696    38174.007 
  642700    302.49471    -1553.145    458.57955    260.65849   -596.47909    38174.007 
  642800    289.23897   -1509.1969    456.79374    243.43303   -829.35152    38174.007 
  642900    304.32115   -1517.5817    455.25851    301.08351   -938.22985    38174.007 
  643000    309.17399   -1530.4302    459.21736    313.93534   -883.10075    38174.007 
  643100    293.14489   -1509.8852    458.03057    261.48063   -1067.0135    38174.007 
  643200    297.91587   -1511.9304    462.23318    285.01276    -360.9266    38174.007 
  643300     298.7696   -1512.7534    491.83533    317.61679   -226.07694    38174.007 
  643400    298.87577   -1516.3744    471.06222    293.69831   -217.36725    38174.007 
  643500    289.80649   -1475.2859    473.31186    296.40473    -467.9428    38174.007 
  643600    300.34202   -1449.9207    467.38336    363.04227    307.89607    38174.007 
  643700    285.94097   -1503.5727    476.85984    254.34773   -147.80696    38174.007 
  643800    302.21082   -1467.8625    492.31741    378.40703   -297.69132    38174.007 
  643900    312.45746   -1447.5016    450.64776    403.00476    673.48624    38174.007 
  644000    313.43537   -1483.9578     459.8497    380.13166    419.33664    38174.007 
  644100    295.19441   -1485.9853    461.89262    298.42479     357.4553    38174.007 
  644200    296.56615    -1487.759    463.65724    304.56131    552.68518    38174.007 
  644300    305.10817   -1493.5163    484.09138    357.50777    311.91176    38174.007 
  644400    294.40407   -1522.1779    488.23587    285.03459    700.90093    38174.007 
  644500    294.86103   -1513.4543    466.89221    274.46175    535.59869    38174.007 
  644600    292.92119    -1533.902    476.36462    254.79567    357.38964    38174.007 
  644700    305.36523   -1515.1124    468.96198    321.93388    523.84817    38174.007 
  644800    291.45971   -1523.9631    458.19279    240.01511   -189.39657    38174.007 
  644900    299.87003   -1475.2703    470.57595     338.7706     316.5895    38174.007 
  645000    310.26559   -1491.2261    458.73477    357.54742    261.02613    38174.007 
  645100    293.57816   -1490.3353    486.33021    311.27129    549.57508    38174.007 
  645200    301.48336   -1502.1607    502.59656     351.1288   -15.330553    38174.007 
  645300    299.28558   -1491.9937    453.85832     302.7112     35.68515    38174.007 
  645400    289.91197   -1501.7765    475.26728    272.34206    228.88027    38174.007 
  645500    290.70136   -1512.3207     472.1968    262.26394     107.7956    38174.007 
  645600    304.68589   -1492.8921    456.16483    328.31349     -269.024    38174.007 
  645700    296.72683   -1467.8149    464.60797    326.17603     239.4033    38174.007 
  645800    299.35553   -1482.2867    486.24475    345.11801    205.43933    38174.007 
  645900    292.33172   -1434.4022    494.08638    369.37637   -352.27918    38174.007 
  646000    297.04226   -1441.4837     462.6145    351.92689   -869.54897    38174.007 
  646100    295.79879   -1451.6593    481.33701    354.90293   -871.39304    38174.007 
  646200    304.42646   -1450.4162    461.31989    374.78217   -1093.0004    38174.007 
  646300    307.22443   -1441.3812    464.51508    399.54768   -794.76408    38174.007 
  646400    292.90803    -1491.933    462.69388    283.03504   -685.14061    38174.007 
  646500    305.12214   -1454.5224    506.16065    418.63346    1.5320284    38174.007 
  646600    305.25159   -1466.7595    484.72413     385.5398    92.149686    38174.007 
  646700    297.44748   -1519.4508    463.87295    277.03375    3.7646114    38174.007 
  646800    300.64091   -1516.5221    444.73297    275.12947    416.39692    38174.007 
  646900    300.64086   -1505.2692     482.3867    324.03597    424.92636    38174.007 
  647000    300.09778   -1554.2737    488.53034    278.74198     606.3968    38174.007 
  647100     295.1374   -1510.6352    472.33219    283.95899    259.44359    38174.007 
  647200    295.88965   -1511.9088    474.73116    288.45461    412.95718    38174.007 
  647300    301.90529   -1478.8732    504.02269    377.73272    301.89733    38174.007 
  647400    308.67304   -1451.1414    470.84056      402.603    324.95564    38174.007 
  647500    290.43812   -1454.5955    488.56944    335.18243    102.32154    38174.007 
  647600    306.78824   -1462.4983    467.75277    379.71407    -234.6398    38174.007 
  647700    292.86855   -1502.8399    425.77165    235.02896   -228.10541    38174.007 
  647800    297.49529   -1450.6046    476.86576    359.08692    331.58045    38174.007 
  647900    289.06818   -1446.9609      505.872    353.98214    454.81678    38174.007 
  648000    299.88334   -1480.9142    470.29676    332.90713    626.75474    38174.007 
  648100    293.06497   -1527.1571    467.01214     252.8323    595.65312    38174.007 
  648200    307.79079   -1503.9133    481.85041    356.88834      601.177    38174.007 
  648300    296.35288   -1490.0703    446.17365    283.81092    468.96235    38174.007 
  648400     302.9522   -1489.7731    465.52085    333.02135   -129.71084    38174.007 
  648500     311.1749   -1484.2366     464.4724    374.34841    372.54646    38174.007 
  648600    305.78902   -1473.4153     465.7871    362.35475    30.917084    38174.007 
  648700    310.31434   -1469.5689     466.0142    386.70239    185.81337    38174.007 
  648800    308.67649   -1466.9085    446.13284    362.14362   -301.63675    38174.007 
  648900    297.21838   -1488.5424    450.61324      293.656    319.75974    38174.007 
  649000     289.9705   -1492.0349    481.95743    289.03609     219.8914    38174.007 
  649100    290.45352   -1515.6127    470.14422    255.80907    654.31136    38174.007 
  649200    300.56855   -1464.3969    479.31205    361.50965    331.04967    38174.007 
  649300    291.39636   -1487.3767     473.4257    291.55056    353.88589    38174.007 
  649400    301.23617   -1519.9511    457.44932    287.08377   -7.0741106    38174.007 
  649500    310.70039   -1545.3185     451.1791    297.84731    119.18222    38174.007 
  649600    298.55754   -1544.1071    459.09972    252.57745    12.026421    38174.007 
  649700    296.11146    -1492.124    441.04322    275.54525    177.35732    38174.007 
  649800    301.66139   -1500.0585    466.29185    317.72396   -413.82776    38174.007 
  649900    295.77658   -1509.9101     469.8684    285.08393    10.071036    38174.007 
  650000    291.57677   -1529.8044     471.7328    248.23823   -71.425189    38174.007 
  650100    300.87637   -1494.5715    471.48651    324.88857    341.69183    38174.007 
  650200    298.16133   -1492.1406    468.13748    311.80663    145.96245    38174.007 
  650300    300.42359   -1547.7523    449.40402    247.59671    284.22282    38174.007 
  650400    303.42398   -1521.1265    467.78496    306.04564   -375.94197    38174.007 
  650500    306.09692   -1480.4269    485.52024    376.45572    -381.0648    38174.007 
  650600    304.39037   -1487.5938    454.93612    331.05911   -326.13057    38174.007 
  650700    296.56018   -1483.3176    453.39539    298.71414    -139.4084    38174.007 
  650800    301.28825   -1500.3169    465.18493    314.68686     181.5967    38174.007 
  650900    305.55089   -1516.2692    450.19462    302.84153   -338.45267    38174.007 
  651000    298.21155   -1483.5025    463.88976    316.42196   -240.83084    38174.007 
  651100    294.75279   -1490.1036    476.96952     307.4049   -392.47768    38174.007 
  651200    291.99353    -1476.392     472.6221    304.40705    -689.4325    38174.007 
  651300    307.41363   -1505.2783    488.82588    360.80905   -605.31403    38174.007 
  651400    301.79417   -1532.1692    473.29652    293.21275   -540.32251    38174.007 
  651500    298.73323   -1493.4348    438.89439    283.83145   -82.973666    38174.007 
  651600    299.10951   -1475.4283    478.14861    342.77796   -28.392151    38174.007 
  651700    302.88707   -1450.5632      467.019    373.43762    274.54061    38174.007 
  651800    306.92282   -1434.1412    482.01197    422.93332    77.125838    38174.007 
  651900    313.19007     -1483.34    468.03711    387.83795    747.14023    38174.007 
  652000    298.17961   -1517.1111    502.33623    321.11677    936.71148    38174.007 
  652100    298.58099   -1442.5139    474.55618     369.7321    1071.5734    38174.007 
  652200    299.92449   -1480.2796    476.02594    339.45534    955.70882    38174.007 
  652300    306.66585   -1460.1481    454.05272    367.81593    125.65032    38174.007 
  652400    294.75023   -1465.8765    466.11062    320.76154   -557.30978    38174.007 
  652500    291.43177   -1492.7208    458.56528    271.50468   -610.59578    38174.007 
  652600    309.93511    -1499.151    464.02604     353.4332   -50.967677    38174.007 
  652700    290.95739   -1501.2871    484.16609     286.4139   -167.93667    38174.007 
  652800    300.35684   -1488.9995    474.29778     330.9442    -39.23175    38174.007 
  652900    290.57037   -1508.9799    437.29121     230.1123   -211.36819    38174.007 
  653000    303.91065   -1486.8865    478.42045    353.10156    140.88278    38174.007 
  653100    305.45955    -1483.126    474.48538    359.86626   -167.25703    38174.007 
  653200     295.6387   -1483.9944    438.77876    279.29234    57.897524    38174.007 
  653300    305.89878   -1461.3019    481.87878     391.0516   -118.66284    38174.007 
  653400    300.96339   -1451.2987    476.77858    373.84326   -67.529721    38174.007 
  653500    292.06157   -1462.4254    443.80905    289.86552   -476.13857    38174.007 
  653600     299.7388   -1465.3682    481.25356    358.76234   -498.70155    38174.007 
  653700    303.87264   -1432.2638    487.18044    416.31391   -406.83845    38174.007 
  653800     301.3495   -1498.5821    442.27788    293.78903   -23.358825    38174.007 
  653900    304.42453   -1460.2643    487.86822    391.47369    9.2863678    38174.007 
  654000    301.82978   -1474.9236    440.50594     317.8273    -295.6166    38174.007 
  654100    296.90297   -1547.0912    461.51363    244.59444   -143.71034    38174.007 
  654200     302.9383   -1513.7687    446.16216    289.60479   -333.17043    38174.007 
  654300    293.72222   -1514.7374    493.94884     295.1332    333.76366    38174.007 
  654400     308.6821   -1499.0225    483.08499    367.00688    69.684961    38174.007 
  654500    288.34157   -1498.4771     463.9273    257.26584   -357.72196    38174.007 
  654600    307.81057   -1500.9839    488.04738    366.10326    260.09595    38174.007 
  654700    289.29988   -1486.1581    506.45147    316.40239    143.83305    38174.007 
  654800    290.74168   -1481.2245    445.02984    266.37387    27.984198    38174.007 
  654900    300.99762   -1512.1026    452.17653    288.59071    -207.6393    38174.007 
  655000    304.98478   -1477.9224    479.93114    368.38865    729.43758    38174.007 
  655100    287.05768   -1485.5425    470.99294    271.51411    564.16308    38174.007 
  655200    298.75299   -1480.9959    479.15421    336.61883    859.38475    38174.007 
  655300    308.87493   -1474.9305    449.11431    357.99214    851.40983    38174.007 
  655400    295.59206   -1516.7503    458.90079     266.4495     554.3826    38174.007 
  655500    305.43724   -1477.9048    480.99036    371.49253     256.1152    38174.007 
  655600    296.52816   -1454.3421    457.03977     331.1905    273.06035    38174.007 
  655700    297.77493   -1514.3971    445.43399    265.11547    481.79512    38174.007 
  655800    301.00565   -1469.0373    474.42951     353.9449    529.83684    38174.007 
  655900    295.33739   -1439.0875    488.54945    372.61997    120.57448    38174.007 
  656000    300.28599    -1461.733    447.31859    330.91413   -447.53398    38174.007 
  656100    296.52589   -1444.2751    457.96162    342.16917   -559.50687    38174.007 
  656200    299.79108   -1430.8181    474.22319     386.5164   -95.742698    38174.007 
  656300    292.27201   -1444.3377    454.21748    319.30438    131.71284    38174.007 
  656400     297.3859   -1469.8003    481.80828    344.34367   -319.37154    38174.007 
  656500    301.53149   -1506.4784    449.64762    294.07776   -62.647348    38174.007 
  656600    304.79369   -1504.2126     455.6277    316.93888   -222.22127    38174.007 
  656700     310.5311   -1445.5859     487.7239    433.36629   -183.26802    38174.007 
  656800    302.59151   -1459.6421    465.90801    361.92356   -362.86971    38174.007 
  656900    290.35021    -1474.877    473.13237    299.07007   -392.37274    38174.007 
  657000    301.77485   -1473.4932     485.8443    364.34991    -351.6847    38174.007 
  657100    290.78961   -1521.5866    443.84609    225.04274     72.81272    38174.007 
  657200    303.85992   -1487.2321    475.00323    349.11145    680.18333    38174.007 
  657300    306.81552   -1512.4518    452.02938    314.15945    467.75204    38174.007 
  657400    300.27364   -1531.6727     468.0314    281.63194    556.25885    38174.007 
  657500    301.25222   -1521.1183    469.87336    298.41247    816.50543    38174.007 
  657600    292.38188    -1519.272    431.09845    221.74335    489.55161    38174.007 
  657700    305.94514   -1581.8701    447.46259    236.27494    485.77314    38174.007 
  657800     304.0201   -1567.0518    481.31117    276.31731    39.628358    38174.007 
  657900    293.14883   -1529.0372    421.70451    206.02024   -61.972423    38174.007 
  658000    295.81293   -1526.2484    476.74852    275.78864   -168.64887    38174.007 
  658100    299.57356    -1512.135    453.16075     283.1625   -470.40738    38174.007 
  658200    297.76228   -1489.4154    450.91979    295.52631   -211.83365    38174.007 
  658300    296.21734   -1533.1224    471.21954    265.19749   -198.57454    38174.007 
  658400    294.20828   -1535.6169    451.31205    233.79456   -737.38973    38174.007 
  658500    304.30437   -1521.4295    454.84084    296.74282   -472.21776    38174.007 
  658600    299.91851   -1514.8391    451.44829    280.29133   -925.00313    38174.007 
  658700    294.41587   -1506.0082    441.08912     254.1104   -736.43121    38174.007 
  658800    294.00252   -1506.9742     431.2733    241.47669   -427.43548    38174.007 
  658900    304.85627   -1497.8913    473.40226    341.31508   -366.85514    38174.007 
  659000    297.94997   -1474.8961    464.86744    324.83411   -626.48377    38174.007 
  659100    297.43312   -1500.9859    466.46109    298.02241   -895.24819    38174.007 
  659200    290.64216   -1493.3734    456.24914    264.99833   -203.35846    38174.007 
  659300    301.58606   -1495.5827    443.71351    299.28386   -144.51697    38174.007 
  659400    291.45834   -1540.0551    469.85858    235.58273    491.03024    38174.007 
  659500    292.02026   -1502.3998    453.64177    259.53873    661.82415    38174.007 
  659600    296.49399   -1480.5552    503.53332     351.3179     300.1328    38174.007 
  659700    293.76328   -1439.0074    451.40486     328.5032   -21.935503    38174.007 
  659800    294.25145   -1466.1816    440.92817    293.03941   -80.633253    38174.007 
  659900    293.68024   -1478.2217    460.09246    297.60451   -342.79414    38174.007 
  660000    293.72778   -1466.4134    450.66404    300.19737   -335.90642    38174.007 
  660100    310.38383   -1466.5888    464.56824    388.54791   -292.28635    38174.007 
  660200    300.68492   -1485.5888    465.59402    327.12105   -649.05684    38174.007 
  660300    299.99621   -1455.2355    456.82851    345.62328   -540.12072    38174.007 
  660400    299.64635   -1452.5398     456.3943    346.31736    -109.6093    38174.007 
  660500     306.4195   -1444.4939     476.4856    404.79937   -661.21641    38174.007 
  660600    292.90341   -1440.4368    477.60495    349.42161   -570.95529    38174.007 
  660700    305.85323   -1483.5107    474.75803    361.51799    -490.5314    38174.007 
  660800      306.491    -1487.778    472.58652    357.93646   -572.78433    38174.007 
  660900     303.9541   -1489.7637    482.89021     354.8887    536.63799    38174.007 
  661000    301.88198   -1534.5964    477.76063    295.64299    -9.369308    38174.007 
  661100    297.42738   -1528.9117    456.26107     259.8709    112.61029    38174.007 
  661200     301.6982   -1506.4495    460.12764    305.33365    351.32207    38174.007 
  661300    296.37568   -1488.8916    471.77924    310.69735    219.31506    38174.007 
  661400    303.40967    -1500.266    463.98351    323.04062    258.53748    38174.007 
  661500     304.8662   -1487.5657    503.38895    381.67187    696.94306    38174.007 
  661600    289.75137   -1507.2925    488.39086    279.23016    186.44624    38174.007 
  661700    305.04209   -1534.1148    458.68278     291.2046    139.73049    38174.007 
  661800    302.99881   -1491.9595     457.3837    322.90657    332.34529    38174.007 
  661900    294.90736   -1521.5774    458.99323     258.6472   -132.28022    38174.007 
  662000    301.48336   -1510.5273    443.39602     283.5617    175.77894    38174.007 
  662100    295.67033   -1551.6662      443.333    216.31643    144.13962    38174.007 
  662200    297.28233   -1513.4997    453.02409    271.39606    192.97164    38174.007 
  662300    302.17112    -1503.951    446.37099    296.19422    131.62108    38174.007 
  662400    291.90776   -1514.9351    461.55208    254.40975   -235.17368    38174.007 
  662500    300.15576   -1491.4628    482.54206    335.82428     52.66916    38174.007 
  662600    302.63796   -1505.3597    449.77052    300.27659    414.96801    38174.007 
  662700    307.37775   -1550.9247    458.25356    284.42962   -552.40498    38174.007 
  662800    296.43617   -1534.5065    452.34006    245.91429   -541.93735    38174.007 
  662900    302.36938   -1512.4434    454.81211    297.03115   -125.18694    38174.007 
  663000    301.47861   -1493.6772    455.69799    312.69244   -325.20452    38174.007 
  663100    300.19419   -1518.9106    451.94577     277.9524    -826.5644    38174.007 
  663200    308.07639   -1489.8314    463.87534    354.27463   -594.74207    38174.007 
  663300    297.31695   -1515.9414    459.48948    275.57485    -896.0362    38174.007 
  663400    296.76341   -1499.6867    430.38703    260.24715   -791.08695    38174.007 
  663500    305.12315    -1490.599    452.80991    329.21067    -167.9585    38174.007 
  663600    301.17524   -1534.3944    449.03766    263.95574   -456.14307    38174.007 
  663700    292.94675   -1542.9547    452.97987     222.4728    36.254252    38174.007 
  663800    314.08457   -1540.5665    437.73962    304.32147     471.3035    38174.007 
  663900    297.92255   -1513.6261    441.79802    262.91187    228.93491    38174.007 
  664000    302.87139   -1540.5955     437.1653    253.48133   -225.75459    38174.007 
  664100    290.28394   -1547.1833    450.24049    203.57496    299.39816    38174.007 
  664200     303.3284   -1546.9197     461.6665    273.70577    139.91089    38174.007 
  664300    297.32887    -1541.804    462.91115    253.18737    65.118275    38174.007 
  664400    301.33644     -1539.88    453.79357    263.94832   -120.11318    38174.007 
  664500    303.27133   -1491.7161    451.35046    318.33763   -88.943956    38174.007 
  664600    295.91193   -1506.7449    454.60246    273.58962   -713.76179    38174.007 
  664700      293.834   -1552.2241    466.26114     230.4597   -624.93796    38174.007 
  664800    306.24809   -1533.1147    452.51921     291.4442   -333.25522    38174.007 
  664900     307.1535   -1480.0057    447.34594     343.4363    -280.1051    38174.007 
  665000    303.46401      -1532.8    461.59344       288.36   -714.02778    38174.007 
  665100    306.68414   -1530.9078    458.42527    301.51068    50.371463    38174.007 
  665200    301.73761   -1486.2645    451.26258    316.83014   -355.46765    38174.007 
  665300    292.60224   -1493.8114    472.50202    289.59479   -216.32869    38174.007 
  665400    294.66207   -1506.6569     447.5914    261.06695    481.70754    38174.007 
  665500    295.76137   -1529.3619    459.41258    255.10825   -36.445055    38174.007 
  665600    305.53748   -1482.9714     489.5355    375.42017    26.750706    38174.007 
  665700    292.49487    -1461.945    449.53846    298.01654   -446.68783    38174.007 
  665800    295.49827   -1450.5101    458.13827    331.50701     350.2825    38174.007 
  665900    295.82735   -1416.7547     482.8135    391.41195    351.00416    38174.007 
  666000    304.47277   -1433.0264    464.79329    395.85283    125.12952    38174.007 
  666100     307.0568   -1443.1809    467.12596    399.60789    222.40771    38174.007 
  666200    300.83156   -1432.6885    472.82049    387.90479     343.7808    38174.007 
  666300    302.19084   -1459.1629    487.29709    381.99669   -159.08299    38174.007 
  666400    300.97696   -1486.0225     460.1543    322.55597    224.12895    38174.007 
  666500    310.01888   -1487.5965     446.7493     348.0862     307.0863    38174.007 
  666600    289.16711   -1496.4977    453.10774    252.12418    163.77955    38174.007 
  666700    300.27867   -1477.0264    457.45417    325.72348    269.44529    38174.007 
  666800    308.71376   -1530.7118    472.57078    324.94519    444.86587    38174.007 
  666900    302.32206   -1513.3387    470.81187    311.92364    -11.88722    38174.007 
  667000    302.72017   -1514.4802    459.30594    301.05978    611.55278    38174.007 
  667100    290.04397   -1494.0346     478.8602     284.2683    328.68281    38174.007 
  667200    295.42528   -1500.3358    469.88402    293.10005   -551.12854    38174.007 
  667300     303.7213   -1517.3785    477.64745    320.98818   -425.01434    38174.007 
  667400    289.99499   -1507.4536    477.46148     269.2311   -524.95655    38174.007 
  667500    300.49813   -1490.1818    453.73553    309.83268   -482.41869    38174.007 
  667600    303.14813   -1524.2485    437.26876    271.17159   -350.53474    38174.007 
  667700    298.54464   -1492.2736    473.49086     318.7443   -591.32349    38174.007 
  667800     298.4162   -1513.7531    432.33111    255.52955   -259.40365    38174.007 
  667900    305.68758   -1516.2456    447.45189    300.73483   -277.08906    38174.007 
  668000    303.53659   -1511.0642    445.43559    294.26316   -244.43107    38174.007 
  668100    303.55664   -1494.4821    450.12737    315.62682   -85.329242    38174.007 
  668200    309.34055   -1479.9147    467.10148    373.08117    62.048889    38174.007 
  668300    298.20319   -1489.8286    491.37142    337.54002    174.11566    38174.007 
  668400    297.31932   -1487.6286    455.99697    300.40573    161.98325    38174.007 
  668500    298.27193   -1462.2064    483.05275    357.15155   -73.231902    38174.007 
  668600    298.14875   -1442.0077    470.18938    363.93501    203.46446    38174.007 
  668700    297.54296   -1454.3282     461.1388     339.8499   -54.587995    38174.007 
  668800     301.9354    -1461.731    469.10039    360.08757   -177.45452    38174.007 
  668900    297.18524   -1487.9392    463.68147    307.17895     207.8658    38174.007 
  669000    297.80615   -1469.8669    452.64678    316.99828    98.631727    38174.007 
  669100    309.59153   -1490.4416    461.93341    358.51066    373.00221    38174.007 
  669200    300.47023   -1424.3324    458.28905    380.11062    346.58078    38174.007 
  669300    296.62852   -1436.9126    467.94233    359.97229   -188.77221    38174.007 
  669400    305.89192   -1446.0929    449.39586    373.74692   -206.06345    38174.007 
  669500    301.89854   -1467.6892    467.55273    352.41655   -370.15897    38174.007 
  669600    294.78319   -1458.1467    465.04296    327.57138   -186.89547    38174.007 
  669700    305.99432    -1421.171     481.4253      431.157   -356.52632    38174.007 
  669800    300.04031   -1421.1438    482.03794    405.12202   -106.57328    38174.007 
  669900    303.44189   -1457.9742    475.72557    377.21879   -287.53227    38174.007 
  670000    297.75467   -1462.6077    428.93739    300.31754   -530.81554    38174.007 
  670100    301.49606   -1470.8444    487.02805    366.93347    3.9287142    38174.007 
  670200    301.33968   -1498.1336    462.15881    314.07447    171.77311    38174.007 
  670300    308.19192    -1476.977    471.43636    375.20776    469.55531    38174.007 
  670400    296.88007   -1442.0601    465.32536     353.3347    155.00521    38174.007 
  670500    299.53702   -1451.0689     475.0501    365.95424   -328.40827    38174.007 
  670600    298.50017    -1459.602    446.10121    323.82694    114.04585    38174.007 
  670700    288.12909   -1427.2105    489.25179    352.90503    51.293641    38174.007 
  670800    307.07914   -1438.1796    464.44868      402.032   -169.28092    38174.007 
  670900    302.53369   -1443.7775    462.16066    373.78179   -127.73178    38174.007 
  671000     302.4932   -1484.7451    461.35124    331.82331   -364.69912    38174.007 
  671100    308.19041   -1463.8933    463.81761    380.66583   -67.906457    38174.007 
  671200    290.55869   -1458.1185     486.5829    330.21311    -361.4874    38174.007 
  671300    301.52294   -1462.3671    466.23696    354.74014     135.1261    38174.007 
  671400    297.28306   -1459.8432    442.43366    314.46545    125.89257    38174.007 
  671500    295.57916   -1458.6333    508.86873    374.47661    14.133051    38174.007 
  671600    298.23953   -1483.7708    447.01012    299.39942    103.53146    38174.007 
  671700     305.2968   -1488.3129    499.65014    379.11504   -302.25735    38174.007 
  671800    298.72323   -1482.4577    477.35068    333.22011   -1164.8051    38174.007 
  671900    300.37962   -1492.4768    426.05908     279.3303   -677.47341    38174.007 
  672000    295.48223    -1493.844     463.1952    293.15816   -487.64668    38174.007 
  672100    301.27242   -1515.5443    471.50447    305.70803   -437.97364    38174.007 
  672200    304.59334   -1491.3349    467.23281    340.52402   -299.35121    38174.007 
  672300    306.40752   -1523.0955    465.49156       315.15   -397.68719    38174.007 
  672400    298.45457   -1507.1512    467.00821    296.98052   -425.14594    38174.007 
  672500    311.93296     -1498.54    473.68573    372.65454    128.57701    38174.007 
  672600    290.56395   -1461.6787    462.54317     302.6367   -61.370872    38174.007 
  672700     296.9773   -1482.4674    459.59553    307.63317    7.6161796    38174.007 
  672800     311.2992   -1478.6442    450.89358     366.9188    432.17059    38174.007 
  672900    298.80767   -1457.2149    472.32577    353.81627    8.9803911    38174.007 
  673000    297.26263    -1481.497    465.08624    315.37265    414.19006    38174.007 
  673100    304.53841   -1477.7394    465.19102    351.83165    362.69437    38174.007 
  673200     301.9441    -1487.328    482.53922    347.96832    736.95588    38174.007 
  673300    312.09125   -1473.7928    508.67651    433.10162    174.65332    38174.007 
  673400    307.95941   -1509.9842    433.54046    303.26287   -349.55588    38174.007 
  673500    303.63133   -1537.1257    454.17269    277.36322   -814.38637    38174.007 
  673600    293.37088   -1509.6527    446.35482    251.04991   -850.59144    38174.007 
  673700    304.67941   -1494.4222    470.22192    340.81145    204.94443    38174.007 
  673800    295.71406   -1461.1297    476.80594    340.52181    115.86377    38174.007 
  673900    303.61508   -1469.9541    476.31771    366.60696    54.302405    38174.007 
  674000    294.99792   -1478.7507    470.58686     313.4733    489.61091    38174.007 
  674100     291.0453   -1527.5598    444.53543     220.9044   -63.258103    38174.007 
  674200    304.07517   -1524.6654    489.08006    326.71932    405.80367    38174.007 
  674300    297.39635   -1508.5377    451.16197    275.00678    -18.17307    38174.007 
  674400    301.14649   -1518.9608      460.024    290.24686   -703.46826    38174.007 
  674500    294.57761   -1463.2183    463.26017    319.79594   -1117.2868    38174.007 
  674600    302.52273    -1480.153    467.87473    343.07119   -1106.7237    38174.007 
  674700    294.52174   -1506.4164    463.31595    276.40329   -685.65421    38174.007 
  674800    299.11043   -1526.8871     460.6499    273.82466   -719.53899    38174.007 
  674900    298.59655    -1529.316    474.17732    282.62091    26.024102    38174.007 
  675000    299.46422    -1531.607    441.74456    251.78447    100.88386    38174.007 
  675100    305.12236   -1482.7654    471.71479    355.94566    358.16103    38174.007 
  675200    304.58826   -1535.4136     452.4009    281.59069     381.0745    38174.007 
  675300    297.75943   -1510.4892    467.44829    290.96825    530.44891    38174.007 
  675400    299.86388   -1486.8409    451.73427    308.33075    95.985292    38174.007 
  675500    302.78021   -1492.0391    463.91111    328.37507   -3.4280955    38174.007 
  675600    292.29653   -1465.8829    461.59547    305.24711   -377.57073    38174.007 
  675700    295.50654   -1466.7562    464.86506    322.02473   -282.36807    38174.007 
  675800    304.50252   -1457.2128    483.60249    390.60898   -100.96359    38174.007 
  675900    310.58788   -1497.0281    452.93424    347.38878    123.08651    38174.007 
  676000    293.36765   -1500.1495     465.3142    279.49796    441.55068    38174.007 
  676100    298.22194   -1488.5276    471.28241    318.83605    386.48819    38174.007 
  676200     310.2963   -1478.7628    471.47927    382.89274    399.31174    38174.007 
  676300    295.88556   -1502.9334    445.70248    268.38294    22.786588    38174.007 
  676400    298.68005   -1470.6078    485.58445    353.11038    664.90494    38174.007 
  676500    297.51044   -1498.2423    458.21663    292.86793    96.272467    38174.007 
  676600    305.40207    -1470.963    487.54454    384.83091    141.82825    38174.007 
  676700    301.19591   -1467.8698    462.56624    344.10158    292.94515    38174.007 
  676800    294.39675   -1471.4714    453.19753    300.66991   -191.00643    38174.007 
  676900    297.30459   -1490.9949    479.05702    320.03351   -411.67325    38174.007 
  677000    289.75731   -1474.4581    475.11355     298.8138   -619.00864    38174.007 
  677100    301.44929   -1484.0084      445.798    312.32991    154.23858    38174.007 
  677200    292.03043   -1513.7205    466.09883    260.72064   -197.87558    38174.007 
  677300    297.83515   -1478.7118    458.65337    314.28994    349.01948    38174.007 
  677400    303.69238   -1482.7293    444.70245    322.56288   -295.97956    38174.007 
  677500    301.32792   -1500.1747    440.68835     290.5102   -778.96028    38174.007 
  677600     310.4247    -1471.944    468.93294    387.74049   -297.64001    38174.007 
  677700    294.87892   -1444.0828    439.31254     316.3338   -705.18901    38174.007 
  677800    302.34689   -1488.8845    454.48198    320.15911    -22.32991    38174.007 
  677900    310.03328   -1464.8444    463.42882    387.58239    20.518453    38174.007 
  678000     300.5147   -1506.8935    481.90313     321.3628   -1.3491342    38174.007 
  678100    300.35781    -1488.239    449.69324    307.10451   -72.308095    38174.007 
  678200    291.17462   -1511.9583    427.81934    220.36917    -218.0972    38174.007 
  678300    298.82858   -1472.4733    486.65877    352.98451   -660.08854    38174.007 
  678400    300.46623   -1461.0713    457.21613    342.28089   -170.91598    38174.007 
  678500    294.57889   -1456.9405    457.93331    320.75269   -349.27574    38174.007 
  678600    300.29262   -1449.9931    476.04779     371.4129   -166.39303    38174.007 
  678700    306.06537   -1457.7479    475.41374    388.88691   -337.18672    38174.007 
  678800    302.58565   -1478.6176    431.30446    308.31824    167.43006    38174.007 
  678900    300.20959   -1479.7005    472.19997    337.48573   -370.65468    38174.007 
  679000    299.38139   -1466.9475    451.62613    325.95439    47.111548    38174.007 
  679100    315.21171   -1433.8052    441.58285    419.97577   -419.68462    38174.007 
  679200    302.09367   -1451.3184    445.71849    347.82727   -45.123173    38174.007 
  679300    297.63898   -1453.4254    460.09252    340.13669    590.72855    38174.007 
  679400     297.0428   -1473.4571    470.46453    327.80596    153.26038    38174.007 
  679500    298.12214   -1477.4554     470.5533    328.73209    573.74421    38174.007 
  679600    305.17225   -1474.3485    473.32777    366.19903    595.22708    38174.007 
  679700    297.78196   -1491.6398    455.00637    297.47667    684.57516    38174.007 
  679800     295.5143   -1446.4263       465.88    343.40429    636.56464    38174.007 
  679900    306.26958   -1464.5818    495.21145    402.76556    672.55365    38174.007 
  680000    293.66113   -1480.2145    475.70804    311.14162    687.95467    38174.007 
  680100    312.31273    -1539.849    450.22068    309.58194    1130.7737    38174.007 
  680200    308.01385   -1488.4413    470.21534    361.72464    403.64259    38174.007 
  680300     297.9824   -1480.2828    481.25262    335.97794    428.24358    38174.007 
  680400     299.0002   -1494.0836    469.43878    314.92314    387.21587    38174.007 
  680500    300.38855   -1505.7399    446.06495     286.1131   -11.583644    38174.007 
  680600    309.30129   -1470.4641    464.77046    380.02488   -61.651634    38174.007 
  680700    301.41232   -1496.2867    466.50646    320.59442    28.156222    38174.007 
  680800    296.04559   -1488.7708    471.17796    308.73801   -67.218023    38174.007 
  680900     295.8384   -1460.9074    451.61574      316.111   -146.59651    38174.007 
  681000    305.23106   -1472.2184    488.86924    384.13405    228.89552    38174.007 
  681100    306.15771   -1448.8223    472.49411    395.30655   -271.49964    38174.007 
  681200     293.8058   -1415.4356    506.49332    407.35398   -281.18522    38174.007 
  681300    307.28589   -1414.0446    485.68952    448.33412   -589.14333    38174.007 
  681400    294.20926   -1456.4085    474.93728    336.63264   -271.68528    38174.007 
  681500    295.89909    -1442.495    485.90886     369.0884   -313.42868    38174.007 
  681600    298.66811   -1454.2866    490.81191    374.60547   -64.894777    38174.007 
  681700    300.18837   -1474.8314    486.85443    356.91425   -208.28291    38174.007 
  681800    298.61829   -1480.0757    489.30083    347.08211   -194.87714    38174.007 
  681900    308.79519   -1514.1744    445.47516    314.75185    234.51237    38174.007 
  682000    299.38712   -1516.9266    469.93269    294.30759   -312.43977    38174.007 
  682100    312.32451   -1487.9663     452.4262    363.72283    39.560808    38174.007 
  682200    292.79697   -1464.8558     480.7837    327.70448   -677.99824    38174.007 
  682300    298.52176   -1500.6414    463.31203    300.09508   -203.63828    38174.007 
  682400    302.10818   -1537.2565    473.24651    289.48222   -391.55127    38174.007 
  682500    296.40456   -1542.1867    441.03934    226.79181   -271.37941    38174.007 
  682600    292.06206    -1478.081    487.34227    317.74526   -299.14184    38174.007 
  682700    301.86428   -1433.0902    488.91913     408.2284   -259.14063    38174.007 
  682800    292.26317   -1483.7838    456.87144    282.47265   -321.64822    38174.007 
  682900    296.76739   -1499.2634    474.78055    305.08176   -666.90914    38174.007 
  683000    300.96087   -1499.5351    471.28786    320.10486   -324.83948    38174.007 
  683100    306.53039   -1501.7133    460.38242    331.97361    169.33713    38174.007 
  683200    298.04051   -1505.8445    489.31851     318.7424   -109.99227    38174.007 
  683300    301.81796   -1507.0907    444.71488    289.81612   -268.83337    38174.007 
  683400    293.93742   -1497.1849    447.06032    266.76133    241.29493    38174.007 
  683500    294.62372    -1497.096     499.1685    322.03313   -92.740003    38174.007 
  683600    294.10474   -1467.8527    431.65453    281.43742   -101.44704    38174.007 
  683700    299.54331   -1491.6598    460.55573    310.89716    245.78164    38174.007 
  683800    294.48102   -1494.1092    457.58295    282.79514   -401.04537    38174.007 
  683900    307.18806    -1463.361    458.95552    371.84544   -167.74842    38174.007 
  684000    302.70448   -1482.8978    450.64605    323.91195   -302.74882    38174.007 
  684100    307.29711   -1454.7215     475.0734    397.09137   -901.00868    38174.007 
  684200    298.20165   -1426.4726    499.27878    408.79655   -424.07945    38174.007 
  684300     302.5461   -1464.0241     453.8555    345.28561   -638.52424    38174.007 
  684400    310.27097   -1461.4921    490.87899    419.44965   -252.82683    38174.007 
  684500    299.77074   -1455.8799     463.6282    350.76843     -406.839    38174.007 
  684600    302.51028   -1475.0879    461.69562    341.90144      323.724    38174.007 
  684700     305.0642   -1517.0508    468.71194    318.39676    458.72245    38174.007 
  684800    303.92448   -1472.2985    482.23313    371.56412    354.91039    38174.007 
  684900    301.67501   -1487.7042    478.64164    342.48902    372.21429    38174.007 
  685000    296.54251   -1546.8987    467.73651    249.39495     329.3341    38174.007 
  685100    300.39127   -1521.3546     464.9824    289.42801    269.35857    38174.007 
  685200    297.18748   -1538.4276    461.57617    254.59526    482.63706    38174.007 
  685300    298.03083   -1541.1162    482.36894    276.47783    1270.3965    38174.007 
  685400      288.997   -1499.9123    476.23977    271.07954      116.714    38174.007 
  685500    303.07515   -1491.6227    462.46817     328.6699    196.55917    38174.007 
  685600    294.76411   -1496.8526    474.51823    298.25528    27.916694    38174.007 
  685700    294.93076   -1502.4182    469.81742    288.73545   -16.736434    38174.007 
  685800    305.27261   -1462.4762     494.4395    399.63269   -72.339589    38174.007 
  685900    293.19964   -1467.6763     462.7888    308.69306   -51.487265    38174.007 
  686000    299.04159   -1453.8513    491.58121     377.4833   -228.60011    38174.007 
  686100    298.71227   -1470.2595    479.74141    347.75993    375.93159    38174.007 
  686200    293.30993   -1515.7651    463.15723    261.46686    564.07535    38174.007 
  686300     306.8113   -1506.1943     486.5378    354.90642    216.60871    38174.007 
  686400    302.43304   -1508.9514    446.51817    292.51445    -394.4051    38174.007 
  686500    298.90145   -1454.6944    462.57242    347.00365    -511.8313    38174.007 
  686600    299.59293   -1471.9788    467.04895     337.2937   -389.79301    38174.007 
  686700    282.64686   -1494.6011    466.50903    238.21034   -533.34839    38174.007 
  686800    307.87115   -1486.3942    459.35164    352.26871   -232.29743    38174.007 
  686900    293.35775   -1486.9693    471.31515    298.63482   -518.81686    38174.007 
  687000    299.68263   -1444.9971      471.758     369.3863   -309.28534    38174.007 
  687100    305.68811   -1429.8022     478.9325    418.66121   -681.91502    38174.007 
  687200    299.79628   -1488.8238    454.62962    308.94033   -297.73462    38174.007 
  687300    292.41884   -1483.0778    516.84853    343.85314    -175.0301    38174.007 
  687400    310.91184   -1525.2114    467.30144    335.02409      110.188    38174.007 
  687500    306.17736   -1507.2257    476.80137    341.29848    144.47406    38174.007 
  687600    298.38666   -1505.1886    467.77011    299.40076    334.67553    38174.007 
  687700    299.55896   -1486.6066    456.89214    312.35683    56.981872    38174.007 
  687800    289.03268   -1473.5494    479.77183    301.13442    179.16458    38174.007 
  687900    301.22079    -1502.233    481.58905    328.87263   -119.43014    38174.007 
  688000    302.85769   -1528.4994    461.76442    290.11514   -180.23594    38174.007 
  688100    302.92195   -1494.5287    472.53456    335.14386   -186.62661    38174.007 
  688200    310.98577   -1523.2442    472.17756    342.19855   -26.708393    38174.007 
  688300      301.609   -1509.5324    482.99495    324.71835   -603.49387    38174.007 
  688400    298.61713   -1508.3495    457.32535    286.82762   -402.48828    38174.007 
  688500    294.57224   -1507.9667    456.05734    267.82064   -589.53309    38174.007 
  688600    298.27433    -1487.564    497.84451    346.59652   -219.61993    38174.007 
  688700    299.00163   -1507.5343    459.96606    292.00617   -139.78289    38174.007 
  688800     298.0755   -1531.0782    458.79958    263.14656   -761.89439    38174.007 
  688900    300.69172   -1506.1244    480.24697    321.26889     -193.557    38174.007 
  689000    289.81857   -1508.3563    513.80924    303.88581    142.87735    38174.007 
  689100    303.84613   -1535.4951    477.22635    303.00978    417.29911    38174.007 
  689200    298.50505   -1544.4668    463.77951    256.66236   -88.437632    38174.007 
  689300    301.23078   -1533.4707    462.92254    279.01314    -476.7964    38174.007 
  689400    302.47585   -1514.7682    488.15301    328.52427    52.077974    38174.007 
  689500    305.48859   -1501.8051    464.60221    331.43409    137.50068    38174.007 
  689600     294.9104   -1549.5429    473.20637    244.90852   -424.21972    38174.007 
  689700    302.96356   -1552.3409    467.16736    272.15097    306.76792    38174.007 
  689800    307.71663   -1547.2524    482.52259    313.88914   -221.76236    38174.007 
  689900    298.07516   -1522.7256    457.56624    270.26435   -76.079334    38174.007 
  690000    299.56997   -1519.0492    457.47624    280.54771    173.48422    38174.007 
  690100    296.19089   -1489.5802    462.47826    299.87988    -228.0762    38174.007 
  690200    305.36607   -1484.7664    483.40466    366.72641    2.6222538    38174.007 
  690300     299.8543   -1485.9811    481.18625    338.59966    55.126778    38174.007 
  690400    292.40041   -1524.5395    490.47455    275.93495    331.27912    38174.007 
  690500    302.77457   -1505.3286    458.86339    310.01257   -341.56383    38174.007 
  690600    306.87843   -1475.1767    467.73861     367.4256    178.87201    38174.007 
  690700     312.9104   -1541.7117    450.61792    310.79408    381.10157    38174.007 
  690800    305.62447    -1546.821    485.25078    307.67556    507.42247    38174.007 
  690900    296.91966   -1555.6165    459.06835    233.69863    1019.7291    38174.007 
  691000    310.97806   -1574.2848    474.91828    293.86417    1068.4253    38174.007 
  691100    298.10978   -1562.1986    461.43215    234.81229     868.0755    38174.007 
  691200    300.70822   -1518.5375     489.0603    317.74298    701.44421    38174.007 
  691300    301.83224   -1516.0097    480.62748    316.87379    690.76868    38174.007 
  691400    299.61067   -1520.4362    478.81975    300.68656      243.242    38174.007 
  691500    305.32298   -1540.8184    478.84555    305.92222    42.815923    38174.007 
  691600    293.52385   -1509.3388    484.30335    289.99766    269.91047    38174.007 
  691700     290.8896   -1503.6635    475.73526      275.303   -114.36132    38174.007 
  691800    303.84114   -1532.8702    479.55431    307.94031     151.5838    38174.007 
  691900      296.147   -1520.1613    465.45855    272.08245    -90.76506    38174.007 
  692000    310.65501   -1511.7523    470.48347    350.51457    97.325202    38174.007 
  692100    301.05125   -1506.9555    481.86951    323.67104   -305.21399    38174.007 
  692200    290.18835   -1535.6993    455.02087    219.41106   -438.83195    38174.007 
  692300    300.11891    -1528.733    476.79662     292.6436    170.33954    38174.007 
  692400    300.41528   -1542.2435    464.48227    268.14655   -7.1326599    38174.007 
  692500    290.42934   -1533.7018    479.78529    247.25267    174.73228    38174.007 
  692600    301.51978   -1522.2529    488.46663    317.06982    338.60276    38174.007 
  692700    294.69806   -1529.0679    478.07581    269.30167   -197.52917    38174.007 
  692800    302.21013   -1485.7841    477.56971    345.73462   -137.68835    38174.007 
  692900    304.47778    -1511.235    480.42909    333.30248    -474.8698    38174.007 
  693000    295.64591    -1547.741    458.41979    235.21906    388.85608    38174.007 
  693100    304.51596   -1510.4745    457.00249    310.80742    507.42927    38174.007 
  693200    291.08388   -1525.2304    456.94424    235.81551   -45.166931    38174.007 
  693300    306.30286   -1553.3277    498.02429    316.98162     411.7649    38174.007 
  693400    298.80362   -1545.0281    465.07729    258.73649    937.71222    38174.007 
  693500     301.6022   -1520.7197    490.65219     321.1579    703.87169    38174.007 
  693600    300.59903   -1498.9535    485.57446    333.35194    761.66203    38174.007 
  693700    294.43485   -1509.1747    448.47893    258.41874   -197.88755    38174.007 
  693800    297.17575   -1517.8547    489.82011    303.35958    73.750603    38174.007 
  693900     299.4973   -1518.9864    478.91359    301.72226    212.86143    38174.007 
  694000    294.96323   -1482.4218     482.3133     321.3732    359.81308    38174.007 
  694100    302.14315   -1558.9436    471.56503    266.27033    209.19043    38174.007 
  694200      295.162   -1539.9464    455.41634     237.8422    45.463999    38174.007 
  694300    297.62932   -1554.3286    494.52875    273.62634   -115.55378    38174.007 
  694400    298.31411   -1523.5734    456.72811    269.64895    69.256997    38174.007 
  694500    295.29159   -1532.3746     502.9602    293.53844    295.72264    38174.007 
  694600    295.88537   -1507.2238    474.93606    293.32535   -297.51395    38174.007 
  694700    290.92875   -1507.7875    465.62061    261.23978    -123.1005    38174.007 
  694800    298.99975   -1510.7684    486.53563     315.3332   -186.55155    38174.007 
  694900    302.75451   -1511.1383    478.93279    324.18236   -4.1193879    38174.007 
  695000    292.87632   -1520.4409    458.12579    249.81689   -448.29501    38174.007 
  695100    300.03368   -1479.9571    458.42217    322.66316   -409.88926    38174.007 
  695200     299.4727   -1470.1955    464.56546     336.0548   -1285.7893    38174.007 
  695300    291.94815   -1500.1246    480.38019    288.22932   -1082.2956    38174.007 
  695400    300.73311   -1478.5659    459.53734    328.30313   -561.14415    38174.007 
  695500    307.55063   -1525.9446    477.24153    329.17218     499.2947    38174.007 
  695600    298.01161   -1495.8816    483.12673    322.38411   -120.72082    38174.007 
  695700    291.63945    -1477.975    474.82172    303.43743   -81.684459    38174.007 
  695800    296.99172   -1489.2629    463.67852     304.9853   -37.903035    38174.007 
  695900    296.28371   -1461.0409    489.77415    356.13096    500.60798    38174.007 
  696000     301.3241   -1501.3125    480.18923     328.8562    82.107848    38174.007 
  696100     300.3946   -1504.9476    489.85946    330.72694    235.75086    38174.007 
  696200    303.04946   -1461.7491    495.27426    391.23447    348.90231    38174.007 
  696300    303.11934   -1448.2509    472.37836     382.1498    109.42662    38174.007 
  696400    297.14708   -1469.4588     482.0509    343.85785    425.30029    38174.007 
  696500    309.68299   -1467.0841     467.9811    388.32557    898.50667    38174.007 
  696600    293.56216   -1463.1249     488.1269    340.20676    720.19133    38174.007 
  696700    296.79375    -1508.981    463.72567    284.42744   -34.392782    38174.007 
  696800    294.33158   -1465.8782    470.36378    323.13735   -105.34302    38174.007 
  696900    301.24166   -1479.7576    495.80022    365.65264   -136.83493    38174.007 
  697000     308.4153    -1494.965    482.76722    369.55139    181.75202    38174.007 
  697100    294.92069   -1434.2168    478.42887    365.50327    159.10931    38174.007 
  697200    303.85798    -1517.264    476.21701    320.28466   -15.273174    38174.007 
  697300    299.91774   -1518.5256    473.02002    298.17312   -734.47849    38174.007 
  697400    308.63991   -1522.0292    480.32245    341.04861   -53.189971    38174.007 
  697500    304.15878   -1501.9012    480.88416    341.66217    427.84363    38174.007 
  697600    302.95611   -1541.3502    444.06543    260.00636   -688.41409    38174.007 
  697700     309.1034    -1506.878    470.87617    348.83004   -107.03326    38174.007 
  697800    302.99188   -1527.8864    494.51597    324.08094    94.882796    38174.007 
  697900    281.44838   -1521.3391    457.08743     196.6814    440.91451    38174.007 
  698000    302.69526   -1516.9576    467.42555    306.59037    237.43506    38174.007 
  698100    298.71213   -1470.9831     458.8856    326.17989    75.991846    38174.007 
  698200     302.1209   -1521.6068    468.06328    300.00574    205.87792    38174.007 
  698300    289.16982   -1545.8264    461.62225    211.32224   -520.36198    38174.007 
  698400    296.11239   -1496.5045    468.97745    299.10309   -416.44904    38174.007 
  698500    290.39863   -1473.8815    464.77348     291.9236   -429.54168    38174.007 
  698600    294.33402   -1468.2222    501.74271    352.18325   -329.75483    38174.007 
  698700    295.78061   -1486.4738    481.59415    320.26404   -128.43771    38174.007 
  698800    313.34318   -1464.1683    481.51957    421.17809    308.93338    38174.007 
  698900    299.45431   -1476.2422    477.28197    342.64223   -51.321813    38174.007 
  699000    302.17579   -1448.3982    499.69032    405.08723    242.15231    38174.007 
  699100     303.5696   -1491.2697    500.52925    369.29914   -14.156078    38174.007 
  699200    305.20027   -1523.7888    490.13722    333.69372    243.51884    38174.007 
  699300    296.17922   -1547.8854    450.63815    229.68231    265.69271    38174.007 
  699400    297.10013   -1508.5329    459.16173    281.68425    45.246534    38174.007 
  699500    298.25766   -1505.7312    459.86086    290.37099   -129.78195    38174.007 
  699600    297.75002   -1510.9361    463.38931    286.42022    402.50187    38174.007 
  699700    302.69968    -1488.984    491.84014    358.99837    230.17193    38174.007 
  699800    296.50022   -1513.4646    491.20383    306.10695    188.28814    38174.007 
  699900    293.58977   -1520.0186    460.11722    255.42697   -27.268734    38174.007 
  700000    301.91814   -1526.5337    465.60078    291.70791    287.35467    38174.007 
  700100    304.64793   -1539.4389    452.83217    278.26403     244.9258    38174.007 
  700200    294.96121   -1511.5797    477.52592    287.41886    46.752992    38174.007 
  700300    303.30002   -1537.9697    470.27699     291.1391   -229.80041    38174.007 
  700400    312.75408   -1538.4687    476.07148    338.79034    202.80713    38174.007 
  700500    292.56256   -1506.5281    456.78431    260.98253    130.54469    38174.007 
  700600    292.96187    -1542.296    502.03269    272.25204    548.34568    38174.007 
  700700    305.75581   -1503.9406    442.70745    308.60102    46.445839    38174.007 
  700800    309.76261   -1537.3924    442.43724    292.83008    428.84484    38174.007 
  700900    301.88765   -1526.2505    471.40258    297.65633    506.78336    38174.007 
  701000    295.32182   -1496.3323    442.02881    268.78483    225.56265    38174.007 
  701100    295.72672   -1488.7592    464.96697     301.1101    11.659068    38174.007 
  701200    290.48894   -1531.7165    480.15585     249.8756   -424.27361    38174.007 
  701300    300.49676   -1499.3711    461.02706    307.92881   -368.49313    38174.007 
  701400    304.18925   -1508.6377    457.64584    311.82393   -444.52998    38174.007 
  701500    302.68134   -1477.6675    472.75228    351.14484   -743.65595    38174.007 
  701600    305.57891   -1490.4872    462.57268    341.12712   -452.65157    38174.007 
  701700    306.32444   -1493.8274    477.04506    355.59943   -29.069789    38174.007 
  701800    290.69052   -1479.8192    491.48927    314.00942    386.79437    38174.007 
  701900    301.51052   -1499.9308     454.6059    305.48975    51.617774    38174.007 
  702000    304.11759   -1517.5941    466.21873    311.11935    333.87145    38174.007 
  702100     295.1372    -1485.747    476.95814     313.4723   -93.843423    38174.007 
  702200    297.62559   -1472.2707    449.20562    310.34444    64.497675    38174.007 
  702300    301.22559    -1488.436    470.21249    331.31456   -652.22224    38174.007 
  702400    295.59348   -1449.6549    471.14474    345.79513   -446.12317    38174.007 
  702500    295.04638   -1452.9973    475.14666    344.00359   -133.23681    38174.007 
  702600    294.58098   -1456.4432    457.83384     321.1598    464.07834    38174.007 
  702700    309.87055   -1493.3136    445.47451    340.42977    68.057089    38174.007 
  702800    303.56813   -1511.8438    475.67625    323.86551    -108.9328    38174.007 
  702900    294.10088   -1467.0045    464.80705    315.42081    115.40724    38174.007 
  703000    299.60652   -1493.2495    445.08807    294.12295    295.36891    38174.007 
  703100    290.16108   -1532.8445    465.93883    233.06163    695.59811    38174.007 
  703200    303.94433   -1515.8343    483.81787    329.70204    520.30173    38174.007 
  703300    294.60029    -1513.869    454.76504    260.75173    345.87619    38174.007 
  703400    307.16756   -1480.5761    481.74657    377.32953    198.62288    38174.007 
  703500    295.14995   -1483.7286    467.47522    306.06486    46.896607    38174.007 
  703600    311.39026   -1523.4189    481.87467    353.53317    645.36116    38174.007 
  703700    291.83598   -1502.7472    470.57813    275.30207    410.04571    38174.007 
  703800    302.11123   -1467.0973    469.60213    356.01071   -73.036675    38174.007 
  703900    311.70576   -1460.1585    466.98887    403.32126    164.68122    38174.007 
  704000    301.50854   -1469.4602    473.48231    354.82782   -15.341986    38174.007 
  704100    300.06928   -1447.6365     480.6943    377.41542    221.70735    38174.007 
  704200    284.80924   -1528.8434    457.48147     204.6283   -33.567685    38174.007 
  704300    297.47575   -1532.7604     474.8765    274.85431    28.861101    38174.007 
  704400    301.78836   -1536.8079    458.21693    273.46846   -80.421915    38174.007 
  704500    305.09493   -1506.9583    468.66631    328.58134    228.62305    38174.007 
  704600    298.32553   -1504.4753    477.99802    310.06812   -299.06735    38174.007 
  704700    288.63358   -1501.9026    477.12231    268.34366    32.413505    38174.007 
  704800    304.45202   -1518.9333    475.85247    320.91214   -225.64634    38174.007 
  704900    306.67968   -1476.2632    482.61376    380.32377   -191.05547    38174.007 
  705000    301.84451   -1468.9664    455.65355     338.9981    399.92333    38174.007 
  705100    300.72201    -1506.986     452.4548    292.75082   -237.76708    38174.007 
  705200    298.86991   -1483.9432    494.69554    349.73657   -39.623063    38174.007 
  705300    301.44864   -1500.5654     452.0801    302.05208   -211.40484    38174.007 
  705400    307.81641   -1511.4132    473.61411    341.26692   -40.296501    38174.007 
  705500    298.59194   -1521.4727    459.14848    275.41471    729.65415    38174.007 
  705600    310.94141    -1504.009    470.68684    359.74434    713.24649    38174.007 
  705700    304.19687   -1517.3201    477.39226    322.92206    434.83673    38174.007 
  705800    304.83608   -1526.2935    485.81153    325.23167    372.93433    38174.007 
  705900    303.89624   -1517.8625    462.53277    306.17326   -53.449202    38174.007 
  706000     301.7851   -1502.6113    457.26557    306.69906    144.95131    38174.007 
  706100    307.87084   -1516.0647    496.70574    359.95089    248.58856    38174.007 
  706200    294.44542   -1474.9202    461.85828    306.09991   -181.37507    38174.007 
  706300    304.09299   -1515.3825     491.9328    338.93482   -116.68906    38174.007 
  706400    291.76259   -1522.5314     466.3684    250.97931   -659.05687    38174.007 
  706500    294.91442   -1522.1452    461.23812    260.35598   -802.19469    38174.007 
  706600     297.3394   -1518.1466    458.69496    272.67574   -474.93033    38174.007 
  706700    301.95986   -1510.9724    470.43572    312.29105   -441.57962    38174.007 
  706800    306.87928   -1469.7777    480.00119    385.09101    58.423063    38174.007 
  706900    308.29031   -1459.5833    449.97021    371.57604   -144.53084    38174.007 
  707000    305.78057    -1474.546    449.93903    345.33819   -489.39528    38174.007 
  707100    297.16189   -1494.2628    477.17605    314.24532     111.9768    38174.007 
  707200    306.33151   -1483.4002    473.13454    362.14775   -377.06617    38174.007 
  707300    289.13193   -1445.8481    447.61293    297.12142    65.348912    38174.007 
  707400    306.06458   -1459.3226    470.76389     382.6588   -583.31173    38174.007 
  707500    295.59849   -1479.1445    466.96078    312.14413   -275.39441    38174.007 
  707600    301.30358   -1446.1783    507.45783    411.16707   -198.80907    38174.007 
  707700    293.99377   -1452.9774    500.15336     364.3143   -562.90339    38174.007 
  707800    304.50037   -1469.5751    456.19834    350.83292    112.68855    38174.007 
  707900    302.12644   -1510.7922    458.02646    300.80826   -580.12571    38174.007 
  708000      298.421   -1494.0708    476.18973    319.09198   -410.17397    38174.007 
  708100    303.48598   -1533.6695    458.59878    284.59433   -345.72543    38174.007 
  708200    302.61375   -1492.1222    465.30211    328.93716    119.60962    38174.007 
  708300    306.83684   -1489.4889    455.73011    340.91854    66.346932    38174.007 
  708400    309.56074   -1508.9602    483.63717    361.55782    659.97906    38174.007 
  708500    300.75454   -1508.9832    484.71097    323.15548    244.60524    38174.007 
  708600    298.87302   -1541.2991    463.07151    260.77059   -460.94041    38174.007 
  708700    291.56928   -1523.6809    457.43354    240.02893   -105.39658    38174.007 
  708800    313.38933   -1533.8539    474.81412    344.99375    222.12942    38174.007 
  708900    302.09889   -1543.0063    468.46808    278.91236    316.00307    38174.007 
  709000    307.60984   -1507.6341    482.33444    352.84085    225.19434    38174.007 
  709100    305.59164   -1538.2771     467.3429    298.16452    574.23247    38174.007 
  709200    298.82115   -1538.6329    457.37706    257.50994   -169.00906    38174.007 
  709300     301.4651   -1529.2485    468.30438    289.66701    80.545164    38174.007 
  709400    301.47781   -1486.2265    448.46087    312.90243    -451.3163    38174.007 
  709500    300.56127   -1515.8643    451.83636    282.53394     51.22572    38174.007 
  709600    297.15733   -1493.6542    471.19352    308.85092   -302.57689    38174.007 
  709700    303.17429   -1490.2042     473.7451    341.80946   -412.48676    38174.007 
  709800    295.45349   -1537.9451    439.41575    225.14883   -198.41898    38174.007 
  709900    292.23726   -1504.0929    461.46738     266.6434    61.555077    38174.007 
  710000    310.20903   -1532.3788    459.10409    316.51058    270.31036    38174.007 
  710100    302.77249    -1544.772    464.93842    276.63485    264.05762    38174.007 
  710200    300.17475   -1491.0672    482.81411    336.57705    261.03926    38174.007 
  710300    307.17891   -1505.7063     438.0816    308.58525     347.1084    38174.007 
  710400    303.84966   -1531.7919    466.27313    295.77561    221.90412    38174.007 
  710500    299.79528   -1499.2646    474.72965    318.59508   -50.239008    38174.007 
  710600    298.34073   -1502.3767    457.85059    292.08731    -736.8512    38174.007 
  710700      299.795   -1483.6785    460.59895    320.04927    -134.4349    38174.007 
  710800    303.97935    -1521.277    467.16344    307.76187   -194.51358    38174.007 
  710900    294.98872   -1522.3618    472.77195    272.00606   -515.97298    38174.007 
  711000    296.76075    -1499.425    490.46139    320.57134   -39.761177    38174.007 
  711100    305.20039   -1471.1408    449.82922    346.03418    -216.8395    38174.007 
  711200    293.71671   -1480.0381    444.05815    279.91719   -460.36027    38174.007 
  711300    307.93853   -1505.5037     497.8786      371.988   -390.18618    38174.007 
  711400    291.65614   -1494.5589    441.98477    254.09133   -727.85896    38174.007 
  711500     293.4829   -1490.4966    481.87624     306.2293   -770.63804    38174.007 
  711600    298.09759   -1485.6393    465.44111    315.32598   -826.63493    38174.007 
  711700    297.07895   -1497.0679    463.16172    297.05436   -161.54134    38174.007 
  711800    295.45212   -1498.1087    459.42369    284.98705   -610.21768    38174.007 
  711900    293.88425   -1508.9785    448.70249    256.37173   -645.50197    38174.007 
  712000    306.11611   -1527.7249    450.20165    293.92519   -14.542144    38174.007 
  712100    299.67271   -1545.6154    453.76606    250.73167   -194.55584    38174.007 
  712200    314.07031   -1510.1215    472.35262    369.31553   -193.79941    38174.007 
  712300     300.2778   -1522.8404    461.50552    283.95694   -241.88373    38174.007 
  712400    299.28235   -1475.0048    469.22707    335.05434   -671.44626    38174.007 
  712500    298.79494   -1489.7234    446.16463    295.08966   -62.504741    38174.007 
  712600    289.15337   -1553.5767    461.84585    203.72177    145.37368    38174.007 
  712700    296.04054   -1487.6797    471.06785    309.69645    39.638171    38174.007 
  712800    304.14278   -1475.9672    473.84773    360.48812   -254.95454    38174.007 
  712900    308.96606   -1519.9897    460.66147     324.8884    388.60065    38174.007 
  713000    299.62738   -1525.0921    454.20642    271.49217    343.39058    38174.007 
  713100    306.24882   -1539.4873    467.66988    300.22555    484.61573    38174.007 
  713200     309.1244   -1558.8037    450.94949    277.07182    104.29788    38174.007 
  713300    302.13768   -1503.6358    465.38432    315.37295     270.3705    38174.007 
  713400    296.26643   -1529.5716    481.93749    279.68612    523.16083    38174.007 
  713500    307.73269   -1527.5389    444.16544    295.31746    452.90095    38174.007 
  713600    307.30761   -1547.4348    469.03386    298.38553    219.71528    38174.007 
  713700     298.6212   -1557.5884    462.00166    242.28328    26.416031    38174.007 
  713800    296.08237   -1559.0444     449.7241    217.17532   -273.85271    38174.007 
  713900     304.5431   -1559.6874    439.24844     243.9621    57.883482    38174.007 
  714000    303.77676   -1578.9113     473.1417    255.19817    887.88368    38174.007 
  714100    299.74366   -1606.1295    429.80148    166.57076    761.88448    38174.007 
  714200    294.48112   -1556.0752    477.47169    240.71825    411.62288    38174.007 
  714300    306.32518   -1564.5374    469.14322    276.99084    150.40132    38174.007 
  714400    294.49553   -1516.4895    467.33862    270.23551   -569.98244    38174.007 
  714500    306.82441   -1500.1667     467.5192    341.97417   -11.519099    38174.007 
  714600    294.82376   -1508.8745     466.0667    278.04909   -124.34363    38174.007 
  714700    306.38298   -1513.1296    462.07104    321.58542    13.561447    38174.007 
  714800    301.48625   -1523.6141    468.73751    295.82929   -229.07252    38174.007 
  714900    295.69217   -1476.0528    454.35249     303.0472   -295.87682    38174.007 
  715000    285.50657   -1470.3779     501.7307    310.46717    146.48217    38174.007 
  715100    302.49941   -1462.4025    496.43693    389.27946     185.5505    38174.007 
  715200    295.65651   -1469.4639    483.47968    338.60354    665.63216    38174.007 
  715300    303.25436    -1488.111    491.27184    361.78815    582.64215    38174.007 
  715400    292.82926    -1530.966    458.93289    239.88807    842.10088    38174.007 
  715500    311.93043   -1521.3511    467.57323    343.71953     41.37887    38174.007 
  715600    303.67374   -1507.1235    462.75548    316.13821    -459.4599    38174.007 
  715700    306.83403   -1547.0219    473.58509    301.22802   -1164.9959    38174.007 
  715800    304.76606   -1512.5789    468.01242    320.83345   -1032.7184    38174.007 
  715900    301.23446   -1497.8699    473.19741    324.90529   -1180.0746    38174.007 
  716000    304.77701   -1474.8876    465.82705    356.38844   -1297.8474    38174.007 
  716100      308.289   -1463.8502    477.71452    395.04754   -1074.8343    38174.007 
  716200    299.19826    -1486.528    448.14865    302.07595   -453.45177    38174.007 
  716300    297.52495   -1511.6188    475.25138    296.59125   -307.24336    38174.007 
  716400    306.52384   -1521.7481    456.85332    308.38028     272.2812    38174.007 
  716500     297.1797   -1496.8018     496.0279    330.63799    365.69597    38174.007 
  716600    297.66436   -1506.3136    472.39965    299.66926    597.07258    38174.007 
  716700    295.22257   -1520.6844    461.99158    263.95079    305.90337    38174.007 
  716800    308.13121    -1501.567    453.09294    332.00224   -211.56304    38174.007 
  716900    286.21351   -1470.2807    473.07711    285.07798   -490.23009    38174.007 
  717000    305.20598    -1531.367    462.58186    298.58572   -53.668125    38174.007 
  717100    301.17357   -1537.1434    462.25527    274.41687   -435.21747    38174.007 
  717200    295.74816   -1520.9057    477.99595    282.08862   -563.22526    38174.007 
  717300    302.65368   -1516.6868    455.97769    295.22704   -460.77711    38174.007 
  717400    298.67127   -1500.9954    450.51078    287.60972   -723.49351    38174.007 
  717500    305.58835   -1519.1511    442.45313    292.38602    196.30144    38174.007 
  717600    295.69726   -1545.9771    446.00097    224.79411    104.17232    38174.007 
  717700    297.33831   -1480.7017    496.00519    347.42596   -56.553956    38174.007 
  717800    301.52083   -1496.4328    468.44345    322.87152    395.85122    38174.007 
  717900    293.29411   -1478.0239    472.53581    308.51572   -323.40023    38174.007 
  718000    302.00573   -1474.9368    479.74705    357.84355    -7.764656    38174.007 
  718100    307.28392   -1484.8875     461.2216    353.01449    525.13103    38174.007 
  718200    296.48705   -1537.3887    465.40533    256.32527    922.48843    38174.007 
  718300    296.93706   -1490.1686    461.63979    301.79599    667.17527    38174.007 
  718400    305.47805   -1501.0833    484.14444    351.65092    1086.6226    38174.007 
  718500    292.16069   -1536.4124    464.95288    237.46641    526.22958    38174.007 
  718600    306.77084     -1524.35    471.24691     321.2786    558.85078    38174.007 
  718700    286.81416   -1517.7027    467.17538    234.44527     278.1313    38174.007 
  718800    301.49068   -1534.0837    477.95934    294.60133   -138.23844    38174.007 
  718900    304.84004   -1509.7478    486.55545    342.53907   -561.83931    38174.007 
  719000    299.16501    -1499.299    478.42799    319.43538   -661.69373    38174.007 
  719100    297.34045   -1498.7326     491.2971    324.69659   -541.56159    38174.007 
  719200    290.43952   -1455.8099    488.25532    333.66025   -475.95768    38174.007 
  719300    289.73445   -1467.4216    484.24893     314.8833   -798.77689    38174.007 
  719400    304.94062   -1475.3437     513.8912    404.72953   -706.57031    38174.007 
  719500    292.39205    -1468.346    483.27934     324.8958   -538.30274    38174.007 
  719600    296.01633   -1455.7641    490.34878    360.78448   -474.99307    38174.007 
  719700    295.80535   -1463.6747    499.05285    360.63274   -389.08444    38174.007 
  719800    287.00727   -1439.6453    469.53097    315.72351    322.82744    38174.007 
  719900    297.43839   -1496.5648    488.31956    324.32563    435.82538    38174.007 
  720000    307.20333   -1509.6124    467.31026    334.01722    155.17416    38174.007 
  720100     304.8108   -1547.9314    481.44283    299.11182    109.63103    38174.007 
  720200    300.29021   -1508.3304    481.01621    318.03322     -460.689    38174.007 
  720300    308.26712   -1527.4145    490.17097    343.84166   -248.96513    38174.007 
  720400    298.76335   -1481.9038    481.41344    338.01649   -380.63107    38174.007 
  720500    295.50707   -1496.1549    466.94376    294.70708   -454.53027    38174.007 
  720600    299.06746   -1525.6385     492.3303    306.56115    311.52413    38174.007 
  720700    303.63078   -1497.6312    453.26455    315.94708    183.59541    38174.007 
  720800    301.27424   -1504.7642    458.77271    303.76457    164.79144    38174.007 
  720900    309.33675   -1558.5007    492.55033    319.92696    368.49832    38174.007 
  721000    295.31999   -1529.5205     468.8535    262.41307    331.98385    38174.007 
  721100    305.95709   -1523.6946    457.15222    304.19358    269.52697    38174.007 
  721200    299.26339   -1493.6676    491.70322    338.78275    409.77312    38174.007 
  721300    288.72675   -1478.2129    442.54899    257.87742    197.19388    38174.007 
  721400     295.6203   -1515.0974    481.09695    290.42502   -50.175937    38174.007 
  721500    303.97334   -1501.2657    460.91122    321.49394    346.82946    38174.007 
  721600    298.55697   -1488.8115    481.39631    330.16708    -427.5949    38174.007 
  721700    302.91133   -1508.6019    439.83053    288.31911    -46.90792    38174.007 
  721800    291.64514    -1547.834    462.49408    221.27621   -526.42103    38174.007 
  721900    302.95371   -1527.7948    475.33708    304.82264   -384.34224    38174.007 
  722000    292.96112   -1511.9531    489.25772    289.81656   -595.83206    38174.007 
  722100    308.12461   -1548.1522    446.07465    278.36927   -552.07695    38174.007 
  722200     297.9024   -1502.8894    472.09673    303.85703   -542.77408    38174.007 
  722300    299.98172   -1507.8252    471.29412    307.43429    112.58813    38174.007 
  722400     306.5568   -1582.6291    459.66385    250.45747    187.21209    38174.007 
  722500     307.8091   -1548.0498    480.67138    311.65484    293.43315    38174.007 
  722600    301.93354   -1531.7412    494.27161    315.24024    301.25348    38174.007 
  722700    292.51014   -1556.7891    444.14142    197.84384    221.16872    38174.007 
  722800    285.20176   -1508.1905    478.71212    248.27042    334.45021    38174.007 
  722900    299.75636   -1501.2341    484.65561    326.37722   -492.05049    38174.007 
  723000    309.19625   -1478.9812    477.51433    383.78103   -419.68163    38174.007 
  723100     303.8647   -1506.4992    499.39279     354.2553   -180.39503    38174.007 
  723200    292.56359   -1458.7953    471.92455    323.86024   -442.18132    38174.007 
  723300    313.52331   -1457.8575     476.8252    423.60147   -191.64451    38174.007 
  723400    312.07345   -1477.5202    475.97535    396.59339   -587.25946    38174.007 
  723500    306.44352   -1489.8136    464.67653    347.77819   -200.85785    38174.007 
  723600    298.44852   -1478.0575    485.62627    344.66514    154.23057    38174.007 
  723700    297.51042   -1520.9955    488.50349    300.40153    88.883613    38174.007 
  723800    293.51759   -1566.3504    455.82267     204.4773    48.604921    38174.007 
  723900    303.36575   -1527.9404      456.188    287.37391    285.64731    38174.007 
  724000    306.22682   -1558.7853    448.90846    262.06749    255.13292    38174.007 
  724100    293.03223   -1488.0533    453.64619    278.42343    129.28574    38174.007 
  724200    306.30286   -1526.0569    461.92845    308.15661    728.70952    38174.007 
  724300    304.23882   -1495.4391    496.43608    364.03476    456.95885    38174.007 
  724400    302.49485    -1512.014    495.42168    338.63226    519.78539    38174.007 
  724500    299.72978   -1509.5898    487.93972    321.18654    258.75223    38174.007 
  724600    305.21834   -1487.1988    488.86107    369.08855    255.56067    38174.007 
  724700    301.85281   -1501.9397    468.68219    319.09059    1069.8095    38174.007 
  724800    293.48485   -1504.5328    500.63044    310.95596    1229.6148    38174.007 
  724900    282.82629   -1512.5737    451.17018    205.70286    370.13328    38174.007 
  725000    302.48263   -1500.8507    508.13812     362.4572    732.11926    38174.007 
  725100    298.25508   -1501.7357    474.29475    308.78877    231.20724    38174.007 
  725200    302.73055   -1545.0881    483.81561    295.00801    427.53942    38174.007 
  725300    295.55752   -1547.1528    461.23613    238.22756    107.02155    38174.007 
  725400    287.99475   -1527.6398    467.02341    229.64541    197.08614    38174.007 
  725500    303.73299   -1505.9983    499.83399    354.60735    622.09243    38174.007 
  725600    294.08966   -1497.3038    526.40187    346.66609    762.13871    38174.007 
  725700    296.02073   -1565.3504    472.81622     233.6853    469.60577    38174.007 
  725800    292.41157   -1489.9733    493.34709    313.42368    352.04559    38174.007 
  725900     295.5377   -1542.5919    458.99722    240.46079   -226.49368    38174.007 
  726000    303.61577   -1540.3584    477.22982    297.11791   -294.12653    38174.007 
  726100    301.86901   -1554.9404    449.93225    247.41252   -294.32351    38174.007 
  726200    302.35975   -1537.3656    468.92358    286.17732    830.16474    38174.007 
  726300      305.901   -1520.9799    479.33507    328.83981    497.65279    38174.007 
  726400    301.31304   -1502.0537    464.32579    312.20196    498.34243    38174.007 
  726500    304.10817   -1528.3475    483.36231    317.46735    550.08204    38174.007 
  726600    292.76567   -1504.4468    473.13061     280.3201    439.07791    38174.007 
  726700    310.26055   -1460.2351    485.81367     415.5947     288.1207    38174.007 
  726800    295.59737   -1457.6245    474.59782    341.29612   -62.654889    38174.007 
  726900    303.17048      -1506.8    469.35549    320.80701   -30.082988    38174.007 
  727000    293.39757   -1489.6756    470.82477    295.61649   -287.22662    38174.007 
  727100    297.49636   -1502.7227    450.55507    280.66294   -660.21073    38174.007 
  727200    300.52207   -1510.9233     487.8598    323.32273   -169.67632    38174.007 
  727300    301.92889   -1509.5657    452.41761    295.54092    -25.65062    38174.007 
  727400    303.60449   -1491.6214    463.90159    332.47608   -235.03882    38174.007 
  727500    292.74086   -1491.0711    494.85761    315.31167     96.52911    38174.007 
  727600    308.33022   -1471.1522     471.9537    382.16949    355.48375    38174.007 
  727700    295.52853   -1494.4511    465.77911    295.34243    8.5927999    38174.007 
  727800    294.13494   -1460.9962    472.55063    329.32531   -288.51559    38174.007 
  727900    294.86263   -1504.5434    454.45534    270.94292   -280.88776    38174.007 
  728000    297.70366    -1500.996    478.11338    310.87667     -458.401    38174.007 
  728100    301.35198   -1521.6767    442.61502    271.04259   -485.23745    38174.007 
  728200     297.9914   -1497.8962    460.94126     298.0935   -419.59602    38174.007 
  728300    302.84361   -1495.1641    498.62512    360.24804   -262.85862    38174.007 
  728400     297.4353   -1518.0133    463.41571    277.95943   -15.528436    38174.007 
  728500    292.73087   -1525.3646    471.68156    257.79741   -24.364371    38174.007 
  728600    297.10591   -1521.5057    451.21605    260.79162   -189.31318    38174.007 
  728700    293.25949   -1528.2888    468.54547    254.10534   -622.27252    38174.007 
  728800    298.79328   -1499.3869    481.31507    320.56909   -554.68666    38174.007 
  728900    306.24146   -1504.1891    448.43158    316.25242   -201.21607    38174.007 
  729000    291.30496   -1538.8059    479.17525     245.4614   -369.62994    38174.007 
  729100    312.25106   -1495.2903    480.60351    384.24716    19.902703    38174.007 
  729200     305.2367   -1486.0857    476.87014     358.2929    42.044903    38174.007 
  729300    294.46191   -1502.3111    453.68178    270.60637   -259.49075    38174.007 
  729400    304.06441   -1455.9739    466.88781    373.17031   -66.323363    38174.007 
  729500     296.7075   -1476.0626    473.03085    326.26463    48.527792    38174.007 
  729600    301.51964   -1506.6616    464.03995    308.23386   -1.3241628    38174.007 
  729700    297.42178    -1524.035    448.13766    256.59908   -277.68215    38174.007 
  729800    301.79804   -1492.3966     487.0629    346.76901   -299.41839    38174.007 
  729900     284.0926   -1511.9936    425.37159     186.1576   -437.25732    38174.007 
  730000    307.89233   -1478.0823    461.18949    362.51331    35.523757    38174.007 
  730100    304.31343   -1495.8988      476.081    343.55429    146.73532    38174.007 
  730200    309.68147   -1489.2785    465.80131    363.94453    121.44813    38174.007 
  730300    294.44701   -1486.8362    479.31325    311.64601   -206.77367    38174.007 
  730400     294.6193   -1537.7008    463.93521    246.17533   -401.50605    38174.007 
  730500    284.61916   -1533.6532    461.90781    203.39331   -287.05613    38174.007 
  730600    304.21086   -1480.6279    492.89267    375.17739    173.45732    38174.007 
  730700    295.87391   -1500.7642     448.1614    272.95889   -39.248671    38174.007 
  730800    302.88432   -1543.9122    468.93945    281.99664    51.239951    38174.007 
  730900    295.01746   -1526.7117    471.48271    266.49567   -391.39436    38174.007 
  731000    296.54189   -1533.7137     449.9919    244.83253   -173.05333    38174.007 
  731100    291.45035   -1526.7591     469.0936    248.07794    107.05979    38174.007 
  731200    306.63401   -1501.3279    451.79454    324.23526   -297.10091    38174.007 
  731300    296.69252    -1510.848    441.15163     259.5329   -105.72822    38174.007 
  731400    308.86367   -1502.8714    443.48677     324.3733    61.856409    38174.007 
  731500    301.93457   -1523.9637    488.52356    317.27432    214.09632    38174.007 
  731600    304.98078   -1531.7085    459.96767    294.62109    294.30212    38174.007 
  731700    291.74784   -1502.0097    480.00082     285.0674    340.77858    38174.007 
  731800    304.33543   -1516.3105    467.46866    314.62885    56.817406    38174.007 
  731900    304.41329   -1526.7418    445.35551    282.43318    173.45603    38174.007 
  732000    309.15222    -1500.905    463.11367    347.25929     173.3266    38174.007 
  732100    294.95904   -1525.8922    451.77068    247.34147   -192.14175    38174.007 
  732200    308.45048   -1541.9053    462.42854    302.42998    417.90663    38174.007 
  732300    314.19348   -1540.9872    450.53156    317.18067      535.177    38174.007 
  732400    297.26457   -1572.8987    431.04236    189.93578   -144.81043    38174.007 
  732500    312.03896   -1495.7281    490.03921    392.29482    129.11319    38174.007 
  732600    293.86056   -1502.1961    460.63752    274.98304    506.32963    38174.007 
  732700    301.47745   -1514.8067     496.7583    332.61804   -333.18598    38174.007 
  732800    306.18072   -1487.1177    482.18092    366.80106    213.25699    38174.007 
  732900    304.54949   -1442.8115    488.61153    410.22971    365.05441    38174.007 
  733000    294.27799   -1464.0634    474.15393     328.5023    7.5107765    38174.007 
  733100    312.10818   -1481.5601    485.76769    402.50143    485.12654    38174.007 
  733200     300.8146   -1522.4238    457.31955    282.59251   -423.91661    38174.007 
  733300    287.02303   -1512.0247    451.43146    225.31509    -339.4439    38174.007 
  733400    308.31484   -1525.4198    474.92839    330.80762    304.74533    38174.007 
  733500    297.22286   -1517.8918    453.02485    266.73824    365.66598    38174.007 
  733600    312.28253    -1496.488    450.91039    353.49733    696.86266    38174.007 
  733700    296.36276   -1486.8305    473.78274    314.70404    608.42758    38174.007 
  733800    294.87029    -1491.515    488.79202    318.34234    530.36538    38174.007 
  733900    295.36546   -1479.1173    473.59903    317.76549    84.052237    38174.007 
  734000    292.15146   -1466.3757    456.95428    299.46318   -714.53207    38174.007 
  734100    301.96621   -1462.0882    459.18508     349.9531   -635.19402    38174.007 
  734200    296.41472   -1476.4606    468.97121    320.49525   -917.82367    38174.007 
  734300    295.18264   -1448.0141    457.01237    331.46301   -956.36298    38174.007 
  734400    298.09076   -1435.8106    454.33886    354.02177   -742.87753    38174.007 
  734500    293.94294   -1487.9241    494.20978    323.19635   -348.72466    38174.007 
  734600    302.56202   -1494.6644    471.57681    332.43791   -506.62456    38174.007 
  734700    302.90967   -1475.9867    456.94052    338.03685   -378.32655    38174.007 
  734800    297.24828   -1465.4092    482.31096    348.62087   -459.05352    38174.007 
  734900    276.50849   -1473.1949    483.84147    249.44811   -906.99528    38174.007 
  735000     301.3811   -1511.5104    462.39205    301.11643   -761.56029    38174.007 
  735100    294.34372   -1479.9322    470.56278    309.33679   -345.90797    38174.007 
  735200     293.8429   -1471.1087    471.61959    316.97334   -276.28699    38174.007 
  735300    307.90308   -1430.2219    467.62971    416.86214   -419.47196    38174.007 
  735400    287.20563   -1439.0451    455.85463    303.53595   -752.39488    38174.007 
  735500    305.96597   -1452.9021    451.62958    369.50322   -727.60848    38174.007 
  735600    303.97346   -1461.9766    447.72836    347.60076   -372.51994    38174.007 
  735700    298.75623   -1471.6121    465.98917    332.85201    175.71039    38174.007 
  735800    307.22001   -1522.6931    441.33496    295.03586    205.10515    38174.007 
  735900    306.51389   -1497.4606    485.78896    361.55887    504.30855    38174.007 
  736000    298.90791   -1443.0369    480.54474     376.6624    133.60573    38174.007 
  736100    309.99863   -1441.3342    467.42022    414.92869    256.71923    38174.007 
  736200    306.91594   -1518.2168    491.60377    348.41871    144.80948    38174.007 
  736300    303.54209   -1468.3517    469.25667    360.82137   -247.09006    38174.007 
  736400     306.3675   -1480.6319    455.54894    347.49169   -128.43375    38174.007 
  736500    296.46502   -1509.5638    450.17797     268.8242   -724.50332    38174.007 
  736600    298.29805   -1495.7689    443.23529    283.88861   -258.56006    38174.007 
  736700    303.56113   -1497.9456    467.82795    329.88402   -306.50848    38174.007 
  736800    300.14562   -1485.0392     470.1197     329.7802   -544.13294    38174.007 
  736900    303.55859   -1458.7177     471.7471    373.01965   -238.07153    38174.007 
  737000    303.35865   -1480.7491    455.63355    333.97899    50.615985    38174.007 
  737100    303.77122   -1475.9301     470.9129    355.92569   -158.63498    38174.007 
  737200    296.25379    -1467.906    491.59218    350.94983   -138.25689    38174.007 
  737300    305.15508   -1507.6379    453.75404    313.25898    206.36719    38174.007 
  737400    303.55579    -1467.938    460.39267    352.43244    729.23418    38174.007 
  737500    296.21164   -1472.5692    453.12777    307.63333    166.58188    38174.007 
  737600    296.73861   -1489.3855    467.69835    307.74857    212.23081    38174.007 
  737700    298.44879   -1454.7632    449.01496    331.34938    239.53044    38174.007 
  737800    300.01449   -1522.2196    471.05077    292.94336    283.65772    38174.007 
  737900     297.7876   -1502.5213    477.19619    308.81025    517.13803    38174.007 
  738000    302.85533   -1548.1044    440.96835    249.70357    663.69981    38174.007 
  738100    299.75944   -1529.9319    466.08163    279.11925    431.84263    38174.007 
  738200    294.05646    -1499.545    457.63992    275.51415    450.83203    38174.007 
  738300     294.0123   -1522.2172    460.82133    255.82548   -105.38024    38174.007 
  738400    302.42629   -1515.2008     433.6806    273.39719    144.50568    38174.007 
  738500    302.05331   -1518.9573    461.43231    295.72142    429.21125    38174.007 
  738600    294.29396   -1536.5637    449.65984    231.57943    525.62437    38174.007 
  738700    300.36731   -1517.8045    459.16622    287.05454   -480.75929    38174.007 
  738800    301.16155    -1489.844    477.74956    337.15675   -561.86734    38174.007 
  738900    301.92459   -1472.5148    482.56103    362.71599   -363.23818    38174.007 
  739000    296.83407   -1507.3443    456.82222    279.34128   -140.46125    38174.007 
  739100     302.7207   -1482.0305    466.40272     340.6087    192.56897    38174.007 
  739200    292.90919   -1518.4673    457.55219    251.36422    510.29235    38174.007 
  739300    312.06073   -1515.2785    457.35007     340.1528    430.82545    38174.007 
  739400    300.87938   -1506.9915    461.01218    302.00768   -252.94989    38174.007 
  739500     298.0402   -1474.6668    462.97862    323.57887   -402.21676    38174.007 
  739600     304.0548   -1468.5906    456.24772    349.87054   -111.23472    38174.007 
  739700    294.19803   -1467.7945     493.1498    343.40882   -296.22511    38174.007 
  739800    291.73564   -1449.4412     479.0695    336.64991   -219.19545    38174.007 
  739900    304.32638   -1441.8752     445.4168    366.97169   -31.037074    38174.007 
  740000    307.83212   -1454.5637    472.06105    396.63374    238.34587    38174.007 
  740100    300.71064   -1486.7166     458.5206    319.03502   -366.99017    38174.007 
  740200    310.03067   -1496.2206     469.2278     361.9934    360.28805    38174.007 
  740300     296.9055   -1475.5957    480.07427    334.66202    610.00541    38174.007 
  740400    294.33962    -1498.122    461.73627    282.30212    250.72951    38174.007 
  740500    291.83744    -1466.454    480.74667     321.7704    28.500867    38174.007 
  740600    310.29588   -1490.8732    472.08864    371.38982    392.50625    38174.007 
  740700    303.70512    -1486.726      470.738    344.65873   -143.52469    38174.007 
  740800    292.60756   -1483.6361     468.8472    296.13903    375.23361    38174.007 
  740900    298.72408   -1457.8299    494.14311    374.64419    744.60355    38174.007 
  741000    303.52932    -1540.843    457.15802    276.17414    324.59327    38174.007 
  741100    300.61816   -1501.0838    441.31572    287.04866    494.71441    38174.007 
  741200    310.74932   -1519.1402    455.72418    328.78991    549.60386    38174.007 
  741300    304.49795   -1531.5101    475.83907    308.52774    374.86558    38174.007 
  741400    291.17036   -1485.0132    470.19492    289.67081    631.72596    38174.007 
  741500      300.582   -1448.5438     451.2847    349.39558    247.94456    38174.007 
  741600    302.68229   -1502.6016    459.54218    313.00491    720.87186    38174.007 
  741700    288.75164   -1460.8172    472.00406    304.83971    19.876231    38174.007 
  741800    303.49268   -1502.2093    476.38154     333.8673    565.74275    38174.007 
  741900    301.59348   -1502.3077    462.41094    311.28957    301.75342    38174.007 
  742000    296.16378   -1500.4732    442.12233    268.50948     172.5132    38174.007 
  742100    310.23875   -1507.4785    450.87406    333.31405    428.65049    38174.007 
  742200    293.00743   -1479.9878    475.04636    307.77802    13.157539    38174.007 
  742300    290.88081   -1471.2967    492.84347    324.73855    282.63612    38174.007 
  742400    286.49153   -1546.2052    454.74063    192.06259    430.91434    38174.007 
  742500    302.64438   -1499.5355    447.22217    303.58114    197.07476    38174.007 
  742600    294.79946   -1504.7398    462.62718     278.6354   -211.49355    38174.007 
  742700    305.00559   -1497.6199      457.551     326.4042   -568.29053    38174.007 
  742800    299.37452   -1468.3495    458.64378    331.53931   -606.56271    38174.007 
  742900    290.26985   -1498.1007     466.5305    268.88447    -228.3133    38174.007 
  743000    302.46531   -1475.0009    475.21343    355.30476   -245.68959    38174.007 
  743100    291.38575   -1480.3575    470.00254    295.09909   -538.16458    38174.007 
  743200    289.83646    -1502.103    479.17814    275.58811    55.450084    38174.007 
  743300    287.65899   -1492.4249     472.8796    269.21232   -286.49434    38174.007 
  743400    285.12699   -1505.3474    495.34665    267.41312  -0.75422369    38174.007 
  743500    299.17839   -1497.7195    467.23476    309.88153   -94.560504    38174.007 
  743600    297.87118   -1477.9072    451.48097    308.08353    -285.5353    38174.007 
  743700     301.5462    -1497.841    475.92896    329.06247   -366.41607    38174.007 
  743800    283.86191   -1495.1298    433.74466    210.36093   -412.17942    38174.007 
  743900    296.83378   -1503.9361    461.26576    287.19177   -970.51896    38174.007 
  744000    305.56011   -1511.6626    459.85911    317.15391   -1001.3785    38174.007 
  744100    286.70295   -1516.2964    457.04937     225.2274   -631.19683    38174.007 
  744200     298.0856   -1537.8879    482.69118    280.27373   -5.3381448    38174.007 
  744300    295.42567   -1517.4962    489.84653    295.90392   -13.868786    38174.007 
  744400    304.58523   -1533.5599    472.25251    303.28241     607.6472    38174.007 
  744500    306.88935   -1547.5033    432.27936    259.68872   -322.74349    38174.007 
  744600    307.31986    -1555.629    489.28323    310.49563    -210.5713    38174.007 
  744700    296.52799   -1565.5846    452.41135     215.3189    105.96795    38174.007 
  744800    287.21902   -1543.9878    437.71412    180.51277   -77.877285    38174.007 
  744900    292.85603    -1518.812    483.87043    277.09955   -844.07646    38174.007 
  745000    303.13545   -1547.1906    463.52257    274.42656   -211.26941    38174.007 
  745100    300.94349   -1539.8553    475.77726    284.19617   -177.64878    38174.007 
  745200    308.95529   -1523.6181    473.00519    333.55543   -44.147497    38174.007 
  745300    294.05354   -1503.0266    476.65624    291.03582   -53.081021    38174.007 
  745400    307.04136   -1474.0861    468.19759    369.70512   -437.34454    38174.007 
  745500    302.11931   -1497.6021    475.88257    331.82261   -31.968798    38174.007 
  745600    301.32571   -1505.8118    474.63386    318.80872   -492.12596    38174.007 
  745700     294.9201   -1468.4129    469.00308    321.87872   -492.41588    38174.007 
  745800     301.7444   -1507.4251    474.36519    318.80255   -895.03244    38174.007 
  745900    314.17618   -1505.7509    452.44671    354.25456   -498.67646    38174.007 
  746000    295.20926   -1488.8999    470.99346    304.67754   -422.42584    38174.007 
  746100    295.28659   -1525.5778    454.10947     251.4621   -257.68796    38174.007 
  746200    300.36716   -1479.6149    478.79696    344.87428   -57.563136    38174.007 
  746300    284.31637   -1443.3092    502.62892    333.10188    34.663614    38174.007 
  746400    293.91266    -1446.664    485.02284    355.13383    113.60176    38174.007 
  746500    294.41377   -1444.1393    517.71337    392.59415     337.6428    38174.007 
  746600     294.4341   -1436.9338    459.38293     341.5603    451.40158    38174.007 
  746700    301.97252   -1479.3688    503.76761    377.28331    551.56514    38174.007 
  746800    302.16616   -1469.7676    477.50205    361.48644    483.23406    38174.007 
  746900    299.52177   -1455.3958     444.7547    331.26358     225.2129    38174.007 
  747000    298.55394   -1526.3692    475.49302     286.6925    -358.7845    38174.007 
  747100    297.18617   -1521.0766    453.09532     263.4596    -579.9782    38174.007 
  747200    302.91028   -1464.3956     482.6622    375.35237   -192.16408    38174.007 
  747300    294.96163    -1441.339    454.97559    335.11116     428.6556    38174.007 
  747400    298.19439   -1417.7166    489.54773    407.78896   -63.530531    38174.007 
  747500    291.32089   -1432.8953    483.45955    355.72774   -399.24006    38174.007 
  747600    290.63126   -1502.0135    453.11224    253.17259   -229.80764    38174.007 
  747700    304.53085   -1463.5907    481.09526    381.85071   -604.63726    38174.007 
  747800     299.0267   -1431.4511    481.00087    389.23653    -835.4537    38174.007 
  747900    294.36854   -1440.3534     465.4366    343.90059   -507.49836    38174.007 
  748000    302.03796   -1435.0516    489.25523    407.38127   -557.83624    38174.007 
  748100    286.93682   -1469.4526    479.98384    296.05338   -694.81896    38174.007 
  748200    293.44947    -1472.133    458.54588    301.11271   -391.77515    38174.007 
  748300    287.16618   -1445.2153    505.58935     346.9238   -588.79998    38174.007 
  748400    292.68663   -1449.5205    500.98959    362.75131    485.98675    38174.007 
  748500    292.27803   -1463.8628    472.03397     317.6228   -169.34205    38174.007 
  748600    301.67397   -1480.8878    450.93131    321.59045   -57.649022    38174.007 
  748700    294.63846   -1496.4509    463.94891    287.52468   -801.72409    38174.007 
  748800    297.87053   -1492.6768    469.56498    311.39513   -339.30843    38174.007 
  748900    315.74336   -1501.3621    452.06108    365.27899   -118.95932    38174.007 
  749000    304.22581   -1524.5797     451.8079    290.20769    564.12833    38174.007 
  749100    308.21416   -1495.3488    457.66925    343.16846     544.4086    38174.007 
  749200    304.89798   -1525.2554    476.45804    317.19356    677.11056    38174.007 
  749300    302.66085   -1539.1148    478.52622    295.37969    465.00404    38174.007 
  749400    287.70677   -1523.6975    475.07114    240.34531    127.36004    38174.007 
  749500      309.143   -1479.6943     459.5394    364.85439    252.58591    38174.007 
  749600    304.91839   -1538.3914    472.21518     299.9062    643.48864    38174.007 
  749700    290.89264   -1517.9527    472.63384    257.92596    291.19745    38174.007 
  749800     287.8525   -1478.3266    491.24011    302.53807    605.81126    38174.007 
  749900    287.40343   -1504.8201    490.18462    272.97711    320.12698    38174.007 
  750000    292.29319   -1522.3498    448.50031    235.67004    343.30712    38174.007 
  750100    297.18639   -1538.3254    459.96002    253.07642   -23.062528    38174.007 
  750200    301.39647   -1486.2599    476.44016    340.48392     51.98724    38174.007 
  750300    294.73823   -1478.1595    462.69975    305.01394   -118.34583    38174.007 
  750400    299.67916   -1484.3218    475.90369    334.19172    -257.6571    38174.007 
  750500    300.25016   -1500.1527    462.92418    307.93947   -405.03115    38174.007 
  750600    288.59673   -1520.0461    479.03483    251.94748   -247.20946    38174.007 
  750700    307.49435   -1505.1257    481.87128    354.36868    239.14058    38174.007 
  750800    289.03636   -1534.8665    448.28666    208.34854    89.181292    38174.007 
  750900    299.96084   -1558.3509    462.58639    248.10733   -476.68937    38174.007 
  751000    308.64928   -1524.9745    455.95079    313.77362   -365.01135    38174.007 
  751100    297.18439   -1507.5664    456.84313    280.70959    142.84529    38174.007 
  751200     308.2071   -1433.4454    474.92667    422.29766    677.30077    38174.007 
  751300    291.62899   -1492.9936    486.25647    299.80669    362.77087    38174.007 
  751400    302.80975   -1498.7134    473.97809    331.90012    795.13979    38174.007 
  751500    300.64319   -1549.2038    475.03266    272.75768    385.85874    38174.007 
  751600    301.83645   -1535.0238    454.68896    271.94004    255.52934    38174.007 
  751700    307.46474   -1507.9541    455.67684    325.21315   -282.17061    38174.007 
  751800    296.83292   -1517.0176    472.61351     285.4541   -377.31959    38174.007 
  751900    289.82912   -1532.4758    448.62173    214.62607   -145.24042    38174.007 
  752000    303.63728   -1549.2318    447.27672    258.38776   -401.38292    38174.007 
  752100    303.61294    -1516.316    470.74248    314.66024   -281.87508    38174.007 
  752200    297.11053   -1562.4957    421.90001    190.50628   -719.53735    38174.007 
  752300    305.86514   -1510.6815    477.20836    336.85084     158.9066    38174.007 
  752400    288.62181   -1531.3865    496.61139     258.2961    58.454618    38174.007 
  752500    291.69631   -1520.7011    460.76574    246.91003    567.57131    38174.007 
  752600    304.17841   -1521.7115    470.89786    311.95353   -233.52293    38174.007 
  752700    306.24961    -1518.462    474.99939    328.58387    479.73879    38174.007 
  752800     291.6947   -1540.2984    456.53336    223.07319   -301.05258    38174.007 
  752900    304.84311   -1535.4857    485.99427     316.2537   -263.25659    38174.007 
  753000    299.72219   -1473.7512    465.29775    334.34912   -100.87066    38174.007 
  753100    303.06785   -1480.2484    464.32975     341.8731   -502.92016    38174.007 
  753200    301.73346   -1550.2408    496.57047    298.14314   -158.20162    38174.007 
  753300    292.06595   -1520.6468    490.80887    278.66353   -294.56986    38174.007 
  753400    312.50573   -1520.3446     465.5609    345.29121    243.12394    38174.007 
  753500    294.50366   -1514.8162    485.43092    290.03748    79.241145    38174.007 
  753600     303.2683   -1502.3086    464.89824    321.27945   -23.975596    38174.007 
  753700    306.44137   -1502.5661    474.01655    344.35608    525.51337    38174.007 
  753800    294.66226   -1525.7452    477.81632    272.20449   -33.561351    38174.007 
  753900    292.21624   -1494.4165    456.22965    270.98791    -2.952289    38174.007 
  754000    284.44063   -1525.7918    468.44403     216.9911   -161.87892    38174.007 
  754100    292.22631   -1514.4085     474.0925    268.90385    -486.4457    38174.007 
  754200    295.71638   -1497.7302    470.23795    297.36367   -115.22829    38174.007 
  754300    295.38054    -1547.066    460.99526    237.28062   -409.10657    38174.007 
  754400     309.5471   -1512.5563     470.2213     344.4848    -210.2604    38174.007 
  754500    291.95021   -1494.7923    494.27943    307.47009   -588.51619    38174.007 
  754600    300.84118   -1508.2796    462.43036    301.96661   -555.18302    38174.007 
  754700    302.50155   -1543.9898    479.13916      290.404    160.38019    38174.007 
  754800    294.28599   -1488.3716    469.10773     299.1837   -448.87734    38174.007 
  754900    288.59241   -1494.9281    470.08203    268.09342   -360.41697    38174.007 
  755000    305.18323   -1540.0006    452.79568    280.06397   -715.21471    38174.007 
  755100    298.28933   -1525.8286    443.80459    254.35918   -929.74513    38174.007 
  755200     292.8905   -1496.7405    481.20088    296.65597   -743.56806    38174.007 
  755300    293.81675   -1522.8325    463.83338    257.34623   -554.87337    38174.007 
  755400    302.96318   -1521.4991    471.19481    307.01848    341.35499    38174.007 
  755500    299.53605   -1526.8043    472.56761    287.73194   -484.73235    38174.007 
  755600    300.16591   -1485.1592    482.71149    342.34288    51.805922    38174.007 
  755700    301.97199    -1537.624    452.92128    268.17937    78.950063    38174.007 
  755800    295.91948   -1546.1119    465.14274    244.79668    118.11663    38174.007 
  755900    303.61173    -1509.511    499.25761    349.97494    225.00364    38174.007 
  756000       285.67   -1502.8322    478.51745    255.53183    57.000249    38174.007 
  756100    295.16428   -1531.4602    482.44172    273.36401    948.61331    38174.007 
  756200    299.02958   -1537.9434    467.94943    269.70564    536.16116    38174.007 
  756300    305.57708   -1542.2409    461.93523    288.72777    27.686791    38174.007 
  756400    311.38257   -1556.3334    472.19013    310.89968    191.90145    38174.007 
  756500    307.69296   -1518.0721    501.28174    361.72256    292.07725    38174.007 
  756600    301.93471   -1544.2092    450.74851    259.25439    344.46118    38174.007 
  756700    309.71194    -1491.754    454.70456    350.50889   -173.18143    38174.007 
  756800    295.07096   -1503.4707      450.527    269.02068    10.297817    38174.007 
  756900     302.5584   -1532.7158    464.02414    286.81764   -395.37296    38174.007 
  757000    297.53664   -1545.3144    480.13466    267.83124    407.68314    38174.007 
  757100    303.86981   -1558.8246    449.02814    251.58809    538.41852    38174.007 
  757200    293.40437   -1514.2981    481.09172    281.29137    528.19212    38174.007 
  757300    289.40471    -1509.753    464.24191    251.06763   -10.227305    38174.007 
  757400    292.85573   -1481.9256     489.5448    319.65904     -26.8467    38174.007 
  757500    306.53374   -1500.1376    485.58813    358.76996    353.75416    38174.007 
  757600    302.03266    -1507.129    491.29083    337.31572    331.04998    38174.007 
  757700    297.50472   -1560.5022    474.75884    247.12459    444.54542    38174.007 
  757800    294.79255    -1549.198    485.15816    256.67723    285.50095    38174.007 
  757900     298.7054   -1508.0471    502.23882    332.43902    524.46547    38174.007 
  758000    291.35514   -1545.1124      483.186    243.39049    717.52297    38174.007 
  758100    307.46413   -1550.0018     471.2921    298.77799    417.69258    38174.007 
  758200    293.68084   -1508.5101    495.78383    303.01017     267.3123    38174.007 
  758300    303.28722   -1496.3194    509.69661    372.15168    442.26706    38174.007 
  758400    292.52727   -1503.5459    492.62556    299.64796    320.29502    38174.007 
  758500    298.61566   -1505.6539     474.4354    306.62668    259.50322    38174.007 
  758600    303.97517   -1530.5549    468.76498    300.06672    -41.62451    38174.007 
  758700    297.92875   -1504.2868     468.1608    298.64171    32.484691    38174.007 
  758800    296.81974   -1490.9916    465.14843    303.95608   -663.13735    38174.007 
  758900    300.51272   -1512.5339    475.22524    309.03565    -255.6919    38174.007 
  759000    302.32418   -1500.6808    470.62747    324.40663     325.1345    38174.007 
  759100    307.19192   -1518.0759    476.53054     334.7228    282.84766    38174.007 
  759200    305.65837   -1561.9666    492.66738    300.09847   -198.39585    38174.007 
  759300     288.5083    -1503.893    476.34689    265.01653   -107.63897    38174.007 
  759400    302.37652   -1498.7805    493.40015    349.31404     219.2084    38174.007 
  759500    294.14354   -1486.7484    471.20819    302.26914   -607.59239    38174.007 
  759600    297.58546   -1506.4556    470.59472    297.36888   -617.06473    38174.007 
  759700    299.55652   -1509.3078     460.1306    292.88323    347.49606    38174.007 
  759800     300.6102   -1518.7507    482.97579    311.00613   -176.60331    38174.007 
  759900    299.32061    -1513.691    471.64901    298.96149   -291.47817    38174.007 
  760000    304.19334   -1539.4233    468.44219    291.85303   -342.76409    38174.007 
  760100    296.84971   -1532.3083     477.9291     275.5543   -807.30069    38174.007 
  760200    301.16637   -1498.3264    464.23838    315.18472    -335.6013    38174.007 
  760300    292.77708   -1522.6697    483.37108    272.38877      -287.92    38174.007 
  760400    297.73106   -1542.2381    483.64652    275.29046   -144.07566    38174.007 
  760500     308.6461   -1523.9673    462.34926    321.16514    483.79234    38174.007 
  760600    295.74086   -1535.6736      486.305    275.59708   -463.58635    38174.007 
  760700     308.3252   -1515.4427    506.75905    372.66185    251.66375    38174.007 
  760800    303.27389   -1587.3004    462.90912    234.32351   0.66064969    38174.007 
  760900    294.03645   -1556.6841    491.14335    251.78887    180.52478    38174.007 
  761000    300.13428   -1502.7063    460.74135    302.68385   -352.30633    38174.007 
  761100     304.5736   -1486.9512    494.19823    371.78474   -244.06225    38174.007 
  761200    296.38461   -1512.2352    457.96838     273.5829   -262.25599    38174.007 
  761300     297.2903   -1497.6461    497.88319    332.14447    189.54219    38174.007 
  761400    300.87506   -1495.6566    494.89767    347.20872   -165.93683    38174.007 
  761500    299.28068   -1507.0395    469.39253    303.17762   -551.93954    38174.007 
  761600    298.42986   -1534.7466    454.12599    256.39221   -463.20544    38174.007 
  761700    296.71833   -1525.9631    470.21649    273.59827   -361.37795    38174.007 
  761800    304.79914    -1507.906    483.78737    341.42955   -248.41238    38174.007 
  761900    308.18257   -1494.6596     467.8563    353.90319   -210.16176    38174.007 
  762000    311.35873   -1525.7442    501.72439    370.91632   -389.01318    38174.007 
  762100     294.1052   -1532.2548     480.3274    265.71028   -337.24215    38174.007 
  762200    299.67729   -1499.3978    475.42802    318.63169   -55.867998    38174.007 
  762300    293.20324   -1493.9105    489.28642    308.97261    111.65252    38174.007 
  762400    288.96366   -1477.6606    502.93502    319.87713    541.09748    38174.007 
  762500    302.88299   -1517.9338    486.48597    325.51573    348.08422    38174.007 
  762600    307.03503    -1473.672    507.43583    409.32909     247.1823    38174.007 
  762700     294.6101   -1474.7212    480.90774    326.08615    113.30435    38174.007 
  762800    307.60107   -1468.9015    518.45786    427.65755    272.17873    38174.007 
  762900    300.63318   -1455.2411    517.37578    409.01868    347.13761    38174.007 
  763000    308.67552   -1450.8091    463.30939    395.41525    184.97747    38174.007 
  763100    296.20868   -1468.9138     483.1573    341.30507    466.43116    38174.007 
  763200    297.65294   -1459.0201    486.67602      361.188    327.31828    38174.007 
  763300    295.73795   -1472.4396    493.93119    346.44422   -739.94677    38174.007 
  763400    304.74182   -1462.8994     494.4253    396.81725   -262.41409    38174.007 
  763500    293.84677    -1523.026    483.61788    277.07174   -627.21334    38174.007 
  763600    299.32726   -1534.1385    466.58937    273.48413     184.1131    38174.007 
  763700    296.83408   -1538.8568    485.64852    276.65522    83.269476    38174.007 
  763800    293.29377   -1581.9044    461.37696    193.47482    115.98339    38174.007 
  763900     315.3957   -1569.6571     456.1846    299.54997    201.30262    38174.007 
  764000    309.18447   -1506.8428    478.65759    357.00989    606.59703    38174.007 
  764100    301.19961   -1526.9032    492.22552    314.74398    30.412695    38174.007 
  764200    301.52297   -1503.9584    484.70185    331.61384    314.07388    38174.007 
  764300    295.64903   -1490.5493    464.59283    298.59775    591.54142    38174.007 
  764400    289.52538   -1518.2252    491.64877    270.54284   -103.88747    38174.007 
  764500    299.75171    -1521.844    466.99589     288.0868   -576.33812    38174.007 
  764600    296.59593   -1544.2618    485.00142    269.53609   -620.56019    38174.007 
  764700    304.70909   -1584.2661    485.83347    266.71209   -436.68619    38174.007 
  764800    307.36324   -1528.1347    471.75907    320.66006   -627.92431    38174.007 
  764900    293.79453   -1523.4472    455.61662    248.41524   -404.06424    38174.007 
  765000    298.53711   -1511.7628     494.0964    319.82687   -96.501491    38174.007 
  765100    295.43218   -1511.4257    487.25175    299.40872    447.46425    38174.007 
  765200     309.9684   -1526.2259    469.94893    332.43027    222.28157    38174.007 
  765300    301.68176   -1481.8001     475.5614    345.34307   -68.922622    38174.007 
  765400    313.09161   -1456.3429    464.24298    410.59978   -101.30248    38174.007 
  765500    296.17016   -1516.6952    482.54081    292.73454   -404.28041    38174.007 
  765600    297.93685   -1467.4512    478.98455    346.33741   -16.700396    38174.007 
  765700    299.10617   -1508.4471    461.73408    293.32978   -554.03978    38174.007 
  765800    302.61091   -1488.9506    467.48733    334.28131   -394.86487    38174.007 
  765900    300.88318   -1511.2454    470.41364    307.17229    160.52401    38174.007 
  766000    300.38758   -1469.9029    482.52378    358.40458   -39.272373    38174.007 
  766100    291.75746   -1508.8458    471.17033    269.44392    35.643606    38174.007 
  766200    294.79479   -1512.0928    479.91706    288.55133    84.035513    38174.007 
  766300    306.08594   -1475.1277    477.95293     374.1385    163.40954    38174.007 
  766400     311.6007    -1466.466    492.98628    422.54049    276.54235    38174.007 
  766500    294.27666   -1482.4454    520.61274    356.57311    450.53398    38174.007 
  766600    291.41732   -1532.5575    465.37427    238.41231    514.84764    38174.007 
  766700    296.15693    -1497.534    526.87216    356.16781   -92.061798    38174.007 
  766800    300.98792   -1459.1011    471.84225    361.21441     42.10171    38174.007 
  766900    302.17103   -1521.5624    475.58608    307.79748   -698.47377    38174.007 
  767000     294.4335   -1490.6296     489.5463    318.02515    140.99927    38174.007 
  767100    286.78081   -1511.1051    491.26243    264.98051   -375.19988    38174.007 
  767200      306.449   -1490.3399    486.18322    368.78317    93.667851    38174.007 
  767300    297.87929   -1476.5939     497.3849    355.33712    245.03288    38174.007 
  767400    300.60101   -1496.5297    481.57354    331.78367    92.222633    38174.007 
  767500    305.54034   -1503.8922    475.29892     340.2755    119.63906    38174.007 
  767600    313.61999   -1567.3365    479.60564    317.33613    43.220645    38174.007 
  767700    302.10437   -1531.7167     477.1524     298.9109     -574.011    38174.007 
  767800    303.08399   -1527.2952    488.38726     318.9561   -615.38567    38174.007 
  767900    294.87163   -1539.1436     462.6782     244.6059   -209.28783    38174.007 
  768000    293.04067   -1514.7929    481.69805    279.77356    -247.5916    38174.007 
  768100     292.1556   -1533.5634    464.24298    239.58268   -107.18597    38174.007 
  768200    305.74959   -1514.3581     479.6985     335.1467   -494.95533    38174.007 
  768300    297.06689   -1488.1124    478.50913    321.30324    -56.20855    38174.007 
  768400    299.13825   -1469.6968    478.15569    348.64534   -418.68985    38174.007 
  768500    291.32319   -1542.4899     489.5415    252.22539    -373.3636    38174.007 
  768600    300.59962   -1535.0303    462.15959      273.863   -11.193671    38174.007 
  768700    304.58918   -1543.0545    487.57972    309.13278   -101.39477    38174.007 
  768800    300.91367   -1514.4928    511.07901    344.72687   -61.653173    38174.007 
  768900    300.47922    -1542.755    458.67195     262.1112    -428.8843    38174.007 
  769000    303.07086   -1529.9484     472.2446    300.10135   -786.68173    38174.007 
  769100    302.43824   -1522.4604    491.84251    324.35305   -49.729226    38174.007 
  769200    289.25084   -1522.2579    474.35024    247.98165   -112.05515    38174.007 
  769300    298.27119   -1501.4456    491.91728     326.7736    203.34036    38174.007 
  769400    305.81719   -1539.1948    484.42675     315.3411     231.3052    38174.007 
  769500    322.18484   -1536.5802    460.80894     367.6676   -271.68293    38174.007 
  769600    303.93627   -1535.7998     494.0513    319.93386   -251.21327    38174.007 
  769700     295.5348   -1544.4105    499.02166    278.65357   -355.76129    38174.007 
  769800    298.72476   -1526.1713    452.88629    265.04899    394.81185    38174.007 
  769900    305.00942   -1550.5165    464.09507    280.06876   -343.63492    38174.007 
  770000    301.08059    -1541.056    461.44688    269.27933    190.44551    38174.007 
  770100    304.73268    -1510.213     470.0926    325.12997    274.90255    38174.007 
  770200    301.79828   -1551.8154     504.9369    305.22534    259.51296    38174.007 
  770300    300.12432   -1537.8018    470.83808    277.64047    127.72027    38174.007 
  770400    293.91224   -1544.2804    477.69112    250.18382    48.473903    38174.007 
  770500    298.39696   -1530.9499     462.2663    268.18177   -231.91164    38174.007 
  770600    301.65837   -1528.8698    466.55713    289.16437   -600.65766    38174.007 
  770700    304.08975    -1537.634     491.2208    315.95676    177.99489    38174.007 
  770800    296.45999   -1513.9889    484.82596    299.02445    112.27182    38174.007 
  770900    303.04887    -1539.094    469.99651    288.60914    679.05263    38174.007 
  771000    297.83871   -1505.5944    477.18188    305.95177    151.57072    38174.007 
  771100    307.85233   -1465.6393    455.79557    369.38318    181.55302    38174.007 
  771200    295.19216   -1459.5442    468.85287    331.81605   -411.47603    38174.007 
  771300    307.95384   -1536.8299    479.30478    322.15656   -389.24075    38174.007 
  771400     300.2008   -1504.9259     453.2906    293.31151   -321.44001    38174.007 
  771500    310.35096   -1503.7525    481.82564    368.49437   -199.39898    38174.007 
  771600    299.96563   -1503.5006    460.61941    301.01202   -90.387916    38174.007 
  771700    303.56546   -1521.0569    456.61715    295.58137   -168.01312    38174.007 
  771800    294.26401   -1533.6571    443.92044    228.61248    27.869792    38174.007 
  771900    294.40081   -1571.4575     460.0294    207.53393   -328.39873    38174.007 
  772000    308.26189   -1571.0741    474.82488    284.81261   -73.093793    38174.007 
  772100    306.93249   -1546.4391    462.68478    291.35155   -258.01436    38174.007 
  772200    287.26629   -1496.2585    466.87332    257.61303   -322.15706    38174.007 
  772300    299.27248   -1546.0635    453.22037    247.94469   -646.61315    38174.007 
  772400    308.55935   -1521.9283    477.46583    337.93202    333.16451    38174.007 
  772500    301.97224   -1522.3178    461.55056    292.11602    181.66034    38174.007 
  772600     311.6751   -1536.4192    441.70643    301.64079    299.56271    38174.007 
  772700    300.47201   -1591.0786    470.61397    225.69734    924.18251    38174.007 
  772800    292.26011   -1588.3112    457.04832    178.10843    345.38574    38174.007 
  772900    303.33027   -1536.2939    459.83233    282.50585    176.24036    38174.007 
  773000    300.16264   -1542.8486    466.90706    268.83433    292.70711    38174.007 
  773100    293.07225   -1516.7253    466.98744    263.27194    8.1234127    38174.007 
  773200    304.19035   -1519.7904    456.65306    299.68332    108.05489    38174.007 
  773300    295.72708   -1512.4339    478.55088     291.0209    9.1191117    38174.007 
  773400      298.537   -1519.5678     500.1115    318.03647    11.657759    38174.007 
  773500    306.89917    -1525.709      455.983    305.23067     258.6525    38174.007 
  773600    293.97785   -1550.3916    485.07683    251.75229   -182.61481    38174.007 
  773700    301.69904   -1523.0249    463.59742    292.23173   -99.072018    38174.007 
  773800    301.37572   -1483.6866    445.16156    311.68565   -234.80124    38174.007 
  773900    304.52723   -1472.9487    481.07938    372.46065   -683.98876    38174.007 
  774000    294.46369    -1487.072    505.42223    337.59398   -767.99833    38174.007 
  774100    305.81521   -1477.0875     484.1855    377.19835   -18.522594    38174.007 
  774200    297.23066    -1451.733    494.75826    374.66545   -28.420704    38174.007 
  774300    304.60762   -1518.1837    476.51352     323.0199   -315.56706    38174.007 
  774400    302.69943   -1514.0547    436.41448    278.50094   -281.43375    38174.007 
  774500    297.01734   -1515.6256    489.32972    304.38861   -318.10488    38174.007 
  774600     297.6859   -1500.4525    491.14111    324.36831    193.43561    38174.007 
  774700    299.76262   -1478.7994    460.81818    325.00253   -228.99853    38174.007 
  774800    297.73337   -1522.8981    473.61878    284.61306    345.86385    38174.007 
  774900    302.32507    -1496.982    460.90635     318.3883    21.216103    38174.007 
  775000    303.65989   -1518.1524    444.99917    287.29085    349.68709    38174.007 
  775100    298.14657    -1517.472    470.16362    288.43527   -487.56598    38174.007 
  775200    305.69857   -1506.3346     480.5008    343.74396   -241.18634    38174.007 
  775300    300.04876   -1490.2527    483.34858    337.36153   -392.54197    38174.007 
  775400    307.90549   -1491.3095    471.17764    359.33321   -185.64354    38174.007 
  775500    312.30599   -1486.9767    484.85309    397.05644    198.59225    38174.007 
  775600    300.90491    -1502.937    454.14909    299.31344    126.97617    38174.007 
  775700    303.84579   -1512.5065    477.76936    326.53981     524.0004    38174.007 
  775800    296.87377   -1509.3886    460.91091    281.56352    744.57579    38174.007 
  775900    292.67241   -1495.9588    483.85018    299.10983    420.48025    38174.007 
  776000    310.76609    -1522.428    453.57881    323.43184    513.91215    38174.007 
  776100    302.40032   -1523.2711    465.46616    296.99616    443.36673    38174.007 
  776200    292.28414   -1595.6748    465.87372    179.67791    457.85992    38174.007 
  776300     296.2084   -1539.1077    483.76498    271.71757    104.51028    38174.007 
  776400    309.20965     -1581.96    458.82961    262.17757   -296.02873    38174.007 
  776500    297.43064   -1509.9857    449.21851     271.7689   -296.93144    38174.007 
  776600    300.41031    -1542.119    445.22275    248.98923   -707.57819    38174.007 
  776700    305.16686    -1553.331    453.02684    266.89149   -404.00338    38174.007 
  776800    305.79328   -1526.8905    452.97282    296.08441   -142.85205    38174.007 
  776900    294.44528   -1537.4747    486.69067    268.37721    110.08923    38174.007 
  777000    296.85849   -1525.4094    464.71134    269.27477   -207.19266    38174.007 
  777100    295.86951   -1495.6719    468.64747     298.5176   -319.47605    38174.007 
  777200    289.63207   -1495.0879    499.01805    301.52748    64.803979    38174.007 
  777300      300.683   -1486.4744    477.69416    338.32696    84.900117    38174.007 
  777400    301.14364   -1507.8122    483.75579    325.11454    5.9319058    38174.007 
  777500    300.10206   -1490.2238     465.0964     319.3771   -200.56792    38174.007 
  777600     311.5417   -1529.9491     498.8226    364.62941   -255.15775    38174.007 
  777700    305.38407   -1563.0408    462.17025    267.29816    64.144856    38174.007 
  777800    301.33857   -1578.6968    445.28077    216.62823   -757.85676    38174.007 
  777900     303.0591   -1523.6054    446.55994    280.70703   -620.22781    38174.007 
  778000    289.69549   -1539.8719    482.20757    240.21714    25.419718    38174.007 
  778100    304.89469   -1523.7517    449.31649    291.54098   -235.63192    38174.007 
  778200    300.58086    -1529.686    459.38203    276.34558   -104.12744    38174.007 
  778300    292.98954   -1472.1089    485.89228    326.42262    236.69052    38174.007 
  778400    299.78416   -1518.6993     467.8779    292.25891    547.49948    38174.007 
  778500    284.32499   -1536.7935    438.96986    175.99707    38.572078    38174.007 
  778600     292.3207   -1492.8885     512.7535    329.50781    547.72986    38174.007 
  778700    293.25613   -1526.2756    446.86155    234.41965    11.131006    38174.007 
  778800    299.53681    -1510.875    475.71042    306.80753   -120.67669    38174.007 
  778900    291.32633   -1520.7568    484.96848    269.39951   -574.62344    38174.007 
  779000    296.36572    -1481.819    475.63649    321.58258   -657.98602    38174.007 
  779100    300.67529    -1519.706    452.77611    280.14278   -778.33712    38174.007 
  779200    299.25749   -1503.7557    482.24649    319.21152   -398.73944    38174.007 
  779300    309.83913   -1544.0789    448.13211    292.18135   -353.27051    38174.007 
  779400    302.55471    -1536.328     454.7351    273.89989   -106.71819    38174.007 
  779500    307.02445   -1505.6075    486.24859    356.15902    585.25357    38174.007 
  779600    292.50944   -1504.0355    476.14119    282.59409     497.1322    38174.007 
  779700      291.719   -1503.7096    474.36628    277.60377    593.63381    38174.007 
  779800    304.10955   -1499.2728    473.40881    336.59473     689.4605    38174.007 
  779900    296.84981   -1519.9563    483.26053    293.23808    880.09578    38174.007 
  780000    309.96609   -1493.1086    479.20785    374.79612      421.743    38174.007 
  780100    299.46523   -1510.4947    460.15202    291.30874    365.00062    38174.007 
  780200    298.34794   -1496.5729     470.9764    311.04925   -100.95524    38174.007 
  780300    297.94715   -1501.7231     442.7383    275.86536   -331.10442    38174.007 
  780400    307.32432   -1526.5486    449.79157    300.10437   -418.93287    38174.007 
  780500    306.51843   -1492.6362    473.81445    354.42908   -316.29683    38174.007 
  780600    297.65894   -1519.4238    471.83232    285.96751   -23.431123    38174.007 
  780700    302.83933   -1549.8734     454.4542    261.34872    57.886654    38174.007 
  780800    287.33599   -1517.5865     458.6375    228.36149    167.49442    38174.007 
  780900    296.50726   -1541.3734    458.94005    245.96588    373.24733    38174.007 
  781000    303.60722   -1546.3658    460.09072    273.93313    374.80561    38174.007 
  781100    297.72651   -1559.3955    453.74853    228.21468    132.09597    38174.007 
  781200    302.89309   -1531.8613    458.00484    283.15226    577.26597    38174.007 
  781300    294.50736   -1519.3358    467.60325    267.70681    374.29322    38174.007 
  781400    297.12441   -1546.7684    454.75483    239.15062   -3.9265942    38174.007 
  781500    289.27919   -1511.8748    474.52079     258.6623   -50.330806    38174.007 
  781600    295.80299   -1513.7539    473.48899    284.97907    593.29028    38174.007 
  781700    294.56074   -1564.7501    476.45444    231.38284    38.371916    38174.007 
  781800    297.95405   -1514.6468    465.26315    285.49744    277.87115    38174.007 
  781900    303.93666   -1504.4985    459.51168    316.69727    68.235656    38174.007 
  782000    303.50367   -1502.5758     463.8956    321.06407   -264.94365    38174.007 
  782100    301.04594   -1562.9362     428.9413    214.73829    60.826338    38174.007 
  782200    298.00775   -1501.0059    457.65658    291.77229    139.79467    38174.007 
  782300     295.5499   -1478.7916    470.87659     316.1951   -28.296956    38174.007 
  782400    293.16678   -1488.6842    466.61968    291.36879    219.22958    38174.007 
  782500    301.71233   -1525.8977    476.27107    302.09217    484.24424    38174.007 
  782600    294.94722   -1533.6051    483.94623    271.75113    537.92704    38174.007 
  782700    292.01613   -1523.3018    447.44663    232.42309    75.892035    38174.007 
  782800    300.99077   -1489.1703    475.53952    334.85522    1010.6007    38174.007 
  782900    297.74455   -1554.8009    459.72402    238.86565    237.78491    38174.007 
  783000    302.06225   -1539.3329    476.30961    290.26312      99.6063    38174.007 
  783100    300.82649   -1549.7943    487.24319    285.19895   -161.52326    38174.007 
  783200    293.75781   -1491.8342    446.65854    270.90562   -327.98987    38174.007 
  783300     292.6575   -1465.7726    490.40825    335.78731   -167.95173    38174.007 
  783400    298.27344   -1487.2918    484.66051    333.68075     274.2311    38174.007 
  783500     309.8933   -1466.6017    459.99395    381.76299    283.02515    38174.007 
  783600    298.94633   -1472.8971    487.34557    353.77514    104.63252    38174.007 
  783700    300.39896   -1496.2066     454.3642     303.9923   -677.63709    38174.007 
  783800    297.06832   -1487.3283    482.10687    325.69141   -272.56282    38174.007 
  783900    296.25912   -1521.6105    470.11635    275.79334    192.46539    38174.007 
  784000    289.26011   -1508.3155    477.54655    265.16184    8.2317066    38174.007 
  784100    291.30094   -1484.0454    486.99777    308.02642    586.49052    38174.007 
  784200    291.67574   -1473.9034    524.61889    357.46874    261.97416    38174.007 
  784300    295.67212   -1472.5106    465.50662    317.65376   -256.11781    38174.007 
  784400    306.42013   -1485.6135    448.14157    335.33851    9.9657298    38174.007 
  784500    294.16509   -1464.0605     496.2808    350.12623    -27.58698    38174.007 
  784600    303.35383   -1500.3344    484.59227    343.33085   -82.623747    38174.007 
  784700    292.49795   -1534.9647     449.9101    225.38228    26.882119    38174.007 
  784800    294.53739   -1550.3435    499.52753    268.75795    353.84453    38174.007 
  784900    304.81321   -1513.4211    471.38833    323.57847    529.94972    38174.007 
  785000    312.61029   -1510.2925    469.49985    359.75072   -395.35759    38174.007 
  785100    292.29617   -1529.5668     457.0319    236.99791     130.3309    38174.007 
  785200     300.9747   -1543.1723    457.96813    263.20993    247.94525    38174.007 
  785300    295.75522   -1508.0996    490.18963    307.11998    425.81696    38174.007 
  785400    291.80459   -1488.4879     489.5836    308.42619    57.970694    38174.007 
  785500    304.77705   -1517.3021    480.27904    328.42607      187.186    38174.007 
  785600    300.50427   -1526.8439    447.05327    266.51585    365.50217    38174.007 
  785700    298.40457   -1501.6768    468.83211    304.05485   -236.85096    38174.007 
  785800    295.66745   -1498.2775    458.99115    285.35041   -197.54562    38174.007 
  785900    293.10325   -1473.2192    486.70262    326.63218   -4.3349067    38174.007 
  786000    309.61163   -1469.2725    452.36337    370.19971    328.58239    38174.007 
  786100    310.21723   -1493.8193    482.01632    378.01903     595.1094    38174.007 
  786200    292.90044   -1509.3125    463.69252    266.62014    311.50685    38174.007 
  786300     303.9032   -1492.6238    458.77108    327.68149    156.53856    38174.007 
  786400    297.68301   -1509.4873    472.67469    296.85413    121.56098    38174.007 
  786500    304.34918   -1461.5286    476.26144    378.26514   -344.39536    38174.007 
  786600    299.19912   -1489.2581    479.72207    330.92316   -227.52311    38174.007 
  786700    302.44094   -1481.3205    477.77056    351.43309   -514.51561    38174.007 
  786800    305.30835   -1480.5041    482.51661    369.84197   -530.38427    38174.007 
  786900    293.84193   -1513.4757    452.69896    255.68133   -321.01777    38174.007 
  787000    305.94339   -1493.8341    477.82012    354.66061   -292.57113    38174.007 
  787100    299.36964   -1496.4862    483.14889    327.88585   -550.60446    38174.007 
  787200    298.40835   -1512.6785    458.44643     282.6844   -170.24888    38174.007 
  787300    290.33836   -1501.1497    473.11884     272.7307   -153.39227    38174.007 
  787400    297.77144   -1459.6205    468.74133    343.18374    273.58137    38174.007 
  787500    303.14221   -1467.0549    460.31647    351.38638   -356.45188    38174.007 
  787600    301.12274   -1491.9747    482.23823    339.34081    60.030766    38174.007 
  787700    291.22988   -1476.1148    475.25824    303.89916    262.79148    38174.007 
  787800    289.50317   -1464.6717    471.44296    303.79106    117.58164    38174.007 
  787900    304.30575   -1447.5625    480.22178    395.99698   -139.78228    38174.007 
  788000    309.78154   -1432.0794    476.27712     432.0678   -192.38969    38174.007 
  788100     293.9021   -1470.9524    479.93172    325.70703   -97.277208    38174.007 
  788200    298.94218   -1435.7233    471.96647    375.55118    178.56785    38174.007 
  788300    311.67074   -1454.5052    493.33705    435.16583    385.68003    38174.007 
  788400     304.9021   -1492.2275    440.70022    314.48212    -70.41599    38174.007 
  788500    294.61531   -1443.3986    491.72717    368.25158   -322.91557    38174.007 
  788600    288.73436   -1459.8456    460.06528    293.79508    73.844796    38174.007 
  788700     289.8393    -1459.044    468.54941    308.03115   -495.61291    38174.007 
  788800    307.97042   -1453.0195    460.12368    386.86014    62.888238    38174.007 
  788900    300.94662   -1476.1365    462.61993    334.77168   -295.51523    38174.007 
  789000    300.27706   -1505.2993    450.93555    290.92477   -115.77604    38174.007 
  789100    299.87828   -1512.6034     474.2422    305.14068    130.58641    38174.007 
  789200     304.0664   -1470.4786    499.66935    391.45608    346.91554    38174.007 
  789300    305.05511   -1457.2783    467.57774    376.99433    260.89536    38174.007 
  789400    308.62685   -1506.0345    503.71234    380.37473     137.2927    38174.007 
  789500    308.14278   -1512.9445    474.67984    342.26354      31.7845    38174.007 
  789600     293.8413   -1538.7437    447.25899    224.97062    313.83295    38174.007 
  789700    305.54381   -1544.9079    434.61846      258.595   -385.46672    38174.007 
  789800    299.22631   -1557.1818     451.2953    234.69449   -102.44703    38174.007 
  789900    304.65492   -1502.0957     480.5547    343.36108    601.41196    38174.007 
  790000    295.90283   -1512.9242    472.84543    285.61253    401.24079    38174.007 
  790100    298.42475   -1457.3991    476.21167    355.80246    781.64932    38174.007 
  790200    302.92163   -1477.0934    477.06322    357.10643    467.49563    38174.007 
  790300    306.86207   -1498.9123    475.96924    351.84737     323.5626    38174.007 
  790400    293.70312   -1479.8392    466.89629    302.89329    115.29986    38174.007 
  790500    296.02821   -1494.6892     454.8603     286.4241   -195.89212    38174.007 
  790600    306.99438   -1486.2099    449.32231    338.49563     45.01476    38174.007 
  790700    310.60908   -1474.6231    476.91073    393.86526    10.054451    38174.007 
  790800    307.56461   -1486.2724     474.4579    366.12341   -81.266635    38174.007 
  790900    311.63918   -1463.0136    449.24447    382.42353    115.00148    38174.007 
  791000     306.3006   -1452.6582    487.27745    406.89421    -320.3684    38174.007 
  791100    299.29383   -1488.4561    465.94086    318.36831   -714.51303    38174.007 
  791200    296.24372   -1516.4294     451.0362    261.82534   -675.27118    38174.007 
  791300    292.89989   -1475.2315    459.42601    296.43217   -544.95221    38174.007 
  791400    304.61162        -1444    460.73783    381.44591   -724.62078    38174.007 
  791500    304.84676   -1435.5284    484.07152    414.30458   -210.74878    38174.007 
  791600    307.58689    -1454.625    463.42539    386.83812    -404.9448    38174.007 
  791700    294.17342   -1453.0906    506.33785    371.19048   -258.86294    38174.007 
  791800    297.92053   -1477.8423    515.93609    372.82467   -129.04874    38174.007 
  791900    291.15313   -1489.6924    471.77766    286.49718   -224.23708    38174.007 
  792000    300.09229   -1465.6053    473.50681    352.36226    109.61055    38174.007 
  792100    289.51338   -1455.7951    502.38005     343.6505    286.21866    38174.007 
  792200    299.23567   -1449.8607    466.07668    356.83888   -261.52856    38174.007 
  792300    302.80097   -1472.4788    458.05915    342.17639    -326.4693    38174.007 
  792400    302.80926   -1489.0687    477.39864    344.96312    92.798859    38174.007 
  792500    293.56855   -1484.5362    483.06459    313.76173    16.843546    38174.007 
  792600    292.11568   -1433.9937    488.80291    363.53342     348.1713    38174.007 
  792700    297.37464   -1474.2638    482.38438    340.40585    535.49447    38174.007 
  792800     297.2825   -1484.5023    495.00073    342.37083    807.93307    38174.007 
  792900    302.76394   -1468.3776    484.42057    372.47307    603.86559    38174.007 
  793000    301.84713   -1478.4548     479.3079    353.17577    368.72415    38174.007 
  793100    295.72193    -1481.407    481.93766    325.41149    274.07514    38174.007 
  793200    309.90733   -1506.6187    477.55826    359.37319    423.88061    38174.007 
  793300    297.87406   -1499.2487     484.9671    320.24111    308.77459    38174.007 
  793400    299.27684   -1472.3017    501.74843    370.25408    387.89856    38174.007 
  793500     299.8341   -1513.5947    449.29991    279.00921     127.5506    38174.007 
  793600    308.44951   -1488.6503    511.46616    404.71827    237.46903    38174.007 
  793700    308.42035    -1526.929    470.96243     325.8052    106.05425    38174.007 
  793800    299.94692   -1541.8769    476.23029    278.16286    124.35216    38174.007 
  793900     299.7287   -1546.4295    486.32907    282.73133     774.2319    38174.007 
  794000    291.89521   -1525.2518    488.26865    270.75342    374.40246    38174.007 
  794100    291.29254   -1551.0248     457.1159    211.12761    563.19337    38174.007 
  794200    307.14836   -1565.5051    469.95522     280.5231    575.80749    38174.007 
  794300    306.86475   -1546.9035    468.94516    296.84406    282.48574    38174.007 
  794400     291.9321   -1535.1018     492.4555     265.2555    475.43557    38174.007 
  794500    298.92869   -1563.3319    481.65277    257.56844   -446.05278    38174.007 
  794600    293.92779   -1577.0993    451.71225    191.45577   -29.758926    38174.007 
  794700    304.63947   -1578.5691    461.37704    247.64075   -8.6019021    38174.007 
  794800    299.90477   -1527.1659    466.83651    283.29122    250.44889    38174.007 
  794900    309.14275   -1538.8691    464.79623    310.93538    206.26162    38174.007 
  795000    298.25413   -1494.2501    468.63924    310.61462   -286.04397    38174.007 
  795100    303.07795   -1520.2107    477.32591     314.9522    339.94193    38174.007 
  795200    295.10573   -1519.7476     457.8234    260.19597    247.22124    38174.007 
  795300    297.21337   -1586.2892    481.27448    226.54799    571.33178    38174.007 
  795400    297.34532   -1524.5442    489.93659    297.54627    1043.3033    38174.007 
  795500    297.90855   -1546.5188    462.44539    250.60381    1021.7272    38174.007 
  795600    307.53919   -1545.9807    482.09169    313.93504    654.00204    38174.007 
  795700    287.00676   -1486.8603    474.31464    273.28981    262.27994    38174.007 
  795800     298.3511   -1521.1605    471.45893    286.95836    258.24947    38174.007 
  795900    306.53271   -1484.4113    482.19355    371.09708    181.26852    38174.007 
  796000    295.80742   -1475.2946    465.83209     315.8013   -326.49796    38174.007 
  796100     293.6733   -1519.9012    465.80868     261.6101   -68.119366    38174.007 
  796200    307.73015   -1529.4353     459.8872    309.13146   -204.70474    38174.007 
  796300    301.59667   -1516.6488    488.89199    323.44376   -146.33621    38174.007 
  796400    301.87827   -1514.5316    467.40965    305.34024   -291.84344    38174.007 
  796500    289.41554   -1483.6766    485.14756    298.09813   -270.98411    38174.007 
  796600    307.91556      -1555.8    483.76992    307.48018    198.92144    38174.007 
  796700    305.11168    -1561.416    468.99926    274.53161    573.42502    38174.007 
  796800    303.61328   -1523.9626    475.88502    312.15774    329.77353    38174.007 
  796900    311.06371   -1559.3683    471.14662    305.39276    274.88919    38174.007 
  797000    303.81155   -1533.3478    457.65254    285.42839    -166.2511    38174.007 
  797100    296.44539   -1551.5923    470.76118    247.29096    648.88896    38174.007 
  797200    296.16435   -1516.7764    498.02881    308.11532    390.82842    38174.007 
  797300    297.92601   -1518.0274    499.61216    316.34024    145.98929    38174.007 
  797400     308.2222   -1515.0049    480.98619    346.86528    346.82949    38174.007 
  797500    288.31511   -1498.4505      483.461     276.7076    57.139427    38174.007 
  797600    288.76304   -1519.8382    513.45253     287.3182   -89.296291    38174.007 
  797700    307.27845    -1489.589    497.55302     384.6199   -171.87339    38174.007 
  797800    297.72847   -1511.6793     474.8619    297.05299   -662.29786    38174.007 
  797900    298.29192   -1507.4588    493.94616    322.88212   -15.408177    38174.007 
  798000    305.80937   -1524.1854    490.05457    335.94337    147.75441    38174.007 
  798100    308.54266   -1559.3568    460.83414    283.79704    800.38043    38174.007 
  798200    303.78853   -1539.0106     482.1663    304.17612    405.26273    38174.007 
  798300    308.41368   -1527.6417    493.27642    347.37662    428.66631    38174.007 
  798400    295.13028   -1487.1974    498.82197    333.85475    100.59354    38174.007 
  798500    306.83546   -1515.4105    473.34959    332.61033    517.97735    38174.007 
  798600    298.06713   -1515.7671    469.72453    289.34509   -193.28391    38174.007 
  798700     296.5252   -1491.5064    485.48795    322.46114     249.9925    38174.007 
  798800    312.03471   -1536.9829      474.802    335.78377   -527.30929    38174.007 
  798900     305.7918   -1504.3804    494.84516    360.46022   -906.87914    38174.007 
  799000    306.96152   -1508.9478    472.96221    339.25031   -368.57454    38174.007 
  799100    309.65344   -1559.2329    456.57558    284.63885   -582.22258    38174.007 
  799200    309.65612   -1539.0684    506.97362     355.2134   -258.90393    38174.007 
  799300    301.70051   -1521.2428    469.93117    300.35418   -314.60879    38174.007 
  799400    303.62877   -1552.6069    465.88571    273.58356   -56.340663    38174.007 
  799500     310.8683   -1535.7148     472.1992     329.2233     430.3149    38174.007 
  799600     310.4847   -1552.8944    479.03187    317.15784    533.21342    38174.007 
  799700    296.78211   -1548.0611    450.00381    231.57328    387.36788    38174.007 
  799800    298.72866   -1558.8571    448.86641    228.36075    155.24222    38174.007 
  799900    301.19979   -1558.9511    484.46232    274.93372    343.28525    38174.007 
  800000    302.22009   -1563.1778    491.02621      281.842    502.86542    38174.007 
  800100    291.32553   -1512.7394    477.66197    270.10683    207.92261    38174.007 
  800200    300.85116   -1570.9469    455.57722    232.49084    130.21029    38174.007 
  800300    294.51338    -1593.985    454.02153    179.50288    23.950434    38174.007 
  800400    297.95975   -1551.8066    469.30823    252.40819    227.15832    38174.007 
  800500    294.38194   -1581.5413    476.03779    213.37395     208.7117    38174.007 
  800600    297.50022    -1583.135    487.12768    236.84056    320.03012    38174.007 
  800700     290.0561   -1546.9801    469.57188    222.08875   -114.74631    38174.007 
  800800    305.96826   -1527.3025     487.4957    330.97919   -90.429837    38174.007 
  800900    294.28322   -1519.4383    475.93709    274.93397   -240.91048    38174.007 
  801000    306.51943   -1493.8324    483.18781     362.6108    351.27785    38174.007 
  801100    287.26852   -1509.5099    486.72189    264.22015   -342.64475    38174.007 
  801200    291.83977    -1523.865    471.98828    255.61145    -47.27528    38174.007 
  801300    297.68178   -1524.6237    465.11046    274.14803   -75.631178    38174.007 
  801400    296.31107   -1561.3119    462.39444    228.60285   -694.81295    38174.007 
  801500    301.16322   -1548.5131    458.63037     259.3759   -795.71213    38174.007 
  801600    309.09691   -1489.0492    464.65142    360.40507   -440.24523    38174.007 
  801700     307.2163   -1516.9849    494.23957    353.63207   -643.50474    38174.007 
  801800    295.40208   -1471.1214    460.33521    312.66171    266.77582    38174.007 
  801900    303.71908   -1504.1692      506.746    363.28607   -48.189282    38174.007 
  802000    300.10693   -1520.0482    464.61399    289.09212    391.07262    38174.007 
  802100    305.72144   -1502.9805    496.58709    363.28682   -412.42801    38174.007 
  802200    299.08047   -1500.8319    490.20726    329.30296    157.64826    38174.007 
  802300    293.87553    -1511.758    487.45693    292.30757   -625.02419    38174.007 
  802400    303.14345   -1471.7284    488.36935    374.77138   -249.20466    38174.007 
  802500    307.46742   -1463.7416    508.88995     422.6508   -667.30241    38174.007 
  802600    292.33682   -1488.3977    474.78251    296.09981    -807.9219    38174.007 
  802700    306.59102   -1504.0134    468.84826     338.4109   -1212.9619    38174.007 
  802800    293.41991   -1499.9028     485.8863    300.55096    -872.6985    38174.007 
  802900    298.23838   -1473.7807    473.37553    335.74978   -911.15935    38174.007 
  803000    305.35781   -1496.7977    506.20339    377.45673   -915.67404    38174.007 
  803100    299.06889   -1488.0547    469.24311    321.06415   -118.03796    38174.007 
  803200    294.24411   -1492.6405    479.52551    305.14497   -65.771569    38174.007 
  803300    300.03183   -1449.8138    484.97692    379.35291    233.39667    38174.007 
  803400     307.6701   -1467.6274    507.80123    418.58436   -163.96333    38174.007 
  803500     309.6837   -1460.4181    496.93341    423.94702   -277.37115    38174.007 
  803600    298.27583   -1449.6056    493.85038    380.56749    568.43174    38174.007 
  803700    291.49747   -1501.2776    463.37026    268.04719   -236.50923    38174.007 
  803800    299.74967   -1466.2796    483.00245    359.64863    645.60723    38174.007 
  803900    293.80467   -1486.1393    475.12333    305.27526   -160.31421    38174.007 
  804000    299.18073   -1498.7306    473.51774    315.16392    346.21277    38174.007 
  804100    301.98229   -1478.8959    474.20878    348.24108   -2.0104527    38174.007 
  804200    295.89478   -1520.1442     492.5635    298.07453   -589.04256    38174.007 
  804300    299.62157   -1520.9566    487.31832    308.71358    256.72958    38174.007 
  804400    287.15238   -1544.4152    482.23043    224.30312    445.51397    38174.007 
  804500    295.93015   -1553.1274    490.44377    263.13012    147.49879    38174.007 
  804600    300.64847   -1481.3425    478.59132    344.20128   -264.47351    38174.007 
  804700    303.25693   -1497.7775    470.12614    330.98744   -316.04708    38174.007 
  804800    304.85813   -1468.6062    491.00609    388.21231    407.73197    38174.007 
  804900    298.27454   -1523.8365    475.43193    287.91232    99.020243    38174.007 
  805000     302.4329   -1579.9348    463.40601    238.41819   -148.60368    38174.007 
  805100    303.25711   -1547.6542    481.22251    292.20795    18.433378    38174.007 
  805200    287.51901   -1501.2357    460.38748    247.28223    43.755713    38174.007 
  805300    302.21311   -1478.6316    488.76118    364.09186   -340.47576    38174.007 
  805400    293.72514   -1449.2609    487.26701    353.94097    90.911858    38174.007 
  805500    309.52185   -1487.5324    467.98356    367.15783    -23.72471    38174.007 
  805600    298.09028   -1503.9849    479.65582    311.16235     279.1662    38174.007 
  805700    289.20714   -1481.1352    477.48481    292.04319   -323.35239    38174.007 
  805800    307.94957   -1524.1486    481.41677    336.93071   -255.55292    38174.007 
  805900    294.71011   -1470.1805    507.96557    358.13283   -266.49815    38174.007 
  806000    298.84123   -1452.6903    482.76091    368.92642   -118.16723    38174.007 
  806100    296.07181   -1501.3752    471.29649    296.36961   -263.56901    38174.007 
  806200    294.50761   -1529.3594     465.2415    255.32262   -343.48002    38174.007 
  806300    299.34636   -1505.0721    490.33516    326.38186   -363.75903    38174.007 
  806400    309.98666   -1438.3921    482.83159    433.22856   -639.97745    38174.007 
  806500     293.7917   -1507.1179    487.11886     296.2341   -5.5912224    38174.007 
  806600      304.491    -1486.084    470.13562    348.21929   -207.69062    38174.007 
  806700    295.92686   -1463.9324    491.15392    353.02048    224.31034    38174.007 
  806800    295.86756   -1497.9208     486.0967    313.70916   -238.06121    38174.007 
  806900    305.12289    -1466.975    500.23161    400.25515     686.1568    38174.007 
  807000    304.83425   -1486.4985    461.52412    340.73104    239.75956    38174.007 
  807100    305.68047   -1488.7304    487.22963    367.99591   -406.20957    38174.007 
  807200    295.97384   -1489.3169    470.28499     306.9775   -643.82588    38174.007 
  807300    312.09207    -1490.982     463.3822    370.62181   -301.10723    38174.007 
  807400    299.47446   -1497.3137    479.82828    324.20735    85.088909    38174.007 
  807500    302.84309   -1482.6032    458.22257    332.40412    429.15943    38174.007 
  807600    301.38119   -1510.9559    513.53101    352.81034    845.17906    38174.007 
  807700    289.02811   -1495.1107    467.50548    267.28625   -17.520751    38174.007 
  807800    301.32132   -1480.6382    485.12625    354.45496    -152.5901    38174.007 
  807900    298.40336   -1519.6534    474.98941    292.23004    167.37429    38174.007 
  808000     306.2882   -1476.6635    472.41102    367.96691    534.73081    38174.007 
  808100    299.09205   -1561.7542    439.39442     217.6197   -118.04224    38174.007 
  808200    307.12372   -1525.1928    486.39197    337.16185    222.34158    38174.007 
  808300    290.56689   -1537.4791     447.5934     211.8997    75.461056    38174.007 
  808400    306.92091   -1538.0564    459.43082    296.42838    12.170038    38174.007 
  808500     296.0106   -1470.8249    465.75078    321.10004    523.34459    38174.007 
  808600    297.27249   -1490.8944    469.21201    310.14516    303.95356    38174.007 
  808700    294.74561   -1497.4653    479.17339    302.21483    27.018792    38174.007 
  808800    293.21485   -1521.8142    469.24559    261.08015    530.44551    38174.007 
  808900    304.82396   -1492.3073    485.98532    359.33733    223.00519    38174.007 
  809000    299.72487    -1532.229    459.63273    270.21836    337.95001    38174.007 
  809100    310.01047   -1553.8124    461.93339    297.01668    319.25299    38174.007 
  809200     305.4139   -1567.6853     470.0659    270.68294     64.45152    38174.007 
  809300    297.54038   -1543.1116    457.85751    247.77369    655.29805    38174.007 
  809400    298.50118   -1535.8578    457.94941    259.42394    844.42416    38174.007 
  809500    304.65782   -1516.0002     464.5682      313.483    554.93739    38174.007 
  809600    312.09323   -1539.9559    451.69784    309.96876    743.06921    38174.007 
  809700    307.39627    -1529.229    440.46735    288.42211    397.17163    38174.007 
  809800    288.26779   -1552.1453    471.43721    210.77702    1049.2122    38174.007 
  809900    301.43003    -1528.468    468.18165    290.16762    134.01013    38174.007 
  810000    304.11369    -1529.925    493.90918    326.46147    78.713393    38174.007 
  810100    300.33947   -1536.3626    452.98838    262.19394   -492.12086    38174.007 
  810200    303.09815   -1500.8646    481.56969    338.63255   -173.78829    38174.007 
  810300    302.75666   -1531.2903    456.28412    281.39134   -51.770667    38174.007 
  810400    306.46202   -1536.2957      441.684    278.38644    143.87962    38174.007 
  810500    296.61503   -1547.3644    483.07212    264.58977     321.3137    38174.007 
  810600    296.32622   -1547.5946    452.29122    232.28477    591.51143    38174.007 
  810700    303.68178   -1521.5681    483.66986      322.644    602.35279    38174.007 
  810800    303.30176   -1560.8494     456.7498    254.74009    769.00874    38174.007 
  810900    308.50435   -1520.9647    442.72589    303.90925     421.7936    38174.007 
  811000    296.46411   -1538.3052    450.92685    240.82756    146.86494    38174.007 
  811100    307.10151   -1526.8428    485.58501    334.60538    537.59257    38174.007 
  811200    294.52178   -1513.4335    447.72825    253.79872   -47.408421    38174.007 
  811300    294.93939   -1484.9827    478.55872    314.95099    86.772646    38174.007 
  811400    304.77981   -1518.9572    451.44266    297.94696   -243.05235    38174.007 
  811500    293.02864   -1497.9544    478.56357    293.42367   -309.42274    38174.007 
  811600    294.69313   -1482.0064    449.40355    287.66877   -461.50145    38174.007 
  811700     290.6796   -1504.3865    472.40069    270.30455   -429.37841    38174.007 
  811800    299.98967   -1506.1299    461.04677    298.91783   -332.48668    38174.007 
  811900    295.89871   -1522.0908    479.80506    283.38708    20.182479    38174.007 
  812000    303.96814    -1527.785    454.41641    288.45654    308.12401    38174.007 
  812100    300.14999   -1560.0533    437.86461    222.53055   -28.204086    38174.007 
  812200    302.62716   -1511.6594    448.80746    292.96539    542.45388    38174.007 
  812300    288.25393   -1530.0809     464.2519    225.59397   -68.540283    38174.007 
  812400    298.18545   -1580.1836    454.36469    210.09883   -122.62989    38174.007 
  812500    305.97916   -1556.9366    450.88601    264.78425   -86.326414    38174.007 
  812600    308.63411   -1576.9905    430.95447    236.69341    349.76582    38174.007 
  812700    298.96867   -1518.6111    424.09114    244.90675   -116.05093    38174.007 
  812800    297.23222   -1550.6224    449.79425      230.819    53.696671    38174.007 
  812900    303.45659   -1509.2571    455.19538    305.47163   -264.80698    38174.007 
  813000    307.78043   -1462.4802    463.80263    380.22728    205.22184    38174.007 
  813100    301.14852   -1475.6555    454.86701    328.40436   -150.67169    38174.007 
  813200    294.62643   -1465.9292    454.72198    308.76558   -306.42231    38174.007 
  813300    296.45933   -1501.8498     461.2469    287.58155    195.36081    38174.007 
  813400    307.48963   -1485.9167    428.07027    319.75553    581.11859    38174.007 
  813500    304.56901   -1485.0783    452.23503    331.67384    319.90727    38174.007 
  813600    299.45361   -1485.8867    449.40242    305.11506    51.650383    38174.007 
  813700    303.84976   -1512.0853    462.87686    312.08632    159.58977    38174.007 
  813800     296.0619   -1508.0139     450.3792     268.7692    206.27603    38174.007 
  813900    306.77302   -1500.7985    446.31421    319.90715    251.37652    38174.007 
  814000    292.87461   -1456.8049    449.49414    304.81365    73.120435    38174.007 
  814100    300.38659   -1473.7091    435.36437    307.43448    715.13743    38174.007 
  814200    295.27718   -1512.3966    474.66628    285.15801     287.0881    38174.007 
  814300     294.9781   -1502.4437     461.5096    280.61426   -13.761112    38174.007 
  814400     300.5384   -1537.3237    456.18532    265.32101   -10.560913    38174.007 
  814500     299.9891   -1485.8178    468.75133    326.93199    474.73854    38174.007 
  814600    296.38124   -1446.5784    470.58555    351.84178    254.75596    38174.007 
  814700    301.37602   -1452.3903    475.90133    373.72306     477.7422    38174.007 
  814800    298.15038   -1452.7617    467.80869    350.80761    637.88421    38174.007 
  814900    302.30283   -1465.2206    451.51991    340.66361    433.08201    38174.007 
  815000    290.18809   -1517.0406    449.75039    232.79809    695.75738    38174.007 
  815100    310.04368   -1511.2735    457.38678    335.15784    617.78586    38174.007 
  815200     293.0152   -1484.8719    437.62884    265.51118     257.5341    38174.007 
  815300    303.78792   -1506.5309    458.38696    312.87376    82.693219    38174.007 
  815400    288.80769   -1497.3905    469.42765    265.94109   -604.57826    38174.007 
  815500    300.94547   -1459.4652     479.7272     368.5451    21.441173    38174.007 
  815600    306.31194   -1499.5225    457.72486    330.52813    50.340572    38174.007 
  815700    282.64806   -1529.8766    447.76158    184.19281    67.830353    38174.007 
  815800    298.02794   -1514.7928    462.94279     283.3621    -202.3529    38174.007 
  815900    294.72906   -1527.2734    459.04751    252.20674   -98.762096    38174.007 
  816000    289.11547   -1504.7505    456.00902    246.54132    62.579767    38174.007 
  816100    296.78587   -1483.2013    454.51309    300.95918    330.88269    38174.007 
  816200    292.96164   -1479.4732    456.29608    289.33716    199.88535    38174.007 
  816300    307.37692   -1511.1568    460.41172    326.35195   -528.53288    38174.007 
  816400    310.96897   -1485.9427    432.69254    339.93981    214.16901    38174.007 
  816500    297.58214   -1486.1238    454.09605    301.18713    32.371008    38174.007 
  816600    304.39512   -1484.2492    487.85085    367.33974    112.94413    38174.007 
  816700    298.89404   -1508.1189     434.3976    265.37102   -291.83449    38174.007 
  816800    314.17126   -1533.6278    450.53706    324.44596     820.4204    38174.007 
  816900    286.08406   -1493.6772    473.61422     261.6387   -24.022241    38174.007 
  817000    300.01608   -1501.3316    446.35455    289.14226    161.00353    38174.007 
  817100    302.84714   -1483.0752    442.17671    315.90442   -273.37947    38174.007 
  817200    303.19922   -1480.6822    457.57411    335.27216      126.935    38174.007 
  817300    303.39607   -1501.9907    459.25175     316.5233   -256.17547    38174.007 
  817400    295.91838   -1501.8539    467.49206    291.39908   -394.77146    38174.007 
  817500    298.75796   -1510.4166    447.00446    275.07061   -193.35957    38174.007 
  817600    309.96524   -1477.9891    418.53713    329.24108    -265.9045    38174.007 
  817700    290.40272   -1516.3303    466.44586    251.16545   -823.86503    38174.007 
  817800    297.35759   -1498.1415    472.48032    306.54763   -935.81789    38174.007 
  817900    297.38617   -1496.7517    461.30663    296.89185   -798.51562    38174.007 
  818000    296.32777   -1499.7538    454.38047    282.22175   -314.98294    38174.007 
  818100    301.57815   -1522.5523    463.76244    292.32771   -135.45444    38174.007 
  818200    292.49653   -1540.0969    456.74337      227.077    -22.43897    38174.007 
  818300    293.16942   -1565.9761    458.50927     205.9783   -120.78378    38174.007 
  818400    292.63913   -1585.8937    437.87849    163.05419   -200.09587    38174.007 
  818500    300.37166   -1543.7352    447.53707    249.51419    14.534297    38174.007 
  818600    305.92799   -1509.8887    465.19682    325.91368   -282.79074    38174.007 
  818700    300.63953   -1547.2815    443.77068    243.40159   -174.61833    38174.007 
  818800    299.12596   -1551.0431    464.48428    253.57254   -324.50617    38174.007 
  818900    297.78641   -1537.8964    440.00269    236.23632   -13.877356    38174.007 
  819000    310.02042   -1519.5684    451.11428    320.48621   -358.58712    38174.007 
  819100    295.78166   -1481.4834    465.93249    309.59755   -165.27587    38174.007 
  819200    300.60315   -1512.3605    467.61649     302.0054    180.64372    38174.007 
  819300    310.26146   -1547.7316    429.02509    271.31373   -23.237104    38174.007 
  819400    292.57945   -1547.2993    449.14235     212.6451   -310.89288    38174.007 
  819500    305.81166   -1473.0457    464.76008    361.79876    85.062379    38174.007 
  819600     307.1505   -1519.9151    445.42366    301.59115    86.567831    38174.007 
  819700    301.89463   -1463.1352    484.83162     374.2319    761.95143    38174.007 
  819800     304.8484    -1493.141    464.71398    337.34179    398.11385    38174.007 
  819900    298.69929    -1532.232    466.48529    272.47308    206.24132    38174.007 
  820000    297.93831   -1461.1462    462.37398    336.03831    592.87769    38174.007 
  820100    308.62766   -1463.6017    450.10005    369.19885    698.04694    38174.007 
  820200    300.39854   -1477.5604    466.16705    334.43945    327.07736    38174.007 
  820300    302.97489   -1464.2969    452.33003     345.4084    293.39701    38174.007 
  820400    296.81571   -1487.1725    464.33654    306.94518      317.909    38174.007 
  820500    306.50097   -1479.8399    455.09592    348.42862    842.89697    38174.007 
  820600    290.00471   -1515.7099    459.28574    242.84264    261.23068    38174.007 
  820700     294.0809   -1452.7016    457.63726     322.4644    845.27141    38174.007 
  820800    289.74746   -1474.1921    478.32055    302.24271     290.1356    38174.007 
  820900      303.314   -1448.0386    450.92839    361.78434    142.97595    38174.007 
  821000    290.90271   -1449.0597    487.18021    341.41043   -2.7497877    38174.007 
  821100    301.51718     -1469.22     468.9741    350.59857   -258.76881    38174.007 
  821200    297.88639   -1474.9212    481.97443    341.63116   -353.21624    38174.007 
  821300    292.31574   -1447.8512    447.21653     308.9859    -762.3792    38174.007 
  821400    307.57193   -1444.7638    472.30677    405.51366   -1182.9226    38174.007 
  821500    302.10562   -1424.9285    466.21717    394.76945   -633.65452    38174.007 
  821600    300.69154   -1424.6994    474.83617    397.28223   -128.49187    38174.007 
  821700    291.56685   -1438.9974    484.05155    351.31959    342.92651    38174.007 
  821800    302.03136    -1465.728    466.91484     354.3349    615.43206    38174.007 
  821900    295.94081   -1469.3018    469.23103    325.79065    891.99133    38174.007 
  822000     302.2495   -1462.6677    479.99747    371.45515    635.21685    38174.007 
  822100    299.46867   -1429.7258    464.34381    376.28479    235.61801    38174.007 
  822200    300.92296   -1462.8639    468.34957    353.66798   -297.48792    38174.007 
  822300     303.7819   -1409.0311    487.78807    439.74769   -307.94903    38174.007 
  822400    306.49843   -1411.3872    467.00133    428.77537   -32.015147    38174.007 
  822500    292.47244   -1459.7312    449.36408    299.95546   -187.16459    38174.007 
  822600    304.81802   -1482.2042    462.08933    345.51784   -283.08322    38174.007 
  822700    308.37259   -1465.9206    467.98416    383.62135   -155.22152    38174.007 
  822800    312.49839   -1476.2898    461.32733    385.07951     -262.429    38174.007 
  822900    305.70695   -1481.9273    474.47127     362.1593   -301.80397    38174.007 
  823000     306.2462   -1512.9525     468.5037    327.58246   -49.601253    38174.007 
  823100    305.39864   -1481.9764    451.07223     337.3298    398.85995    38174.007 
  823200    287.72319   -1502.9398    466.36814    252.47359   -180.59443    38174.007 
  823300    311.30409   -1494.3025    474.57901     374.9679    39.543495    38174.007 
  823400    302.94835   -1451.7804    467.13305    372.60901   -518.14696    38174.007 
  823500    298.06358   -1454.6871    478.09157    358.77619   -38.382139    38174.007 
  823600    299.58021    -1475.016    451.20388    318.35435   -223.38307    38174.007 
  823700    303.42009   -1474.6558    466.54724    351.26118    -24.06264    38174.007 
  823800    300.00122   -1460.3688    452.36244    336.04642    327.20773    38174.007 
  823900    289.54691   -1485.4365    446.56882    258.34805    277.16501    38174.007 
  824000    305.55452   -1451.0208    488.19738    406.10901   -149.68225    38174.007 
  824100    293.43049   -1437.7348    462.48969    339.36971   -573.96087    38174.007 
  824200    309.87794    -1478.419    448.67728    358.56023   -460.14061    38174.007 
  824300    302.85462   -1438.7925    455.50542    373.54931   -574.98856    38174.007 
  824400     301.8178   -1485.8341    459.58055    325.93768   -387.54543    38174.007 
  824500    312.20139   -1453.1808    487.61746    433.14808   -142.03316    38174.007 
  824600    291.07872   -1496.4881    462.46591    270.05629    356.07675    38174.007 
  824700        310.6   -1472.4259    495.16775    414.27884    85.028684    38174.007 
  824800    305.02916   -1446.8835     468.6292    388.32434    286.14937    38174.007 
  824900     294.9022   -1414.5071    469.12414    375.82533    376.51497    38174.007 
  825000    312.73381   -1447.6954    483.90458    437.30591    661.90952    38174.007 
  825100    287.44521   -1452.0742    467.66693    303.39256    477.84746    38174.007 
  825200     294.6868   -1495.2603    462.82544    287.80839    892.23199    38174.007 
  825300    301.36115   -1496.0338     435.6425    289.75409    842.53264    38174.007 
  825400    298.31533   -1466.4876    460.13159    330.14369    95.586882    38174.007 
  825500    303.82579   -1487.6815    461.12451    334.63044   -817.83649    38174.007 
  825600    299.42584   -1439.7597    494.23433    395.94954   -388.04725    38174.007 
  825700    295.57916   -1439.9594    489.36292    373.64469   -580.73104    38174.007 
  825800    303.90033   -1472.8002    452.93352    341.65464   -303.35297    38174.007 
  825900    300.41285   -1462.8396    480.86566    363.92294    441.09604    38174.007 
  826000    308.23667   -1452.8258    468.53875    396.66172    188.70626    38174.007 
  826100     307.5934   -1465.9593    478.73125    390.83877    -257.5941    38174.007 
  826200    305.25026   -1436.9088    460.52206    391.18251   -228.79609    38174.007 
  826300    307.40046   -1492.0468    454.40811    339.56382   -201.24199    38174.007 
  826400    295.87716   -1474.8217    488.12478    338.87932   -515.39947    38174.007 
  826500    301.24042    -1498.654    455.52654     306.4771   -207.63174    38174.007 
  826600     299.7352   -1503.9772    454.65174    293.53548    4.1145862    38174.007 
  826700    297.96887   -1499.7635    474.11183    309.29583   -277.35771    38174.007 
  826800     293.0929   -1478.9137    484.63418    318.82286   -45.084017    38174.007 
  826900    296.42429   -1534.2352    465.49806    259.29037    74.064036    38174.007 
  827000    296.11715   -1499.0132    457.86286    285.50112     495.9071    38174.007 
  827100    304.57532   -1497.5382     450.0957    317.10289    387.54327    38174.007 
  827200    294.55248   -1457.9275    476.13231    337.84627    72.105661    38174.007 
  827300    307.98396   -1503.0419     452.9904    329.76516   -234.41309    38174.007 
  827400    298.46424   -1462.4812    453.76481    328.45043   -189.79435    38174.007 
  827500    295.71222   -1505.7859    467.22468    286.27613   -290.26083    38174.007 
  827600    306.83519   -1540.1646    456.12961    290.63494   -363.85246    38174.007 
  827700     314.1643   -1499.0967     470.2127    378.62157   -15.993642    38174.007 
  827800    299.30887   -1533.7057    440.19812    247.44326    98.748425    38174.007 
  827900    301.02623   -1505.1055    460.82302    304.36246    7.5294561    38174.007 
  828000    311.71425   -1483.9655    449.96319    362.52667   -481.73934    38174.007 
  828100    297.02581   -1533.2339     440.9084    238.39692   -497.28072    38174.007 
  828200    306.72927   -1526.9093     445.3031    292.58923   -292.04218    38174.007 
  828300    301.04928   -1539.4815    449.72522     258.9919   -275.35582    38174.007 
  828400    296.31868   -1542.3773    444.64228    229.81931   -692.50095    38174.007 
  828500    303.71559   -1511.0522    457.35229    306.99379   -416.05098    38174.007 
  828600    297.34104   -1514.2185    469.24468    287.16089   -14.194253    38174.007 
  828700    297.57528   -1507.7748     474.1943    299.60358    23.210926    38174.007 
  828800    296.14123   -1508.8377    430.29417    248.21581   -861.10604    38174.007 
  828900    297.42276   -1485.8922    448.57961    295.18824   -1005.4261    38174.007 
  829000    308.33621        -1461    482.27265    402.66742   -284.08567    38174.007 
  829100    291.98906   -1467.1194    463.00442    304.04194    90.185969    38174.007 
  829200    297.60023    -1478.541    485.91584     340.6707   -164.96331    38174.007 
  829300    298.85367   -1482.7671    487.39341    343.53783    534.79011    38174.007 
  829400    292.02498   -1452.3385    467.38145    323.36091    339.07461    38174.007 
  829500    289.75379   -1499.7655    460.09098    258.46809   -17.159113    38174.007 
  829600    297.00884   -1483.1395    459.05301    306.55988   -227.83166    38174.007 
  829700    304.59924   -1469.3694    465.78198    361.06513   -504.14359    38174.007 
  829800     298.3238    -1499.392    462.94699    300.09266   -98.120474    38174.007 
  829900    292.24332   -1452.7777    470.73736    327.25577   -222.23406    38174.007 
  830000    302.92707   -1450.7135    484.91288    391.36033    -713.8651    38174.007 
  830100    292.07931    -1470.834    441.85882    279.58608   -352.51273    38174.007 
  830200     310.4878   -1500.2128    482.20268    373.02411   -91.509761    38174.007 
  830300    296.00764   -1495.0637    486.81601     317.9132   -21.402953    38174.007 
  830400    295.66236   -1520.1506    471.03802    275.50138   -177.32659    38174.007 
  830500    299.54612   -1518.8522    447.09723    270.25884    132.62155    38174.007 
  830600    298.82758   -1516.8834    498.97161    320.88284   -280.43435    38174.007 
  830700    298.00398    -1477.908    437.67873    294.87557   -324.72391    38174.007 
  830800    305.60404   -1467.1032    453.26132     355.3123   -114.93864    38174.007 
  830900    303.71335   -1475.1045    477.98499    363.56415   -295.20592    38174.007 
  831000    296.03099    -1474.906    461.97286    313.33234    363.06186    38174.007 
  831100    304.79943    -1475.961      485.298    374.88642    1029.4466    38174.007 
  831200    301.89756   -1444.4897    462.63359    370.69254    795.26289    38174.007 
  831300    304.75564   -1465.7868      503.592    403.15843    761.12378    38174.007 
  831400    298.16033   -1466.2905    484.71362    354.22838    780.65122    38174.007 
  831500    307.99339    -1427.752     459.2156    411.32246    512.04574    38174.007 
  831600     305.8135   -1450.1676     486.7304    406.65543    678.30432    38174.007 
  831700    303.51118   -1473.4445    484.94763    371.28108     369.8356    38174.007 
  831800    304.40106   -1474.7817    482.31974     371.3027     600.4227    38174.007 
  831900    300.53995   -1506.0936    491.56403    331.93679    123.14228    38174.007 
  832000    301.15836   -1512.1871    477.77691    314.82672    481.09721    38174.007 
  832100    309.63661   -1476.8549    493.28222    403.64804    91.685953    38174.007 
  832200    302.78719   -1469.0574    497.61495    385.09188    580.40731    38174.007 
  832300    294.98755    -1465.824    495.26213     351.0288    782.50488    38174.007 
  832400    296.10031   -1437.1127     477.9886    367.45192    886.26882    38174.007 
  832500    302.70527   -1496.4336    515.45494    375.18869    492.97006    38174.007 
  832600    295.30753   -1514.7504    472.85185    281.12571    447.03272    38174.007 
  832700    315.27407   -1507.0744    467.00174    372.40481    457.18832    38174.007 
  832800    302.16453   -1538.3492    469.91106    285.30653   -70.136669    38174.007 
  832900    299.10244   -1541.0685    459.62934    258.58683   -746.91377    38174.007 
  833000    305.24632   -1544.4267    461.58105    284.70599   -484.74621    38174.007 
  833100    295.13208    -1543.437    460.35622     239.1574   -476.34447    38174.007 
  833200    294.78001   -1578.7202    477.75765    219.69832   -87.085104    38174.007 
  833300     316.7304   -1551.3637    453.69986    321.33825    611.90754    38174.007 
  833400    306.16527   -1565.3933    444.88174    251.15709    95.784763    38174.007 
  833500    298.02372   -1547.0719    483.13893    271.26027    352.02664    38174.007 
  833600    291.51887   -1575.4453    455.14907    185.75421   -24.120755    38174.007 
  833700    292.99707   -1493.6494    468.00524     287.0289   -203.14064    38174.007 
  833800    310.36145   -1526.1433    460.11228    324.43719    139.25546    38174.007 
  833900    303.04231   -1559.6063    471.84015    269.91112    513.86504    38174.007 
  834000    301.77485   -1571.9009    459.53428    239.63223     506.7755    38174.007 
  834100    301.81891   -1557.9779    456.00472    250.22306    107.79556    38174.007 
  834200     294.7367    -1540.039    464.58252    245.01037    579.23984    38174.007 
  834300    299.69807   -1531.9858    474.66466    285.37335    580.83052    38174.007 
  834400    303.51597   -1548.5541    463.61296    274.85816   -85.990716    38174.007 
  834500    315.34767   -1550.4013    449.76812    312.17399     151.4779    38174.007 
  834600    295.31457   -1567.3311    492.40672    248.13143    -193.5901    38174.007 
  834700    292.62204   -1532.2709    461.28352    240.00544    65.796296    38174.007 
  834800    297.06279   -1560.3575    447.21461     217.7452     452.3548    38174.007 
  834900    305.70668   -1548.5088    460.29118     281.3964    604.66023    38174.007 
  835000    288.05037    -1564.253    468.09432    194.35234    370.68092    38174.007 
  835100    303.06314   -1524.5812    484.62543     317.8148    776.19044    38174.007 
  835200    291.23495    -1480.514    489.42599    313.69043    89.906087    38174.007 
  835300     303.7252   -1533.9461    452.91258    279.70317   -151.66973    38174.007 
  835400    288.81708   -1526.0739    460.13799    228.01012   -453.46111    38174.007 
  835500    303.13935   -1500.5493    502.41336    359.97612   -139.17841    38174.007 
  835600    284.75778   -1486.4576    461.27737    250.57945   -570.93211    38174.007 
  835700    297.88493   -1544.0854     458.6015    249.08748   -1054.5078    38174.007 
  835800    303.31557   -1533.8581    449.00917     274.0526   -651.55624    38174.007 
  835900    294.79756   -1523.2719    477.43776    274.90534   -519.40806    38174.007 
  836000    314.62962   -1570.7811    425.17533    263.98452    54.467165    38174.007 
  836100    296.71504   -1552.8916     511.5277    287.96619    326.64323    38174.007 
  836200     295.1075   -1548.2536    465.84427    239.71878    509.07746    38174.007 
  836300    312.08458   -1564.3123    447.69261    281.56842    643.07238    38174.007 
  836400    309.12327   -1601.5411    458.40825     241.7881    325.73514    38174.007 
  836500    291.94282   -1567.4641    492.16237    232.64811     216.4693    38174.007 
  836600    291.37309   -1571.4467     474.0891    208.03975    507.00219    38174.007 
  836700    302.01778   -1607.1796    458.26663    204.17425   -118.67918    38174.007 
  836800    294.76568    -1601.479    474.35574    193.47335   -118.45598    38174.007 
  836900    290.56836    -1547.902     478.7488    232.63882   -153.63999    38174.007 
  837000     297.4707   -1559.1975    466.13519    239.65328    264.43114    38174.007 
  837100    304.46039   -1594.2224    461.37205    231.18019    412.98238    38174.007 
  837200    305.58039   -1572.0687    444.53778    241.51733    323.52381    38174.007 
  837300    292.23802   -1501.7069    463.49388    271.05937    169.01914    38174.007 
  837400    307.30926   -1534.7815    481.34416    323.35657    551.41761    38174.007 
  837500    297.24602   -1558.4254    468.58678    241.87035    415.29831    38174.007 
  837600    298.29084    -1581.968    456.12851    210.55048    934.50445    38174.007 
  837700     308.7893   -1549.9252    459.87577    293.37527    289.00093    38174.007 
  837800     301.3852   -1571.3225    474.43843    253.36916    160.23707    38174.007 
  837900    297.33501   -1543.2774    470.78509    259.61541     263.3402    38174.007 
  838000    301.93983   -1536.8112    469.49788    285.42466    40.221423    38174.007 
  838100    292.22956   -1575.4026    472.63872    206.47062    797.19637    38174.007 
  838200     295.0472   -1571.4323    484.73892    235.16458    612.64847    38174.007 
  838300    302.58186   -1533.7018    482.14994    304.06256    424.01372    38174.007 
  838400    308.27876   -1545.4762    487.06244    322.72371   -49.124913    38174.007 
  838500    301.51612    -1532.478     473.0342    291.39589    225.85033    38174.007 
  838600    307.56822   -1550.4571    497.75105    325.24802    168.39447    38174.007 
  838700    301.51869   -1512.2638    479.81349     318.4009    188.60967    38174.007 
  838800    289.69544    -1549.856    470.08148    218.10672    174.22162    38174.007 
  838900    307.34291   -1522.1538    485.57765    340.36853    596.65038    38174.007 
  839000    311.28202   -1511.3371    496.35272     379.6081    690.64537    38174.007 
  839100    295.17026   -1522.3118    444.28267    244.38013    301.94986    38174.007 
  839200    309.92464    -1545.285    495.99641    339.22265     378.5161    38174.007 
  839300    300.86264   -1541.6003    465.68792    271.99962    281.34337    38174.007 
  839400    302.33967   -1511.5624    471.89867    314.86557   -118.55543    38174.007 
  839500    310.26886   -1522.6033    465.31227    332.76236   -389.98012    38174.007 
  839600    303.57142   -1498.7513    487.66639    348.96284   -445.80249    38174.007 
  839700    307.63883   -1477.2668    473.40042    374.40399   -605.74161    38174.007 
  839800    304.25987   -1457.2326    479.67723    385.57675   -672.02157    38174.007 
  839900    294.77343   -1493.5023    485.53738    312.66644   -64.940058    38174.007 
  840000    311.67512    -1483.773     467.8707    380.45127     362.5784    38174.007 
  840100    305.79582   -1498.6604    481.77203    353.12507    426.33079    38174.007 
  840200    291.37326   -1525.8556    469.26978    248.81231   -80.084526    38174.007 
  840300     309.5614   -1492.2913    483.53095    378.12346    469.61579    38174.007 
  840400    306.77107   -1498.3476    487.16942    363.20449    374.02888    38174.007 
  840500    305.55509   -1513.1011    466.74916    322.58296    113.83191    38174.007 
  840600    298.86108   -1547.2231    459.19596    250.91762   -46.780106    38174.007 
  840700    302.78932   -1532.8206    474.18038     297.9036    230.65245    38174.007 
  840800    295.74405   -1537.3124    469.99157    257.65914    -134.2564    38174.007 
  840900    292.90428   -1510.4674    474.51153    276.30144    -571.6498    38174.007 
  841000     293.3352   -1494.6439    489.38999    308.93401   -474.65398    38174.007 
  841100     292.9976   -1488.5885    480.95928    305.04617   -502.25728    38174.007 
  841200    294.36487   -1504.2045    513.02954    327.62604   -220.66293    38174.007 
  841300    304.00483   -1504.5533    498.66106    356.09727    -85.61869    38174.007 
  841400    293.81143   -1510.8717    495.88486    301.33471   -10.581549    38174.007 
  841500     299.9713   -1513.4526    477.71906    308.18507    243.66244    38174.007 
  841600    296.68023   -1514.5759    476.61392    291.21216   -13.496855    38174.007 
  841700    297.29917    -1507.231    486.52621    311.24233   -378.69751    38174.007 
  841800    299.07278   -1518.3354    459.11002    280.66778     -20.7462    38174.007 
  841900    298.39337   -1496.4878     465.8599    306.22144    -123.4123    38174.007 
  842000    303.87365   -1488.5967    492.64002    365.44514    143.45403    38174.007 
  842100    296.98271   -1499.7626    460.90743    291.67415    631.19919    38174.007 
  842200    293.20746   -1511.3326    467.42523    269.70824   -1.7283608    38174.007 
  842300     297.6828   -1512.6934    470.89869    291.87107    489.96427    38174.007 
  842400    294.39683   -1546.9595    485.35208    257.33678     321.2026    38174.007 
  842500    304.64395   -1546.0883    448.11842      266.883    202.91662    38174.007 
  842600    302.92519   -1552.5628    492.51773    297.10751    184.89199    38174.007 
  842700    300.11155   -1521.9652    477.81701    300.39879    553.98488    38174.007 
  842800    305.23448   -1504.6366    495.12513    357.98709    1027.4093    38174.007 
  842900      309.091   -1469.4513    471.01061    386.33566    548.33847    38174.007 
  843000    303.96466   -1498.0525    492.94214    356.69923    371.62693    38174.007 
  843100    303.88182    -1519.915    447.25456    288.77796    23.615058    38174.007 
  843200    305.36087   -1495.5621    473.25977    345.76251    99.123925    38174.007 
  843300    304.16793   -1478.8431    497.45838    381.33547    349.92256    38174.007 
  843400     307.2708   -1505.2827    454.99619    326.33504    431.22115    38174.007 
  843500    297.18912   -1525.2104    480.27668    286.52038   -321.69467    38174.007 
  843600    304.89046   -1480.8444    478.04542    363.15828   -114.69859    38174.007 
  843700    303.99113   -1524.3235    445.93251    283.53719   -107.40091    38174.007 
  843800    294.47575    -1542.432    472.91616    249.78187    -168.6242    38174.007 
  843900    290.98956   -1553.3762    480.99063    231.29354   -453.77797    38174.007 
  844000    293.78475   -1556.3953    477.19309    236.99976   -357.85668    38174.007 
  844100    292.58085    -1534.605    486.84942    263.05276    -290.1058    38174.007 
  844200    304.37391    -1548.785    492.31139    307.16949    167.83502    38174.007 
  844300    296.02303   -1533.5869     505.4567    298.09961   -10.670444    38174.007 
  844400    306.51799   -1520.4687    469.07218    321.85229    101.07769    38174.007 
  844500    312.78037   -1524.3998    486.88881    363.79432    -220.4261    38174.007 
  844600    300.40488   -1533.8686    465.99292    277.98551   -620.28036    38174.007 
  844700    293.03446   -1496.7636    468.41588    284.49286   -598.20814    38174.007 
  844800    298.17692   -1563.9832    472.69922    244.59561     289.9906    38174.007 
  844900    298.50126   -1526.8242    478.07792    288.58632    -67.39343    38174.007 
  845000    294.51928   -1536.5526    477.77613    260.71627   -139.90992    38174.007 
  845100    300.85564   -1535.3645    458.63705    271.15317   -210.34251    38174.007 
  845200    303.49556    -1571.983    466.79958    254.52447    215.12757    38174.007 
  845300    296.78906   -1577.2895    480.29883    232.67111   -215.66314    38174.007 
  845400    294.65667   -1564.2391    470.75821    226.62737    29.285876    38174.007 
  845500    288.30832   -1552.0592    468.49237    208.09981   -312.62793    38174.007 
  845600    307.32873   -1528.2941    471.07355    319.66054    428.57369    38174.007 
  845700    308.32092   -1542.5546    473.88211    312.65379    776.25093    38174.007 
  845800     302.4356   -1569.3257    485.36339    270.99685   -196.94291    38174.007 
  845900    297.53263   -1537.1553    478.89956    274.73733    245.23164    38174.007 
  846000    291.00628   -1543.2578    477.74704    238.24322    229.43665    38174.007 
  846100    293.74663   -1542.8902    486.18715    259.32811   -89.953729    38174.007 
  846200    296.21493   -1533.4622    473.29137    266.91872    625.79916    38174.007 
  846300     293.3826   -1544.6867    493.97223    263.68575    281.03274    38174.007 
  846400    308.97695   -1531.0367    478.06323    331.29193   -69.948162    38174.007 
  846500    294.27007   -1593.1101    476.72047    201.98657   -808.55469    38174.007 
  846600    300.41691   -1543.7922    438.36937    240.49222   -439.33911    38174.007 
  846700    298.57323   -1545.8519    476.63321    268.43637   -62.325271    38174.007 
  846800    298.15559    -1564.115    480.16292    251.83198   -104.38983    38174.007 
  846900    299.14218   -1547.2422    479.76751    272.72941    171.37489    38174.007 
  847000    309.40798   -1532.7609    480.70769    334.14327    412.48434    38174.007 
  847100    304.34846   -1567.3612    492.68155    288.84936    816.41196    38174.007 
  847200    297.51278   -1577.9958    453.73778    208.64617   -9.9874672    38174.007 
  847300    305.50555   -1547.0104    482.89938    304.60203    370.30234    38174.007 
  847400    294.88274   -1562.3265    468.12996     226.9246    145.96047    38174.007 
  847500    295.22426   -1542.8432    472.65826    252.46627   -266.75543    38174.007 
  847600    303.61244   -1565.5319    465.92158    260.62127    124.69958    38174.007 
  847700    305.76479   -1558.3643    467.58093    279.09102   -2.7260143    38174.007 
  847800    311.35959   -1528.3894    495.47909    362.02966   -193.25725    38174.007 
  847900    298.53507   -1527.3866    477.71341    287.81089   -317.55839    38174.007 
  848000    290.51476   -1500.3561    463.88211    265.07786    7.3972109    38174.007 
  848100    295.05509   -1526.5295    476.71097    272.07479    277.45704    38174.007 
  848200    302.26667   -1523.0786    471.07766    302.20131    350.15649    38174.007 
  848300     306.0426   -1557.1693    440.54495    254.49473    139.23961    38174.007 
  848400    299.76824   -1585.2213    460.00028    217.78788   -60.590975    38174.007 
  848500    300.87111   -1542.2392    494.61441    300.32517   -320.70471    38174.007 
  848600    313.29801   -1504.7459    443.33261    342.21111    16.664473    38174.007 
  848700     296.4347   -1523.8172     446.8883    251.14519   -99.672223    38174.007 
  848800    297.85141   -1533.6714    465.90752     266.6573    342.59322    38174.007 
  848900    305.66731   -1533.6045    470.48573     306.3189    373.06856    38174.007 
  849000    307.48125   -1563.6364    478.73884    292.66682    1186.0961    38174.007 
  849100    307.02379   -1561.7429    480.05553    293.82752    1269.8538    38174.007 
  849200    298.37329   -1532.8223    454.65999    258.59702    826.12786    38174.007 
  849300    305.77297    -1522.719    476.00736    323.19938    1144.4161    38174.007 
  849400     304.0653   -1503.0559    497.13093    356.33547    993.55307    38174.007 
  849500    307.04305   -1521.8899    501.95213    355.66343    525.81026    38174.007 
  849600    293.33446   -1524.0017    485.15379    275.33663    595.00607    38174.007 
  849700    301.46906   -1543.4548    468.05046    275.22451   -242.44981    38174.007 
  849800    293.34024   -1532.3387    485.18189     267.0537   -115.52966    38174.007 
  849900     300.6909   -1533.8731    475.31506    288.58461    394.42779    38174.007 
  850000    295.45821    -1535.668    466.86314     254.8945   -205.61048    38174.007 
  850100     308.4027   -1533.1634    486.11285    334.64215   -2.0951337    38174.007 
  850200    303.47044   -1535.6998    469.52982    293.42538    276.91468    38174.007 
  850300    303.90609   -1506.1177    482.10719    337.53667    532.36992    38174.007 
  850400     297.3765   -1493.3445    496.64897    335.59801     305.4988    38174.007 
  850500    306.63662    -1477.793    486.90355    382.89094    617.41471    38174.007 
  850600    283.87546   -1529.6029    479.01494    221.21876    428.58479    38174.007 
  850700    294.82586   -1529.4415    464.47107    255.89583    658.82265    38174.007 
  850800    298.57669   -1537.9904    506.51443    306.19469    382.65771    38174.007 
  850900    291.16492   -1491.1779    472.84804    286.13486    306.56957    38174.007 
  851000    317.35742   -1494.2085    477.31677     404.9195    44.427105    38174.007 
  851100    300.92829   -1504.1309    471.27177    315.34701   -404.53431    38174.007 
  851200    295.01734   -1510.4506    477.70544    288.97903   -120.38711    38174.007 
  851300     305.5824   -1533.3757    482.50078    318.18235    58.329261    38174.007 
  851400    295.53723   -1581.0561      483.982    226.97926    489.65562    38174.007 
  851500    307.02757   -1560.8051     467.1997    281.92646     461.6757    38174.007 
  851600    291.57556   -1558.5332    459.56733    207.33861   -118.41924    38174.007 
  851700    304.65373   -1596.2879    481.75875    250.36759    434.27159    38174.007 
  851800    300.34332   -1545.2741    461.16206    261.47329     331.4832    38174.007 
  851900    292.87455   -1528.4807    498.09241    281.73587    221.41024    38174.007 
  852000    299.30451   -1527.9806    472.62815    285.57892    262.08436    38174.007 
  852100    303.73152    -1550.436    454.94536    265.27443    -196.6044    38174.007 
  852200    295.74559    -1558.859    464.00009    230.12792   -152.22345    38174.007 
  852300    292.80042   -1549.3062    445.27576    207.76151   -308.85216    38174.007 
  852400    294.11866   -1574.9655    489.56365    232.29609   -52.780581    38174.007 
  852500    299.10891   -1571.1392    474.31335    243.22919   -34.072848    38174.007 
  852600    300.37379   -1547.4722    475.80492    274.05454    223.55082    38174.007 
  852700     304.3572    -1543.147    498.62042     319.0416    462.68093    38174.007 
  852800    300.43495   -1578.8569    476.55908    243.69808    598.75359    38174.007 
  852900    293.07359   -1539.3783    468.70718    242.34477    449.00231    38174.007 
  853000    297.21745   -1547.8745    498.76101    282.46749    25.588682    38174.007 
  853100    306.95511   -1577.8863    473.31667    270.63764    30.159118    38174.007 
  853200    299.24766   -1570.3791    453.75376    224.05136   -300.94691    38174.007 
  853300    287.63719   -1574.9974    478.70949    192.37203   -112.03848    38174.007 
  853400    292.73632   -1577.4056    475.76152    209.86074   -255.27623    38174.007 
  853500    293.44802   -1539.2315    464.49065    239.95248    359.97813    38174.007 
  853600    289.01668   -1549.0807    498.58946    244.34898     521.7506    38174.007 
  853700    295.64668   -1554.6069    487.11941    257.05615    241.31478    38174.007 
  853800    291.89521    -1573.376    492.86039    227.22085   -472.00498    38174.007 
  853900    309.97459   -1519.1911    505.64702    375.19084   -919.37719    38174.007 
  854000    301.26687   -1534.4615    475.87765    291.13923   -498.87527    38174.007 
  854100    304.51782   -1499.7151    508.93078    373.50346   -451.73707    38174.007 
  854200    300.50741   -1537.8078    453.78362    262.29637   -880.37152    38174.007 
  854300    304.36992   -1538.9037    488.88844     313.6099   -179.09304    38174.007 
  854400    296.91316    -1539.723    486.63909    277.13377    138.87235    38174.007 
  854500    289.32156   -1506.0597    463.25091    253.39734   -48.161216    38174.007 
  854600    309.66041   -1513.7209    515.60599    389.21246    143.85726    38174.007 
  854700    307.38732   -1541.8743     477.7105    312.97984    32.526681    38174.007 
  854800    299.39126   -1559.5992    468.78499    250.50574     -99.9334    38174.007 
  854900    305.44063    -1512.938    463.25701    318.74116     -358.856    38174.007 
  855000    306.29769   -1500.0432    491.29882    363.51751    5.0595699    38174.007 
  855100    311.67437   -1525.2515    474.48672    345.58549    16.444892    38174.007 
  855200    281.37505   -1554.0647    490.35043    196.89022    499.94528    38174.007 
  855300     307.5893   -1543.5387    510.42945    344.93929    610.99275    38174.007 
  855400     317.8059   -1554.9211    485.33371    354.23309     546.8227    38174.007 
  855500    288.57003   -1560.9197    470.66116    202.58066    589.17017    38174.007 
  855600     313.0666    -1545.497    506.57246    363.66311    338.41604    38174.007 
  855700    308.43521   -1546.8419    480.15684    315.15327    392.26563    38174.007 
  855800    301.78877   -1565.6141    478.03941    264.48658    181.67251    38174.007 
  855900    297.82348   -1577.2458     456.4436    213.49391    25.883258    38174.007 
  856000    300.61343   -1533.1415    483.32515    296.97917    -385.6691    38174.007 
  856100    294.70882   -1512.3993    487.09229    295.03496   -682.60934    38174.007 
  856200    304.48632   -1490.4026    499.41752    373.16158    138.87135    38174.007 
  856300    301.48641   -1541.4842    497.93128    307.15371   -250.47131    38174.007 
  856400    294.85494   -1510.7526    488.08364    298.32763   -519.63886    38174.007 
  856500    296.41802   -1520.2026    474.27044    282.06731    153.47558    38174.007 
  856600     304.9332   -1563.7162    504.86995    307.30246     95.56321    38174.007 
  856700    300.40551   -1500.9595    458.40018    303.30468    185.57727    38174.007 
  856800     299.4302   -1549.3683    498.21729    290.34339   -199.35106    38174.007 
  856900    300.49873   -1523.1963    485.52134    308.60669     -101.949    38174.007 
  857000    303.75513   -1572.6118    497.80539    286.06436    197.08425    38174.007 
  857100    290.19022   -1533.5508    478.37723    244.92432    427.16216    38174.007 
  857200    300.22861   -1549.2698    467.20274    263.00439   -168.27877    38174.007 
  857300     318.2136   -1575.5765    476.98401    327.05462   -23.186947    38174.007 
  857400    299.29002   -1556.5746    496.67698    280.96878    16.752195    38174.007 
  857500    303.15719    -1544.803    502.79383    316.18274    76.847326    38174.007 
  857600    300.99615   -1556.4175    479.72773    271.82039     605.0652    38174.007 
  857700    297.47111   -1571.6434    461.16482     222.2389    864.56305    38174.007 
  857800     300.0665   -1521.2772    485.36481    308.43278     548.4044    38174.007 
  857900    291.63448   -1542.6955    476.53491    240.40787     347.2868    38174.007 
  858000    297.29995   -1528.7661    464.29944    267.48392   -450.78621    38174.007 
  858100    294.11381   -1526.9798    481.06493    271.76134    176.82715    38174.007 
  858200    295.09328    -1528.163    481.03275    274.93411    215.92685    38174.007 
  858300    311.52838   -1572.0372    468.03301    291.69203   -244.07551    38174.007 
  858400    300.56762   -1547.5612    481.46739    280.49649    406.44302    38174.007 
  858500    299.70517   -1526.6971    476.58917    292.61846   -190.96881    38174.007 
  858600     299.0262   -1562.2561    485.51873    262.94713    85.172593    38174.007 
  858700    306.72133   -1583.2239     473.7722    264.70823   -52.897084    38174.007 
  858800    302.57273   -1598.7768    466.31487    223.11151   -310.57706    38174.007 
  858900    296.59212    -1576.966    461.61664    213.43011    -317.6434    38174.007 
  859000    299.59318   -1586.9193    461.41053    216.71587   -461.81571    38174.007 
  859100    289.51125   -1626.8031    469.45016    139.70305   -153.82573    38174.007 
  859200    293.16102   -1603.2294    502.67275    212.85083   -459.60663    38174.007 
  859300    297.19991   -1597.8107    467.93702    201.62876   -716.44746    38174.007 
  859400     313.9971   -1648.9952    479.94794    237.70925   -648.88346    38174.007 
  859500    305.11173   -1660.1815    463.68818    170.45523   -749.90428    38174.007 
  859600    302.12883   -1626.9096    476.79364    203.46876    56.380725    38174.007 
  859700    301.13103   -1590.7924    467.95442    226.27646   -166.94289    38174.007 
  859800    299.84752   -1601.2148    488.83066    230.97993    557.56527    38174.007 
  859900     296.2065   -1616.8881    489.65937    199.82304    897.67522    38174.007 
  860000    303.47875    -1604.203    466.63351    222.06313    717.06003    38174.007 
  860100    302.22155   -1620.9179    477.87391    210.95615    209.91711    38174.007 
  860200    289.17805   -1607.5634    487.06509    175.06488    833.63062    38174.007 
  860300    304.22413   -1592.8751    489.05984    259.15681    281.59678    38174.007 
  860400    302.05872    -1617.169    481.36736    217.46895   -68.019549    38174.007 
  860500     292.4751   -1580.9509    463.93994    193.32357   -511.18474    38174.007 
  860600    295.45146   -1554.1644    461.59279    231.09742   -271.86402    38174.007 
  860700    295.56718   -1568.8495    481.48345     236.8215    93.417382    38174.007 
  860800    296.61752   -1548.1635    482.83085    263.56056    72.729636    38174.007 
  860900     296.6037   -1558.5967    493.26065    263.49525    202.54169    38174.007 
  861000    298.66608   -1615.7248    475.83978    198.18611   -73.535146    38174.007 
  861100     302.4787   -1564.1239    495.30598    286.33433    568.79191    38174.007 
  861200     295.5462   -1542.1328     466.6539    248.61467    136.31889    38174.007 
  861300    302.47674   -1549.7833    482.54323    287.90339    333.48876    38174.007 
  861400    294.01057   -1547.9277    498.13633    267.42225    350.10358    38174.007 
  861500    301.39353   -1552.7293    486.96965    284.53087    261.38154    38174.007 
  861600    298.13619   -1518.9851    503.54962    320.26156    606.23624    38174.007 
  861700    302.26207   -1579.9415    485.73143    259.97167    392.10723    38174.007 
  861800    300.71581   -1553.0194     477.5097    271.74451    274.89894    38174.007 
  861900    303.70555   -1526.4213    493.38507    327.61242    242.77852    38174.007 
  862000    302.36492   -1566.9765    464.70204    252.36802    127.20888    38174.007 
  862100    295.80986   -1581.1988    489.98875    234.06475   -346.54052    38174.007 
  862200    296.00224   -1556.7398    456.56314    225.95998   -91.908686    38174.007 
  862300    303.47865   -1572.8598    449.61725    236.38959   -143.30044    38174.007 
  862400    301.80014     -1568.89     460.3148    243.53699    -141.1776    38174.007 
  862500    296.79294   -1485.8205    489.52632    333.38492    292.88845    38174.007 
  862600     291.1968   -1495.8347    481.51344    290.28625    84.509769    38174.007 
  862700    302.21818   -1492.9565    491.88008    352.90863    514.80569    38174.007 
  862800    306.33277   -1505.4232    487.62754    354.62343    280.13815    38174.007 
  862900    297.50739   -1502.7912    483.82394    313.91267   -155.97266    38174.007 
  863000    291.86397   -1551.8578    469.35866     225.0974    256.08012    38174.007 
  863100    303.89585   -1539.0136     476.2659    298.75361    217.22345    38174.007 
  863200    294.87334   -1566.9531    459.91561    214.04146    100.10084    38174.007 
  863300    296.65116    -1539.981    460.55847    249.62139   -95.261064    38174.007 
  863400    304.03296   -1565.4768    481.14868    277.78743   -373.76857    38174.007 
  863500     294.8138   -1592.0497    469.56578    198.32834   -589.74315    38174.007 
  863600    298.07336   -1586.2184    466.93753    216.13475    107.37922    38174.007 
  863700    288.31142    -1607.832    462.83783    146.68643    78.170583    38174.007 
  863800     308.8377   -1583.6826    467.48548    267.44445    316.62027    38174.007 
  863900    266.21377   -1553.3664    509.44655    148.75975   -172.11274    38174.007 
  864000    291.33239   -1585.1742    482.76611    202.80689    792.59545    38174.007 
  864100    308.36142   -1631.5751    453.12156    203.05421   -158.75208    38174.007 
  864200    305.12921   -1602.1056     465.2297    230.15105   -116.68203    38174.007 
  864300    304.99518   -1636.3309    456.14745      186.243    335.56493    38174.007 
  864400    313.55764   -1567.1742     470.8606    308.47399     399.0964    38174.007 
  864500    307.75207   -1562.4482    466.43552    282.76506   -316.33174    38174.007 
  864600    291.96009   -1538.4803    461.83259    231.37951   -343.51643    38174.007 
  864700    294.39514    -1558.993    490.01963    249.96322   -291.27033    38174.007 
  864800    291.38648   -1531.9997    475.33896     248.7966   -523.91982    38174.007 
  864900    299.44803   -1530.4384    479.71718    290.85309   -512.67796    38174.007 
  865000     294.3575   -1544.3637    482.82359    257.22782   -430.97819    38174.007 
  865100    291.29858   -1571.0566    475.65354    209.66043   -134.57997    38174.007 
  865200    293.48827   -1565.4233    458.51381    207.96419    45.806101    38174.007 
  865300    308.39038   -1593.7241    443.77897    231.69235    199.99465    38174.007 
  865400    290.21357   -1574.3128    495.77602    221.66573    349.20341    38174.007 
  865500     303.8449   -1581.4936    474.36489    254.14427    89.670265    38174.007 
  865600    305.46483   -1585.3537     471.1753    254.35219    582.38269    38174.007 
  865700    303.95417   -1629.2971    478.88663    211.35206    -115.7386    38174.007 
  865800    295.56441   -1578.7521    487.03614    232.45913    11.315211    38174.007 
  865900     300.6531   -1596.0792    443.93782    194.83186    -205.4449    38174.007 
  866000    294.43392   -1598.8922    473.61028    193.82843    61.997684    38174.007 
  866100    310.33546   -1583.7431    473.64491    280.25358    47.299186    38174.007 
  866200    306.59849   -1579.3313    485.35708    279.63529    340.59814    38174.007 
  866300    293.78334   -1541.2768    489.34133    264.26011   -288.86924    38174.007 
  866400    291.35093   -1562.8384    483.20229    225.66192    209.75401    38174.007 
  866500    292.43211   -1550.1674    479.67182    239.64636   -263.37876    38174.007 
  866600    305.15171   -1551.5247    465.21732    280.82027   -628.50196    38174.007 
  866700    301.13679   -1566.3429    452.32454    235.12188   -357.30598    38174.007 
  866800    305.44322   -1572.9053    472.27859    267.80697    -381.0952    38174.007 
  866900    309.95908   -1589.1918    473.23999    272.71373   -776.43575    38174.007 
  867000    303.01546   -1604.9694    446.82074    199.40828   -102.44385    38174.007 
  867100    301.11617   -1609.3118    466.69747    206.43355   -491.66811    38174.007 
  867200     303.8034   -1582.2501    501.70808    280.54506   -118.43695    38174.007 
  867300    297.68057   -1575.4372    450.61827    208.83695    324.99694    38174.007 
  867400    312.30629   -1549.5254    479.29318    328.94913    342.18659    38174.007 
  867500    305.21997    -1530.501    468.23069    305.16323    276.28835    38174.007 
  867600    311.28777   -1566.8145    461.19342    288.99714    370.69158    38174.007 
  867700    299.23113   -1566.6218    468.69353    242.67432    15.040868    38174.007 
  867800    296.78331   -1533.6468    476.50671    272.49591   -79.707662    38174.007 
  867900    299.71738   -1543.3025    456.05721    255.53578     50.59824    38174.007 
  868000    289.44478   -1613.2116    466.48278    150.02936   -523.36514    38174.007 
  868100    292.87992    -1609.146    468.85708    171.85931   -458.71271    38174.007 
  868200    292.27718   -1626.8181    463.18364    145.81334    152.12808    38174.007 
  868300    304.85939   -1612.0156    461.02893    214.83141   -319.36341    38174.007 
  868400    298.01638   -1562.1563    448.60506    221.60905   -325.24675    38174.007 
  868500    298.12145    -1600.503    439.92988     175.0579    -470.7495    38174.007 
  868600    308.96055   -1580.3328    473.28028    277.13937    -595.5359    38174.007 
  868700     312.0205   -1545.5019    457.43727    309.83636   -708.97622    38174.007 
  868800    296.59432   -1532.5839    452.17967    248.38509    -654.6283    38174.007 
  868900    299.35466   -1542.1036    471.62087    270.67326    -1182.842    38174.007 
  869000    301.06677   -1540.5714    434.47402    242.72911   -694.22743    38174.007 
  869100    306.78095   -1495.2502    493.70803    372.88476   -798.62227    38174.007 
  869200    304.57056   -1472.9599    462.66907    354.23329   -137.66215    38174.007 
  869300    297.68052   -1482.5368     483.1113     334.2301   -11.205066    38174.007 
  869400    300.97744   -1474.9202    480.84166    354.34782   -246.76655    38174.007 
  869500    300.77188    -1507.407    470.67852    310.77694   -472.78441    38174.007 
  869600    293.33761   -1527.8173    483.57503    269.95645    879.28242    38174.007 
  869700    308.44591   -1525.6785    468.79328    325.00102    735.70051    38174.007 
  869800    296.72586   -1500.1445    453.59336    282.82741    329.76104    38174.007 
  869900    303.36074   -1513.3369    490.65504      336.422   -200.39503    38174.007 
  870000    302.76808   -1514.9586    497.95004     339.4401    -12.25811    38174.007 
  870100    309.99871   -1516.4682    459.40536    331.78018   -503.28936    38174.007 
  870200    306.67899   -1527.3419     478.2177    324.84601   -434.70884    38174.007 
  870300    288.45106   -1504.3318    442.68135    230.65572   -350.05143    38174.007 
  870400    302.01676   -1498.5124     495.4164    349.98665   -483.56148    38174.007 
  870500    299.42462   -1501.0113    464.59853    305.05666    1.2701426    38174.007 
  870600    298.20248   -1550.7993    456.65804    241.85285     243.6956    38174.007 
  870700     302.2276    -1557.516    491.06612    287.57732   -3.6501525    38174.007 
  870800    291.48937    -1500.194    451.60672    257.33101    164.72771    38174.007 
  870900     304.5785   -1527.9492    455.49863     292.1091     -307.059    38174.007 
  871000    303.32278   -1501.8942    459.95522    316.99483   -38.197266    38174.007 
  871100    292.43063   -1500.7814    470.89914      280.253    36.498621    38174.007 
  871200    292.61966   -1522.6295    474.62171    262.97442    547.91149    38174.007 
  871300    298.38195   -1520.8843     468.5906    284.50444    72.276895    38174.007 
  871400    309.62136   -1483.5587    530.51204    434.10584    612.46055    38174.007 
  871500    309.02307   -1488.8399    455.32629     350.9584    479.05871    38174.007 
  871600    301.99969   -1526.1738    490.55631    317.38872    252.92675    38174.007 
  871700    294.75236   -1544.6311    457.96028    233.86615    71.297493    38174.007 
  871800    303.78478   -1528.6318    487.58058    319.95248   -569.18148    38174.007 
  871900    297.11256   -1498.3449    465.28134    298.04744   -442.78303    38174.007 
  872000    291.62089   -1505.0736    515.46055    316.89443   -345.70817    38174.007 
  872100    314.80385   -1514.7068    474.87525     370.5393    522.02466    38174.007 
  872200    309.92096   -1492.3552    488.14587    384.28542    216.65942    38174.007 
  872300    299.82181   -1516.7956    505.64161    332.09492    171.24677    38174.007 
  872400    299.49578   -1519.7212    477.42418    299.49119    473.10544    38174.007 
  872500    307.53879   -1517.9195     467.5593    327.46199   -66.051776    38174.007 
  872600      297.147   -1560.2543    504.09984    275.11088    228.70368    38174.007 
  872700    291.85233   -1546.7086    489.57887    250.41467    49.217951    38174.007 
  872800    292.47579   -1537.6767    480.53519    253.19607    11.282401    38174.007 
  872900    310.87673   -1532.6032    511.77064     371.9442   -355.91712    38174.007 
  873000    296.06888   -1558.4939    480.64641    248.58769    -169.0282    38174.007 
  873100    305.17444   -1552.4243    471.22021    286.02544   -474.00647    38174.007 
  873200       299.26   -1515.9197    481.02212     305.8343   -616.26156    38174.007 
  873300    298.97028   -1529.5919     464.8717    274.71376    -893.4776    38174.007 
  873400     301.8802   -1538.3381    511.26371    325.39641   -410.16711    38174.007 
  873500    293.36951   -1491.3934    498.24773    321.19599   -2.3982039    38174.007 
  873600    307.50486   -1521.1129    479.17285    335.73019    326.27872    38174.007 
  873700    296.27374   -1553.8726    468.66247     242.1429   -205.87472    38174.007 
  873800    299.84883   -1564.2598    478.39882      257.509    180.41393    38174.007 
  873900    302.13686   -1595.4077    464.75537    222.96843    602.44263    38174.007 
  874000    300.65036   -1607.3145    481.79441    221.44086   -277.98508    38174.007 
  874100    300.04833   -1547.5583    457.69938    254.40484    169.22034    38174.007 
  874200    285.78085    -1571.876    497.65452    206.12177    260.07651    38174.007 
  874300    301.56012   -1603.1682    480.55817    228.42678    239.39694    38174.007 
  874400    304.88094   -1571.8106    471.33919     265.4432   -33.143601    38174.007 
  874500    291.23524   -1557.0373    486.85803    234.60048   -109.88561    38174.007 
  874600    294.09665   -1579.7897    483.41352    221.22319    499.57206    38174.007 
  874700    299.99363   -1532.9477    481.87023    292.94118   -62.806839    38174.007 
  874800    306.19232    -1523.929    509.26463    357.12544   -25.426948    38174.007 
  874900    298.69465   -1547.2156    484.67378    275.65722    92.234897    38174.007 
  875000    297.84279   -1510.7385    472.75091    296.39502    121.00918    38174.007 
  875100    294.74968   -1509.9328    477.72087    288.31302   -210.65065    38174.007 
  875200    289.01098   -1522.8401    478.52286    250.49742    105.54086    38174.007 
  875300     304.8058    -1540.146    476.57928    302.01133    476.67778    38174.007 
  875400    286.56115   -1561.1684    462.32203    184.99273    511.59628    38174.007 
  875500    295.30617   -1563.9025    498.48404    257.59968   -123.75126    38174.007 
  875600    310.28166   -1530.9868    456.56901    315.69292   -49.405294    38174.007 
  875700      298.453   -1561.4172    471.58847    247.28769    250.26658    38174.007 
  875800    303.85013   -1598.2956    473.41871    236.41958   -48.951933    38174.007 
  875900    311.16931    -1565.215    464.49192    293.36444   -264.21603    38174.007 
  876000    307.11326   -1557.2036    451.81691    270.52906   -162.60104    38174.007 
  876100    291.47624   -1569.0499    480.87727    217.68678    79.023437    38174.007 
  876200    303.32493   -1584.2781    462.30559    236.97093    30.525925    38174.007 
  876300    293.69246   -1546.5013    478.39023    247.67742    360.21251    38174.007 
  876400    312.29839   -1522.5436    485.55309    362.15547    424.90147    38174.007 
  876500    303.19469   -1523.1962    484.01224    319.17602    163.89308    38174.007 
  876600    306.10058   -1521.5646    490.23375    340.04797    411.77614    38174.007 
  876700    286.25728   -1531.3816    480.93239    232.02849    346.12859    38174.007 
  876800    298.18788   -1520.7857    478.15612    293.29906     -188.049    38174.007 
  876900    294.22715   -1520.1043    476.86684    274.94658   -34.490214    38174.007 
  877000    297.79346     -1560.82    480.42666    253.76822   -469.17991    38174.007 
  877100    296.72007   -1537.9455    463.12488    254.53209   -558.35825    38174.007 
  877200    297.03006   -1534.8479    467.49141     263.3849   -804.25167    38174.007 
  877300    302.89103   -1549.7208     451.0046    258.28334   -441.89606    38174.007 
  877400    292.46131   -1551.9493     481.6363    239.95971   -878.87878    38174.007 
  877500    299.89907   -1562.3674    473.51809    254.74572   -263.04655    38174.007 
  877600    291.56074   -1558.8254    503.53662    250.94926   -85.140075    38174.007 
  877700    289.27088   -1598.9232     472.9795    170.03543    179.39735    38174.007 
  877800    296.42652   -1624.2373    463.15524     166.9554    463.09746    38174.007 
  877900     309.2263   -1536.3848    495.48927    344.48702    330.31526    38174.007 
  878000    289.63188   -1525.8627    471.80012    243.53384    504.37133    38174.007 
  878100    304.72729   -1562.8323    475.28941    277.68339    848.51908    38174.007 
  878200     302.1739   -1561.5904    489.96912    282.16544    115.90786    38174.007 
  878300    289.20158   -1557.0594     471.5569    210.16615    387.67326    38174.007 
  878400    306.58418   -1536.8372    484.98566    321.69393   -43.353908    38174.007 
  878500    297.58951   -1560.7391    482.43144    254.94028   -346.25493    38174.007 
  878600    305.26958      -1563.2     466.9397    271.39546   -197.33925    38174.007 
  878700    303.80694   -1584.0199    464.77001    241.85306    312.76639    38174.007 
  878800      295.095   -1544.7929     472.7018    249.98101   -268.96947    38174.007 
  878900    301.71732   -1532.3002    492.17386    311.61479    73.427405    38174.007 
  879000     300.7504   -1546.1836    476.31157    277.53711   -341.68904    38174.007 
  879100    305.15726   -1539.4047    459.94543    287.69331   -327.14697    38174.007 
  879200    308.77167   -1577.6408    466.52914    272.23407   -293.08372    38174.007 
  879300     300.5999   -1546.5033     490.9627    291.19434    111.67586    38174.007 
  879400    304.56843   -1502.8816    473.87973    335.51267   -34.949848    38174.007 
  879500    305.79605   -1523.9316     474.5404    320.62326    327.05571    38174.007 
  879600    291.76558    -1473.715    511.18548    344.62621    227.80774    38174.007 
  879700    288.78434   -1557.6316    445.29279    181.46047    -40.89746    38174.007 
  879800    290.88681   -1569.8146    472.46344    205.86756   -480.72696    38174.007 
  879900    300.82455   -1579.4366    461.81767    230.12245   -433.40397    38174.007 
  880000    293.13608   -1567.9336    489.73947    235.10164   -314.58124    38174.007 
  880100    304.49228   -1547.0596    461.83956    278.95332   -283.90353    38174.007 
  880200    294.33131   -1497.6458    504.66041    325.66526   -83.295538    38174.007 
  880300    297.25565   -1522.1502    467.04746    276.64937   -276.21085    38174.007 
  880400    308.26755   -1521.7469    450.50578    309.84603    152.18767    38174.007 
  880500    300.04066   -1525.1364    475.04304    294.13604    143.17831    38174.007 
  880600    304.82791   -1511.8895    463.75382    317.54139    511.81257    38174.007 
  880700    303.79581   -1506.9535     509.6858    363.78534    309.02714    38174.007 
  880800     305.5917   -1547.1368    471.70229     293.6645    -275.7573    38174.007 
  880900    291.02409    -1517.401    468.62716    255.05989   -311.38487    38174.007 
  881000    307.00645   -1531.6325    467.59233    311.39712    -228.4124    38174.007 
  881100    300.12186   -1539.8813    487.29212    292.00398   -504.34975    38174.007 
  881200    296.34641    -1514.062    478.57963     292.1962    -150.4472    38174.007 
  881300    293.68346   -1485.6315    484.71141    314.82809    89.489675    38174.007 
  881400    297.14774   -1530.8524    469.11705    269.53328    11.769199    38174.007 
  881500    295.66992   -1515.7902    473.79029    282.64786   -23.636943    38174.007 
  881600     298.3801   -1544.3036    476.69926    269.18554    663.47192    38174.007 
  881700    307.93003   -1509.8315    467.99549    337.73897    158.99696    38174.007 
  881800     297.0869   -1493.6817    476.22025    313.53468   -471.05662    38174.007 
  881900    307.91001    -1513.734    453.92188    319.67319   -360.53392    38174.007 
  882000    299.52119   -1543.9614    473.06013    271.00079    -266.6609    38174.007 
  882100    304.51038   -1603.2044    464.24829    225.29838   -227.42513    38174.007 
  882200    294.36816   -1526.7161    473.14785    265.24751   -124.68523    38174.007 
  882300    298.31206   -1501.8554    482.41638    317.04599   -391.93958    38174.007 
  882400    302.70164   -1518.4297    478.02423    315.74552    398.76231    38174.007 
  882500    297.61003   -1533.0599      494.331    294.61089    648.58811    38174.007 
  882600    291.85579   -1585.0636    477.16219    199.65852    427.46145    38174.007 
  882700    299.44556    -1538.885     494.3217    296.99995    478.77409    38174.007 
  882800    298.17025   -1499.6724    444.78215    280.95938   -166.22718    38174.007 
  882900    306.24184   -1509.9494    453.11043    315.17268   -230.27463    38174.007 
  883000    289.07023   -1526.2848    473.47116    242.26653    97.443763    38174.007 
  883100        286.4    -1557.372    469.00548    194.75058    -182.9434    38174.007 
  883200    290.24356   -1543.8021     482.2243    238.75911   -106.78112    38174.007 
  883300    292.39204   -1538.0066    470.43755    242.39332   -476.26737    38174.007 
  883400    310.74943   -1506.0777    490.68601     376.8147    368.80926    38174.007 
  883500    295.55322   -1534.5077    467.19166     256.8089    421.84626    38174.007 
  883600     296.3102   -1519.3821    499.73618     307.8705    528.40923    38174.007 
  883700    301.10495   -1536.0758    474.32987    287.25171    738.14599    38174.007 
  883800    316.68759   -1567.3017    469.70832    321.21695    590.44089    38174.007 
  883900    298.87908     -1558.26    462.55858    243.32391    242.17324    38174.007 
  884000     311.5383   -1552.1369    458.75304    302.35678   -129.73718    38174.007 
  884100    295.46444   -1558.3471    475.25233    240.63244    318.51697    38174.007 
  884200    292.66186   -1487.0849    461.64933    285.73565   -109.04124    38174.007 
  884300    300.13539   -1527.7436    475.71513    292.62534   -445.77029    38174.007 
  884400    310.33471    -1537.278    457.29006    310.36039   -539.01844    38174.007 
  884500    301.29895   -1532.2309    481.47966    299.11553    189.11328    38174.007 
  884600    295.36312   -1556.7816    467.82736    234.31906    103.71146    38174.007 
  884700    305.55683   -1550.5878     468.3515     286.7064   -308.24588    38174.007 
  884800    300.64257    -1540.301    479.29804    285.92309    193.67406    38174.007 
  884900    297.66094   -1580.3471    457.76592    210.98669   -179.57915    38174.007 
  885000    297.39318   -1580.3231    479.46098     231.5062   -137.66876    38174.007 
  885100    312.62227   -1590.4164    455.41452    265.59508   -659.79403    38174.007 
  885200    307.45789   -1539.8835    465.34866    302.92494   -396.32354    38174.007 
  885300    302.77881   -1554.3997    469.74686    271.84393   -522.42798    38174.007 
  885400    300.68428   -1558.9773    465.49617    253.63181    168.22946    38174.007 
  885500    295.48149   -1550.5983    475.48676    248.69205    -267.3224    38174.007 
  885600    306.31123   -1568.8719    459.25776    262.70845    255.75529    38174.007 
  885700    303.98288   -1542.2186    472.54966    292.22224   -37.531328    38174.007 
  885800    303.74954   -1539.6259     475.1334     296.3533   -54.627847    38174.007 
  885900    295.65494   -1521.6641    486.10882    289.02549    278.91542    38174.007 
  886000    307.33748    -1523.952    477.54863    330.51691   -16.736678    38174.007 
  886100    289.97772   -1495.4254    466.85434    270.57476    107.36168    38174.007 
  886200    299.70466    -1492.293    500.47575     350.9068    149.95303    38174.007 
  886300    305.93748    -1510.981    502.46061    362.12768    765.05555    38174.007 
  886400    305.10604    -1513.046    492.22229     346.0994    671.61603    38174.007 
  886500    295.62773   -1526.1373    483.41074    281.73222    498.21643    38174.007 
  886600    306.13516    -1494.214    478.72402    356.04372    469.26569    38174.007 
  886700    306.26048   -1561.0971    455.78903    266.78708    276.18509    38174.007 
  886800    305.32699   -1523.9848    484.76532    328.69349    512.18945    38174.007 
  886900    295.23566   -1542.0715    470.18231    250.81302   -309.66828    38174.007 
  887000    301.90634   -1539.2328    468.26901    281.62413   -834.88843    38174.007 
  887100     299.0554   -1526.4661    459.79076    273.13992    88.899862    38174.007 
  887200    305.14322   -1547.1948    497.28502    317.17994    137.73035    38174.007 
  887300    304.24843   -1565.5169    453.60758    251.17155    -297.4854    38174.007 
  887400    295.89532   -1532.0072    473.16592    266.81633   -371.70779    38174.007 
  887500    296.58482   -1539.6342    485.30772     274.4202   -488.58704    38174.007 
  887600    309.95471   -1547.7929    488.05315    328.90615    1065.6207    38174.007 
  887700    300.59224   -1545.6654    486.82243     287.8576    77.329668    38174.007 
  887800    293.23969   -1546.8961    481.27474    248.13864    336.02777    38174.007 
  887900    304.16406   -1592.9971    464.30043    234.00619    674.69183    38174.007 
  888000    305.28871   -1582.2837    485.55347    271.01128     131.5974    38174.007 
  888100    290.90849   -1567.2093    471.05711    207.16371    191.25325    38174.007 
  888200    308.54208   -1552.4195    481.45751    311.35516     495.2352    38174.007 
  888300    304.21587    -1538.586    453.18823    277.53723    219.02969    38174.007 
  888400    299.19328   -1510.3872    484.46964    314.51544    580.31578    38174.007 
  888500    291.63683   -1555.9771    473.42797    224.02979    906.90309    38174.007 
  888600    285.34325   -1544.9568     459.8187    193.24458    1233.8967    38174.007 
  888700    293.32942   -1536.3161    483.98143    261.82735    754.84055    38174.007 
  888800    308.20881   -1503.8859    467.96865    344.90671   -11.075156    38174.007 
  888900    296.82094    -1508.702    466.54308    287.64562   -500.11975    38174.007 
  889000    301.12821   -1521.2258    447.16363    275.03967    251.36449    38174.007 
  889100    304.07442   -1525.4548    497.35353    334.20002   -439.08479    38174.007 
  889200    301.71506   -1497.2733    505.39669    359.85441   -410.63705    38174.007 
  889300    300.11812    -1514.922     469.5751    299.22951   -132.58645    38174.007 
  889400    298.95766   -1529.3406    469.97904     280.0159   -56.697649    38174.007 
  889500    296.99419   -1494.7652    501.96792     337.7835   -407.99775    38174.007 
  889600    298.82977   -1509.6716     464.9668    294.09961   -63.097445    38174.007 
  889700    300.83246   -1514.8253    489.75685    322.70838    420.27974    38174.007 
  889800    288.76322   -1488.0563    493.36214    299.01056    176.90001    38174.007 
  889900    304.68084   -1527.5328     491.2278    328.71313    613.93941    38174.007 
  890000    298.14049   -1531.7105    479.26014    283.26605    481.18028    38174.007 
  890100    312.47564   -1546.4709    501.38811    354.85726    350.97164    38174.007 
  890200    295.67929     -1512.82    478.49087    290.36063    -14.95761    38174.007 
  890300    306.11293   -1508.9777    471.18407     333.6405   -347.27785    38174.007 
  890400    297.31917   -1516.6535    462.11377    277.49701   -342.17235    38174.007 
  890500    297.96968   -1512.1089    484.83438    307.67657   -558.78015    38174.007 
  890600    292.48015    -1508.327    493.58194    295.61207   -482.24659    38174.007 
  890700    306.64649   -1484.3478    498.25158    387.72841   -299.65289    38174.007 
  890800    300.71611   -1454.9521    505.95126    398.25467   -372.93908    38174.007 
  890900    286.12427   -1446.9036    490.48202    325.46017   -594.21572    38174.007 
  891000      304.579   -1467.6773    477.95784     374.8424   -195.01197    38174.007 
  891100    287.37271   -1481.8827     496.3996     301.9919   -225.59786    38174.007 
  891200    294.45865   -1487.0033    475.86433    308.08218    -552.3369    38174.007 
  891300    295.96778   -1467.2228    474.95354    333.71296    -485.9103    38174.007 
  891400    302.55758   -1487.8241    467.31032    334.99179   -169.35541    38174.007 
  891500    296.51914   -1495.6998    487.13614    319.88884    -537.1078    38174.007 
  891600    305.41087   -1508.2725    477.02234    337.03869   -227.51651    38174.007 
  891700    304.46731    -1516.757    466.96164    314.26614    548.87676    38174.007 
  891800    305.60889    -1577.278    476.89669    268.79462    38.442302    38174.007 
  891900    295.38044   -1534.0891    494.18451    283.44634    501.75796    38174.007 
  892000    296.37337   -1494.6589    469.38944     302.5299    286.17832    38174.007 
  892100    297.07471   -1490.4999    483.41373     323.8553  -0.54558913    38174.007 
  892200    306.95743   -1495.9167     479.4467    358.74767     278.8292    38174.007 
  892300    294.70694   -1511.0899    479.80923    289.05282    -767.9209    38174.007 
  892400    293.33955   -1505.3535    479.70267    288.55658   -41.457195    38174.007 
  892500    290.07025    -1468.748    472.62033    303.43274   -612.59079    38174.007 
  892600    297.80205   -1489.0261    475.50077    320.67473   -963.17499    38174.007 
  892700    295.31823   -1474.9563    480.82388     328.9398   -575.94617    38174.007 
  892800    300.70277   -1483.3581    445.40546    309.24313   -1058.0093    38174.007 
  892900     311.6949   -1482.4776    465.92555    379.89022   -1038.3951    38174.007 
  893000     302.5665   -1481.0642    486.47008    360.95142   -663.66523    38174.007 
  893100    297.69762   -1469.4108     485.7971    350.11858   -604.09779    38174.007 
  893200    284.79728   -1529.2817    480.44622    227.10116   -1062.1974    38174.007 
  893300    304.02099   -1520.1972    482.25889    324.12361   -412.77036    38174.007 
  893400    297.89133   -1516.1684    462.62478    281.05643   -554.61669    38174.007 
  893500    307.65922   -1473.4175    475.71283    380.65711   -455.37704    38174.007 
  893600    294.94424   -1545.4308    477.23363     253.1995   -129.93798    38174.007 
  893700    294.01715   -1531.0427      490.936    277.13646   -66.093883    38174.007 
  893800    305.79049   -1513.4138    474.29493    330.87074   -54.665831    38174.007 
  893900     300.7839   -1534.4263    483.28847    296.42141    172.14704    38174.007 
  894000    300.97208   -1526.7418    479.10502    300.76554    247.97403    38174.007 
  894100    297.50483   -1541.3172    485.15557    276.70684    364.86937    38174.007 
  894200    299.88762   -1539.3245      478.331    282.55024    227.44069    38174.007 
  894300     298.7577   -1539.9632    466.90325    265.42161    25.429414    38174.007 
  894400    302.29468   -1528.9646     478.3824    303.74557   -138.55802    38174.007 
  894500    305.33206   -1534.4186    469.59843    303.11553    284.45814    38174.007 
  894600    297.01713   -1539.3182    480.24886    271.61422    234.91061    38174.007 
  894700     307.3534   -1565.3064    477.36277    289.04803     545.3822    38174.007 
  894800    305.68952   -1546.0006    484.14679    307.68336    218.85755    38174.007 
  894900    301.64725   -1548.5408    476.70032    279.58668   -71.603116    38174.007 
  895000      301.262   -1507.0907     448.8898    291.50031   -503.56234    38174.007 
  895100    297.43826   -1537.3921    484.25799    279.43618   -309.28931    38174.007 
  895200    299.74342   -1563.8038    466.28002    245.37394   -48.110564    38174.007 
  895300    302.43091   -1568.8846    467.59426    253.64775   -208.53921    38174.007 
  895400    306.99754   -1555.0576    461.60528    281.94505   -293.05194    38174.007 
  895500    295.24679   -1568.9706    473.61171    227.39319   -445.02093    38174.007 
  895600     308.5857   -1558.1604    465.82778    290.17989    425.94379    38174.007 
  895700     300.9841   -1576.7788    458.32341    230.00075    78.240016    38174.007 
  895800    286.12068   -1517.0679    471.37724    236.17504    492.35493    38174.007 
  895900    316.80762   -1508.7263    503.90446    414.52613    263.93805    38174.007 
  896000    291.62155   -1518.0519     476.1497    264.60824    606.29997    38174.007 
  896100    299.66335   -1525.3072    481.31854    298.55031    660.69629    38174.007 
  896200    293.35994   -1571.9002    457.17693    199.57543   -325.55061    38174.007 
  896300    316.12126   -1558.5748    468.58075    326.27896   -334.31458    38174.007 
  896400    294.15283   -1520.1538      471.953    269.65021   -717.70761    38174.007 
  896500    291.47987   -1536.8935    470.25579    239.23797   -106.27068    38174.007 
  896600      304.787   -1560.9396    441.15642    245.71061   -354.05684    38174.007 
  896700    319.23516   -1530.4844     465.8083    365.54768   -592.91802    38174.007 
  896800     293.9674   -1573.8208    454.60335    197.80278   -290.60212    38174.007 
  896900    302.85306   -1513.6829    482.91986    326.06635    112.79369    38174.007 
  897000    311.13873   -1546.6279    474.30148    321.62413    228.80069    38174.007 
  897100    292.99476   -1549.1255    467.52458    231.06171    162.04514    38174.007 
  897200    313.95433   -1573.8521    484.03617    316.74893    682.36203    38174.007 
  897300    294.58698   -1557.5891    444.05193    206.25889    422.62289    38174.007 
  897400    300.55591   -1551.6049    474.33758     269.2705     522.8036    38174.007 
  897500    297.38591   -1539.5662    462.11129    254.88085    289.94748    38174.007 
  897600    295.07679   -1515.3454    447.47045    254.11548   -46.154939    38174.007 
  897700    295.71603   -1519.3223     494.5959    300.12799   -23.438739    38174.007 
  897800    300.50841    -1540.115    467.43408    273.64405   -245.15545    38174.007 
  897900    302.78698    -1553.648    446.37905     249.2644    82.830748    38174.007 
  898000    303.58195   -1540.7727    453.67607    272.99828   -27.276238    38174.007 
  898100    309.06324   -1545.3661    460.45972    299.74565    -223.1501    38174.007 
  898200    296.18303   -1536.7158    474.54462    264.77541   -23.502843    38174.007 
  898300      288.047   -1502.0332    484.91062    273.37337    126.88282    38174.007 
  898400    303.17131   -1542.3201     470.7995    286.73461   -113.01248    38174.007 
  898500    293.97603   -1501.9496    468.41422    283.52359   -409.29002    38174.007 
  898600    300.52978   -1518.0711    449.26614     277.6158   -108.73249    38174.007 
  898700    290.21065   -1535.4782    475.71927    240.43048   -592.22911    38174.007 
  898800    303.73059   -1541.1853    485.68406    305.25961   -160.25588    38174.007 
  898900    305.21972   -1519.4692    483.17865    331.14187   -303.65224    38174.007 
  899000    296.40013   -1502.2589    477.74218    303.40256   -695.55795    38174.007 
  899100    293.38727   -1538.1471    460.77547    237.04959   -980.34863    38174.007 
  899200    294.90037   -1551.5337    434.55107    204.21746   -953.71014    38174.007 
  899300    299.73139   -1528.2535    461.66951    276.25984   -861.30249    38174.007 
  899400    300.69427   -1555.3791    461.51202     253.2906   -1133.2887    38174.007 
  899500    301.94159   -1534.6439    475.39619    293.49815   -83.217013    38174.007 
  899600    297.48655    -1562.366    477.86739    248.28795   -496.01112    38174.007 
  899700    289.34361   -1551.6224     472.6057    217.28826   -545.67124    38174.007 
  899800    302.84885   -1555.5143    466.07203    267.36827   -300.97147    38174.007 
  899900    300.23963   -1528.9878    488.77566     304.9087    596.10613    38174.007 
  900000    298.46103   -1528.7016    443.07877     251.5296    290.00767    38174.007 
  900100    301.38076   -1515.6272    461.08683    295.69292    176.52365    38174.007 
  900200    296.70536   -1502.2823    475.30098    302.30539    7.9275496    38174.007 
  900300    295.87239   -1513.8516    460.02837    271.73167   -463.04497    38174.007 
  900400    300.87502   -1497.5934    470.93783    321.31191   -147.25072    38174.007 
  900500    301.77571   -1491.2772     466.2624    326.98785     204.3801    38174.007 
  900600    298.46471   -1515.0154    470.60673    292.76027    726.83973    38174.007 
  900700    306.25682   -1541.2026    492.77983    323.65599    911.28936    38174.007 
  900800     299.1015   -1569.4544    463.11903    233.68648    676.98746    38174.007 
  900900    294.70042   -1497.5495    503.90733    326.66216     1002.518    38174.007 
  901000    308.82594   -1544.6854     474.2817    313.18518    761.03182    38174.007 
  901100    304.66965   -1496.1052    474.46294    343.32579    593.93813    38174.007 
  901200    294.19333   -1541.5414    458.49496    234.98605    533.79635    38174.007 
  901300    304.30178   -1518.4128    461.93202    306.83913    324.61101    38174.007 
  901400    307.32905   -1530.6388    494.12063    340.36444    217.05763    38174.007 
  901500    300.80745   -1534.5531     491.8349    304.94654    80.380111    38174.007 
  901600    294.88472   -1528.0168    485.60007    278.71331   -78.081886    38174.007 
  901700    300.66851   -1500.0042    494.97173    342.00979    105.69565    38174.007 
  901800     305.0594   -1553.0435    465.82996    279.50059    345.21355    38174.007 
  901900    289.99277   -1553.9267    466.92877    212.21539    715.87707    38174.007 
  902000    287.84594   -1536.9792    466.95224    219.56819    91.733611    38174.007 
  902100    303.45142   -1518.3511    471.59892    312.75794    584.04068    38174.007 
  902200    306.11814   -1556.5715    465.53064    280.41666    365.02284    38174.007 
  902300    300.39958   -1569.2349     491.1297     267.7322    733.30403    38174.007 
  902400    304.03744   -1569.6947    491.63855    284.07943    681.93149    38174.007 
  902500    293.83206   -1532.2747    486.86582    271.00503    377.05136    38174.007 
  902600    295.55107   -1524.2746    479.92327    279.76395    523.62077    38174.007 
  902700    302.44579    -1529.885    460.04756    285.16736    377.41689    38174.007 
  902800    302.26069   -1500.9516    456.93974    310.16364   -199.97977    38174.007 
  902900    300.24607   -1471.0301    469.23921    343.35879   -391.05446    38174.007 
  903000    300.03919   -1496.1742    513.24515    361.29378    80.249823    38174.007 
  903100    297.08952   -1469.5879    460.17044    321.59036    206.67935    38174.007 
  903200    299.88156    -1476.116     500.4592     367.8598   -427.28829    38174.007 
  903300    291.73054   -1506.1539    459.96699    260.81184   -758.66605    38174.007 
  903400    296.51682   -1462.8239     485.8812    351.49933    142.26282    38174.007 
  903500    294.94539    -1473.445    512.13217    360.08897   -32.338597    38174.007 
  903600     302.9191   -1462.9102    470.03523    364.25032    480.86244    38174.007 
  903700    311.04848   -1461.8929    492.93637    424.58968    305.31669    38174.007 
  903800    310.69848   -1460.5859    494.47456     425.8668    711.10587    38174.007 
  903900    296.90457   -1448.7583    500.64088    382.06179    632.13157    38174.007 
  904000    302.06484    -1517.326    470.40527    306.37731    994.86751    38174.007 
  904100    301.96786   -1512.8695    458.02774    298.02182    625.84772    38174.007 
  904200    299.45674   -1517.1162     502.6313    327.12844    518.91236    38174.007 
  904300    307.22472   -1472.8915    468.13855    371.66225   -13.130427    38174.007 
  904400    301.98042    -1476.672    475.97227    352.22005    -72.87717    38174.007 
  904500    304.20621   -1480.8757    470.00546    352.02149   -540.80018    38174.007 
  904600     306.5204   -1479.7114    456.82844    350.37674   -134.34481    38174.007 
  904700     310.1549    -1511.719    446.87151    324.69536   -305.95613    38174.007 
  904800    291.50868   -1491.6827    469.85487    284.17701   -592.68088    38174.007 
  904900    303.08336   -1532.9412    488.75031    313.67036   -292.98232    38174.007 
  905000    299.36332   -1491.3721    486.75238    336.57515   -368.21082    38174.007 
  905100    304.04102    -1462.596     467.8336     367.3892   -409.95275    38174.007 
  905200    292.10205   -1488.7841    465.72476    285.60384    3.0877053    38174.007 
  905300    295.81506   -1523.6281    490.56082    292.23082    203.92299    38174.007 
  905400    302.87564   -1476.0647    493.49795     374.3638   -30.380401    38174.007 
  905500    295.96961   -1489.3681    467.90257    304.52491    271.68446    38174.007 
  905600     301.6366   -1517.8523    468.69139     302.2186     55.27186    38174.007 
  905700    296.49059   -1527.5168    446.61388    247.42166   -364.37463    38174.007 
  905800    311.36828    -1493.092    465.44172    367.32869    293.89494    38174.007 
  905900    299.61931    -1515.944    474.34897    300.74662    285.98689    38174.007 
  906000    306.24526    -1531.741    477.42797    317.71401    457.55762    38174.007 
  906100    304.54501   -1486.6258    472.45434    350.23809    411.49451    38174.007 
  906200    289.83111   -1537.5958    475.85232    236.74556    272.74713    38174.007 
  906300     308.8618   -1483.9877    459.22974    358.99159    511.72763    38174.007 
  906400     304.6581   -1481.1295    473.88095    357.66778   -473.88608    38174.007 
  906500     293.6975   -1479.0851    456.19185    292.91785    207.08526    38174.007 
  906600    303.11911   -1529.1831    467.84936    296.68761    -258.9784    38174.007 
  906700    300.47666   -1498.0583    459.51419    307.63865    52.886724    38174.007 
  906800    302.49926   -1492.2455    472.10163    335.10053   -113.51539    38174.007 
  906900    293.39995    -1516.711    470.79683    268.56382   -130.08029    38174.007 
  907000     308.8031   -1534.7711    467.54927    316.26465    320.74799    38174.007 
  907100    302.13714   -1538.1413    474.07544     289.5561    316.18159    38174.007 
  907200    307.40584   -1551.3956      442.635    268.46599    695.88969    38174.007 
  907300    306.08402   -1553.7534    468.29402    285.84524    537.41381    38174.007 
  907400    300.47245   -1529.2662    457.22465    274.12239    296.14987    38174.007 
  907500    309.29901   -1499.6356    461.68087    347.75356    737.42219    38174.007 
  907600    302.96705    -1543.294     485.3461    299.39214      547.369    38174.007 
  907700    300.55694   -1558.6237    450.23057    238.14925    211.66078    38174.007 
  907800    304.39907   -1527.9349    434.32554    270.14638    243.92847    38174.007 
  907900    289.48021   -1530.4391    445.85462    212.33246    226.64018    38174.007 
  908000    306.39864   -1541.9365    443.65005    274.42777   -114.35596    38174.007 
  908100    310.16728   -1556.8733    474.82982    307.55481    252.84309    38174.007 
  908200    301.96374   -1572.0658    473.42733    254.20659    204.63785    38174.007 
  908300     296.8282   -1519.0514     440.8711    251.65676   -80.646879    38174.007 
  908400    300.83639   -1530.9445    447.84637     264.6963   -833.80763    38174.007 
  908500    294.85399   -1484.3246    477.37613    314.04383   -370.22526    38174.007 
  908600    296.38289   -1510.4413    446.49299    263.89375   -122.73335    38174.007 
  908700    291.41965   -1481.4504     475.6141    299.76966   -100.54407    38174.007 
  908800    298.16248   -1469.0106    489.45993    356.26417   -319.14853    38174.007 
  908900    300.60456   -1465.8609    457.76006    338.65492   -191.21977    38174.007 
  909000    305.38466   -1462.9539    509.31379    414.53129   -77.008651    38174.007 
  909100    310.73826   -1518.3931      460.333     334.0963    125.43616    38174.007 
  909200    306.55306   -1449.6821    472.53923    396.26307    518.64914    38174.007 
  909300    303.46494   -1482.9021    487.46369    364.13231    859.13689    38174.007 
  909400    306.25289   -1503.8146    464.61949    332.86609   -329.40672    38174.007 
  909500    304.98479   -1490.6328    461.54898    337.29612   -290.88894    38174.007 
  909600    294.45071   -1509.3557    456.44943    266.27931   -566.51906    38174.007 
  909700     294.5706   -1532.9057    459.74058    246.55761   -1189.2654    38174.007 
  909800    298.33564   -1514.4832    449.12558    271.23307   -1080.0082    38174.007 
  909900    300.74996   -1497.7649    468.78935    318.43161   -639.91927    38174.007 
  910000    292.10841   -1481.1296    468.91231    296.47438   -394.67387    38174.007 
  910100    315.69268   -1484.8285    453.72963    383.25407   -289.98405    38174.007 
  910200    304.67938   -1522.7931    488.00752      330.226    255.93797    38174.007 
  910300    292.96354   -1487.4192    517.04498    342.14853    215.94034    38174.007 
  910400    295.74729   -1521.8535    475.90767    279.04854    690.04316    38174.007 
  910500    289.04074   -1518.0744    492.76697    269.64062    751.73085    38174.007 
  910600    289.00581   -1475.2772    481.94614     301.4605   -54.693319    38174.007 
  910700    299.62626   -1429.5464       494.71    407.53645   -281.41979    38174.007 
  910800    297.08997   -1467.6644    470.74027    334.08576   -288.37471    38174.007 
  910900    294.94521   -1476.6295     473.7449    318.51645   -226.79046    38174.007 
  911000     303.0607   -1487.2973    503.60364    374.06595   -112.31348    38174.007 
  911100    297.99924   -1466.4347    465.42921    334.07803   -401.02267    38174.007 
  911200    295.92351   -1552.7062    471.12667    244.20439   -234.89938    38174.007 
  911300    293.37238   -1471.7878    476.64827    319.21495   -182.26382    38174.007 
  911400     296.9846   -1484.1564    491.59945    337.98082    28.408138    38174.007 
  911500    300.39598   -1515.8523    488.04023     318.0092   -188.49646    38174.007 
  911600    297.70925   -1529.0632    431.97863    236.69981   -644.98732    38174.007 
  911700    294.46878   -1510.6153    487.22098    295.87223   -15.078433    38174.007 
  911800    299.91779   -1538.7338     427.9233     232.8684   -325.19518    38174.007 
  911900     297.7406   -1545.9137     489.0002    277.01131   -335.22962    38174.007 
  912000    300.17765   -1500.6731    481.67779    325.84786   -81.510736    38174.007 
  912100    296.84068   -1523.1133    472.37697    279.15668    155.89644    38174.007 
  912200    293.95981   -1488.5274     468.3283    296.78712   -519.91802    38174.007 
  912300     289.6805   -1452.9385     474.0332    318.90896   -465.50696    38174.007 
  912400    297.40045   -1472.9787     495.9829    355.40508   -462.63695    38174.007 
  912500    289.81102   -1482.7947    498.58694    314.19123   -172.71588    38174.007 
  912600      290.854   -1456.8993    481.88588    328.05832    9.3839387    38174.007 
  912700      304.346   -1492.0153    475.05631    346.55899   -226.37508    38174.007 
  912800    297.93543   -1491.3335    505.41807    348.88226    391.24797    38174.007 
  912900      293.904   -1510.0206    462.05871    268.77429    213.00364    38174.007 
  913000    301.51485   -1494.4954    507.96385    364.30246    1014.2238    38174.007 
  913100     295.1284   -1485.9643    483.14253    319.39998    406.51187    38174.007 
  913200    301.87465   -1496.0062    480.66161    337.10136     541.1365    38174.007 
  913300    308.30873   -1474.9994    462.30258    368.57484    361.10489    38174.007 
  913400    298.13664   -1505.1384     491.4679    322.02866   -397.17516    38174.007 
  913500    306.22586   -1511.3143    494.67662    355.30245     94.76895    38174.007 
  913600    306.42073   -1509.8501    483.54739    346.51048   -213.19579    38174.007 
  913700     293.2413   -1507.8556    470.04631    275.95796     268.2664    38174.007 
  913800    295.37818   -1499.6955    492.72541    316.37071    173.30443    38174.007 
  913900    298.94584   -1500.4274    495.23088    334.12792   -48.957733    38174.007 
  914000    287.83352   -1571.7807    477.26264    195.02144    3.7316268    38174.007 
  914100    297.93328   -1545.7436    478.18277    267.22722   -457.86048    38174.007 
  914200    294.77584   -1493.9593    440.82934    267.51217    -365.7191    38174.007 
  914300    312.76525   -1526.4282     492.0072     366.8166   -634.00588    38174.007 
  914400    302.42277   -1553.8607    466.08549    267.12644   -902.95729    38174.007 
  914500    305.16856   -1533.1314    470.32556    304.39741   -357.21135    38174.007 
  914600    296.30804   -1530.1602    472.39375     269.7402   -641.10865    38174.007 
  914700    304.79454    -1537.102    464.68533    293.11086   -493.57533    38174.007 
  914800    297.11096    -1524.519    498.76966    305.35452   -384.28076    38174.007 
  914900    289.87853   -1514.8638    469.44925    253.28691    468.65008    38174.007 
  915000    299.13555    -1555.874    483.49946    267.79987    395.46561    38174.007 
  915100    300.69819   -1547.2272    477.26444    277.21246    463.88476    38174.007 
  915200    298.10046   -1548.7939    480.88621    267.62936     783.5305    38174.007 
  915300     296.7211   -1569.9607    485.85691    245.25347     191.5605    38174.007 
  915400    300.10548   -1567.4033     483.8916    261.00813   -192.95992    38174.007 
  915500    290.29845   -1561.2141    461.71976    201.08842   -407.84839    38174.007 
  915600    300.90674   -1536.9923    481.77053    292.88777   -593.33842    38174.007 
  915700    307.39858   -1573.5848    459.18429    262.79358   -395.15308    38174.007 
  915800    298.53464   -1544.9993     486.1657    278.64862   -158.21413    38174.007 
  915900     310.6992   -1602.1093    475.24075    265.11284   -111.04607    38174.007 
  916000    296.97288    -1590.705    472.82978       212.61   -52.968139    38174.007 
  916100    294.76115   -1553.8561    485.59261    252.31295   -37.908752    38174.007 
  916200    307.55644   -1517.2724    473.41803    334.04692   -62.517241    38174.007 
  916300    304.78833   -1558.0862    462.85086    270.26443   -28.363948    38174.007 
  916400    298.41074   -1531.9378    498.13041    303.11968   -2.9074796    38174.007 
  916500    305.72076   -1512.4636    458.30042    315.51402    179.69577    38174.007 
  916600    295.74084   -1566.2816    496.10788    254.79184    451.58524    38174.007 
  916700    298.46425   -1523.6769    466.96938     280.4593    515.92373    38174.007 
  916800    299.20381   -1530.4692    465.32405    275.33509    1054.6114    38174.007 
  916900     302.6195   -1526.0623      495.313    325.03373    663.77227    38174.007 
  917000     308.6428   -1568.9606    468.12408     281.9318    810.04912    38174.007 
  917100    308.52578   -1541.8155    483.97252    324.40113   -523.18185    38174.007 
  917200    303.36908   -1548.7769    478.43869    288.80307    244.11404    38174.007 
  917300    297.64227   -1560.5687    457.44851    230.36409    253.04328    38174.007 
  917400    304.93126   -1556.1902    479.29696    289.24684    351.10809    38174.007 
  917500    299.20978   -1572.4549    482.57025    250.62226    226.02095    38174.007 
  917600     313.8641   -1578.6123    465.42773    292.97605    755.88784    38174.007 
  917700    298.42904   -1581.8897    476.23606    231.35549    505.15925    38174.007 
  917800    314.14217   -1571.0699    457.48724    293.82373    337.74308    38174.007 
  917900    305.29246   -1522.0405    468.29365    314.01142   -77.904244    38174.007 
  918000     305.0961   -1504.7008    495.16853    357.34634     203.8037    38174.007 
  918100    295.74756    -1501.798    467.89769    291.09538    84.377589    38174.007 
  918200    303.30637     -1551.23    475.48081    283.11111    267.56384    38174.007 
  918300     303.7147   -1548.0649    470.55669    283.18146   -411.38667    38174.007 
  918400    303.84533   -1579.5724    485.04372    266.74627   -479.88613    38174.007 
  918500    304.07329   -1586.5342     469.8844    245.64645   -374.58524    38174.007 
  918600    301.99703   -1489.3684    488.87872    352.50462   -409.68384    38174.007 
  918700    288.98087   -1526.9248    489.07208     256.8271   -430.61177    38174.007 
  918800     304.6328   -1502.1812     468.7129     331.3346   -58.936095    38174.007 
  918900    307.43257   -1522.7686    470.02403    324.60177    86.433003    38174.007 
  919000    294.97477   -1513.1969     491.9656    300.30216    -280.0394    38174.007 
  919100    298.70803   -1511.9095    470.33918    296.68873    414.70269    38174.007 
  919200    306.11221   -1510.2202    461.39704     322.6078     407.7194    38174.007 
  919300    310.00666   -1494.5383    483.47696    377.81738    643.85872    38174.007 
  919400    301.39228     -1530.96    490.32694    309.65179    347.52425    38174.007 
  919500     298.7544   -1527.8723    467.62658    278.22105    287.43117    38174.007 
  919600    307.33486   -1557.9216    453.90541    272.89239    543.85876    38174.007 
  919700    305.29377   -1575.0826    452.88764     245.5692   -241.76713    38174.007 
  919800    297.39762   -1523.7478    488.62495     297.2653   -152.02427    38174.007 
  919900    296.92578   -1547.1499    454.09254    237.21687   -274.22759    38174.007 
  920000    305.72877   -1513.7442    495.15593    351.12473   -550.50047    38174.007 
  920100     299.9057   -1568.1691     463.5247    238.98037   -14.429104    38174.007 
  920200    294.56185   -1554.8919    484.73214    249.52375   -365.16076    38174.007 
  920300    303.38038   -1542.2693    492.88111    309.80367   -548.90816    38174.007 
  920400    281.69422   -1566.2429    471.77226    167.56386   -298.79906    38174.007 
  920500    298.33937   -1599.1379    477.00702    214.47653     152.8917    38174.007 
  920600    291.18001   -1565.9454    463.83795     202.4249    216.59391    38174.007 
  920700    291.80245   -1569.6403    464.62236    202.30295    684.05682    38174.007 
  920800    300.44858   -1582.5862     468.6017    232.07243    410.71077    38174.007 
  920900    293.67934   -1567.0157    461.53821    210.25225    333.01639    38174.007 
  921000    293.72297    -1563.935    468.01494    220.00514    841.77487    38174.007 
  921100    301.38405   -1552.7857    459.81386    257.27613    355.65551    38174.007 
  921200    302.96532   -1542.5514    476.18518    290.96614    439.27609    38174.007 
  921300     291.9462   -1578.8863      451.551    180.62968    222.25598    38174.007 
  921400    308.87423   -1508.2003    486.68239    362.28723    584.60427    38174.007 
  921500     299.0373    -1493.262    464.88846    311.36072    239.31031    38174.007 
  921600    294.99038   -1494.6832     516.9739    343.89411    577.70928    38174.007 
  921700    296.01816   -1505.8465     483.7774    304.13889    200.11617    38174.007 
  921800     299.8809   -1468.4523    487.63976    362.70109   -26.189744    38174.007 
  921900    294.89542   -1524.6295     477.4662    274.01465   -262.74091    38174.007 
  922000    286.25697    -1543.615    477.72688    216.58821   -402.34536    38174.007 
  922100     302.8511   -1502.1623    487.08539    341.74373   -378.25286    38174.007 
  922200    300.93721   -1506.0883    481.39014    323.54797   -407.59187    38174.007 
  922300    303.53035   -1497.0031    470.02472    332.88538   -35.092032    38174.007 
  922400    290.20659   -1517.4102    490.89629    273.65735    363.51555    38174.007 
  922500    306.93574   -1475.9304    500.66747    399.85754    173.55557    38174.007 
  922600    293.72056   -1499.8464    452.41073    268.47873    12.995064    38174.007 
  922700    303.35399   -1485.2571    485.97263    359.78917    284.10605    38174.007 
  922800    305.56592    -1460.751    492.20015    400.43261    -51.63603    38174.007 
  922900    294.97306   -1506.8517    458.81397    273.48808   -197.76347    38174.007 
  923000    305.50453   -1565.5411    470.78657     273.9539    205.09925    38174.007 
  923100    307.60245   -1550.4701    461.77355    289.41084   -43.283314    38174.007 
  923200    304.43008    -1516.421    475.11416     322.5879   -118.63452    38174.007 
  923300    289.28491   -1552.3051    490.27947    234.01636   -184.44767    38174.007 
  923400    287.95943   -1580.7758    461.87644    171.20421   -365.65522    38174.007 
  923500    290.52122   -1517.9512    482.28569    265.91532    -730.5744    38174.007 
  923600    299.53637   -1520.6625    486.17996    307.48756   -521.38895    38174.007 
  923700    295.22525   -1558.4045    472.39308    236.64417   -470.51027    38174.007 
  923800    299.07782   -1542.9297    492.39361    289.37968   -66.392172    38174.007 
  923900    304.68316    -1514.838    471.24851    321.43903   -37.136399    38174.007 
  924000    292.69964   -1486.8235    468.49708    293.01404    526.21888    38174.007 
  924100    304.16894   -1512.7861    473.32847    323.26714    653.25786    38174.007 
  924200     294.8286   -1539.6888    489.25184    270.44158    792.90907    38174.007 
  924300    301.21645   -1511.5656    466.63726    304.56887    463.10879    38174.007 
  924400    298.06064   -1528.4737    484.47781    291.36271    431.52032    38174.007 
  924500    298.38221     -1558.43    462.49955    240.86885   -111.87241    38174.007 
  924600    294.81273   -1536.6537     478.8926    263.04639     288.9552    38174.007 
  924700    305.36133   -1535.3777    479.38488    312.07406   -390.30259    38174.007 
  924800    304.12328   -1546.5903    464.48731    280.41723   -204.49558    38174.007 
  924900    294.48702   -1515.7526    478.34846    281.94409    22.364951    38174.007 
  925000    299.63803   -1534.4517    476.31943    284.29329    417.69355    38174.007 
  925100    303.82416   -1513.9214    453.52477    300.78351    842.07779    38174.007 
  925200    290.49065   -1557.9669    453.32754     196.8045    154.40619    38174.007 
  925300    299.21437   -1550.3906    480.44935    270.58623    733.65049    38174.007 
  925400    307.12907   -1542.3277    463.70724    297.36614    65.565236    38174.007 
  925500    295.03779   -1534.0842     461.9991    249.73061   -112.08055    38174.007 
  925600    298.23524   -1519.1155    474.81422    291.83958    351.04516    38174.007 
  925700    299.10385   -1517.6795    452.07977    274.43264    429.10555    38174.007 
  925800    309.05578   -1490.2369    488.60446    382.98614    419.33306    38174.007 
  925900    298.66493   -1517.0445     462.0471    283.06851    273.70924    38174.007 
  926000     312.5337   -1503.7589    502.41078     398.8521    176.19975    38174.007 
  926100    294.23508   -1490.2394     480.7036    308.68374    235.94839    38174.007 
  926200    296.93948   -1487.1947    498.65848    341.79946    307.25944    38174.007 
  926300     308.3244   -1505.1765    487.63684     363.8022    397.93289    38174.007 
  926400    299.09813   -1523.9464    450.89713     266.9575    101.31556    38174.007 
  926500    303.59769    -1523.668    469.46701    305.96448   -539.47537    38174.007 
  926600    312.47542   -1516.5458    449.33059    332.72388   -318.66153    38174.007 
  926700     299.6633    -1523.801    495.08846    313.82626   -191.99376    38174.007 
  926800    293.96239   -1565.3537    493.57282    245.21695   -346.60562    38174.007 
  926900    301.67775   -1545.6324    474.92358    280.85498    2.4353273    38174.007 
  927000    291.83666   -1523.3962    481.07627    265.15424     -76.7874    38174.007 
  927100    296.85146   -1545.3215    461.65552    246.27537    236.12565    38174.007 
  927200    304.19408    -1525.837    467.03131    304.03171     83.27681    38174.007 
  927300    292.38151   -1519.9655    474.90252     264.8522    -363.6019    38174.007 
  927400    298.37078   -1565.2352    469.35786    240.87071     84.39188    38174.007 
  927500    302.50542    -1544.889    458.23003    268.61296   -434.81073    38174.007 
  927600    314.65109   -1595.7759    450.96483    264.87531     -233.848    38174.007 
  927700    300.52157    -1554.397     458.6167    250.60367   -298.72213    38174.007 
  927800    291.56271   -1541.7708    469.64594    234.12198    365.71577    38174.007 
  927900    304.12424   -1556.5814    469.31785    275.26095    379.00687    38174.007 
  928000     298.1164   -1569.6742    483.30855    249.24277    429.86997    38174.007 
  928100    293.38646   -1534.4253    489.62474    269.61697    218.23072    38174.007 
  928200    296.63222    -1547.202    468.44611    250.20313   -136.70246    38174.007 
  928300    293.86497    -1534.985    462.68273    244.25906   -222.05165    38174.007 
  928400    297.35361   -1569.4376     465.3167    228.07007    119.72114    38174.007 
  928500    301.42571   -1569.1379    458.97203    240.26877    205.40018    38174.007 
  928600    300.17078   -1522.2996    474.77615    297.28893    114.18881    38174.007 
  928700    303.82384   -1546.9866    467.76393    281.95595   -424.46567    38174.007 
  928800    298.79549   -1589.4459    446.85837    196.06339   -116.53454    38174.007 
  928900    302.45926    -1537.357    446.55191    264.25999   -838.32728    38174.007 
  929000    300.43173   -1559.9495    461.14018    247.17216   -402.89458    38174.007 
  929100     298.4668    -1563.648    485.26278    258.79302   -339.16875    38174.007 
  929200    300.64269    -1569.509    448.66989    226.08747   -324.06971    38174.007 
  929300      297.916   -1568.6001    466.82368    232.93422    133.58228    38174.007 
  929400    284.30741   -1569.5779      478.637    182.80105    190.20301    38174.007 
  929500    296.88487   -1575.9682    469.98557    224.10838   -138.06887    38174.007 
  929600    297.53144   -1594.7504    455.09179    193.32906   -476.20602    38174.007 
  929700    290.15274    -1588.932    475.47795    186.47591    213.09789    38174.007 
  929800    295.30466   -1575.8129    463.88632    211.08481    355.29532    38174.007 
  929900     295.6317   -1620.1879    421.50769    125.79638    27.299545    38174.007 
  930000    292.29594   -1592.5629    469.73353    186.70252   -244.26783    38174.007 
  930100    299.19839    -1526.105    483.23743    297.58836    79.753506    38174.007 
  930200    303.12263   -1561.7373    441.69362    237.99349    375.56989    38174.007 
  930300    296.73654    -1529.134    473.90986    274.20227    407.01272    38174.007 
  930400     306.5834   -1533.1273    469.20821    309.62278     37.21689    38174.007 
  930500    301.62742   -1548.6109    475.41049    278.13796    420.02553    38174.007 
  930600    295.71024   -1559.7296    462.26621     227.3651    589.28729    38174.007 
  930700    301.00198   -1565.7694     455.3917    238.15855    614.26286    38174.007 
  930800    289.57084   -1536.8395    441.19325    201.67673    426.73529    38174.007 
  930900    301.57461   -1532.4968    495.51377     314.1187    110.36101    38174.007 
  931000    302.98086   -1517.9853     503.1707    342.58732    502.02166    38174.007 
  931100    307.73412   -1536.0617    469.71763    312.35322    448.30081    38174.007 
  931200    300.01232   -1520.5935    473.81814    297.32712    534.32741    38174.007 
  931300    289.31993   -1512.1154    485.47421    269.55768    182.15349    38174.007 
  931400    304.05479   -1549.6232    448.59607     261.1862    440.72275    38174.007 
  931500    296.81613   -1519.5564     470.9927    281.21928   -170.61159    38174.007 
  931600    295.35863   -1521.9833    498.54532    299.81524    395.14119    38174.007 
  931700    298.75527   -1526.6583    493.03386    304.84623   -82.157676    38174.007 
  931800    297.98207   -1510.2999    448.21297    272.91963   -337.53599    38174.007 
  931900    298.32016   -1550.3254    480.69306    266.88899    90.901939    38174.007 
  932000    298.46488   -1547.7619    453.69626    243.10404   -83.429903    38174.007 
  932100    290.58216   -1542.6199    453.91474    213.14871   -590.05564    38174.007 
  932200    305.99886   -1518.3958    461.99688    314.52422   -616.44693    38174.007 
  932300    304.63118   -1545.8501    424.91143    243.85694   -220.91595    38174.007 
  932400    306.22023   -1538.9877     503.1541     336.0813   -230.01697    38174.007 
  932500    300.01578   -1543.4603    458.01885    258.67651   -179.99874    38174.007 
  932600    307.26533   -1515.1682    470.44777    331.87662   -339.68717    38174.007 
  932700    304.68914   -1518.3004    474.24213    320.99708   -531.93101    38174.007 
  932800    300.93468   -1532.0029     474.4152    290.64708   -418.06802    38174.007 
  932900     306.2441   -1550.6892    478.59391    299.92652   -375.08354    38174.007 
  933000    294.30818   -1522.9952    461.89272    257.44451   -419.83982    38174.007 
  933100    300.54449   -1493.1347    457.28678    310.63872    -318.8479    38174.007 
  933200    296.13019   -1542.4244    465.18576    249.47126   -73.784943    38174.007 
  933300    304.17869   -1500.3618    471.44074    333.84734   -44.827907    38174.007 
  933400    293.69089   -1539.1189    470.87221    247.53473   -370.23456    38174.007 
  933500    295.33408   -1517.4804    479.03618    284.69896   -171.46529    38174.007 
  933600    287.95145   -1525.2598    460.08527    224.89335   -224.88666    38174.007 
  933700    293.12659   -1530.2302    490.59738    273.62044   -142.94531    38174.007 
  933800    306.28733   -1516.8315    463.70634     319.0903    316.10604    38174.007 
  933900    289.25137   -1555.4655    452.09536    192.52155   -762.88233    38174.007 
  934000    308.49893   -1553.7373    477.87122    306.25775    29.057774    38174.007 
  934100    305.45999   -1567.0489    473.46535    274.92531    34.848808    38174.007 
  934200     313.2219    -1565.957    483.56234    320.88877     211.6096    38174.007 
  934300    301.93299   -1532.1902    445.72155    266.23872   -80.888949    38174.007 
  934400    305.13583   -1556.8229     497.1054    307.33907    1.3623889    38174.007 
  934500    311.28915   -1559.8391    450.81769    285.60301   -310.20833    38174.007 
  934600     308.6299   -1552.0757    469.92855    300.56344   -169.21109    38174.007 
  934700    307.70515   -1523.8694    492.16424    346.86232   -229.55763    38174.007 
  934800    301.29808   -1569.1922    473.66293     254.3336   -256.49197    38174.007 
  934900    293.79758   -1599.1428    446.64738    163.76401    102.89201    38174.007 
  935000    303.75827   -1571.1002     490.1386    279.92332    261.10232    38174.007 
  935100    303.27769   -1532.7598     471.1722    297.14422   -94.805809    38174.007 
  935200    294.48914   -1544.5914    451.59925    226.36556     170.3601    38174.007 
  935300    309.81527   -1536.7867    472.01193    323.24646    80.784913    38174.007 
  935400    299.18605   -1539.0233    484.49541    285.87272   -416.70715    38174.007 
  935500    293.47286   -1559.0177    484.65895    240.44591   -248.11351    38174.007 
  935600    299.02539   -1528.5297    458.56323     269.7144   -179.57459    38174.007 
  935700    302.78844   -1515.1046    514.27921    355.71448   -362.21883    38174.007 
  935800    298.81947   -1558.0665    467.54034    248.23211    -349.2568    38174.007 
  935900    299.05014   -1554.8726    476.18485    261.10405   -155.00836    38174.007 
  936000    303.61413   -1541.2372    494.73785    313.73979    424.09586    38174.007 
  936100    295.52003   -1522.8302    488.62337     289.7694    567.09653    38174.007 
  936200    298.16905   -1548.7652    499.40894    286.48801    389.65999    38174.007 
  936300    300.36442    -1595.429    469.99409    220.24497    226.88051    38174.007 
  936400    301.40727   -1564.0003    448.22653    234.57827    405.85602    38174.007 
  936500    299.46394   -1571.3429    459.60432    229.90699   -467.98526    38174.007 
  936600    291.94353   -1543.2546    465.91633    230.61469   -27.867975    38174.007 
  936700     302.7068   -1539.4566    484.64105    301.35852    63.497444    38174.007 
  936800    306.33354   -1533.1382    492.46381    331.74811   -329.13929    38174.007 
  936900     292.5105   -1529.4241    451.49019    232.55915    152.69467    38174.007 
  937000    302.96997   -1514.4449    478.94136    321.84965   -719.70791    38174.007 
  937100    298.94902   -1516.2428     473.2796     296.3755   -186.88586    38174.007 
  937200     294.0075   -1546.3614    464.36077    235.19926    6.7249184    38174.007 
  937300    302.06925   -1541.4454     462.2732    274.14562   -119.88357    38174.007 
  937400    306.70127   -1493.1143    472.29281    353.24858   -92.803798    38174.007 
  937500    299.81197   -1506.3654    470.26329    307.10273   -346.27466    38174.007 
  937600    303.94748   -1508.1088    458.34083    311.96458    34.295844    38174.007 
  937700    298.76635   -1549.3451    477.32694    266.50217     281.8964    38174.007 
  937800    292.29536   -1516.7149    468.90528    261.71961    58.510158    38174.007 
  937900    309.62277   -1564.0787    475.93448    299.01452    447.08472    38174.007 
  938000    306.47083   -1610.6007    475.41378     237.8507     708.7915    38174.007 
  938100     288.2735   -1567.9336    469.79742    193.37452    574.65192    38174.007 
  938200     304.5771   -1574.7963    478.40945    268.16649    599.86434    38174.007 
  938300    290.17498   -1569.3676    493.95915    224.62111    551.49016    38174.007 
  938400    293.44072   -1581.1738    464.13856    197.62542    552.79874    38174.007 
  938500    302.54702   -1526.1611    476.98014     306.2773    95.675544    38174.007 
  938600     293.3517   -1528.7379    462.82084    248.34481   -275.06382    38174.007 
  938700     300.4699   -1515.9665    495.31263    325.49862   -657.39966    38174.007 
  938800      302.418   -1498.7881    472.53516    328.62728   -1025.3457    38174.007 
  938900    294.54634   -1488.5079    452.27602    283.38216    -665.8192    38174.007 
  939000     300.4415   -1520.6844    472.20753    297.54843   -780.38803    38174.007 
  939100    289.28681   -1572.3552    465.61223    189.30744   -468.84078    38174.007 
  939200    293.43088   -1546.8166    452.52598    220.32591    72.165651    38174.007 
  939300    292.20729   -1562.7997    455.64926     201.9842    403.67546    38174.007 
  939400    297.97683    -1521.273    493.77015    307.48025    1208.4153    38174.007 
  939500    309.02096   -1545.0305     504.7131     344.1452    1367.3125    38174.007 
  939600    297.64824   -1537.3351    486.43926    282.61515     1191.786    38174.007 
  939700    306.14513   -1509.7385     454.9605    316.80047    1048.9911    38174.007 
  939800    299.15478   -1519.3384     463.6602    284.58231    279.10317    38174.007 
  939900    293.23623   -1533.3028    468.18173    248.62343    33.911599    38174.007 
  940000    293.59714   -1536.7429    463.66233    242.28087    119.97887    38174.007 
  940100    297.63255   -1577.4123    458.26517    214.29362   -155.12374    38174.007 
  940200    308.28652   -1568.0159    463.14085    276.29705   -186.37931    38174.007 
  940300    299.82536   -1521.7674    481.30457      302.802   -154.62838    38174.007 
  940400    288.35326   -1489.6751    497.18767    299.38061   -401.81399    38174.007 
  940500    296.59172   -1505.4036    456.26668    279.64073    -395.4735    38174.007 
  940600    300.96174   -1533.1999     471.3089      286.465   -935.28835    38174.007 
  940700    305.08521   -1542.7611     462.0501    286.11878   -410.54279    38174.007 
  940800    303.79452   -1510.5063    487.27486    337.81582   -703.92109    38174.007 
  940900    289.54493   -1554.5796    466.22997    208.85725    -695.2111    38174.007 
  941000    296.28873   -1526.7469    470.44787    271.12109   -228.28745    38174.007 
  941100    298.69857   -1531.5456    460.57268    267.24368   -437.00864    38174.007 
  941200    290.64746   -1499.8976    490.28012    292.52897   -85.459756    38174.007 
  941300    296.63137   -1550.6997    457.40987    235.66538   -197.77422    38174.007 
  941400    311.34782   -1538.7944    443.58795     299.6808     327.3376    38174.007 
  941500    293.82926    -1518.144    472.42507    270.68239    170.92656    38174.007 
  941600    291.75708   -1569.3346    458.94885    196.73191    268.12023    38174.007 
  941700    296.85312   -1574.6284    479.61409    234.93438    391.43982    38174.007 
  941800    311.77483   -1594.3999    470.36431    272.76475    217.45563    38174.007 
  941900    304.33072   -1559.6886    475.31113     279.0721   -142.21351    38174.007 
  942000    297.45428   -1513.0284    464.29528    283.90897   -41.601127    38174.007 
  942100    298.86586   -1526.3644    468.42077    281.02255   -21.451795    38174.007 
  942200     298.3741   -1504.2384    469.96372    302.48833   -66.830647    38174.007 
  942300     311.8421   -1493.8649    451.39188    354.62866    220.52803    38174.007 
  942400    300.33804   -1497.6073    466.68636    314.64081    171.87824    38174.007 
  942500    285.95713   -1511.2304    470.16307    240.06566   -93.535605    38174.007 
  942600    302.71195   -1520.4571    477.07236    312.81244    128.83663    38174.007 
  942700    286.77378   -1522.8456    468.12877    230.07488    372.72876    38174.007 
  942800    299.24127   -1478.3654    472.88083    335.16339     13.18852    38174.007 
  942900    300.66454   -1511.1618    473.14144    309.00408   -456.66362    38174.007 
  943000    305.08758   -1476.9928     461.6296    351.47722    -414.0905    38174.007 
  943100    296.75326   -1486.7712    478.96802    321.69821   -54.765247    38174.007 
  943200    301.90662   -1430.6448     503.3397    425.28412    293.91307    38174.007 
  943300    304.40811   -1471.8309    481.76516    373.73054    722.75825    38174.007 
  943400    298.73501   -1509.3013    472.27232    301.35097    645.20892    38174.007 
  943500    306.92932   -1488.2481    485.56343    372.40706    92.856359    38174.007 
  943600    295.64106   -1460.3277    501.19946    365.39027    179.50283    38174.007 
  943700    303.29616   -1463.5091    473.67691    368.98241    497.76752    38174.007 
  943800    295.31731   -1456.0277    487.59601    354.63635    174.86853    38174.007 
  943900    297.56953   -1485.0263     492.9996    341.13171   -97.396103    38174.007 
  944000    291.59769   -1523.5636    477.73615    260.57612   -151.61039    38174.007 
  944100    298.56556   -1522.8338    508.79373    323.58069   -483.43986    38174.007 
  944200    303.92605    -1516.135      451.876    297.37757   -425.87071    38174.007 
  944300    306.50376   -1526.5788    486.83331    333.43963    -76.13212    38174.007 
  944400    307.12747   -1526.2776    465.79051    315.49231    50.545934    38174.007 
  944500    299.22483   -1550.1877    471.04216    261.42878   -149.23588    38174.007 
  944600    297.02159   -1568.6871    467.62006    229.63643   -303.00289    38174.007 
  944700    296.91823    -1521.675     475.9649    284.53031   -241.43915    38174.007 
  944800    301.92864   -1511.2145    477.78932     319.2627   -72.214664    38174.007 
  944900    298.13041   -1505.5936     467.9552    298.03282    181.58279    38174.007 
  945000    304.77542   -1523.2671    468.67092    310.84571    477.54325    38174.007 
  945100    307.96167   -1485.7094     478.1247    372.13208    906.53544    38174.007 
  945200    309.47073   -1480.7716    490.91432    396.62038    98.123861    38174.007 
  945300    301.31971   -1489.3529     450.2768    310.88365   -123.04172    38174.007 
  945400    296.30741   -1487.3966    474.04382    314.15105   -197.08974    38174.007 
  945500    288.96164   -1491.8467    477.02323    279.77017     155.5974    38174.007 
  945600    296.61827   -1523.6924     453.7302    258.93435   -810.38551    38174.007 
  945700    295.43213   -1578.9626    450.17627    194.79613   -65.750908    38174.007 
  945800    296.57765   -1545.9564    469.80144    252.55962   -99.475995    38174.007 
  945900    299.66427   -1529.3213    473.02475    286.24659   -264.16645    38174.007 
  946000    301.08093   -1544.4718    455.38484    259.80302    231.13924    38174.007 
  946100    302.72977   -1550.0326    465.36604    271.61049    -114.0768    38174.007 
  946200    304.80534   -1551.5263    493.68369    307.73335   -44.119902    38174.007 
  946300    305.02536    -1519.342    456.48922     303.7089    56.790103    38174.007 
  946400    308.99845   -1499.9222    483.32372    367.76324    256.93912    38174.007 
  946500    309.31836   -1515.0421    451.91733    322.67016    230.58425    38174.007 
  946600    297.51222   -1511.1844    464.03789    285.75508    51.027832    38174.007 
  946700    297.13226   -1542.2303    437.22546    226.19446    105.40356    38174.007 
  946800    294.00441   -1528.6489    442.50026     231.0374   -61.630393    38174.007 
  946900    303.73165   -1526.8706    502.28596    336.18099    145.09582    38174.007 
  947000    290.31499   -1524.5178    457.00576    233.14482    267.31529    38174.007 
  947100    301.27876   -1481.1162    447.23946    315.89959    280.61427    38174.007 
  947200    294.57948    -1485.538    443.07827    277.30278   -362.08002    38174.007 
  947300    300.17581   -1462.9077    474.81084      356.738    77.986636    38174.007 
  947400    305.51832   -1485.6962    467.54045    350.61439    468.33627    38174.007 
  947500    297.69391   -1480.0402    469.30361    322.97902     123.6013    38174.007 
  947600    295.42122   -1478.7766      455.743    300.50005    -355.6813    38174.007 
  947700    297.21848   -1482.6528    448.75749    297.69029   -731.22462    38174.007 
  947800    291.20827   -1496.7278    465.02054    272.95168    -201.4805    38174.007 
  947900    297.54673   -1511.3177    472.23608    293.97459   -742.86601    38174.007 
  948000    295.39717   -1510.4929    443.62705    256.56001   -351.69036    38174.007 
  948100    289.91494   -1529.2426    479.29599    248.91801    547.69776    38174.007 
  948200    305.78684   -1534.7667    443.78789    278.99438     737.1019    38174.007 
  948300    296.15114   -1508.7737    440.60291    258.63298   -272.53159    38174.007 
  948400    295.44171   -1499.9952    470.98933     294.6195    358.94965    38174.007 
  948500    296.70641   -1561.8778    459.41143    226.82509    413.59238    38174.007 
  948600    303.76969   -1521.1474    454.07455    293.86316    847.64276    38174.007 
  948700    296.08024   -1500.0696    454.75974    281.17624     854.9203    38174.007 
  948800    300.45488   -1481.5782    473.05481    337.56186     440.4857    38174.007 
  948900    300.29944    -1520.904    475.76691    300.25168    278.75639    38174.007 
  949000    300.82578   -1497.7409    455.20902    305.21496    244.45467    38174.007 
  949100    300.28244   -1506.7259    477.24234    315.82904    479.31712    38174.007 
  949200    304.43698   -1508.1041    449.03697    304.85848   0.75705982    38174.007 
  949300    304.95571   -1481.8092    476.64017    361.08062    436.23416    38174.007 
  949400    304.24123   -1510.0435    478.69517    331.70031    33.808178    38174.007 
  949500    305.71689   -1474.5666    457.88225    352.97545    166.13307    38174.007 
  949600    297.66404   -1482.7005    448.49008     299.3714    409.36788    38174.007 
  949700    300.91945   -1498.6932    486.21825    335.69164    899.40781    38174.007 
  949800     291.0586   -1530.8917    437.57701    210.67367    677.79931    38174.007 
  949900    296.15913   -1509.2541    473.25636    290.84182     30.87514    38174.007 
  950000    304.62187    -1514.678    479.66805    329.74404   -59.909678    38174.007 
  950100    302.90876   -1511.7383    455.47483    300.81544   -212.21431    38174.007 
  950200     299.0726   -1525.6726     449.1926    263.41234   0.42223384    38174.007 
  950300    297.65581   -1503.8925     491.2265    320.87888     315.4308    38174.007 
  950400    305.14882   -1524.2173    456.04165    298.93911    464.40611    38174.007 
  950500     303.4989   -1511.8339    470.88961    318.77858    332.11526    38174.007 
  950600    303.64508   -1506.6713    467.39343    321.09998    244.67133    38174.007 
  950700    295.17925   -1452.4609    475.04936    345.03801   -345.19869    38174.007 
  950800    305.57644   -1468.1691     466.8782    367.73965   -552.03192    38174.007 
  950900    298.34831   -1487.0258    466.89996    316.52161    64.940825    38174.007 
  951000    301.07742   -1499.9826    476.78842    325.68011    98.965233    38174.007 
  951100    296.80191   -1518.9161    445.66268    256.46589    311.60173    38174.007 
  951200    299.61476   -1519.6226    489.05364    311.75233    374.40882    38174.007 
  951300    293.46877   -1532.5352    479.30063    261.55169    658.40691    38174.007 
  951400    314.67486   -1513.3542    470.86605    367.30474    377.41432    38174.007 
  951500    309.62016   -1540.8103    467.85418    314.19099   -11.312378    38174.007 
  951600    309.90045   -1548.4965    460.21953    300.12582    643.40984    38174.007 
  951700    289.52569   -1530.4781    473.33117    239.97379    457.24267    38174.007 
  951800     300.8543    -1531.196    479.82503    296.50374     247.2617    38174.007 
  951900    303.08071   -1553.1374    442.89965    247.61153   -99.810774    38174.007 
  952000    307.67816   -1529.8165    463.61283    312.24293   -423.47367    38174.007 
  952100    297.19264   -1544.1127    459.87852    247.23566   -135.12461    38174.007 
  952200    299.89549   -1517.7273    460.91249    286.76424   -385.93312    38174.007 
  952300    311.56802   -1521.8156     457.1116    331.16982    -68.77052    38174.007 
  952400    301.93811   -1560.8117    435.42175     227.3403   -193.74042    38174.007 
  952500    297.41523   -1548.8759    457.10687    240.69806   -228.06388    38174.007 
  952600     283.8977   -1513.4922    440.10312    198.51736    469.98889    38174.007 
  952700    293.05301   -1581.6964    432.46229    163.68955    33.150056    38174.007 
  952800    299.86521   -1559.7307    472.50792    256.22054    258.39384    38174.007 
  952900    304.10112   -1571.6007    455.67274    246.49295    657.64059    38174.007 
  953000    300.99811    -1592.877    462.40802    218.04998   -8.5594044    38174.007 
  953100    298.90063   -1594.8109     451.0828    195.39384    73.881847    38174.007 
  953200    298.02214   -1544.2051    460.76553     251.7466   -309.44266    38174.007 
  953300    303.67439   -1569.8421    473.54945     264.2165    -461.3043    38174.007 
  953400     296.2255   -1525.8674     425.7604    227.02987   -185.81333    38174.007 
  953500    301.19699   -1557.8319     466.6589    258.23691   -698.87596    38174.007 
  953600    297.54153   -1506.9846     442.6456     268.6939   -431.71829    38174.007 
  953700    304.55854   -1528.1487    457.42726    293.74882   -320.66526    38174.007 
  953800    303.63931   -1538.6417    459.11262    280.82284    67.335582    38174.007 
  953900    304.19131   -1547.5239    454.62956    269.93066    466.33351    38174.007 
  954000    304.70953   -1564.7471    468.41985    268.81944    55.121075    38174.007 
  954100    292.59911   -1521.1251    490.43142    280.19643    -469.3592    38174.007 
  954200    298.76912   -1513.4692    456.21221    281.27571   -223.88985    38174.007 
  954300    307.81653   -1537.4955    471.78744    313.35849    18.065643    38174.007 
  954400    305.46765   -1507.0945     478.4744    339.92308   -517.42777    38174.007 
  954500    285.27736   -1489.9437    459.83388    247.97771     -484.802    38174.007 
  954600    306.86824   -1494.9502    480.27609    360.14389    -442.0424    38174.007 
  954700    303.61115   -1494.7597    451.16672    316.63279   -167.18568    38174.007 
  954800    302.26121   -1476.1967    470.85124    348.83234   -31.772821    38174.007 
  954900    300.60306   -1491.8959    496.56813    351.42131     364.9821    38174.007 
  955000    308.64973   -1472.6188    505.55264    415.73325    298.34809    38174.007 
  955100    307.97047   -1491.6937    476.65278    364.71528    94.107155    38174.007 
  955200    293.19974   -1469.2079    478.34925     322.7224   -23.535807    38174.007 
  955300    295.31974   -1485.8762    466.55122    303.75392   -846.18563    38174.007 
  955400    289.56557   -1472.0698    470.14665    295.37616   -211.29644    38174.007 
  955500    300.21867   -1455.0318    473.87421     363.8693    378.79004    38174.007 
  955600    300.78069   -1510.9064    473.84039     310.4789    484.66412    38174.007 
  955700    300.75347   -1526.3541    474.74782    295.81658    247.95409    38174.007 
  955800    303.38554   -1534.7536    464.32888    288.79029    1008.1353    38174.007 
  955900     301.0258   -1510.7833    469.01478    306.87451    436.13616    38174.007 
  956000    303.01826   -1516.5904    491.15713    332.13621    519.30924    38174.007 
  956100    301.75925   -1552.1198      441.948     241.7572   -124.70444    38174.007 
  956200    302.61402   -1560.5027     455.3557    250.61151   -246.32667    38174.007 
  956300    306.65868     -1548.53    487.93469    313.28388    111.19916    38174.007 
  956400    298.44902   -1527.2786    464.63673    274.45676    309.97892    38174.007 
  956500    301.15984   -1574.8322    448.82138    223.23264    130.91817    38174.007 
  956600    301.18995   -1544.5951    439.26535    244.04865    545.31402    38174.007 
  956700       304.71   -1531.2851    485.63987    319.50355    581.10578    38174.007 
  956800    300.12199   -1532.1504    452.93734    265.38072    511.13711    38174.007 
  956900    300.49263    -1548.011    481.82517    280.06847    63.580874    38174.007 
  957000    289.64801   -1531.6012    473.80322    239.87075   -559.56061    38174.007 
  957100    298.96991   -1549.7328    462.26045    251.95989    80.385594    38174.007 
  957200    303.05525   -1585.0456    455.10518    227.79483   -712.78212    38174.007 
  957300    286.11682   -1548.9247    477.72635    210.65005     16.75139    38174.007 
  957400    302.35393   -1557.8032    458.04522    254.83524    68.096776    38174.007 
  957500    302.50389   -1547.1197    470.71376    278.85908    451.75271    38174.007 
  957600     301.2518   -1592.3198    459.45336    216.78911    247.35457    38174.007 
  957700    304.14977   -1561.5336    475.30707    276.41236   -187.44705    38174.007 
  957800    298.91529   -1515.4342     475.0316    298.78494   -748.70082    38174.007 
  957900     301.4918   -1574.8084    464.17106    240.09343   -280.21777    38174.007 
  958000    285.59377   -1550.9974    461.77763    190.28534   -514.52698    38174.007 
  958100    307.92635   -1558.7456    465.49435    286.30724   -539.93652    38174.007 
  958200    288.19463   -1504.0044     464.1298    251.28269   -359.63278    38174.007 
  958300    290.38824   -1520.7908    482.36951    262.56379   -808.23348    38174.007 
  958400    298.88024   -1530.7869     492.7027    300.94633   -449.76133    38174.007 
  958500    302.84598   -1543.7079    484.86974    297.95955   -149.39846    38174.007 
  958600    310.09099   -1518.6877    463.30722    333.87596   -101.25704    38174.007 
  958700    294.91249    -1514.143      468.998    276.10941    650.20344    38174.007 
  958800    304.93211   -1534.8634    486.23064    317.51108    653.60026    38174.007 
  958900    306.99698   -1499.3162     468.6449    344.72354    718.14671    38174.007 
  959000    294.55989    -1504.299    469.91408    285.28974    848.03209    38174.007 
  959100    289.97853    -1502.421     470.8783     267.6068    733.17351    38174.007 
  959200    314.41808   -1506.6304    473.28477    375.29684    403.75192    38174.007 
  959300    308.99904    -1553.855    456.57788    287.08728    432.48885    38174.007 
  959400    297.44366   -1556.1575    465.95222    242.38919    237.50915    38174.007 
  959500    304.50075   -1568.5015    464.36118    260.07098   -172.16282    38174.007 
  959600    308.08499   -1555.5828    458.40026    283.08676    67.525098    38174.007 
  959700    301.45122   -1493.2719    475.93469    333.21173    429.10689    38174.007 
  959800    302.38424     -1526.42    479.94718    308.25622   -54.983865    38174.007 
  959900    294.10492   -1523.2717     480.4009    274.76556    -637.6987    38174.007 
  960000    316.47684   -1465.5916    496.45443     448.7289   -229.32903    38174.007 
  960100    304.47184   -1478.3585    471.86888    357.59217   -731.08412    38174.007 
  960200    304.36568   -1508.4632    470.92933    326.07228   -236.47784    38174.007 
  960300    286.00398   -1484.8775    491.09594    287.56139   -248.34751    38174.007 
  960400    301.99837   -1489.2437    450.84093    314.59748   -400.74857    38174.007 
  960500    304.50533   -1478.9937    481.37449    366.61262   -572.64046    38174.007 
  960600    294.40199   -1484.3402    463.44868    298.07579   -615.11472    38174.007 
  960700    307.20904   -1486.4212     457.5129    347.43664   -654.23662    38174.007 
  960800    306.42812   -1483.2639      485.996    375.57829   -245.91562    38174.007 
  960900    316.05438   -1482.6133    485.54065    418.90078   -543.37599    38174.007 
  961000     290.6389   -1500.4968    465.90294    267.51425   -698.82056    38174.007 
  961100    300.26492    -1507.102    466.18005    304.31214   -495.40165    38174.007 
  961200    301.12117   -1537.4889    420.99799    232.57939   -713.61411    38174.007 
  961300    297.01162   -1508.4784    480.95732    303.13774    280.13053    38174.007 
  961400    303.81558   -1514.9533    461.94095    308.12926    799.23442    38174.007 
  961500    293.04527   -1492.9861    458.00132     277.9042    948.43443    38174.007 
  961600    292.45619   -1475.0098    468.18051    303.42056    261.30882    38174.007 
  961700    304.63764   -1530.4055    502.17031    336.58939    530.51058    38174.007 
  961800    293.69358   -1487.4206     460.1456    288.51851   -75.909072    38174.007 
  961900    300.26467    -1519.371    486.65908    312.52106    115.20563    38174.007 
  962000    297.63465   -1537.8471    445.87469    241.47765   -233.65411    38174.007 
  962100    298.99991   -1531.9599    470.27803    277.88483    142.50706    38174.007 
  962200    306.41402   -1512.3852    473.16363    333.56153    71.856244    38174.007 
  962300    305.13297   -1505.1531    436.29633    298.18694    160.95686    38174.007 
  962400    287.94611   -1529.5379    451.34359     211.8496   -642.95248    38174.007 
  962500    303.87553   -1494.0683    478.32781    345.66979   -687.31781    38174.007 
  962600    304.87607   -1507.4561    466.45468    324.89135   -131.24636    38174.007 
  962700    306.73759   -1490.1241    475.31611    359.42466    -154.1554    38174.007 
  962800    293.58996   -1493.2578    473.84598    295.91741    797.95048    38174.007 
  962900    306.84163   -1505.2942    474.99412    344.39876    628.54681    38174.007 
  963000    303.37584   -1488.6925    457.29858    327.77766    379.92664    38174.007 
  963100    294.72489   -1492.2109     437.3364    265.53941    277.26222    38174.007 
  963200    308.95639   -1474.8416    493.09076    402.42244    748.30327    38174.007 
  963300    295.67894   -1514.4963    463.40002    273.59188    864.62872    38174.007 
  963400    301.71675   -1531.0473    482.42001    303.11132    982.47518    38174.007 
  963500    297.95675   -1499.0691    457.49777    293.32186    423.86485    38174.007 
  963600    302.60428   -1498.8641    472.95746     329.8082    13.811219    38174.007 
  963700    302.71002   -1487.7067    439.95091    308.43283   -364.95207    38174.007 
  963800    296.00485   -1465.4281    483.33621    344.05645   -358.90329    38174.007 
  963900    303.89815   -1495.8591    473.91333    339.56576   -193.32291    38174.007 
  964000    310.32658   -1477.6713    445.73455    358.37521   -82.227419    38174.007 
  964100    297.14669   -1463.3016    494.84908    362.81149   -7.8823599    38174.007 
  964200    298.62568   -1490.7589    502.92722    350.05845   -235.46103    38174.007 
  964300    292.93293   -1508.3434    456.52147     260.5637   -143.06768    38174.007 
  964400    312.25997   -1525.6641    461.22045    334.53019   -183.39151    38174.007 
  964500    309.26255   -1498.6592    432.31152    319.19728   -117.66576    38174.007 
  964600    307.18087   -1474.9114    474.62929    375.93652    284.31723    38174.007 
  964700    307.72248   -1515.7343    483.65027     346.5612    364.28158    38174.007 
  964800    300.62315   -1514.5041    450.14992    282.48494    261.52454    38174.007 
  964900    304.33222   -1540.5718    479.71902    302.60349    384.11697    38174.007 
  965000    300.12311   -1465.7062    471.91594    350.80852    669.00869    38174.007 
  965100    297.25573   -1519.5871    465.73917    277.90453    -127.7636    38174.007 
  965200      303.899   -1511.3567    457.05085    307.20951   -207.69662    38174.007 
  965300    295.10392    -1496.516    467.03702    292.63308    376.44326    38174.007 
  965400    302.36743   -1487.7615     474.5335    341.42565    116.79008    38174.007 
  965500    297.18308   -1483.6974    485.95625    333.68583    902.84384    38174.007 
  965600    289.75746   -1504.7872    485.05746    278.42932    248.03371    38174.007 
  965700     305.7139   -1538.5634    461.04233    292.12541    335.94055    38174.007 
  965800    295.86137    -1534.359    476.14835    267.29486     259.9863    38174.007 
  965900    297.89336   -1539.2615    456.95504    252.30275    29.372782    38174.007 
  966000    297.80061   -1517.4959    464.02631    280.72409    560.79902    38174.007 
  966100    301.79769   -1562.6161    449.53132    239.01644     542.4588    38174.007 
  966200    298.15356   -1507.0469    469.61754    298.34551     1050.871    38174.007 
  966300    308.45719   -1536.2717     462.4101    308.07518   -49.789981    38174.007 
  966400     293.7989   -1487.2624      457.397    286.39996    83.193012    38174.007 
  966500    315.12014   -1516.1445    465.07546     360.7188   -329.31939    38174.007 
  966600     291.9066   -1454.5011    468.54452    321.83101   -746.23159    38174.007 
  966700    295.00531   -1493.5048    467.82319    295.98868   -553.99272    38174.007 
  966800    303.24099   -1514.5376    463.43145    307.46121   -449.81756    38174.007 
  966900    296.34789   -1527.7559    459.39344    259.32278     197.8466    38174.007 
  967000    292.55457   -1496.7246    459.40598    273.37192   -200.62813    38174.007 
  967100    291.19486   -1491.1057     466.2672    279.76037    96.510518    38174.007 
  967200    304.65461   -1473.7295    447.55755     338.7287    54.053803    38174.007 
  967300    297.94616   -1486.2921    483.12782    331.68149     94.76324    38174.007 
  967400    301.14383    -1504.979    454.29098    298.48376     248.3301    38174.007 
  967500    312.32532   -1486.5468    451.30657    364.02636   -70.242237    38174.007 
  967600    297.51693   -1535.2137    471.03178    268.74073   -41.620963    38174.007 
  967700    297.76518   -1535.5072    471.72397    270.25172    54.672944    38174.007 
  967800    304.55293   -1539.7261    451.53964    276.25863    330.49394    38174.007 
  967900    291.29129   -1513.7007    479.08366    270.41383   -183.97562    38174.007 
  968000    306.33136    -1497.655    485.12728    359.88506    250.87583    38174.007 
  968100    298.15508   -1554.0951    452.72212    234.40876     400.7292    38174.007 
  968200     286.3023   -1515.8751    477.23523    244.03954    413.50334    38174.007 
  968300    293.71605   -1487.2773    476.87015    305.48705    242.29895    38174.007 
  968400    302.70819   -1511.2803    478.15376    323.05378    394.57669    38174.007 
  968500    297.30147   -1528.9657    458.86897    261.86075     75.04399    38174.007 
  968600    296.14317   -1506.3892    459.67751    280.05637    363.40272    38174.007 
  968700    302.88606   -1471.6266    484.88309    370.23375    14.434986    38174.007 
  968800     304.1842   -1478.3673    441.20168    325.62753   -192.13878    38174.007 
  968900    309.69044   -1517.7667    484.64143    354.33672    247.16888    38174.007 
  969000    293.81403   -1503.9953    469.94861    282.28644    79.123836    38174.007 
  969100    295.99553   -1483.7198    442.34277    284.72954    214.29765    38174.007 
  969200    309.81483   -1520.3638    453.26336    320.91875   -129.63339    38174.007 
  969300    309.41074   -1508.3945    477.70267    355.51703    76.295908    38174.007 
  969400    294.35777   -1537.9544     457.4745    238.28928    603.23436    38174.007 
  969500    302.15814   -1526.7388    469.09733    296.07459    599.76352    38174.007 
  969600    309.64853   -1501.4581    470.66748     356.4836    47.312914    38174.007 
  969700     301.7483   -1509.3447    442.86015    285.39535    774.33521    38174.007 
  969800    294.40748   -1495.1419    461.79021     285.6402    505.68694    38174.007 
  969900    301.10397   -1460.3438     477.9117    366.56113    917.74676    38174.007 
  970000    300.25815   -1511.4652    464.65271     298.3913    326.17337    38174.007 
  970100    306.14773   -1480.9056    440.19066    330.87512    174.52194    38174.007 
  970200    310.59465   -1488.8011    479.67825    382.39013    857.25782    38174.007 
  970300    299.64042   -1480.0251    488.93351    351.34466    862.10728    38174.007 
  970400    303.14296    -1456.157    476.72443    378.69564    849.37209    38174.007 
  970500    296.76821   -1454.5455    455.22699     330.2498   -60.003289    38174.007 
  970600    300.57356   -1448.6337    477.24618    375.22938   -350.44592    38174.007 
  970700    301.58701   -1410.8918    447.24138    387.50683   -656.31775    38174.007 
  970800    302.45445   -1447.3747    477.53573    385.20464    -961.6003    38174.007 
  970900    310.39172   -1469.2307    473.29681     394.6699   -496.87056    38174.007 
  971000    290.74818   -1458.6389    484.13003    328.08877   -107.66116    38174.007 
  971100    292.53138     -1489.04    463.17241    284.71908    312.20037    38174.007 
  971200    303.80909   -1499.4816    478.21789    339.84882    894.99206    38174.007 
  971300    305.96442   -1502.6909    470.17844    338.25635    200.94368    38174.007 
  971400    309.14074   -1510.5648    485.30576    359.74015   -247.48835    38174.007 
  971500    291.03113   -1497.4473    492.53735    298.95531    644.86156    38174.007 
  971600     309.0806   -1490.8107    448.53312    342.45219   -98.721772    38174.007 
  971700    310.25519   -1453.4625     473.4432    409.97278    187.97292    38174.007 
  971800    290.41359    -1412.118    495.23206    384.21267    162.41909    38174.007 
  971900    299.41041   -1475.6205    468.19648    333.98172    417.19826    38174.007 
  972000    302.86624   -1461.9541    468.72204    363.65634   -232.49463    38174.007 
  972100    306.91079   -1460.8034    473.35416    387.55944     154.6724    38174.007 
  972200    297.16341   -1446.9882    500.96981    385.32054    347.21562    38174.007 
  972300    305.32474   -1440.1522     468.5556    396.30629    166.14471    38174.007 
  972400    296.06577   -1456.8838    485.60642    355.14391   -32.728912    38174.007 
  972500    300.54778   -1449.0189     475.0889    372.57135    -20.35586    38174.007 
  972600    288.12123   -1470.5374    478.00962    298.30069    9.9620828    38174.007 
  972700    309.58043   -1463.0796    454.71907    378.60855   -88.367731    38174.007 
  972800      304.361   -1419.6581    477.72419    421.65133   -481.51411    38174.007 
  972900    295.78716   -1450.9008    481.66197    355.93422   -264.11272    38174.007 
  973000    307.42896   -1470.5054    470.45783    377.28258    191.00816    38174.007 
  973100    308.51196   -1467.0567    475.32506    390.45049   -434.55914    38174.007 
  973200    286.60578   -1436.3854    485.61299    333.26665    -663.5986    38174.007 
  973300    305.63838   -1420.7147    478.46676    427.06011   -253.55138    38174.007 
  973400    304.53179   -1419.0551    467.74642     413.0417   -495.40955    38174.007 
  973500      286.524   -1496.7857    454.87988    241.76687   -687.41098    38174.007 
  973600     311.0505   -1457.5847    443.89337    379.86386    339.35979    38174.007 
  973700    297.63972    -1448.619    458.02734    342.88123   -48.773338    38174.007 
  973800    299.78579   -1465.0399    473.24652     351.2942    23.146998    38174.007 
  973900    304.38412   -1488.3532    470.47478    345.81036    433.30277    38174.007 
  974000    292.18873   -1472.7327    455.33051    291.64928    532.11249    38174.007 
  974100    295.34028   -1468.4837    460.78684    315.47412    645.33401    38174.007 
  974200    291.94743   -1450.4447    477.80779    335.33358     930.9508    38174.007 
  974300    297.63858   -1489.4141     461.2346     305.2882    578.09614    38174.007 
  974400     290.9474   -1479.8257    461.91699    285.58149   -103.21498    38174.007 
  974500    302.22565   -1461.2823    452.40351    345.13973   -25.165249    38174.007 
  974600      301.546   -1451.7372    476.00243    375.23874   -68.988561    38174.007 
  974700    295.58557   -1440.7148    474.59483    358.14993   -606.91839    38174.007 
  974800     295.8225   -1493.2891    449.53684     281.5791   -409.59961    38174.007 
  974900    303.68086   -1494.7709    487.11922    352.88639   -286.99971    38174.007 
  975000    292.83729   -1497.0367    484.11661    299.03706   -619.47583    38174.007 
  975100    296.02538   -1529.0328    455.72191    252.92944   -233.71105    38174.007 
  975200    299.13993   -1486.5971    466.15917    319.75611    5.3145355    38174.007 
  975300    295.41598   -1489.8741     479.8952    313.53119    394.44711    38174.007 
  975400     303.7138   -1493.1518       467.79    335.32386    105.34893    38174.007 
  975500    294.06072   -1523.8894    476.46566     270.0146    225.92235    38174.007 
  975600    296.76011   -1516.6093    469.56355    282.48625   -187.63426    38174.007 
  975700    294.76301   -1494.8992     459.6089    285.29439   -264.64871    38174.007 
  975800    300.16896   -1507.3667    461.12344    298.56096    500.80548    38174.007 
  975900    295.10867   -1530.1951    455.49184    247.43013    641.78652    38174.007 
  976000    297.39418   -1521.4298    468.49206    279.43501    1173.5139    38174.007 
  976100    300.48536   -1513.5467    486.84891    319.52393    612.93118    38174.007 
  976200    285.88555    -1508.187    491.76647    264.39181    187.25594    38174.007 
  976300    310.07372   -1529.3664    478.91042    338.72308    219.93289    38174.007 
  976400    298.25822   -1546.0551    459.62549    249.81422    -154.9889    38174.007 
  976500    297.71759   -1508.1692    449.57353    275.22597    -145.9163    38174.007 
  976600    303.98106   -1526.0953    483.45847    319.24616   -291.73083    38174.007 
  976700     305.5715   -1532.2738    441.39452    278.12916     459.2797    38174.007 
  976800    307.72683   -1536.2136    447.85305    290.30406   -20.355765    38174.007 
  976900    299.34902   -1530.9143    464.66178    274.87824   -119.86731    38174.007 
  977000    301.10969   -1520.3344    465.63002    294.31451    508.12465    38174.007 
  977100    293.57272   -1522.7211    491.84524    284.37612   -250.70897    38174.007 
  977200    297.64323   -1491.5682    454.23389    296.15419    62.055379    38174.007 
  977300    296.41397   -1529.9155    467.81904    265.88484   -54.295077    38174.007 
  977400    297.17708   -1554.5392    455.67635    232.53731   -699.76636    38174.007 
  977500      298.422   -1523.4262    435.63661    249.18794    169.43127    38174.007 
  977600    290.39731   -1538.8351    450.48766    212.67818   -267.92099    38174.007 
  977700    294.93795   -1551.9949    465.49358    234.86717   -211.36564    38174.007 
  977800    292.15388   -1482.4127    473.02112    299.50385   -563.02473    38174.007 
  977900    305.55311   -1493.8058    478.75726    353.87748   -589.68715    38174.007 
  978000    297.97632   -1518.0797    468.20497    285.10608   -827.89654    38174.007 
  978100    304.91517   -1523.4328    463.52855    306.16373    -692.1376    38174.007 
  978200    296.61378   -1520.2596    456.49466    265.11155   -391.78774    38174.007 
  978300    303.34583   -1529.1302    466.06855    295.97541   -924.66743    38174.007 
  978400     303.1317    -1486.695    476.63667    348.01939   -184.50163    38174.007 
  978500    300.42179   -1522.9285    470.49251    293.50098  -0.65220453    38174.007 
  978600     300.7164   -1540.3072    450.83384    257.78346    165.98882    38174.007 
  978700    307.68671   -1495.6264    472.53302    355.39151    265.53143    38174.007 
  978800    305.97276   -1565.7127    495.03054    300.12399    922.39096    38174.007 
  978900    305.66522    -1521.373    452.16808    300.22338    687.43143    38174.007 
  979000    302.11023   -1535.9519    459.84826    277.39779    518.39692    38174.007 
  979100    301.81512   -1523.4166    474.43616    303.19886    811.12136    38174.007 
  979200     300.3871   -1535.2157     448.8512    259.41704   -42.263601    38174.007 
  979300    309.30684   -1499.0389    482.27558    368.98003   -58.007167    38174.007 
  979400    293.96016   -1471.4552    481.95241    327.48502   -389.25485    38174.007 
  979500    287.92999   -1521.5133    486.31073    254.76915   -151.20964    38174.007 
  979600    294.36893   -1528.5887    482.68339    272.91388    206.14006    38174.007 
  979700    313.05531   -1496.5317    480.10342    386.10877   -190.92395    38174.007 
  979800    303.10651   -1506.5533    487.55952    338.97115   -556.92422    38174.007 
  979900     293.3211    -1487.886    480.73651    306.97519   -463.86864    38174.007 
  980000    289.84985   -1503.1861    474.07772    269.46456   -456.17949    38174.007 
  980100    309.36329    -1505.705    485.68739    365.97862    -758.1928    38174.007 
  980200    309.32758   -1516.3138    486.31759    355.84002   -434.94966    38174.007 
  980300    298.95573   -1528.1221    472.59785    283.84455     -405.831    38174.007 
  980400    306.07655   -1542.9472    453.24937    281.57334   -135.92425    38174.007 
  980500    294.21697   -1531.7085    471.15859    257.58849   -277.83927    38174.007 
  980600    300.67917   -1527.7575    476.72154    296.05407   -316.50362    38174.007 
  980700    290.88428   -1509.4871    500.46844    294.18877    17.873114    38174.007 
  980800     306.1375   -1497.6417    475.51995    349.42249     180.2384    38174.007 
  980900    289.74083   -1525.7126    489.69843    262.07036    557.45416    38174.007 
  981000    300.99382   -1542.7865    480.02216    285.73543    499.38779    38174.007 
  981100    302.01546   -1526.6528    499.96163    326.38562    840.03536    38174.007 
  981200    293.45852   -1524.5823    453.47788    243.63596    29.075416    38174.007 
  981300    306.17361    -1556.832    473.06116    287.93514    37.360849    38174.007 
  981400    307.96344   -1546.1978    467.90509    301.43204    51.131301    38174.007 
  981500    302.22678   -1521.0403    489.18035    322.16364   -278.77237    38174.007 
  981600     304.7449   -1472.8891    441.00262    333.41868   -153.33262    38174.007 
  981700    303.50998   -1551.7729    458.35742    266.35701   -504.06973    38174.007 
  981800    304.71641   -1513.5914    465.13182    316.71793   -575.23796    38174.007 
  981900    294.93431   -1514.3701    447.42121    254.40328   -365.68745    38174.007 
  982000    292.83281   -1539.6758    449.71081    221.97211   -935.32377    38174.007 
  982100    298.55447    -1499.631    459.71663    297.65669   -523.58085    38174.007 
  982200    301.72157   -1504.2862    481.13088    328.60482   -38.395823    38174.007 
  982300    304.80602   -1516.4617    470.16802    319.28534    90.525779    38174.007 
  982400    295.86641   -1549.9171    478.58621    254.19718    641.06655    38174.007 
  982500     301.3819   -1482.7673    492.06871     359.5398    464.75921    38174.007 
  982600    298.04578   -1511.2611    459.42365    283.45457    191.67334    38174.007 
  982700    311.02188   -1529.6483    455.47134    319.25003   -698.56288    38174.007 
  982800    302.62108   -1479.7259    480.45765    356.52187   -300.90527    38174.007 
  982900    300.17497   -1502.0602    462.05861    304.82961   -648.98376    38174.007 
  983000    298.47999   -1528.2381    430.94147    239.94074   -685.04061    38174.007 
  983100     299.5268   -1491.5908    502.86534    353.20177    -643.7737    38174.007 
  983200    298.38136   -1509.9869    456.52761    283.33619    7.4095933    38174.007 
  983300     304.5708   -1548.5635    471.23084    287.19252   -77.472025    38174.007 
  983400    301.75532   -1514.5581    470.66473    308.01796   -111.82551    38174.007 
  983500    297.66938   -1519.4248    460.87386    275.05479   -241.28817    38174.007 
  983600    297.65985   -1529.9134    458.89406    262.54362    82.921271    38174.007 
  983700    303.89608    -1478.621    470.33881    353.22015    28.177946    38174.007 
  983800    305.44266   -1504.7467    450.19912    313.88362    549.75789    38174.007 
  983900    289.23017   -1523.8933    488.39794    260.30136    415.71459    38174.007 
  984000    305.30313   -1481.1884    478.15974    364.77742    457.94148    38174.007 
  984100    294.02154   -1510.3393    492.35977    299.28332    510.42548    38174.007 
  984200    304.72988   -1499.1141    478.12951    344.25327    100.28136    38174.007 
  984300    303.39216   -1503.6934     475.9888    331.54011   -408.52619    38174.007 
  984400    302.39625   -1497.2135    444.49334    302.06268   -165.68124    38174.007 
  984500     295.6988   -1524.2465    493.86072    294.39142     -194.977    38174.007 
  984600    308.31978   -1491.9216    476.71837    366.11791   -491.83259    38174.007 
  984700      299.762    -1514.899    490.97274    319.05469   -208.67091    38174.007 
  984800    298.60547   -1507.7817    463.43415    293.45196    114.48849    38174.007 
  984900    305.54685   -1494.7237    478.45951    352.63384     543.6187    38174.007 
  985000    296.68293    -1520.944    496.41927    304.66148   -85.418209    38174.007 
  985100    295.24835   -1554.3396    474.91566    243.33521    591.29218    38174.007 
  985200    292.20087   -1566.1567    488.09278    231.04197    476.31792    38174.007 
  985300    303.25536   -1500.9893    477.33971    334.98219    750.83919    38174.007 
  985400    305.56311    -1515.199    453.34544    307.11732     515.8672    38174.007 
  985500    293.94905   -1484.8913    473.31621    305.36296    10.107717    38174.007 
  985600    296.68828   -1497.1941    471.64979    303.66593   -151.04875    38174.007 
  985700    301.68598   -1490.9219    451.33134    312.01009    67.603136    38174.007 
  985800    299.07337   -1480.6092    480.56347    339.85007   -176.01073    38174.007 
  985900    300.39826   -1476.3595    483.81099      353.283   -196.53989    38174.007 
  986000     299.0835   -1479.1054    489.04834    349.88412   -3.3398952    38174.007 
  986100    308.83858   -1518.1324    459.42923    324.94228    116.00885    38174.007 
  986200     297.1603    -1550.103    468.22904    249.45096    109.40514    38174.007 
  986300    305.02928   -1514.7495    462.91623    314.74598   -932.04469    38174.007 
  986400    299.29345   -1539.8264    439.82967    240.88511   -405.56323    38174.007 
  986500    314.50442   -1516.4987    497.73595    390.26664   -76.777107    38174.007 
  986600    303.73823   -1543.4367    461.19016    278.54851   -55.230315    38174.007 
  986700    301.23921   -1557.9567    472.36304    264.00543    504.60349    38174.007 
  986800    296.89164   -1551.4566    441.25889    219.92364    786.80985    38174.007 
  986900    296.87723    -1540.532    470.55107    260.07578    67.573023    38174.007 
  987000    296.63871   -1508.2529     462.4082     283.1435   -257.53435    38174.007 
  987100    306.55171   -1533.0519    449.23259    289.58059    370.20972    38174.007 
  987200    292.23185   -1533.5891     453.8104    229.46603    209.82372    38174.007 
  987300    298.80797   -1585.8521    467.28506    220.13977    330.44537    38174.007 
  987400     296.9629   -1553.2748    478.00953    255.17528    256.33951    38174.007 
  987500    299.96774   -1577.1216    458.80991    225.59103    13.090918    38174.007 
  987600    310.04802   -1520.3475    440.55091    309.26737   -203.60545    38174.007 
  987700    291.26004   -1513.5772    483.30343    274.61711   -85.273048    38174.007 
  987800    314.68829   -1531.0731    469.43166    348.21171    52.007018    38174.007 
  987900    290.16452   -1543.4519    465.51467    222.04557   -29.234419    38174.007 
  988000    293.54184   -1551.9698    482.54862    245.69248    532.77857    38174.007 
  988100    293.51791   -1551.1842    497.92562    261.74789   -344.35105    38174.007 
  988200    309.78099   -1516.6299    462.24673    333.48447     786.0817    38174.007 
  988300    300.84165   -1513.9715    492.47996    326.32641    594.23397    38174.007 
  988400     305.1501   -1510.8284    479.78293    336.07506    622.83268    38174.007 
  988500    294.87448   -1518.9538    436.72171    238.85203    329.38509    38174.007 
  988600    307.24485   -1564.5007    464.24864    276.25325    -260.2868    38174.007 
  988700    293.06929   -1554.6401    466.07136    224.42784   -63.902588    38174.007 
  988800    287.44473   -1540.3035    478.33111    225.82525   -27.098775    38174.007 
  988900    305.23213   -1493.1773    483.70871    358.01941    98.665832    38174.007 
  989000    294.30988   -1532.5315    470.52818    256.55128   -168.06044    38174.007 
  989100    307.39958    -1504.332    504.02641    376.89297   -419.63925    38174.007 
  989200    304.65175   -1479.7204     472.2708    357.43818   -1117.1357    38174.007 
  989300     304.9818   -1534.4802    470.01604    301.90235   -165.57496    38174.007 
  989400    295.37569   -1485.7597    454.97703    292.54693    172.42779    38174.007 
  989500    305.05369   -1489.5085    480.84231    358.02234    462.52299    38174.007 
  989600    301.66908   -1480.7681    489.77737    360.53424    189.12138    38174.007 
  989700    309.23876   -1501.0178    450.74237    335.16293    388.99688    38174.007 
  989800    299.22922   -1513.3139    491.19113    318.47128    571.99389    38174.007 
  989900    299.45629   -1473.1787    477.87793    346.31057   -253.40796    38174.007 
  990000    289.55446   -1472.6759    472.73668    297.31036   -550.19483    38174.007 
  990100    302.35947   -1473.5035    475.15847    356.27306   -256.44763    38174.007 
  990200    300.94872   -1528.7399    477.20971    296.76754   -114.47718    38174.007 
  990300    299.53782   -1517.6534    471.11802    295.44122    113.77315    38174.007 
  990400    300.49102   -1446.4284    516.04545    415.86411   -374.38756    38174.007 
  990500    286.89966   -1468.8216     462.7755    279.30958    288.21616    38174.007 
  990600    306.00663     -1492.57    482.39102    360.77896    185.45925    38174.007 
  990700    295.98348   -1494.9932    458.93854    289.99797     49.56488    38174.007 
  990800    294.38213   -1507.9155    485.99613    296.95891   -641.24085    38174.007 
  990900     295.9152   -1532.0501    449.18708    242.88368   -433.27483    38174.007 
  991000    311.64802   -1534.1954    458.77909    320.81588    194.75144    38174.007 
  991100    299.58705    -1544.581    482.56401    280.18021    498.39096    38174.007 
  991200    290.53937   -1551.4516    489.54364    239.75416    765.20726    38174.007 
  991300    294.27974   -1563.7085    465.74804    220.45909    379.77192    38174.007 
  991400    303.73678   -1536.4516    456.91596    281.25296    480.69643    38174.007 
  991500    298.33596   -1547.7593    488.00596    276.83873    142.85571    38174.007 
  991600    293.28024   -1536.8402    448.96338    226.06482   -364.18401    38174.007 
  991700    310.25626   -1547.4998    466.91567    309.41282    31.617674    38174.007 
  991800     305.4375   -1539.9701    458.37328    286.81132    19.118148    38174.007 
  991900    297.95296   -1538.8003    454.32541    250.40134    161.22253    38174.007 
  992000     301.5507   -1577.6268    489.08394    262.45172    81.661583    38174.007 
  992100    306.41411   -1548.4549    466.93478    291.26333     220.8267    38174.007 
  992200    295.67609   -1517.8746    462.04191    268.84277   -98.232531    38174.007 
  992300    297.36042   -1553.4757    474.46979    253.21568    584.76617    38174.007 
  992400    296.48585   -1544.5213     483.9794    267.76142    429.28204    38174.007 
  992500    294.12155   -1528.0639    464.41618    254.06313    638.42606    38174.007 
  992600    308.49525   -1530.2529    464.41547    316.26986    335.18625    38174.007 
  992700    293.83784   -1546.6223    477.07077    246.88825   -302.41752    38174.007 
  992800    301.25686   -1532.3006    449.21791    266.59546   -87.639722    38174.007 
  992900    290.29936   -1539.4673     479.5663    240.68583   -291.59206    38174.007 
  993000    299.74508   -1490.3568    471.83698     324.3854    -453.4816    38174.007 
  993100    290.76024   -1469.4244    478.92765    312.15497   -938.02267    38174.007 
  993200    287.53562   -1479.2183    461.47437    270.46095   -878.41573    38174.007 
  993300    303.51304   -1520.3429    493.04056    332.48393   -663.09517    38174.007 
  993400      304.723   -1503.9078    485.70793    347.00718   -58.736652    38174.007 
  993500    306.24683   -1500.5371    456.51073    328.00761    50.514437    38174.007 
  993600    304.41398   -1505.8235    488.79603    346.79513    233.20472    38174.007 
  993700    304.49046   -1476.2424    462.19141     350.1142   -141.82105    38174.007 
  993800    309.34905   -1510.1982    452.05841    327.79267   -155.03593    38174.007 
  993900    297.97464   -1503.7236    479.69335    310.94313   -443.73097    38174.007 
  994000    288.90271   -1508.5886    496.53327    282.27433   -656.65006    38174.007 
  994100    303.35616   -1523.9051    473.98201    309.16031     -699.986    38174.007 
  994200    298.17955   -1534.6115    445.75787    247.03779   -997.49573    38174.007 
  994300    304.58671    -1522.785    489.68724     331.4987    -580.6284    38174.007 
  994400    296.81111   -1571.9494    472.58711    230.39823   -341.25914    38174.007 
  994500    301.29622   -1509.0564    475.58871    316.38686   -167.33121    38174.007 
  994600    283.92649   -1562.7939    468.06192    177.30339    45.964315    38174.007 
  994700    301.56872   -1511.6031    461.09939    300.57166    411.64268    38174.007 
  994800      296.893   -1569.7987    472.65441    232.98312   -94.832264    38174.007 
  994900     304.3591   -1559.2798    484.18427     288.4812    690.35099    38174.007 
  995000    304.76813   -1517.5611    471.31084    319.15899    692.67622    38174.007 
  995100    295.37889   -1553.2286    449.47408     219.5894    977.64698    38174.007 
  995200    296.23917   -1552.0425    474.97756    250.13323    1236.5761    38174.007 
  995300    307.87983   -1514.9365    464.42795    328.84156   -113.69859    38174.007 
  995400    297.68328   -1541.2961    445.14272    237.51461     321.3143    38174.007 
  995500    299.19031   -1581.5054    488.18865    247.10292    330.79756    38174.007 
  995600    285.06034   -1556.3832    476.67383    197.40587    128.92896    38174.007 
  995700     308.7858   -1538.8898    480.13581    324.65506    210.21187    38174.007 
  995800    302.31408   -1502.2155    486.78457    338.98379   -48.149323    38174.007 
  995900    300.90342   -1499.9097    459.12337    307.30837   -50.188874    38174.007 
  996000    295.62148   -1514.9676    482.21373    291.67693   -102.58418    38174.007 
  996100    298.70144   -1507.6344    498.72099    329.31606   -229.73772    38174.007 
  996200    304.53752   -1536.7219     467.8782    295.53237   -91.633472    38174.007 
  996300    295.51216   -1524.6796    458.90708     258.1685   -171.26146    38174.007 
  996400    295.28746     -1531.11    448.14845    239.97272   -211.59172    38174.007 
  996500    301.85104   -1517.8458    454.61256    289.10693    263.32538    38174.007 
  996600    306.01148   -1498.3713    469.78609     342.3944    525.43863    38174.007 
  996700    296.13527   -1516.1915    476.63899    287.18017    991.93359    38174.007 
  996800    302.22476   -1490.5061    494.66378     358.1722    438.70117    38174.007 
  996900    297.17785   -1526.7026    465.24088    269.94185  -0.47062263    38174.007 
  997000    292.92712   -1505.4279    482.15077    289.08247    289.60559    38174.007 
  997100    294.31918   -1512.2419    488.58194    294.93632   -332.85444    38174.007 
  997200    304.10063   -1462.2652    474.04297    374.19646   -322.00715    38174.007 
  997300    300.41808   -1485.2851    462.32357    322.95876   -521.42933    38174.007 
  997400    292.89141   -1501.4449    462.98903    273.74375   -241.82392    38174.007 
  997500    300.72295   -1528.3102    474.77067    293.74663    102.07146    38174.007 
  997600    303.69589   -1521.6484    486.59372    325.55078    143.79659    38174.007 
  997700    303.04584   -1562.3466    485.45019    280.79672   -195.32793    38174.007 
  997800    301.48903   -1519.8079    465.68124    296.59171   -20.256625    38174.007 
  997900    294.46975    -1530.265    475.27675    264.28263   -243.17965    38174.007 
  998000    310.29941   -1507.1954     473.8121    356.80693    126.40951    38174.007 
  998100    302.06788   -1485.7045    469.40614    337.01327    -408.1498    38174.007 
  998200    299.47068    -1515.276    486.81986    313.21963   -168.12788    38174.007 
  998300    291.19963   -1518.6546    476.29193    262.25752   -54.782827    38174.007 
  998400    292.11588   -1509.0098    478.62184    278.33717    144.39646    38174.007 
  998500    292.98944   -1487.3869    489.96181    315.21374   -59.919715    38174.007 
  998600    302.51066   -1540.3772    442.78845    257.70663    359.79484    38174.007 
  998700    305.09476   -1527.6546    466.38409    305.60211    425.51026    38174.007 
  998800    304.64556   -1501.9051    475.62016     338.5751    107.97824    38174.007 
  998900    301.90766   -1465.5684    486.64742    373.67295   -185.96911    38174.007 
  999000    293.88426   -1521.0716    473.24959    268.82574   -140.29758    38174.007 
  999100     305.0057   -1496.9906    479.71917    349.20213    202.87864    38174.007 
  999200    298.40293   -1523.7148    480.45859    293.63587    748.35896    38174.007 
  999300    297.39867    -1519.533    456.91024     269.7701    38.871997    38174.007 
  999400    297.79914   -1541.6364    491.26713    283.81778   -336.92661    38174.007 
  999500    295.05767   -1513.6917    453.75908    261.97221   -82.253086    38174.007 
  999600    290.64641   -1530.4438    452.41128    224.10915   -646.88677    38174.007 
  999700    307.13145   -1496.9287     469.9654    349.03397   -329.75051    38174.007 
  999800    304.93051   -1519.4919    467.55052     314.1953   -104.83646    38174.007 
  999900     296.4436   -1578.1057    441.45233     191.4607   -404.23563    38174.007 
 1000000    299.05061   -1550.8847    453.53658    242.44572   -50.753845    38174.007 
 1000100    303.49039   -1535.2203    462.71915    287.18364    41.161885    38174.007 
 1000200    301.61367   -1582.6926    456.00899     224.5931    509.41704    38174.007 
 1000300    300.17154   -1516.1806    471.39055    300.02569    555.95498    38174.007 
 1000400    286.51691   -1496.5293    463.96038    251.07192    822.96805    38174.007 
 1000500    308.71788   -1448.3543    453.14322    387.89367    872.34894    38174.007 
 1000600    301.04696   -1488.2364    498.03538    358.53672    615.53888    38174.007 
 1000700     303.9745   -1467.3914    461.05435    355.51656    29.246006    38174.007 
 1000800    301.43803   -1446.0692     468.0573    372.47797    638.05119    38174.007 
 1000900    308.07498   -1462.1519    484.22179    402.29435    99.228533    38174.007 
 1001000    291.17878   -1461.2069    481.66667    324.98657    79.572734    38174.007 
 1001100    297.39583   -1461.1554    469.29676    340.52154    277.89634    38174.007 
 1001200    291.02358   -1449.0747    473.71497    328.47176   -292.76323    38174.007 
 1001300    302.12543   -1455.3565    516.71857     414.9316   -31.160996    38174.007 
 1001400    300.99637   -1421.5903    454.21722    381.13807    135.87564    38174.007 
 1001500    307.33066   -1451.4765    499.90105    425.31435     625.3283    38174.007 
 1001600    303.02239     -1393.58    479.60808    443.61608   -69.635359    38174.007 
 1001700    310.63534    -1459.713    492.67341    424.65565    103.39391    38174.007 
 1001800     313.0662   -1529.7323    474.51613    347.36974    331.95578    38174.007 
 1001900    297.76664   -1499.6827    484.91357    319.27234     668.6889    38174.007 
 1002000    304.31603   -1483.0511    493.55238    373.88503   -121.81325    38174.007 
 1002100     298.3171   -1488.8994    474.62521    322.23343    77.957679    38174.007 
 1002200    299.44805   -1477.0064    472.62228    337.19029   -570.70161    38174.007 
 1002300    306.34207   -1443.7668    469.64837     398.3423   -527.92453    38174.007 
 1002400    303.64402   -1499.8812    468.94243    329.43421   -736.68029    38174.007 
 1002500    307.15672    -1459.582    488.85199    405.38047   -601.87687    38174.007 
 1002600    305.44174   -1497.3448    467.70152    338.78384   -746.50697    38174.007 
 1002700    300.30384   -1506.4296     474.5072    313.48612   -201.01562    38174.007 
 1002800    309.35541   -1498.3102     462.2124    349.86319   -794.68234    38174.007 
 1002900    298.16954   -1494.7226    485.27513    326.39903   -758.88646    38174.007 
 1003000    298.55902   -1532.1955     455.9772    261.37308     -53.1641    38174.007 
 1003100    302.70829   -1500.1481    493.72988    349.76258   -473.64957    38174.007 
 1003200    300.90367   -1539.1573     463.9709    272.90945   -408.32555    38174.007 
 1003300    295.39192   -1505.7487    456.39778     274.0514   -452.63226    38174.007 
 1003400    307.16158   -1504.5328    488.56564    360.16504   -196.59845    38174.007 
 1003500    290.33608   -1478.7331    462.98686    285.00508   -110.61559    38174.007 
 1003600    305.95395   -1483.3662    464.68156    352.03722    137.55822    38174.007 
 1003700    301.83039   -1496.4642    463.61935    319.40282    25.088068    38174.007 
 1003800    298.18533   -1502.9723    469.20267    302.14765   -201.82475    38174.007 
 1003900    305.14741    -1472.813     455.1339    349.42933   -743.45754    38174.007 
 1004000    311.00276   -1501.4318    468.94711    360.85663   -193.18215    38174.007 
 1004100    296.81861   -1520.0993    455.68699    265.38185   -363.50012    38174.007 
 1004200    307.69755   -1535.8109    491.25365    333.97619   -206.46053    38174.007 
 1004300     304.5632   -1572.5922     459.3028    251.20168    360.03423    38174.007 
 1004400    311.44541   -1527.1079     470.7903    339.00696    411.53812    38174.007 
 1004500    305.15381   -1487.3924    499.02342    378.76812    88.766124    38174.007 
 1004600    307.97641   -1515.2651     461.3427    325.86044     336.6442    38174.007 
 1004700     300.6203   -1548.0168    482.90493     281.7144    195.49776    38174.007 
 1004800    296.13224   -1555.1442    477.48416    249.05903    85.642025    38174.007 
 1004900    301.19726   -1480.9837    443.14215    311.56963    123.37163    38174.007 
 1005000    305.07283   -1540.4855    467.73834    294.02721    47.873712    38174.007 
 1005073    291.39773   -1518.2062    473.45047    260.75199   -690.60719    38174.007 
Loop time of 605.045 on 32 procs for 1000000 steps with 1504 atoms

Performance: 142.799 ns/day, 0.168 hours/ns, 1652.770 timesteps/s
100.0% CPU use with 32 MPI tasks x no OpenMP threads

MPI task timing breakdown:
Section |  min time  |  avg time  |  max time  |%varavg| %total
---------------------------------------------------------------
Pair    | 235.02     | 270.34     | 299.04     | 101.4 | 44.68
Bond    | 1.3318     | 1.4816     | 1.5877     |   5.4 |  0.24
Neigh   | 39.191     | 39.278     | 39.35      |   1.0 |  6.49
Comm    | 253.1      | 281.76     | 316.98     |  99.2 | 46.57
Output  | 0.39016    | 0.40828    | 0.83308    |  11.9 |  0.07
Modify  | 8.4997     | 8.6932     | 9.0097     |   4.8 |  1.44
Other   |            | 3.079      |            |       |  0.51

Nlocal:        47.0000 ave          81 max          21 min
Histogram: 5 3 3 5 1 3 6 2 3 1
Nghost:        1935.72 ave        2054 max        1826 min
Histogram: 6 5 3 2 0 0 5 4 3 4
Neighs:        5180.09 ave       10441 max        1662 min
Histogram: 7 4 2 3 4 3 4 2 2 1

Total # of neighbors = 165763
Ave neighs/atom = 110.21476
Ave special neighs/atom = 2.0026596
Neighbor list builds = 49720
Dangerous builds = 0

# Output the system volume
variable v equal vol
print 'The system volume is $v'
The system volume is 38174.0071902804

# Outputs
variable A equal xhi-xlo
variable B equal yhi-ylo
variable C equal zhi-zlo
variable D equal xy
variable E equal xz
variable F equal yz
print 'Lattice vectors'
Lattice vectors
print '$A 0 0'
33.6709924202134 0 0
print '$D $B 0'
0 33.6709924202134 0
print '$E $F $C'
0 0 33.6709924202134
Total wall time: 0:10:09
