LAMMPS (29 Sep 2021 - Update 1)
# Test LAMMPS input file for single DeFDe

# Initialize simulation

clear

units real
atom_style full
boundary p p p
dielectric 1
special_bonds dreiding

bond_style harmonic
angle_style harmonic
dihedral_style harmonic
improper_style umbrella
pair_style hybrid/overlay hbond/dreiding/lj 4 9.0 11.0 90 lj/cut 8.50000

# Read data file
read_data frag5.dat
Reading data file ...
  triclinic box = (0.0000000 0.0000000 0.0000000) to (15.000000 15.000000 15.000000) with tilt (0.0000000 0.0000000 0.0000000)
  2 by 4 by 4 MPI processor grid
  reading atoms ...
  1516 atoms
  scanning bonds ...
  4 = max bonds/atom
  scanning angles ...
  6 = max angles/atom
  scanning dihedrals ...
  12 = max dihedrals/atom
  scanning impropers ...
  1 = max impropers/atom
  reading bonds ...
  1017 bonds
  reading angles ...
  529 angles
  reading dihedrals ...
  40 dihedrals
  reading impropers ...
  5 impropers
Finding 1-2 1-3 1-4 neighbors ...
  special bond factors lj:    0        0        1       
  special bond factors coul:  0        0        1       
     4 = max # of 1-2 neighbors
     6 = max # of 1-3 neighbors
     9 = max # of special neighbors
  special bonds CPU = 0.002 seconds
  read_data CPU = 0.018 seconds

# Dreiding potential information

bond_coeff 1 350 1.73
bond_coeff 2 350 1.8
bond_coeff 3 350 1.43
bond_coeff 4 350 1.53
bond_coeff 5 700 1.275
bond_coeff 6 350 1.36
bond_coeff 7 350 1.09
bond_coeff 8 350 0.99
bond_coeff 9 350 0.935
bond_coeff 10 350 0.98

angle_coeff 1 50 92.1
angle_coeff 2 50 109.471
angle_coeff 3 50 120
angle_coeff 4 50 120
angle_coeff 5 50 120
angle_coeff 6 50 104.51

dihedral_coeff 1 0.5 -1 2
dihedral_coeff 2 0.333333333333333 -1 3
dihedral_coeff 3 0.0833333333333333 -1 6
dihedral_coeff 4 0.111111111111111 -1 3
dihedral_coeff 5 5.625 -1 2
dihedral_coeff 6 11.25 -1 2
dihedral_coeff 7 0.625 -1 2

improper_coeff 1 40 0

pair_coeff 1 1 lj/cut 0.344 4.03
pair_coeff 1 2 lj/cut 0.180871224908773 3.96360303259547
pair_coeff 1 3 lj/cut 0.180871224908773 3.96360303259547
pair_coeff 1 4 lj/cut 0.163173527264688 3.84164847428809
pair_coeff 1 5 lj/cut 0.180871224908773 3.96360303259547
pair_coeff 1 6 lj/cut 0.0723104418462507 3.58829346625941
pair_coeff 1 7 lj/cut 0.00586515131944607 3.58717019389936
pair_coeff 1 8 lj/cut 0.18144089946867 3.70412445795224
pair_coeff 2 2 lj/cut 0.0951 3.8983
pair_coeff 2 3 lj/cut 0.0951 3.8983
pair_coeff 2 4 lj/cut 0.0857947550844456 3.77835472527395
pair_coeff 2 5 lj/cut 0.0951 3.8983
pair_coeff 2 6 lj/cut 0.0380199947396104 3.52917391183829
pair_coeff 2 7 lj/cut 0.00308382878902186 3.52806914614779
pair_coeff 2 8 lj/cut 0.0953995283007206 3.64309650983885
pair_coeff 3 3 lj/cut 0.0951 3.8983
pair_coeff 3 4 lj/cut 0.0857947550844456 3.77835472527395
pair_coeff 3 5 lj/cut 0.0951 3.8983
pair_coeff 3 6 lj/cut 0.0380199947396104 3.52917391183829
pair_coeff 3 7 lj/cut 0.00308382878902186 3.52806914614779
pair_coeff 3 8 lj/cut 0.0953995283007206 3.64309650983885
pair_coeff 4 4 lj/cut 0.0774 3.6621
pair_coeff 4 5 lj/cut 0.0857947550844456 3.77835472527395
pair_coeff 4 6 lj/cut 0.0342998542270955 3.42058613398347
pair_coeff 4 7 lj/cut 0.00278208554864871 3.41951536039831
pair_coeff 4 8 lj/cut 0.0860649754545948 3.53100349192691
pair_coeff 5 5 lj/cut 0.0951 3.8983
pair_coeff 5 6 lj/cut 0.0380199947396104 3.52917391183829
pair_coeff 5 7 lj/cut 0.00308382878902186 3.52806914614779
pair_coeff 5 8 lj/cut 0.0953995283007206 3.64309650983885
pair_coeff 6 6 lj/cut 0.0152 3.195
pair_coeff 6 7 lj/cut 0.0012328828005938 3.19399984345648
pair_coeff 6 8 lj/cut 0.0381397430510485 3.29813538230316
pair_coeff 7 7 lj/cut 1e-04 3.193
pair_coeff 7 8 lj/cut 0.0030935416596516 3.29710294046152
pair_coeff 8 8 lj/cut 0.0957 3.4046
pair_coeff 4 4 hbond/dreiding/lj 7 j 9.50 2.75 4 9.0 11.0 90
pair_coeff 4 8 hbond/dreiding/lj 7 i 9.50 2.75 4 9.0 11.0 90
pair_coeff 4 8 hbond/dreiding/lj 7 j 9.50 2.75 4 9.0 11.0 90
pair_coeff 8 8 hbond/dreiding/lj 7 j 9.50 2.75 4 9.0 11.0 90

neighbor 2 bin
neigh_modify every 2 one 10000

# Gemoetric relaxation
fix 1 all box/relax iso 1.0 vmax 0.001
minimize 1.0e-4 1.0e-6 10000 10000
WARNING: Using 'neigh_modify every 1 delay 0 check yes' setting during minimization (../min.cpp:188)
Neighbor list info ...
  update every 1 steps, delay 0 steps, check yes
  max neighbors/atom: 10000, page size: 100000
  master list distance cutoff = 13
  ghost atom cutoff = 13
  binsize = 6.5, bins = 3 3 3
  3 neighbor lists, perpetual/occasional/extra = 3 0 0
  (1) pair hbond/dreiding/lj, perpetual, skip from (3)
      attributes: full, newton on
      pair build: skip
      stencil: none
      bin: none
  (2) pair lj/cut, perpetual, half/full from (3)
      attributes: half, newton on
      pair build: halffull/newton
      stencil: none
      bin: none
  (3) neighbor class addition, perpetual
      attributes: full, newton on
      pair build: full/bin
      stencil: full/bin/3d
      bin: standard
Per MPI rank memory allocation (min/avg/max) = 15.33 | 15.73 | 16.25 Mbytes
Step Temp E_pair E_mol TotEng Press Volume 
       0            0 4.2326572e+18    458.28997 4.2326572e+18 3.4397226e+20         3375 
    5271            0   -989.34289    37.918811   -951.42408   -130.24581    34646.235 
Loop time of 4.4541 on 32 procs for 5271 steps with 1516 atoms

100.0% CPU use with 32 MPI tasks x no OpenMP threads

Minimization stats:
  Stopping criterion = energy tolerance
  Energy initial, next-to-last, final = 
    4.23265718827425e+18  -950.923586395455  -950.968021168414
  Force two-norm initial, final = 6.8309426e+20 121.03361
  Force max component initial, final = 3.4761171e+20 91.540061
  Final line search alpha, max atom move = 1.4572556e-05 0.0013339726
  Iterations, force evaluations = 5271 5273

MPI task timing breakdown:
Section |  min time  |  avg time  |  max time  |%varavg| %total
---------------------------------------------------------------
Pair    | 1.3368     | 2.6833     | 3.6017     |  35.3 | 60.24
Bond    | 0.0064035  | 0.011358   | 0.023369   |   3.1 |  0.26
Neigh   | 0.08646    | 0.087125   | 0.087473   |   0.1 |  1.96
Comm    | 0.40734    | 1.3238     | 2.6718     |  50.2 | 29.72
Output  | 0          | 0          | 0          |   0.0 |  0.00
Modify  | 0          | 0          | 0          |   0.0 |  0.00
Other   |            | 0.3485     |            |       |  7.82

Nlocal:        47.3750 ave          66 max          28 min
Histogram: 2 1 3 4 5 6 4 1 4 2
Nghost:        2121.94 ave        2162 max        2058 min
Histogram: 1 2 1 3 5 2 4 2 10 2
Neighs:        5478.38 ave        7791 max        2846 min
Histogram: 2 2 2 3 2 9 5 2 3 2

Total # of neighbors = 175308
Ave neighs/atom = 115.63852
Ave special neighs/atom = 2.0395778
Neighbor list builds = 88
Dangerous builds = 0

# MD simulation
velocity all create 300.0 12345 rot yes dist gaussian
timestep 1.0
fix 2 all nvt temp 300.0 300.0 1

# Compute interaction energy
group WAT molecule <> 2 501
1500 atoms in group WAT
group MOL molecule 1
16 atoms in group MOL

compute w WAT group/group MOL pair yes
fix 3 all ave/time 10 5 100 c_w file outa

# Outputs
thermo 100 # Output thermodynamic data every nth step
#dump mf1 all xyz 10000 mol_*.xyz

# Run
run 1000000
Neighbor list info ...
  update every 2 steps, delay 10 steps, check yes
  max neighbors/atom: 10000, page size: 100000
  master list distance cutoff = 13
  ghost atom cutoff = 13
  binsize = 6.5, bins = 6 6 6
  4 neighbor lists, perpetual/occasional/extra = 3 1 0
  (1) pair hbond/dreiding/lj, perpetual, skip from (4)
      attributes: full, newton on
      pair build: skip
      stencil: none
      bin: none
  (2) pair lj/cut, perpetual, half/full from (4)
      attributes: half, newton on
      pair build: halffull/newton
      stencil: none
      bin: none
  (3) compute group/group, occasional, copy from (2)
      attributes: half, newton on
      pair build: copy
      stencil: none
      bin: none
  (4) neighbor class addition, perpetual
      attributes: full, newton on
      pair build: full/bin
      stencil: full/bin/3d
      bin: standard
Per MPI rank memory allocation (min/avg/max) = 14.17 | 14.26 | 14.85 Mbytes
Step Temp E_pair E_mol TotEng Press Volume 
    5271          300   -989.34289    37.918811    403.35409    1657.2499    34646.235 
    5300     292.5087   -999.52064    147.87733    469.30471    1624.8298    34646.235 
    5400    306.41312   -1075.3302    222.47593    530.88503    54.309475    34646.235 
    5500    293.87833   -1102.2911    206.11143    430.95346   -131.25469    34646.235 
    5600    313.08995   -1077.1712    186.21563    522.93581    188.46705    34646.235 
    5700    303.49874   -1059.3931    185.63912    496.82425    137.72161    34646.235 
    5800    309.58716   -1096.7487    191.69697    493.02137     530.4847    34646.235 
    5900    291.95688   -1074.5753    201.52321    445.40397    352.59791    34646.235 
    6000    299.22956   -1118.3797    197.30022    430.21942    266.61236    34646.235 
    6100    290.79262   -1112.3685    194.12273     394.9526   -36.672239    34646.235 
    6200    291.56227   -1022.7772    205.34872    499.24548    376.57087    34646.235 
    6300    298.64012   -1069.6166    199.20132    478.22181    530.81595    34646.235 
    6400    290.32466   -1069.1576    215.49341    457.42083    579.27981    34646.235 
    6500    301.24132   -1109.9793    200.75797    451.16259    482.48259    34646.235 
    6600     307.0274   -1116.7381    215.27572      485.051    578.73216    34646.235 
    6700      295.511   -1109.9748    215.32026    439.85163    574.93812    34646.235 
    6800    292.07209   -1112.5543    211.39114    417.81315    -28.97764    34646.235 
    6900    295.29905   -1115.6142     209.9068    427.84162    105.02264    34646.235 
    7000    295.45464   -1095.2713    219.56099    458.54135    439.50733    34646.235 
    7100    294.56949    -1112.209      203.705    421.75037    387.70682    34646.235 
    7200    290.81555   -1126.3453     211.5661    398.52263    356.64313    34646.235 
    7300    296.85687   -1104.0663    228.05123    464.56895    898.55695    34646.235 
    7400    299.88394   -1140.0455    216.93673    431.14526    175.56287    34646.235 
    7500    308.81267   -1130.8499    231.80152    495.52723    1016.5574    34646.235 
    7600    300.10907   -1109.5454    225.39413    471.11943    597.36049    34646.235 
    7700    291.90894   -1122.6783     230.3695    425.93072    990.62479    34646.235 
    7800    300.06116   -1119.4894    231.44334    467.00829    357.72132    34646.235 
    7900    303.45573   -1106.7174     231.0477    494.71425    560.60077    34646.235 
    8000    299.21229    -1075.475    223.81215     499.5581    374.39052    34646.235 
    8100    310.76282   -1135.0011    246.43993    514.82114    800.90604    34646.235 
    8200    301.42865   -1099.4348    254.00721    515.80227    860.28645    34646.235 
    8300    306.00076   -1073.8123    240.82687    548.89178    579.96583    34646.235 
    8400    299.52003   -1132.7477    244.96575    464.82876    164.34673    34646.235 
    8500    294.55472   -1164.8955    246.21933    411.51156    181.60001    34646.235 
    8600    304.89167   -1146.5014    253.48926     483.8565    93.722134    34646.235 
    8700    299.88811   -1108.4709    242.40258    488.20458   -189.43218    34646.235 
    8800    298.33939   -1100.8403     264.1788    510.61747    149.63773    34646.235 
    8900    311.00501   -1126.3772    239.87299    517.97182    896.20288    34646.235 
    9000    311.45024   -1109.3497    269.08136    566.21826    180.99314    34646.235 
    9100    292.58954    -1127.792     249.5298    443.05086    588.08614    34646.235 
    9200     315.3206   -1106.5045    261.51133    578.97176    710.04597    34646.235 
    9300    298.40432   -1152.4139    257.93433    453.09265     119.4088    34646.235 
    9400    301.12274   -1149.8827    245.48796    455.45364    452.70134    34646.235 
    9500    287.61904   -1127.2754    266.77397    438.36521    69.657657    34646.235 
    9600    296.84195   -1185.2197    265.01911    420.31606    543.80886    34646.235 
    9700    298.19595   -1180.9108    269.55942     435.2798    548.71776    34646.235 
    9800    294.34703   -1157.1074    271.50656    443.64888    621.82933    34646.235 
    9900    285.95617   -1136.7812    263.68322    418.25924    563.06546    34646.235 
   10000    295.53715   -1175.4572    257.92672    417.09381    651.01543    34646.235 
   10100    295.59918   -1162.5478    262.35648     434.7131    628.86156    34646.235 
   10200    293.60056   -1143.5911    264.29544    446.58311    709.74475    34646.235 
   10300    291.70626   -1171.1849    265.69357    411.83292    613.87513    34646.235 
   10400     295.5144   -1191.1258    276.10955    419.50533    396.09718    34646.235 
   10500    312.02422   -1174.4217    278.42575     513.0827    228.47257    34646.235 
   10600    302.31251   -1161.7188    271.42886    474.93137    500.33863    34646.235 
   10700    314.17163   -1168.3417    267.43685    517.87134     378.6727    34646.235 
   10800    301.64434    -1213.125    270.07119    419.15008     269.7302    34646.235 
   10900    304.49547   -1206.7122    275.51517    443.88236     51.24878    34646.235 
   11000    314.06981   -1210.4586    268.95749    476.81534    859.09771    34646.235 
   11100    309.51943    -1176.673    271.59566    492.68985    708.28734    34646.235 
   11200    309.97915   -1144.6026    285.10308    540.34373    663.55426    34646.235 
   11300    301.75755   -1199.0036    273.78387    437.49542    1096.5285    34646.235 
   11400     303.8287   -1169.6079    282.02117     484.4816    1001.0032    34646.235 
   11500    300.63041   -1154.5395    282.65585    485.74144    179.67868    34646.235 
   11600    310.47136    -1177.898    269.71477    493.88282   -198.20258    34646.235 
   11700    297.02894   -1113.3014    265.47165    493.53139    741.86139    34646.235 
   11800    296.16775   -1174.8737    280.57428     443.1726    325.13576    34646.235 
   11900    298.71212   -1153.7372    290.44148    485.66649   -83.612919    34646.235 
   12000    304.46372   -1144.5862    277.49425    507.84401    240.61194    34646.235 
   12100    294.06588   -1171.2423    286.88871    443.62653    252.96197    34646.235 
   12200    289.67691    -1160.476    289.72165    437.40545    913.67995    34646.235 
   12300    290.90085   -1160.6661    271.21184    424.23281    746.86084    34646.235 
   12400    299.65992    -1176.162    285.44415     462.5245    214.35745    34646.235 
   12500    306.48227   -1168.3154    295.87831    511.61455    1455.4416    34646.235 
   12600    304.49337    -1127.566    283.60586    531.10979    894.99563    34646.235 
   12700    304.97808    -1149.644    277.04712    504.66197    1046.7269    34646.235 
   12800    298.85421   -1144.1388    283.40742    488.87242     255.9445    34646.235 
   12900       307.12   -1162.0386    284.96051    509.85353    756.53976    34646.235 
   13000    307.97406   -1180.0683    285.13208    495.85216     630.6347    34646.235 
   13100    294.63612   -1225.1096    287.84464    393.29033    449.74352    34646.235 
   13200    306.49002   -1175.7712    289.84744     498.1629    366.47391    34646.235 
   13300    291.79998   -1143.5236    308.25098    482.47491    237.61188    34646.235 
   13400    288.63661   -1177.4491    280.06308    406.07594   -196.61395    34646.235 
   13500    299.59022   -1179.3982    282.02753    455.55693    -138.1986    34646.235 
   13600    304.16608   -1190.3156    303.37441    486.65073   -24.832617    34646.235 
   13700    303.92793   -1163.6679    295.27186    504.12034    30.066795    34646.235 
   13800    305.85191   -1148.3274    290.90653    523.78412    103.51794    34646.235 
   13900    306.63757   -1179.1609    298.82947    504.42151    300.51722    34646.235 
   14000    297.72035   -1182.5019    282.91177    444.89329   -121.66099    34646.235 
   14100    294.20676    -1198.531    296.48634    426.57162    511.42989    34646.235 
   14200     295.4155   -1206.8411    303.76392    430.99774    256.65222    34646.235 
   14300    299.12973    -1158.414    305.89808    498.33215    272.93347    34646.235 
   14400    303.29921   -1184.4466    287.47167    472.70228    603.85018    34646.235 
   14500    297.54704   -1190.9092    290.25172    443.04326    55.002533    34646.235 
   14600    307.60368   -1180.1425    307.96613    516.93945    202.63594    34646.235 
   14700    292.62599   -1185.9556    291.87849    427.40056    370.17917    34646.235 
   14800    296.94677   -1208.9138    305.00019    437.07636    477.03546    34646.235 
   14900    293.54836   -1218.7027    306.91796    413.85827   -209.33153    34646.235 
   15000    305.81394   -1195.6218    279.75771    465.16936    14.420917    34646.235 
   15100     311.8572   -1192.6792    307.31328    522.95848    128.53885    34646.235 
   15200     298.0442   -1203.2174    307.15859    449.88711   -69.811991    34646.235 
   15300     299.8666   -1175.7037    316.12991    494.60194    203.07574    34646.235 
   15400    299.23725   -1194.2028    314.77768    471.90847    601.12547    34646.235 
   15500    307.29895   -1167.0611    300.22752    520.90616    210.55324    34646.235 
   15600    304.45733   -1249.6801    310.68943    435.91652    399.40815    34646.235 
   15700    301.76108   -1228.4845    293.05352    427.30009      373.099    34646.235 
   15800    303.05808   -1207.7319     309.5955    470.45182    403.52513    34646.235 
   15900    304.74258   -1224.9264    323.54008    474.80898    612.25715    34646.235 
   16000    299.27794   -1238.7327    309.86441    422.64914    625.68237    34646.235 
   16100    289.98171    -1211.767    315.25173    413.02106    256.15472    34646.235 
   16200    297.71043   -1182.7879    310.41088    472.06168    660.77113    34646.235 
   16300    293.77507   -1238.2066    324.00544    412.46565    523.64215    34646.235 
   16400    296.67547   -1207.3976    328.65324    461.02049    354.81935    34646.235 
   16500    292.53192   -1225.5377    303.79185    399.30702    73.964323    34646.235 
   16600    292.80977   -1195.7177    299.38736    425.97731    208.97019    34646.235 
   16700    305.00871   -1219.3026    303.74277    461.83732   -5.6991761    34646.235 
   16800    292.82024    -1175.239    316.85411    463.97003    184.54059    34646.235 
   16900    303.57945   -1256.3949     304.6399    419.18771   -164.92835    34646.235 
   17000    306.98769   -1173.8244    324.49363    537.00331    284.83704    34646.235 
   17100    297.77295   -1174.0339     310.0723    480.75935    412.25052    34646.235 
   17200    300.02604   -1238.9942    328.93357    444.83517    439.43672    34646.235 
   17300    301.68629   -1200.1099    293.01591     455.2994    131.64596    34646.235 
   17400    283.86074   -1162.5451    320.87076    440.22018     740.3613    34646.235 
   17500    296.89495   -1155.7436    305.26174    490.27416    32.789005    34646.235 
   17600    300.60973      -1184.4     314.6768    487.80849    145.49275    34646.235 
   17700    297.94701   -1206.8228    334.31998    473.00417    463.89656    34646.235 
   17800    304.23182    -1179.749    330.18515    524.32495    691.99756    34646.235 
   17900    302.13056   -1195.1063    318.26891    487.56229    488.97299    34646.235 
   18000    314.68089    -1179.763    325.29238    566.60534    314.75519    34646.235 
   18100    317.79418   -1198.2316    324.98174    561.88555    473.74696    34646.235 
   18200     301.3956   -1192.4386    305.82228    474.46425    969.42223    34646.235 
   18300    297.48509   -1200.4937    320.09172    463.01908    497.48059    34646.235 
   18400    303.31138   -1197.5627      344.404    516.57342    407.53603    34646.235 
   18500    292.77493   -1227.0506    323.78347    418.88312    490.44661    34646.235 
   18600    295.02101   -1207.0185    331.31296    456.58784    880.06292    34646.235 
   18700    302.86582   -1244.6001    324.04737    447.16731      210.912    34646.235 
   18800    297.93739   -1245.6027    333.90364    433.76449    622.82264    34646.235 
   18900     296.1535   -1191.1572    333.94205    480.19255    510.57356    34646.235 
   19000    304.50587   -1238.0987    333.70105    470.72874   -297.28597    34646.235 
   19100    291.21423   -1237.6307    336.86255    414.33411     256.4493    34646.235 
   19200    290.50085   -1231.6953    335.76254    415.94789    297.30078    34646.235 
   19300    298.98631   -1229.2001    344.90715    465.90741    262.46289    34646.235 
   19400    303.73985   -1240.9128    338.28015    469.03438    275.89319    34646.235 
   19500    293.30218    -1203.079    340.85361    462.30588    176.20539    34646.235 
   19600    293.47904   -1212.0408    338.87812    452.16726     96.90983    34646.235 
   19700    299.63245   -1197.0183    360.66626    516.76626    633.32074    34646.235 
   19800    307.75474   -1221.8456    330.47513    498.42752     101.8373    34646.235 
   19900    290.14794   -1249.0561    328.13931     389.3702   -297.09332    34646.235 
   20000    309.70189   -1191.6622    363.53095     570.4599     445.6234    34646.235 
   20100    295.41753   -1203.2847     335.4627    466.26209    297.16331    34646.235 
   20200     296.2492   -1234.6438    340.14889    443.34488   -158.51956    34646.235 
   20300    299.93089   -1212.1578    323.21711    465.52541     114.3012    34646.235 
   20400    298.77857   -1219.0627    351.93181    482.13144   -464.10011    34646.235 
   20500    296.12607    -1241.275    330.23268    426.24141   -281.73249    34646.235 
   20600     300.9925   -1256.2641    334.14417    437.14031    409.42311    34646.235 
   20700    307.61726   -1243.9863    356.03286    501.22375    606.11668    34646.235 
   20800    297.47096   -1232.1543    326.62588    437.82876    481.92232    34646.235 
   20900    307.79346    -1272.285    332.66187    450.34973    412.33171    34646.235 
   21000    299.59336   -1254.7349    369.70711    467.91403    262.28471    34646.235 
   21100    305.09295   -1246.1696    325.65444    457.26239    476.16239    34646.235 
   21200    283.76319   -1226.5734    337.05625    391.93679    913.12809    34646.235 
   21300    306.30437   -1254.0564    362.37785    491.56971    380.21838    34646.235 
   21400    303.84058   -1249.2612    357.74934    480.61009    329.10629    34646.235 
   21500    298.40936   -1219.3898    332.49956    460.70473    493.13955    34646.235 
   21600    296.91338   -1243.5616    335.52587    432.80355    37.436662    34646.235 
   21700    302.09407   -1257.2579    350.55192    457.52891    422.94616    34646.235 
   21800    301.49828   -1265.5808    348.29228    444.25579   -118.77033    34646.235 
   21900    295.92808   -1257.6615    340.48731    419.21547    606.27922    34646.235 
   22000     304.8485   -1265.5341    344.61845    455.75802    640.29063    34646.235 
   22100    296.38408   -1261.5657    383.29995    460.18314    300.04495    34646.235 
   22200     298.8394   -1234.8114    344.86338    459.58899    642.59772    34646.235 
   22300    291.73946   -1253.3226     353.3711    417.52267    239.57143    34646.235 
   22400    308.55654   -1244.9842    339.57018    488.00482    337.57402    34646.235 
   22500    300.49651   -1218.0312    348.60999     487.5992    549.35015    34646.235 
   22600    300.60466   -1253.2536    353.54842    457.80358    278.57641    34646.235 
   22700     307.0422     -1193.95    346.88046    539.51068    1191.7916    34646.235 
   22800    301.20108   -1243.3555    347.60968    464.45628    966.75598    34646.235 
   22900    299.17155   -1215.5283    362.80544    498.31406    693.73166    34646.235 
   23000    299.28669   -1224.0198    325.40067    452.93773    255.93593    34646.235 
   23100    288.73931   -1246.9482    370.97005    427.94755    3.3205069    34646.235 
   23200    302.74512   -1250.9075    345.62917    461.89655   -203.34946    34646.235 
   23300    304.92699   -1233.9435    342.24715    485.33175   -103.94239    34646.235 
   23400    297.01029    -1235.004     357.8988     464.1716    251.99303    34646.235 
   23500    306.23812   -1192.7672    362.84759    553.02949    850.85602    34646.235 
   23600    306.51361   -1203.1429    330.58849    511.63869    537.28146    34646.235 
   23700    300.36176   -1231.2422    349.66011    474.82974    764.04051    34646.235 
   23800    307.53294   -1209.1672    361.93554    541.56468    579.63736    34646.235 
   23900    307.13933   -1209.7508    353.40404    530.67214    405.46746    34646.235 
   24000    308.35496   -1201.5207     344.7075    535.69537    680.45135    34646.235 
   24100    302.59367   -1273.8341    344.31406    436.97094    985.52987    34646.235 
   24200    293.33776   -1219.7419    347.20416    452.15424    303.13662    34646.235 
   24300     309.7176    -1256.996    342.09686    483.76297     18.29792    34646.235 
   24400    304.81638   -1241.6152    354.03339    488.94675    603.97835    34646.235 
   24500    290.11382     -1244.46    343.05331    408.72619   -180.39285    34646.235 
   24600    299.62248   -1273.5752    334.13684    413.63495    242.30032    34646.235 
   24700    294.72997   -1268.6812    351.43236    413.73028    349.55319    34646.235 
   24800    290.74126   -1300.9772    353.64811    365.63725   -604.68175    34646.235 
   24900     290.4449   -1220.4236    356.75732    447.96179    170.54716    34646.235 
   25000     298.4149   -1253.1625    353.90065    448.35816    298.92896    34646.235 
   25100    299.08958   -1244.1884    347.74651    454.22488   -427.64425    34646.235 
   25200    303.52105   -1268.6627    344.87381    446.89006    397.97135    34646.235 
   25300    306.76193   -1253.0925    361.13492    493.35698   -216.75672    34646.235 
   25400     294.2981   -1261.6469    354.19531    421.57726    334.13858    34646.235 
   25500    297.19945   -1268.2665    363.22163    437.08621    375.93052    34646.235 
   25600    292.54785    -1221.826    368.91026    468.20904    109.44595    34646.235 
   25700    300.18647   -1256.5088     360.7328     459.8442    211.57195    34646.235 
   25800    304.76194   -1282.1541    345.88507    440.01372    337.42598    34646.235 
   25900    304.57938    -1287.889    336.83636    424.40569    568.29724    34646.235 
   26000    297.11804   -1310.7794    373.26105    404.24507    422.71693    34646.235 
   26100     294.6742   -1252.3024    358.96638    437.39122    399.44386    34646.235 
   26200    292.48849   -1264.2744     362.4449    419.02722    180.10112    34646.235 
   26300    303.79298   -1274.2927    363.25698    460.87129    455.09646    34646.235 
   26400    299.57283   -1301.0371    371.70079    423.51283    833.91236    34646.235 
   26500    297.47684   -1235.9998    346.67753    454.06146    756.82109    34646.235 
   26600     302.1545   -1232.8463    372.07639    503.73779    923.89557    34646.235 
   26700    306.25034   -1264.6573    394.16324    512.51019    240.84617    34646.235 
   26800    295.37762   -1233.5645    374.47024    474.80955    289.72594    34646.235 
   26900    300.85317    -1300.447    368.45531    426.63932    274.91521    34646.235 
   27000    299.82562   -1294.8351    352.61617    411.77171    730.83991    34646.235 
   27100    305.63351   -1288.0767    369.53997    461.68201    164.58947    34646.235 
   27200    292.23097   -1287.3558    361.21832    393.55628    277.23848    34646.235 
   27300    306.29811    -1265.118    369.50081    487.60276    11.365923    34646.235 
   27400    293.97628   -1337.7894    353.12809    342.91422    6.2057159    34646.235 
   27500    299.57814   -1277.7221    343.72787    418.87885    172.07079    34646.235 
   27600    297.60888   -1267.1104    376.18315    453.05279   -65.397847    34646.235 
   27700    297.52592   -1321.7418    384.82443    406.68805   -192.59168    34646.235 
   27800    295.60636   -1298.4377    377.49308    413.99217    -53.45523    34646.235 
   27900    300.08193   -1298.6426    365.75259    422.25821    138.11738    34646.235 
   28000    302.81696   -1256.0559    392.77429    504.21777    233.41897    34646.235 
   28100    284.46442   -1273.3908    386.49173    397.72155   -12.124771    34646.235 
   28200    298.02981   -1269.9255    366.76427    442.71973    960.57425    34646.235 
   28300    301.84335   -1281.5624    372.53988     454.0801    741.49197    34646.235 
   28400     304.5694   -1285.8584     364.3989    453.95377    445.72429    34646.235 
   28500    297.93091   -1281.1693    389.31736    453.58236    24.475707    34646.235 
   28600    301.53707   -1321.3156    391.27234    431.67621     503.9274    34646.235 
   28700    297.87495   -1300.3094    382.43527    427.30745    149.92543    34646.235 
   28800    295.22574   -1270.5126    367.53052    430.23585    169.56907    34646.235 
   28900    286.93815   -1305.0127    356.68087    347.45996   -60.651327    34646.235 
   29000    298.82984   -1316.4048     403.7937    436.88268    166.14616    34646.235 
   29100    300.71078    -1328.815     355.5199    384.69293    242.97314    34646.235 
   29200    287.33392    -1338.875    370.59239    329.29641    204.63173    34646.235 
   29300    289.27619   -1338.6779    379.94006    347.61242   -54.110036    34646.235 
   29400    304.92275   -1328.7018    370.88689    419.19402    253.99161    34646.235 
   29500     304.9427   -1333.8055    358.08652    401.38001   -530.51511    34646.235 
   29600    295.20817   -1333.4096    351.16369    350.89265    343.98016    34646.235 
   29700    303.79641    -1339.895    350.14107     382.1686    810.52587    34646.235 
   29800    297.24742   -1287.9881     387.4387     441.7983    1077.7999    34646.235 
   29900    293.73765   -1273.0787    382.34658    435.76572    708.23725    34646.235 
   30000    300.22525   -1281.0391    378.41159    453.16789   -313.61052    34646.235 
   30100    303.03011   -1258.9657    397.28088    506.77714   -44.244727    34646.235 
   30200    301.01616   -1263.7476       362.16    457.77942   -169.04077    34646.235 
   30300    305.14122   -1254.4374    373.37116     496.9293    -190.7238    34646.235 
   30400    298.95345   -1285.0798    364.52159    429.49386   -189.79677    34646.235 
   30500    305.86427   -1294.6327    370.96087    457.58894   -280.02351    34646.235 
   30600    306.35684   -1330.8675    365.68409    418.30182   -116.10065    34646.235 
   30700    302.89934   -1320.9107    372.71457    419.67523   -7.4531732    34646.235 
   30800    293.44835   -1302.2488    361.73949    384.68206   -254.89751    34646.235 
   30900    295.72397    -1276.049    383.37284     442.7918    196.19888    34646.235 
   31000     297.2231    -1302.927    396.15655    435.46744    385.17818    34646.235 
   31100    303.27936   -1355.8821    380.43253    394.13798   -28.377415    34646.235 
   31200     302.2836   -1338.4584    385.12022     411.7525    642.80542    34646.235 
   31300    298.89905   -1356.3208    375.64555    369.13111    -380.0673    34646.235 
   31400    315.98523   -1317.4047    372.11771    481.67932    135.38497    34646.235 
   31500    297.25046   -1299.5267    366.15675    408.99147    98.733295    34646.235 
   31600    297.47747   -1316.9349    358.91555     385.3673     77.88271    34646.235 
   31700    289.17308   -1300.9769    391.59416    396.50181    15.606138    34646.235 
   31800     302.8802    -1303.758    385.31005      449.337     550.8798    34646.235 
   31900    295.43058   -1298.8612     376.9387    412.22053    628.76562    34646.235 
   32000    296.61711   -1261.0414    404.76953    483.22941    -45.20936    34646.235 
   32100    309.96472   -1287.4431    387.77615    500.11115    68.373944    34646.235 
   32200     293.7131   -1303.9294    378.28569    400.74334   -449.70883    34646.235 
   32300    292.25397   -1265.2229    392.19213    446.76688   -879.26058    34646.235 
   32400    291.23079   -1268.9629    378.88389    425.09806   -131.55061    34646.235 
   32500    309.17696   -1339.6635    360.46729    417.02445    138.26262    34646.235 
   32600    286.36722   -1306.8665     392.2797    378.62672    62.610693    34646.235 
   32700    313.17153   -1344.2999    371.66255    441.62247    468.60209    34646.235 
   32800     304.1271   -1334.0311    393.67953     433.0643    204.78804    34646.235 
   32900    298.20254   -1316.9807    404.75309    434.43335   -181.35869    34646.235 
   33000    292.02553   -1285.4741    364.70532    397.99727    -59.36876    34646.235 
   33100    297.95115   -1296.5756    374.50284    423.45292    145.91599    34646.235 
   33200    300.39554    -1335.694    360.03207    380.90248   -248.77683    34646.235 
   33300    305.61904   -1355.2072    387.60063    412.54677   -561.31727    34646.235 
   33400    293.80327   -1299.5034    392.61057    419.90137   -241.43745    34646.235 
   33500     303.4886   -1295.5659    396.31037    471.27688    323.19881    34646.235 
   33600    306.48834   -1260.0315    373.91099    497.95849    713.94416    34646.235 
   33700    340.25799   -1286.0759     373.6994    624.20382    703.87771    34646.235 
   33800    308.41863   -1308.9518    383.51926    467.36354    410.43672    34646.235 
   33900    298.31141   -1275.2672    391.42159    463.30706    302.80816    34646.235 
   34000    311.19789   -1267.3691    405.12156    543.09949    624.00306    34646.235 
   34100    304.44049   -1302.7361    397.33643    469.43138   -253.96476    34646.235 
   34200    304.24472   -1290.0788    387.46747    471.33568    127.33668    34646.235 
   34300    303.66267   -1256.9754    405.93229    520.27539   -293.76336    34646.235 
   34400    304.06962   -1282.3512    383.30211    474.10718    369.68726    34646.235 
   34500    312.35621   -1280.6642    392.76634    522.68009    533.38733    34646.235 
   34600     294.1875   -1282.2708    378.12243      424.381    -265.7416    34646.235 
   34700    293.49873   -1288.8109    382.52526    419.13331    206.04067    34646.235 
   34800    306.93345    -1314.555    376.01549    447.54967   -206.09898    34646.235 
   34900    303.53655   -1334.7905    394.15022    430.10868    308.56226    34646.235 
   35000    306.13739   -1298.0098     377.9839    462.46828    635.93521    34646.235 
   35100    308.62191   -1313.3208     388.5931    468.98636    415.59052    34646.235 
   35200     311.3953   -1312.7002    369.88079    463.41908    378.05562    34646.235 
   35300    301.88091    -1327.633    369.40003    405.03926   -157.60927    34646.235 
   35400     295.6319   -1345.4389    394.57396    384.18724    241.60307    34646.235 
   35500    298.70566   -1360.4807    383.50437    371.95674    331.04016    34646.235 
   35600    298.83714   -1340.1001    374.08942    383.51611    201.44517    34646.235 
   35700    297.23646   -1341.0328    372.38543    373.65087    566.78633    34646.235 
   35800    298.45964   -1316.1908    366.65428    398.28544    511.06926    34646.235 
   35900    302.21111     -1303.39    400.79778    462.17113     429.2599    34646.235 
   36000    297.34831   -1297.8113    394.83744    439.82951    59.301859    34646.235 
   36100     312.0302     -1274.04    390.90949     525.9752    631.64494    34646.235 
   36200    298.49959   -1339.6639    412.37065    420.70918    555.55197    34646.235 
   36300    294.00249   -1340.4584    386.71888    373.95437    275.15722    34646.235 
   36400    301.06793   -1313.4291    396.19196    442.36379   -63.679129    34646.235 
   36500    302.16731   -1287.1281    394.69156    472.12902   -664.85825    34646.235 
   36600    297.24129    -1287.521    395.68141    450.48048    47.265732    34646.235 
   36700    300.85998   -1288.7951     406.7713     476.6379   -592.53618    34646.235 
   36800    301.45529   -1319.6689     403.8074    445.48866   -271.35469    34646.235 
   36900    293.19783    -1316.769    408.42543    415.71647   -517.37091    34646.235 
   37000    299.00784   -1321.1112    392.88854      422.075   -427.32527    34646.235 
   37100    297.28918   -1340.5481    396.21033    398.19851   -121.84806    34646.235 
   37200    302.49347   -1329.0641    404.36733     441.3417   -589.97465    34646.235 
   37300    293.27642   -1339.2834    400.81577    385.94729    80.202771    34646.235 
   37400    297.85061   -1335.6454    411.10345    420.52973   -289.89859    34646.235 
   37500     303.7368   -1306.2649    400.59169    465.98007    247.29357    34646.235 
   37600    306.27851   -1354.1153    407.72818    436.74434    9.9484634    34646.235 
   37700    303.03338   -1328.1259    376.15243    416.50322    218.28309    34646.235 
   37800    299.76763   -1294.6961    415.29096    474.32361    383.46987    34646.235 
   37900     297.1999   -1309.9444    413.93545    446.12417   -113.63259    34646.235 
   38000    309.70333   -1313.3068    426.43822     511.7291    252.59916    34646.235 
   38100    299.85157   -1355.8054    405.72082    404.02332   -201.46967    34646.235 
   38200    297.55392   -1302.8789    407.85797    448.71093    199.61104    34646.235 
   38300     298.4013   -1321.8648    402.74172    428.43549   -180.07028    34646.235 
   38400    306.85844   -1298.3186    403.82474    491.25656   -188.41461    34646.235 
   38500    294.44076   -1284.2301    413.26645    458.70934    24.317328    34646.235 
   38600    293.54773   -1304.0206    424.21387    445.83348   -313.99719    34646.235 
   38700    291.05338   -1261.0305    425.86284    479.20825   -271.57211    34646.235 
   38800       303.39   -1246.0707    404.90163    528.91807   -503.88285    34646.235 
   38900    300.49595   -1263.8327    397.49012    490.67528   -651.55852    34646.235 
   39000    304.13298   -1264.4072    415.93536    524.97056     -366.513    34646.235 
   39100    300.97697   -1303.1377    394.84468    450.89702    688.43378    34646.235 
   39200    308.60098   -1273.9393    413.35572    533.03593   -128.70759    34646.235 
   39300    306.50719   -1299.3309    399.39525    484.22846    188.27115    34646.235 
   39400    295.27697   -1316.2382     413.3062    430.51735    526.73868    34646.235 
   39500    301.95285   -1329.4005    409.54189    443.73848   -371.67933    34646.235 
   39600    295.55332   -1308.3442    416.59219    442.94523    336.37795    34646.235 
   39700    301.43981   -1363.1388    417.07194    415.21342    635.51688    34646.235 
   39800    307.75809   -1323.3098    406.28262    472.78591    611.22903    34646.235 
   39900    305.59447   -1325.4936    405.32817    459.87692     281.6979    34646.235 
   40000      304.179   -1361.2114    413.35216    425.79101    278.14311    34646.235 
   40100    302.74262   -1338.8813    399.79397    428.07631    413.47047    34646.235 
   40200    284.44853   -1384.1798    407.30227    307.67126    620.10871    34646.235 
   40300    298.82529   -1434.8992    411.02878    325.60281    754.63339    34646.235 
   40400    314.75766   -1331.7316    410.20699    499.89808    81.838792    34646.235 
   40500    302.72457   -1372.1439    392.49435    387.43263   -71.169224    34646.235 
   40600    300.39483   -1348.7615    381.46789    389.26756    24.035929    34646.235 
   40700    306.07499   -1375.5991    392.95432    399.56757    -526.4706    34646.235 
   40800    297.77032   -1368.7953    400.04162     375.9554   -305.68346    34646.235 
   40900    309.07931    -1367.598    406.05973    434.24144    89.539949    34646.235 
   41000    296.70772    -1373.028    415.36284    382.24528    343.35818    34646.235 
   41100    303.53698   -1370.0354    417.80501    418.52059     291.7558    34646.235 
   41200    305.83442   -1379.1146    413.80497    415.81637    529.22376    34646.235 
   41300    290.62559   -1363.0559    426.48218    375.87033    736.08882    34646.235 
   41400    294.42302   -1329.2106     396.2782    396.66057    456.34989    34646.235 
   41500    297.70652    -1326.281    409.57443    427.71436    283.67332    34646.235 
   41600    291.77476   -1336.8756    406.92009    387.67809    209.14429    34646.235 
   41700    305.59689   -1409.9534     406.8929    376.99281    417.85786    34646.235 
   41800    302.39099   -1389.4552    427.87656     403.9971    1199.6414    34646.235 
   41900    306.45176   -1373.9566    404.06576    414.02304    368.31554    34646.235 
   42000    307.25077   -1356.7548    432.76609    463.53339    326.02767    34646.235 
   42100    311.13512   -1377.3126    412.47079    440.22174    976.21819    34646.235 
   42200    287.51768   -1392.0137    404.61107    311.00626    57.608097    34646.235 
   42300    305.35139   -1351.0911    422.21153    450.06513    379.78499    34646.235 
   42400     302.4169    -1321.143    403.14287    447.69261    734.84292    34646.235 
   42500    300.54196   -1350.6812     410.2797    416.82411    92.607785    34646.235 
   42600    303.63392   -1345.2386    403.07227     429.0223   -350.58197    34646.235 
   42700    283.38616   -1366.2497     384.6786    298.18016   -97.545724    34646.235 
   42800    284.47134   -1335.1994    395.32679    344.77931   -320.02346    34646.235 
   42900    310.03107   -1343.1302    414.60173    471.54928    211.00231    34646.235 
   43000    300.03354   -1355.3866     402.1528    401.69585    353.49598    34646.235 
   43100    295.50811    -1362.398    429.68426    401.77937    349.15577    34646.235 
   43200     292.7081   -1331.8253    426.14767    416.17085    683.23478    34646.235 
   43300    299.91352   -1341.5698    434.78806    447.60584    307.41262    34646.235 
   43400    295.97418   -1359.4796    412.79335    389.91162     178.1536    34646.235 
   43500    298.74018   -1355.6952    435.83601    429.22973    261.40325    34646.235 
   43600    290.43248   -1299.8311    405.82011    417.56094   -332.91638    34646.235 
   43700    310.55539   -1279.5658    415.48802    538.36778    114.44679    34646.235 
   43800    304.26415   -1334.7728     414.0952    453.35717   -525.77548    34646.235 
   43900    302.45116   -1330.6695    390.59229    425.77016    172.42373    34646.235 
   44000    297.60558    -1359.457    379.36698    363.87509   -680.81337    34646.235 
   44100    303.66439   -1309.2158    399.29319    461.40368    35.537375    34646.235 
   44200    293.43193   -1353.5408    398.40409    369.98048   -430.75203    34646.235 
   44300    294.22254   -1296.9289    452.73013    484.48882   -15.154175    34646.235 
   44400    303.99351   -1373.8191    404.72653    403.71995   -750.52632    34646.235 
   44500    292.57015   -1338.9896    399.09938    381.33526   -271.44739    34646.235 
   44600     293.8627    -1346.527      425.884    406.41956   -821.11643    34646.235 
   44700    295.39777   -1370.6046    420.58234     383.9726   -503.85322    34646.235 
   44800    302.36895    -1337.485    426.54467    454.53587    559.59212    34646.235 
   44900    300.10987   -1321.0967    409.92513    444.10276     685.0625    34646.235 
   45000    312.25087   -1288.9306    412.21566     533.3872    641.46456    34646.235 
   45100    291.10705   -1304.7257     395.4206     405.3131    857.69609    34646.235 
   45200    302.70466   -1306.3382    417.21433    477.86839     448.0333    34646.235 
   45300    308.15809   -1366.5627    408.06034    433.11717   -44.273678    34646.235 
   45400     293.6311   -1315.4028    411.48133    422.09518    62.924269    34646.235 
   45500    305.65801   -1357.3516    410.33823    433.31594     168.6336    34646.235 
   45600     310.0405   -1317.1633    410.79452    493.75153    525.67534    34646.235 
   45700    300.46252   -1321.8144    396.60039    431.65292    409.65169    34646.235 
   45800    303.79828   -1359.7838    393.08969    405.23683    331.37919    34646.235 
   45900     298.2345    -1340.427    424.21323    430.59152    554.75138    34646.235 
   46000    300.48658   -1302.9334    435.96444    490.00657    235.73835    34646.235 
   46100    295.53151   -1367.7326    402.71444     369.5806   -395.08227    34646.235 
   46200    299.76341   -1371.5749    420.49151    402.62639    271.74343    34646.235 
   46300    307.61777   -1311.6346    449.11251    526.65736    366.35763    34646.235 
   46400    299.60378   -1322.3518    416.00188    446.63892   -190.29799    34646.235 
   46500     295.0945   -1340.6961    422.30132    414.23054   -501.00867    34646.235 
   46600     293.0132   -1337.1228      408.806    394.90946    110.62423    34646.235 
   46700    295.78399   -1314.8566    428.59868    449.48107     170.3555    34646.235 
   46800    294.50125   -1348.1425    451.94384    433.74752    570.37997    34646.235 
   46900    307.38863    -1358.283    425.75785    455.61954    32.238495    34646.235 
   47000    309.24722   -1323.2687    423.04583    496.31507   -161.61045    34646.235 
   47100    297.38098   -1332.6345    419.42155    429.73792    378.91551    34646.235 
   47200     305.6357   -1343.5834    425.59032    462.23548    95.326881    34646.235 
   47300    308.82438   -1401.7289    425.70861    418.60811   -46.931661    34646.235 
   47400    301.08731   -1386.8732    401.55417    374.36932    499.84084    34646.235 
   47500     308.2612   -1358.1542     410.2291    444.16004   -61.550072    34646.235 
   47600    305.25527    -1385.445     431.2184    424.28399   -743.43413    34646.235 
   47700    293.09634   -1387.0325     422.9214    359.49066   -340.38849    34646.235 
   47800    300.02995      -1384.1    409.55318    380.36664    359.98478    34646.235 
   47900    295.73019   -1340.9163    412.49814    407.07784   -140.71389    34646.235 
   48000    299.22876   -1360.3203    418.29774    409.27272   -121.56773    34646.235 
   48100    297.34652   -1397.4952    430.70251    376.00256    170.44348    34646.235 
   48200    299.80873   -1389.2967     434.4869    399.10457     82.94007    34646.235 
   48300    310.34325   -1362.9342    421.61301    460.16634   -261.42383    34646.235 
   48400    309.69585   -1409.4634     411.2059    400.30648    538.14755    34646.235 
   48500     295.0289   -1369.7485    437.12302    399.70351    395.88736    34646.235 
   48600    303.32815    -1383.876    428.25123    414.18304    621.00386    34646.235 
   48700    298.58513   -1385.2695    408.83246    371.95163    119.91131    34646.235 
   48800    297.02147   -1353.4469    405.12925    393.00969    275.75782    34646.235 
   48900    310.11318   -1367.8549    442.31541    474.90902    205.10952    34646.235 
   49000     301.3268   -1364.5389    441.45311    437.68412    619.32428    34646.235 
   49100    301.89115   -1326.9789    430.95365    467.29321    22.874086    34646.235 
   49200    304.06394   -1376.9082    433.98986    430.21226    510.09303    34646.235 
   49300    299.59486    -1318.402    451.44774    485.99429    608.11484    34646.235 
   49400    295.82316   -1330.2762    432.66774     438.3074    760.52432    34646.235 
   49500     287.3228   -1357.2266    422.86955    363.17183    265.21756    34646.235 
   49600    309.15394   -1347.4533    445.31937    493.98272    485.89024    34646.235 
   49700    303.83579   -1350.3659    446.78207    468.51651   -476.78408    34646.235 
   49800     302.9328   -1274.1681    459.11033    552.96469   -445.19242    34646.235 
   49900    311.93673   -1327.7202    395.92959    476.89298   -114.92722    34646.235 
   50000    304.50844   -1322.0212    401.12295    454.23971   -127.07844    34646.235 
   50100    304.70655   -1327.3343    433.56363     482.2619    100.14093    34646.235 
   50200    302.80212   -1343.9875     434.6456    458.09047   -191.48964    34646.235 
   50300    302.69092   -1344.6972    429.91613    452.14909   -405.08361    34646.235 
   50400    300.82526   -1377.8465    427.53971    408.19822    178.99776    34646.235 
   50500    303.82099   -1306.0636    436.40903    502.37893    204.69817    34646.235 
   50600    294.86473   -1336.8429    430.48913    425.23387    166.03263    34646.235 
   50700    290.31971   -1348.9423    436.08924    398.20962    749.32585    34646.235 
   50800    293.84737   -1305.6838    432.69489     454.0044    534.99078    34646.235 
   50900    301.02573   -1352.7414    431.25365    437.92249    975.66027    34646.235 
   51000    310.24393   -1384.2616    438.86337    455.64075    618.45703    34646.235 
   51100    301.02908   -1346.8412    442.66912    455.25331    952.00205    34646.235 
   51200    296.88376   -1314.0196    468.67828    495.36412    923.13707    34646.235 
   51300    297.68406   -1397.2928    405.26912     352.2959    27.276052    34646.235 
   51400    303.84512   -1369.0905    410.71137    413.76327   -415.22294    34646.235 
   51500    297.93532   -1374.3068    437.97201    409.11942   -67.913317    34646.235 
   51600    298.02166   -1357.7603    429.76245    417.84632   -1223.8937    34646.235 
   51700    305.88671   -1358.3108    413.44247    436.49377   -255.94854    34646.235 
   51800    292.19559   -1380.9381    403.42367    342.01955   -74.054379    34646.235 
   51900     296.0146   -1368.5561    418.21096     386.4353   -706.38249    34646.235 
   52000    288.18074   -1390.6231    403.71235    314.49251    -168.1549    34646.235 
   52100    306.27497    -1361.527    446.36557    467.95404   -217.85068    34646.235 
   52200     296.3729   -1336.2782    414.36888    416.48916   -136.74686    34646.235 
   52300    300.61715   -1386.8663    415.52584    386.22472   -78.677058    34646.235 
   52400    291.99715   -1376.4568    424.12488    366.30592   -165.85697    34646.235 
   52500    308.85988    -1363.536    436.84682    468.09954     -275.951    34646.235 
   52600     289.9979   -1323.5864    451.58117    437.60419    190.56436    34646.235 
   52700    290.43439   -1331.3256    456.44722    436.70224     344.1913    34646.235 
   52800    304.02245   -1355.7262    443.06314    460.28021    932.75991    34646.235 
   52900    296.05533   -1375.8121    421.59281    382.74497   -202.29347    34646.235 
   53000    313.77653   -1316.8722    409.21209    509.33187    319.58699    34646.235 
   53100    299.53473   -1333.1394     431.3569    450.89456    126.18421    34646.235 
   53200    293.70728   -1365.1455    432.61512    393.83038   -23.704674    34646.235 
   53300    303.14541   -1374.4019    441.47159    436.05235   -178.52628    34646.235 
   53400    306.48754   -1368.8571    432.22712    447.44544    38.500366    34646.235 
   53500    303.13567   -1403.2329    425.48881     391.1945   -48.016747    34646.235 
   53600    302.28622   -1341.5392    412.79436    436.35768    380.70862    34646.235 
   53700    295.95594   -1368.3262     428.4036    396.59289   -147.75649    34646.235 
   53800    289.94708   -1407.0353    420.00249     322.3471    90.295496    34646.235 
   53900    297.85192   -1370.6353    421.15051    395.59274     27.98141    34646.235 
   54000    304.17824   -1360.0653    420.92161    434.50311   -499.10607    34646.235 
   54100    289.85074    -1404.528    433.96818    338.38502   -566.24502    34646.235 
   54200      303.803   -1364.1524    450.58171    458.38157   -677.29004    34646.235 
   54300    308.00099   -1346.8312     431.9933    476.07214    660.32199    34646.235 
   54400    296.16137   -1368.0775    437.35092    406.71661   -107.30009    34646.235 
   54500    301.34456   -1375.4789    430.03822     415.4094    239.14438    34646.235 
   54600    305.59659   -1406.7596    411.56532    384.85765    100.63139    34646.235 
   54700    305.20846   -1367.2935    418.11778    429.12346    757.22079    34646.235 
   54800    298.91512   -1377.5702    431.97884     404.2875   -332.06336    34646.235 
   54900    299.97202   -1382.2335    433.40041    405.81876    226.29372    34646.235 
   55000    288.29647   -1399.5285     431.3403    333.73762   -8.6124021    34646.235 
   55100    305.94911   -1383.9815    408.25887    405.92128   -581.69516    34646.235 
   55200    297.32052   -1324.6501    424.20459    442.23237    472.98503    34646.235 
   55300    302.68241   -1382.0069     428.6096     413.4944    61.947617    34646.235 
   55400    300.83016   -1377.4502     417.9323    399.00925    253.61107    34646.235 
   55500    291.24098   -1355.0102    431.97008    392.18298     81.13369    34646.235 
   55600    294.22652   -1313.1358    425.87058    441.44031    462.70255    34646.235 
   55700    293.64076   -1353.4838    458.49701    431.07355    -188.3015    34646.235 
   55800    301.18189   -1323.7438    425.78972    462.16138   -396.07995    34646.235 
   55900    298.19554   -1349.8718    425.55263    422.31019   -301.83773    34646.235 
   56000    295.94223   -1354.7813    422.68885    404.36111   -601.44758    34646.235 
   56100     304.1246   -1321.4451    426.87431    478.83383   -445.20569    34646.235 
   56200    294.42043   -1354.1716    425.84857    401.25817   -916.82157    34646.235 
   56300     297.2419   -1369.9362    413.00762     385.3942   -210.06966    34646.235 
   56400    297.14216    -1374.554    403.91312    371.23149   -329.39633    34646.235 
   56500    295.92423   -1377.2145    430.74056    389.89831   -359.46255    34646.235 
   56600     291.2029   -1346.0522    453.79713    422.79606   -396.07011    34646.235 
   56700    287.81314   -1365.4258    422.84308    357.16046   -236.89877    34646.235 
   56800    309.51687    -1392.765    426.48055    431.47124    283.13571    34646.235 
   56900    295.07625   -1369.9575    447.51316     410.0985    220.85559    34646.235 
   57000    290.78956   -1371.2583    438.06857    379.99474    326.08145    34646.235 
   57100    302.70694   -1369.7287    438.63519      435.909    581.38676    34646.235 
   57200    298.28361   -1391.0787    440.57106    396.51947    627.51572    34646.235 
   57300    303.75275    -1372.537    434.37673      433.565    942.20747    34646.235 
   57400    291.60852   -1350.5379    459.64696    425.99194    788.40518    34646.235 
   57500    290.74149    -1390.275    429.18613    351.87855    971.33125    34646.235 
   57600    303.31517   -1421.3943    422.05344    370.40842    730.95868    34646.235 
   57700    285.48416   -1425.3232    428.15643    292.05889    304.20841    34646.235 
   57800    297.68999   -1405.3985    427.63808    366.58596   -20.511292    34646.235 
   57900    310.71052   -1381.0383    430.43801    452.54583    145.15095    34646.235 
   58000    297.52507    -1399.074    467.24209    411.76968    688.04094    34646.235 
   58100    300.89531   -1375.9853    445.86343    428.69941    351.66424    34646.235 
   58200    311.00896    -1409.401    404.46671    399.55958    84.846623    34646.235 
   58300    304.74828   -1380.9481    427.38962    422.66258    60.830641    34646.235 
   58400    306.67769   -1420.4294    437.51186    402.01658    231.55075    34646.235 
   58500    312.71262   -1348.8894    436.12692    499.42499    447.86188    34646.235 
   58600     299.5539   -1380.8094    433.81099    405.76527     404.2664    34646.235 
   58700    300.38224   -1444.8904    426.36989    337.98388    413.41518    34646.235 
   58800    294.43785   -1396.5611    453.62727    386.72609    32.636159    34646.235 
   58900    298.26698   -1371.3075    437.43071    413.07514     159.6364    34646.235 
   59000    303.14707   -1366.3778    446.14814     448.7604    302.54413    34646.235 
   59100    299.03951   -1370.5406    438.68594      418.586    199.68357    34646.235 
   59200    299.45085    -1364.727     446.9498      434.521    356.73919    34646.235 
   59300    299.23968   -1377.7639    466.16886    439.74955   -32.289739    34646.235 
   59400    312.05129   -1379.0528    472.12367    502.27178   -15.310567    34646.235 
   59500    296.06068   -1385.9952    432.52674    383.52006    360.44807    34646.235 
   59600    296.85247   -1406.6862    466.28961    400.16757    141.88899    34646.235 
   59700    300.94881   -1426.0123    469.01475    402.06542   -64.398916    34646.235 
   59800    296.74148   -1424.2823    441.48761    357.26825    910.96884    34646.235 
   59900    292.13061    -1405.548    453.75691    367.44945    833.63351    34646.235 
   60000    295.26136   -1411.8997    432.09731    353.57647    670.05548    34646.235 
   60100    310.33799   -1392.1602    432.03364    441.33717    167.59443    34646.235 
   60200    298.94283   -1403.9968    452.32449    398.33174     153.8491    34646.235 
   60300    292.67249    -1387.187    443.67545    378.17607   -367.30971    34646.235 
   60400     292.3265   -1374.7706    444.92972    390.28436   -182.90421    34646.235 
   60500    277.77369   -1339.8081    463.23268    377.83031   -787.32992    34646.235 
   60600    307.72816   -1383.9704    465.88251    471.59006   -528.50124    34646.235 
   60700    300.01618    -1448.282    433.63466    340.20394   -1.3637689    34646.235 
   60800    292.41754   -1453.6419    424.61723    291.51171   -395.19374    34646.235 
   60900    301.64811   -1434.9849    448.51916    375.75523    21.557372    34646.235 
   61000    295.16244   -1441.1893    484.25922    376.00202   -535.46296    34646.235 
   61100    294.29386   -1441.5871     460.5718    347.99438    -281.8742    34646.235 
   61200    311.84072   -1479.2357    452.93924    381.95355   -233.34747    34646.235 
   61300    301.69158   -1411.0284    456.17914      407.568    143.18806    34646.235 
   61400    288.41712   -1402.0739    440.97502    341.37187   -295.50798    34646.235 
   61500    300.23678   -1398.9752     462.3111    419.18336   -94.816579    34646.235 
   61600     292.0019   -1382.6849    466.62349    402.59794    110.45582    34646.235 
   61700    299.18794   -1404.5386     451.0606    397.63295    399.28234    34646.235 
   61800    301.66703   -1400.0384    455.89799    418.16592    276.10141    34646.235 
   61900    294.78143   -1397.5336    465.64137    399.31931    908.28639    34646.235 
   62000     299.0754   -1390.9377     453.0238    412.68889    55.959658    34646.235 
   62100    297.54474   -1389.9849      463.012    416.71749    27.687924    34646.235 
   62200    294.31079   -1360.5739    455.80868    424.32085   -159.68214    34646.235 
   62300    295.47899   -1396.8604    439.86222     377.3634   -169.08035    34646.235 
   62400    289.42092   -1332.4461    465.39445    439.95215   -60.901605    34646.235 
   62500    296.16958   -1355.1154    474.86022    457.22508   -450.73321    34646.235 
   62600    309.69967   -1387.9752    440.06856    450.67455   -15.032461    34646.235 
   62700    303.89319   -1352.7769    464.24511    483.82775   -178.48653    34646.235 
   62800    306.64939   -1324.1691    470.15886    530.79611   -109.76128    34646.235 
   62900    301.53414   -1395.0305    467.70994    434.38565    281.90136    34646.235 
   63000    294.96743      -1367.5    466.30071    430.85215    -277.8307    34646.235 
   63100     294.6003   -1401.2799     454.8911    384.00472   -723.93829    34646.235 
   63200    300.79538   -1373.3431    460.45273    445.47965   -93.582194    34646.235 
   63300    292.38002   -1426.6448    435.29396    329.01607   -893.78316    34646.235 
   63400    301.85136   -1423.2159    467.47563    407.39857   -164.61388    34646.235 
   63500    305.70234   -1437.2969     436.0248    379.25737    561.61428    34646.235 
   63600    295.27769   -1420.2077     470.1125     383.3574    634.08812    34646.235 
   63700    289.75689   -1385.3833     450.7275    373.86525    120.38646    34646.235 
   63800    299.87591    -1422.497    448.18523      379.906    284.51007    34646.235 
   63900    305.17084   -1441.1463    455.85946    392.84246    -184.2673    34646.235 
   64000    299.70662   -1405.0304    450.47234    398.89528    223.52864    34646.235 
   64100    302.73578   -1409.9975    468.59659    425.73186    234.87471    34646.235 
   64200    301.27176   -1400.9997    481.63447    441.15609    86.415594    34646.235 
   64300    301.91115   -1439.1267    472.55442    396.83653    326.03611    34646.235 
   64400    307.86037   -1420.4335    461.15389    430.99537   -205.45872    34646.235 
   64500    314.17087   -1403.9266    439.44592    454.29212   -918.09792    34646.235 
   64600     305.9514   -1383.1573    459.62992    458.12685    -48.85094    34646.235 
   64700    298.66645   -1410.5526    419.60701    357.81034   -3.4635248    34646.235 
   64800     299.0532    -1442.807    465.02189    372.71742   -696.80828    34646.235 
   64900    301.00133   -1382.9202     435.9036    412.28348   -246.62812    34646.235 
   65000    311.54907    -1403.358    442.79568    446.37065   -164.38249    34646.235 
   65100    294.68926   -1378.5793     459.0958    411.31174   -937.89279    34646.235 
   65200     292.7157   -1362.1598    492.70265    452.42559   -763.25961    34646.235 
   65300    307.59473   -1415.6268    475.46666    448.91526   -529.20868    34646.235 
   65400    291.52426    -1382.578    465.23446    399.15879   -659.70049    34646.235 
   65500    287.15378   -1350.9301    480.71594    426.55148   -575.14569    34646.235 
   65600    291.43936   -1409.5065      452.665    359.27738   -749.79596    34646.235 
   65700    300.84881   -1410.0919    450.81348     399.3329   -525.40554    34646.235 
   65800     298.4405   -1395.4442    483.72771     436.0191   -1039.6473    34646.235 
   65900    310.76909   -1359.0551    448.41639     492.7719   -467.08566    34646.235 
   66000    302.29675   -1391.9076    453.64598    426.88847   -337.37899    34646.235 
   66100    302.35957    -1400.225    453.53084     418.7396    143.04146    34646.235 
   66200    296.86759    -1381.348    450.92564    410.21008   -298.23933    34646.235 
   66300    304.22196   -1401.6441    469.88152    442.08164   -147.15119    34646.235 
   66400    293.96571   -1393.9998     468.1406    401.66855   -1001.6186    34646.235 
   66500    303.79405   -1391.6665    451.34836    431.59373   -788.88264    34646.235 
   66600    301.99892   -1411.2456    469.11946    421.67906   -389.53332    34646.235 
   66700    297.29236   -1402.4553    465.61099    405.70636    424.34312    34646.235 
   66800     297.4246   -1449.0589    475.26503    369.35397   -177.93355    34646.235 
   66900     306.3627   -1421.0044    481.35715    443.86439    488.75999    34646.235 
   67000    300.39078   -1406.4859    460.99544    411.05245    423.68489    34646.235 
   67100    298.46104    -1390.832    465.44776     422.4441    900.60604    34646.235 
   67200    308.71611   -1400.4175    478.20448    471.92643    721.77083    34646.235 
   67300    304.21192   -1432.2503    456.07735    397.62596     176.3662    34646.235 
   67400    295.26684   -1406.8313    466.21384    392.78608   -76.487316    34646.235 
   67500    297.68732   -1430.2518    474.66618    388.74864   -348.85949    34646.235 
   67600    290.25766   -1464.0586    444.36279    291.08666    286.14482    34646.235 
   67700    295.83192   -1405.7771    456.26137    386.43968    346.86303    34646.235 
   67800    294.80193   -1416.1852    483.24561    398.36451   -172.71909    34646.235 
   67900    298.20518     -1417.28    431.26274    360.65558    334.39017    34646.235 
   68000    306.39985   -1407.6124    444.64169    420.70874   -363.71436    34646.235 
   68100    299.31446   -1431.6988    459.73741    379.72095   -283.60402    34646.235 
   68200    306.49803   -1404.0468    485.11476    465.19079    797.20017    34646.235 
   68300     304.8391   -1432.1942    478.87048    423.30749    435.89959    34646.235 
   68400    304.06064   -1390.7076    463.13699    445.54515    240.91867    34646.235 
   68500    293.91473   -1429.2099    496.77394    394.86162    212.33387    34646.235 
   68600    302.29845   -1427.5862    469.00743    406.57902    189.85752    34646.235 
   68700    302.93646   -1461.3351    467.02508    373.72895    410.84644    34646.235 
   68800    303.01586   -1427.5623    466.50522    407.34047    212.40479    34646.235 
   68900    288.42829   -1458.3248    476.42274    320.61912   -95.725003    34646.235 
   69000    299.44652   -1463.0003    470.23295    359.51133   -22.395756    34646.235 
   69100     290.6755   -1433.5952    453.99929    333.07352   -684.17869    34646.235 
   69200    293.14412   -1435.0777    465.13911    353.87886    -505.7275    34646.235 
   69300    297.68537   -1417.0943    454.98154    382.21273   -234.63646    34646.235 
   69400    310.44178   -1435.5936    477.95199    444.29084   -163.25002    34646.235 
   69500     298.8165   -1409.2242     471.8484    412.05774   -247.59226    34646.235 
   69600    306.84653   -1397.2153    464.42683    452.90815    223.21629    34646.235 
   69700    300.33349   -1409.8667    454.57012     400.9876   -283.43341    34646.235 
   69800    303.41562    -1402.415    478.59503    446.38289   -388.58234    34646.235 
   69900    309.52599   -1387.9874    482.92319    492.73267   -168.22233    34646.235 
   70000    303.78342   -1476.0433    453.78666    349.60716    142.30781    34646.235 
   70100    296.80366   -1416.7101    464.32263    387.95623    445.20504    34646.235 
   70200    299.66895   -1394.6997    457.71566     416.2991    9.6440109    34646.235 
   70300    292.90001   -1426.5073    451.42999    347.63778    598.86095    34646.235 
   70400    305.46761   -1438.0851    474.40063    415.78506   -449.72925    34646.235 
   70500    312.26007    -1426.591    442.89095    426.44375    116.00683    34646.235 
   70600    301.56837   -1406.0494    441.83495    397.64632   -522.33265    34646.235 
   70700    305.20999   -1463.2564    440.03168    355.08137   -566.45837    34646.235 
   70800    301.01982   -1453.3544    460.31269    366.34188   -499.25679    34646.235 
   70900    294.85349   -1458.8964    454.82544    327.46595   -58.179099    34646.235 
   71000    305.23093   -1429.6942    455.35871    404.06514    -95.22321    34646.235 
   71100    310.19952   -1411.6002     456.5719    445.81011   -601.91358    34646.235 
   71200    294.99721   -1422.2319    481.62201    391.57601   -373.06656    34646.235 
   71300    293.76194   -1410.8749    444.64385    360.37653     285.5631    34646.235 
   71400    313.74383   -1414.9472    470.25211    472.14921    944.97261    34646.235 
   71500    313.62209   -1428.6596    447.06408      434.699    771.64503    34646.235 
   71600    294.57768   -1475.8473    436.93063    291.37473    505.01497    34646.235 
   71700    302.91099   -1459.8424    452.51672     360.5983    416.90619    34646.235 
   71800    294.66563     -1457.72     488.6622    361.63078    339.17831    34646.235 
   71900    299.41518   -1466.1104    443.93934    329.96607    690.08658    34646.235 
   72000    292.93029    -1513.221    459.86551    269.49639   -139.54323    34646.235 
   72100    308.97661   -1455.5283    444.11914    383.90671    40.899947    34646.235 
   72200    295.85195   -1424.1107    462.26319    374.19832   -110.76717    34646.235 
   72300    300.01129   -1419.3894     481.1789    416.61864   -277.12626    34646.235 
   72400    292.03763   -1462.4338    474.83256    331.21951   -675.27011    34646.235 
   72500    298.63836   -1440.6145    450.40788    358.42249   -207.41853    34646.235 
   72600    299.64399   -1414.1337    494.64333    433.68009   -939.56257    34646.235 
   72700    302.44558   -1393.7618    458.45303    430.51352   -744.80748    34646.235 
   72800    300.00433   -1379.7939     459.7872    434.79102   -401.03813    34646.235 
   72900    292.60373   -1408.4253    470.44682    383.39862    -70.52419    34646.235 
   73000    308.51616   -1456.0035    476.37628     413.6093   -40.978929    34646.235 
   73100    297.68622   -1418.4496    458.13842     384.0181    96.123456    34646.235 
   73200    297.10004     -1428.98    475.56376    388.26593   -700.62294    34646.235 
   73300    304.08322   -1399.8499    490.95771     464.3255   -160.54822    34646.235 
   73400    305.83422   -1396.4251    463.29482    447.99482   -28.426503    34646.235 
   73500    296.71015   -1461.1798    461.23416    339.97578    214.66819    34646.235 
   73600    305.30414    -1393.202     488.0845     473.6138     181.3329    34646.235 
   73700    305.31228   -1409.4575    481.91774    451.22824    961.14425    34646.235 
   73800    303.50711   -1452.8342    483.20763     400.9895   -7.7192508    34646.235 
   73900    301.17816   -1448.5472    460.22113    371.77258    455.70231    34646.235 
   74000    308.30828   -1457.2268    476.91537    411.98635    650.23288    34646.235 
   74100    301.58093   -1460.3479    487.20761     388.7773    164.51365    34646.235 
   74200    294.67713   -1472.0157    486.77228    345.49708   -30.566015    34646.235 
   74300    295.95236   -1460.5053    457.49794    333.49196   -433.22423    34646.235 
   74400    315.72167    -1434.562    484.56497    475.77907    198.62606    34646.235 
   74500    304.43622   -1454.1077    474.29211    394.99619    104.87044    34646.235 
   74600    308.11107   -1411.1505    484.98333       465.24    488.55537    34646.235 
   74700     302.6292   -1444.2775     463.4021    385.77605    485.06235    34646.235 
   74800    295.47141    -1401.932     447.9174    380.31281   -93.303951    34646.235 
   74900    304.35366   -1450.4531     483.1587    407.14458   -458.62134    34646.235 
   75000    291.08159   -1475.9215    450.39133    288.97309    304.33017    34646.235 
   75100    300.76253   -1514.4063    462.09106    305.90647    56.772692    34646.235 
   75200     288.6827   -1441.8661    474.41607    336.22005   -393.14506    34646.235 
   75300     295.9881   -1468.4936    490.51059    358.67769   -31.797795    34646.235 
   75400    307.09898    -1462.951    483.39675    407.28237    46.321599    34646.235 
   75500    302.77116   -1448.4434    473.54898    392.39809    66.191884    34646.235 
   75600    305.68997   -1452.4747    470.80016    398.79913   -2.0842954    34646.235 
   75700    300.22102   -1454.2941    453.23464    354.71678   -227.84759    34646.235 
   75800    293.06683   -1441.9587    481.50076    363.01052   -233.03338    34646.235 
   75900    294.41024   -1466.3058    469.70593    332.93533   -274.84543    34646.235 
   76000    296.41301   -1449.8386    472.81307    361.55411    386.94221    34646.235 
   76100    307.59678   -1434.5321    445.84358    400.39615   -411.04369    34646.235 
   76200    307.34602   -1406.7415    459.63991    440.85066   -1254.1403    34646.235 
   76300    306.80916   -1419.8699    489.38505    455.04303   -392.70814    34646.235 
   76400      297.781   -1457.1577    467.04015    354.63978   -567.73101    34646.235 
   76500    299.99076   -1428.7892    464.43039    390.37765   -378.34457    34646.235 
   76600    301.19818   -1441.1157    474.10474    393.17816   -185.82438    34646.235 
   76700    294.93825   -1447.9736    476.42172    360.36782    130.09377    34646.235 
   76800    297.78868   -1408.0325    480.42421     417.1837    88.130645    34646.235 
   76900     291.5894   -1428.5709    494.04251     382.2681    35.123905    34646.235 
   77000    296.24414   -1408.2705    489.00103    418.54747    130.13532    34646.235 
   77100    301.21666   -1402.6233    460.43462    418.08385    544.95631    34646.235 
   77200     300.9845   -1440.5061    485.61089    404.32889    1242.6379    34646.235 
   77300    309.82667   -1433.0424    479.85118    445.96347    1340.8879    34646.235 
   77400     300.5331   -1381.1488    480.63288    456.66963    721.66231    34646.235 
   77500     296.2664   -1363.0284    494.19694    469.08603    325.26609    34646.235 
   77600    303.54015    -1377.812    521.33515    514.28835   -3.3035794    34646.235 
   77700    292.38746   -1401.6345    477.18293    395.94894   -167.29301    34646.235 
   77800    303.33871   -1368.1879    507.08656    508.75417   -996.19679    34646.235 
   77900    297.42519   -1387.3803     470.0509    425.82117   -788.09152    34646.235 
   78000    309.41876   -1407.0123    464.59739     454.8977    104.82598    34646.235 
   78100    299.82423   -1381.3679    479.31689    451.93338   -306.17291    34646.235 
   78200     307.3842   -1377.0589    474.45284    485.51861   -156.65592    34646.235 
   78300     300.2568   -1368.2931    461.92155    449.56632    311.39675    34646.235 
   78400    301.00168   -1423.7485    494.50837     430.0616    471.15449    34646.235 
   78500    301.83699   -1439.6046    479.16951    402.63881    335.59209    34646.235 
   78600    308.49222    -1425.127    476.53852    444.53995   -369.91826    34646.235 
   78700    309.81685   -1410.8951    454.75811    442.97341   -118.71577    34646.235 
   78800    295.37738   -1455.9589     470.4477    348.39159    -40.78293    34646.235 
   78900    292.67279   -1457.5185    460.64861    324.81908   -851.28013    34646.235 
   79000    306.01604   -1409.2769    460.12898    432.79827    4.1733641    34646.235 
   79100    294.56347   -1426.7961    476.05058    379.48172   -536.28467    34646.235 
   79200    308.20721   -1418.4268    482.86073     456.2753   -725.21681    34646.235 
   79300    300.41642   -1415.1597    482.68907    424.18809   -1163.0876    34646.235 
   79400    295.48531   -1423.1293    472.22268    383.48354   -551.14486    34646.235 
   79500    301.86912   -1433.1313    472.74504    402.83268    183.59215    34646.235 
   79600    300.99312   -1401.1413    492.32607    450.44773    109.93655    34646.235 
   79700    307.91427    -1396.337    496.76279     490.9442    -173.3683    34646.235 
   79800    300.57784   -1353.6537    495.00686    498.74076    228.01619    34646.235 
   79900    294.59564    -1409.766    473.58522    394.19173   -937.82075    34646.235 
   80000    300.71033   -1465.6074    473.07999    365.45857   -441.04203    34646.235 
   80100    294.87644   -1413.3614    472.31389    390.59303    188.20972    34646.235 
   80200    311.39856   -1414.9527    485.86467    477.16521    130.56591    34646.235 
   80300    300.10505   -1440.0256    492.43332    407.66034    231.77946    34646.235 
   80400    298.89863   -1409.3781    473.05957    413.48596   -191.33727    34646.235 
   80500    284.32989   -1422.3577    471.67619    333.33155    -131.6607    34646.235 
   80600    308.00767   -1411.9492    494.14153    473.13257    424.18494    34646.235 
   80700    295.46252    -1394.472      468.225    408.04018    904.11753    34646.235 
   80800    305.12739   -1424.4498    502.07875    455.56207    574.38379    34646.235 
   80900    312.26205   -1385.2651    488.93245    513.82006    195.93296    34646.235 
   81000    306.85131   -1387.4769    463.69886    461.94018    635.70863    34646.235 
   81100    298.14318   -1461.9122    481.47154    365.95225   -16.588833    34646.235 
   81200    284.91798    -1507.131    489.07587    268.61377   -345.89993    34646.235 
   81300    299.07592   -1471.2461    493.30667    372.66566    387.17841    34646.235 
   81400     298.3195    -1464.061    495.76652    378.89468    552.84314    34646.235 
   81500    308.40182   -1444.8592    469.24112    417.10208    215.12621    34646.235 
   81600     303.8344    -1439.871    470.37972    402.60278    332.74012    34646.235 
   81700    304.46366    -1402.658    467.78592    440.06365    44.762377    34646.235 
   81800    293.74775   -1429.3597    484.42074    381.60454    596.78445    34646.235 
   81900    292.96683   -1457.2214    477.02598    342.82153    676.08903    34646.235 
   82000     304.4824   -1458.2514    482.24969    399.01864    180.60034    34646.235 
   82100    308.50611   -1449.7237    463.37277    406.84018    633.01416    34646.235 
   82200    298.88399   -1443.5095    467.79651    374.02539    33.022889    34646.235 
   82300    295.31501   -1468.6531    485.95801    350.92603    612.59965    34646.235 
   82400    296.78212   -1453.8256    515.61707    402.03792     89.12492    34646.235 
   82500    294.71803   -1442.8471    482.67303    370.75113   -500.17679    34646.235 
   82600    306.17851   -1432.3226    487.79958    438.15684   -450.37983    34646.235 
   82700    291.82256   -1410.6485    492.22383    399.42476    15.052856    34646.235 
   82800    296.90325   -1425.2928    485.58049    401.08115    35.584556    34646.235 
   82900    291.13663   -1432.5825    496.29766    378.46703     75.08857    34646.235 
   83000    297.16661   -1410.9378    473.24538    404.29034    -239.2358    34646.235 
   83100    307.84659   -1458.9992    484.49532    415.70896    322.44206    34646.235 
   83200    307.19761   -1388.4543     497.8321    496.65984    730.28426    34646.235 
   83300    303.31364   -1417.1848    484.34385    436.90135    811.75169    34646.235 
   83400    293.62786   -1377.6552    468.43061    416.77746    157.26309    34646.235 
   83500    304.01024   -1379.2847    509.70082    503.30421    471.24531    34646.235 
   83600    288.31397   -1434.6127    500.78178    368.17404   -260.52501    34646.235 
   83700    302.90257   -1399.4126    484.23938    452.71269    9.3549344    34646.235 
   83800    307.67765   -1427.5698    488.39852    450.27857   -130.10135    34646.235 
   83900    310.78617     -1386.82    475.33477     492.0025    319.25429    34646.235 
   84000    293.14765   -1438.9074    493.04122    377.96732    424.24148    34646.235 
   84100    284.05336   -1442.0368    472.06948    312.79698    359.55657    34646.235 
   84200    306.26917   -1450.7002    518.56834    450.95739    693.74518    34646.235 
   84300    303.03587   -1440.4033    488.14811    416.23275    206.93898    34646.235 
   84400    293.01659    -1435.583    473.06223    360.72088    -299.5549    34646.235 
   84500    292.29593   -1482.0154    486.79734    324.76914   -542.12795    34646.235 
   84600    308.40662   -1448.1182    488.88427    433.50791   -758.45742    34646.235 
   84700    292.53739   -1427.4384    467.94143    361.58061   -838.22485    34646.235 
   84800    320.61891    -1468.981    467.24852    446.15923    -254.3544    34646.235 
   84900     309.4164   -1426.9845    496.17355    466.49104   -35.999363    34646.235 
   85000    298.70458   -1466.0504    481.50601    364.38377   -30.841049    34646.235 
   85100    306.84862   -1490.7029    497.29953    392.30265   -169.97498    34646.235 
   85200    299.91539   -1457.9959     489.3826    385.78278    325.24861    34646.235 
   85300     307.5124    -1444.983    494.82661    438.54721    1079.9085    34646.235 
   85400    296.28488   -1456.2266     481.1643    362.93866    691.76361    34646.235 
   85500    300.79523   -1497.9193      465.305     325.7551    364.33097    34646.235 
   85600     304.6175   -1509.4258    490.12114    356.32577     916.0553    34646.235 
   85700    287.18464   -1476.2708     506.5881    327.22221    1018.7478    34646.235 
   85800     308.1233   -1445.4284    484.58217    430.61616    671.20347    34646.235 
   85900    307.72617   -1494.1701    500.43513    395.93405    251.39484    34646.235 
   86000    324.02722   -1480.1194    465.86769    449.03167    423.11568    34646.235 
   86100    304.31422   -1477.9086    500.21073      396.563    158.94326    34646.235 
   86200    306.81435   -1444.1788    508.73274     450.1052    301.45683    34646.235 
   86300    301.46685   -1443.8301    514.85221    432.42446    45.222011    34646.235 
   86400    302.69857   -1447.4969    510.47018    429.93801    365.33596    34646.235 
   86500    308.83907   -1449.4079    469.55074    414.83761     264.3325    34646.235 
   86600    302.69987   -1443.2864    506.49283    430.17702    334.07239    34646.235 
   86700    285.13145   -1450.9021    501.91032    338.64113    298.89597    34646.235 
   86800    303.62048   -1424.3224    475.64002    422.44559    70.570268    34646.235 
   86900    296.70299   -1440.7027    500.63402    399.82039    482.02716    34646.235 
   87000    292.68143   -1478.7017    502.32527    345.35156     92.34941    34646.235 
   87100    307.75866   -1418.8968    486.83696    457.75582    629.69945    34646.235 
   87200    302.72572   -1417.5017    486.04036    435.62601     398.5565    34646.235 
   87300    296.25711   -1498.9345    516.33344     355.2745   -27.454998    34646.235 
   87400    310.70854   -1462.5296    482.30659    422.91418    621.24905    34646.235 
   87500    302.50889    -1484.795     487.7389    369.05204    443.02899    34646.235 
   87600    300.25818   -1500.3065    487.13616    342.77375    251.73573    34646.235 
   87700    292.74368   -1442.6818    508.52261    387.85002    651.34741    34646.235 
   87800    309.65605   -1486.3761    498.50521    410.51334    162.15506    34646.235 
   87900     296.3983    -1468.759    485.44481    355.19897    691.00376    34646.235 
   88000    293.49437   -1427.9876    490.51726     387.9289   -295.14383    34646.235 
   88100    297.03669   -1451.7173    500.48044     390.1592   -554.53427    34646.235 
   88200     299.2112   -1421.5539    528.21774    457.87979   -128.56644    34646.235 
   88300    296.05684   -1453.6562    499.32956    382.64445   -559.09503    34646.235 
   88400    292.80953   -1430.5552    469.18728    360.93862   -310.90871    34646.235 
   88500    304.11405   -1495.8347    510.59159    388.11383    -432.1029    34646.235 
   88600    301.94137   -1495.5499    467.10965      335.105    15.263054    34646.235 
   88700    297.92047   -1457.3763    524.98271     412.9936    54.711882    34646.235 
   88800    292.04873   -1446.0703    482.46072    355.26124    277.91108    34646.235 
   88900    307.19766   -1415.5552    507.35753    479.08459    102.94752    34646.235 
   89000    311.22016   -1407.6978    505.39649    503.14624    195.47621    34646.235 
   89100    299.16082   -1418.0628    501.12698    434.05266   -276.45579    34646.235 
   89200    298.53923   -1430.8764    497.93763    415.24262   -457.67857    34646.235 
   89300      299.135   -1461.2317     498.4799    388.12013   -436.99682    34646.235 
   89400    305.72586   -1491.2762    491.49108     380.8506    101.54102    34646.235 
   89500    298.01079   -1455.2806     521.7381    412.25252    25.714813    34646.235 
   89600    303.36548   -1469.8609    488.39764    388.51313    354.60151    34646.235 
   89700    288.69696   -1424.8234    502.43809    381.34909   -67.283206    34646.235 
   89800    308.60646   -1425.2273    510.14538    478.56239    279.18241    34646.235 
   89900    295.65228   -1484.8819    507.71481    357.97709   -71.313089    34646.235 
   90000     298.3999   -1420.1452    513.10972     440.5168   -213.09412    34646.235 
   90100    297.99387   -1418.3366    485.30099    412.68296   -298.29337    34646.235 
   90200    313.44082   -1453.4693    491.98855    453.99513   -892.37534    34646.235 
   90300    309.13125   -1419.3416     515.8982    492.57082   -425.70913    34646.235 
   90400    307.95487   -1406.6618    513.55906    497.59908   -473.84194    34646.235 
   90500    309.74396   -1440.7027    486.08295    444.16139   -271.28634    34646.235 
   90600    292.48183   -1399.2625    509.37345    430.93766   -325.65252    34646.235 
   90700    310.13377   -1414.8054    516.95263    502.68881   -1169.8469    34646.235 
   90800    289.05542    -1415.575    481.42034    371.19853   -1094.8118    34646.235 
   90900    311.03204   -1417.1103    522.68967    510.17745   -894.34341    34646.235 
   91000    295.69188   -1385.0735     524.4483    474.69783   -237.28697    34646.235 
   91100    309.94953   -1420.8945    466.78349    445.59854   -35.632295    34646.235 
   91200    306.22164     -1420.85    482.87943    444.90409    40.772676    34646.235 
   91300    288.54721   -1381.4963    521.18759    442.74945    165.11877    34646.235 
   91400     289.9848   -1378.3034    513.35488    444.60174    226.25715    34646.235 
   91500    291.13772   -1426.5654    486.42366      374.615     0.444348    34646.235 
   91600    299.53308   -1420.6174    511.52563    443.57782    25.264239    34646.235 
   91700    295.70952   -1463.2849    529.60259    401.72032   -355.06712    34646.235 
   91800    295.56678   -1424.2271    493.24692    403.77789    255.75278    34646.235 
   91900    307.36021    -1456.178    517.71485    449.55314   -398.82247    34646.235 
   92000    288.06222   -1429.0433      475.454    347.27871     -538.567    34646.235 
   92100    301.00813   -1435.1326    498.44197    422.64021   -126.36737    34646.235 
   92200    298.82398   -1420.3496    481.06817    410.18589    122.37036    34646.235 
   92300    299.80293   -1427.5852    502.70356    429.00661   -23.324923    34646.235 
   92400    291.51798   -1421.9188    488.43522    382.99038   -230.14685    34646.235 
   92500     290.7161   -1455.0383    511.03702    368.85147   -1016.2594    34646.235 
   92600    291.03235   -1458.3533    513.26629     369.1939   -481.24529    34646.235 
   92700      301.141   -1409.2435    513.38938    464.07678    43.295119    34646.235 
   92800    309.97819   -1411.4564    490.76102     479.1435    427.09037    34646.235 
   92900     285.0645   -1465.1944    505.78702    327.92314    75.374505    34646.235 
   93000    288.69809   -1472.6734    498.23679    329.30294    818.91007    34646.235 
   93100    307.34451   -1494.8212    494.09579    387.22007    489.61183    34646.235 
   93200    295.04132   -1437.0471    511.31404     406.6521    61.943697    34646.235 
   93300     295.7895   -1466.4665    484.37392    353.67126   -296.21151    34646.235 
   93400    303.96851   -1467.7585    495.49009    400.43124   -238.77819    34646.235 
   93500    303.21744   -1418.9089    519.89506    470.29403   -290.64946    34646.235 
   93600    298.35937   -1427.7549    502.05203    421.66627   -175.52457    34646.235 
   93700    290.54457   -1439.2564    491.97938    364.80109   -9.6815041    34646.235 
   93800    301.43908   -1484.4228    510.14162    386.99572    145.08095    34646.235 
   93900    299.70024   -1476.6517    481.17237    357.94514     209.9316    34646.235 
   94000    300.53855   -1458.1285      474.991    374.07269   -536.05535    34646.235 
   94100    292.58121    -1472.619    485.22938     333.8858   -245.20337    34646.235 
   94200    293.24116   -1454.9902    500.07074    369.33633   -318.60105    34646.235 
   94300    305.01022   -1495.8067    503.82953     385.4268   -120.25857    34646.235 
   94400    306.93991   -1470.2204    470.44805     386.3459   -18.766436    34646.235 
   94500    293.26471   -1502.6384    489.52819    311.25184    130.87772    34646.235 
   94600    308.04281   -1523.7825    511.91664    379.23308     194.7999    34646.235 
   94700    283.74756   -1505.2534    493.15217    269.28215   -224.67882    34646.235 
   94800    303.21948   -1492.4006    500.51806    377.43459    -75.90579    34646.235 
   94900    295.69015   -1464.2627    473.30148    344.35399    -303.4369    34646.235 
   95000    286.38404   -1467.7274    508.14779    333.70992   -483.70623    34646.235 
   95100    303.52785   -1509.1068     487.2125    348.81539   -355.54184    34646.235 
   95200    294.08304   -1501.6942    526.79511    353.15847   -539.46906    34646.235 
   95300    303.34598   -1457.6452    493.68361    405.92679   -261.72951    34646.235 
   95400    300.57159   -1453.1971    500.27243    404.43481    -417.3897    34646.235 
   95500    295.46657   -1470.4457    507.39588    371.25573   -306.72143    34646.235 
   95600    309.36775   -1452.7372     481.5553    425.90038    198.33714    34646.235 
   95700    283.46939   -1463.9856    527.83344    343.97499    258.95509    34646.235 
   95800    298.56901   -1452.6729    506.24146    401.88445   -13.368852    34646.235 
   95900     302.5877   -1448.1389    512.60599    430.93116    685.82717    34646.235 
   96000     304.5097   -1457.6949    490.81933    408.26812     330.3343    34646.235 
   96100    308.21788   -1481.5074    492.37277    402.75482    840.44324    34646.235 
   96200    300.70706   -1480.8178    485.00719    362.16064    632.27904    34646.235 
   96300    297.67549   -1470.0817    504.66622     378.8654    133.57587    34646.235 
   96400    304.88574   -1480.1825    526.26583    422.92513    329.58663    34646.235 
   96500    312.29731   -1471.3882    512.61431     451.5381   -65.462629    34646.235 
   96600    305.98331   -1468.2897    486.37407    399.88272    -368.5893    34646.235 
   96700    298.86131   -1428.4742     487.8446    409.00633   -109.00611    34646.235 
   96800    296.96359   -1453.8046    508.57927    395.84067    24.795295    34646.235 
   96900    301.69648   -1473.1972    502.49918    391.74131   -66.028879    34646.235 
   97000     296.2934   -1423.2319    495.58879    410.39628    117.63525    34646.235 
   97100    305.89515   -1444.6437    492.41757    429.17405    -156.7303    34646.235 
   97200    300.88778   -1487.4718    485.11837    356.43388   -310.85976    34646.235 
   97300     299.1282   -1449.7489    526.15911    427.25139   -740.29936    34646.235 
   97400    301.10509   -1438.5905    480.46759    401.64577   -137.79623    34646.235 
   97500     299.6637   -1460.8869    518.88899    411.26153   -609.73163    34646.235 
   97600    296.02049   -1467.8306     495.9696    364.94595   -510.36805    34646.235 
   97700    299.12646   -1442.0918    503.84463    412.58616   -18.386838    34646.235 
   97800    297.11634   -1439.9075    494.08552    395.93376     50.36243    34646.235 
   97900    310.16087   -1420.8264    488.41305    468.25053    111.56382    34646.235 
   98000    302.79286   -1430.9069      477.912    414.39563   -358.85592    34646.235 
   98100    294.19029    -1453.087    524.63608    400.09098   -521.88605    34646.235 
   98200    310.78615   -1440.7679    480.99128    443.71103   -310.69634    34646.235 
   98300     307.1005   -1478.4558    477.12874    385.51646   -1045.2603    34646.235 
   98400    306.57174   -1428.0364    496.70944    453.12877   -855.75327    34646.235 
   98500     308.3667   -1423.1802    484.50117    453.88258   -544.50244    34646.235 
   98600    295.80429   -1413.4199    492.66372    415.07449   -426.15168    34646.235 
   98700    300.91676   -1451.3363    471.16043    378.74233    7.1936644    34646.235 
   98800    310.87391   -1496.3024    481.59093    389.17243   -123.71984    34646.235 
   98900    295.69305   -1436.5482    496.01338    394.79351   -635.75246    34646.235 
   99000    302.50896   -1452.0608    509.23853    423.28622   -217.14244    34646.235 
   99100    299.67501   -1441.9504    473.32339    384.68356   -403.65129    34646.235 
   99200     315.8048   -1476.8873    531.31755    480.58178    420.72592    34646.235 
   99300     297.5564   -1436.9932    523.74834    430.49817   -206.77289    34646.235 
   99400    292.97859    -1456.115    506.23388    373.18884    179.86275    34646.235 
   99500    300.02713   -1440.9904    512.49857    426.40887   -263.11572    34646.235 
   99600    302.98838   -1469.7894     515.2678    413.75188    103.86135    34646.235 
   99700    293.88546   -1483.2143     497.0664    341.01744   -563.25123    34646.235 
   99800    306.99143    -1484.442    483.08378    384.99271   -341.93081    34646.235 
   99900    293.44398   -1442.6602    488.25272    370.76422    132.49053    34646.235 
  100000    294.17721   -1475.6088    474.73593    327.61005    366.55768    34646.235 
  100100    313.88293   -1450.1921    519.58277    486.86316    727.85929    34646.235 
  100200    299.36644   -1473.9697    468.88982    346.83719    422.64838    34646.235 
  100300    306.17789    -1468.632    496.71754    410.76263    413.56621    34646.235 
  100400     306.2778   -1482.0004    476.26697    377.39482    193.90326    34646.235 
  100500    300.60146   -1493.8088    488.94104    352.62657    19.145693    34646.235 
  100600    294.07646   -1522.6522     508.9376    314.31332    363.23266    34646.235 
  100700    296.39825   -1492.9802    504.01409    349.54687    1028.8678    34646.235 
  100800    298.28478   -1507.3423    491.26083    330.95086    220.05275    34646.235 
  100900    290.43354   -1490.6006    495.37751    316.35369    20.030432    34646.235 
  101000    295.71967   -1459.3797    499.07085    375.13964   -360.99699    34646.235 
  101100    293.30776   -1484.6177     490.0897    330.02848    103.68565    34646.235 
  101200    310.50451   -1449.7042    490.27593    442.78747    -753.7957    34646.235 
  101300    303.74417   -1460.1872    512.91334    424.41275   -923.70004    34646.235 
  101400    286.43376   -1475.8722    488.97025     306.6121   -928.61277    34646.235 
  101500    300.34811   -1475.1553    474.36407    355.55903   -870.62592    34646.235 
  101600    301.30783   -1448.0024    486.41334    399.09522   -1682.4813    34646.235 
  101700     304.0803   -1440.5938    494.88773    427.49846   -865.45478    34646.235 
  101800    298.71033    -1411.253    490.77043    428.47152   -958.37851    34646.235 
  101900    313.06006   -1435.3804    494.37294    472.74899   -589.48956    34646.235 
  102000    311.09347   -1414.6428    473.99075    464.22341    931.23009    34646.235 
  102100    297.03716   -1439.4845    493.86156    395.77528    574.42565    34646.235 
  102200    302.88157   -1440.2395    498.72025    426.27191    61.175141    34646.235 
  102300    295.75068     -1436.92     506.3542    405.02278    253.59035    34646.235 
  102400    312.47374   -1453.5407    475.07163    432.63954    535.16134    34646.235 
  102500    292.46661   -1470.1791    488.88518      339.464    75.306714    34646.235 
  102600    298.08815   -1444.6184    501.77681    403.30282    203.17574    34646.235 
  102700    300.00637   -1485.6288    486.85301    356.03119    414.64717    34646.235 
  102800    298.96138   -1519.5574     501.2037    331.73409    604.31227    34646.235 
  102900     286.6178   -1466.7875    483.05339    310.61105    217.07979    34646.235 
  103000    296.37983   -1424.4634     473.6021    387.56839    41.736823    34646.235 
  103100    302.68937   -1457.8297    479.86287    388.95636   -667.62946    34646.235 
  103200    294.66054   -1453.7093    490.09011    367.04635   -466.23753    34646.235 
  103300    299.27844   -1477.0844    481.01278    355.44806   -286.67229    34646.235 
  103400    300.71871   -1480.2595    496.82979    374.59413    161.88847    34646.235 
  103500    306.36219   -1511.8751    498.29458    369.92878   -436.99246    34646.235 
  103600     300.3225   -1465.6734    466.29059    356.85178   -463.33586    34646.235 
  103700     302.6676    -1474.271    516.50538    409.05926   -154.79466    34646.235 
  103800    293.95335   -1442.8995     506.5857    391.15813   -125.35148    34646.235 
  103900    304.19122   -1482.9134    502.99528     393.7873    30.524962    34646.235 
  104000    296.26477   -1473.2556    491.19806    355.85265    356.31878    34646.235 
  104100    305.69489   -1487.2864    496.15856    389.36805    603.77485    34646.235 
  104200    298.64264   -1460.0957    492.79466     381.3474    567.98555    34646.235 
  104300    312.15514   -1495.0461    493.05947    407.68323    859.83139    34646.235 
  104400    294.55962   -1489.5857    492.64973    333.27388    128.56204    34646.235 
  104500    296.68567   -1489.7199     476.3151    326.40612   -151.59614    34646.235 
  104600    291.70152   -1422.1762    504.54924    399.67592    87.716652    34646.235 
  104700    299.39961   -1473.8008    505.98454    384.25058   -882.47945    34646.235 
  104800    303.59818   -1491.5747    487.55342    367.00595   -82.691349    34646.235 
  104900    302.90826   -1563.8399    502.46322    306.53497   -76.678577    34646.235 
  105000    295.47929   -1536.1664    513.00024    311.19682   -199.75522    34646.235 
  105100     298.4026   -1479.9014    478.17605     345.8391   -458.45568    34646.235 
  105200    314.77296   -1499.2342    476.95999    399.21754    176.32462    34646.235 
  105300    309.02723   -1523.9907    497.85502    369.40878   -118.07076    34646.235 
  105400    302.79802    -1523.408    492.58836    336.59416   -28.213772    34646.235 
  105500    293.61188   -1478.0794    488.58907    336.43957    624.03461    34646.235 
  105600    304.90618   -1521.8755    485.27419    340.33277    184.94669    34646.235 
  105700    299.99992   -1479.9913    483.94593    358.73242    -359.5665    34646.235 
  105800    308.01124   -1475.9813    512.78931    427.76436   -248.42114    34646.235 
  105900    295.94426   -1486.2309    484.35519    334.58705   -698.91247    34646.235 
  106000    300.58058   -1489.2845    502.92504    371.04056    165.97917    34646.235 
  106100    297.68418   -1490.0858    520.37114    374.60543   -49.621504    34646.235 
  106200    310.40948   -1445.5066    509.30666    465.58665   -159.39139    34646.235 
  106300    300.58028   -1470.3768    480.61681    367.63869   -114.31372    34646.235 
  106400    292.96512     -1488.54     505.9532    340.42239   -510.11024    34646.235 
  106500    296.59893   -1478.6856    501.53685    362.27038   -314.30916    34646.235 
  106600    302.89577   -1453.8095    499.78419    413.82999   -1430.0032    34646.235 
  106700    293.26398   -1491.5783    491.69031    324.47082   -1123.2114    34646.235 
  106800    291.27161   -1454.2403    455.60624    316.72737   -822.96322    34646.235 
  106900    301.29623   -1460.5036    509.98809    410.11629   -300.31576    34646.235 
  107000    313.90224   -1441.0347    520.19683    496.72185    79.121092    34646.235 
  107100    303.44389   -1440.4564    472.27623     402.1504   -527.97107    34646.235 
  107200    300.97387   -1465.1537    510.67174    404.69414   -171.32104    34646.235 
  107300    303.52043   -1462.4678    500.90817    409.11654   -98.729475    34646.235 
  107400    301.63318   -1445.7126    445.09063     361.5315    473.87326    34646.235 
  107500     300.6916   -1455.2825     511.9384    414.55727    334.83533    34646.235 
  107600    302.72085    -1494.725    474.98453    347.32487    123.75304    34646.235 
  107700    302.35053   -1441.4018    477.30055    401.29169    679.21743    34646.235 
  107800    309.03207   -1476.4815    488.61396    407.69879    358.89053    34646.235 
  107900    302.24912   -1448.9243    534.77176     450.7825    435.03321    34646.235 
  108000    300.28167   -1434.6524    462.28817    383.68587    303.08572    34646.235 
  108100    308.19615   -1436.7449    505.69874    460.74522    91.178817    34646.235 
  108200    303.37934   -1460.3918     502.0367     411.6839   -173.14233    34646.235 
  108300    290.95749   -1376.3984    487.74145    425.28587   -513.40889    34646.235 
  108400    307.39765   -1411.7649    491.85658    468.27709   -1038.3879    34646.235 
  108500    290.32724   -1417.5157     480.9981    374.57914   -882.85325    34646.235 
  108600    304.40616   -1426.9892    510.62365    458.31046   -1328.5799    34646.235 
  108700    303.44463   -1407.0251     510.0814    473.39014   -474.48245    34646.235 
  108800    298.16802   -1469.8691    468.12219    344.75813    88.559733    34646.235 
  108900    306.61975   -1492.2154    470.73513    363.19217    22.219306    34646.235 
  109000    290.70769   -1459.5392    478.26071     331.5363   -167.28518    34646.235 
  109100    314.39704   -1432.0487    521.41447    509.15992   -118.44513    34646.235 
  109200    310.70146    -1497.709    485.30468     390.7009   -219.27218    34646.235 
  109300    290.52378   -1448.2918    490.67921    354.37172    -557.6503    34646.235 
  109400    297.91945   -1467.2209    501.24763    379.40927   -107.02354    34646.235 
  109500    291.81015   -1469.6886    483.31017    331.41498    -523.1465    34646.235 
  109600    303.88995   -1487.0159    503.22929    388.55823   -508.33998    34646.235 
  109700    305.44693   -1433.4532    476.07066    421.99356    141.35252    34646.235 
  109800    299.37431   -1418.1171    494.21915    428.05467     382.8342    34646.235 
  109900    298.26866    -1428.682    486.93864    405.21626    78.433772    34646.235 
  110000    311.66117   -1449.3517    478.29198    436.37943    15.652859    34646.235 
  110100    306.66813   -1418.8187    474.65038     440.7227   -29.044368    34646.235 
  110200     292.5815   -1437.1934    487.67541    371.75882   -391.20861    34646.235 
  110300     289.4988   -1477.2613    511.58225    341.67649   -671.81231    34646.235 
  110400    298.40165   -1498.4895    463.82386    312.89447   -706.26692    34646.235 
  110500    305.43241   -1446.0929    509.91137    443.12897   -476.03847    34646.235 
  110600    303.26974   -1458.8304    479.96509    390.67876   -594.52506    34646.235 
  110700    301.35987   -1459.0249     509.4707    411.36501   -172.81036    34646.235 
  110800    301.20757   -1470.5126    502.61078    392.32959   -255.88249    34646.235 
  110900    303.72875   -1472.9812     481.4513    380.08706    556.46415    34646.235 
  111000     300.1178   -1475.9516    481.57786    360.93635    711.43343    34646.235 
  111100    293.37501   -1457.6434    511.55288    378.76962    799.31115    34646.235 
  111200    303.11226   -1510.4796    506.94135     365.2947    702.75872    34646.235 
  111300    306.61393   -1438.8652     493.3459    439.12688    675.45116    34646.235 
  111400    300.14058   -1446.6933    487.78168    396.50146    -86.10853    34646.235 
  111500    297.69363    -1429.416    479.94735    394.89408   -25.981817    34646.235 
  111600    293.46179   -1416.7078    504.26899    412.81322   -585.95553    34646.235 
  111700     295.3853    -1427.719    511.81225    418.03179   -486.95668    34646.235 
  111800    309.14142   -1438.8426    503.89257    461.11011   -332.74734    34646.235 
  111900    307.30905   -1467.3983    520.05402    440.44101   -325.11412    34646.235 
  112000    300.83166   -1478.2454    482.61026    362.89871   -305.90332    34646.235 
  112100    302.84666   -1439.3369    491.96988    420.26644   -308.64093    34646.235 
  112200    291.57996    -1457.225    486.34254    345.87144    285.19011    34646.235 
  112300    300.47161   -1499.2388    471.74546    329.41454    317.81797    34646.235 
  112400    301.19309   -1499.6227    476.94226    337.48564   -181.13308    34646.235 
  112500    295.51001   -1522.5526    481.13786    293.08701   -41.251173    34646.235 
  112600    292.70237     -1515.88    478.21487     284.1575    55.520022    34646.235 
  112700     303.0571   -1494.4282    472.41141    346.56706   -148.52722    34646.235 
  112800     305.0571   -1487.8739    484.95758    374.69936    -180.6969    34646.235 
  112900    307.00696   -1503.7987    494.52129     377.1437   -540.76017    34646.235 
  113000    291.40959   -1481.6169    491.63955    326.00717   -202.13063    34646.235 
  113100    296.42763   -1479.4821     474.3133    333.47677    124.48998    34646.235 
  113200    292.48231   -1492.0793    501.06047       329.81   -136.94505    34646.235 
  113300    298.24588   -1450.5547    468.96583    365.26784    3.1557131    34646.235 
  113400    304.32945    -1489.025    476.67305    361.97773    67.258431    34646.235 
  113500    301.30889   -1492.5357    496.08905    364.24239    577.03249    34646.235 
  113600    306.83296   -1476.0094    467.90558     377.5315    888.23653    34646.235 
  113700    299.22672   -1547.6207    483.61663    287.28206    594.64609    34646.235 
  113800    307.36414   -1524.6795    455.42157    318.77616    634.83532    34646.235 
  113900    301.20334   -1498.5795    493.12984    354.76275    288.14542    34646.235 
  114000    298.99784   -1501.8649    476.41683    324.80437   -501.59433    34646.235 
  114100    299.35017     -1502.67    491.05752    340.23111    201.51584    34646.235 
  114200    283.89811    -1528.817    483.89706    237.14332   -489.69308    34646.235 
  114300    301.49393   -1482.0868    474.25043     353.6883    231.45022    34646.235 
  114400    293.72884   -1464.6983    468.55222    330.31195    336.16114    34646.235 
  114500    292.60983    -1483.981    491.14029    328.56398   -19.858657    34646.235 
  114600    309.02691   -1497.1518    463.00088    361.39218    226.73921    34646.235 
  114700    310.39992   -1503.0089    466.09236    364.82688    442.25148    34646.235 
  114800    300.86004    -1450.937     485.9719    393.69695   -186.02943    34646.235 
  114900    307.19291   -1475.0208    474.87586    387.11584   -314.06625    34646.235 
  115000    293.62404   -1452.6677    486.92478    360.24192   -861.37056    34646.235 
  115100    297.63316   -1477.5561    494.01736    360.55097   -201.47222    34646.235 
  115200    296.39792   -1443.8297    494.61923    389.30092   -5.8743664    34646.235 
  115300     310.2363    -1504.891    476.30587    372.41943     -143.088    34646.235 
  115400    316.20843   -1473.0713    462.85433    417.75725    756.32366    34646.235 
  115500    313.11367   -1515.4795    475.85621    374.37528    345.94742    34646.235 
  115600     302.4592   -1496.1949    498.39979    368.08858    461.17485    34646.235 
  115700    291.13029   -1476.1825    492.79563    331.33637    302.59289    34646.235 
  115800     310.5091   -1518.0389    505.83662    390.03422    234.54438    34646.235 
  115900    307.96101   -1477.9153    494.69257     407.5068    97.969801    34646.235 
  116000    308.83682   -1498.5286    500.51274    396.66873   -142.48402    34646.235 
  116100    297.54252   -1488.8423    487.56255    342.40065    61.792719    34646.235 
  116200    300.28689    -1521.486    484.46863    319.05641    701.86826    34646.235 
  116300    294.30814   -1449.4431     483.1695    362.80059    1049.0397    34646.235 
  116400     304.3274   -1450.5796    487.37837    411.11918    253.18064    34646.235 
  116500    303.15553   -1444.1116      501.145    426.06177     596.9201    34646.235 
  116600    294.68395   -1442.5127    492.05012    380.30871    28.778683    34646.235 
  116700    304.04079   -1395.5328    481.11052    458.60384    204.44216    34646.235 
  116800    298.83475   -1469.0559    511.85029    392.31037   -8.8646489    34646.235 
  116900    297.88562   -1441.4406    511.12984    414.91901    112.49069    34646.235 
  117000    301.00127   -1405.0504    504.71054    458.95993    268.02669    34646.235 
  117100    300.23321   -1445.3374    520.94835    431.44227   -28.921721    34646.235 
  117200    295.45719   -1440.8641    496.00457    389.40361    124.97653    34646.235 
  117300    296.36945   -1478.3798    494.53392    354.53695      797.922    34646.235 
  117400    304.68301   -1470.8652     481.8694    386.93054    102.02767    34646.235 
  117500    307.00742   -1420.8979    497.13754    462.66277    549.01874    34646.235 
  117600    301.13783   -1467.1739    476.99554    369.73812    106.84092    34646.235 
  117700    297.60242   -1527.3062    509.85426    326.49891   -265.68291    34646.235 
  117800    307.48022   -1528.1484    493.32701    353.73689   -295.70614    34646.235 
  117900    296.03881   -1458.0297     476.2826    355.14261   -223.63316    34646.235 
  118000    292.63654   -1492.5249    491.63651    320.63694   -485.81136    34646.235 
  118100    303.96045   -1479.5473    487.70867    380.82467    198.58639    34646.235 
  118200    297.57206   -1450.1351    496.46975    390.14837   -432.01359    34646.235 
  118300    301.61066   -1470.4063    487.96975    379.61527   -376.38332    34646.235 
  118400    299.68708   -1464.0044    498.40463    387.76532   -95.340615    34646.235 
  118500    310.10204    -1525.997    484.50016     358.9014    413.11595    34646.235 
  118600    297.67921   -1531.9386    484.15234    296.51137    802.10997    34646.235 
  118700    298.51926   -1521.0345    468.78736    295.84408    1338.0601    34646.235 
  118800     301.5495   -1454.9201    500.22317    407.07863    887.98784    34646.235 
  118900    301.55513   -1517.9828    482.53477    326.35299    719.41518    34646.235 
  119000    304.96924   -1526.3195    467.01604    317.91544    390.89568    34646.235 
  119100    295.19672   -1535.6157    514.79097    312.26221    120.74324    34646.235 
  119200    292.33191   -1510.0592    504.21907     314.3095    227.96646    34646.235 
  119300    302.13054   -1548.9334     489.4716    304.93773   -373.65851    34646.235 
  119400    315.29301   -1523.9598    529.22074    429.10123   -223.22457    34646.235 
  119500    307.93697   -1495.9543    472.67793    367.34458   -141.69084    34646.235 
  119600    308.51081   -1458.9324    486.24891    420.52887   -691.67308    34646.235 
  119700    298.93954   -1517.0413    467.14595    300.09387   -921.73433    34646.235 
  119800    295.48122   -1524.7003    478.70968    288.38108    -873.9908    34646.235 
  119900    301.29604    -1504.254    498.11134    354.48832   -636.11748    34646.235 
  120000    305.15292   -1479.4544    475.92661    374.52057     22.18295    34646.235 
  120100    295.31046   -1492.1217    491.50488     332.9837   -277.15147    34646.235 
  120200    302.79654   -1529.8008    494.18413    331.79052   -398.08236    34646.235 
  120300     293.6106    -1542.884    501.81889    284.85897   -212.15995    34646.235 
  120400    296.34471      -1506.2    484.92933    317.00053    34.110857    34646.235 
  120500    313.10195    -1468.328    477.85268    423.47027    350.40579    34646.235 
  120600     293.7801   -1531.5414    501.62216    296.77029   -639.76963    34646.235 
  120700    294.93177   -1466.5203    489.39984    354.76999   -372.94862    34646.235 
  120800    311.66842   -1508.2582    495.27798    394.49173    -175.4017    34646.235 
  120900    304.62764   -1511.0745    495.22134    359.82303    588.52728    34646.235 
  121000    295.35325   -1505.7302    500.86907    328.93266    31.325062    34646.235 
  121100      296.524   -1517.4282    500.78832    322.44097    340.81405    34646.235 
  121200    299.08477   -1513.3551    483.17583     320.4658    366.16917    34646.235 
  121300    288.16296    -1488.859    483.76644    296.23034    218.92294    34646.235 
  121400    298.74889   -1453.2685    489.27072    385.13047    707.12118    34646.235 
  121500    295.57897   -1520.8493    481.45038    295.41415    270.60203    34646.235 
  121600    304.15957   -1485.5173    513.42019    401.46536     377.0039    34646.235 
  121700    306.48286   -1508.2564    506.46564     382.2635    892.28147    34646.235 
  121800    291.87343   -1556.9456    518.98143    280.11496    581.87666    34646.235 
  121900    291.39455   -1566.8866    515.94968    264.97968    673.94707    34646.235 
  122000    302.84699   -1526.2724    500.83072    342.19326    291.85003    34646.235 
  122100    301.43781   -1489.3319    474.38538     346.3247    1049.1443    34646.235 
  122200    301.71365   -1549.8168    500.79881    313.49892    1226.2689    34646.235 
  122300    303.01322   -1484.4874    499.88618    383.78441    813.85714    34646.235 
  122400    299.78916   -1497.3765    517.52144    373.97092    387.51002    34646.235 
  122500    297.22831   -1538.5194    504.54846    308.29047    43.930328    34646.235 
  122600     302.1414   -1556.1176    489.62565    297.95662    203.74983    34646.235 
  122700    298.62306   -1557.0364    494.77587    286.29944    235.44265    34646.235 
  122800    310.28763   -1556.9114    516.28898    360.61393    743.96771    34646.235 
  122900    306.77256   -1545.8908    512.10779     351.5795    459.45421    34646.235 
  123000    295.22781   -1495.5194    488.04902    325.75692     9.171264    34646.235 
  123100    298.63797   -1521.8394    466.52993    293.31785   -779.13487    34646.235 
  123200    295.90613    -1509.566    499.18141     325.9059   -639.86229    34646.235 
  123300    300.10008   -1468.1929    472.03162    359.06887   -830.61165    34646.235 
  123400    289.18862   -1426.4779    507.97343    387.45032   -1216.0643    34646.235 
  123500    303.12533   -1425.6914    507.98663    451.18716   -183.88287    34646.235 
  123600    307.51691   -1437.1742    488.59377     440.1435   -735.46059    34646.235 
  123700    302.20231   -1494.3257    496.94803    367.34597   -1375.9538    34646.235 
  123800    305.91629   -1427.9988    483.68174    437.17862   -905.91162    34646.235 
  123900    295.68772   -1466.8697     512.2826    380.71712   -288.93691    34646.235 
  124000     291.2926   -1474.9482    487.29606    327.80402   -765.86699    34646.235 
  124100    313.34476   -1438.7383    471.90206    448.20584    89.530328    34646.235 
  124200    299.36708   -1447.3527    477.91624    382.48345   -113.85511    34646.235 
  124300    292.50185   -1469.2228    492.27499    343.96928    348.29718    34646.235 
  124400    302.41862   -1481.9119    470.02475    353.81332    282.20833    34646.235 
  124500    294.56972   -1525.4672    532.15166    336.93987    180.78519    34646.235 
  124600      296.664   -1492.3224    479.80451    327.19519    458.44073    34646.235 
  124700    297.04953   -1445.1744    484.08461    380.36424      944.223    34646.235 
  124800    301.42609   -1449.1378     511.4056    423.48606    580.91321    34646.235 
  124900    301.51215   -1497.8153    480.51036    344.30202    298.00045    34646.235 
  125000    298.19535    -1466.291    486.22435    366.56187    693.01364    34646.235 
  125100    301.69944   -1460.8481     522.8481    424.45279    57.909004    34646.235 
  125200     296.6072   -1421.4313    480.73163    398.75691   -364.14052    34646.235 
  125300    293.88725   -1443.6658    491.89479    375.40243    -676.7574    34646.235 
  125400    302.66308   -1454.9856    487.44582    399.26468   -621.54589    34646.235 
  125500    304.99779    -1443.396    490.25678    424.20865   -1046.3522    34646.235 
  125600    305.75098   -1430.2515    494.11653    444.61417   -159.97028    34646.235 
  125700    315.18749    -1465.327    509.04464    467.08144    16.746607    34646.235 
  125800    289.36359   -1502.3017    492.42623    296.86942   -49.196445    34646.235 
  125900    292.01389   -1511.8285    461.00471    267.88967    625.06246    34646.235 
  126000    308.29518   -1457.2095    487.60318    422.63229    1022.4453    34646.235 
  126100    304.93007   -1476.3463    490.36835    391.06405    108.78532    34646.235 
  126200    298.22847   -1502.8295    506.62333    350.57186    741.56128    34646.235 
  126300    297.23636   -1463.5011    491.77202    370.56872   -551.06317    34646.235 
  126400    303.90813   -1528.2033    483.52286    327.74652    -241.7218    34646.235 
  126500    318.35993   -1488.8578    470.58284    419.41527   -376.19344    34646.235 
  126600     302.0349   -1512.0004    486.15552    338.12279    80.889378    34646.235 
  126700    299.57786   -1475.9767    501.96295    378.85809   -460.62118    34646.235 
  126800    303.92251    -1452.453    478.12796     398.1669   -227.96681    34646.235 
  126900    292.51288   -1463.5873    501.95076     359.3303    163.25397    34646.235 
  127000    298.22608   -1461.0213    493.29225    379.03822    353.31867    34646.235 
  127100    299.58121   -1455.5394    491.96922     389.3167   -187.13483    34646.235 
  127200    299.21352   -1522.3077    489.77723    318.69604   -484.63086    34646.235 
  127300    288.68436   -1489.0886     485.4237    300.01269   -185.54693    34646.235 
  127400    300.33019   -1465.1542     500.0112    391.12628   -730.66219    34646.235 
  127500    305.44719   -1498.7894    494.15561    374.74347   -748.65242    34646.235 
  127600    304.34058     -1472.74    513.51316    415.15303   -73.832543    34646.235 
  127700    294.19955   -1482.2825    470.69809    316.99933   -78.767393    34646.235 
  127800    307.31926   -1488.4885    475.73605    375.07899   -318.84429    34646.235 
  127900    309.48568   -1494.2665    480.97809    384.32636     366.8986    34646.235 
  128000    303.14271    -1488.383     491.9701     372.5575    160.24588    34646.235 
  128100    297.81746   -1495.7597    500.27022    349.43246    -59.96132    34646.235 
  128200     302.9367   -1510.2327     469.2205    327.02783   -65.833846    34646.235 
  128300     293.3724   -1505.1045    486.28624    306.03019    517.61407    34646.235 
  128400    300.50163   -1488.9745     496.4143    364.48329    -141.6939    34646.235 
  128500    296.99957   -1523.1411    497.68229    315.76965   -524.76203    34646.235 
  128600    288.59383   -1479.6316    498.52896    322.16606   -535.29194    34646.235 
  128700    298.01091   -1498.5161    483.85789    331.13734   -431.85417    34646.235 
  128800    302.81686   -1456.0888      481.871    393.28113    163.23968    34646.235 
  128900    298.38059   -1471.0569    490.87554    367.28371    97.169062    34646.235 
  129000     295.0464    -1486.192    506.26308    352.47916   -182.37876    34646.235 
  129100    302.73063   -1493.4437    485.63782    359.30358   -739.01416    34646.235 
  129200    303.05155   -1446.8048    499.91023    421.66414   -415.53479    34646.235 
  129300    297.97017   -1483.0424    516.81851    379.38776   -385.59506    34646.235 
  129400    304.87246   -1462.7348    495.85973    409.90678    -856.6178    34646.235 
  129500    295.87579   -1465.5252    511.83423    382.46251   -196.70974    34646.235 
  129600    299.37665   -1491.1368    508.85832    369.68463   -414.53671    34646.235 
  129700    306.24121   -1462.3589    498.02794    418.63204   -737.33369    34646.235 
  129800    295.77526   -1444.1162     514.5208    406.10415    -568.4733    34646.235 
  129900    307.52138   -1472.4337    476.48586    392.79636     235.1821    34646.235 
  130000    302.04399   -1435.6133    518.15407    446.54943   -594.14168    34646.235 
  130100    305.62286   -1472.1399    498.17695    406.20762   -134.18256    34646.235 
  130200    293.09222   -1443.5397    499.72583    379.76926    23.122262    34646.235 
  130300    298.26298   -1480.4118    501.73795    368.25999   -84.743797    34646.235 
  130400    286.65503   -1510.1559    496.19601    280.55333   -40.210762    34646.235 
  130500    289.81558   -1450.4828      489.692    347.99524   -134.52605    34646.235 
  130600     301.1249   -1491.0428    487.93878    356.75411   -151.74322    34646.235 
  130700    319.90717   -1439.7651    509.02583    513.93818    135.96736    34646.235 
  130800    292.94775   -1491.6641    494.17177    325.43842   -302.49057    34646.235 
  130900    309.12954    -1435.449    500.44407    461.00155    224.98006    34646.235 
  131000     299.1248   -1379.0716    512.93515    484.68942    236.11521    34646.235 
  131100    299.16637   -1435.4424    466.82553    382.39667    84.121399    34646.235 
  131200    302.82089   -1415.4837    508.08108    460.11443     -385.495    34646.235 
  131300    309.60398    -1403.446    494.08766    488.79067   -42.508031    34646.235 
  131400    300.89251    -1428.356    490.31067    420.76338   -252.77832    34646.235 
  131500    300.02217   -1445.4813     496.4815    405.87847   -227.98411    34646.235 
  131600    309.78254   -1453.8386    541.74573    486.86256    507.32429    34646.235 
  131700    304.64376   -1452.0046     466.6131    390.35756    301.50592    34646.235 
  131800    298.86696    -1479.793    482.75679    352.62522    330.79588    34646.235 
  131900     297.0178   -1511.6748     506.1036    335.73957    662.34034    34646.235 
  132000    295.80236   -1475.5654    479.50778    339.76432    1349.7503    34646.235 
  132100     311.0149   -1503.5562    480.17427    381.13872    265.79841    34646.235 
  132200    302.05283   -1531.9632     507.6385    339.72386    366.05572    34646.235 
  132300    290.65043   -1516.6875    487.08795    282.95659    -299.3151    34646.235 
  132400    297.31723   -1518.2484    489.41657    313.83114   -319.15348    34646.235 
  132500    294.29634   -1547.0168    457.59403    239.59812   -970.86207    34646.235 
  132600     287.0335   -1474.2522    506.91539    328.88558    2.8571646    34646.235 
  132700    304.63477   -1455.9924     487.9531     407.6691    -982.9772    34646.235 
  132800    295.99036   -1492.9689      484.855    328.55702   -924.56178    34646.235 
  132900    294.09607   -1464.8009    484.86549    348.18101   -747.33817    34646.235 
  133000    301.93429   -1453.4494    494.60807    404.67193   -523.02832    34646.235 
  133100     300.3887   -1471.9675    471.53831    356.10431   -708.02011    34646.235 
  133200    302.34755   -1459.7904    514.23899    419.82817   -823.11744    34646.235 
  133300    293.29209   -1452.8843    501.50469     373.1061   -722.71104    34646.235 
  133400    311.99825   -1450.6414    507.94134    466.26139   -354.85785    34646.235 
  133500    306.96835   -1464.7723    476.51133    397.98574    392.97491    34646.235 
  133600    296.27718   -1475.7066    496.30116    358.56076    586.74263    34646.235 
  133700    296.86935   -1495.8876    497.90398    342.65679     333.7709    34646.235 
  133800    301.42478   -1501.8344    484.00044    343.37837    525.22506    34646.235 
  133900    304.22082   -1539.1049    500.07462     334.8088    271.32814    34646.235 
  134000    295.66455   -1520.4426    514.94965    329.70663   -183.99375    34646.235 
  134100    302.13489   -1515.2159    450.56596    299.76921    172.26503    34646.235 
  134200    307.33109   -1500.7449    471.88258    359.02256   -12.469836    34646.235 
  134300    300.46907   -1469.7289    497.87498    385.04253    39.929662    34646.235 
  134400    298.11882    -1454.454     497.1178    388.94676   -279.06043    34646.235 
  134500    310.59171   -1511.8057     468.4654    359.26921    241.30209    34646.235 
  134600    292.45872   -1509.1154    475.22458     286.8315    -341.6601    34646.235 
  134700    289.65201   -1500.8615    477.48594    284.67182   -651.46834    34646.235 
  134800     297.2439   -1509.3544    453.65441    286.63182   -185.91127    34646.235 
  134900     291.7273   -1503.4392    484.28788    298.26794   -281.05238    34646.235 
  135000     298.0363   -1465.3627    498.63807    379.18565    263.64124    34646.235 
  135100    302.85631   -1495.7674    502.24904    374.15868   -334.00665    34646.235 
  135200    300.18955   -1450.5802    506.24309    411.29702    525.34998    34646.235 
  135300    299.52253   -1466.6561    491.84999    377.81579   -339.96172    34646.235 
  135400    305.29346   -1487.2017    458.19262    349.67401   -16.189559    34646.235 
  135500    295.36038   -1521.1333    471.67842    284.37116   -484.20458    34646.235 
  135600     307.5603   -1500.8534    497.37232    385.43883   -617.22027    34646.235 
  135700    294.39451    -1504.123    494.49789     319.8391   -114.18462    34646.235 
  135800    310.68063   -1497.9286    464.36198    369.44448    216.19486    34646.235 
  135900    301.83106   -1472.4865    501.79127    392.35186   -469.25246    34646.235 
  136000     300.9758   -1505.0767    470.48702    324.59513   -239.10162    34646.235 
  136100    297.04171   -1505.2845    469.56291    305.69715    61.199775    34646.235 
  136200     294.7906   -1491.1487    483.22143    323.32556   -47.272851    34646.235 
  136300    292.49716   -1518.9817    485.12257    287.03678   -227.71872    34646.235 
  136400    306.59587   -1531.5239    469.61813    322.65887   -129.06837    34646.235 
  136500    296.58188   -1517.2009    499.83669    321.97796   -38.328659    34646.235 
  136600    296.62113   -1481.0838    509.83964    368.27525   -44.593386    34646.235 
  136700    307.32745   -1497.6749    470.69917    360.89269    228.92664    34646.235 
  136800    293.48156   -1499.7907    500.54734    326.09798   -149.36889    34646.235 
  136900    300.30416   -1474.7532    482.57356     363.9721    120.61515    34646.235 
  137000    291.69884   -1491.6235     483.4345    309.10173   -91.537833    34646.235 
  137100    289.90525   -1476.4401    491.89513      324.646    126.32696    34646.235 
  137200    295.07928   -1512.3331    489.88338    310.10684    637.90862    34646.235 
  137300    300.50916   -1469.2905    528.89355    416.68056    541.83005    34646.235 
  137400    295.98195   -1473.3862    468.14133    331.38805   -300.66648    34646.235 
  137500    305.06535   -1467.4484    498.25646    408.46105   -94.471295    34646.235 
  137600    306.59467   -1487.7064     496.8329    393.68567    235.89158    34646.235 
  137700    299.53674   -1475.7664    460.94702    337.86677    66.631541    34646.235 
  137800    296.70741   -1498.6876    514.17201    355.39354   -861.05118    34646.235 
  137900    308.93965   -1494.5364    485.21527    385.82783    60.470121    34646.235 
  138000    305.00049   -1494.5439    483.89439    366.71046   -758.37801    34646.235 
  138100     305.5283   -1484.9826    506.84355    401.60455   -320.01606    34646.235 
  138200    300.93596   -1460.0426    482.36244    381.32475   -87.574864    34646.235 
  138300    295.92406   -1450.1983    482.09068     368.2639    140.17661    34646.235 
  138400     296.1414    -1474.017    508.19398    371.52993   -385.17161    34646.235 
  138500    305.97307   -1481.1735    498.64038    399.21893    272.90258    34646.235 
  138600    297.85499   -1523.5115    475.71705    297.29705   -207.05682    34646.235 
  138700    293.86261   -1442.7474     495.5802    379.89495    281.19001    34646.235 
  138800    296.06911   -1465.3558    504.51558    376.18636   -17.094995    34646.235 
  138900    296.57767   -1472.6658       494.15    360.80737    389.49797    34646.235 
  139000    303.57376   -1432.9029    482.47967    420.49379    438.97475    34646.235 
  139100    290.81105   -1452.8525    528.02072    388.44982    138.18584    34646.235 
  139200    304.54196   -1480.4757     509.7845    404.59817    32.044616    34646.235 
  139300    297.03547   -1481.0604    502.67258    363.00275   -10.510778    34646.235 
  139400    299.37158   -1473.4445    497.76336    376.25912    125.52872    34646.235 
  139500    295.67485   -1459.2696    482.37841    358.35494    99.601286    34646.235 
  139600    298.52697   -1454.8389    494.25521    387.54235   -521.75036    34646.235 
  139700    315.59792   -1470.3382    489.79539    444.67444   -24.098563    34646.235 
  139800    287.90689   -1457.9658    512.06456    354.26531     195.9336    34646.235 
  139900    303.25875   -1465.4505    498.35343    402.39735    75.506187    34646.235 
  140000    299.83781   -1444.8519     508.1554    417.34923   -127.17222    34646.235 
  140100     311.3427   -1457.3473    488.39537    437.04907    -9.448985    34646.235 
  140200    301.18836   -1497.1399    489.88958    352.89437    425.19443    34646.235 
  140300    289.14879   -1485.2284    522.86992    343.41647    226.44744    34646.235 
  140400    296.64982   -1461.0572    517.95522    396.54705    567.24312    34646.235 
  140500    296.77326   -1426.9924    490.00734    403.22143   -339.31556    34646.235 
  140600    292.36075     -1399.94    531.60071    451.94056     80.57092    34646.235 
  140700    305.93187   -1408.5168    506.06207    479.11136   -301.18439    34646.235 
  140800    292.20806   -1397.3152     496.3409    418.61607   -407.18747    34646.235 
  140900    295.20119   -1446.7181    494.91098    381.29994   -204.95058    34646.235 
  141000    311.66003   -1436.0639    510.70374    482.07382   -641.00784    34646.235 
  141100    296.32055   -1454.5247    493.80314    377.44047   -166.00793    34646.235 
  141200    287.70994   -1472.9431    487.52612    313.86019    206.12834    34646.235 
  141300    293.48532   -1482.6485    492.32772     335.0375    120.16862    34646.235 
  141400     297.0647   -1462.1022    477.02201     356.4424   -187.02341    34646.235 
  141500    295.70995   -1478.5396    516.75124     373.6163    637.47075    34646.235 
  141600    305.82052   -1484.4125    470.08987    366.74054    17.189841    34646.235 
  141700     297.2733   -1450.5022    480.70144    372.66382   -136.55743    34646.235 
  141800    306.26588   -1463.0315    503.02547    423.06842    519.89773    34646.235 
  141900    303.87781   -1471.1899    488.93922    390.03939    462.28118    34646.235 
  142000    301.03155    -1465.821    489.01536    382.63095   -137.88416    34646.235 
  142100    292.35622   -1473.4188    475.80958    322.65023    441.52723    34646.235 
  142200    310.91189    -1480.795     483.0132    406.27369    322.62967    34646.235 
  142300    297.27344   -1478.0257    503.60221    368.04173     383.8376    34646.235 
  142400    298.04242   -1443.4164    507.98914    410.51062    988.44602    34646.235 
  142500    296.81994   -1459.9784     509.6118    390.05068    50.135928    34646.235 
  142600    301.17565   -1503.0618    476.86717     333.8927    407.10377    34646.235 
  142700    300.47721   -1514.5041    492.17223     334.6013    362.07742    34646.235 
  142800    299.12738   -1504.4838    508.41963    354.77326    879.09584    34646.235 
  142900    299.10357   -1484.9518    502.81335    368.59154   -354.34483    34646.235 
  143000    301.29745   -1487.8238     476.7508    349.56433    106.67423    34646.235 
  143100    297.15573   -1473.5528    493.31979    361.70069    857.47384    34646.235 
  143200    301.60638   -1523.3306    485.58376    324.28566    316.71115    34646.235 
  143300    308.34348   -1488.2037    494.98064    399.23367    488.80041    34646.235 
  143400    301.82022   -1521.9272    510.94402    352.01494   -91.857854    34646.235 
  143500    299.05707   -1474.2978    499.08207    375.30423    238.70531    34646.235 
  143600    291.36942   -1496.8539    482.79478    301.74403    269.14865    34646.235 
  143700     293.6207   -1476.0187    493.21433    343.16531    194.58483    34646.235 
  143800    299.73838   -1468.2274    490.28197     375.6513   -116.03158    34646.235 
  143900    299.21298   -1459.0301    497.95902    390.15299   -538.69881    34646.235 
  144000    310.41101   -1461.7675    513.94146    453.96747    754.74579    34646.235 
  144100     296.5848   -1466.3514    474.90628    347.91028    912.53761    34646.235 
  144200    304.54747   -1479.8822    487.61915    383.05117    462.31388    34646.235 
  144300    295.51322   -1468.8592    502.67996    368.33696   -95.055515    34646.235 
  144400    303.39935   -1448.4605    515.61851    437.28741   -420.76983    34646.235 
  144500    297.42529   -1478.4008    501.56074    366.31088   -909.94051    34646.235 
  144600    306.88836   -1467.4494    495.28381    413.71992    -344.1205    34646.235 
  144700    289.31378   -1469.1574    520.71719    358.07978   -777.79133    34646.235 
  144800    306.29006   -1425.2318    500.87761    458.82944   -173.05478    34646.235 
  144900    290.90377   -1450.0898    482.48925    346.09974   -44.470319    34646.235 
  145000    297.72183   -1475.7704    494.20225    362.92196    8.7049505    34646.235 
  145100     308.9175   -1438.0928    495.50833    452.46443    194.39794    34646.235 
  145200    300.78537   -1476.9183    483.72342       365.13    339.26546    34646.235 
  145300    305.89388   -1467.3327    526.26334    440.32514    248.97085    34646.235 
  145400    299.58061   -1450.1007    508.94763    411.73113   -151.93266    34646.235 
  145500     302.3232   -1457.3435    501.33829    409.26435   -384.64441    34646.235 
  145600    294.09418   -1473.9359    467.79532    321.96732   -292.03184    34646.235 
  145700    307.14459   -1466.7106    502.74454    423.07658    276.90465    34646.235 
  145800    302.31825    -1483.367     490.9988    372.87907   -68.829078    34646.235 
  145900    298.38469    -1460.864    474.13069    360.75023    458.28751    34646.235 
  146000    306.81187   -1470.6668    514.84075    429.71402    326.48615    34646.235 
  146100    311.64738   -1479.3415    490.57922    418.61458     320.7886    34646.235 
  146200    309.16926   -1464.2681    497.54537    429.46319   -90.157355    34646.235 
  146300    307.86847   -1405.6264    499.36198    484.04719   -178.62251    34646.235 
  146400    293.43162   -1439.5864    499.51713    385.04657    330.55415    34646.235 
  146500    300.39189   -1429.6108     508.3813    435.31846     453.3787    34646.235 
  146600    299.64075   -1455.5087    520.41855    418.06566    785.46045    34646.235 
  146700    315.44181   -1473.2107    509.44309    460.74465    1400.6769    34646.235 
  146800    298.48637   -1474.6363    514.94212     388.2485    487.70954    34646.235 
  146900    296.26638   -1463.4184    506.34022    380.83927    770.33299    34646.235 
  147000    303.33611   -1446.3612    486.25371    409.73627    46.801445    34646.235 
  147100    301.55163   -1441.4374    526.06491    446.41269   -19.158495    34646.235 
  147200    290.47174   -1475.9788     484.6658    320.43624    86.413425    34646.235 
  147300    293.83544   -1512.3924    496.04902    310.59613     272.4537    34646.235 
  147400    296.53263   -1474.7505    497.49427    361.86352    701.98189    34646.235 
  147500     286.4165   -1500.4552    537.97807    330.95893    639.16403    34646.235 
  147600    301.47588   -1446.4482    494.83151     409.8264    840.58071    34646.235 
  147700    295.34067    -1502.175    493.72926    325.29126   -455.48097    34646.235 
  147800    295.28835   -1510.0289    465.63194    289.10377   -286.79678    34646.235 
  147900     298.2671   -1490.9838    494.62591    350.59463     85.60969    34646.235 
  148000    287.78279   -1450.0989    504.17657    353.68377   -316.36507    34646.235 
  148100    293.62337   -1469.5133    513.88838     370.3569   -878.10456    34646.235 
  148200    307.86192   -1492.3628    473.40709    371.32637    279.35446    34646.235 
  148300    305.11108   -1454.7582    499.00395    422.10521   -634.63269    34646.235 
  148400    304.72042   -1481.6011    511.65065    406.14478    110.52731    34646.235 
  148500    299.40441   -1486.9863    503.38238    368.48463   -367.88662    34646.235 
  148600    298.25604   -1458.1886    497.83284    386.54683   -82.129239    34646.235 
  148700    299.40559    -1480.609    494.63263    366.11743    -362.1277    34646.235 
  148800    303.92853   -1471.0717     498.7385    400.18596   -423.88942    34646.235 
  148900    292.02981   -1490.7643    497.84502    325.86608   -542.48959    34646.235 
  149000    297.18163   -1518.1368    471.03546    294.94928   -459.88856    34646.235 
  149100    305.01071   -1479.0141    481.86353    380.25562    469.90709    34646.235 
  149200    308.12698   -1435.1467    499.03716    455.36952    244.79213    34646.235 
  149300    313.80603   -1467.6957    474.57088    424.00041    571.03536    34646.235 
  149400    310.07393   -1446.7569    520.19566    473.71003    598.01974    34646.235 
  149500     305.1768   -1437.0287    499.47298    440.60053    469.12449    34646.235 
  149600    297.38491   -1494.3172    512.14605    360.79743    326.39659    34646.235 
  149700    298.16093   -1496.2182    505.23736    355.49224    140.50948    34646.235 
  149800    308.92016   -1461.7642    514.60242    447.89914    107.47669    34646.235 
  149900    302.66867   -1452.5751    490.24768    404.50227    400.37412    34646.235 
  150000    294.01515   -1449.4819    522.70204    400.97121    -172.8195    34646.235 
  150100    301.90112   -1461.3461    504.92315    406.94052   -332.67331    34646.235 
  150200     293.2581   -1431.1562    514.27269    407.44871    -197.3692    34646.235 
  150300    290.70248   -1419.9846    499.79132    392.59799    362.24924    34646.235 
  150400    306.67434   -1403.4866    504.63153    486.06395   -791.69379    34646.235 
  150500    299.51526   -1432.1697    523.82243    444.24179    -848.2446    34646.235 
  150600     294.9816   -1413.5567     481.8969    400.45564    85.565712    34646.235 
  150700    287.25321   -1452.7863    523.42979     367.8581   -844.24032    34646.235 
  150800    293.87538   -1430.2153    486.49456    383.39912   -671.53782    34646.235 
  150900    309.73941   -1450.4774     501.3343    449.61752   -118.41933    34646.235 
  151000    296.34462   -1433.9753    489.15683    393.45229   -230.85271    34646.235 
  151100    296.87039   -1471.4801    507.00612    376.17107   -169.89379    34646.235 
  151200    298.22521   -1444.6015     501.8865    404.04835    7.1722635    34646.235 
  151300    309.02734   -1462.4951    498.83874    431.88859    19.133932    34646.235 
  151400    309.78693   -1417.5569    504.46315    485.88144    169.26262    34646.235 
  151500    300.60436   -1498.2639    488.24891    347.49245    293.60717    34646.235 
  151600    311.72477   -1483.9241    485.25749    409.05977    732.42563    34646.235 
  151700    302.12752   -1494.3175    473.86708    343.93552    318.00248    34646.235 
  151800    294.47548   -1470.8258    484.09306    343.09708    55.990309    34646.235 
  151900      290.869   -1513.2438    476.27071    276.57016    584.11942    34646.235 
  152000    289.20598   -1525.5943    511.88982    292.32866    579.19142    34646.235 
  152100     301.3164   -1545.0371    497.44026    313.12614    236.04676    34646.235 
  152200    300.33697   -1520.4782    446.88196    282.70363     405.7662    34646.235 
  152300    302.44365   -1514.1276    501.56666    353.25258     915.4884    34646.235 
  152400    298.11529   -1493.0185    464.17122    317.41969    501.39183    34646.235 
  152500     300.0186   -1516.0366    494.02895    332.85446     109.9092    34646.235 
  152600    294.27992   -1524.7533    473.68829    277.88167    78.794724    34646.235 
  152700    294.52552   -1516.8307    480.82797    294.05307   -339.41459    34646.235 
  152800    298.06048   -1521.9626    471.21427    295.27113     -991.234    34646.235 
  152900    296.10438   -1515.3328    481.76237    303.61536   -562.01473    34646.235 
  153000    304.56212   -1495.6074     508.7787    388.55163   -214.40904    34646.235 
  153100     297.8511   -1461.2846    482.56516    366.35444   -314.94214    34646.235 
  153200    295.80477   -1484.0483    474.58978    326.37427   -131.25582    34646.235 
  153300    303.94225   -1470.9311     490.3172    391.96716   -474.66123    34646.235 
  153400    298.52831   -1442.1081    464.37128    370.39533   -76.638388    34646.235 
  153500    298.54363   -1455.6599    492.16634    384.70773    -141.6114    34646.235 
  153600    302.97296   -1454.6608    483.14255    396.68562    523.64016    34646.235 
  153700    300.22164   -1458.2825    478.35384    375.85039    324.40889    34646.235 
  153800    293.27789   -1488.7811    501.90529    337.54582   -632.34279    34646.235 
  153900    309.74013    -1445.102     478.9478    432.60969   -804.89823    34646.235 
  154000    296.69448   -1489.9682    487.62103    337.50345   -74.350248    34646.235 
  154100    308.43417   -1476.6536    481.72819    397.94086   -267.67514    34646.235 
  154200    309.47589   -1423.3144    473.44325    447.69946   -450.02084    34646.235 
  154300    297.95568   -1474.1366    478.86982     350.2794   -133.78184    34646.235 
  154400    304.90243   -1467.3811    491.28662     400.8227    264.31244    34646.235 
  154500    303.52717   -1481.3136    477.05916    366.45219    3.2776816    34646.235 
  154600    296.47127   -1476.2374    511.50965    374.11493   -325.55952    34646.235 
  154700    299.80931   -1476.8777    489.09716    366.13649   -1066.1893    34646.235 
  154800    304.27397   -1508.1488     494.7407    360.67103   -383.76077    34646.235 
  154900    302.38454   -1458.8994    497.96538    404.61251   -928.91907    34646.235 
  155000    312.88484    -1482.964    483.98932    413.99054   -423.56162    34646.235 
  155100    309.99759   -1528.0906    481.51193    353.34792   -1161.5228    34646.235 
  155200    292.33037   -1493.4841    460.37326     287.0318   -665.93166    34646.235 
  155300    293.18973   -1492.9408    470.43506    301.51779   -926.90136    34646.235 
  155400    293.20404   -1513.4048    484.39609    295.07943     -708.041    34646.235 
  155500    300.19917   -1505.3259      479.101    329.45269   -409.74659    34646.235 
  155600    301.23582   -1459.9115    500.74015    401.18767   -329.43572    34646.235 
  155700    299.57566   -1445.9871    500.40849    407.28332   -563.30822    34646.235 
  155800    296.56042   -1498.3079    506.05638    346.99375    290.64438    34646.235 
  155900    303.30413   -1515.2665    478.66941    333.10227    433.17242    34646.235 
  156000     310.4215   -1442.2263       502.71    462.32464    212.03598    34646.235 
  156100    301.41659   -1467.5436    484.10024    377.73205    302.97945    34646.235 
  156200    297.74554   -1505.8172    485.94237    324.72231   -45.525379    34646.235 
  156300    298.79064   -1468.1246    496.79687    377.98902    19.692865    34646.235 
  156400     292.9496   -1476.6585    497.03519    343.31578   -298.89498    34646.235 
  156500    303.75261   -1479.9828    465.30517    357.04704   -116.33238    34646.235 
  156600    304.73398   -1518.3711    493.97332    351.75874    90.658657    34646.235 
  156700     294.8821   -1501.9117    478.85733    308.61171   -22.181868    34646.235 
  156800    299.31508   -1538.6596    489.85731    302.88284    123.49939    34646.235 
  156900    295.54033     -1474.17     474.5308    334.99945   -915.52283    34646.235 
  157000    297.43199   -1502.2873    462.48458    303.37851   -293.13266    34646.235 
  157100    292.63021   -1491.5439    460.85857    290.81137   -1242.9017    34646.235 
  157200    294.02507   -1520.5559    510.97195     318.2119    -690.6348    34646.235 
  157300    313.20133   -1550.3844    464.67835     328.6883   -954.46958    34646.235 
  157400    292.52647   -1520.7226    471.49946    271.80512    71.669816    34646.235 
  157500    286.60066   -1554.2522    516.62223    256.63776    71.232205    34646.235 
  157600    303.20501    -1538.681    480.39169    310.96246   -232.60665    34646.235 
  157700    302.34037   -1518.1547     477.0973    324.28976    100.78458    34646.235 
  157800    306.17476   -1538.3779    478.57441    322.85945   -319.35553    34646.235 
  157900    304.10798   -1512.3012    468.58454    329.61283   -455.05873    34646.235 
  158000    299.22184   -1522.7143    464.23462    292.78434   -487.49122    34646.235 
  158100    308.38449   -1502.0373     485.8465    376.45109   -585.22456    34646.235 
  158200    297.63131   -1518.5584    489.00855    314.53147   -738.38162    34646.235 
  158300    309.66979   -1540.3143     473.2101    331.34209   -416.83487    34646.235 
  158400    301.73261   -1518.8457    503.02027    346.77706    423.01352    34646.235 
  158500    289.51121   -1530.1765    489.33408    266.56913   -400.89925    34646.235 
  158600    300.25688   -1481.4913    481.97649    356.42338    64.077086    34646.235 
  158700    310.15815   -1527.7846    489.66471    362.53174   -431.24798    34646.235 
  158800    292.55147   -1484.1198    507.55819    344.57955   -207.51103    34646.235 
  158900     294.6341   -1493.8367    502.33286    339.04235   -339.97875    34646.235 
  159000    298.05381     -1497.84     498.5359    346.68523   -469.68777    34646.235 
  159100    304.33879   -1521.8181    508.17344    360.72713   -268.35631    34646.235 
  159200    291.57033   -1522.1237    471.09278    265.67953    344.72744    34646.235 
  159300    299.72338   -1487.0559    530.48671    396.95979    265.06771    34646.235 
  159400    297.27386   -1489.4108    487.72931    340.78557    649.40284    34646.235 
  159500    300.43464   -1419.6177    535.77823    472.90154    1077.5003    34646.235 
  159600    299.92416   -1465.9253    509.96015    398.47051    597.47167    34646.235 
  159700    301.34025   -1446.6331    506.75865     420.9562    285.71934    34646.235 
  159800    303.39978   -1473.8565    503.22792    399.50275    162.84315    34646.235 
  159900    309.37463   -1481.3543    511.81796    427.57701   -483.13968    34646.235 
  160000    299.23457   -1513.3785    481.71905    319.66209    29.738686    34646.235 
  160100    295.16895   -1551.3659    466.77177    248.36738   -74.691976    34646.235 
  160200    293.23025   -1528.1927    489.72559    285.73936   -737.01888    34646.235 
  160300     309.6769   -1507.3013     503.4886    394.66563   -517.12466    34646.235 
  160400    302.67522   -1462.6094    478.38575    382.63561   -977.42384    34646.235 
  160500    292.49585   -1496.5123    473.83232       298.21   -1484.2678    34646.235 
  160600    291.59827   -1505.3358    494.22057    305.72127   -1087.2911    34646.235 
  160700    299.14514   -1491.7802    490.26906    349.40654   -860.30721    34646.235 
  160800     292.3339   -1500.2169    503.30901    323.25069   -852.06417    34646.235 
  160900     288.4727   -1491.1115    503.34196    314.95218   -1235.7915    34646.235 
  161000    303.16458   -1441.5862    490.13116    417.61417   -34.205668    34646.235 
  161100    300.28885   -1516.6183    503.22573    342.69005    -525.9391    34646.235 
  161200     310.8441   -1490.1882    527.24533    440.80648    -449.1005    34646.235 
  161300    297.99918     -1477.44    484.87122    353.17388     317.6867    34646.235 
  161400    307.06498   -1497.3327    485.86153    375.21194   -170.26462    34646.235 
  161500    304.77145   -1508.2625    498.53033     366.5935     324.1892    34646.235 
  161600    294.75532   -1492.2665    493.52995    332.35701    164.17865    34646.235 
  161700    297.77874   -1490.7563    491.12088    345.11175    -263.6572    34646.235 
  161800    298.10784   -1450.0731    517.08452    413.24475    285.15394    34646.235 
  161900    296.95562   -1474.1096    492.35974     359.2801    341.07756    34646.235 
  162000    296.03428   -1454.3621    518.76412    401.27129    78.432289    34646.235 
  162100    296.63791   -1447.2862    499.45668    391.76565    388.40363    34646.235 
  162200    292.17723   -1454.7218    499.99121    364.72057    538.32642    34646.235 
  162300    311.68988    -1474.862    502.73168    435.43846   -68.532972    34646.235 
  162400    299.98835   -1447.9469    504.51807    411.29676   -627.53829    34646.235 
  162500    294.47449   -1489.0445    514.05586    354.83677   -460.57727    34646.235 
  162600     296.9019   -1441.6011     518.0189    417.20513    -301.9535    34646.235 
  162700    297.89595   -1448.4294    522.74161    419.58867    130.29737    34646.235 
  162800    295.76073   -1463.7026    485.50693    357.43823    100.72465    34646.235 
  162900    310.49848   -1433.6864    485.28408    453.78618    408.10044    34646.235 
  163000    300.48698    -1450.495    469.54315    376.02545    236.34388    34646.235 
  163100    294.97297   -1475.1988    511.69706    368.57472    373.07516    34646.235 
  163200    298.19889    -1469.161    510.11681    387.60028    554.64147    34646.235 
  163300    303.43032   -1504.0656    499.38895    365.59254    164.49986    34646.235 
  163400    292.88445    -1474.549    494.96037    343.05619    207.50319    34646.235 
  163500      300.613   -1497.5972     515.5498    375.49899    436.46633    34646.235 
  163600    306.81332   -1494.5889    511.18875    402.14651   -131.53426    34646.235 
  163700    296.72055   -1531.0002    505.59252    314.56068    125.34309    34646.235 
  163800    303.87246   -1486.0183    478.88615    365.13374    575.92857    34646.235 
  163900    293.50204   -1502.4016    502.91463    325.94684    396.24606    34646.235 
  164000    309.61671   -1513.3009    515.81862    400.72419    82.543957    34646.235 
  164100    296.00229    -1498.631     510.4934    348.58719    109.21163    34646.235 
  164200    294.61251   -1478.7909    469.29325      320.951   -247.54309    34646.235 
  164300    303.04827   -1437.3095    507.16005    438.39444   -211.97569    34646.235 
  164400     306.6001    -1439.002    513.79501    459.37671   -281.63204    34646.235 
  164500    295.57324   -1455.3056    498.56931    378.05094    1.3883559    34646.235 
  164600    304.11826    -1442.368    500.85255    431.86044    138.27764    34646.235 
  164700     297.8377   -1418.5187    519.15371    445.64839     183.7705    34646.235 
  164800     301.9589   -1468.4748    481.18361    376.33321   -152.61405    34646.235 
  164900    306.55176    -1469.163    516.35431    431.55681   -119.89854    34646.235 
  165000    303.46365   -1475.0831    498.01094    393.34759    140.02751    34646.235 
  165100    309.02232   -1467.8997    480.85399    408.47663   -157.02807    34646.235 
  165200    290.13277   -1450.2236    487.08276    347.07763   -574.41234    34646.235 
  165300    305.96568   -1507.3056    480.01268    354.42582   -364.43723    34646.235 
  165400    303.74704   -1497.4119    497.44297    371.73059   -584.28043    34646.235 
  165500    307.78098   -1539.4248    491.30874    341.80044   -678.53589    34646.235 
  165600    308.65266   -1469.8894     479.2012    403.16473   -148.56726    34646.235 
  165700    297.51407   -1505.2864    492.89531     331.1608    85.009832    34646.235 
  165800    298.96534   -1505.2371    501.20531    346.07389     402.7959    34646.235 
  165900    306.53439   -1515.1802    484.75486    353.86161    324.18064    34646.235 
  166000    300.07854   -1488.6406     500.0439    366.53621    985.88279    34646.235 
  166100    299.34335   -1468.5372    481.72539    365.00098    674.77404    34646.235 
  166200    308.25383   -1499.1947    483.80248    376.65969     431.8038    34646.235 
  166300    301.38033    -1513.039    492.03129    340.00398   -162.67348    34646.235 
  166400    295.02435    -1479.023    493.97906    347.26453    418.10656    34646.235 
  166500     308.0703   -1528.4255    494.68049    357.47802    709.81687    34646.235 
  166600    299.21816   -1473.1608    498.47449    376.56114    139.26254    34646.235 
  166700    297.72663    -1526.846    497.62341    315.28926    -390.4842    34646.235 
  166800    288.14616    -1492.598    492.74908    301.39815   -310.82404    34646.235 
  166900    300.79201    -1475.699    501.26208    383.91792   -326.16548    34646.235 
  167000    294.13577   -1459.0672    506.76357    375.99213   -371.87398    34646.235 
  167100    288.38121   -1432.0497    509.00655    379.26544     97.64245    34646.235 
  167200     294.4824   -1449.3326    523.37185    403.90031   -116.82744    34646.235 
  167300     299.4897   -1467.1634    498.82684    384.13715   -308.08874    34646.235 
  167400    288.69645   -1441.9965    498.33776    360.07339    557.39369    34646.235 
  167500    310.30191   -1481.7899    496.82895    416.33988   -195.58977    34646.235 
  167600    304.00499     -1483.24    498.42727    388.05171    423.61456    34646.235 
  167700    298.29086   -1438.4683    480.95785    389.54935    211.43855    34646.235 
  167800    295.90643   -1475.1441    492.72883    353.87662    321.65159    34646.235 
  167900    306.44654   -1501.8428    488.92017    370.96759   -358.94438    34646.235 
  168000    297.44145   -1449.5763    494.10148    387.74909    195.77323    34646.235 
  168100    296.75506   -1454.6373    482.61755    368.10453   -205.59264    34646.235 
  168200    300.40243   -1471.6964    495.33541     380.2345   -694.17621    34646.235 
  168300    300.06913   -1476.1122    462.28079    341.25891   -602.19118    34646.235 
  168400    298.14024   -1471.0064    523.06824    398.44151   -619.81846    34646.235 
  168500    302.21259   -1476.6744    505.81236    393.90803    285.59356    34646.235 
  168600    296.73667   -1479.3053    495.67255    356.40849    279.01626    34646.235 
  168700    305.68966   -1435.2537    494.93225    440.15082    297.53499    34646.235 
  168800    304.42301   -1511.7987    489.11759    352.07109    16.584941    34646.235 
  168900    304.76436   -1522.1312     471.7948    325.95721    230.20745    34646.235 
  169000    306.53454   -1464.5785    497.32306    417.03227    297.93263    34646.235 
  169100    296.32611   -1479.2167    488.42065    347.39114   -621.70479    34646.235 
  169200    313.08469   -1492.7946    500.34581    421.41889    142.54233    34646.235 
  169300    309.34485   -1485.4417    511.85217    423.38932   -73.531438    34646.235 
  169400    303.12836   -1461.6171     507.9186    415.20712    532.40326    34646.235 
  169500    284.86527   -1446.0509    507.43343    347.81338   -244.48169    34646.235 
  169600    288.22557   -1455.8324    504.39326    350.16657   -743.09069    34646.235 
  169700    297.37662   -1429.6696    511.16625     424.4278   -276.65893    34646.235 
  169800    309.41052   -1473.2584    523.89904    447.91606   -119.15983    34646.235 
  169900    303.25869   -1507.7546    497.45005    359.18957   -14.550698    34646.235 
  170000    306.67183   -1438.7204    523.02802    469.21533    116.34363    34646.235 
  170100    296.75403   -1481.9643    480.35485    338.51011   -429.61714    34646.235 
  170200    298.36518   -1533.8696    461.44422    274.97001   -581.89873    34646.235 
  170300    301.78329   -1468.5953    479.61934    373.85538   -376.29784    34646.235 
  170400    300.44155   -1464.6582    477.28246    369.39641   -74.572089    34646.235 
  170500    307.92471   -1483.4112    493.73508     400.8895   -295.59654    34646.235 
  170600    299.54064   -1497.5449    491.20447    346.36328    295.25409    34646.235 
  170700    303.18855   -1450.0825    511.08855    430.18351    558.25346    34646.235 
  170800    299.37784    -1506.692    471.04782    316.32438    172.45596    34646.235 
  170900    297.58803   -1450.0304    495.60999    389.46551   -806.35283    34646.235 
  171000    306.06365    -1473.915    511.43381    419.67999    -320.0919    34646.235 
  171100    295.42126    -1484.348    510.03984    359.79276   -219.76826    34646.235 
  171200    293.18134   -1489.4049    465.46822    300.04892   -236.39905    34646.235 
  171300    290.82526   -1457.6762    504.29216    359.96168   -116.59878    34646.235 
  171400    306.13407    -1468.966    498.02253    411.53568   -651.16693    34646.235 
  171500    307.97876   -1523.8006    503.57218    370.58122    -404.0959    34646.235 
  171600    305.84032   -1580.6013    476.90853    277.45987     531.2534    34646.235 
  171700    299.70215   -1533.2413    497.59354    317.78532   -289.43303    34646.235 
  171800    305.63988   -1499.3471    521.32124    402.22163     579.1381    34646.235 
  171900    296.71569   -1499.0606    475.08786    315.97372    850.30937    34646.235 
  172000    293.73648   -1495.6896    525.94731     356.7503   -141.63088    34646.235 
  172100    298.92127   -1489.3598    468.35602    328.90292    469.02117    34646.235 
  172200    303.16518    -1525.277    511.70862    355.50353    43.067169    34646.235 
  172300    299.34539    -1469.974    530.60329    412.45128     28.26412    34646.235 
  172400    290.87158    -1540.517    506.29951    279.33741   -408.37783    34646.235 
  172500    310.41085   -1517.7952    526.33216    410.32974    250.35398    34646.235 
  172600    300.47719   -1509.0439    495.70108    343.59033   -19.333276    34646.235 
  172700    303.03345   -1496.9576    482.53932    354.05873    218.54464    34646.235 
  172800    298.27966   -1495.5189     492.6488    344.13917     543.0141    34646.235 
  172900    308.60253   -1464.6266    510.59974    439.59969    459.43391    34646.235 
  173000    300.04351   -1506.5109    477.93673    326.40048    84.438793    34646.235 
  173100    308.94475   -1559.2178    484.37817     320.3324    49.550484    34646.235 
  173200     304.0055   -1528.6811    510.34085    354.52644    259.39069    34646.235 
  173300     298.9209   -1552.3973    504.06979    301.57749   -37.175618    34646.235 
  173400    293.07409   -1496.1034    514.13488    341.53275   -211.98629    34646.235 
  173500    294.99641   -1496.1113    553.63717    389.70814    -46.43319    34646.235 
  173600    310.02439   -1507.0219    512.14656    405.17223    315.34816    34646.235 
  173700    295.07065   -1525.5888    497.71561    304.64434   -301.40327    34646.235 
  173800    300.03874   -1497.3121    488.95501    346.59608    15.436536    34646.235 
  173900    293.24989   -1518.9734    504.84505    310.16676    223.61311    34646.235 
  174000    303.14428   -1521.8779    529.19717    376.29673   -482.08911    34646.235 
  174100    300.52732   -1528.5917    494.63826    323.20604    384.34162    34646.235 
  174200    300.95014   -1472.0387    522.72618    409.75638   -328.11265    34646.235 
  174300    304.28404   -1463.8515    501.02667    411.29971   -435.97309    34646.235 
  174400    304.72166   -1529.2572    491.22163     338.0653   -272.96189    34646.235 
  174500     299.7204   -1502.4769    502.00793    353.04649   -173.32147    34646.235 
  174600    289.66683   -1494.0534    495.29747    309.35837   -440.39117    34646.235 
  174700    302.03404   -1516.8679    484.48927    331.58515   -401.75277    34646.235 
  174800    295.60463   -1480.0241    496.47512    351.37998   -129.99701    34646.235 
  174900    300.25248   -1484.4403    509.21569    380.69372    231.69952    34646.235 
  175000    301.92589   -1494.3271    493.49113    362.63937   -751.76265    34646.235 
  175100     310.5468   -1489.2545    524.34824    437.50054   -668.60041    34646.235 
  175200    292.71005   -1516.6339    494.53165    299.75505   -409.79524    34646.235 
  175300    296.82417   -1473.0799    522.43784    389.79434   -611.29499    34646.235 
  175400    304.54928   -1525.4034    472.07465    321.99366   -457.19047    34646.235 
  175500    308.98627   -1453.8057    513.31506     454.8689    25.340419    34646.235 
  175600    290.56631   -1478.7378    539.24608    372.68458    45.096557    34646.235 
  175700    295.62256   -1510.2656    490.06079    314.80519    102.40687    34646.235 
  175800    304.14498   -1512.8843    497.02455     357.6369    574.36986    34646.235 
  175900    290.28955   -1524.9895    508.82501    294.76196   -750.38412    34646.235 
  176000    298.55426   -1495.8305    510.91882    363.33762    -780.3039    34646.235 
  176100      301.672   -1460.5331    507.08163    408.87734   -607.03488    34646.235 
  176200    299.73771   -1454.4955     514.6954    413.79357   -327.56614    34646.235 
  176300    298.80948   -1463.8565    509.40392    394.94925    36.475057    34646.235 
  176400    297.32003   -1446.5728    504.80267    400.90552    346.53621    34646.235 
  176500    308.03909   -1490.1858    488.27015    389.16649    693.06373    34646.235 
  176600    297.02958   -1486.6497    499.80828    354.52259    341.06622    34646.235 
  176700    292.30633   -1489.0389    497.73342    328.72862    789.48286    34646.235 
  176800    297.62264   -1503.3832    507.22475    347.88373    880.70931    34646.235 
  176900    297.73546   -1482.7893    516.51173    378.27411    237.35987    34646.235 
  177000    304.53063   -1486.4542    523.77212    412.55606   -23.911006    34646.235 
  177100    302.87756   -1533.2907    473.65724    308.13955    320.40238    34646.235 
  177200    297.37559    -1495.195    528.05606     375.7876   -175.81617    34646.235 
  177300     294.2047   -1525.1143    504.67054    308.16332     180.2532    34646.235 
  177400    301.35309   -1515.5461    478.84137    324.18389   -35.414702    34646.235 
  177500     292.4163   -1563.1975    505.68389    263.01714   -329.19789    34646.235 
  177600    301.00846   -1509.1497    508.22256    358.40514      97.5843    34646.235 
  177700    305.48107   -1487.3861    516.69222    408.83635    112.95609    34646.235 
  177800    310.80016   -1552.7421    517.72784    368.53669   -122.71324    34646.235 
  177900    287.13484   -1532.3385    525.04227     289.3838    21.898566    34646.235 
  178000    295.36669   -1524.0212    486.86703    296.70033    384.14067    34646.235 
  178100    299.93438   -1534.2037    492.85853    313.13666    494.26461    34646.235 
  178200    301.00614   -1509.5407    509.91787    359.69898    302.12536    34646.235 
  178300    302.55674   -1546.2445    456.50093    276.58062    270.40726    34646.235 
  178400     303.9614   -1480.2587    538.97396     431.3828   -58.021073    34646.235 
  178500    299.48604   -1547.0453    480.02547    285.43734    64.248795    34646.235 
  178600    299.48786   -1558.6268    507.27885    301.11736    117.10493    34646.235 
  178700    305.68199   -1536.6239    511.26988    355.08364    21.887821    34646.235 
  178800    298.89919   -1535.3596    484.93081    299.37819    84.355783    34646.235 
  178900    296.77294    -1549.537    484.09628     274.7643    352.29626    34646.235 
  179000    295.97775    -1519.294    524.49507    341.81506    49.003086    34646.235 
  179100    308.04933   -1562.7403    482.12774     310.5158    204.25618    34646.235 
  179200    294.34848   -1548.3677    502.43186    283.32053     256.3947    34646.235 
  179300    300.28193   -1570.4167    500.29437    285.92897     9.793963    34646.235 
  179400    287.49327   -1602.2292    467.88031    163.94982    196.94587    34646.235 
  179500    295.58868   -1571.4823    485.05873    248.43341   -102.71636    34646.235 
  179600    292.90762   -1548.2345    496.58771    271.10275   -65.443475    34646.235 
  179700    300.61111   -1549.6195    515.48207    323.40047    42.328551    34646.235 
  179800    296.22214   -1505.4749    485.62712    317.86991    0.6926378    34646.235 
  179900    299.55899   -1528.6848    473.21746    297.31923   -655.20547    34646.235 
  180000    305.98532   -1519.3429    499.45766    361.92215   -191.32021    34646.235 
  180100    291.46207   -1509.8231    504.42991    310.82827   -94.168615    34646.235 
  180200    287.62934   -1547.0684    505.39129    257.23611    598.99078    34646.235 
  180300    302.36037   -1494.2076    498.99929    370.22916   -81.138399    34646.235 
  180400    287.86048   -1529.7193    492.34819    262.58583   -33.516003    34646.235 
  180500    303.88305   -1552.4425    513.64049    333.51175    615.89929    34646.235 
  180600    296.99203   -1564.9086    484.28163    260.56747    587.17624    34646.235 
  180700    307.02386   -1521.9025    504.91747    369.51241    400.47721    34646.235 
  180800    304.30676   -1457.5173    524.34602    441.05592    562.92006    34646.235 
  180900     287.2124   -1497.3147    496.69336      296.409    372.02281    34646.235 
  181000    299.94215   -1461.3427    507.59991    400.77417    109.72824    34646.235 
  181100    315.90624    -1459.905     509.2376    475.94214   -12.483569    34646.235 
  181200    296.69027   -1461.8037    498.23234    376.26029    137.64474    34646.235 
  181300    307.56176   -1480.6932    513.26844     421.5018    121.95537    34646.235 
  181400    301.51491   -1464.3869    508.39684    405.62931    266.19997    34646.235 
  181500    301.59422   -1459.5078    512.84036    415.31015   -306.43399    34646.235 
  181600    302.87342   -1461.3619    518.03017    424.42257   -239.79505    34646.235 
  181700    289.06682   -1493.6318     521.4092    333.18216   -93.719885    34646.235 
  181800    291.56338   -1483.0398    500.67856    334.31774   -973.92357    34646.235 
  181900    299.17293   -1436.9923     500.1395    414.19036   -206.43783    34646.235 
  182000     300.1167   -1464.4898    488.27327     379.0887   -843.88692    34646.235 
  182100    311.99204   -1447.7073    494.60489    455.83098   -939.83447    34646.235 
  182200    297.40674   -1410.6595    491.28709     423.6948    -1382.411    34646.235 
  182300    305.90019   -1458.8294    489.29771    411.89129   -1586.6679    34646.235 
  182400    292.11257   -1495.5435    522.70579    346.32138   -1681.1049    34646.235 
  182500    301.44823   -1460.6682    501.34122    401.99127   -356.57539    34646.235 
  182600    292.37168   -1522.6372    490.40972    288.10175    12.681236    34646.235 
  182700    297.58443   -1504.0132    506.27119    346.12765   -225.68925    34646.235 
  182800    301.56729   -1477.8028    504.75808    388.81124     5.567316    34646.235 
  182900    303.92502   -1430.8668    494.81293    436.44944    523.19224    34646.235 
  183000    302.25739    -1476.648    502.78077    391.10522     348.3775    34646.235 
  183100    303.48762   -1471.8106    507.83698    406.55443   -240.73007    34646.235 
  183200    302.66461   -1412.8654    506.65123    460.59716    68.743305    34646.235 
  183300    293.97807   -1441.5134    515.00586    401.07605   -345.02335    34646.235 
  183400    313.21402   -1465.1445    511.14714     460.4543   -798.77424    34646.235 
  183500    306.90311   -1466.0204    534.74705    454.67875   -229.12753    34646.235 
  183600    301.81188   -1460.9131    505.80975    407.85718    -979.5534    34646.235 
  183700    286.22698   -1433.6869    498.73598    357.62935   -635.65722    34646.235 
  183800    297.63815   -1416.2777    514.47131    442.30583   -216.88543    34646.235 
  183900    306.91943   -1431.7309    487.91997    442.21492   -862.32124    34646.235 
  184000    312.74394   -1422.8201     517.8373    507.34606   -589.51983    34646.235 
  184100     303.3327   -1425.4302    506.23239    450.63054    35.716588    34646.235 
  184200    290.70762   -1439.2385    503.75184    377.32776   -552.13254    34646.235 
  184300    291.42929   -1409.8494    517.06516     423.2892   -227.15281    34646.235 
  184400     296.4851   -1413.9701    519.28361    444.21867    227.40968    34646.235 
  184500    302.66718   -1439.6889    493.24707    420.38112    581.19665    34646.235 
  184600    288.26216    -1477.267    486.87839    311.38232   -134.11906    34646.235 
  184700    307.12403   -1450.6823    536.93777    473.20522    196.20207    34646.235 
  184800    305.71846   -1469.7003    477.70043    388.60251    510.05216    34646.235 
  184900    309.37721   -1497.1506     514.8317     414.8061   -309.17802    34646.235 
  185000    294.19386   -1444.2583    503.90701    388.20675    442.04537    34646.235 
  185100    295.21812   -1429.3526    518.62134     422.4523   -49.673484    34646.235 
  185200    306.62613   -1450.7681    502.03364    435.96689    387.71573    34646.235 
  185300    295.69366   -1462.0445     491.4884    364.77493   -124.40006    34646.235 
  185400    286.60951   -1466.6682    487.21112    314.85058    115.26183    34646.235 
  185500     293.9428   -1535.7318    519.54761    311.24007   -295.65503    34646.235 
  185600    286.26007   -1517.1411    459.51161    235.10015    -842.8133    34646.235 
  185700    311.82237   -1507.9771     503.7761    403.96613   -110.46147    34646.235 
  185800    309.34569   -1494.5846    504.27473    406.67268   -303.86945    34646.235 
  185900    296.90368    -1500.877    490.84887    330.76734   -428.47993    34646.235 
  186000    310.94846   -1501.7436    491.51261    393.98963    18.145823    34646.235 
  186100    297.93065    -1505.155    517.60193    357.88002   -667.10948    34646.235 
  186200    298.81533   -1533.1382     464.4921    280.78215   -240.52749    34646.235 
  186300    296.96874   -1505.3585    501.05189    336.78264   -191.49705    34646.235 
  186400    309.04849   -1534.6465    507.12381    368.11776   -438.07963    34646.235 
  186500     296.2778   -1518.7584    484.73173     303.9423    139.90477    34646.235 
  186600    302.26269   -1508.7987    512.64139    368.83899    29.229657    34646.235 
  186700    302.20829   -1525.6991    510.23474    349.28629    561.29633    34646.235 
  186800     298.3905   -1513.6827    490.73218    324.55922    82.920206    34646.235 
  186900    302.76964   -1533.8075    522.10094    355.57914    96.547479    34646.235 
  187000    299.44521   -1517.7741    488.35699    322.85569    27.288884    34646.235 
  187100     286.9442   -1547.1053    473.64168     222.3555   -34.649274    34646.235 
  187200    294.94436   -1527.7854     500.0512    304.21308    513.66928    34646.235 
  187300    294.68539   -1523.7228    500.90754    307.96249    644.08516    34646.235 
  187400    296.81134   -1545.7607    504.82533    299.44301    368.10643    34646.235 
  187500    302.29085   -1547.7327    488.71615    306.10693    724.11912    34646.235 
  187600    291.24628   -1538.7651    506.73383    283.21574    120.89604    34646.235 
  187700    299.54408   -1517.5483    523.16568    358.33659    138.26383    34646.235 
  187800    293.98269   -1524.1667    504.97015    308.40788   -741.95112    34646.235 
  187900    308.72833   -1564.4772    487.71931    317.43672   -131.21582    34646.235 
  188000    303.21159   -1562.4868     487.9157    294.71033   -196.26958    34646.235 
  188100    299.11306   -1589.8474    496.61217    257.53754    -24.80766    34646.235 
  188200    307.17748   -1566.2387    505.88982    326.84227    125.56106    34646.235 
  188300    294.25301   -1562.3328    511.89036    278.38271    194.96975    34646.235 
  188400    296.91666   -1536.2909    503.82189    308.38507    42.705089    34646.235 
  188500    289.39817   -1491.2033    495.54446    311.24225   -243.46622    34646.235 
  188600    300.75307   -1528.2531    508.84405     338.7699    113.64122    34646.235 
  188700    307.41668   -1532.6242    511.52854    367.17567    1059.0509    34646.235 
  188800    308.26045   -1476.9421    500.04707    415.18669    1063.6166    34646.235 
  188900    299.85198   -1461.7551      543.436     435.7906    752.40293    34646.235 
  189000    293.83781   -1506.0736    471.22868    292.10527    453.51595    34646.235 
  189100    308.15496   -1492.3753    532.00946     431.2395    654.17745    34646.235 
  189200    303.02314   -1488.7213    517.59734    397.30643    765.68358    34646.235 
  189300    311.91907   -1467.0419    491.14955    432.71148    1076.0681    34646.235 
  189400    297.13347   -1453.1045    512.77015    401.49875    202.35704    34646.235 
  189500    304.44973   -1449.0357    527.38975    453.22692    -119.9683    34646.235 
  189600    300.31617   -1513.5963    485.43605    328.04575    352.22476    34646.235 
  189700    309.61464   -1484.5449    501.92088    415.57316    369.96105    34646.235 
  189800    303.36208   -1524.4187    530.51931    376.06172    387.07271    34646.235 
  189900    291.17804   -1517.2704    497.15374    294.82214    -60.30905    34646.235 
  190000    292.34617   -1511.5577      507.216    315.87231   -121.93929    34646.235 
  190100    302.51379    -1495.486    512.30628     382.9505    23.496455    34646.235 
  190200    298.06673   -1476.1596    500.14691    370.03502   -10.984113    34646.235 
  190300     293.4414   -1486.2736    503.07066    341.95709   -189.79096    34646.235 
  190400     301.3842   -1508.8656    505.04758    357.21114   -591.06714    34646.235 
  190500    302.45286   -1505.2914    493.45708    354.02077   -227.16063    34646.235 
  190600    310.43614   -1505.9093    514.06576    410.06353    -416.2019    34646.235 
  190700    300.34909   -1525.1717    506.13137     337.3143   -367.59871    34646.235 
  190800    304.90815   -1501.4037    506.14448    381.68374    -220.8612    34646.235 
  190900    307.96841   -1540.7589    505.97142    355.97545    129.08183    34646.235 
  191000    300.45117   -1521.5869    476.64778     311.8765    320.02359    34646.235 
  191100    293.03943   -1526.2013    496.47616    293.61959   -592.54935    34646.235 
  191200    300.85356   -1515.8109    486.83979    329.66167   -242.88122    34646.235 
  191300    295.93217   -1542.7513    491.46107    285.11788   -247.57289    34646.235 
  191400    303.40082   -1548.6899    522.82967    344.27576    94.691971    34646.235 
  191500    305.82518   -1535.6447     517.3831    362.82264   -210.19511    34646.235 
  191600    292.03336   -1477.0327    524.60329    366.37205   -740.46931    34646.235 
  191700    308.07783   -1479.5853    527.06333    438.73512   -86.073349    34646.235 
  191800    294.82956   -1512.6651      513.235     331.9988   -156.30423    34646.235 
  191900    299.08635   -1525.0759     499.0486    324.62484    340.49002    34646.235 
  192000    309.68557   -1563.7952    495.54804    330.27033    303.57587    34646.235 
  192100    300.51957   -1546.6609    506.19261    316.65627    44.191234    34646.235 
  192200    303.57291   -1561.9038    496.57583    305.58517    392.80027    34646.235 
  192300    293.02553   -1559.1912    507.57756    271.66829   -313.49828    34646.235 
  192400    302.13852   -1541.5797    497.90773    320.76355    33.111582    34646.235 
  192500    287.83109   -1540.4275    498.82795    258.22468   -156.09817    34646.235 
  192600    302.13688   -1579.6414    518.73141    303.51817   -146.85559    34646.235 
  192700    301.96009   -1520.7236    527.00234    369.90851    313.82899    34646.235 
  192800    307.20957    -1509.563    488.75231    366.52537    211.10018    34646.235 
  192900    297.37759   -1549.0744    507.81825    301.67942    442.64937    34646.235 
  193000     294.1408   -1546.8923    529.42352    310.84968    376.37585    34646.235 
  193100    298.22829   -1513.2429    481.44159    314.97592    27.853092    34646.235 
  193200     299.4388   -1549.2605    552.79972    355.78298   -227.60233    34646.235 
  193300    295.27592   -1574.1506    511.25236    270.54633    369.31457    34646.235 
  193400    301.22177   -1569.2978    505.70141     296.6992    354.05857    34646.235 
  193500     291.4496   -1542.0251     527.8836     302.0237    328.16398    34646.235 
  193600    290.50387   -1548.9366    489.85493    252.81269   -8.5108674    34646.235 
  193700    307.25317   -1530.2516    497.90791    355.18931    72.220452    34646.235 
  193800    297.29745   -1550.4048    513.95194    306.12075   -282.01983    34646.235 
  193900    311.42685   -1521.5359     501.2913    386.13636      390.147    34646.235 
  194000    296.55267   -1507.7083    499.87119    331.37315    435.92544    34646.235 
  194100    296.66077   -1544.2305    506.40705    301.87504    701.97587    34646.235 
  194200    305.14089   -1557.7446    518.69752    338.94697    1036.1865    34646.235 
  194300    311.75064   -1579.8422    502.73575    330.73675    168.26523    34646.235 
  194400    298.35799   -1595.8783    506.52881    258.01347    403.07919    34646.235 
  194500    296.41656   -1479.4639    516.49729    375.62896    123.32638    34646.235 
  194600    308.46691   -1515.2326    495.71353    373.49508    243.50875    34646.235 
  194700    290.45164   -1500.3978    530.97086    342.23148    32.176916    34646.235 
  194800    295.22253   -1485.6356    528.23664    375.80448    174.36578    34646.235 
  194900     300.1306   -1529.2609    489.80606    315.91305    72.860721    34646.235 
  195000    296.88831   -1499.5141    517.89745    359.10939   -457.98753    34646.235 
  195100    292.77782   -1509.8515    497.56819    309.88002   -32.598436    34646.235 
  195200    303.62676   -1531.9455    515.80907    355.01988   -60.735647    34646.235 
  195300     295.4652   -1554.3058    490.52047    270.51402    64.916886    34646.235 
  195400    311.03911   -1552.3904    489.48522    341.72487   0.31262996    34646.235 
  195500    299.47425   -1564.0711    519.96714    308.29998    1025.1895    34646.235 
  195600     284.3022   -1577.0934     536.2445    243.03914    693.89798    34646.235 
  195700     308.9444   -1577.2129    500.45774    318.41525    1519.9655    34646.235 
  195800    310.14391   -1575.1304    514.60937    340.06629    738.54916    34646.235 
  195900    300.94205   -1580.4111    518.05729    296.67862    332.22684    34646.235 
  196000    310.73499   -1571.0658     485.0477    317.23852    197.58319    34646.235 
  196100    295.71296   -1524.9913    497.85108    308.27803    480.81388    34646.235 
  196200    289.66485   -1506.1472    532.23831    334.19651   -58.649115    34646.235 
  196300    293.56005    -1533.679     497.8209    289.83771    426.30732    34646.235 
  196400    302.82436   -1577.9148    488.77679    278.39474    -292.7453    34646.235 
  196500    313.82907     -1564.19    507.03379    360.07301   -256.70398    34646.235 
  196600     290.6391    -1605.146      496.617    203.97599   -134.71324    34646.235 
  196700    304.36323   -1556.0053    504.02093    322.49781   -421.00307    34646.235 
  196800    291.44341   -1555.6229    527.11704    287.63134   -366.66879    34646.235 
  196900    299.09576   -1530.5659    487.90925    308.03808   -260.84625    34646.235 
  197000    296.70403   -1590.2222    503.26142    252.93307     -686.338    34646.235 
  197100    302.46638   -1604.4257    502.20125    263.69169    38.575501    34646.235 
  197200    300.54111   -1547.3991    517.05344    326.87614    -244.9409    34646.235 
  197300    296.01661   -1516.0877    509.77929    330.48103   -283.13825    34646.235 
  197400    294.86162   -1546.6784    495.17894    280.07417   -233.78035    34646.235 
  197500    291.97846   -1542.9864    503.69514    279.26223   -420.37989    34646.235 
  197600     313.9671   -1507.8277     481.2911    391.31597   -151.55212    34646.235 
  197700    304.28355   -1555.0842    495.40012    314.43834   -219.20057    34646.235 
  197800    298.98577   -1531.9118    527.12894    345.41509     410.4624    34646.235 
  197900    305.20363   -1571.4773    515.40282    322.20288     99.91661    34646.235 
  198000    304.42088   -1580.5137    499.89212    294.12092    120.68073    34646.235 
  198100    289.02609   -1557.8525    518.25691    265.62519   -681.83195    34646.235 
  198200    311.08093   -1531.1541    498.76005    372.42479    901.59295    34646.235 
  198300    309.69463    -1580.504     497.2161    315.27048    699.63402    34646.235 
  198400    294.39599   -1567.9072    518.01871     279.5824     460.8768    34646.235 
  198500    297.16703    -1558.861    497.80014    280.92383    38.019783    34646.235 
  198600    304.96225   -1610.4335    483.86311      250.617    379.89598    34646.235 
  198700    310.08861   -1623.0902    526.08723    303.33464    317.57309    34646.235 
  198800    294.47095   -1623.2641    481.32251    187.86783    206.62081    34646.235 
  198900     301.9665    -1615.394    501.40689    249.67162    83.805361    34646.235 
  199000    287.68432   -1578.0616    525.41916    246.51896   -505.03058    34646.235 
  199100    308.78517   -1561.2276    525.10943    358.33326    158.91745    34646.235 
  199200     305.1742   -1596.3463    495.54949    277.34769   -122.77638    34646.235 
  199300    300.65675   -1602.9867    520.41592    275.17325   -816.89026    34646.235 
  199400    288.75937   -1543.9421    494.31447    254.38867   -1120.2062    34646.235 
  199500    301.58118     -1559.38    485.36378    287.90242    -429.6562    34646.235 
  199600    287.86601   -1517.4408    490.72795    273.26918   -919.65745    34646.235 
  199700     297.8745   -1507.8268    519.86195    357.21476   -401.17849    34646.235 
  199800    281.28464   -1522.1114    500.08606    248.23566   -717.11888    34646.235 
  199900      304.784   -1516.8689    524.63386    384.14733   -206.85444    34646.235 
  200000    308.36239   -1503.3909    507.18092    396.33216   -148.33887    34646.235 
  200100    307.69401   -1516.6689    486.62625    359.48109    208.75826    34646.235 
  200200    301.25435   -1538.6239     517.7312    339.55007   -343.16329    34646.235 
  200300    298.18036   -1518.5477     487.4788     315.4919   -392.41017    34646.235 
  200400    294.38137   -1485.2246     504.4877      348.668   -542.69822    34646.235 
  200500    300.16063   -1498.6145    516.36959    373.25867    36.049412    34646.235 
  200600    295.11746   -1520.9727    468.30038    280.05666    352.77339    34646.235 
  200700    300.27298    -1515.063    550.58526     391.5332    118.54949    34646.235 
  200800    297.91184   -1541.0431    507.60033    311.90543   -538.33432    34646.235 
  200900    309.10383   -1516.3179    478.37113    357.94365   -40.844616    34646.235 
  201000    304.43092   -1478.5228    548.43691    444.70198    669.30936    34646.235 
  201100    315.91349   -1513.9919     500.8709    413.52135   -70.669899    34646.235 
  201200    309.50755   -1471.8413    539.61131    465.48356    222.79311    34646.235 
  201300    299.02437   -1479.5432    527.56431    398.39333    -241.6557    34646.235 
  201400    294.41306   -1459.3328    528.62166    398.83678   -13.819816    34646.235 
  201500    300.83269   -1525.0748    502.99557    336.45929    193.34399    34646.235 
  201600    300.80284   -1502.0818    529.34402    385.66597   -89.745711    34646.235 
  201700    300.58264   -1486.6916    490.40011    361.11784    281.61787    34646.235 
  201800    306.02676   -1536.0576    497.74509    343.68207    30.059302    34646.235 
  201900    299.33573    -1536.779    494.23796    309.23731    55.273447    34646.235 
  202000    298.54608   -1545.3917    507.84334    310.66401   -374.54763    34646.235 
  202100    295.51774   -1515.1983    494.23228    313.57056   -695.40047    34646.235 
  202200     307.7286   -1522.9261    489.27839    356.03229   -312.10333    34646.235 
  202300    304.47066   -1543.1259    509.74683    341.58831   -363.55936    34646.235 
  202400    295.89184   -1555.6056    498.78585    279.40629    -412.7278    34646.235 
  202500    302.40446   -1552.1799    498.49819    311.95483   -515.81496    34646.235 
  202600    292.92776   -1603.9367    476.01616     194.9199   -464.34916    34646.235 
  202700    309.37069   -1593.7883    507.21876    310.52593   -217.01682    34646.235 
  202800    295.40512   -1563.8373    503.29653    273.48729   -66.412313    34646.235 
  202900    300.43632   -1565.9853    494.11977      284.883   -589.52038    34646.235 
  203000    289.50862   -1535.8737    535.66084      307.187   -476.49661    34646.235 
  203100    305.48834   -1554.5173    497.43105    322.47683   -50.455119    34646.235 
  203200      295.229   -1511.8613    524.56291    345.93426   -353.14494    34646.235 
  203300    294.12571   -1513.9533    528.99709    343.29411    252.64079    34646.235 
  203400    302.49002   -1512.0999    505.61639    359.53939   -110.73663    34646.235 
  203500    296.21681   -1489.5313    512.19624    360.35855   -199.35992    34646.235 
  203600    292.24785    -1487.572    520.81266     353.0107   -634.85083    34646.235 
  203700    288.83946   -1519.0412    489.79049    275.12725   -211.95288    34646.235 
  203800    292.84823   -1472.8879    498.68773    348.28118   -632.71261    34646.235 
  203900    298.71744   -1462.7768    548.80173    435.01117   -612.26587    34646.235 
  204000     295.7369   -1465.7422    540.83673     410.6209    230.71502    34646.235 
  204100     294.4936   -1459.5076    513.37654    383.78057    535.99104    34646.235 
  204200    302.19775   -1463.3133    522.13061    423.52039   -190.44255    34646.235 
  204300    301.99735   -1475.2688    514.64518    403.17446   -188.84348    34646.235 
  204400    286.64969   -1490.6142     490.1347    294.00959   -743.22596    34646.235 
  204500     299.4355   -1471.6629    507.76065    388.32667   -595.50748    34646.235 
  204600    290.22408   -1513.5257    508.09242    305.19758   -659.25387    34646.235 
  204700     298.7309   -1515.2336    484.88765    318.70107   -894.63403    34646.235 
  204800    291.91359   -1527.3895    489.93517    280.80621   -893.43714    34646.235 
  204900    301.85422   -1486.2052    490.34424    367.29068   -506.00304    34646.235 
  205000      307.934    -1524.741    537.72773    403.59424   -342.48378    34646.235 
  205100    300.00064   -1516.0805    527.93729    366.63792   -239.29782    34646.235 
  205200     294.9318    -1503.427    478.54932    307.01289   -409.08327    34646.235 
  205300     299.1517   -1508.3899    507.26929    349.82674   -510.19938    34646.235 
  205400    301.02542   -1542.1799    473.74944    290.97844   -749.68437    34646.235 
  205500    299.47057   -1525.9759    508.09072    334.50211   -336.08617    34646.235 
  205600    293.97016    -1540.604    493.73345    280.67733   -453.11604    34646.235 
  205700     295.6274   -1502.6626    511.60604    343.97523    383.04575    34646.235 
  205800    293.89036    -1494.218    487.57934     320.5488   -99.084388    34646.235 
  205900    300.69362   -1481.9515     491.9533    367.91229   -443.46496    34646.235 
  206000    292.58388   -1484.3187    517.37873    354.34752     77.32695    34646.235 
  206100    293.23113    -1473.734    507.12613    357.60259    282.56112    34646.235 
  206200    291.95695   -1498.5284    482.54002    302.46793     322.0852    34646.235 
  206300    294.70098   -1473.2296    525.19169    382.81021     276.4842    34646.235 
  206400    310.29069   -1514.9398    502.67804    388.98843    883.53983    34646.235 
  206500    318.41955   -1542.0388    528.33773    424.25845    155.23239    34646.235 
  206600    296.24087    -1508.417     507.7535    337.13869    244.44038    34646.235 
  206700    297.41212   -1499.7215    505.92023    349.29019    718.10136    34646.235 
  206800    301.75989   -1498.7632    508.00722    371.96969    238.54519    34646.235 
  206900    309.82662   -1567.8008    493.80462    325.15822    632.88499    34646.235 
  207000    292.18971   -1535.7753    479.01483    262.74694   -13.519746    34646.235 
  207100    300.46383   -1573.8949    506.27577    289.25367   -416.42295    34646.235 
  207200    297.90281    -1525.113    511.44098    331.63542   -282.82895    34646.235 
  207300    292.72675   -1552.9805    512.65773    281.60992    99.581436    34646.235 
  207400    298.57642   -1518.9706    507.83287    337.21163    357.61844    34646.235 
  207500    300.91422    -1510.983    522.64326    370.56701    843.29956    34646.235 
  207600    303.64268   -1496.7447    494.32289    368.80645    590.56344    34646.235 
  207700    302.70733   -1513.3541    520.21138    373.86154    861.96948    34646.235 
  207800    299.45805   -1520.2048    546.36175    378.48774    1040.8752    34646.235 
  207900    308.64108   -1507.2191    511.34614    397.92767    367.08795    34646.235 
  208000    300.84944   -1536.3784    501.59318    323.82891   -702.03053    34646.235 
  208100    300.15765   -1544.3872    510.43179     321.5347   -209.36858    34646.235 
  208200    295.28643   -1579.9996    512.73489    266.22725   -477.03471    34646.235 
  208300    304.01526   -1548.6323    498.59455    322.87304   -47.041328    34646.235 
  208400    298.71945   -1555.7317    505.85508    299.11867   -267.43236    34646.235 
  208500    303.10085   -1543.3198    487.31796    312.77953   -295.04562    34646.235 
  208600    305.06009   -1533.1684    509.30655    353.76737    542.72369    34646.235 
  208700    304.96824    -1527.172    485.61144    335.65383    153.63791    34646.235 
  208800    301.46073   -1517.9242    484.42518    327.87573   -38.452031    34646.235 
  208900    291.09614   -1495.5776    512.46697    331.45834   -382.38286    34646.235 
  209000    300.03136   -1518.0533    488.90121    325.76769   -205.18604    34646.235 
  209100    291.35513   -1553.9564     510.7251    272.50725   -319.75147    34646.235 
  209200    304.72048   -1486.9808    490.89869    380.01335    91.588529    34646.235 
  209300    297.19665   -1552.7195    486.42045    275.81939     28.45505    34646.235 
  209400    302.78287   -1542.5675    500.68725    325.46519    757.83923    34646.235 
  209500    304.18525    -1532.638    515.01615    356.05659    625.54267    34646.235 
  209600    299.42421   -1531.1986    488.54406    309.52344    283.44052    34646.235 
  209700    298.87667   -1486.4286    502.18091    365.45764   -192.81072    34646.235 
  209800    291.07388   -1533.8199    484.15408    264.80266   -758.69851    34646.235 
  209900    298.09834   -1497.3205    495.74745    344.61741    -273.5044    34646.235 
  210000     303.1589   -1508.2665    502.02272     362.7997   -370.93913    34646.235 
  210100    304.69781   -1491.2803    501.48954    386.20243   -434.43304    34646.235 
  210200    301.61059   -1536.2575    502.27467    328.06865     321.0466    34646.235 
  210300     299.0312   -1508.8496    514.01843    355.57194    -222.3715    34646.235 
  210400    292.83802   -1486.8888    504.14773    339.69413    300.51315    34646.235 
  210500     308.7442   -1499.8921    516.98829    411.36249    459.19308    34646.235 
  210600    293.64156   -1523.7894    516.50414     318.7787    367.56613    34646.235 
  210700    304.78652     -1508.95     483.9376     351.3813    329.23196    34646.235 
  210800    305.49652   -1528.0661    487.92718    339.46115    379.86093    34646.235 
  210900    305.56083   -1485.1382    516.67619    411.42844    387.16792    34646.235 
  211000    305.69907   -1509.6161     480.0777    350.97636   -62.788209    34646.235 
  211100     300.1527     -1477.69     502.8439    380.62167    65.204134    34646.235 
  211200      286.913   -1482.0839    507.94012    321.53444    657.81885    34646.235 
  211300    310.46259    -1472.224    509.90705     439.7095    295.79366    34646.235 
  211400    304.19505   -1517.0663    511.46522    368.12163    84.014185    34646.235 
  211500    297.91679   -1529.0489    508.04785    324.36956   -211.03484    34646.235 
  211600    297.41455   -1514.4054    501.98382    330.68086   -218.61918    34646.235 
  211700    296.51923   -1512.5614    480.89506    307.39293   -618.05316    34646.235 
  211800    297.87281   -1512.4598    510.42441    343.13652    171.92489    34646.235 
  211900    291.17783   -1521.7608    482.40746    275.58458   -431.73045    34646.235 
  212000    311.27297   -1512.4762     517.2592    410.46906   -330.46291    34646.235 
  212100    301.82503   -1528.8888     489.2819    323.41298   -404.65742    34646.235 
  212200    305.90229   -1531.1508    516.53998    366.82161   -48.058846    34646.235 
  212300    300.40579   -1541.9203     489.0373    303.72763   -593.29213    34646.235 
  212400      304.008   -1562.0855    461.97248    272.76497   -169.78681    34646.235 
  212500    307.53515   -1523.3206    504.40781     369.8936   -571.66293    34646.235 
  212600    300.34631   -1533.5031     479.3707    302.20969   -376.87719    34646.235 
  212700    307.15928   -1503.0025    499.80326    383.90968    86.744993    34646.235 
  212800    309.52662   -1539.3392    510.63325    369.09374    350.98759    34646.235 
  212900    301.78767   -1590.2333    501.64303    274.26092    582.73664    34646.235 
  213000    295.89689   -1548.9861    478.54233    265.80501    764.70645    34646.235 
  213100    297.07766   -1541.3999    508.73063    308.91182   -227.81557    34646.235 
  213200    300.69547   -1474.3709    533.75522    417.30319    99.866932    34646.235 
  213300    292.54518   -1505.1106    470.29937    286.30151   -211.51427    34646.235 
  213400    295.11224   -1527.5036    486.42411    291.62593    216.24353    34646.235 
  213500    292.83104   -1555.8426    508.51541    275.07647    448.97526    34646.235 
  213600    304.45444   -1577.0016    502.84176    300.73422    522.81475    34646.235 
  213700    294.67788   -1595.5177    499.02836    234.25457    66.402545    34646.235 
  213800     299.1349   -1522.8484    499.89334    327.91638    154.13119    34646.235 
  213900    293.42687   -1494.0362    494.15339    325.21159   -49.562983    34646.235 
  214000    292.89084    -1548.514    499.12319    273.28298   -362.28266    34646.235 
  214100    301.41979   -1541.9748    513.47885     332.6939    274.89145    34646.235 
  214200    290.23712   -1541.7805    498.63548    267.54474    336.07788    34646.235 
  214300    298.61177   -1535.4535     468.0144    281.06992   -266.57649    34646.235 
  214400    291.08028   -1518.7008    527.32744    323.12397   -56.799601    34646.235 
  214500    294.20388   -1538.8073    494.65629    284.45228    171.09017    34646.235 
  214600    293.49707   -1541.8263    488.51551     272.1006    254.42621    34646.235 
  214700       294.04   -1542.8409    485.60216    270.62454    170.88142    34646.235 
  214800    300.77975   -1545.8318     500.3274    312.79501   -108.36448    34646.235 
  214900    300.59429   -1553.5444     495.1476    299.06511   -530.22051    34646.235 
  215000    298.60319   -1566.3534    480.67692    262.79375    25.545216    34646.235 
  215100    291.44008   -1504.6913    504.05229    315.48319    159.07844    34646.235 
  215200    300.92738   -1537.2606    471.51222    293.21778    329.42411    34646.235 
  215300    303.52034   -1553.4718    519.59369    336.79765    603.22397    34646.235 
  215400    304.88306   -1523.8164    495.41305    348.42639    382.22415    34646.235 
  215500    301.45299   -1530.7598    487.02889    317.60883   -712.64824    34646.235 
  215600    309.51039   -1525.9138    478.93734    350.74994    -284.3027    34646.235 
  215700    294.17119   -1492.8753    535.48919    371.06955    638.94798    34646.235 
  215800    301.12363   -1510.4128    508.25861    357.69823   -54.114544    34646.235 
  215900    301.62144   -1502.8764     504.5106    363.73469    349.14298    34646.235 
  216000    293.07776   -1576.9854    491.44125    237.97374    514.89948    34646.235 
  216100    312.43806    -1541.885    474.17799    343.24051   -5.3440742    34646.235 
  216200    296.00152   -1516.7593    472.05598      292.018    212.94767    34646.235 
  216300    306.63484     -1536.44    492.76117     341.0618   -100.69695    34646.235 
  216400     291.8155   -1570.2714    473.06061     220.6068   -294.29098    34646.235 
  216500    288.50165   -1560.4557    504.62329    247.02008   -565.86484    34646.235 
  216600    307.56117   -1574.5592    494.42454    308.78919     15.20111    34646.235 
  216700    301.88534   -1552.5513     491.1372    301.87808   -425.34129    34646.235 
  216800     304.5999   -1543.5432    521.83424    353.84206    204.83455    34646.235 
  216900     310.4767   -1551.2665    491.22803    342.05174    279.98723    34646.235 
  217000    312.24168   -1532.3658    504.01676    381.71167   -89.160609    34646.235 
  217100    286.28507   -1534.3454    502.70127    261.19838    23.165279    34646.235 
  217200    301.76628   -1540.6741    486.85387    308.93429    -375.0974    34646.235 
  217300    305.54449   -1517.9227    482.04133    343.93531   -91.577435    34646.235 
  217400     305.5656   -1505.4495    524.41152    398.87397   -135.61386    34646.235 
  217500    313.01404   -1564.3077    503.10874    352.34966    197.97256    34646.235 
  217600    293.93791    -1569.787    480.50623    238.12146    127.56077    34646.235 
  217700    296.50341   -1544.5032    496.76981     291.2544    484.18248    34646.235 
  217800    300.46739   -1603.1243    512.07048    265.83506    284.60862    34646.235 
  217900     295.7294   -1560.6961    510.13236    284.92871    63.343636    34646.235 
  218000    304.79411   -1532.6763    526.23881    369.99053    461.80135    34646.235 
  218100    291.40326   -1528.9866    489.46356    276.43286    279.23996    34646.235 
  218200    295.84075   -1518.8948    456.79627    273.89674    369.06162    34646.235 
  218300    307.26309   -1583.4119    480.24807    284.41396   -331.92988    34646.235 
  218400    300.22345    -1557.774    484.18305    282.19628   -160.75164    34646.235 
  218500    300.54295   -1538.7793    495.95785    314.40868    246.91349    34646.235 
  218600     302.0692   -1555.0527     474.1846    283.25441    327.81476    34646.235 
  218700    296.82486   -1572.9976    515.03659    282.47841    -39.18219    34646.235 
  218800    293.18288   -1574.3748    480.54607    230.16379   -37.159725    34646.235 
  218900    319.37409   -1575.0743    455.07993    322.27578   -391.52638    34646.235 
  219000    302.69034   -1524.3146    515.58013    358.19308   -212.46189    34646.235 
  219100    308.21599   -1540.2575    501.12722    352.75068   -462.02723    34646.235 
  219200    298.07671    -1517.502    488.41308    317.00385    400.89699    34646.235 
  219300    308.80337   -1504.3786      507.536      397.691    724.18632    34646.235 
  219400    292.57188    -1538.468    494.64405    277.40936    211.36412    34646.235 
  219500    298.08214   -1473.6823    503.85004    376.28498    498.70054    34646.235 
  219600    293.44738    -1446.596    499.24838     377.8394    763.63001    34646.235 
  219700    282.97628    -1520.965    490.07201    247.00735    1115.7567    34646.235 
  219800     300.9508   -1534.3239    496.57702    321.32505    976.45824    34646.235 
  219900    293.55747   -1505.2638    496.34971    316.77009    418.35838    34646.235 
  220000     299.4859   -1497.5388    508.97816    363.89593    271.06593    34646.235 
  220100    312.51176   -1515.0478    498.72577    394.95828    169.25361    34646.235 
  220200    296.50743   -1521.0198    506.93933    324.92547    563.68796    34646.235 
  220300    306.36134   -1504.0908    479.55268    358.96742    388.44572    34646.235 
  220400    307.80356    -1550.476    488.29599     327.8384   -300.84767    34646.235 
  220500    303.96683   -1522.7036    510.25703    360.24552    -424.5845    34646.235 
  220600    277.56399   -1490.0673    510.16373     273.5552   -720.21581    34646.235 
  220700    310.23118   -1467.6546     480.5156    413.84245   -253.11839    34646.235 
  220800    308.27868   -1470.1629    516.76305    438.76429    245.62843    34646.235 
  220900    295.67099   -1505.0772    532.28076    362.43226   -670.20698    34646.235 
  221000    293.97778   -1486.4902    477.89639    318.98848   -1114.9585    34646.235 
  221100    307.62869   -1484.3501    482.03602    386.91466   -711.94066    34646.235 
  221200    303.58388   -1495.4356    505.87201    381.39906   -554.12216    34646.235 
  221300    295.91495   -1464.8493    534.00336    405.48445    -1012.691    34646.235 
  221400    304.84378   -1471.3181    495.64748     400.9817   -443.35535    34646.235 
  221500    308.57729   -1455.6548    503.33352    441.19134   -654.51182    34646.235 
  221600    293.13875    -1484.689    509.50019    348.60442   -488.73532    34646.235 
  221700    299.52027   -1485.2525    494.44504     361.8043   -500.74957    34646.235 
  221800    302.43842    -1458.695    500.58619    407.68103    146.66399    34646.235 
  221900    300.10486     -1453.32    508.89779    410.82947   -85.232464    34646.235 
  222000    295.06437   -1457.0329    490.39257    365.84887    329.00658    34646.235 
  222100    309.36535   -1489.8909    493.12115    400.30171    155.94686    34646.235 
  222200    297.84855   -1517.8226    476.95889    304.19863   -800.26179    34646.235 
  222300    296.27026   -1510.9013    507.71778    334.75146   -594.30304    34646.235 
  222400    295.35533   -1543.7148     499.5151    289.60349    159.23634    34646.235 
  222500    303.00193   -1556.7165    497.96803    309.58626    271.73477    34646.235 
  222600    298.32768   -1499.4779    512.09508    359.84323   -72.796864    34646.235 
  222700    304.49787   -1520.7527    500.05267    354.39022   -204.28819    34646.235 
  222800    303.56268   -1534.6848    500.35633    336.53846    154.10666    34646.235 
  222900    296.06076   -1504.1193    521.90557    354.77509   -308.10748    34646.235 
  223000    299.47327   -1477.0479    500.42739    375.77895   -321.79541    34646.235 
  223100    297.35245   -1450.7968    500.51156     392.5368    -136.8028    34646.235 
  223200    296.98513   -1498.7187    520.57422    363.01873   -462.11181    34646.235 
  223300    298.56172    -1504.731    492.10256    335.65455     106.2661    34646.235 
  223400    294.37926   -1509.2519    495.65947    315.80286    -648.4213    34646.235 
  223500    296.23379   -1527.8705    510.81397    320.71374   -106.22717    34646.235 
  223600    303.68663   -1504.9247    509.23396    375.73596   -369.95476    34646.235 
  223700    294.88109   -1510.7866    493.32162     314.1966   -340.99494    34646.235 
  223800    293.66294   -1516.3946    488.54823    298.31408   -130.56248    34646.235 
  223900    304.22538   -1525.8654    494.97508    342.96936   -441.27587    34646.235 
  224000    302.79441   -1493.6631    509.12539    382.85987     269.9486    34646.235 
  224100    289.16314    -1475.734    496.99846    327.10412    364.62907    34646.235 
  224200    298.26655   -1509.3452     482.8676    320.47243    646.36573    34646.235 
  224300    296.18713    -1529.066    503.29553     311.7891    474.69181    34646.235 
  224400     292.4527    -1511.937    521.59154    330.34959   -446.88238    34646.235 
  224500    297.56798    -1525.125    508.89837    327.56878   -272.49859    34646.235 
  224600    296.36625   -1501.8354    486.62496    323.15796    189.90354    34646.235 
  224700    305.92642   -1473.9923     526.7318    434.28091    143.43954    34646.235 
  224800    291.21405   -1490.2411    516.42133    341.28172    87.186134    34646.235 
  224900    309.45473   -1449.1146    511.64643    460.00684    464.90382    34646.235 
  225000    292.92993   -1441.6545    494.36211    375.55784    420.00343    34646.235 
  225100    299.37026   -1466.1858    520.07435    405.82285    122.66103    34646.235 
  225200    293.85578   -1432.6993    516.97453    411.30653   -451.29888    34646.235 
  225300    297.75574   -1461.3885    492.43811    375.69289    -651.9112    34646.235 
  225400    295.92242   -1464.4986    496.02875    367.89423   -612.24277    34646.235 
  225500      296.958   -1474.7693    500.30968    366.58108   -360.11579    34646.235 
  225600    293.84347   -1503.6895    503.19464    326.48087   -21.661989    34646.235 
  225700    296.09749   -1465.1836     485.5801    357.55125     385.8541    34646.235 
  225800    294.79534   -1454.6246    516.35822    393.00794    84.201843    34646.235 
  225900    297.43771   -1479.5088    523.60762    387.30587    931.75264    34646.235 
  226000    299.19576   -1458.6827    516.35683    408.82043     652.5081    34646.235 
  226100    293.93832   -1435.0405     503.0612    395.42474    463.40672    34646.235 
  226200    297.03894   -1469.3685    528.89333    400.93111    366.19304    34646.235 
  226300    290.91557   -1441.5706     532.9834    405.16632    204.46986    34646.235 
  226400    301.18076   -1411.4929    539.03592    487.65339    99.096898    34646.235 
  226500    301.49925   -1491.0433    495.87689    366.38222    126.28346    34646.235 
  226600    301.18721   -1514.5827    524.81849    370.37526    458.72078    34646.235 
  226700    302.14271   -1468.5609    490.95848    386.85208    238.30664    34646.235 
  226800     297.5993    -1500.033     523.7578    367.66158    278.38145    34646.235 
  226900    315.08307   -1516.9118    522.16578    428.14618    -148.1021    34646.235 
  227000    300.43702   -1505.7663    491.57896    342.56434   -229.50508    34646.235 
  227100    304.55269    -1511.062    512.94936     377.2252   -2.8657364    34646.235 
  227200    296.14488   -1506.2077    495.83828    326.99927    -116.1005    34646.235 
  227300    311.27646   -1485.3873    506.59306    426.90756    313.02559    34646.235 
  227400    295.35145   -1468.5508    497.83827    363.07318    244.69599    34646.235 
  227500    294.21018   -1491.9275    495.48419    332.18846    852.20128    34646.235 
  227600     297.8876   -1516.2368    478.26498    307.26691    622.21155    34646.235 
  227700    304.97193   -1541.0447    502.54035    338.72669    471.60744    34646.235 
  227800    294.23739   -1537.9978    512.20643    302.96326    500.52564    34646.235 
  227900    301.64588   -1534.1245    497.54334    325.62965    -397.1429    34646.235 
  228000    300.07795   -1506.9475     493.5218    341.70447   -648.35922    34646.235 
  228100    289.57585   -1506.4265    483.60942    284.88638   -1243.8811    34646.235 
  228200    302.42915   -1481.2367    501.84342    386.35477   -433.88384    34646.235 
  228300    302.08667   -1493.7067    478.35737    348.85207   -37.771758    34646.235 
  228400    293.12814   -1499.5998    494.97955    319.12504   -47.958877    34646.235 
  228500    299.52645   -1467.1466    516.58175    402.07478    155.31518    34646.235 
  228600    303.38435   -1459.4393    512.25684     422.8792    298.76845    34646.235 
  228700    301.42559   -1459.2327    488.16137    390.14469    47.799061    34646.235 
  228800    299.24966   -1440.5824    527.12636    437.93363    424.51226    34646.235 
  228900    304.95031   -1458.7336    533.11118    451.51093    683.23205    34646.235 
  229000    300.49679   -1470.5929    543.99281    430.42158    573.59956    34646.235 
  229100    298.56661   -1523.2794    495.50056    320.52627    467.88304    34646.235 
  229200    301.80752    -1505.158    521.88242    379.66525   -100.31078    34646.235 
  229300    291.80339   -1479.6089     522.3472    360.50121   -123.83671    34646.235 
  229400    296.63725    -1482.712    488.11025    344.99046   -435.08271    34646.235 
  229500     292.9123   -1490.8328    528.87477    360.81261    160.98731    34646.235 
  229600     289.7035   -1494.0306    511.67922    325.92852    166.32128    34646.235 
  229700    288.40565   -1503.0959    533.13778    332.46081   -124.37783    34646.235 
  229800    305.15067   -1475.4139     509.6543    412.27865   -502.50334    34646.235 
  229900    292.98115   -1488.1268    507.92854    342.88325    82.139628    34646.235 
  230000    291.71078   -1461.0928    521.28167    377.53348    403.50712    34646.235 
  230100    293.13294   -1498.6227    480.05544    305.19978    42.260771    34646.235 
  230200    306.56535   -1507.2496    501.21902    378.39629    382.94134    34646.235 
  230300    296.89999   -1470.2515    495.72697    366.25424   -361.72817    34646.235 
  230400    303.58467   -1498.6311    510.17742    382.51262    -685.3816    34646.235 
  230500    295.86272   -1505.8645     493.6956    323.92568    293.17839    34646.235 
  230600     308.7975   -1517.5519    506.65404     383.6092    324.59301    34646.235 
  230700    293.10632   -1490.0792    482.92751    316.49511    413.17107    34646.235 
  230800    288.50454   -1466.8659    532.73683    368.73648    548.12716    34646.235 
  230900    297.53648   -1496.2281    526.92525    374.35023    1016.3563    34646.235 
  231000    302.55566   -1491.9257    509.24202    383.63568    743.79476    34646.235 
  231100    293.70543    -1526.989     493.2528    292.61614    231.66306    34646.235 
  231200    295.64139   -1543.8965    471.87188    263.07042    629.39658    34646.235 
  231300    288.97871   -1520.0049    499.49442    284.49636   -357.34031    34646.235 
  231400     303.5342    -1536.853    492.21533    326.10071   -307.74668    34646.235 
  231500    301.63214   -1483.9603    497.02289    375.21141    -32.14106    34646.235 
  231600    298.97238   -1504.1759    497.24459    343.20616    154.56099    34646.235 
  231700    309.24576    -1501.734    484.37948    379.17682    713.34683    34646.235 
  231800    302.32071   -1512.9216    520.53763    372.87439      251.197    34646.235 
  231900    295.70073   -1445.7676    477.94402     367.5394    370.27847    34646.235 
  232000    294.89526   -1458.3964    490.80199    364.13117    377.53997    34646.235 
  232100    303.35783   -1546.5551    517.38713    340.77388    454.64775    34646.235 
  232200    296.03977    -1489.412    504.93188    352.41396   -63.493757    34646.235 
  232300    292.05279   -1474.6834    492.43802    336.64376   -202.29733    34646.235 
  232400    303.17997   -1431.1954    533.74773      471.691   -427.70751    34646.235 
  232500    295.65143   -1464.1462    513.55254    384.54671   -10.551266    34646.235 
  232600    292.21656   -1479.6353    507.25727    347.25067   -481.93664    34646.235 
  232700    293.56926   -1504.4074    498.19739    319.52742   -741.87208    34646.235 
  232800    294.59254   -1516.0942     498.1571    312.42139    -196.5195    34646.235 
  232900    290.51098   -1525.7241    502.14816    288.35049   -200.55613    34646.235 
  233000    296.48586   -1468.1817    470.61774    341.34459    326.28687    34646.235 
  233100     302.3331   -1465.8519    500.90352    400.36586    536.49171    34646.235 
  233200    298.57704   -1532.5546    486.98142    302.77903    382.44741    34646.235 
  233300    297.73477   -1509.3463    503.50406    338.70635    1023.9996    34646.235 
  233400    306.38186   -1511.0198    484.79826    357.37669     131.6591    34646.235 
  233500    290.56759   -1471.7245    542.43119    382.88875   -67.474141    34646.235 
  233600    292.74492   -1490.5991    522.79781     354.2135    703.28055    34646.235 
  233700    293.60954    -1460.796    519.90313    385.02644    608.15962    34646.235 
  233800    304.18392   -1493.2437     509.5429    389.97164    299.79102    34646.235 
  233900    306.34231   -1473.6665    503.69176    413.44479    573.40819    34646.235 
  234000    294.87242   -1479.2118    499.82928    352.23986   -60.510444    34646.235 
  234100     295.8132   -1476.4183    503.49127    362.94387    794.15624    34646.235 
  234200    307.94457   -1482.7004    549.25256    457.20738      312.898    34646.235 
  234300    312.72991   -1480.7468    511.29946    442.81813    594.38062    34646.235 
  234400    296.78545   -1461.7836    500.46706    378.94497    581.16058    34646.235 
  234500    300.67637   -1457.1789     525.2967     425.9504   -47.929097    34646.235 
  234600    291.92947   -1457.4925    513.15728    373.99702   -64.511547    34646.235 
  234700     300.2815   -1462.4969    510.98174    404.53424    97.152087    34646.235 
  234800    308.93795   -1493.6001    510.80048    412.34163   -227.28031    34646.235 
  234900    300.71039   -1490.8456    496.64759    363.78825   -80.742498    34646.235 
  235000    298.93062     -1501.46    495.15475    343.64369   -428.02687    34646.235 
  235100    303.09194   -1540.7992    507.77026    335.71221    202.81444    34646.235 
  235200    303.70652   -1478.2887    511.91882    405.14667     206.7807    34646.235 
  235300    294.41978   -1499.4343     508.5041    338.64805    445.64592    34646.235 
  235400    299.10067   -1497.9076    501.61384    354.42309    305.46857    34646.235 
  235500    309.62517   -1496.3476    507.61792    409.51505   -476.21273    34646.235 
  235600    296.20348   -1510.3139    491.40914    318.72857   -73.961084    34646.235 
  235700    295.17282   -1479.7495    509.66772    362.89723   -315.57248    34646.235 
  235800    303.34727   -1486.2906    517.74553    401.34916   -251.14052    34646.235 
  235900    305.26147   -1478.4736    492.59315    392.65811     124.6921    34646.235 
  236000    300.01984   -1469.1986    527.13642    412.80554    833.56624    34646.235 
  236100    298.96548   -1460.5237    506.66143    396.24408    994.72092    34646.235 
  236200    310.88508   -1422.3032    511.71876       493.35    143.52281    34646.235 
  236300    300.49585   -1425.2772    518.99389    450.73408    644.59281    34646.235 
  236400    303.43497   -1477.0803    512.16786    405.37779   -476.01986    34646.235 
  236500    297.13598   -1476.0468    505.50845    371.30608   -922.17341    34646.235 
  236600    292.82609   -1461.5591    504.02639    364.84858   -158.00952    34646.235 
  236700    295.27582   -1474.2608    484.81604     343.9993   -317.80339    34646.235 
  236800    306.27657   -1474.1556    506.26932    415.23643   -298.09509    34646.235 
  236900    293.93514   -1509.1127    480.72415    299.00111    26.140634    34646.235 
  237000    287.09656    -1498.572    498.58325    296.51838    170.32655    34646.235 
  237100    301.43536   -1470.0011    534.48411     425.7432   -69.564622    34646.235 
  237200    293.30387    -1469.891     505.5113    360.15919    326.93187    34646.235 
  237300    298.96637   -1489.7361    510.05249    370.42673    328.49248    34646.235 
  237400    312.36675   -1459.7558    499.54398    450.41366   -175.04813    34646.235 
  237500    302.89856   -1425.0379    482.60195    425.43185   -150.41847    34646.235 
  237600    304.85864   -1463.1901    501.00016    414.52948    -869.2209    34646.235 
  237700    303.78499   -1474.6031    473.92812    371.19594   -469.37727    34646.235 
  237800    303.38596   -1497.5864    469.81066    342.29315     39.51136    34646.235 
  237900    303.48414   -1489.2474    463.36617    344.63106   -340.82725    34646.235 
  238000    296.65318   -1539.8249    490.56158    290.40084   -134.42944    34646.235 
  238100    303.63423   -1540.3711    486.04061    316.85957    384.41642    34646.235 
  238200    302.66983   -1518.1543    506.21042    354.89109     329.3056    34646.235 
  238300    297.63377   -1504.9202    491.57153    330.74375    638.96211    34646.235 
  238400    290.02097   -1512.9753    508.01672    304.75501    551.81097    34646.235 
  238500    288.49745   -1520.7734    509.34056    291.40061     496.6407    34646.235 
  238600    288.48403   -1501.9806    484.35842    285.15072    456.89657    34646.235 
  238700     293.8145   -1524.2455    517.44383    320.04322    249.65563    34646.235 
  238800    301.03095    -1492.125    495.75886    363.06768    255.48646    34646.235 
  238900    311.07833   -1510.1143    467.58778    362.28059   -68.488063    34646.235 
  239000    297.73436    -1539.136     528.4008    333.81146    210.30125    34646.235 
  239100     291.3476   -1454.5505    476.53842    337.69254   -500.73013    34646.235 
  239200    295.88821   -1468.8365     511.6018    378.97488   -684.14081    34646.235 
  239300    301.94416   -1466.0761     483.5233    381.00506   -373.57956    34646.235 
  239400    290.47639   -1457.8477    526.41925    380.34175    21.343335    34646.235 
  239500    299.96913   -1465.2947    509.88701    399.23105    1040.3397    34646.235 
  239600    299.52444    -1486.009    511.73796    378.35949    763.26329    34646.235 
  239700    298.75373   -1532.9012    474.39234     290.6412      585.078    34646.235 
  239800     306.0891   -1533.9119    521.51709    369.88125    1012.8002    34646.235 
  239900    288.81075   -1526.1755    526.75941    304.83227    753.71986    34646.235 
  240000    302.28097   -1502.0254     500.1657    363.21914     462.9785    34646.235 
  240100    308.37262   -1498.7217    498.96852    392.83509   -86.752721    34646.235 
  240200    298.62956   -1511.4111    471.83418    309.01246    185.93373    34646.235 
  240300    307.01106   -1496.2665    468.04039    358.21352   -587.72882    34646.235 
  240400    307.17413   -1501.3149    501.03839    386.89948   -301.53635    34646.235 
  240500     299.3386   -1528.5342    508.66348    331.92059   -518.60407    34646.235 
  240600    301.92128   -1485.8014    489.73439    367.38747   -161.57392    34646.235 
  240700    301.62604   -1480.3433    507.86255    389.64047   -211.89785    34646.235 
  240800    303.13383   -1503.8484    481.81103    346.89292   -440.61035    34646.235 
  240900    305.34447   -1457.2338    481.55443    403.23404    381.01309    34646.235 
  241000    304.48467   -1456.4445    484.67202    403.25813    329.79533    34646.235 
  241100    304.12669    -1465.443    493.21998    401.19095   -547.95108    34646.235 
  241200    297.01703   -1495.3536    480.46284    326.41654   -1079.8309    34646.235 
  241300    306.00361   -1497.4303    494.54847     379.0082    -883.9749    34646.235 
  241400    298.29922   -1518.0444    502.57488    331.62801   -647.76613    34646.235 
  241500    301.97668   -1422.4702    496.95034    438.18481   -342.67102    34646.235 
  241600    310.51211   -1500.6117    496.21311    397.85149   -236.67371    34646.235 
  241700    311.38612    -1506.688    466.83019     366.3392   -154.75133    34646.235 
  241800    294.87993   -1539.9367    473.39258    265.11215   -31.156592    34646.235 
  241900     303.1085   -1493.5895    495.89944    371.12586   -463.19112    34646.235 
  242000    303.09637   -1521.8159    475.54952    322.49473    10.662534    34646.235 
  242100     294.2283   -1528.2814    455.73268    256.16492     292.2843    34646.235 
  242200    296.77413   -1480.4619    520.75114    380.49962   -42.108761    34646.235 
  242300     298.0583   -1504.6808    479.08348    320.41228    45.579377    34646.235 
  242400    299.83133    -1449.844    511.76335    415.93575    183.40208    34646.235 
  242500    298.29743   -1474.9448    455.79703    327.94167   -199.90218    34646.235 
  242600    292.32653   -1488.6624    515.03896    346.50188   -382.10814    34646.235 
  242700    303.42243    -1493.096    502.54079    379.67839   -300.57285    34646.235 
  242800    297.25953   -1529.4475    478.10927    291.06419   -196.64188    34646.235 
  242900     301.2086   -1511.1605    512.16104    361.23668   -99.825803    34646.235 
  243000     302.5873   -1469.7729    508.19616    404.88548    289.16783    34646.235 
  243100    297.62623   -1515.4025    476.13327    304.78916    273.38699    34646.235 
  243200    300.21305   -1472.9247    489.83597    372.65155    869.79617    34646.235 
  243300    310.67026   -1509.1227    481.70795    375.54959    596.87457    34646.235 
  243400    306.17657   -1456.9331    486.09383    411.83181    183.86359    34646.235 
  243500    295.18533   -1502.3745    491.88886    322.54982    -30.84391    34646.235 
  243600    293.50331   -1499.3027    510.68574    336.82259    6.9013994    34646.235 
  243700     308.0368   -1485.2031    491.43823    397.30693   -100.67333    34646.235 
  243800    310.72173   -1487.7565    476.36509    391.80532    21.489921    34646.235 
  243900    314.68522   -1505.9661    501.75449    416.88397    412.20243    34646.235 
  244000    297.01627   -1503.6434    486.00344    323.66395   -347.92455    34646.235 
  244100    302.05621    -1500.893    485.24856    348.41938   -433.04449    34646.235 
  244200    304.55939   -1455.6136    501.63674    421.39119   -42.637007    34646.235 
  244300    293.82157   -1447.3479    468.09447    347.62341    -566.3688    34646.235 
  244400    299.76298   -1482.0107    497.78613    369.48327   -520.47803    34646.235 
  244500    304.40022   -1483.0445    511.34162    402.94638   -23.432196    34646.235 
  244600    292.21427   -1510.5042    474.62026    283.73443   -631.19185    34646.235 
  244700    311.81793   -1502.9497    502.32017    407.51753   -92.873853    34646.235 
  244800    297.08229   -1470.7437    506.75843    377.61678     32.89667    34646.235 
  244900    308.82361   -1488.8086    504.76383    410.58017    294.92252    34646.235 
  245000    313.97098   -1513.1136    499.74806    404.50454    30.838638    34646.235 
  245100    301.92314   -1452.3244     506.8615    417.99999    404.21424    34646.235 
  245200    312.60896   -1493.3154    495.85631    414.26022    158.95355    34646.235 
  245300    299.87242   -1500.7496    512.39869    365.85108    37.227641    34646.235 
  245400     310.0932   -1516.4282    476.42147    360.35162    112.95017    34646.235 
  245500     294.1227   -1493.3446    504.59372    339.48584    165.79784    34646.235 
  245600    304.02524   -1472.1082    478.10541    378.95305    198.91707    34646.235 
  245700    297.12462   -1481.6586    466.71368    326.84821    106.58647    34646.235 
  245800    294.41764    -1497.012    485.26929    317.82587    120.07103    34646.235 
  245900    302.65336   -1520.8518    499.77978    345.68854    235.86592    34646.235 
  246000     304.7153   -1525.6921     513.5926    363.97261    1427.7915    34646.235 
  246100    319.12075   -1504.3049    497.11517     433.9363    732.00494    34646.235 
  246200    295.40883    -1534.151    497.31454    297.20835    465.70327    34646.235 
  246300    300.38876    -1516.735    482.19186    321.99064    325.09927    34646.235 
  246400    299.32111   -1499.0132     508.7207    361.41987    335.17687    34646.235 
  246500    303.86719    -1460.154    506.08977     418.1779   -157.78427    34646.235 
  246600    296.42535   -1498.8482    481.23252    321.01964    471.02441    34646.235 
  246700    302.20938   -1481.2413    520.22367    403.73791    403.78684    34646.235 
  246800    306.32812   -1517.0317    494.73485    361.05865   -152.90312    34646.235 
  246900    306.18015   -1506.8739     493.3057    369.11905    486.69871    34646.235 
  247000    302.31801   -1512.6066    495.01656    347.65614   -58.217183    34646.235 
  247100    309.05594   -1537.1901    493.89972    352.38372    256.33743    34646.235 
  247200     305.9559   -1519.3548    502.66282     364.9826    286.61403    34646.235 
  247300    299.80301   -1523.8839    499.81059    329.81524     114.0036    34646.235 
  247400    312.26492   -1514.6617    508.81736    404.32135    545.28636    34646.235 
  247500    295.79536   -1498.1025    497.30408    334.99187     -146.223    34646.235 
  247600    297.01736    -1477.375    510.14892    374.08273     32.41634    34646.235 
  247700    292.14319   -1519.5278      501.303     301.0726    342.39963    34646.235 
  247800    307.81907    -1491.777    483.83255     382.1441     200.7507    34646.235 
  247900    296.64823   -1527.2262    508.80292    321.21857    262.88786    34646.235 
  248000    302.28328   -1485.8552    543.67215    422.90624    90.280572    34646.235 
  248100    292.00479   -1484.4766    503.49028    337.68606   -746.02875    34646.235 
  248200    306.47475    -1483.148     496.8093    397.67901    -534.2151    34646.235 
  248300    303.76877   -1521.4323    514.96471    365.33008    229.63936    34646.235 
  248400    310.48718   -1527.8266      487.017    361.32787   -113.74868    34646.235 
  248500    294.48055    -1455.255    510.29704    384.89471   -282.53883    34646.235 
  248600    298.88103    -1539.474    511.52643    321.77747   -51.671292    34646.235 
  248700     298.1056   -1515.8405    490.46194    320.84465    308.71103    34646.235 
  248800    304.16325   -1498.1679    520.48224    395.89339   -65.473233    34646.235 
  248900    302.10926   -1496.2302    510.91769    378.99099   -482.78154    34646.235 
  249000    297.79783   -1491.3723    518.18335    371.64441    -46.51837    34646.235 
  249100    299.94263    -1480.886    466.38381    340.01694    457.98551    34646.235 
  249200    307.64809    -1465.547    523.18468    446.95409   -187.13334    34646.235 
  249300    300.39695   -1497.9005    512.52558    371.19589   -35.288063    34646.235 
  249400    297.33727   -1454.4042    478.35722    366.70654   -260.80361    34646.235 
  249500    300.08574    -1425.744    536.68026    466.10167    7.4618757    34646.235 
  249600    307.76972   -1457.3856    520.47486    452.95491   -49.376843    34646.235 
  249700    307.98949   -1455.5185    511.90004     447.2397   -117.97164    34646.235 
  249800    309.09291   -1447.8591    506.09348    454.07545   -261.06932    34646.235 
  249900    296.31918   -1417.3569    509.28528    430.08428    44.507067    34646.235 
  250000    292.88498   -1450.1517    521.53374    394.02931   -430.61902    34646.235 
  250100    304.83697     -1458.96     502.5198    420.18138   -279.95025    34646.235 
  250200    299.18018   -1470.5655    513.88015    394.39058   -538.23432    34646.235 
  250300    292.05743   -1466.5155    508.61209    361.00672   -627.58654    34646.235 
  250400    290.14371   -1492.1437    502.22894    320.35313   -378.38617    34646.235 
  250500    294.56847    -1504.362    500.83341    326.72114   -234.09669    34646.235 
  250600    298.13228   -1537.3515    506.78337    315.77551   -649.80136    34646.235 
  250700     300.1632   -1542.4955     477.9267     290.9464   -208.85154    34646.235 
  250800    298.63857   -1496.1954    492.75031    345.18497    136.86431    34646.235 
  250900    302.04971   -1554.9444    473.40778    282.49788   -42.183142    34646.235 
  251000    297.45806   -1525.2227    495.00808    313.08436   -214.31402    34646.235 
  251100    301.92876   -1523.2386     477.7628    318.01254    224.34908    34646.235 
  251200    304.01329   -1507.0503    498.21447    364.06603    93.884713    34646.235 
  251300    300.73648   -1492.6942    487.78525    353.19515   -516.94916    34646.235 
  251400    293.05339   -1512.0181    472.56867    283.95832    -489.5004    34646.235 
  251500    294.96085   -1509.4867    494.94196    317.47701   -726.79909    34646.235 
  251600    310.30091   -1527.3253    495.67294    369.64392   -428.21722    34646.235 
  251700    302.24232    -1500.657    482.38159    346.62887   -150.55417    34646.235 
  251800    312.61067   -1536.5017    488.32515    363.55053    220.96823    34646.235 
  251900    296.22166   -1535.2765    462.93458    265.37353    223.00908    34646.235 
  252000     307.5569   -1482.4856    521.28201    427.70097     552.7605    34646.235 
  252100    299.37546   -1516.4016    495.23954    330.79576   -125.58638    34646.235 
  252200    307.94041   -1471.6663     472.8011    391.77122   -135.63927    34646.235 
  252300    293.59104   -1453.0938    515.82215    388.56414   -45.224201    34646.235 
  252400     307.2538    -1462.833    511.04013    435.74297    311.43696    34646.235 
  252500    295.13323   -1420.0379    472.29951    385.06183    239.59252    34646.235 
  252600     307.5577   -1471.3975     505.5859    423.09655   -166.48069    34646.235 
  252700    295.14564   -1471.0702    482.74854    344.53455    318.05556    34646.235 
  252800    310.95646   -1478.4886    488.10325    413.87134    371.21689    34646.235 
  252900    302.57305   -1406.2693     509.6546    469.78323    513.24576    34646.235 
  253000    289.16007   -1430.8513    483.97496    358.94948    -176.7104    34646.235 
  253100    296.78069   -1451.8527    519.95935    408.34667     607.5729    34646.235 
  253200     300.0868   -1460.0192    498.63935    393.79027    598.08127    34646.235 
  253300    304.98018   -1459.5073    486.10636    403.86736     442.9414    34646.235 
  253400    311.41461   -1454.0964    495.81732    448.04664    818.30016    34646.235 
  253500    310.49241    -1421.315    493.17476    474.02086    499.49242    34646.235 
  253600    303.49311   -1415.2525    518.60871    473.90906    528.27172    34646.235 
  253700    307.34783   -1395.4594    516.61334     509.1144    727.03276    34646.235 
  253800    295.84035   -1423.3383    507.88434    420.53958   -5.7906176    34646.235 
  253900    301.56435   -1449.4279    497.55855    409.97332    75.563867    34646.235 
  254000    295.54646   -1478.1074    500.04267    356.60161   -462.89095    34646.235 
  254100    294.28916   -1419.9929     532.6566    441.65215    -181.2293    34646.235 
  254200    291.11341   -1457.2587    488.55819    345.94649    -306.0575    34646.235 
  254300    294.67357   -1507.7901    483.19274    306.12698   -299.23684    34646.235 
  254400    308.31817   -1477.6615    515.27992    429.96086    335.86849    34646.235 
  254500    303.64404   -1452.3255    494.83872     413.7476    -306.7002    34646.235 
  254600    302.21205   -1472.5227    473.61427    365.85921     -259.094    34646.235 
  254700    304.84294   -1474.1419    530.78648    433.29308   -598.55993    34646.235 
  254800    302.76726   -1471.7665    489.52399    385.03239    438.14397    34646.235 
  254900    304.90847   -1482.6378    507.04264    401.34928    506.66894    34646.235 
  255000    298.61282   -1454.8903     509.2374    402.86091    584.23521    34646.235 
  255100    296.96698   -1461.8728    514.14754      393.356    829.71747    34646.235 
  255200    296.66772   -1471.5277    519.89763    388.09976    1364.3076    34646.235 
  255300    306.26322    -1460.643    531.95358    454.37302    310.56774    34646.235 
  255400    298.53213   -1479.1906     500.6405    369.59923   -190.88383    34646.235 
  255500    293.81674   -1456.0189    519.85076    390.68683   -484.61527    34646.235 
  255600    289.68099   -1473.0785    509.30725    344.40699   -634.27355    34646.235 
  255700    295.06936   -1457.9019    516.32965     390.9395   -888.29823    34646.235 
  255800    300.15202   -1439.5337    534.81711    450.74809   -734.39618    34646.235 
  255900    300.73682   -1424.8819    544.33683    477.56058   -346.06801    34646.235 
  256000    300.15254   -1471.0853    525.01778    409.39948   -794.94262    34646.235 
  256100      291.748   -1446.8837    484.53019    355.15921   -416.92358    34646.235 
  256200     296.6792   -1500.4091     490.1576    329.53015   -819.28223    34646.235 
  256300    313.89106    -1468.941     518.0149    466.58301    272.89347    34646.235 
  256400    307.92924   -1528.8884     490.8995    352.59713    663.56237    34646.235 
  256500    300.23152   -1523.1892    492.28233    324.91683    102.48116    34646.235 
  256600    293.07877   -1491.2037    516.77497    349.09366    621.79144    34646.235 
  256700    299.25969   -1443.1012     500.2215    408.55528   -131.95183    34646.235 
  256800    291.79375   -1471.2844    493.05267    339.48762   -478.28175    34646.235 
  256900    302.80796   -1450.4702    506.91355    423.90208     239.9436    34646.235 
  257000     303.4876   -1455.8944    520.83285    435.46633    206.39611    34646.235 
  257100    299.28549   -1482.5784    504.45393      373.427   -516.28347    34646.235 
  257200    307.38577   -1472.9467    505.35044    420.53555    172.19035    34646.235 
  257300     311.7379   -1482.1667    511.18056    436.79955    -282.1007    34646.235 
  257400    297.02087   -1447.5187    527.31305    421.11895   -896.33055    34646.235 
  257500    310.53448   -1450.4083    504.41597    456.35881   -817.57283    34646.235 
  257600    305.05219   -1481.0441    510.76799    407.31737   -680.67302    34646.235 
  257700    297.00585   -1486.7794    504.04205    358.51949    261.54079    34646.235 
  257800    295.40711   -1438.2677    500.45739    396.22675    112.34711    34646.235 
  257900    298.68085   -1449.9477    503.86974    402.74309   -446.00012    34646.235 
  258000     300.1628   -1453.3831    474.19876    376.32901    -324.8132    34646.235 
  258100    312.81958   -1498.4057    502.89075    417.15545   -18.816423    34646.235 
  258200    294.38539   -1500.4839    515.47044    344.40957    35.967683    34646.235 
  258300    295.60533   -1476.2408    509.07252    367.76392    366.67917    34646.235 
  258400    301.85757   -1512.9908    506.75002    356.92609    391.24623    34646.235 
  258500    301.15586   -1501.9374    541.59227    399.65278    192.60251    34646.235 
  258600    289.84016   -1479.4063    494.12231     323.6131    41.716047    34646.235 
  258700    312.42205   -1427.5762    525.67993    508.97892    10.015497    34646.235 
  258800     287.5185    -1450.273     524.9257    373.06529    -438.3301    34646.235 
  258900    302.84664   -1443.8327    510.50723    434.30794   -206.48384    34646.235 
  259000    300.29967   -1442.4908    487.00363    400.64429    112.29906    34646.235 
  259100    302.39176    -1428.854    511.90613     448.6313    -183.3258    34646.235 
  259200    293.24621   -1448.1839    509.28255    385.37722     308.7501    34646.235 
  259300    299.14143   -1444.3685    520.78925    427.32166      106.063    34646.235 
  259400    299.97328   -1515.2715    489.48548    328.87155    69.469903    34646.235 
  259500    312.20308   -1474.2512    498.92384    434.55906    263.45035    34646.235 
  259600     301.4828   -1474.2232    500.61032    387.86147   -88.843683    34646.235 
  259700     300.5583   -1500.5268    478.77162    335.54427   -374.21686    34646.235 
  259800    298.58486   -1490.1788    492.00053    350.20927   -153.75655    34646.235 
  259900    310.21543   -1474.8436    486.66632    412.73306    199.60165    34646.235 
  260000       291.94   -1459.8009    499.22973    357.80862    -488.6043    34646.235 
  260100    292.80838   -1466.5813    495.32982    351.04984   -743.99123    34646.235 
  260200    300.99659   -1463.5536    491.65271    387.37783   -926.72143    34646.235 
  260300    290.18438   -1494.6802    481.23599    297.00735   -945.58142    34646.235 
  260400    301.91952   -1496.1296    481.19517    348.51217   -60.645642    34646.235 
  260500    305.55742   -1512.3612    511.39668    378.91053   -827.34074    34646.235 
  260600    305.79039   -1445.0104    457.98497    393.90173   -155.39624    34646.235 
  260700    297.41695    -1452.395    492.54711    383.26545   -720.66695    34646.235 
  260800    300.69184   -1480.8986    495.29833     372.3022   -601.15141    34646.235 
  260900    308.06846   -1464.7063    490.34002    416.84844   -174.97965    34646.235 
  261000    312.32927   -1465.2341    512.21347    457.43569   -495.56364    34646.235 
  261100    300.38107    -1477.957    514.37532    392.91734    242.23427    34646.235 
  261200    306.38669   -1482.4453    505.31645    406.49115    147.50421    34646.235 
  261300    293.39853   -1453.1425    487.36428    359.18813    2.9824942    34646.235 
  261400     299.2542   -1499.4025    496.64408    348.65177    19.993755    34646.235 
  261500    299.95346   -1548.8013    488.31739    294.08414   -163.17887    34646.235 
  261600    299.05432   -1443.2966    503.30276    410.51368   -17.632689    34646.235 
  261700    303.08232   -1510.1511    484.71359    343.26017   -350.13441    34646.235 
  261800     307.3361   -1522.7609    494.80391    359.95046   -436.63032    34646.235 
  261900    299.18294    -1528.362    508.08048    330.80689   -210.01536    34646.235 
  262000    302.68878   -1535.4975    492.60879    324.03176   -338.73154    34646.235 
  262100    298.91875   -1526.5828    520.98073    344.29325    308.73854    34646.235 
  262200    299.63785   -1541.8375    480.05624    291.36148    93.298068    34646.235 
  262300    298.66948   -1546.2738    482.27573    284.77156    632.91491    34646.235 
  262400    296.44136   -1540.7894    501.04179    298.95993     741.0857    34646.235 
  262500    295.37361   -1508.8745    524.28532    349.29658    547.35501    34646.235 
  262600     300.9605   -1487.5295    508.78522    380.37139    447.94611    34646.235 
  262700    304.60785   -1495.4688    530.39705    410.51514    702.69748    34646.235 
  262800    300.00632   -1471.4712    491.96078    375.29629    703.44304    34646.235 
  262900    288.56248    -1522.739    512.63696    293.02513    584.20986    34646.235 
  263000    300.72197   -1518.1894    491.48925    331.33837    247.03062    34646.235 
  263100    313.38986   -1512.1533     490.9579    394.05037    910.21396    34646.235 
  263200    298.05833   -1530.9801    511.02824     326.0578    898.57152    34646.235 
  263300    306.62174   -1566.6019    501.05271     319.1323    930.15312    34646.235 
  263400    304.12254   -1544.1565     477.2323    306.47109    568.45608    34646.235 
  263500    291.06616   -1553.7086    504.26496    264.98992    750.97228    34646.235 
  263600    305.41247   -1600.8423    474.96772    253.34592     627.8212    34646.235 
  263700    315.45545   -1570.1106    499.32616    353.78947    569.71661    34646.235 
  263800     296.2902   -1519.6198    487.34233    305.74747    526.58874    34646.235 
  263900     296.8062   -1527.7946    514.97177    327.53234    46.117414    34646.235 
  264000    299.48921   -1523.2884    515.95339     345.1365    121.64484    34646.235 
  264100    295.38357   -1533.9953    490.74504    290.68049   -464.00279    34646.235 
  264200    299.48836   -1545.3848    509.51344    316.59626   -257.72293    34646.235 
  264300    302.43894   -1543.0622    478.98538    301.71541    365.16714    34646.235 
  264400    305.52813   -1542.7981    532.79935    369.74402    547.46001    34646.235 
  264500    299.58841   -1558.2763    510.86937    305.51249    219.30121    34646.235 
  264600     302.3471    -1548.861    502.44568    318.96221   -58.807652    34646.235 
  264700    291.38464   -1578.8352    475.58526    212.62191    82.335509    34646.235 
  264800    293.14299   -1519.7339    485.68762    289.76617    109.12604    34646.235 
  264900    299.99763   -1524.3093    517.11205    347.57018    508.30488    34646.235 
  265000    307.23089   -1520.8528    522.15054    388.73003    535.59032    34646.235 
  265100    300.25749   -1534.7937    511.70827    332.85552    346.67191    34646.235 
  265200    296.74332   -1541.4621    524.02697     322.6361   -145.54611    34646.235 
  265300    294.49794   -1525.5741    531.42738    335.78448    419.45635    34646.235 
  265400    304.73597   -1543.1161    521.28207    354.33145   -296.38809    34646.235 
  265500    289.26135   -1527.4588    520.11761    298.94203    297.59895    34646.235 
  265600    301.06775   -1566.5188    508.93385    302.01515     76.72469    34646.235 
  265700    302.33864   -1559.3113    523.17586    329.20384    229.65851    34646.235 
  265800    300.80371   -1534.8848    476.95583    300.47872    186.54061    34646.235 
  265900    304.31669    -1545.643    540.69247    369.32149   -159.24271    34646.235 
  266000    305.11828   -1526.2063    487.01454    338.70015     132.7916    34646.235 
  266100    301.26173   -1537.4429    487.96371    310.99688   -694.17569    34646.235 
  266200    288.77667   -1507.8681    503.38489    299.61118   -512.33672    34646.235 
  266300    293.60051   -1511.1544     508.1752    322.89937   -689.66065    34646.235 
  266400    311.87611   -1509.8667    494.14584    392.68892    -30.57616    34646.235 
  266500     308.2626   -1559.6906    501.31773    333.71861    522.61758    34646.235 
  266600    306.52402   -1549.5861    488.32816    322.98225     238.6472    34646.235 
  266700    295.41638    -1536.771    526.89138    324.19926   -472.56068    34646.235 
  266800    299.92778   -1534.6025    524.25863    344.10814   -398.58943    34646.235 
  266900    314.43796   -1505.2842     516.6238    431.31858   -385.06377    34646.235 
  267000    315.09382   -1512.6988     516.5438    426.78576   -391.83624    34646.235 
  267100    294.29469     -1541.47    493.05101    280.59438   -228.46855    34646.235 
  267200    297.77949   -1530.4383    549.46969    363.78195    390.33419    34646.235 
  267300    306.15792   -1486.9169    517.17807     412.8481    317.70238    34646.235 
  267400    295.88935   -1502.3831      517.932    351.76365    39.467066    34646.235 
  267500    301.66524   -1513.8571     520.3833    368.82453     346.3771    34646.235 
  267600    300.65955    -1515.456      520.627    362.92762   -209.32082    34646.235 
  267700    294.85281   -1465.3113    521.75567     387.9782     15.99427    34646.235 
  267800    312.83539   -1477.0008    498.12555    433.86662   -491.33297    34646.235 
  267900     297.5257   -1494.7818    522.17111    370.99375   -964.46914    34646.235 
  268000    309.21409   -1484.0522    519.33373    431.66988   -25.463804    34646.235 
  268100     306.3798   -1447.9498     519.7108    455.34989    -599.2221    34646.235 
  268200     309.9129   -1439.1375    529.94581    490.35244    139.80268    34646.235 
  268300    292.82647   -1431.4491    507.34443    398.27835    409.53773    34646.235 
  268400    307.39331   -1421.6312    535.41066     501.9453    72.567882    34646.235 
  268500     304.9399   -1462.4842    533.69409    448.29634     220.9739    34646.235 
  268600    314.49301   -1425.3978    522.89647    517.72619   -256.59068    34646.235 
  268700    296.78191   -1443.1319    516.46296    413.57655   -122.40988    34646.235 
  268800    300.86786   -1482.4337     532.4739    408.73751   -172.00535    34646.235 
  268900    305.42685   -1420.0804    510.77252    469.97757   -25.457774    34646.235 
  269000    297.29286   -1459.4012    539.18718    422.33896   -405.84317    34646.235 
  269100    296.52067   -1521.8516     529.6395    346.85368   -290.88738    34646.235 
  269200    293.60194   -1489.4089    509.41155    345.88768   -101.94473    34646.235 
  269300    305.05675   -1452.4397    547.52094    472.69527   -230.23653    34646.235 
  269400    295.70036     -1454.14    525.39148    406.61284   -181.88987    34646.235 
  269500    307.73064    -1427.488    515.57361    477.77475    881.49099    34646.235 
  269600    299.35164   -1453.4451    527.74856    426.15369    1142.7487    34646.235 
  269700    295.68538   -1481.3924    534.66269    388.56391    85.163497    34646.235 
  269800    288.65917   -1493.0573    525.85033    336.35683   -224.50747    34646.235 
  269900    295.62501   -1460.6297    520.45583    394.84714   -841.80983    34646.235 
  270000    284.35394   -1464.0338    518.01054    338.09848   -977.97813    34646.235 
  270100    291.34505   -1458.5776    516.79688     373.9123    -477.4757    34646.235 
  270200    294.14696   -1466.1461    501.02388    363.22402    -517.6623    34646.235 
  270300     304.9495   -1476.8181    506.98205     407.2937   -537.91752    34646.235 
  270400    288.21588    -1484.068    519.11261    336.60656   -78.550192    34646.235 
  270500    305.59746   -1444.4511    503.63245    439.23724    31.865432    34646.235 
  270600    291.65065   -1482.5707    509.05332    343.55578   -311.26961    34646.235 
  270700     308.2052     -1470.83    509.89143    430.89365   -1043.9948    34646.235 
  270800    312.08806   -1469.9505    522.13868    461.55517   -542.98894    34646.235 
  270900    297.09106   -1462.3628    525.41596    404.69476    122.24777    34646.235 
  271000    292.83124   -1477.3254    529.80452    374.88366    427.80575    34646.235 
  271100    297.63408   -1450.9516    532.67795    425.82015    742.62431    34646.235 
  271200    301.13003   -1455.3939    504.53166    409.01905    752.98234    34646.235 
  271300     295.1833   -1510.8424    541.76733    363.95129    91.692975    34646.235 
  271400    297.02075   -1464.0453    491.74544    369.02424     68.99037    34646.235 
  271500     298.3999   -1462.2287    504.42357    389.74705   -622.44143    34646.235 
  271600       308.26   -1522.7486    499.62364    368.95471  -0.40904516    34646.235 
  271700    296.87704   -1482.9526    515.02258    372.74501     -9.44231    34646.235 
  271800    291.65405    -1482.233    520.92308    355.77854   -558.94552    34646.235 
  271900    310.17235   -1513.4198    494.78332    382.07929    -57.94816    34646.235 
  272000    307.29192   -1481.5007    492.04183    398.24906    132.41386    34646.235 
  272100    302.31064   -1500.2211    501.82336    366.81508     -212.337    34646.235 
  272200    293.80929   -1501.6403    526.22445    351.40555   -256.27407    34646.235 
  272300    309.15713   -1486.7558     500.2453    409.62054   -148.72853    34646.235 
  272400    305.43976    -1490.996    506.73868    395.08643   -548.09107    34646.235 
  272500    308.33365   -1520.9548    486.83594     358.2935   -787.58978    34646.235 
  272600    292.83743   -1508.1587    502.93766    317.21152   -544.91005    34646.235 
  272700    296.78251    -1532.486    486.45655    294.21877   -174.16151    34646.235 
  272800    300.25852   -1489.6321    494.35982    360.67338    5.7043568    34646.235 
  272900    307.81023   -1514.3069    493.05706    368.79869     141.6512    34646.235 
  273000    293.21989   -1518.5272    482.14456    287.77708    317.36802    34646.235 
  273100    298.00238   -1484.8292    503.98129    364.90915    48.418095    34646.235 
  273200     294.8749   -1443.7044    480.14216    368.07132   -59.328925    34646.235 
  273300    300.65123     -1466.28    535.48658    426.92562   -473.08998    34646.235 
  273400     305.1875   -1470.4555    499.59306     407.3421    43.173823    34646.235 
  273500    292.45701   -1509.2897    488.16913    299.59396     224.6095    34646.235 
  273600    309.88642   -1531.4272    497.54594    365.54322   -22.914085    34646.235 
  273700    302.24172     -1447.24     512.1991    429.86075   -204.32673    34646.235 
  273800    304.46391   -1450.2384    504.98291     429.6814    260.64078    34646.235 
  273900    297.97953   -1462.1115    514.57435    398.11673   -27.787235    34646.235 
  274000    304.67683   -1501.4051    497.98954    372.48284    937.18954    34646.235 
  274100     297.4065    -1488.677    517.20813     371.5972    696.06617    34646.235 
  274200     302.8512   -1527.7564    510.27019    350.16778    661.14579    34646.235 
  274300    303.08776   -1451.6053    521.79981    438.91681    163.00466    34646.235 
  274400    306.97495   -1486.4639    537.05638    436.86902   -418.54422    34646.235 
  274500    306.87369   -1483.6332    461.95474    364.14083    -803.7247    34646.235 
  274600    296.57575   -1473.2774    520.78095     386.8181   -520.97779    34646.235 
  274700    308.30737   -1489.8238    518.31575    420.78564    1.4548772    34646.235 
  274800    297.69686   -1471.2985    503.15879    376.23766   -181.52036    34646.235 
  274900    305.20447   -1467.5458    493.86677    404.60213   -72.523227    34646.235 
  275000    302.74708    -1486.371    497.74592    378.55871    345.15719    34646.235 
  275100    306.04812   -1472.3326    517.21109    426.96953    495.67297    34646.235 
  275200    309.93723   -1454.6734    512.55989    457.54041    385.47782    34646.235 
  275300    299.92807   -1454.1898    508.80719    409.07073    395.62169    34646.235 
  275400    299.08079    -1492.524    498.48175    356.58487    386.97254    34646.235 
  275500     301.2255   -1509.0333    561.97819    413.25733     279.2737    34646.235 
  275600    307.63321    -1513.329    508.13075    384.05095    296.37374    34646.235 
  275700    299.15301   -1490.9633    492.32044    352.31038   -52.617958    34646.235 
  275800    304.72664   -1521.9991    499.17822     353.3025   -275.36224    34646.235 
  275900    294.52219   -1511.7971    501.84575    320.08946    261.82231    34646.235 
  276000    306.67613   -1510.5436    519.56167    393.94519   -56.507607    34646.235 
  276100    293.53512   -1449.8898    508.55163    384.24509   -337.77297    34646.235 
  276200    293.90156   -1448.8402    523.47825    401.87609   -391.64069    34646.235 
  276300     305.4005   -1518.5638    508.14359    368.74625   -332.78049    34646.235 
  276400    299.31359   -1481.8893    525.48763    395.27674    415.87846    34646.235 
  276500    299.36426   -1469.0699    491.55482     374.3921    86.931978    34646.235 
  276600    295.84815   -1499.4845    505.71748    342.26171   -86.414072    34646.235 
  276700    295.88625   -1498.7359    486.86371    324.32861    694.92258    34646.235 
  276800    299.15027   -1492.2818    511.96657    370.62565   -160.71729    34646.235 
  276900    308.89601   -1494.4003    519.48686    420.03846    665.67683    34646.235 
  277000    290.96658   -1502.8133    521.74941    332.92004    365.42564    34646.235 
  277100    305.05552   -1500.4211    470.40461    347.59202   -197.06078    34646.235 
  277200    310.56599   -1551.3797    503.64776    354.76144   -329.78607    34646.235 
  277300    288.31179   -1502.7087    506.14841     305.4348   -935.28483    34646.235 
  277400    294.20747   -1473.5578    488.39382    343.45553   -141.98573    34646.235 
  277500    293.41674    -1468.636    512.86571    369.27833    54.001776    34646.235 
  277600    294.99605   -1474.9479    523.47443    380.70723   -611.56053    34646.235 
  277700    301.16446    -1477.541    519.50353    401.99929   -135.91962    34646.235 
  277800    300.09041   -1484.9199    502.82052    373.08712    68.597457    34646.235 
  277900    297.84368   -1483.4543    533.24733    394.83344    523.46142    34646.235 
  278000    302.45936   -1504.5012    509.01386     370.3971    545.78415    34646.235 
  278100    292.34838   -1491.2304    490.36664    319.36022   -98.178091    34646.235 
  278200      295.523    -1473.012    551.85368    413.40203    6.2203925    34646.235 
  278300    299.23079   -1480.9411    490.37466    360.73802    444.28406    34646.235 
  278400    303.40745   -1483.8415     504.1759     390.5004    498.82699    34646.235 
  278500    297.27595   -1492.9457    527.76199    377.29291    168.66121    34646.235 
  278600    294.59876   -1465.6312     524.3829    389.13825   -19.548329    34646.235 
  278700    291.95429   -1480.0885    504.67666    343.03247    388.22859    34646.235 
  278800    294.64856   -1474.2457    489.13488    345.50065   -52.459075    34646.235 
  278900     309.7625   -1458.1301    526.95059    467.68537    262.02136    34646.235 
  279000     295.7922   -1510.4563    497.59098    322.91078       45.246    34646.235 
  279100    307.86308   -1500.7956    508.95006     398.4417    -294.1576    34646.235 
  279200    295.65805   -1489.7243    521.50423    366.95015   -703.68707    34646.235 
  279300     293.6984   -1526.0009    472.36747    272.68718   -348.09196    34646.235 
  279400    297.35488   -1524.5227    490.16418    308.47449   -582.79649    34646.235 
  279500    290.88895    -1516.117    501.02919    298.54553   -76.073482    34646.235 
  279600    297.49552   -1523.5297    501.49183    321.43023    184.64938    34646.235 
  279700    298.05999   -1510.4419    528.72317     364.2985    391.56182    34646.235 
  279800    300.03649   -1513.0054    510.22962     352.1672     221.2673    34646.235 
  279900    309.87165   -1539.6754    495.64619    355.32862    26.451639    34646.235 
  280000    309.08156   -1562.1894    505.22784    338.82825    531.80859    34646.235 
  280100    299.51758   -1551.1795    512.24057     313.6607    146.56366    34646.235 
  280200    295.61816   -1505.9942    494.83738    323.83331    222.89874    34646.235 
  280300    311.97668   -1468.8409    499.00156    439.02469    1008.6182    34646.235 
  280400    295.06816   -1480.3352    507.26949    359.44063    291.82259    34646.235 
  280500    295.23089   -1520.4989     496.3513    309.09361    541.35255    34646.235 
  280600     306.6309   -1535.9628    476.70787    325.46787    693.79366    34646.235 
  280700    300.83116   -1527.8667    502.96991     333.6348     104.7762    34646.235 
  280800    291.72865   -1540.2637    500.19478    277.35647   -147.36345    34646.235 
  280900    303.16777   -1511.6464    515.99845    373.43563   -240.18451    34646.235 
  281000    301.26568   -1504.1471    501.18636    357.53313     -287.725    34646.235 
  281100    305.55634   -1514.2838    501.05654    366.64294   -164.77891    34646.235 
  281200    294.45054   -1477.2813    521.59704    374.03299   -967.84048    34646.235 
  281300     303.1013   -1472.1537    500.25551    396.88526   -504.59448    34646.235 
  281400     293.8462   -1532.5232    472.38395    266.84874   -560.64079    34646.235 
  281500    307.13893   -1538.7175    511.73918     360.0387   -557.45808    34646.235 
  281600    305.14203   -1545.0376    501.71223    334.67383   -221.42035    34646.235 
  281700    294.95036   -1567.2493    478.59611    243.32115   -279.15207    34646.235 
  281800    300.96423   -1524.8375    486.98166    321.27676   -293.87515    34646.235 
  281900    303.32556   -1528.9603    512.61116      353.447   -106.18681    34646.235 
  282000    301.64273   -1530.3541    522.57009    354.41261    136.22482    34646.235 
  282100     291.1703   -1517.3945    514.95053     312.4599    640.78232    34646.235 
  282200    300.06826   -1481.3153     515.8349    389.60606    594.02384    34646.235 
  282300    298.50269    -1453.154    506.22235    401.08473    290.48448    34646.235 
  282400    300.96993   -1509.5814     502.3971    351.97401    37.498717    34646.235 
  282500    311.36253   -1474.5078    495.71622    427.29894    390.38611    34646.235 
  282600    308.49669   -1497.8435    507.00933     402.3144     25.45962    34646.235 
  282700    293.07835    -1529.312    505.15641     299.3649   -381.72325    34646.235 
  282800    299.24338   -1524.3396    497.19583    324.21755   -192.84139    34646.235 
  282900    309.47274   -1504.0137    502.42211    395.96479   -252.52836    34646.235 
  283000    296.31285   -1480.6656    533.92592    391.38764    336.84128    34646.235 
  283100    287.88133    -1487.473    525.37998    337.95808    480.39464    34646.235 
  283200    307.38691   -1452.6434      521.575    457.06854    12.712708    34646.235 
  283300    299.67955   -1480.4932    491.06021    363.89809   -299.92049    34646.235 
  283400    305.28052   -1508.9037    518.31373     388.0346   -787.79398    34646.235 
  283500    290.38603    -1492.757    488.88396    307.48913    -517.3001    34646.235 
  283600    298.82212   -1500.1809     522.1912    371.46924   -661.64434    34646.235 
  283700    302.58567   -1531.5018    514.14616    349.09919   -156.71544    34646.235 
  283800    295.27796   -1519.6833    470.87359    284.64409   -514.11081    34646.235 
  283900    299.82468    -1496.974    554.74707    411.75948    316.96024    34646.235 
  284000    292.73788   -1515.0203    504.96067    311.92336   -260.04351    34646.235 
  284100    308.02957   -1515.9229    511.50902    386.62528    45.788026    34646.235 
  284200    294.70495    -1521.814    514.32326    323.37532    445.90112    34646.235 
  284300    308.55198   -1592.0209     508.8623    310.23973   -40.044863    34646.235 
  284400    291.65214   -1549.1739    515.20289    283.10884    211.40965    34646.235 
  284500    293.10477   -1561.6301    518.10312    280.11283    191.54175    34646.235 
  284600    307.74847   -1559.0428    536.20373    366.93065     509.1936    34646.235 
  284700    309.33007   -1540.3507    502.08642    358.64779     436.2398    34646.235 
  284800    296.17189   -1578.1249     508.5658    267.93164    720.98363    34646.235 
  284900    293.65013   -1576.1123    513.27556    263.26583    415.17797    34646.235 
  285000    296.32956   -1549.0688    520.17207    309.30596    498.90609    34646.235 
  285100    300.26217   -1548.5025    527.05383    334.51347    1049.8919    34646.235 
  285200    288.82539   -1530.3448     499.1192    273.08884     649.5718    34646.235 
  285300    312.22828   -1542.6129    541.48827    408.87555    581.77106    34646.235 
  285400      310.392    -1538.446    516.50514    379.76684    907.98823    34646.235 
  285500    289.57006   -1537.4312    517.63906    287.88515    291.19815    34646.235 
  285600    287.54917   -1520.4749    530.48449    308.56071    190.17968    34646.235 
  285700    295.30577   -1475.2476     512.8476    371.17934    -200.2003    34646.235 
  285800    298.58394   -1498.2401    474.43864    324.58188   -477.80435    34646.235 
  285900    297.23363   -1517.3801    485.57038    310.47573     39.36483    34646.235 
  286000    301.23566    -1516.563    537.27473    381.07008    287.90913    34646.235 
  286100    298.41241   -1502.5226    512.18978     357.2759    642.07608    34646.235 
  286200    298.19241   -1505.2727    477.83216    319.17467   -203.47242    34646.235 
  286300     309.4906   -1480.5393    553.39612    470.49388   -468.22618    34646.235 
  286400    300.36303   -1456.0263    518.20886    418.60012   -229.76333    34646.235 
  286500    306.23128   -1442.2746    508.08885    448.73241   -241.67112    34646.235 
  286600    301.88455   -1458.9759    510.06537    414.37814   -548.17225    34646.235 
  286700    299.53349   -1487.4111    540.99915     406.2595   -17.375983    34646.235 
  286800    307.93031   -1497.4592    516.30823    409.43985    368.30323    34646.235 
  286900    301.53619    -1463.529    491.12391     389.3104    580.08777    34646.235 
  287000    299.19568   -1416.5771    540.02196    474.59077   -3.1660342    34646.235 
  287100    307.12274   -1475.3604     523.1234     434.7069    41.227105    34646.235 
  287200    300.56486   -1501.0079    518.84946    375.17059   -358.53321    34646.235 
  287300    309.36837   -1499.3924    517.54064    415.23331    -237.7909    34646.235 
  287400    292.61675   -1464.9137    491.71628    348.23854    -411.1754    34646.235 
  287500    298.97717   -1475.9547    490.45149    364.65589   -530.62232    34646.235 
  287600    295.70325   -1450.7714    514.20949    398.81249   -731.83243    34646.235 
  287700    301.68448   -1494.2973    506.81698    374.90483    187.61076    34646.235 
  287800    301.81088   -1480.8336    496.99758    379.11997    101.21747    34646.235 
  287900    299.15204   -1466.7467    508.41876    392.62095   -537.33395    34646.235 
  288000    296.40043   -1482.1775    497.47253    353.81776   -527.37732    34646.235 
  288100    300.68864   -1511.6397    515.76593    362.01419   -282.98429    34646.235 
  288200    297.59622   -1484.2013    499.63006    359.35163   -517.41667    34646.235 
  288300    303.79361   -1497.0848    521.91643    396.74145   -1167.2051    34646.235 
  288400     291.8938   -1500.6488    511.52198    329.04437   -866.79455    34646.235 
  288500    297.29473    -1496.431    493.00025    339.13062   -450.50242    34646.235 
  288600    302.05782   -1519.8315    478.60599    322.84564   -878.69332    34646.235 
  288700    297.88879   -1553.4552    496.35517     288.1441   -207.06781    34646.235 
  288800    299.87004    -1575.016    481.06824    260.24349    89.979173    34646.235 
  288900    293.69839     -1571.02    502.75247    258.05305    305.41336    34646.235 
  289000    304.68765   -1540.4738    499.62637    335.09983    1026.9169    34646.235 
  289100    300.62737   -1542.1639    490.77424     306.2216    848.66171    34646.235 
  289200    307.09113   -1545.0287    516.43883    358.21132    884.05224    34646.235 
  289300    291.45533    -1508.328    458.87732    266.74037   -216.80372    34646.235 
  289400    298.61461   -1534.7584     491.6574    305.42082    384.77876    34646.235 
  289500    293.26236   -1612.9531    502.55288    213.95125    315.49937    34646.235 
  289600    304.38133   -1589.3818     484.6911     269.8732     496.3158    34646.235 
  289700    301.46098   -1591.8107    542.06747    311.63263    694.98948    34646.235 
  289800    298.26714   -1553.6249    489.23167    282.55951    707.35989    34646.235 
  289900    300.24487   -1536.5155    518.53555    337.90403    42.080699    34646.235 
  290000    317.86544   -1544.1119    527.93411    419.27943   -226.07382    34646.235 
  290100    305.08356     -1542.46    494.43825    329.71342   -1088.9451    34646.235 
  290200    291.14393   -1517.7028    498.14888     295.2309   -471.66537    34646.235 
  290300    304.55772   -1478.0352    541.80589    439.13122   -650.99342    34646.235 
  290400    299.23331     -1509.24    500.51413    342.58999   -441.44528    34646.235 
  290500    307.87578   -1494.1472    508.93686    405.13424   -651.32806    34646.235 
  290600    297.88511   -1504.0785     507.1872    348.33614   -125.10879    34646.235 
  290700    291.72777   -1519.5092    505.56008    303.47227    33.050485    34646.235 
  290800    297.81725   -1511.9394     507.5609    340.54253   -69.728308    34646.235 
  290900     311.6593   -1524.2312    523.62253      406.822   -12.462016    34646.235 
  291000    289.91812   -1489.0284    533.25168    353.47238   -299.14993    34646.235 
  291100    305.63972   -1531.2061    485.93961    334.98024    -66.73169    34646.235 
  291200    300.08303   -1515.2777    469.40651    309.28191   -347.19597    34646.235 
  291300    292.54868   -1509.8219    499.48219    310.78884   -916.19785    34646.235 
  291400    297.75624    -1539.998    491.32718    295.97467   -1150.6651    34646.235 
  291500    300.97661     -1524.64    514.87353      349.422   -1488.0577    34646.235 
  291600    300.59465   -1472.2568    506.88853    392.09526   -824.61407    34646.235 
  291700    283.03654   -1477.0875    506.49736     307.5823   -1144.7536    34646.235 
  291800    298.61147   -1496.4308    496.57609    348.65297   -778.72276    34646.235 
  291900    304.35313   -1471.5705    516.81545    419.68158   -1223.5113    34646.235 
  292000      311.725   -1489.0626     510.0033     428.6681    -676.3931    34646.235 
  292100    296.87692   -1532.8137    529.28769    337.14856    80.268704    34646.235 
  292200    298.24304   -1525.8112    502.52293    323.55563    607.67761    34646.235 
  292300    306.99367   -1472.7788     519.3452    432.92744    1135.9377    34646.235 
  292400    298.35161   -1501.0352    530.91631     377.2153    713.08488    34646.235 
  292500    297.92501   -1488.7855     493.8757    350.49786    416.38259    34646.235 
  292600    293.52853    -1542.155    475.15362    258.55213    616.90331    34646.235 
  292700    288.22098    -1505.428    519.18054    315.33752    271.22736    34646.235 
  292800    306.07137   -1497.3201    497.33443    382.21038     -139.391    34646.235 
  292900    304.06622   -1478.6272    492.31971     386.8334   -663.62372    34646.235 
  293000    308.20143   -1490.6162    513.11054     414.3096   -519.26819    34646.235 
  293100    295.52338    -1469.543    514.33066     379.3497   -521.43711    34646.235 
  293200    298.85433   -1492.3095    536.06198    393.35692     -268.919    34646.235 
  293300    308.38173   -1521.9564    500.27441    370.94751   -85.692218    34646.235 
  293400    305.44774   -1556.5058    502.55136    325.42536    139.14518    34646.235 
  293500    291.80619   -1483.0322    514.24254    348.98588    773.51047    34646.235 
  293600    301.83288   -1510.2388    525.53019    378.34673    522.19568    34646.235 
  293700    298.72473    -1492.942    501.62333    357.70043    361.89464    34646.235 
  293800    304.26926    -1528.291    487.61244     333.3793    19.168614    34646.235 
  293900    291.19623   -1502.1994    525.02096    337.84255   -258.59704    34646.235 
  294000     298.2215   -1507.7888    502.65295    341.61069   -151.20741    34646.235 
  294100    307.24032   -1476.2092    542.07404     453.3398    572.87706    34646.235 
  294200    303.33883   -1467.9529    506.55879    408.46203    344.99322    34646.235 
  294300    295.73348   -1470.1299    502.55836    367.93936    324.49065    34646.235 
  294400    302.09175   -1493.5115    515.38996    386.10285    332.74356    34646.235 
  294500    307.68544   -1492.4622    492.88834    389.91117   -207.35791    34646.235 
  294600    298.34194   -1467.1096    511.38475    391.56566     55.46077    34646.235 
  294700    291.96486   -1498.6673    494.68701    314.51179    289.61609    34646.235 
  294800    304.22442   -1531.1786    513.11098    355.78774   -56.424544    34646.235 
  294900    303.12873   -1487.6589    506.16854    387.41694    212.96511    34646.235 
  295000     308.3122   -1530.1786    495.88926    358.02615     410.2875    34646.235 
  295100    306.83898   -1540.2137    508.86805    354.31684   -11.522764    34646.235 
  295200    294.69533   -1522.5437    477.32712    285.60606    114.34856    34646.235 
  295300    301.64675   -1521.7257    500.72299    341.21204    -273.4576    34646.235 
  295400     285.9332   -1542.5248    528.26868    276.99742   -1103.3789    34646.235 
  295500    300.35785   -1479.3996    480.91996    357.91455    99.892315    34646.235 
  295600    300.69104   -1540.5099    530.38094    347.76986   -198.59166    34646.235 
  295700    296.91224   -1550.7733    478.77022    268.83098    -149.6155    34646.235 
  295800    314.07509   -1499.3497    535.21698    454.20756   -14.018416    34646.235 
  295900    294.56875   -1522.4515    513.33871    321.13827   -355.13184    34646.235 
  296000     305.2211   -1496.6247    513.20274    394.93435    -815.2157    34646.235 
  296100    305.93862    -1486.806    514.87332    409.66385   -1019.3063    34646.235 
  296200    301.75236   -1486.6478    488.04028     364.0842   -275.57547    34646.235 
  296300    302.42672   -1515.8265    521.72995    371.64055   -153.19302    34646.235 
  296400    299.13853   -1473.8462    512.26279     389.3044   -30.419714    34646.235 
  296500    292.97517   -1498.1189    506.02303    330.95865   -9.3306309    34646.235 
  296600    296.84037   -1501.3074    512.02698     351.2291   -222.66505    34646.235 
  296700    300.42607    -1465.503    484.34943    375.54867   -230.17605    34646.235 
  296800    299.89548   -1506.2391    509.04711    357.11416   -9.2476262    34646.235 
  296900    299.27888   -1526.5085    500.36934     325.3825   -504.08432    34646.235 
  297000     303.6825   -1495.0122    540.69847    417.09429   -137.81443    34646.235 
  297100    300.56174   -1499.5045    516.20527    374.01569     629.5887    34646.235 
  297200    306.93083   -1463.9328    524.43376    446.57823    374.55804    34646.235 
  297300     298.4152   -1533.0386    497.61574     312.1985     328.0386    34646.235 
  297400    312.45213     -1562.12    502.89594    351.78703    730.26465    34646.235 
  297500    312.69995   -1518.2979    505.70564    399.53792    405.93208    34646.235 
  297600    303.79209   -1520.2372     544.7235    396.38925    303.01776    34646.235 
  297700    303.15848   -1504.0495    510.59365    375.58577    464.34766    34646.235 
  297800    298.10374   -1527.9231    516.94925     335.2409    331.71223    34646.235 
  297900    294.15785   -1542.4797     536.4948    322.41058    708.73436    34646.235 
  298000    300.22616   -1518.1107    503.26109    340.94986    908.86949    34646.235 
  298100    302.82434   -1518.4635    525.17543    374.24463    557.41954    34646.235 
  298200    304.04284    -1490.876    515.11135    397.27074    558.20992    34646.235 
  298300    297.71185   -1507.2319    508.80467    346.01783    412.24396    34646.235 
  298400    299.61066   -1501.6708     535.9636     387.3128    15.006729    34646.235 
  298500    304.74607   -1498.9112    519.80015        397.1    39.594562    34646.235 
  298600    293.72058   -1504.3272    520.23138    342.32498    89.345314    34646.235 
  298700     300.3679   -1513.1803    538.36605    381.62536   -296.56351    34646.235 
  298800    306.79578   -1473.3394    519.76854    431.89658   -139.22281    34646.235 
  298900    294.92815   -1487.1112     498.9993    343.76215   -5.9005096    34646.235 
  299000    304.60739   -1490.1467    528.96848    414.40663    -100.3177    34646.235 
  299100    305.67972    -1547.752    519.22195    351.89734    563.41344    34646.235 
  299200    302.94768   -1544.5649     526.0167    349.54144    1096.0115    34646.235 
  299300    305.69313   -1480.0811    535.21827    435.62506    1077.2056    34646.235 
  299400    309.80395   -1502.9443    492.45624    388.56408    118.08864    34646.235 
  299500    297.75623   -1481.5264    559.01293    422.13198   -35.131065    34646.235 
  299600    286.94951   -1487.8968    525.47624     333.4225   -192.37697    34646.235 
  299700     304.3242   -1476.1615    502.83003    400.97452   -29.565889    34646.235 
  299800    302.70856   -1463.0997    523.31375    427.22393   -322.10021    34646.235 
  299900    299.50197   -1502.0373    524.14522    374.63702   -293.78673    34646.235 
  300000    299.30307   -1474.5046    483.85508    360.98132   -59.175253    34646.235 
  300100    300.82504   -1471.1508    523.99422    411.34742    63.326018    34646.235 
  300200    299.65599   -1476.6823    498.80327     375.3456   -596.04311    34646.235 
  300300    302.45485   -1522.4115    484.55424     328.0068   -1153.6113    34646.235 
  300400    302.69291   -1510.8309    507.49141    363.59966   -253.31687    34646.235 
  300500    297.41331   -1535.7458    546.55066    353.90174    149.98948    34646.235 
  300600    301.74482   -1501.4478    505.47709    366.68696    433.14098    34646.235 
  300700     296.0001     -1465.63    513.99404    385.07897   -100.52352    34646.235 
  300800    302.96626   -1505.0935    503.25546     366.3355   -174.38303    34646.235 
  300900    281.82106   -1453.2347    506.23442    325.68313   -445.00569    34646.235 
  301000    298.11164   -1476.7662    492.03422    361.51846   -293.79331    34646.235 
  301100    288.11455   -1525.3802     504.6235    280.34761   -260.46478    34646.235 
  301200    285.49557   -1494.5783    508.34684    303.04578   -254.64917    34646.235 
  301300    293.34538   -1496.9986    500.31709    328.04483    184.11316    34646.235 
  301400    307.78753    -1492.273    501.87263    399.54572    330.96962    34646.235 
  301500    303.73143   -1539.3518    509.46628    341.74348    528.00698    34646.235 
  301600    309.57483   -1514.3148    513.94544    397.64799    360.49193    34646.235 
  301700    293.47719   -1506.7943    533.78338    352.31066    90.077822    34646.235 
  301800    306.59938   -1543.4988    506.81829        347.9   -119.00149    34646.235 
  301900    303.29153   -1573.6884    509.49482    305.44888    446.29732    34646.235 
  302000    296.20562   -1545.6685    532.54592    324.52046    99.175121    34646.235 
  302100    302.64592   -1522.6723    490.42681    334.48149     201.2132    34646.235 
  302200    298.73789   -1481.2268    501.48182     369.3336    1002.4711    34646.235 
  302300    296.58456   -1490.3315    481.63061    330.65342    182.46624    34646.235 
  302400    294.75259    -1465.421    501.42468    367.08494    184.27574    34646.235 
  302500    297.75183   -1522.6132    505.64237    327.65476   -100.01099    34646.235 
  302600    312.50503   -1516.4324    500.79509    395.61262    215.22561    34646.235 
  302700    302.36584   -1483.3677    516.35533    398.44975    436.66248    34646.235 
  302800    315.99353   -1527.7106    503.51701    402.81019    697.63423    34646.235 
  302900    288.82575    -1540.593    504.31558    268.03861    354.86032    34646.235 
  303000    292.71024   -1541.9781    519.14988    299.02992    357.82127    34646.235 
  303100    307.62428   -1506.7146    484.26127    366.75554    -53.85937    34646.235 
  303200    303.53182    -1538.005    494.19769    326.92028   -515.73818    34646.235 
  303300    307.38668    -1526.101    500.29809    362.33296   -89.965059    34646.235 
  303400    301.39243   -1511.1406    502.86274    352.78843    95.312783    34646.235 
  303500    291.45707   -1507.3729    517.02204    325.84802    279.88994    34646.235 
  303600    305.02632   -1541.4948    510.67793    346.65978    577.66648    34646.235 
  303700    290.80613   -1480.2832    514.31666    347.29281     674.3591    34646.235 
  303800    296.99905    -1488.827    487.22987    339.62897   -93.688335    34646.235 
  303900    302.33774   -1507.5016    519.41912    377.25273    37.597942    34646.235 
  304000    306.84754   -1527.3011    521.54305    379.94314    447.92959    34646.235 
  304100    297.28717   -1524.0317     477.3935    295.88897   -73.203479    34646.235 
  304200     306.5294   -1509.1896     494.5055     369.5804    163.89049    34646.235 
  304300    298.39538   -1491.5525    509.84079    365.82005   -132.52321    34646.235 
  304400    297.33075   -1509.1474    474.32366    307.90034   -730.88949    34646.235 
  304500    304.36028   -1479.3046    487.87087    383.03509   -121.49273    34646.235 
  304600    294.55982   -1481.7906     524.5861    373.00624     188.8131    34646.235 
  304700    290.20606   -1488.0578    549.44112    371.93276   -209.11414    34646.235 
  304800    313.23439   -1487.2988    508.40521    435.65013   -487.60103    34646.235 
  304900    288.89502   -1479.6011    507.04719    332.07501   -349.33515    34646.235 
  305000    300.75731   -1475.3918    487.92645     370.7328   -227.95921    34646.235 
  305100    311.43169   -1498.0156    501.03431    409.42151   -322.06705    34646.235 
  305200    302.65438   -1495.3952    510.08146    381.45143   -359.17225    34646.235 
  305300     302.9616   -1514.6808    492.17063    345.64238    288.34386    34646.235 
  305400    291.00414   -1447.2864    546.25468    413.12181    294.76977    34646.235 
  305500     300.4248   -1496.8208     525.4272    385.30293    681.99377    34646.235 
  305600    302.39923   -1517.0692    505.70806    354.25182    134.01172    34646.235 
  305700    298.63118   -1483.2179    510.02484    375.40363   -397.91751    34646.235 
  305800    305.70997   -1456.6264    478.75103    402.68861   -87.216908    34646.235 
  305900    290.72014     -1461.66    500.46362    351.67464   -239.22202    34646.235 
  306000    308.33153   -1475.8475    490.09167    406.64687   -70.314712    34646.235 
  306100    294.23834   -1453.4915    508.31537    383.58277   -297.82814    34646.235 
  306200    298.24171   -1428.9906    499.62097    417.46827    201.86026    34646.235 
  306300    307.49822   -1477.4723    502.34511    413.51233   -740.79118    34646.235 
  306400    310.10892   -1508.7586    530.70929    422.38003    -831.2088    34646.235 
  306500    305.83537   -1476.2708    500.35697    405.21643    8.2678237    34646.235 
  306600    295.88389    -1506.876    512.11434    341.42843   -361.81635    34646.235 
  306700    297.21283   -1489.9922    518.00025    370.19956   -771.65904    34646.235 
  306800    292.57982    -1542.194    487.98576    267.06092   -202.33647    34646.235 
  306900    301.48428   -1530.6963    518.94499    349.72977   -452.33776    34646.235 
  307000    306.65772   -1526.9161    511.15061    369.07842    177.06535    34646.235 
  307100    305.59069   -1524.2683    465.27814    321.03514   -30.347596    34646.235 
  307200    306.64204   -1562.1543    495.86428    318.48307   -418.53843    34646.235 
  307300    300.85853   -1533.9402    503.77348    328.48848    327.55109    34646.235 
  307400    303.94912   -1501.5284    477.87187    348.95556   -338.23322    34646.235 
  307500    293.47808   -1479.0558    488.74322    335.01307   -338.62894    34646.235 
  307600    300.57625   -1485.6641    484.92273    356.63911   -232.10731    34646.235 
  307700    292.40916     -1518.21    489.09818    291.38664    33.400905    34646.235 
  307800    300.85225   -1520.4804    475.74928    313.89578    156.16659    34646.235 
  307900    303.53015   -1520.1523    522.47978    373.04758    648.52088    34646.235 
  308000    308.81265   -1520.9683    485.38732    358.99442    504.67325    34646.235 
  308100    302.13642   -1501.6484    519.71752    382.49517    431.47746    34646.235 
  308200    296.04324    -1493.641    520.02717     363.2959   -28.298931    34646.235 
  308300    299.23685   -1503.1716    531.35842    379.51862   -71.544923    34646.235 
  308400    302.07795    -1531.328    510.69452    343.52858    588.30152    34646.235 
  308500    297.04282   -1541.7329    497.35031    297.04123   -54.063429    34646.235 
  308600    305.49814   -1546.1937    514.48123    347.89493   -37.390625    34646.235 
  308700    301.85866     -1493.51    509.07033    378.73207   -55.757602    34646.235 
  308800      296.398   -1495.8254    497.79627    340.48268   -180.20994    34646.235 
  308900    303.32665   -1501.7546    508.60597     376.6524    132.34192    34646.235 
  309000     297.8952   -1496.4543    489.04173    337.86049   -34.549372    34646.235 
  309100    294.32399   -1485.1674     522.1655    366.14375   -223.32105    34646.235 
  309200    291.83528   -1462.6618    477.02968    332.27473   -174.87904    34646.235 
  309300    309.94526   -1518.2096    506.90611    388.38679    236.70157    34646.235 
  309400    304.90094   -1521.5691    499.38271    354.72405    260.80938    34646.235 
  309500    294.99221   -1537.8554    470.93711    265.24507   -291.72507    34646.235 
  309600    280.03954   -1579.7632    518.58722    203.46217     -868.205    34646.235 
  309700    297.69756   -1530.5091    489.69555    303.56698   -247.55043    34646.235 
  309800    302.39144    -1530.892    509.43121    344.11689   -83.366308    34646.235 
  309900    299.80741   -1517.2255     520.0403    356.72325   -469.19033    34646.235 
  310000    295.87075   -1522.4571    489.28727    302.96097   -215.56573    34646.235 
  310100    297.97263   -1502.9009     478.2097     320.9315   -315.62802    34646.235 
  310200    300.80611   -1531.0499    485.48808    312.85667   -313.87805    34646.235 
  310300    294.62868   -1565.2513    512.74623     278.0166   -29.693524    34646.235 
  310400    295.82284   -1524.3502    497.10917    308.67344    523.31786    34646.235 
  310500     304.9833   -1519.2335    510.48832    368.53726     310.7681    34646.235 
  310600    299.38493   -1490.0217    514.65566     376.6345    400.24847    34646.235 
  310700     302.9989   -1496.2612    523.47239    395.53219    878.28074    34646.235 
  310800    301.03731   -1529.0133    497.12821    327.57753    169.02539    34646.235 
  310900     306.2409   -1524.3761    498.93497    357.52054    382.22552    34646.235 
  311000    300.97991    -1490.445    516.87145    385.62984    145.98868    34646.235 
  311100    300.84126   -1492.8162    492.96999    358.73106    185.49235    34646.235 
  311200    307.11949    -1534.562    506.05618    358.42345   -283.34143    34646.235 
  311300    300.32381    -1453.332    496.48219    399.39067     29.54031    34646.235 
  311400    308.44277   -1493.3943     509.0561    408.56687   -483.56678    34646.235 
  311500    311.18141   -1489.3835    510.62941    426.51851   -663.15931    34646.235 
  311600    306.58976   -1507.7062    493.76652     370.5974   -371.03773    34646.235 
  311700    283.59337   -1502.3202    515.78056    294.14743   -383.29437    34646.235 
  311800    300.72862   -1528.3649    520.79459    350.49824   -436.12052    34646.235 
  311900    315.04182   -1526.9736    486.11992    381.85228    -123.8095    34646.235 
  312000    301.08061   -1504.6507    497.56709    352.57449   -907.04045    34646.235 
  312100    298.12733   -1526.4364    504.53145    324.41638    241.92432    34646.235 
  312200     295.9566   -1525.6414     527.2755    338.15258   -53.613443    34646.235 
  312300    293.99281   -1491.2576    491.08779    327.48031    101.81939    34646.235 
  312400    306.80841   -1528.9194    489.16098    345.76601    282.81966    34646.235 
  312500    310.27781   -1528.0741    498.37621     371.4941    255.96181    34646.235 
  312600    297.64648   -1503.3673    489.20069    329.98319    456.39011    34646.235 
  312700    300.87949     -1485.78      515.549    388.51884   -172.75145    34646.235 
  312800    289.48808   -1522.5578    559.08136    343.83065   -548.45828    34646.235 
  312900    292.87862   -1546.1104    524.72133    301.22941    312.25683    34646.235 
  313000    306.81877   -1497.8478    508.75138    396.47484    370.47337    34646.235 
  313100    296.84127   -1491.3817     522.7176    371.84948    86.781932    34646.235 
  313200    305.17576   -1479.0779    526.96366    426.03724    54.215295    34646.235 
  313300    299.84154   -1531.0636    478.40932    301.40826   -132.13746    34646.235 
  313400    299.43913   -1541.6632    530.07507    340.65718   -968.05041    34646.235 
  313500     291.7044   -1498.6874    503.57245    322.20091   -116.13986    34646.235 
  313600    311.05176   -1449.8635       513.01    467.83356   -361.34116    34646.235 
  313700    305.51921    -1512.956    539.29865    406.04521   -182.55256    34646.235 
  313800    300.02418   -1526.9603    524.30893    352.23603    -22.23371    34646.235 
  313900    301.38404     -1520.64     500.6085    340.99688    188.12006    34646.235 
  314000    298.70009   -1500.2469    548.37408    397.03509    5.4523131    34646.235 
  314100    303.32867   -1497.7083    513.97725    386.07916    44.131834    34646.235 
  314200    300.48858   -1473.6298    510.27886    393.63361    68.323103    34646.235 
  314300    311.05061   -1523.0053    520.42755    402.10414    356.99401    34646.235 
  314400    301.82488   -1551.4526    494.34488    305.91145   -73.898822    34646.235 
  314500    309.71889   -1501.3648    494.16965     391.4728    148.34884    34646.235 
  314600    297.24777   -1536.2869    501.98409    308.04646   -363.15963    34646.235 
  314700    301.45886   -1514.0216    497.82496    345.16967   -23.772396    34646.235 
  314800    307.09272   -1556.1758    487.85137    318.48389    386.71345    34646.235 
  314900    303.84355   -1523.0126    497.60757    346.73038   -32.180006    34646.235 
  315000    295.26035   -1521.5441    532.08068    343.91083     -146.602    34646.235 
  315100    312.44892    -1527.818    499.85759    383.03616    375.30105    34646.235 
  315200    297.65218   -1516.5191     517.9214    345.57791   -825.47617    34646.235 
  315300    293.48137   -1562.2248    485.88125    248.99698   -15.896732    34646.235 
  315400    303.81928   -1537.0275    512.53512     347.5334   -53.798226    34646.235 
  315500    302.28271   -1552.0257    521.39921    334.46019    -95.91365    34646.235 
  315600    302.78046   -1545.7458     494.8969    316.48559    30.485025    34646.235 
  315700     299.5765   -1572.9508    483.07565    262.99057    31.902087    34646.235 
  315800    302.43806   -1565.5372    500.20191      300.453   -144.25384    34646.235 
  315900    308.10675   -1577.9606     520.8821     334.3092   -199.56838    34646.235 
  316000    304.25948   -1574.6856    506.20858    305.53662    334.10831    34646.235 
  316100    300.94032   -1571.0551     485.2899    273.25939    254.46853    34646.235 
  316200    309.58594   -1564.5365    519.55905     353.0901    312.95575    34646.235 
  316300    295.80953   -1570.7025     502.7259    267.87776    258.44189    34646.235 
  316400    297.20266   -1555.7747    528.47384    314.84478    335.39862    34646.235 
  316500    312.55124   -1578.6367    493.64853    326.47044    1118.3183    34646.235 
  316600    302.20078   -1578.1066    487.82078    274.43094    1011.1931    34646.235 
  316700    313.54881   -1607.0788    497.15334     306.0381    1130.1543    34646.235 
  316800    294.14836   -1548.8368    496.36276     275.8785    888.33185    34646.235 
  316900    294.76247   -1606.8967    503.95542    228.18453    528.97878    34646.235 
  317000     306.5519   -1555.2428    491.77266    320.89597    619.32478    34646.235 
  317100    302.20507   -1567.9356    512.02831    308.82885    128.22517    34646.235 
  317200    307.06412   -1601.1107    490.47635    276.04486     287.3525    34646.235 
  317300    303.22839   -1526.3288    503.81595    346.84449    172.68248    34646.235 
  317400    302.13967   -1513.8898    508.62266    359.17359   -104.01615    34646.235 
  317500    304.46877   -1511.7478    527.47473     390.6858   -107.70999    34646.235 
  317600    294.21147   -1498.2874    505.43963    335.78987   -517.39254    34646.235 
  317700    293.45397   -1530.5122    499.06018    293.76477   -648.45414    34646.235 
  317800    295.54273   -1541.0306     499.4979    293.11681   -193.68683    34646.235 
  317900    296.93839   -1528.9735     518.4138    330.39247    247.38529    34646.235 
  318000      283.879   -1535.1901    530.26166    277.04845   -14.381831    34646.235 
  318100    294.00999   -1507.8296    534.92571    354.82383    165.83058    34646.235 
  318200    307.79989   -1486.2639    525.59383    429.33188    540.67019    34646.235 
  318300    298.43774   -1471.9382    526.44786    402.23282   -499.90987    34646.235 
  318400     295.1051   -1508.8422    514.51902    338.34996   -365.77676    34646.235 
  318500    307.63265    -1523.826     498.4625    363.88316   -214.39997    34646.235 
  318600    311.58175   -1505.7259    501.13146    402.48605     -267.672    34646.235 
  318700    310.52035   -1525.2542    548.93652    425.96962   -99.355298    34646.235 
  318800    311.66763   -1492.9018    515.31912    429.88567    127.60211    34646.235 
  318900    307.04114   -1537.7699     516.3725    365.17808    283.17643    34646.235 
  319000    305.72073   -1551.5917    503.77994    332.80085    843.99983    34646.235 
  319100    307.63458   -1558.8993    525.50074    355.85682    141.08003    34646.235 
  319200    297.96062   -1557.9231    522.46305    310.10843   -163.90019    34646.235 
  319300    294.56826   -1503.3708    523.87602    350.75399    76.819762    34646.235 
  319400    303.63683   -1535.0632    518.31992    354.45854   -63.432076    34646.235 
  319500    307.36703   -1551.2701    528.42409    365.20112   -372.83296    34646.235 
  319600    299.30383   -1486.0145    527.89338    393.51316    -398.4809    34646.235 
  319700    307.23831    -1481.595    542.44906    448.31991   -935.36244    34646.235 
  319800    296.82589   -1513.9543    531.98213    358.47192   -1292.8072    34646.235 
  319900    290.77945   -1547.7613    539.99485    305.37238   -470.11806    34646.235 
  320000    302.60121   -1519.0566    518.98828    366.45672   -587.51585    34646.235 
  320100    301.72514   -1503.0888    524.29418    383.77417   -869.77394    34646.235 
  320200    295.07638   -1491.1944    526.31907    367.66815   -81.896424    34646.235 
  320300    285.72534   -1471.6167    511.09011    329.78821   -384.92326    34646.235 
  320400    306.90065   -1497.6939    542.81834    431.06542     387.0968    34646.235 
  320500    308.31299   -1525.1768    527.05675    394.19899    354.96605    34646.235 
  320600    298.03312   -1487.7948     528.5338    386.63483    122.28406    34646.235 
  320700    302.56097   -1504.2085    496.81413     358.9489    51.615532    34646.235 
  320800    298.63239   -1491.0254    498.83068     356.4074   -601.28286    34646.235 
  320900    290.89322   -1532.7551    500.06066    280.95815   -131.88189    34646.235 
  321000    300.98165   -1523.7821    497.21139    332.64052    145.20803    34646.235 
  321100    302.81226   -1519.1438    503.87302    352.20732    101.01281    34646.235 
  321200    301.52767    -1502.477    530.79273    389.99272    263.46626    34646.235 
  321300     292.9509   -1542.2732    528.25698    308.92873   -7.1392445    34646.235 
  321400    297.50516   -1557.2627    502.26832    288.51727    226.19115    34646.235 
  321500    288.45667    -1505.579    534.92278    331.99315     60.08521    34646.235 
  321600    301.42721   -1520.0352    542.57926    383.76745    33.636118    34646.235 
  321700    294.00146   -1500.2452    537.24537    364.68934   -138.54054    34646.235 
  321800    299.47667    -1513.904    529.20557    367.71639   -72.449999    34646.235 
  321900    297.44516   -1527.8333    538.59422     354.0016     421.0607    34646.235 
  322000    301.93628   -1500.1467    515.14079    378.51638    601.85228    34646.235 
  322100    311.20407    -1486.208    529.05752    448.22441    945.96337    34646.235 
  322200    302.14924   -1505.1938    552.10768    411.39784    1016.5099    34646.235 
  322300    296.38348   -1551.1969    507.39703    294.64632    678.26307    34646.235 
  322400    305.99792   -1532.1215     529.4405    379.18331    594.33777    34646.235 
  322500    301.11675   -1527.0548    531.97732    364.74384     334.6489    34646.235 
  322600    295.41637   -1531.9274    475.84006    277.99149     178.8169    34646.235 
  322700     307.6596   -1564.0521    545.28749    370.60379   -40.352427    34646.235 
  322800    293.89939   -1512.5735     509.4914    324.14617    -293.2753    34646.235 
  322900    306.67424   -1521.2562    501.19016    364.85249    -492.2607    34646.235 
  323000    295.25347   -1519.5265    514.78878    328.60545   -707.80286    34646.235 
  323100     303.4473   -1532.5616     517.2753    355.05968   -253.45851    34646.235 
  323200    304.11412   -1505.4102    541.26866    409.21568    339.84313    34646.235 
  323300    291.71277   -1541.9705    505.83676     281.2199    643.30835    34646.235 
  323400    307.99696   -1564.0878    511.83579    338.63987    -132.3287    34646.235 
  323500    299.49162   -1531.6223    494.73601     315.5961   -354.01145    34646.235 
  323600    295.12534   -1509.9182    499.06323    321.90956    1.9128798    34646.235 
  323700    289.29023   -1539.8498    509.04398    275.60777   -517.23862    34646.235 
  323800    297.25668   -1533.4957     495.9327    304.82655   -574.11822    34646.235 
  323900    299.99204   -1513.0049    536.33265    378.06995    -858.2119    34646.235 
  324000    284.24917   -1535.6819    505.91303    253.87969    253.70969    34646.235 
  324100    304.09229   -1546.2573    496.96952     323.9709    529.84222    34646.235 
  324200    291.04043   -1597.5051    507.90453    224.71684    226.48793    34646.235 
  324300    299.78933   -1577.9144    499.20473    275.11712    96.003364    34646.235 
  324400    301.77232   -1586.4607    485.52319    261.84431    322.10315    34646.235 
  324500    313.15038   -1563.3537    483.00042    333.81106    23.914654    34646.235 
  324600    300.38053   -1527.7591     529.6115    358.34905    -123.7729    34646.235 
  324700    299.44328   -1575.4416    487.42675    264.24917    -268.3101    34646.235 
  324800    299.88037   -1554.6273     509.3879    308.99851    251.57655    34646.235 
  324900    297.71337   -1547.7936    529.61897    326.27731    708.90193    34646.235 
  325000    286.97527   -1557.7331    501.42169    239.64806    1033.0884    34646.235 
  325100    296.42095   -1544.3214    502.78648    297.08056    1134.5836    34646.235 
  325200     307.5016   -1556.2783    521.27246    353.64904    687.78721    34646.235 
  325300    315.67398   -1536.6917    514.67633    403.54539    756.54932    34646.235 
  325400    291.43162   -1499.8774    500.23894     316.4455    78.530027    34646.235 
  325500    297.49538    -1509.656    516.95426    350.76571    355.09117    34646.235 
  325600     299.7479   -1499.4097    502.61917    356.84916   -626.63377    34646.235 
  325700    289.25829   -1496.4559    499.01558    308.82906    -60.28252    34646.235 
  325800    302.46369   -1550.3745    480.83492     296.3645   -273.57433    34646.235 
  325900    308.42816   -1519.0734    525.90685    399.67255   -99.054372    34646.235 
  326000    306.24166   -1497.3106      521.645    407.29947   -635.07306    34646.235 
  326100    300.00369   -1496.8736    514.09727    372.01853     220.0845    34646.235 
  326200    306.61564   -1521.9647    510.64347    373.33264    513.93513    34646.235 
  326300    299.96767   -1483.2558    544.19875    415.57514    417.33503    34646.235 
  326400    294.11078   -1506.3101    520.29217    342.16494   -164.06817    34646.235 
  326500    301.98061   -1526.1611    503.85634    341.41769    510.24067    34646.235 
  326600    292.35703   -1529.5974    519.23428    309.89995    152.94748    34646.235 
  326700    298.06949   -1515.0371    509.16482    340.18789    446.20708    34646.235 
  326800    302.14606    -1526.964    507.16904    344.67462   -287.55137    34646.235 
  326900    294.86853   -1528.6622    528.13072    331.07331   -133.15107    34646.235 
  327000    304.63013   -1536.4566    511.26907    350.49991    834.10447    34646.235 
  327100    301.62244   -1566.2718    504.92548    300.75862    443.08822    34646.235 
  327200    295.46958   -1533.9632    494.31905    294.67493    625.75875    34646.235 
  327300     318.8845   -1544.7007    522.80442    418.16288    507.73517    34646.235 
  327400    300.98924   -1534.0326    520.52196    345.73488    214.14133    34646.235 
  327500    290.60479   -1525.5388    532.09448    318.90576   -285.25201    34646.235 
  327600    296.77882   -1549.8284     525.3976    315.80071   -319.78308    34646.235 
  327700    302.97697   -1564.5237    526.01836    329.71657   -375.52471    34646.235 
  327800    300.86363   -1600.2364    493.12977    251.57159   -330.30246    34646.235 
  327900    300.44205   -1593.0267     476.1872    239.93495    559.69161    34646.235 
  328000     300.6616   -1587.2606    532.16722    302.67252   -34.435089    34646.235 
  328100     305.3201   -1647.5603    488.00308    219.24607   -194.39376    34646.235 
  328200    294.57299   -1600.5316    500.65296    230.39158    289.17719    34646.235 
  328300    294.72144   -1571.6848    525.75863    285.01442    840.72062    34646.235 
  328400    304.45351   -1565.2241    500.87197    310.53774    1085.1711    34646.235 
  328500    297.72768   -1578.5406    523.64292    289.61889    384.86178    34646.235 
  328600    301.68692   -1588.5484    518.43549    292.28327   -209.21368    34646.235 
  328700    296.61434   -1564.7977    496.11284    270.80393   -413.79203    34646.235 
  328800    300.97276   -1619.9929    504.94161    244.11983   -709.38191    34646.235 
  328900    300.62844   -1619.6374     524.6177    262.59643   -804.41207    34646.235 
  329000    310.20922   -1644.9511    503.22413    259.15533   -127.85029    34646.235 
  329100    295.87356    -1555.669    505.01882    285.49323    -345.0688    34646.235 
  329200      298.606   -1551.7841    515.43724    312.13607   -58.017435    34646.235 
  329300    300.69938   -1513.7307    529.64186    373.84772    59.745094    34646.235 
  329400    291.70395   -1505.0744    506.15834     318.3977   -773.53101    34646.235 
  329500    301.99628    -1546.377    507.87478    325.29097   -539.03719    34646.235 
  329600    290.76198    -1504.035    537.21253    346.23751    423.28193    34646.235 
  329700    294.18715    -1526.242     533.8029    336.08869   -315.71401    34646.235 
  329800    309.28593   -1516.9917    535.12254     414.8436    35.045873    34646.235 
  329900    309.63533   -1548.0084     526.6389    376.92114    10.025824    34646.235 
  330000    290.35828   -1553.2429    513.28037    271.27432   -161.53545    34646.235 
  330100    293.28947   -1554.2751    513.43581    283.63456   -369.03272    34646.235 
  330200    296.10994   -1557.6568    516.57161    296.12577   -232.79745    34646.235 
  330300    302.59516   -1564.2403    521.13201    323.38942     740.3026    34646.235 
  330400     292.9103   -1549.6775    515.72993    288.81406    483.52021    34646.235 
  330500     299.0378   -1518.9981    508.52538    339.96019    384.71295    34646.235 
  330600    302.91406   -1548.3235     531.1411    350.75543    57.218345    34646.235 
  330700    293.78104   -1568.9491    492.71302    250.45771    253.91519    34646.235 
  330800    301.21594   -1579.4479    517.41655    298.23787   -406.30875    34646.235 
  330900    309.16452    -1567.396    527.67272    356.44119    240.82485    34646.235 
  331000    302.99302   -1588.8124    508.11114    287.59321    -888.2241    34646.235 
  331100    309.82218   -1628.3988    510.08342    280.81904   -252.29342    34646.235 
  331200    304.61469    -1571.771     487.0743     290.9211   -275.99651    34646.235 
  331300    308.85673    -1570.562    539.69283    363.90532    242.27119    34646.235 
  331400    293.93388   -1588.5912    512.63198    251.42482    350.81676    34646.235 
  331500    296.10719   -1615.7496     516.0914    237.54032    144.29028    34646.235 
  331600    297.37702    -1578.463    515.49268     279.9627   -37.028408    34646.235 
  331700    302.56006   -1579.3892    507.26432    294.21433   -749.60877    34646.235 
  331800    303.69834   -1551.4764    499.29541    319.29867   -458.81411    34646.235 
  331900    295.04327   -1622.1661    514.89746    225.12536   -489.75293    34646.235 
  332000    300.49882   -1583.8987    515.92295    289.05501   -178.20037    34646.235 
  332100    298.48323   -1574.9434    542.03835    315.02345   -265.43446    34646.235 
  332200    303.82303   -1599.8705    497.77889    269.95107   -199.36598    34646.235 
  332300    300.15924    -1554.802    515.11996    315.81526   -159.49854    34646.235 
  332400    308.35641   -1540.0943    539.41999    391.84075    606.98289    34646.235 
  332500     292.5582   -1556.7038    505.21236    269.68012    251.34299    34646.235 
  332600     311.7175   -1564.6496     523.6372    366.68114    812.37245    34646.235 
  332700    311.65711   -1541.7139    530.23516     395.9421   -394.09106    34646.235 
  332800     295.7234   -1580.9755    510.64056    265.13036   -354.55545    34646.235 
  332900    299.64739   -1588.3992    507.24414     272.0307    -588.9046    34646.235 
  333000    309.15893   -1564.5244    522.74495    354.35976   -23.919105    34646.235 
  333100    313.74196   -1583.7209    504.46182    337.57671   -172.23859    34646.235 
  333200    302.03326   -1508.9273     533.7542    388.78707    620.76571    34646.235 
  333300     291.6365   -1561.6868    492.52044    247.84289   -373.81697    34646.235 
  333400    309.99166   -1553.5983    503.79421    350.09566   -329.44036    34646.235 
  333500    287.52326   -1571.9794    520.13738     246.5921   -298.94561    34646.235 
  333600    303.86096   -1594.7567    509.44295    286.90026    284.70787    34646.235 
  333700    286.83781   -1542.7159    488.90497     241.5278    220.80726    34646.235 
  333800    294.16535    -1547.298    529.48909     310.6204    167.79671    34646.235 
  333900    298.78442   -1551.8235    535.03103    332.49623   -92.799998    34646.235 
  334000    300.55885    -1556.304    491.78601    292.78389   -350.74891    34646.235 
  334100    304.60327   -1563.9438     518.6675    330.28987   -550.62053    34646.235 
  334200    305.78746   -1545.3694    500.80472    336.34927   -456.65316    34646.235 
  334300    291.39251   -1541.2819    529.30806    303.93353   -708.45958    34646.235 
  334400    305.14043   -1528.7969    517.53856    366.73363   -576.56513    34646.235 
  334500    292.62918   -1528.7735    519.86943    312.58801   -371.93915    34646.235 
  334600     295.9256   -1516.5432    537.32679    357.16208    360.85887    34646.235 
  334700    293.08142   -1485.7214    532.47856    370.29146   -353.91238    34646.235 
  334800    301.02157   -1538.3365    507.54294    328.59796   -184.95896    34646.235 
  334900    299.12584   -1533.8038    505.98072    323.00746   -218.11209    34646.235 
  335000    294.78312   -1515.7969      536.645    352.06718    115.89161    34646.235 
  335100     293.5431   -1531.7745    499.12635    292.97116    338.08431    34646.235 
  335200     297.7871   -1498.5948    527.36612    373.55621   -321.58057    34646.235 
  335300    293.30301   -1466.2138    514.60281    372.92405   -454.68595    34646.235 
  335400     302.7675   -1516.6198    518.41692    369.07308   -645.40295    34646.235 
  335500    304.69007   -1523.6191    501.97468    354.31381   -316.69271    34646.235 
  335600    308.06429   -1490.4443     514.0945    414.84613   -185.18928    34646.235 
  335700    296.11509   -1515.4734    520.05575    341.81659   -596.24823    34646.235 
  335800    303.83734   -1529.0715    513.68018    356.71599   -222.78614    34646.235 
  335900    298.01009   -1522.3475     524.2555    347.69995   -359.94852    34646.235 
  336000    304.28988   -1498.9882    504.87111    380.03388    130.36367    34646.235 
  336100    311.63445   -1497.3832     554.6558    464.59111   -229.74367    34646.235 
  336200    301.34401   -1479.5583     528.8415     410.1308    181.32797    34646.235 
  336300    295.96069   -1445.4764    536.35545    427.41601    -2.941046    34646.235 
  336400    288.62734   -1444.9762    526.88578    385.32966   -97.733686    34646.235 
  336500    287.38583   -1424.3678    549.34313    422.78882   -225.75135    34646.235 
  336600    311.60105    -1466.727    523.02154    463.46216    502.87241    34646.235 
  336700    309.19784   -1456.8365    501.82288    441.30134    14.348192    34646.235 
  336800    285.70949   -1463.7642    530.80509    357.28412    571.32784    34646.235 
  336900     304.0419   -1483.7019    514.98256     404.3117    803.77509    34646.235 
  337000     299.7894   -1486.9229    525.40117     392.3054    218.74441    34646.235 
  337100    308.45393   -1483.5718    504.85962    414.24334    100.61416    34646.235 
  337200    291.59637   -1442.4625    509.12187    383.48732    84.844868    34646.235 
  337300    307.30012   -1493.3416    519.09065    413.49405    56.834746    34646.235 
  337400    303.09131   -1484.1357    509.21762    393.82022   -66.952241    34646.235 
  337500    301.02292   -1451.3561    547.12849    455.17001   -54.477192    34646.235 
  337600    312.14847   -1410.5146    506.58061     505.7058   -39.389996    34646.235 
  337700    297.29673   -1475.1355    506.09085    373.52576   -291.11915    34646.235 
  337800    300.59056    -1488.636    545.00711    413.81623    190.91515    34646.235 
  337900    298.98716    -1487.499    563.72688    426.43216   -139.49808    34646.235 
  338000    297.17163    -1484.469    528.06906    385.60549    264.22957    34646.235 
  338100    301.12015   -1476.0348    499.41667     383.2185    232.89684    34646.235 
  338200    301.77306   -1486.9064    544.25033     420.1291   -261.42472    34646.235 
  338300    294.90274   -1478.2922    531.24748    384.71456    219.60047    34646.235 
  338400     313.6168   -1506.4325    515.69684    425.53497    158.95151    34646.235 
  338500    308.68566   -1514.5663    517.98463    397.42028    164.56453    34646.235 
  338600    302.07122   -1437.8275    524.92185    451.22605   -245.88932    34646.235 
  338700      300.732   -1507.4794    510.16794    360.77237   -57.460602    34646.235 
  338800    302.71942   -1474.4118    536.91808    429.56518    326.32628    34646.235 
  338900    293.85635   -1460.1501    490.79103    357.67483    269.08789    34646.235 
  339000    308.54407   -1505.5548    523.66801    411.47583    339.17491    34646.235 
  339100    292.42675    -1491.908    508.04126    336.71122     570.1351    34646.235 
  339200    294.37622   -1498.9955    528.71906    359.10512    391.91511    34646.235 
  339300    304.32454   -1496.0888    518.85798    397.07668    201.03281    34646.235 
  339400    289.53818   -1481.1441    547.38199    373.77127    821.85195    34646.235 
  339500    303.70557    -1502.569    543.77435    412.71759    25.788049    34646.235 
  339600     303.6121   -1508.5926      493.327    355.82453   -199.60402    34646.235 
  339700    307.21551   -1491.3304    511.95539     407.9879   -726.06982    34646.235 
  339800    299.55826   -1537.7802    529.47679    344.47994    306.32557    34646.235 
  339900    296.29972   -1515.7357    520.41607    342.74838   -542.66856    34646.235 
  340000    292.24442   -1496.3168    519.06285    342.50059    -985.7311    34646.235 
  340100    312.50408   -1520.7629    504.88471    395.36755   -601.52597    34646.235 
  340200     306.9095   -1540.1858    514.16908    359.96424   -1001.3468    34646.235 
  340300    301.94059   -1598.3338    522.84861    288.05657   -448.30853    34646.235 
  340400    304.30005   -1539.9543    495.26166    329.50419   -628.77472    34646.235 
  340500    292.12174   -1530.6553    527.40157    315.94679   -60.280281    34646.235 
  340600     302.5346   -1549.5109    518.43253    335.14589    978.98606    34646.235 
  340700     292.8856   -1564.5449    512.49653    270.60166    930.57914    34646.235 
  340800    292.87079   -1560.6396    526.64184    288.58545     343.3361    34646.235 
  340900    303.10363   -1554.4744    510.29684    324.61632     504.0192    34646.235 
  341000    292.95524   -1554.8367    514.99422    283.12208    251.20072    34646.235 
  341100    304.97846   -1605.3753    543.88575    315.77097   -270.57614    34646.235 
  341200    297.80692     -1581.26    505.69109    269.30543   -438.61906    34646.235 
  341300    301.56785   -1558.6937    492.65053    295.81533    46.012083    34646.235 
  341400    291.16958   -1563.6502    503.59911    254.84949    194.36278    34646.235 
  341500      302.981   -1542.6919    519.03802     344.5862   -356.92659    34646.235 
  341600    309.46069   -1529.8653    537.07268    404.70935   -16.676107    34646.235 
  341700    294.27622   -1528.6599    516.50138    316.77141     817.0276    34646.235 
  341800      293.092   -1577.1225    506.82444     253.2841     653.0184    34646.235 
  341900    307.43247   -1549.8201    520.75788    359.28047   -192.69789    34646.235 
  342000     299.0513   -1564.6482     520.4027    306.24837   -485.41649    34646.235 
  342100     298.1641   -1521.7548    515.80357    340.53612     120.9046    34646.235 
  342200    308.60709   -1519.7579    508.05966    381.94889    -73.91345    34646.235 
  342300    293.44092   -1508.9138    503.49086    319.73487   -217.61325    34646.235 
  342400    291.96311   -1526.0377    531.50739    323.95384   -773.60618    34646.235 
  342500    295.82715   -1516.9436    549.53261    368.52287   -978.62298    34646.235 
  342600    303.11547   -1496.1229    484.82889     357.5534     -59.2698    34646.235 
  342700    299.26374    -1487.519    514.03873    377.97296   -6.2454186    34646.235 
  342800    300.67272    -1527.511    466.78171    297.08683    26.642341    34646.235 
  342900    303.70863   -1560.8803    501.94778    312.59357   -1120.7684    34646.235 
  343000     290.7765   -1535.9245    512.88142    290.08248   -459.10529    34646.235 
  343100     299.6021   -1556.4353    514.75319    311.29922    144.45968    34646.235 
  343200    303.09489   -1482.8442    517.11532    403.02558   -526.17419    34646.235 
  343300    309.47536   -1500.2416    510.07114    407.39773    -437.9418    34646.235 
  343400     302.9555   -1501.8603    518.61142    384.87612   -628.54784    34646.235 
  343500     301.9161   -1531.7266      501.713    333.41754   -1159.9691    34646.235 
  343600    291.43557   -1505.8922      517.206    327.41562   -1044.6842    34646.235 
  343700     304.6876   -1469.9318     523.2716    429.28683   -273.29589    34646.235 
  343800    294.02524    -1495.743    506.59119    338.64475    -315.1909    34646.235 
  343900    302.84086   -1523.2188    525.17459    369.56301   -433.43815    34646.235 
  344000    293.63533    -1480.591    493.46547    338.91023    411.08685    34646.235 
  344100    295.18398   -1541.6011    502.50343    293.93173   -213.65694    34646.235 
  344200    295.36689    -1494.399     507.3766    346.83299   -184.31795    34646.235 
  344300    295.27738    -1491.856    522.16781    363.76293   -93.005072    34646.235 
  344400    299.92824   -1451.5059    506.95004     409.8982    -558.8091    34646.235 
  344500    297.05732   -1507.9153    502.42335    335.99734   -877.56526    34646.235 
  344600    300.38954   -1497.4262    534.88211    393.99321   -326.07747    34646.235 
  344700    295.38718   -1512.8805    485.28553    306.35207    741.23988    34646.235 
  344800    300.66813   -1524.6662    537.89722    371.02639    165.88647    34646.235 
  344900    291.55913   -1522.7165    519.93241    313.87571    653.86973    34646.235 
  345000    302.93316   -1531.9808    508.25004    344.29334     481.0346    34646.235 
  345100    293.63055   -1497.1648    516.39033    345.23971    99.827106    34646.235 
  345200    298.06068   -1480.5235    512.67891    378.17575    238.69831    34646.235 
  345300    317.55853   -1527.5977    518.55217    425.02569    -468.8561    34646.235 
  345400    307.00459   -1500.9099    490.06965    375.57018   -143.03204    34646.235 
  345500    299.56778     -1485.67    518.77704    385.93337    212.36136    34646.235 
  345600    302.95377   -1500.3578     512.1582     379.9176   -785.81241    34646.235 
  345700    304.78276   -1523.5824    527.03517    379.82956   -235.01927    34646.235 
  345800    292.13493   -1502.3033    527.78921    344.74599     267.7118    34646.235 
  345900     309.4459   -1497.3438    515.59637     415.6877   -278.24003    34646.235 
  346000    309.60993    -1488.988    506.14849    415.33642     588.8929    34646.235 
  346100    297.69787   -1475.6481    504.33817    373.07202    360.12964    34646.235 
  346200    312.78857   -1520.9535    516.18256    407.75954    539.33304    34646.235 
  346300    292.06077   -1502.3438    533.74341    350.32474    426.23413    34646.235 
  346400    303.00998   -1513.1994    510.59413    365.76569    472.82552    34646.235 
  346500    298.62742   -1491.8537    517.84426    374.57022     614.7414    34646.235 
  346600    294.20618   -1525.0286    516.60235    320.18744    316.73709    34646.235 
  346700    294.87371    -1513.268    508.18394    326.54417   -1.4493637    34646.235 
  346800    301.17445   -1509.7497    511.18314    361.51531    72.351808    34646.235 
  346900    286.02077   -1512.5843    500.15215    279.21682   -483.07703    34646.235 
  347000    308.04904   -1508.8581    522.80457    405.07352   -216.68556    34646.235 
  347100    300.29192   -1554.9798    525.33311    326.44974   -478.35963    34646.235 
  347200    286.16418   -1516.1317    496.90602    273.07091   -410.50022    34646.235 
  347300    298.45795   -1503.7125    510.95314    355.05503   -31.307563    34646.235 
  347400    310.54764   -1505.6873    498.55976    395.28305    310.92175    34646.235 
  347500    299.42247   -1506.6487    505.86753    351.38896    -111.7191    34646.235 
  347600    299.20899   -1527.2666    558.93051     382.8699   -1.1947199    34646.235 
  347700    298.68621   -1539.2718    477.21817    286.79161    552.62246    34646.235 
  347800    289.75903   -1496.0787    509.04776    321.49982    409.64161    34646.235 
  347900    296.76239   -1526.9487    546.57102    359.77961    205.28703    34646.235 
  348000    290.44609   -1510.8408    506.18401    306.97663    723.56074    34646.235 
  348100    300.46561   -1533.1019    512.04661    335.82555    1326.2209    34646.235 
  348200     295.7125   -1540.1887     527.4616    322.68899    314.58915    34646.235 
  348300    300.06194   -1527.6014    491.37457    318.83112     128.6372    34646.235 
  348400    291.94906   -1521.1508    504.10463    301.37455    -620.8423    34646.235 
  348500    292.27467   -1510.6228     534.8272    344.09559   -392.71507    34646.235 
  348600    305.39936   -1527.1697    502.11818    354.10974    32.602726    34646.235 
  348700    283.09763   -1531.6518    508.74009    255.53665   -272.04843    34646.235 
  348800    294.06174   -1544.6194    509.46292    292.80499    413.32382    34646.235 
  348900    299.25196    -1541.041    483.39405    293.75314    385.42429    34646.235 
  349000    294.92441   -1547.1171     519.4968     304.2369    63.319178    34646.235 
  349100    281.59154   -1574.7012    508.54863    205.49432   -276.13431    34646.235 
  349200    302.97185   -1538.4442    513.75452    343.50908    357.03518    34646.235 
  349300    300.77744   -1557.7447    509.66828    310.21261    213.34217    34646.235 
  349400    306.19318    -1587.103    517.18428    312.82743    723.16399    34646.235 
  349500    293.38842     -1559.37    503.08538    268.63607    769.24699    34646.235 
  349600    299.99755   -1557.7673    496.90411    293.90386    361.72363    34646.235 
  349700    304.86019   -1543.2554    519.51095    352.98205    1134.5497    34646.235 
  349800    304.55553   -1503.9157    521.96723    393.40219   -109.08664    34646.235 
  349900     300.9251   -1511.4076    485.60104    333.14927   -353.23509    34646.235 
  350000    296.87719   -1449.3094    506.73283    398.09921   -365.88205    34646.235 
  350100     307.5304   -1506.4832       493.86    376.16174   -145.23173    34646.235 
  350200    307.09607   -1511.2382     515.6435    391.22881   -511.34486    34646.235 
  350300    298.13553   -1498.5411    504.69295    352.51024    1.0379286    34646.235 
  350400     298.6006   -1519.6368    529.86848    358.69023    305.61535    34646.235 
  350500    293.39063   -1541.4604    510.05546    293.52579     326.4194    34646.235 
  350600    304.04821   -1501.1396    516.99469    388.91468    1036.8829    34646.235 
  350700    303.51082   -1478.8624    506.58981    398.36015    989.95741    34646.235 
  350800    306.88379   -1491.2707    508.48001    403.07419    912.30108    34646.235 
  350900     308.9782   -1473.8398    526.76197    448.24523    1096.3606    34646.235 
  351000    292.90987   -1458.6195    483.35125    347.49141    504.02709    34646.235 
  351100    303.50256   -1481.3213    529.86085    419.13505   -125.75088    34646.235 
  351200    298.26757   -1481.1493    515.82123    381.62657   -566.17754    34646.235 
  351300    297.56711   -1445.2726    514.77658    413.29536   -220.91249    34646.235 
  351400    312.31708   -1437.6883    522.53554    495.24841   -585.74549    34646.235 
  351500    289.05953   -1430.9236    546.72296    421.17115   -113.91443    34646.235 
  351600    288.38558   -1456.2726    512.54041    358.59608   -116.90204    34646.235 
  351700    302.98324   -1461.3185    500.61217    407.54395   -148.15896    34646.235 
  351800    289.71312   -1467.0936    526.75371    367.98345   -617.42313    34646.235 
  351900    299.01101   -1524.0132    464.90025    291.19901   -355.79586    34646.235 
  352000    300.99162   -1507.5038    490.94342    342.69591   -651.04881    34646.235 
  352100    307.46095   -1527.2008     506.1875      367.458   -546.55936    34646.235 
  352200    299.73312   -1499.5364    493.00169    347.03823   -531.08198    34646.235 
  352300    291.41345   -1481.6396    497.05952    331.42183   -255.85232    34646.235 
  352400    311.67661   -1474.2078    498.77147    432.07252    121.84387    34646.235 
  352500    308.11533   -1488.3612    474.51938    377.58458    144.37413    34646.235 
  352600    307.24887   -1523.8947    532.11911    395.73797    522.74847    34646.235 
  352700    287.86596   -1498.2641    501.00075    302.71837    674.64142    34646.235 
  352800    308.36224   -1523.8485    522.52446    391.21739    422.33178    34646.235 
  352900     285.0835    -1520.497    523.99849    290.91778   -24.532505    34646.235 
  353000    299.70227    -1496.137    516.32773    373.62434    174.79483    34646.235 
  353100    295.93587   -1468.4151    519.79944    387.80922    555.32378    34646.235 
  353200     296.1675   -1535.9524    508.58897    310.10745   -185.78785    34646.235 
  353300    291.28224   -1525.0517    505.73198     296.0897    342.37998    34646.235 
  353400    295.20468   -1519.3479    512.45847    326.23346    131.79634    34646.235 
  353500     303.1838    -1534.945    509.78123    343.99217    171.58271    34646.235 
  353600     297.0688    -1489.743    523.47582     375.2739   -619.47479    34646.235 
  353700    292.24622   -1501.6671    515.63777    333.73329   -547.07432    34646.235 
  353800    287.77982   -1503.4082    521.87615     318.0607   -799.22065    34646.235 
  353900    300.76775   -1524.5842    501.62957    335.29066   -801.08011    34646.235 
  354000    304.39219   -1501.2717    526.93929    400.28053   -285.20082    34646.235 
  354100    293.18775   -1523.7949     490.8126     291.0322   -396.38714    34646.235 
  354200    294.47719   -1514.9829    504.71015    319.56481   -464.05771    34646.235 
  354300    296.19053   -1478.7557    500.87985    359.69897   -590.86346    34646.235 
  354400     274.1599   -1514.2143    503.27399    227.14586    -551.7687    34646.235 
  354500    311.19435   -1515.0296    492.86137    383.16281   -343.54556    34646.235 
  354600    291.17701   -1533.0589    494.08302    275.95833    100.47298    34646.235 
  354700    300.49193   -1534.8423    514.39272    336.55015    617.34974    34646.235 
  354800    296.36616   -1519.0528    514.20465    333.51989   -704.43046    34646.235 
  354900    308.23174   -1508.1677    532.72514    416.50953  -0.35647529    34646.235 
  355000    294.45244   -1506.3384    522.50518    345.89251    176.02776    34646.235 
  355100    307.24817   -1553.0008    501.25947    335.76908    -119.3072    34646.235 
  355200    303.37673   -1570.6918    507.87909    307.21456   -432.83189    34646.235 
  355300    298.55114   -1543.9452    510.69658    314.98662    487.85708    34646.235 
  355400    293.76782   -1513.7435    522.17395    335.06456    594.35439    34646.235 
  355500    293.49231   -1554.0362    518.90937    290.26308     469.6282    34646.235 
  355600    286.86126   -1533.3418    526.49007    288.59282    851.29535    34646.235 
  355700    299.20402   -1542.8636    513.38961    321.70965    677.32093    34646.235 
  355800    299.08323   -1566.2648      504.654    289.02733    577.61304    34646.235 
  355900    296.99765   -1586.0113     518.5268    273.73528    348.32367    34646.235 
  356000     306.1022    -1553.732    527.02167    355.62492    695.39926    34646.235 
  356100    295.38035   -1523.8013    496.17793     306.2928    974.17781    34646.235 
  356200    304.96514   -1559.8265    556.26591    373.63979    757.71083    34646.235 
  356300    292.30896   -1548.7752    514.62832     285.8991     109.8246    34646.235 
  356400     298.0575   -1574.4795    494.69697     266.2234    -457.0887    34646.235 
  356500    292.14075   -1548.3229    521.39734    292.36078   -879.84663    34646.235 
  356600    303.99115   -1551.6958    506.15764    327.26377   -383.08839    34646.235 
  356700    294.66856   -1545.7759    519.79773    304.72365    243.96809    34646.235 
  356800    300.23208   -1499.8413    532.07798    388.06288    530.47658    34646.235 
  356900    290.33374   -1565.6387    519.18195    264.66936   -400.46362    34646.235 
  357000    297.31298   -1512.7429    517.93193    347.83277    313.79292    34646.235 
  357100    301.66149   -1522.9038    512.47123    351.84877     595.0095    34646.235 
  357200    302.98784   -1463.8599    538.24289    442.65405    597.33401    34646.235 
  357300    295.84257   -1502.4775     558.2788    391.80483    572.52181    34646.235 
  357400    288.56042   -1530.5199    498.97126    271.56919    58.201095    34646.235 
  357500    295.04697   -1508.8729     512.8159     336.3536     546.3212    34646.235 
  357600    301.92522    -1539.867    512.83967    336.44493     196.0385    34646.235 
  357700    300.49198   -1525.3829    538.54769    370.16476   -119.36309    34646.235 
  357800    303.82342   -1537.3668     499.1286    333.80624   -480.09825    34646.235 
  357900    295.71764   -1575.9906    506.17796    265.62671   -239.84692    34646.235 
  358000    296.67571   -1562.4241     502.8043    280.14609   -111.39158    34646.235 
  358100    294.90965   -1548.7563    520.38029    303.41447    68.404892    34646.235 
  358200     296.0099   -1533.0322    532.80919    336.53621    134.59032    34646.235 
  358300    299.52783   -1512.5399    524.59885    364.70487    525.10579    34646.235 
  358400    303.48501   -1506.8692    492.66255    356.30952     527.5996    34646.235 
  358500    288.52926   -1545.4881      500.796    258.28503     110.1677    34646.235 
  358600    302.14651   -1511.7201    522.25183    375.00337    438.00269    34646.235 
  358700    289.13015   -1517.1048    516.81129    305.39717   -586.45554    34646.235 
  358800    293.50875   -1518.1464    503.50765    310.82538    -526.8632    34646.235 
  358900    307.52895   -1507.7735    503.22904    384.23388   -649.80005    34646.235 
  359000    314.14346   -1547.8353    522.45081    393.26451     -663.692    34646.235 
  359100    295.13117   -1510.3044    510.56317    333.04967   -260.81224    34646.235 
  359200    304.83001   -1526.3758    513.42972    363.64407    458.08287    34646.235 
  359300     301.0977    -1505.274    518.80704    373.26841     370.2467    34646.235 
  359400    294.04796   -1531.9438    529.59426    325.54969    438.00179    34646.235 
  359500    291.77062   -1497.4816    534.35118     354.4845    464.96353    34646.235 
  359600    293.72265   -1518.2261    504.78536    312.98935    352.06576    34646.235 
  359700    299.23898   -1530.9571    500.12732    320.51174    568.26256    34646.235 
  359800    294.57875   -1487.2324    518.03524      361.099   -552.25838    34646.235 
  359900     306.5205   -1508.9701    521.54009    396.79425   -447.72405    34646.235 
  360000    299.72151   -1472.3931    537.44605    418.57349   -31.677476    34646.235 
  360100    294.41432   -1515.7266     540.1612    353.98823    136.94722    34646.235 
  360200    294.99453   -1516.6284     501.2236    316.76903   -19.222248    34646.235 
  360300    290.94668   -1461.9893    530.31716    382.22189     20.06661    34646.235 
  360400    305.61746   -1500.9348    470.51286    349.72424   -4.4035237    34646.235 
  360500    304.16309   -1453.1415    520.22796    440.66488   -373.91577    34646.235 
  360600    305.07422    -1487.262    525.11228    415.54325   -1001.8439    34646.235 
  360700    303.70489   -1516.1252    505.68237    361.06635   -535.63759    34646.235 
  360800    296.84374   -1512.4091     502.1824    330.29804   -593.11875    34646.235 
  360900    289.67376   -1455.6869    513.43074     365.8895   -410.48679    34646.235 
  361000    301.41558   -1473.5168     519.3404    406.99447   -208.81746    34646.235 
  361100     294.7371   -1505.6356    522.69916     348.0748    -361.4849    34646.235 
  361200     289.7941    -1513.693      478.554    273.55005   -648.68378    34646.235 
  361300    302.72256   -1480.7265    525.57461    411.92119   -391.91556    34646.235 
  361400    294.94699   -1525.6091    491.26693    297.61699   -465.33074    34646.235 
  361500    293.06401   -1517.7663    532.96369    338.65312    -762.7362    34646.235 
  361600    305.41633   -1488.6797    517.22566    407.78383   -815.16729    34646.235 
  361700    300.04127   -1532.9708    465.84605    287.83984   -936.13799    34646.235 
  361800    301.01271   -1504.9247    481.93546    336.36226   -1254.7374    34646.235 
  361900    298.12988   -1547.9504    483.79496    282.17744   -629.17874    34646.235 
  362000    301.66599   -1565.7774    497.93535    294.45965    14.290598    34646.235 
  362100    299.02626   -1543.1928    503.67879    310.86678   -420.82876    34646.235 
  362200    294.14652   -1492.3496      494.667    330.66166    124.57478    34646.235 
  362300    304.75804   -1480.8228       519.01    414.45234     369.2442    34646.235 
  362400    300.40513   -1468.0583     539.6079    428.15729   -310.51436    34646.235 
  362500    303.55174     -1509.45    537.55207    398.91962   -371.73262    34646.235 
  362600    296.79453   -1470.0637     476.5461    346.78493     124.1162    34646.235 
  362700    301.14126   -1477.6023    499.41465    381.74439    495.97926    34646.235 
  362800    301.60177   -1492.5574     521.0271    390.48133    1010.7312    34646.235 
  362900    297.30519   -1503.5403    511.42767    350.49592   -158.69822    34646.235 
  363000    289.50371   -1447.6028    518.94255    378.71747    692.26216    34646.235 
  363100     301.8924   -1511.4236    502.05547    353.95603    308.25702    34646.235 
  363200    304.90954   -1491.7783    518.48796    403.65901    399.01861    34646.235 
  363300    307.58463   -1511.7709    526.87704    404.13595    649.86811    34646.235 
  363400    288.80831   -1508.9099    504.25545    299.58285    702.03861    34646.235 
  363500    298.34738   -1536.9246    497.74535    308.13581    220.46004    34646.235 
  363600    299.28157   -1528.0784    513.48903    336.94443    228.83649    34646.235 
  363700    302.38863    -1488.947    505.20222    381.82032   -339.89563    34646.235 
  363800    296.00842   -1513.3179    507.99851    331.43305   -503.01696    34646.235 
  363900    301.28702   -1516.4087    515.95233    360.13392   -717.00861    34646.235 
  364000    297.52435   -1521.5553    496.02724    318.07031   -325.87473    34646.235 
  364100    303.17325   -1546.7716    510.08162    332.41839   -490.12262    34646.235 
  364200    306.85889   -1570.7475      511.096    326.10098   -309.64106    34646.235 
  364300     290.8869   -1541.7159    528.10424    300.01245   -859.59963    34646.235 
  364400    307.62484   -1499.6633    505.37801    394.92612   -1050.2154    34646.235 
  364500    316.06161    -1509.676    506.73638    424.37164    177.29413    34646.235 
  364600     286.5742   -1509.0177    523.58396    308.71455    51.053508    34646.235 
  364700    297.15771   -1493.7235    521.48127    369.70034   -281.52746    34646.235 
  364800    288.44061   -1546.2655    512.91931    269.23057   -134.73041    34646.235 
  364900    299.04619   -1550.9088    513.80373    313.36569    693.89779    34646.235 
  365000    292.79036   -1575.0022    532.19199    279.40974   -161.02724    34646.235 
  365100    293.58974   -1525.9987    520.33465    320.16589   -660.61459    34646.235 
  365200    302.58415   -1551.7676    501.03276    315.71318   -26.015937    34646.235 
  365300     303.6095   -1510.1331    503.03903    363.98435    422.29344    34646.235 
  365400    294.04165   -1537.1565    487.08758    277.80176   -147.97561    34646.235 
  365500    299.00707   -1550.8869    510.47486    309.88212    62.174477    34646.235 
  365600    293.64225   -1525.8293    535.23975    335.47749    274.69041    34646.235 
  365700    300.35137   -1591.2249    488.26009    253.40012    206.16065    34646.235 
  365800    295.17704    -1568.495    497.82922    262.33221   -201.22326    34646.235 
  365900    301.23287   -1575.7258    498.27456    282.89449    281.36761    34646.235 
  366000    301.86762   -1519.0686    555.96208    400.10566   -261.75419    34646.235 
  366100    291.76892   -1491.3392    491.14225    317.41024   -250.44241    34646.235 
  366200    306.67441   -1477.6301    533.30281    440.59203    266.70374    34646.235 
  366300    294.36792   -1493.0081    509.97007     346.3061   -424.24217    34646.235 
  366400    289.22536    -1512.005    522.74001    316.85564    208.96472    34646.235 
  366500    300.53009   -1538.9822    510.57834    328.76817   -275.15238    34646.235 
  366600    292.05616   -1520.5143    494.94809    293.33818   -162.75979    34646.235 
  366700    295.71653    -1517.239     543.4002    361.59554    468.59575    34646.235 
  366800    300.86158   -1517.8826    503.34399    344.13035   -371.34921    34646.235 
  366900     305.3621   -1494.1898    521.05567    405.85882   -62.851968    34646.235 
  367000    305.29711   -1475.5253    513.51091    416.68514    39.956268    34646.235 
  367100    289.56128   -1511.7125    519.81694     315.7421    392.04275    34646.235 
  367200    299.03681   -1498.0655    503.23565    355.59864    129.73378    34646.235 
  367300    307.63083   -1500.8421    503.94356    392.33991   -252.96376    34646.235 
  367400     305.9044   -1509.0836    495.71602    368.07447    157.15757    34646.235 
  367500    296.52233   -1518.8659    517.15269    337.36003   -149.48288    34646.235 
  367600    305.98329    -1543.318    521.04761    359.52792   -488.06108    34646.235 
  367700    304.45666   -1476.9037    504.39554    402.39594   -653.93891    34646.235 
  367800    295.05691   -1490.1137    517.35713    359.69901   -308.91401    34646.235 
  367900    305.36957   -1498.3701     497.6971    378.35372   -446.51661    34646.235 
  368000      297.311    -1513.555    504.43647    333.51632   -120.43085    34646.235 
  368100    297.11083     -1534.87    547.46326    354.32412   -582.56006    34646.235 
  368200    306.40169   -1542.0361    490.10035    331.75199   -234.44658    34646.235 
  368300    299.31283   -1490.1747    524.44222    385.94247    -278.7786    34646.235 
  368400    301.57623   -1486.3851    485.37341    360.88461    224.44056    34646.235 
  368500    296.99033   -1471.0503    521.35575    391.49222   -198.09372    34646.235 
  368600    300.15186   -1540.1508    517.31851     332.6317   -564.85594    34646.235 
  368700    296.98463   -1475.8586    539.48412    404.78648    199.19157    34646.235 
  368800    297.68217   -1496.4079    483.64173    331.54481    401.70611    34646.235 
  368900    299.38879   -1510.1969    522.85176    364.67282   -279.69176    34646.235 
  369000    303.26441   -1531.4415    528.26456    366.34302    270.96861    34646.235 
  369100    297.81475   -1500.5006    515.75752    360.16669    280.16353    34646.235 
  369200    299.52924   -1508.4304    521.77269     365.9945    284.77743    34646.235 
  369300    293.18243   -1488.4947    524.80962    360.30543   -65.767165    34646.235 
  369400    304.79392     -1495.47    522.13655    403.09374   -195.24001    34646.235 
  369500    296.01942   -1511.5052    509.13025    334.42718   -681.71497    34646.235 
  369600    296.94194   -1562.9753    492.07252    270.06539   -695.61099    34646.235 
  369700    302.12943   -1553.1465    492.42249    303.67053   -978.12986    34646.235 
  369800    292.89257   -1579.1966     517.6984    261.18334   -179.71568    34646.235 
  369900    291.75264   -1528.9823    520.98431    309.53572   -645.56322    34646.235 
  370000    304.29153   -1537.5442    521.27099    357.88516    44.596597    34646.235 
  370100    298.49423   -1579.4071    485.15945    253.73053   -35.409526    34646.235 
  370200    292.20062   -1542.6681    501.07243    277.96103    -444.1547    34646.235 
  370300    292.33202   -1544.4678    499.90661    275.58894    293.08825    34646.235 
  370400    298.62857   -1513.9782    503.73738    338.34411     315.8193    34646.235 
  370500    307.98297   -1530.3886    489.74936    350.18938    144.65068    34646.235 
  370600    292.08337   -1508.1007      534.029    344.95553    310.24166    34646.235 
  370700    296.21211   -1505.4279    522.15927    354.40366   -146.97248    34646.235 
  370800    300.11016   -1486.6342    511.42253    380.06399    -280.3638    34646.235 
  370900     301.2346   -1446.0851    499.22177    413.49021    332.35657    34646.235 
  371000    305.66542   -1437.3332    504.39651    447.42612    239.35226    34646.235 
  371100    292.64369   -1458.8281    500.30335     363.0329   -606.20893    34646.235 
  371200     314.5141   -1459.9359    488.54885     448.9357   -250.25705    34646.235 
  371300    295.34104   -1467.4206    511.70775    378.02585    198.21624    34646.235 
  371400    287.70378   -1520.7698    482.10426    260.58373   -263.88368    34646.235 
  371500    300.66569    -1512.195    511.11111    356.70048   -428.47121    34646.235 
  371600    301.75145    -1536.056    515.43951    342.07108   -315.11331    34646.235 
  371700    300.75099   -1466.1425    498.54715    390.57422    194.12185    34646.235 
  371800    296.15884   -1539.9369    522.49531    319.99017    14.876546    34646.235 
  371900    300.22809    -1470.773    507.98937    393.02462    263.13981    34646.235 
  372000    304.07073   -1474.6871    511.99118    410.46533    560.47356    34646.235 
  372100    294.33886   -1480.6611    525.15208    373.70387    190.70732    34646.235 
  372200    306.95699   -1470.7934    519.12559    434.52761    -92.89813    34646.235 
  372300    316.59587   -1512.1642    527.69696    445.25666    654.52658    34646.235 
  372400     295.3276   -1488.4522    518.31188    363.53761   -230.17533    34646.235 
  372500    312.54734   -1483.8734    510.55697    438.12456    441.31521    34646.235 
  372600    294.12544   -1525.2784    512.30137    315.27202    -200.6417    34646.235 
  372700    305.12901   -1512.1885    484.60383    350.35573    219.73274    34646.235 
  372800    296.03121   -1477.0293    521.89828    381.72436    6.3978085    34646.235 
  372900    299.12716   -1493.8517     506.3736    363.35838    69.814704    34646.235 
  373000    297.43946   -1508.3303    525.48892    360.37362    321.18031    34646.235 
  373100    304.10797   -1473.5858    506.98182    406.72552    255.49315    34646.235 
  373200    308.19798   -1554.0027    515.35191    353.14889    345.62925    34646.235 
  373300    291.81649   -1540.4226     480.9044    258.30384    15.450515    34646.235 
  373400    301.79128   -1541.1915    541.87732    363.55332    706.57878    34646.235 
  373500    295.80075   -1476.1841    495.53174    355.16227    790.13099    34646.235 
  373600    299.97778   -1498.5635    504.39839    360.51274     545.1683    34646.235 
  373700     301.8955   -1502.7619    504.11127     364.6875    292.73656    34646.235 
  373800     296.8265   -1519.7775    492.94449    313.61382     1147.616    34646.235 
  373900    296.76876   -1469.5926     508.5355    379.12906    660.92619    34646.235 
  374000     304.2696   -1534.7292    503.62349    342.95367    574.08655    34646.235 
  374100    297.24502   -1516.2764    500.88636    326.94678    470.94783    34646.235 
  374200    294.62382   -1507.5186    521.85248    344.83359    224.24872    34646.235 
  374300    295.11006   -1498.2072    493.58565    328.07405   -412.21828    34646.235 
  374400    299.05871   -1516.9197    493.75741    327.36506   -483.93682    34646.235 
  374500    294.42891   -1512.7773    507.71394    324.55622    358.47488    34646.235 
  374600    296.68399   -1540.8516    502.49625      301.448    31.713653    34646.235 
  374700    306.71636   -1548.4067    486.30117    323.00322   -491.99365    34646.235 
  374800    293.77668    -1534.893    504.38896    296.17002   -589.81837    34646.235 
  374900    290.49521   -1544.7617    490.92893     258.0225   -552.83185    34646.235 
  375000    293.97964   -1554.3371    483.20159    256.45521   -165.40092    34646.235 
  375100    307.14098   -1557.0216    489.81477    319.81947    378.25052    34646.235 
  375200    306.25721     -1563.22    507.18593    327.00121    347.00475    34646.235 
  375300    305.48078   -1552.8731    497.13771    323.79354    100.03308    34646.235 
  375400    295.76109   -1554.4963    465.43849     246.5777   -329.37738    34646.235 
  375500    311.36132   -1501.3553    497.66536    402.39513    255.87095    34646.235 
  375600    295.36404   -1514.9948    503.53169    322.37933   -301.31538    34646.235 
  375700    308.96172   -1509.5554    498.78554    384.47876   -531.34759    34646.235 
  375800    308.32588   -1507.8879    501.95856    386.44787   -520.75428    34646.235 
  375900    297.55636   -1516.2684    494.08655    321.56103    147.66158    34646.235 
  376000    292.46992   -1534.2129    496.02218    282.58213    82.396963    34646.235 
  376100    303.56591   -1534.4121    511.19201    347.66152     687.8458    34646.235 
  376200    307.08709   -1499.4331    522.98016    410.32997    128.55514    34646.235 
  376300    298.32508   -1527.7727    478.02558    297.46719    458.52545    34646.235 
  376400    299.73009   -1484.1911    516.89797    386.26613    387.52891    34646.235 
  376500    307.28325   -1460.3953    506.77713    434.05063    426.57392    34646.235 
  376600     302.1473   -1508.5011    520.36772    376.34185    600.20376    34646.235 
  376700    293.55545    -1464.053    530.08126    391.70331   -35.790749    34646.235 
  376800    305.69037   -1482.8084    490.69389    388.36095   -348.65207    34646.235 
  376900    298.14363    -1478.511    489.91697    357.80091   -457.44363    34646.235 
  377000    296.47003   -1453.3058    507.36038    392.89168   -196.01797    34646.235 
  377100     296.5545   -1456.2032    502.51525    385.53058   -685.60383    34646.235 
  377200    301.04191   -1483.4219    504.25524    380.31674   -37.744099    34646.235 
  377300      304.151   -1456.1284    516.99244    434.38779   -372.35063    34646.235 
  377400    295.10875    -1497.408    513.74774    349.02942    -261.4715    34646.235 
  377500      299.582   -1468.3629    504.67152    389.19909    239.88045    34646.235 
  377600    301.23993   -1485.8719    497.94777    372.45346    182.94118    34646.235 
  377700    297.17829   -1475.2351    495.72615    362.52658   -402.99207    34646.235 
  377800    296.47805    -1465.948    510.95771    383.88304    -93.16559    34646.235 
  377900    305.98615   -1508.6005    514.45796    387.66864   -212.89401    34646.235 
  378000    302.03267   -1519.6606    508.44693    352.74394   -26.928501    34646.235 
  378100    299.13526   -1520.9737    515.43028    345.32968    18.453145    34646.235 
  378200    298.58771   -1504.6367    520.35159    364.11524    144.87218    34646.235 
  378300    290.57996   -1541.3778    501.32085    272.18098    889.85332    34646.235 
  378400    302.53626   -1489.6847    492.84922    369.39627   -57.842926    34646.235 
  378500    308.00025   -1545.1429    502.38496    348.14877   -71.553185    34646.235 
  378600    299.45734   -1501.5708    468.39467    319.15144    -399.4324    34646.235 
  378700    300.29287   -1491.1838    535.28937    400.20627    7.3108683    34646.235 
  378800    303.91717   -1548.4277    509.20031     333.2404   -473.15706    34646.235 
  378900     293.0235    -1526.077    472.15231    269.34815   -235.85718    34646.235 
  379000    295.91011   -1515.7576    535.44895    355.99989   -3.0657544    34646.235 
  379100     291.0403   -1484.4457    537.68965     367.5607   -827.73772    34646.235 
  379200    295.39258   -1541.3709    509.48658     302.0871   -468.44599    34646.235 
  379300    306.40374   -1529.5375     509.1662     363.3257   -694.47458    34646.235 
  379400    303.19435   -1539.1103    481.95369    312.04705   -702.88574    34646.235 
  379500    296.06157    -1543.885    517.37294    310.48041    42.277919    34646.235 
  379600    292.82907   -1538.7075    519.01714    302.70439   -17.653919    34646.235 
  379700     293.6325   -1533.7458    488.29751    280.57469   -48.502799    34646.235 
  379800    297.38915   -1570.8675    511.70883    283.82905    208.96984    34646.235 
  379900    300.03647   -1549.2249    488.10796    293.82589    -510.5614    34646.235 
  380000     307.8317   -1544.0741      500.948    347.01946    200.53723    34646.235 
  380100    303.74265   -1526.3024    482.26945    327.64676   -273.07877    34646.235 
  380200    307.89443   -1530.1363    505.64333    365.93582    257.62745    34646.235 
  380300    291.11268   -1500.2669    517.19377    331.57051    426.57628    34646.235 
  380400    303.60587   -1493.2446    531.71356    409.53091     333.4482    34646.235 
  380500     302.6764   -1557.0912    515.51435    325.28776   -496.07664    34646.235 
  380600    288.69041   -1535.6138    510.14135    278.23248   -249.56762    34646.235 
  380700    287.66617    -1469.018      524.923    354.98449    12.031938    34646.235 
  380800    303.49435   -1462.4666     509.4072    417.49894    248.22926    34646.235 
  380900    293.91056   -1521.0632    485.03866    291.25419    483.23566    34646.235 
  381000    300.05338     -1532.18    517.19742    340.03664    157.58548    34646.235 
  381100    296.85581   -1482.6242    517.17941    375.13446   -111.66847    34646.235 
  381200    305.81431   -1462.5307    524.21094    442.71545   -688.91056    34646.235 
  381300    307.64931   -1489.6627    523.02027     422.6795   -888.38027    34646.235 
  381400    301.79973   -1493.4605    513.20804    382.65309   -1022.3798    34646.235 
  381500    300.67167   -1496.3608    507.35448    368.80502    76.988273    34646.235 
  381600    296.87458   -1480.7399    509.76656    369.69072   -283.70736    34646.235 
  381700    302.12247   -1517.1052    484.65006    331.90795   -187.92293    34646.235 
  381800    308.14483   -1502.2315    476.31688    365.64501   -336.21747    34646.235 
  381900    299.85261   -1481.7691    481.43274    353.77622    61.002532    34646.235 
  382000    310.14351   -1483.5379    523.17306    440.22073    29.269562    34646.235 
  382100    299.84722   -1507.8057    497.84608    344.12858    381.04721    34646.235 
  382200    301.49133   -1507.2222    487.21921    341.50985    425.28833    34646.235 
  382300    296.83257   -1550.3235     514.3194    304.47019   -141.63281    34646.235 
  382400    293.16501   -1513.9421     516.7642    326.73401    904.52952    34646.235 
  382500     302.0775   -1503.0183    498.14668    359.28836    934.14537    34646.235 
  382600    306.54092   -1490.1109    519.09433    413.29991    278.07107    34646.235 
  382700    309.66272   -1462.4891    497.84012    433.76534     87.14354    34646.235 
  382800    305.47282   -1470.4121    482.12131    391.20229    75.671492    34646.235 
  382900    310.64941   -1481.9567    510.24213    431.15558    312.86609    34646.235 
  383000    297.45713   -1436.8909    525.46446    431.86832    997.45127    34646.235 
  383100    303.60257   -1448.8294    516.63243    438.85019    1002.1948    34646.235 
  383200     294.4083   -1474.9534    509.04427    363.61739    162.65744    34646.235 
  383300    300.99221   -1471.6731    526.53308    414.11885    369.38271    34646.235 
  383400    302.24079   -1504.4198    485.61817    346.09578   -62.728852    34646.235 
  383500    303.77579   -1516.2013    479.38334    335.01143    -367.3944    34646.235 
  383600    308.35777   -1474.2419    504.77781    423.05717   -699.86645    34646.235 
  383700    292.60856   -1501.7836    481.74924    301.36458   -739.41583    34646.235 
  383800    289.24152   -1536.5842    509.41444    279.02387   -426.48421    34646.235 
  383900    306.71315    -1529.281    497.25274    353.06599   -18.500652    34646.235 
  384000     300.7442   -1453.6543    527.12096    431.60557    230.25196    34646.235 
  384100    298.69816   -1462.8772     500.2856    386.30751   -474.42023    34646.235 
  384200     294.6937   -1489.9494    488.94586    329.81179   -747.13815    34646.235 
  384300    306.55809   -1453.3386     501.6148    432.67023    498.19622    34646.235 
  384400    292.87671   -1489.4851     521.6973    354.82211   -181.42432    34646.235 
  384500    294.86845    -1452.664    507.19545    386.13589    533.70379    34646.235 
  384600    306.99376    -1441.575    504.49906    449.28555    129.46456    34646.235 
  384700    291.60828   -1455.3155    521.66182    383.22811    322.43817    34646.235 
  384800    303.08181   -1522.5329    485.66827    331.83071     52.10311    34646.235 
  384900    309.07567   -1467.6065      513.384    441.54074   -35.141067    34646.235 
  385000    297.28574   -1464.1856    513.26939    391.60454     56.98525    34646.235 
  385100    301.13593    -1473.364    478.92292    365.46686   -320.45672    34646.235 
  385200    293.41081   -1491.5401    513.66724    347.14898   -272.82201    34646.235 
  385300    293.26006   -1481.4334    491.52092    334.42865    262.32473    34646.235 
  385400    315.59203   -1472.5976     491.6268     444.2199   -67.031785    34646.235 
  385500    296.02766    -1514.566     491.8482    314.12154     151.7446    34646.235 
  385600    303.50876   -1501.0979    505.56575    375.09129   -684.81392    34646.235 
  385700    297.39512   -1527.7512    474.01001    289.27353    -99.14605    34646.235 
  385800    299.30747   -1469.2365    483.28865    365.70287   -441.60828    34646.235 
  385900    299.66505   -1512.6356    500.07149    340.70148   -46.631369    34646.235 
  386000    308.14663   -1500.2235      470.733    362.07732    604.04509    34646.235 
  386100    296.63003   -1532.9459    488.98058    295.59429     147.2516    34646.235 
  386200    296.40819   -1556.7017    550.63953    332.49562    -366.0059    34646.235 
  386300    301.95591   -1518.7519     479.3149    324.17394   -147.20237    34646.235 
  386400    293.40697   -1491.3895    519.67874    353.29373   -293.95708    34646.235 
  386500    302.71198   -1500.7687    492.27027    358.52686   -296.50567    34646.235 
  386600    297.71042   -1468.7862    516.07521    391.72761    415.78567    34646.235 
  386700    291.67271   -1507.8355    508.18027    317.51746   -788.12411    34646.235 
  386800    298.55026    -1522.272    493.20167    319.16098   -60.695479    34646.235 
  386900    297.56177   -1545.7007     497.3315    295.39805    182.14055    34646.235 
  387000    302.31784   -1540.9102    481.63683    305.97196    -116.0048    34646.235 
  387100    294.71845   -1537.3005    499.25257    292.87918   -210.00344    34646.235 
  387200    298.41444   -1519.1933    508.43956     336.8642    234.43022    34646.235 
  387300    306.19378   -1525.7402    503.40344    360.41203    565.49402    34646.235 
  387400    302.51738   -1509.0698    519.79821    376.87494    211.81004    34646.235 
  387500    299.67297   -1541.9458    488.92551    300.28102    240.56551    34646.235 
  387600    295.74601   -1546.5958    497.30076    286.27238   -169.97255    34646.235 
  387700    294.36799   -1509.9024    494.94683    314.38883   -200.80157    34646.235 
  387800    307.56402   -1544.1192    479.97206    324.78956   -347.97938    34646.235 
  387900    286.21668   -1493.0054    495.53467    295.06301    371.97217    34646.235 
  388000    297.85901   -1490.9582     522.0284    376.17985    -64.45846    34646.235 
  388100    303.98288   -1514.6138    505.53231    363.68312    555.28007    34646.235 
  388200    297.42164   -1515.3881    487.98836    315.73468    226.97762    34646.235 
  388300    291.77359   -1529.2218    503.34071    291.74727    -96.44853    34646.235 
  388400     291.4842    -1496.233    485.36297    305.45141   -397.63581    34646.235 
  388500    295.65988    -1474.623    507.86249    368.41802   -428.46176    34646.235 
  388600    306.40254    -1491.263    525.19577    417.62431   -147.55481    34646.235 
  388700    292.97659   -1463.7406    507.59829    366.91866    36.343806    34646.235 
  388800    292.74675   -1520.8824    507.31348    308.45412    255.80764    34646.235 
  388900    310.65437   -1547.0966    515.39252     371.1885   -81.165966    34646.235 
  389000    306.36788   -1547.9006    475.41414    311.04865    26.021792    34646.235 
  389100    308.26243   -1539.7383    481.58439    333.93679   -504.14235    34646.235 
  389200    307.02072   -1536.4349    545.38795    395.43633   -629.90684    34646.235 
  389300    314.00948   -1514.3528     491.2289    394.92006   -542.51207    34646.235 
  389400    309.71688   -1523.5644    495.21637    370.31081   -502.14177    34646.235 
  389500    294.71456   -1558.9979    507.14171    279.05329   -842.59703    34646.235 
  389600    299.81647   -1530.5051    505.31183    328.75609    143.15808    34646.235 
  389700    305.05204   -1549.0604    488.76153    317.29399   -440.28187    34646.235 
  389800    292.39117   -1481.5286    520.17963    359.06829   -363.66389    34646.235 
  389900    307.14409   -1517.8322    501.36347     370.5716    40.433299    34646.235 
  390000    301.91519   -1526.3461    485.32073    322.40165   -597.11354    34646.235 
  390100    300.42136   -1489.9141    516.32943    383.09637    113.94411    34646.235 
  390200    301.75875   -1498.7548    499.20746    363.17319    56.136009    34646.235 
  390300    304.90827   -1474.8401    531.90657    434.00999   -308.15066    34646.235 
  390400    296.61331   -1472.7913    530.92544    397.61828    -451.8141    34646.235 
  390500    295.83404   -1498.8434    519.73255    356.85413    320.46164    34646.235 
  390600    310.20265   -1482.6601    500.21077     418.4033    569.04485    34646.235 
  390700    294.82622   -1452.7518    506.26506    384.92698    17.930599    34646.235 
  390800    292.77025   -1478.6761    475.30215    318.75518   -22.418334    34646.235 
  390900    302.30895   -1486.5848    501.95237    380.57282    314.90875    34646.235 
  391000    307.90247   -1518.9997    514.28254    385.74798     -358.182    34646.235 
  391100    299.18599   -1514.2884    503.34406    340.15786   -8.8593724    34646.235 
  391200    303.75625   -1466.7283     510.5962    415.60903    214.13817    34646.235 
  391300    309.45934    -1468.765    532.96408    461.69491     783.9362    34646.235 
  391400    302.03721    -1483.902    496.80234    376.87837    -631.0359    34646.235 
  391500    303.26376    -1449.412    505.26174    425.36682    291.81212    34646.235 
  391600    305.77516    -1491.294    519.19866    408.76301    452.46068    34646.235 
  391700     310.1805   -1477.4538     536.4584    459.75712     170.4939    34646.235 
  391800    297.45275   -1479.4489    479.72474    343.55084    88.722513    34646.235 
  391900    309.39277   -1488.0365    508.19964    417.35835   -458.24185    34646.235 
  392000    292.92372   -1517.7325    501.72321    306.81292   -627.18772    34646.235 
  392100    305.25588   -1494.2092    507.42291    391.72705   -406.77373    34646.235 
  392200    293.08282   -1454.2253    511.83214    381.14752   -819.98578    34646.235 
  392300    305.44232   -1489.7978    528.19877    417.75623   -538.86242    34646.235 
  392400    303.68234    -1450.973    507.61954    428.05387   -335.21683    34646.235 
  392500    298.19941   -1416.6608    504.60305    434.58915    549.40945    34646.235 
  392600    293.32344   -1492.9193    519.54237    351.25041    214.32788    34646.235 
  392700    303.41315   -1476.7676    502.33637    395.76046    652.16556    34646.235 
  392800    289.99883   -1522.0489    519.82158    307.38629   -34.439665    34646.235 
  392900    305.91057   -1511.1094    489.06108    359.42153   -427.19577    34646.235 
  393000    306.70105   -1528.5804    483.25979    339.71902   -892.19359    34646.235 
  393100     303.5166   -1485.7446    493.24261    378.15692   -1150.7501    34646.235 
  393200      309.639   -1484.4677    532.83403     446.6735   -521.80934    34646.235 
  393300     295.3672    -1502.734    505.66059    336.78336     85.80351    34646.235 
  393400    305.22083   -1515.7947    499.87305    362.43342    1066.4808    34646.235 
  393500    307.56589   -1523.1659    502.39995    368.17926    -6.102927    34646.235 
  393600    307.11492   -1480.5612    512.60172    418.94915    547.93383    34646.235 
  393700    305.26575   -1499.2673    503.78132    383.07195    347.97439    34646.235 
  393800    290.86487   -1465.7366    500.46838    348.25633    143.96104    34646.235 
  393900    300.91144   -1471.1458    536.64189    424.39019    525.89079    34646.235 
  394000    295.87267   -1466.3323    532.52549    402.33259    440.98485    34646.235 
  394100    298.60741   -1532.7348    509.88472    325.63923    749.96084    34646.235 
  394200    293.35247   -1517.6331     513.7894    320.91473   -205.39626    34646.235 
  394300    305.62321   -1433.7155    499.56524    446.02187   -78.284674    34646.235 
  394400    295.42564   -1482.1296    532.89759    384.88864    300.14563    34646.235 
  394500    291.79313   -1486.5722    525.68977     356.8341   -196.26405    34646.235 
  394600    294.09012   -1507.9024    516.81012     336.9973   -220.98328    34646.235 
  394700    295.51189   -1520.3237    522.99924    337.18575   -156.41493    34646.235 
  394800    305.22751   -1457.5283    542.24434    463.10123   -320.27496    34646.235 
  394900    294.59251   -1492.3202    521.96136     359.9995   -682.50594    34646.235 
  395000    301.56074   -1528.6983    511.98759    345.11564   -252.94836    34646.235 
  395100    306.90142   -1486.5512    513.46244    412.85575   -603.56085    34646.235 
  395200    295.55222   -1483.3846    508.53873    359.84649   -264.62448    34646.235 
  395300    301.03773   -1504.8949    499.77803    354.34766   -678.15565    34646.235 
  395400    300.05024   -1539.1389     529.7566    345.62275   -471.54026    34646.235 
  395500    298.09685   -1535.8995    500.50231    310.78648   -441.69888    34646.235 
  395600    298.33211   -1533.6928    470.36512    283.91846   -536.14773    34646.235 
  395700    296.17184   -1480.9257    545.15952    401.72424   -328.70851    34646.235 
  395800    291.16952   -1515.3419    533.99181    333.55032   -603.42123    34646.235 
  395900     294.8891   -1553.1327    533.86654    312.43152   -133.13902    34646.235 
  396000    298.50386   -1572.6462    519.13904    294.51455    57.411295    34646.235 
  396100    316.04804   -1527.7445    517.88849    417.39391    245.28654    34646.235 
  396200    304.04207   -1472.3845    528.35511    429.00252   -103.18587    34646.235 
  396300    294.60852    -1560.152    490.37883    260.65749   -296.14479    34646.235 
  396400    300.83523    -1554.155    480.97029    285.36525    125.84895    34646.235 
  396500    299.23833   -1535.1808    513.70183    329.85958    579.10768    34646.235 
  396600    300.65507   -1575.3665    512.15825    294.52813    302.94121    34646.235 
  396700    300.02047   -1554.8112    516.52556    316.58499    275.35686    34646.235 
  396800    297.13532   -1548.5911     513.6179    306.86831     63.37233    34646.235 
  396900    294.51526   -1552.2327    523.12344    300.90022    300.72078    34646.235 
  397000    304.96865   -1542.0463    513.92995    349.09986    584.80541    34646.235 
  397100    301.26572    -1533.635    511.79169    338.65081    718.03318    34646.235 
  397200    296.95127    -1522.564    518.52044    336.96681   -42.408699    34646.235 
  397300    294.38049   -1540.5769    509.28225    298.10624    97.161168    34646.235 
  397400    303.68193   -1560.2757    503.90443    315.03423   -50.598578    34646.235 
  397500    309.32163   -1521.4116     510.2097    385.67205   -212.40527    34646.235 
  397600     294.3743   -1509.6428    473.35477    293.08485   -329.93128    34646.235 
  397700    300.40055   -1549.7592    514.05613    320.88402    -408.3205    34646.235 
  397800     298.4648   -1557.1176    520.38752    311.11526   -34.421958    34646.235 
  397900    293.37032   -1573.5566    485.66573    236.94815    -310.0199    34646.235 
  398000    295.76922   -1567.5945    501.86356    269.94137   -348.16788    34646.235 
  398100    295.11956   -1583.4133    499.99994    249.32509   -1047.7027    34646.235 
  398200    306.50055    -1561.503    494.74711     317.3783   -866.64952    34646.235 
  398300    290.11451   -1524.6063    477.52233    263.05204   -567.34078    34646.235 
  398400    299.04538    -1535.253    535.65927     350.8735   -584.24773    34646.235 
  398500     297.5351   -1568.1467     470.7171    246.21725    403.93682    34646.235 
  398600    309.61816   -1535.7744    518.23514     380.6738    347.47926    34646.235 
  398700     296.6314   -1509.7388    540.69752    370.52449    246.98019    34646.235 
  398800    296.07105    -1520.907    524.02942    340.15769    278.52751    34646.235 
  398900    288.77946   -1543.8882    515.94794    276.16676    149.39994    34646.235 
  399000    306.11316    -1548.784    500.99698    334.59778    61.522972    34646.235 
  399100     296.7754   -1571.9331    513.49919    281.78221    550.72453    34646.235 
  399200    298.12287   -1579.5412    473.71753    240.47753    881.49139    34646.235 
  399300    293.89187   -1561.6672    552.88478    318.41188    719.91474    34646.235 
  399400    299.61666   -1551.5702    536.83369    338.31057    687.65358    34646.235 
  399500    295.15626   -1520.6602      498.211    310.45496   -86.216369    34646.235 
  399600    303.56593   -1534.2275    504.20584    340.86001     259.6113    34646.235 
  399700    302.14599   -1558.3632    518.42027    324.52637     211.3757    34646.235 
  399800    306.85346   -1531.0557    498.08331    352.75548   -286.19928    34646.235 
  399900    306.61592   -1558.7072    493.86188    319.80981   -264.53352    34646.235 
  400000    305.52647   -1550.9571    500.16072    328.93891    359.50916    34646.235 
  400100    291.63774   -1545.5763    500.30341    271.74191    310.19976    34646.235 
  400200    300.31141   -1512.4378    524.07631    367.82297    5.9776131    34646.235 
  400300    295.07704   -1576.2758    510.23871    266.50936      -20.678    34646.235 
  400400    302.34657   -1583.5049    480.20716    262.07738    109.48408    34646.235 
  400500    294.08624   -1560.2729    510.44651    278.24565   -333.03103    34646.235 
  400600    309.22225   -1552.7432    511.46933    355.15136    38.071133    34646.235 
  400700    301.61579   -1579.2854     502.8167    285.60633   -354.64633    34646.235 
  400800    300.35739   -1589.1339    483.46525    250.72343    190.32539    34646.235 
  400900    304.52843   -1591.7025    499.21992    282.74566    172.26034    34646.235 
  401000    301.85565   -1576.6278    492.70756     279.2379    167.43113    34646.235 
  401100    305.04804   -1578.2841    484.38538    283.67608    117.23563    34646.235 
  401200    297.15267   -1565.0263    503.68782     280.5814    424.78163    34646.235 
  401300    292.67563    -1591.625    497.46407    227.54085   -98.937623    34646.235 
  401400    301.66225    -1580.853    479.30924    260.74102   -82.535721    34646.235 
  401500    304.81002     -1526.22    522.53772     372.8176    130.23173    34646.235 
  401600    304.25259   -1530.4779    506.46338    349.96804   -178.43026    34646.235 
  401700    292.61111   -1547.8579    502.55635    276.10895    106.77632    34646.235 
  401800     306.8189   -1578.1417    504.07189    311.50198   -219.45467    34646.235 
  401900    306.30189   -1561.7208    480.64541    302.16163    366.23733    34646.235 
  402000    296.57726   -1574.6688    508.61892    273.27145   -630.03648    34646.235 
  402100    297.27795   -1519.3516    492.82204    315.95599   -624.15703    34646.235 
  402200    303.21001   -1531.4165    492.92488    330.78271   -327.17399    34646.235 
  402300    309.79709    -1527.982    499.84355    370.88263   -262.59226    34646.235 
  402400    305.78392   -1550.2669    491.45616     322.0872   -349.88899    34646.235 
  402500    314.23265   -1553.3491    483.79071    349.49336    111.61194    34646.235 
  402600    310.03147   -1525.5461    493.95764    368.49112    345.16144    34646.235 
  402700    293.29451   -1465.7131    494.08373    352.86732    532.35829    34646.235 
  402800    293.58238   -1474.2318     517.3102    368.87513     672.9318    34646.235 
  402900    292.98289   -1508.9667    539.61432    353.73699    635.95833    34646.235 
  403000    294.00768   -1503.3884    516.34843    340.67737     1225.698    34646.235 
  403100    307.55481   -1506.3789    488.78733    371.30359    208.89313    34646.235 
  403200    301.17346   -1499.0946    504.82155    365.80436    223.42515    34646.235 
  403300    307.26059   -1518.2926    515.54175    384.81562   -162.00397    34646.235 
  403400    297.04614   -1520.0353    481.53494    302.93841   -73.373101    34646.235 
  403500    292.73136   -1469.9453    488.87572    340.88389   -435.55453    34646.235 
  403600    294.61464   -1493.9829    515.70414    352.17951    218.25362    34646.235 
  403700    304.61977   -1507.1696    496.48398    364.95514    163.01036    34646.235 
  403800    300.90901   -1539.1216    499.81964    319.58126     928.7303    34646.235 
  403900    297.87231   -1560.9093    520.93976    305.20016    327.03048    34646.235 
  404000    303.70237   -1532.2471    518.14943    357.40016    758.76742    34646.235 
  404100    299.15518   -1487.1773    513.70746    377.49315    999.38379    34646.235 
  404200    302.58698   -1493.5015    497.81566    370.77491    414.08425    34646.235 
  404300    315.97359   -1533.8213    512.04179    405.13422    648.16541    34646.235 
  404400    296.30155    -1512.054    533.35259    359.37478    333.78437    34646.235 
  404500     287.1689   -1508.9802    531.95144    319.80511    623.04733    34646.235 
  404600    300.11846   -1563.1029    512.64148    304.85167     361.0934    34646.235 
  404700    302.76582   -1518.0092    500.65689    349.91605    734.33236    34646.235 
  404800    306.61921   -1527.8133    515.90217    372.75893   -192.50634    34646.235 
  404900    299.38251   -1554.1532    506.61443    304.45086    419.62191    34646.235 
  405000    288.99356   -1523.7095    512.80696    294.17136     418.7434    34646.235 
  405100    287.67337   -1551.0514    493.84228    241.90288   -46.808674    34646.235 
  405200    298.50156   -1571.4481    485.81533    262.37855    123.04495    34646.235 
  405300    295.44496   -1603.5603    489.82791    220.47551    193.09914    34646.235 
  405400    289.77335   -1544.1346    484.21241    248.67318    74.950592    34646.235 
  405500    296.14113   -1558.1923    499.41888    278.57835   -218.47774    34646.235 
  405600    305.57086   -1541.5314    489.50287    327.90718   -124.68189    34646.235 
  405700    301.83863   -1492.1591    491.04024    361.96246   -198.15953    34646.235 
  405800    294.04255   -1563.4173    497.16753    261.62498    -266.5279    34646.235 
  405900    305.04474   -1527.6225    478.52638    328.46372    287.04252    34646.235 
  406000     301.8943   -1539.6918    498.24184    321.88274   -56.338737    34646.235 
  406100    292.51678   -1538.1061    498.16169    281.04005    147.37601    34646.235 
  406200    304.57587    -1537.151      505.915    344.20649    423.71723    34646.235 
  406300    300.00084   -1473.3343     519.6561    401.10379    157.88578    34646.235 
  406400    293.59853   -1472.0681    517.45129    371.25276   -130.50848    34646.235 
  406500    303.69581   -1467.8258    501.19828     404.8407   -249.66096    34646.235 
  406600    291.45794   -1512.2753    497.48056    301.40811    49.317437    34646.235 
  406700    301.35477    -1544.065    512.91639    329.74761    191.26313    34646.235 
  406800    289.76363   -1504.9768    518.94335    322.51804   -225.36363    34646.235 
  406900     305.6063   -1507.5808    490.60553    363.12052    59.291309    34646.235 
  407000    303.11133   -1503.5671    505.73017    370.99182    -132.4907    34646.235 
  407100    302.13829   -1529.5352    494.44185    329.34121   -227.06827    34646.235 
  407200    300.74559   -1516.9017    478.39833    319.64187    80.942798    34646.235 
  407300    284.92009    -1532.436    485.70716    239.94957   -155.07581    34646.235 
  407400    288.58243   -1530.3189    479.58413     252.4825    246.91173    34646.235 
  407500    292.77824   -1528.5382    514.22918    307.85621    420.30047    34646.235 
  407600    301.45844   -1574.9414    502.43992    288.86285   -105.05542    34646.235 
  407700    289.78935   -1513.6963    495.83478    290.80612    139.93657    34646.235 
  407800    297.77383   -1528.6031    500.99249     317.1143    543.51141    34646.235 
  407900    298.37723   -1485.5131    510.06482     372.0016    126.71037    34646.235 
  408000    302.59037   -1496.0504    517.27504    387.70068    560.19591    34646.235 
  408100    293.60615   -1487.0782    483.32203    322.14777    158.89251    34646.235 
  408200    298.14285   -1531.8913    493.98116    308.48123    561.00385    34646.235 
  408300     304.1681   -1495.1043    486.55642    365.05312     293.3163    34646.235 
  408400    308.89169   -1525.5834    511.87178    381.22078    490.02743    34646.235 
  408500     303.7397   -1521.8786    493.54277    343.33055    619.35984    34646.235 
  408600    300.22428   -1537.4134    499.76771    318.14534    464.97793    34646.235 
  408700    288.07163   -1467.4094    507.09111    340.59219    167.22708    34646.235 
  408800    299.83702   -1506.5267    486.72155      334.237    110.49849    34646.235 
  408900     295.7816   -1491.9266    512.15833    355.95989   -586.22181    34646.235 
  409000    307.31002   -1480.6304    488.37021    395.52945   -814.44089    34646.235 
  409100    295.81568   -1491.6309    511.67113    355.92227    21.810337    34646.235 
  409200    301.22484   -1438.4269    529.98522    451.86779    224.63332    34646.235 
  409300     294.7838   -1457.8603    529.94518    403.30705    209.06112    34646.235 
  409400    312.51507   -1493.0859    520.31789    438.52734     498.3466    34646.235 
  409500    306.44273   -1488.0493    495.32209    391.14588    300.18305    34646.235 
  409600    304.78569   -1456.8194    506.54967    426.12025    271.39046    34646.235 
  409700    294.71312   -1447.0379    502.89517    386.76026   -116.46414    34646.235 
  409800    300.95907   -1491.0968    504.05235    372.06476    166.20794    34646.235 
  409900    303.07255   -1446.7473    528.11197    450.01826    456.45193    34646.235 
  410000    301.25751   -1461.0157    510.61816    410.05947    392.78519    34646.235 
  410100    298.40584   -1464.6938     493.6083    376.49356    451.77336    34646.235 
  410200     296.3351   -1505.5515    505.19249    337.86876     112.8836    34646.235 
  410300    299.07091   -1510.4235    497.49074    337.64971    319.48866    34646.235 
  410400     297.8525   -1483.0162    514.98674    377.05075   -199.63256    34646.235 
  410500    296.23205   -1439.2615    504.11053    402.61137   -550.61501    34646.235 
  410600    304.57429   -1435.0066    501.95149    442.38025   -170.92156    34646.235 
  410700    297.81807   -1459.8932    503.67469    388.70629   -214.78994    34646.235 
  410800    304.83725   -1450.4734    502.82148    428.97092   -357.17991    34646.235 
  410900    298.98681   -1460.3383     506.8383    396.70262   -875.48316    34646.235 
  411000     295.7081   -1483.8909    500.47738    351.98268   -644.83291    34646.235 
  411100    290.42927   -1475.7379    507.44409    343.26364   -109.71971    34646.235 
  411200    290.60728   -1521.2613    505.53524    296.63526   -126.00632    34646.235 
  411300    302.27125   -1483.1119    499.02645    380.94946    176.26139    34646.235 
  411400    302.40985    -1502.501    490.51676    353.67664    262.99301    34646.235 
  411500    295.23352   -1542.0726    527.59354    318.77408   -100.61275    34646.235 
  411600    303.33506    -1521.767    489.79858    337.87061    249.92194    34646.235 
  411700    295.62746   -1530.1713    505.75883    310.61958   -98.667241    34646.235 
  411800    304.77331   -1478.2894    491.93396    389.97863   -655.49859    34646.235 
  411900    314.14652   -1522.3238    483.06154    379.40052    19.696569    34646.235 
  412000    297.15608   -1525.2303    488.61368    305.31863   -454.72044    34646.235 
  412100    307.84931   -1544.9558    511.78555    357.05482    258.17647    34646.235 
  412200    301.30932   -1560.4303    468.75634    269.01705    26.950383    34646.235 
  412300    309.92735   -1518.7949    506.84597    387.66048    387.01844    34646.235 
  412400       296.67    -1474.644    512.82351     377.9197    -150.7408    34646.235 
  412500    305.38555   -1520.3746    486.50089    345.22522    188.00292    34646.235 
  412600    292.07607   -1505.2469    481.10626    294.85365    162.17253    34646.235 
  412700    298.34107   -1499.3938     471.0116    318.90435   -213.55674    34646.235 
  412800    307.70035    -1513.938     483.8717    359.48614    771.34611    34646.235 
  412900    306.03067   -1525.9848    496.82939    352.85687    764.03547    34646.235 
  413000    295.19741   -1461.9546    500.65462    371.79007    1017.7131    34646.235 
  413100    294.91751    -1484.722    498.28194    345.38592    469.16356    34646.235 
  413200    300.49063   -1463.6026    501.70915    395.10031    98.280522    34646.235 
  413300    295.13395   -1493.5316    498.13475    337.40655   -193.48501    34646.235 
  413400     289.0733   -1489.1779    495.82454    312.08062   -151.55572    34646.235 
  413500    294.28985   -1495.0954    474.09988    307.99602   -407.92314    34646.235 
  413600    305.93882   -1454.1253    495.74979    423.22192    86.635557    34646.235 
  413700    289.52455   -1484.3322    487.66074    310.80033   -111.32441    34646.235 
  413800    324.29907   -1467.6876    509.20283    506.02626    454.85035    34646.235 
  413900     293.7312   -1499.4421    480.72181    307.74847    316.32538    34646.235 
  414000    306.85689   -1458.4666    501.37722      428.654    422.57583    34646.235 
  414100    299.89465   -1511.4896    489.56201    332.37479   -87.507086    34646.235 
  414200    302.12623   -1489.3011    473.56166    348.64063    276.16915    34646.235 
  414300    301.70097   -1473.4498    500.70947    389.71925    266.86414    34646.235 
  414400    302.67306   -1455.5387    516.10275    427.41352   -554.88499    34646.235 
  414500    298.40461   -1438.4584    502.15236    411.26745    379.20666    34646.235 
  414600    302.04587   -1450.3042    510.20967    423.92266    34.312772    34646.235 
  414700    299.46569   -1462.2225    497.86384    388.00659   -183.33469    34646.235 
  414800    310.76101   -1410.4638    483.55322    476.46351    48.663884    34646.235 
  414900    300.89815    -1427.544    479.79459    411.08478   -285.41274    34646.235 
  415000    289.41965   -1444.7992    518.53402    380.73294   -338.03964    34646.235 
  415100     307.3324   -1478.7368    506.62799    415.78201   -61.963518    34646.235 
  415200    290.92398   -1468.3836    498.34879    343.75669   -151.92447    34646.235 
  415300    296.99421   -1462.9339    508.27764    386.54791    -393.1541    34646.235 
  415400    292.11555   -1469.5109    497.26434    346.92598   -88.830521    34646.235 
  415500    300.00006   -1481.8014    516.99964    389.97668   -174.35606    34646.235 
  415600    298.85481    -1473.311    487.98848    364.28409    552.42307    34646.235 
  415700    299.21387    -1452.592    503.71361    402.34961    173.66648    34646.235 
  415800    306.46664   -1459.5655    493.07314    417.48866     153.8522    34646.235 
  415900    312.50321   -1492.5312    488.85089     407.5614    219.68035    34646.235 
  416000    306.12943   -1480.1846    475.03475     377.3083    268.97142    34646.235 
  416100     300.6218   -1503.8149    480.85698    334.62822    582.62087    34646.235 
  416200    307.23626   -1515.2283    493.24494    365.47327    376.10622    34646.235 
  416300    310.20481   -1511.1555    509.89208    399.59899    681.78811    34646.235 
  416400     292.9981   -1434.9099    474.00231    362.25049     180.7064    34646.235 
  416500    300.01839   -1463.2517    502.46367    394.07321    129.15645    34646.235 
  416600    300.29284   -1483.8182    491.22128    363.50371   -292.28702    34646.235 
  416700    302.98667   -1513.2871    499.94194    354.92062   -76.839516    34646.235 
  416800     302.4535   -1475.7462    473.70464    363.81645   -82.445922    34646.235 
  416900    306.51656   -1489.2314    485.92899    380.90409   -421.18147    34646.235 
  417000    298.14514   -1504.6953    478.98503     320.6915   -170.97503    34646.235 
  417100    297.98914   -1479.8506     524.5866    390.43328    165.89302    34646.235 
  417200    303.83788    -1489.486     505.0474    387.67111    183.16588    34646.235 
  417300     299.8118   -1509.7006    503.34469    347.57232    539.78609    34646.235 
  417400    307.74479    -1517.507    505.00638    377.25246    304.98169    34646.235 
  417500    302.91352   -1491.2495    507.24832    383.93421    176.44574    34646.235 
  417600    290.84315   -1471.2322    493.91995    336.11425   -512.22984    34646.235 
  417700    294.21463   -1488.8612    480.69372    320.48441   -191.86844    34646.235 
  417800     299.1803   -1473.0504    516.67095    394.69702   -626.30282    34646.235 
  417900    302.13752   -1464.6253    484.54627    384.35203   -743.25785    34646.235 
  418000    300.66709   -1495.9435    480.60765    342.45481   -855.60122    34646.235 
  418100    300.98778   -1507.6281    490.67852    342.28931   -633.57564    34646.235 
  418200    304.32011   -1543.9922    514.59046    344.88574   -422.30729    34646.235 
  418300    291.25532   -1549.6055    492.11053    257.79281    472.04549    34646.235 
  418400    292.12905   -1548.2691    486.02068    256.98512    313.40366    34646.235 
  418500    295.19418   -1545.6139    503.38666    290.84821    563.63544    34646.235 
  418600     306.3893   -1536.5774    486.98872    334.04316    786.34183    34646.235 
  418700    299.17783   -1501.9395    498.85005     347.9759    679.76928    34646.235 
  418800    297.99536   -1515.2098    502.87123    333.38678    248.64067    34646.235 
  418900      298.595   -1520.2024    499.63649    327.86741     115.3803    34646.235 
  419000     309.4449   -1555.3812    497.03686    339.08625    2.8461243    34646.235 
  419100    303.23165   -1588.8996    482.12873    262.60123   -192.44507    34646.235 
  419200     302.7443   -1507.9562     520.3252    379.54023   -617.20209    34646.235 
  419300     313.6544    -1513.236    497.46432    400.66881   -184.77325    34646.235 
  419400    300.48728    -1485.895    487.66774    358.75145   -415.67816    34646.235 
  419500    303.19891   -1504.6563    526.98601    391.55392    30.901567    34646.235 
  419600    316.20011   -1489.0055    488.94074    427.87188    832.41818    34646.235 
  419700    301.78401   -1529.5354    527.39727    360.69651    434.11271    34646.235 
  419800    301.69173   -1519.4244    500.79761    343.79109    210.44571    34646.235 
  419900    303.59589   -1540.9003    476.89787    307.01449    630.56118    34646.235 
  420000    299.46435   -1521.4149    491.42631    322.37061    508.16489    34646.235 
  420100    301.59535   -1493.6394    509.10539    377.44865     798.5508    34646.235 
  420200    294.85598   -1474.9174    481.97555    338.60625    224.13481    34646.235 
  420300    290.89407   -1472.8858    502.76168    343.53235   -289.94438    34646.235 
  420400    297.65682   -1499.2621     514.0653    358.99972   -685.56674    34646.235 
  420500    297.80033    -1478.277    470.82921     337.3968    153.54089    34646.235 
  420600     301.8862   -1525.6768    511.75139    349.37073    104.62533    34646.235 
  420700    303.08312   -1502.2835    506.13375     372.5515   -54.145182    34646.235 
  420800      293.471   -1452.8877    517.53177    389.93776    121.47509    34646.235 
  420900    301.57591    -1470.997    498.83602    389.73392    -311.4124    34646.235 
  421000     290.4953   -1513.5172     504.9246      303.263   -107.41042    34646.235 
  421100    305.98077   -1509.0768    497.76922    370.47925   -668.33793    34646.235 
  421200     308.6763   -1461.9558    496.40289    428.40676   -744.28401    34646.235 
  421300    291.46843   -1466.5101    526.00364    375.74375   -168.17078    34646.235 
  421400    307.15438    -1442.004    512.93608    458.01887   -366.21449    34646.235 
  421500    304.64992    -1484.014    483.41295    375.17585   -432.70502    34646.235 
  421600    304.42058   -1509.8002    525.41383    390.35478   -767.81195    34646.235 
  421700    292.90539   -1526.7885    488.43532    284.38623    365.52046    34646.235 
  421800    303.81717   -1487.7135    495.42249    379.72519   -161.56895    34646.235 
  421900    299.02977   -1490.9431    535.15775    394.61134    188.47375    34646.235 
  422000    292.26703   -1502.2885    494.81972    312.38787    46.568729    34646.235 
  422100    293.26188   -1461.6831    488.30945    350.97563   -253.34026    34646.235 
  422200    294.69949   -1477.2651    484.95771    338.53408   -467.82585    34646.235 
  422300    297.07336   -1437.0254    501.60263     406.1389   -287.86225    34646.235 
  422400    299.44832   -1487.3251     514.1307    379.09239    224.96209    34646.235 
  422500    304.37063   -1471.8251    460.34087    363.03141   -89.755699    34646.235 
  422600    307.49595   -1479.1203    516.56389    426.07297   -539.96468    34646.235 
  422700    301.66346   -1456.5661    498.00684    403.73101    -499.5849    34646.235 
  422800    318.48129   -1471.1615    496.39396    463.47081      225.325    34646.235 
  422900    305.48156   -1462.9386    488.84488    405.43879    60.431046    34646.235 
  423000    296.58596   -1430.9858    511.68493    420.05974   -177.76186    34646.235 
  423100    294.13855   -1473.3693    491.72152    346.66047   -110.62441    34646.235 
  423200    292.92627   -1479.3364    498.61202    342.10937   -393.63839    34646.235 
  423300    306.68644   -1494.3188     505.7511    396.40597   -713.36995    34646.235 
  423400    299.70666   -1470.0891    522.02515    405.38957   -196.66954    34646.235 
  423500    300.32829   -1458.7256    504.64176    402.17688     4.863192    34646.235 
  423600    292.78299   -1432.7741    520.49785    409.91048   -42.943544    34646.235 
  423700    300.11989   -1441.7643    505.48324    419.03852   -132.09323    34646.235 
  423800     294.6951   -1432.9357    527.12789    425.01382    253.38588    34646.235 
  423900    290.06339   -1458.4817    515.64167    367.06508    528.26702    34646.235 
  424000    302.91153   -1438.2577    487.80921    417.47794     1291.235    34646.235 
  424100    298.77867   -1495.7885    546.11571     399.5899     580.6296    34646.235 
  424200    291.82811    -1403.352    476.57121    391.09368    499.04398    34646.235 
  424300    303.02808   -1434.9797    501.53645    435.00946    52.101409    34646.235 
  424400    302.07674   -1445.8458    496.42406    414.73482    46.869878    34646.235 
  424500    300.58055   -1468.0378    508.03282    397.39492    4.2510869    34646.235 
  424600    304.05153   -1465.1064    508.13337    416.10159    20.773797    34646.235 
  424700    296.76867   -1438.2786     515.8706     417.7777    99.819928    34646.235 
  424800    302.99185   -1468.6823    486.95782    386.56471    209.24873    34646.235 
  424900    293.96467     -1419.56     479.2249    387.18793    367.50883    34646.235 
  425000    285.88392   -1435.6013     526.7886    382.21825   -71.540544    34646.235 
  425100    309.53677   -1452.6475     484.1719    429.36992   -379.39095    34646.235 
  425200    302.02735   -1427.7099    484.80859    421.03224    400.61713    34646.235 
  425300    295.52401   -1463.8225    473.70682    344.44925   -40.466287    34646.235 
  425400     296.9592   -1459.7331     517.5875     398.9005     -525.964    34646.235 
  425500    292.80228   -1471.8154    488.39279    338.85124   -25.179343    34646.235 
  425600      303.385   -1480.8184    477.27851    366.52465   -518.60841    34646.235 
  425700    307.46751   -1469.1773    513.46039    432.78401    -880.9048    34646.235 
  425800     296.5093   -1486.9948    475.14551    327.16513   -745.43556    34646.235 
  425900    306.91527   -1500.3084    524.43238    410.13095   -418.83912    34646.235 
  426000    311.52553   -1474.4454    468.11729    400.49845   -583.02537    34646.235 
  426100    296.38216   -1470.3966    463.12145    331.16506   -445.95188    34646.235 
  426200    299.62247   -1483.0158    510.63226    380.68976   -692.11729    34646.235 
  426300    297.56161   -1472.4721    493.29145    364.58594   -133.64419    34646.235 
  426400    296.47229   -1504.5439    481.68457    315.98795   -319.73924    34646.235 
  426500    306.31586    -1470.783    468.39758    380.91473    -114.4024    34646.235 
  426600    303.38712   -1491.1777    484.33669    363.23312   -332.96608    34646.235 
  426700    312.43238   -1492.1842    479.15869    397.89643    -722.4936    34646.235 
  426800    311.88795   -1506.0532    485.78361    388.19364   -43.997363    34646.235 
  426900    296.80201   -1508.7305    496.13192    327.73764   -410.65244    34646.235 
  427000    285.85574   -1497.4723    527.04368    320.47509   -157.99759    34646.235 
  427100    291.70569     -1499.38    512.62958    330.57125   -327.76126    34646.235 
  427200    294.11854   -1503.6889     501.4858     326.0148   -58.796247    34646.235 
  427300    310.71599   -1501.2884    503.53434    405.41671    83.108882    34646.235 
  427400    293.84955   -1512.8031    502.69244    316.89248   -125.56985    34646.235 
  427500    300.04227   -1502.1762    501.26965    354.06252    95.468735    34646.235 
  427600    302.98431   -1513.0039    486.41067     341.6618    235.34222    34646.235 
  427700    300.04373   -1474.3621    510.85331    391.46684   -193.64934    34646.235 
  427800    307.89017   -1458.1715    522.43648    454.67459    -30.18049    34646.235 
  427900    304.88539   -1492.2659    512.79069      397.365   -65.105996    34646.235 
  428000    295.49757   -1495.0758    502.39092    341.76066    347.52047    34646.235 
  428100    297.48749   -1481.8381    490.44226    352.03607   -133.67114    34646.235 
  428200    305.90523   -1457.9275    490.50433    414.02258    27.805093    34646.235 
  428300    302.73555   -1489.7503    502.61444    379.99583    132.85884    34646.235 
  428400    298.39447   -1433.3285    505.79171    419.99091    526.96631    34646.235 
  428500    308.60263   -1517.3877    501.83502    378.07438    278.68681    34646.235 
  428600    304.78984   -1496.6779    490.69755    370.42843    35.522278    34646.235 
  428700    298.07964    -1525.103    491.79748    312.80044   -418.49686    34646.235 
  428800    298.65777    -1492.131    483.78146    340.36725   -377.57448    34646.235 
  428900    296.39275   -1559.4152     503.7741    282.84697   -319.95175    34646.235 
  429000    297.55762   -1533.8499    471.69925    281.59789   -53.471271    34646.235 
  429100    293.06931    -1498.207    488.73622    314.00887     371.6819    34646.235 
  429200    304.20146   -1530.2737    488.95699    332.43496      487.661    34646.235 
  429300    307.03865   -1478.1859    478.28515    386.66348    715.25563    34646.235 
  429400    306.64285   -1524.1151    477.81868    338.48036    355.75524    34646.235 
  429500    310.19348   -1504.2901    500.08815    396.60926    357.36146    34646.235 
  429600    300.20391   -1539.2845    470.48324    286.89777    394.46467    34646.235 
  429700    296.20141   -1509.1059    494.31264    322.83079   -94.155907    34646.235 
  429800    309.06891   -1464.6165    473.28085    404.39706   -313.48423    34646.235 
  429900    301.48869   -1436.1822    487.23034    412.54913   -525.03346    34646.235 
  430000    303.61476   -1468.0437    482.74798    385.80644    -364.1343    34646.235 
  430100    298.53377   -1485.2765    475.91436    338.79462    228.01165    34646.235 
  430200    292.52196   -1482.5011    495.95522    334.46204   -79.040745    34646.235 
  430300    295.63735   -1460.7637    504.39602    378.70905   -162.96528    34646.235 
  430400    303.11914   -1444.6235    493.55083    417.79126   -109.46743    34646.235 
  430500    307.23093   -1458.2138    502.57497    431.79371    293.65084    34646.235 
  430600    284.43853     -1455.08    490.54805    319.97174   -579.42944    34646.235 
  430700     307.5593   -1476.6137    488.37757    400.67924    336.77214    34646.235 
  430800    296.54916   -1448.1842    487.27358    378.28377    28.518423    34646.235 
  430900    302.05904   -1480.2273    495.52567    379.37498   -92.037121    34646.235 
  431000    296.40316   -1465.0677    510.41931    383.88673   -413.17383    34646.235 
  431100    291.29413   -1458.8591    496.28411    352.88816    47.898444    34646.235 
  431200    298.11675     -1486.73    509.31052    368.85409    284.58499    34646.235 
  431300    297.82469   -1472.4484     527.8005    400.30671     356.8665    34646.235 
  431400    285.14692   -1437.5265    497.64774    347.82396   -534.95551    34646.235 
  431500    295.44272   -1422.5325    521.29366    432.95896   -183.49735    34646.235 
  431600    295.86614   -1461.6647    515.74349    390.18878    -174.4526    34646.235 
  431700    303.29733   -1462.1872    492.92148    400.40294   -393.75471    34646.235 
  431800    288.93248   -1465.1629    523.77865    363.41375   -536.75099    34646.235 
  431900    296.89128   -1486.6338    489.57325    343.67893   -436.25828    34646.235 
  432000    295.92731   -1492.4822    503.32775    347.23176   -237.38057    34646.235 
  432100    292.22784   -1510.3044    515.79983    325.17514   -322.05788    34646.235 
  432200    300.69716   -1493.4359    507.12846    371.61908   -259.89376    34646.235 
  432300       306.22   -1479.5011    471.18186    374.54797   -101.60124    34646.235 
  432400    298.87614   -1472.4457    524.42796    401.68515   -843.38402    34646.235 
  432500    295.11389   -1529.1689    493.70799    297.25197    -536.4598    34646.235 
  432600    299.97065   -1498.4699    469.02308    325.19884   -100.65217    34646.235 
  432700    293.21392   -1478.5825     502.6311    348.18126   -7.6219536    34646.235 
  432800    297.00284   -1508.9642    496.79667    329.07567    42.061161    34646.235 
  432900    306.66916   -1553.0013    504.95055    336.84481    139.27618    34646.235 
  433000    302.37135   -1520.3917    510.53635    355.63162   -83.128111    34646.235 
  433100    298.20304   -1536.0107    487.51069     298.1632   -397.66581    34646.235 
  433200    303.27294   -1502.9026    504.65325    371.30913   -881.80115    34646.235 
  433300    298.24007   -1477.2189    489.58886    359.20045   -587.85022    34646.235 
  433400     290.6541   -1499.0311    480.48954    294.03121    -684.9836    34646.235 
  433500     307.9965   -1474.7325    490.44258    406.59982   -380.57758    34646.235 
  433600    298.54115   -1496.0773    487.87346     339.9863   -341.05258    34646.235 
  433700     296.3141   -1510.7744    507.01002    334.36852   -639.40731    34646.235 
  433800    305.60474   -1519.2645    479.69597    340.52024    285.77595    34646.235 
  433900    298.88582   -1517.6915    507.44441    339.49953    161.04559    34646.235 
  434000    311.77966   -1492.5773    474.57554    389.97252    716.72212    34646.235 
  434100      295.128   -1495.2559    533.51724    371.03792    676.69679    34646.235 
  434200    303.19184   -1511.9856    501.65451    358.86118    481.53702    34646.235 
  434300    305.50561   -1503.7735    500.30756    376.17518    727.34883    34646.235 
  434400    309.98936   -1541.7888    516.30988    374.41049    407.26222    34646.235 
  434500    303.63406   -1506.1783    516.78616    381.79723    997.73998    34646.235 
  434600    292.03578   -1491.5884    474.85162    302.07554     194.4073    34646.235 
  434700    310.12631   -1491.4753    490.84009    399.87262    551.53185    34646.235 
  434800    304.84232   -1481.6852    507.70941    402.66996    685.06011    34646.235 
  434900    303.31286   -1509.2871    472.09624    332.54788   -298.53066    34646.235 
  435000    293.11895   -1486.3866    517.96252    355.27973   -240.15174    34646.235 
  435100    292.59092   -1522.4963    480.00434    278.82731   -507.49474    34646.235 
  435200    313.79126   -1494.0054    499.40915    422.46227   -195.67134    34646.235 
  435300     296.8694   -1453.6956    489.13288    376.07784   -373.49219    34646.235 
  435400    293.76347   -1545.6534    483.17325    264.13429   -598.77335    34646.235 
  435500     297.1546   -1543.7023    465.56637    263.79259   -185.49598    34646.235 
  435600    288.77526   -1484.0883    527.25905     347.2588   -164.33717    34646.235 
  435700    296.24159   -1470.0859    510.12028    377.83982   -175.12001    34646.235 
  435800    302.58036   -1503.1612    468.22566    331.49532   -63.554999    34646.235 
  435900     293.4823   -1542.2793    487.10094    270.16628    73.170039    34646.235 
  436000    314.01381   -1525.6481    489.10685    381.52228    304.65212    34646.235 
  436100    298.14728   -1462.7624    504.90272    388.55174    513.78405    34646.235 
  436200    290.16972   -1490.5261    497.24239    317.10162    351.37002    34646.235 
  436300    305.22739   -1484.0275    501.89072    396.24788    664.25966    34646.235 
  436400    303.11417   -1514.4472    499.13643    353.53076    558.67747    34646.235 
  436500    292.72884   -1478.5789    506.77829    350.14159   -108.76335    34646.235 
  436600    301.09482   -1490.7998    505.49237    374.41483    471.16799    34646.235 
  436700    290.23379    -1458.909     475.2674    327.03313   -163.09374    34646.235 
  436800    308.09548   -1482.3762    519.27766     428.2382   -78.092331    34646.235 
  436900    293.04769   -1458.2802     489.5002    354.60205   -9.9806196    34646.235 
  437000    298.34213   -1441.5043    498.74764    404.53472     20.78683    34646.235 
  437100    296.70778   -1482.0238    505.99178    363.87874   -37.667167    34646.235 
  437200    300.89169   -1515.8747    483.49126    326.42156    45.246103    34646.235 
  437300    297.17782   -1508.2714    510.57158    344.33362   -40.242013    34646.235 
  437400    304.61662   -1510.7523      512.228    377.10223   -408.24193    34646.235 
  437500    295.25978   -1506.2407     505.9337    333.06465   -769.43394    34646.235 
  437600     303.7915   -1475.4184    500.73579    397.21775   -873.93847    34646.235 
  437700    300.84711   -1470.3927    478.08802    366.29897   -404.48358    34646.235 
  437800    302.83704   -1493.8366    472.99016    346.74356    19.047078    34646.235 
  437900    291.79782   -1487.2363    476.90503    307.40644   -1.3403104    34646.235 
  438000    291.97232   -1481.9672    501.63192    338.19049     48.94952    34646.235 
  438100    307.57804   -1490.5826    515.10115    413.51859    632.97225    34646.235 
  438200    302.91973   -1527.2839    496.19628    336.87586     693.1739    34646.235 
  438300    288.69339   -1535.5921    499.94817    268.07443    478.35855    34646.235 
  438400    300.65755   -1470.0433    510.58921    398.29357   -685.39553    34646.235 
  438500    302.00353   -1474.9195    515.54805    404.45454    -800.0292    34646.235 
  438600    289.38885   -1476.9843    490.26856    320.14323   -244.08761    34646.235 
  438700    300.11329   -1486.1527    482.25521    351.39232    10.893342    34646.235 
  438800    307.35666   -1462.8682    499.61513    424.74727   -440.51206    34646.235 
  438900    296.26455   -1471.7601    503.28921    369.43827   -605.51374    34646.235 
  439000    304.86689   -1490.9512    481.18293    366.98842   -435.48896    34646.235 
  439100    313.26183   -1473.7176    504.10705    445.05712   -90.285238    34646.235 
  439200    296.49608   -1406.8538    521.75383    453.85469   -415.63413    34646.235 
  439300    296.53225   -1452.8553    495.47144    381.73418   -643.71947    34646.235 
  439400    302.15112   -1471.9264    509.22484    401.79087   -267.74544    34646.235 
  439500    295.42739   -1470.1721    507.55859     371.5151   -838.00547    34646.235 
  439600     295.8794   -1472.7981    518.13146    381.50322   -340.56865    34646.235 
  439700    306.58226   -1453.6448    509.88022     440.7386       664.95    34646.235 
  439800    290.99969   -1518.9808    469.59449    264.74712    1.3220805    34646.235 
  439900    298.91686   -1470.7439    511.96652    391.10943   -830.01664    34646.235 
  440000    294.88373   -1490.8813    472.93737    313.72953   -356.92526    34646.235 
  440100    303.21591   -1497.7529    492.62183    364.16991   -226.76294    34646.235 
  440200    292.14525   -1507.3884    480.99777    292.91608   -982.53085    34646.235 
  440300    300.57841   -1465.9894    496.37868    387.77951   -583.88805    34646.235 
  440400    308.82916   -1472.7258    524.65004    446.57429   -274.61549    34646.235 
  440500    289.75133   -1484.7969    512.88627    336.58528   -204.76145    34646.235 
  440600    300.44993   -1468.3384    505.15733    393.62898   -1129.9532    34646.235 
  440700    307.00889   -1463.9834    505.84183    428.28827   -672.61683    34646.235 
  440800    302.57432   -1472.7402    503.54869    397.21208    -966.3014    34646.235 
  440900    305.77537   -1489.5111    482.20248    373.55072   -634.12005    34646.235 
  441000     299.6504   -1491.7578    504.92809    366.36967     717.5157    34646.235 
  441100    302.37062   -1486.6678    518.10343    396.91936    21.501683    34646.235 
  441200    300.34304    -1499.464    526.72218    383.58547    200.54065    34646.235 
  441300    309.96166   -1529.4893    514.67076    384.94574    129.01569    34646.235 
  441400    295.85038   -1545.0504    509.28067    300.26906    362.32814    34646.235 
  441500    289.93449   -1507.0847    509.72506    311.96339    341.93416    34646.235 
  441600    296.10045   -1506.0806    507.33514    338.42261   -461.23911    34646.235 
  441700    309.04574   -1495.2543    489.23959     389.6134   -719.68923    34646.235 
  441800      296.059   -1511.7993    508.67786    333.85943   -721.22883    34646.235 
  441900    296.95081   -1480.0861    495.17171    356.09389   -1211.8126    34646.235 
  442000     308.5438   -1481.1302    512.53351    424.76462    -477.1077    34646.235 
  442100    310.17257   -1537.8299     480.2925    343.17932   -331.22805    34646.235 
  442200    290.81201   -1503.9504    501.48453    310.81997   -260.98611    34646.235 
  442300    292.65766   -1501.9418    499.52024    319.19916   -86.888915    34646.235 
  442400    305.20248   -1542.8859    486.90551    322.29184   -552.55499    34646.235 
  442500    293.73664   -1500.2279      490.974    317.23938   -1033.7273    34646.235 
  442600    303.36439   -1534.7115    532.57234    367.83235   0.74064635    34646.235 
  442700    305.32376   -1505.7318    497.43169    370.51979   -33.315894    34646.235 
  442800    303.54967   -1502.7057    483.75722    351.85973     668.6203    34646.235 
  442900    298.06822    -1525.864    513.96469    334.15507    821.87885    34646.235 
  443000    293.39255   -1585.1712    499.17372    238.94191    633.71061    34646.235 
  443100    295.01957   -1549.6482    523.72173     306.3605    1122.7043    34646.235 
  443200    296.92393   -1528.8419    510.33576    322.38067    274.14636    34646.235 
  443300    296.05715   -1492.5359    503.23393    347.67059    30.094781    34646.235 
  443400    305.93745   -1565.7763    472.81789    288.63284    187.75994    34646.235 
  443500    287.58753   -1529.8783    507.96506    276.81113   -17.708344    34646.235 
  443600    282.74191   -1488.8034    517.25778    305.29626    -90.60221    34646.235 
  443700    292.70244   -1467.4253    523.96718    378.36476   -503.87138    34646.235 
  443800    294.78674   -1488.8128    479.77391    322.19656   -586.53614    34646.235 
  443900    310.25304   -1511.5752    512.67911    402.18403    117.98962    34646.235 
  444000    287.53572    -1480.751    507.76263    325.50198   -29.671965    34646.235 
  444100    295.64633   -1471.1808    503.62243    367.55894    474.33991    34646.235 
  444200    296.51959   -1490.1769    507.43634     356.3203    188.77293    34646.235 
  444300    289.12373   -1495.2457    515.38923    325.80531    431.09601    34646.235 
  444400    303.64989   -1470.4911    490.75042    391.52015    346.96024    34646.235 
  444500    293.51227   -1470.3919    491.75459    346.84269    143.51576    34646.235 
  444600    297.31414   -1474.8492    530.36204     398.1619   -63.035814    34646.235 
  444700     299.7285   -1487.7298    498.60462    364.42689   -205.95071    34646.235 
  444800    301.69247   -1508.5898    501.72452    355.55598   -352.20872    34646.235 
  444900    300.64442   -1515.6716    513.82492    355.84168   -716.01588    34646.235 
  445000    301.71461   -1490.8886    483.04265     354.6753   -825.48695    34646.235 
  445100    301.30228   -1479.4449    498.43794    379.65223   -864.50665    34646.235 
  445200    304.36335   -1477.0485    489.61707    387.05128   -291.42846    34646.235 
  445300    300.76821   -1512.3132    483.08091    329.01502   -352.04456    34646.235 
  445400     298.9702   -1515.3074    491.48708    326.30732    569.67256    34646.235 
  445500    306.72415   -1527.9773    480.80236    337.96898   -260.21183    34646.235 
  445600    286.70543   -1557.8241    488.75235    225.66912   -688.38432    34646.235 
  445700     287.6977    -1528.732    476.85257    247.34248   -273.24404    34646.235 
  445800    306.55788   -1534.9905     492.7735    342.17611    111.68017    34646.235 
  445900    295.65663   -1522.3366    512.50933    325.33655    363.42169    34646.235 
  446000     305.0983   -1490.0728    517.72103    405.44992    207.76167    34646.235 
  446100    301.75107   -1459.9785      505.277    407.98434    466.91549    34646.235 
  446200    287.34434    -1420.033    505.62281    383.21593    647.38978    34646.235 
  446300    307.81792    -1456.163    493.49252    427.41279     258.7876    34646.235 
  446400    292.23263   -1514.0013    500.87356    306.57354    306.90272    34646.235 
  446500    292.78753   -1534.1247    497.61003    285.69253   -152.50866    34646.235 
  446600    301.78382   -1536.0815    488.92861    315.68082    -883.8365    34646.235 
  446700    304.89738   -1528.6848    476.18233    324.39196   -1197.4525    34646.235 
  446800    294.13291   -1535.3007    485.64262    278.62476   -805.29838    34646.235 
  446900     300.2207   -1477.0977    512.36008    391.03724   -834.52445    34646.235 
  447000    287.74786   -1488.1754    510.09957    321.37257   -714.09348    34646.235 
  447100    316.01185   -1461.0626    499.54743     465.5713   -519.93979    34646.235 
  447200    290.89543   -1471.3392    472.90039    315.22378   -88.648477    34646.235 
  447300    298.63267   -1451.4841    506.41938    403.53865   -262.16535    34646.235 
  447400    299.22648   -1466.3818    525.45333    410.35649     98.91073    34646.235 
  447500    294.73198   -1469.2741    512.04042     373.7545   -297.71923    34646.235 
  447600    289.20849   -1405.3353    540.70996    441.41916   -301.76438    34646.235 
  447700    294.28674   -1422.0626    480.45333    387.36816   -180.05873    34646.235 
  447800    301.51367   -1467.7572    498.94426    392.80087    15.878776    34646.235 
  447900    303.51885   -1469.1344    494.22078    395.75543    -453.0327    34646.235 
  448000    301.20192   -1478.2878    468.50625    350.42444   -28.428144    34646.235 
  448100    295.82214   -1507.4788    510.02834    338.46082   -191.59904    34646.235 
  448200    293.80745   -1453.2606    505.02678    378.57924      97.0126    34646.235 
  448300    299.11175   -1463.4344    507.25399    394.58649   -579.34978    34646.235 
  448400    305.07404   -1488.9862    483.05071    371.75668   -367.07084    34646.235 
  448500    304.53565   -1520.9437    467.78142    322.09855   -172.87585    34646.235 
  448600    306.69846   -1540.2903    498.82709    343.56469   -522.91429    34646.235 
  448700    295.11094   -1488.0899    474.69728    319.30688     318.8278    34646.235 
  448800    292.92472   -1495.6256    514.80652     342.0076    550.57423    34646.235 
  448900    293.65602   -1471.7286    493.28769    347.68828   -31.468177    34646.235 
  449000     296.1746   -1444.2302    489.40901    382.68177   -117.74189    34646.235 
  449100    289.63179   -1478.1145    518.25227    348.09387   -108.82855    34646.235 
  449200    299.12405   -1446.2829    500.70396    405.24349    663.02206    34646.235 
  449300    296.19718   -1483.6954    524.29295    378.20242    486.79606    34646.235 
  449400    301.22955   -1461.9753    497.03385    395.38931    552.73606    34646.235 
  449500    294.65619   -1477.7845    490.45741    343.31884    629.03606    34646.235 
  449600    305.07156   -1482.0329    511.10092    406.74904    50.378524    34646.235 
  449700    297.00245   -1466.2758    497.41857    372.38416    631.63755    34646.235 
  449800    296.57761   -1510.6127    490.28218    318.99236    340.96983    34646.235 
  449900    299.37453   -1520.9111    503.08113    334.12361    100.38838    34646.235 
  450000    299.36718   -1540.0277    513.08626    324.97899    721.56967    34646.235 
  450100    296.68369   -1470.3155    474.60633     344.0928    377.68924    34646.235 
  450200    314.48521   -1500.6408    473.48842    393.03991    603.72707    34646.235 
  450300    311.64501   -1517.5746    534.10688    423.89851     -407.628    34646.235 
  450400    293.71836   -1501.1196    467.86722    293.15835    32.442098    34646.235 
  450500     294.1566   -1512.7748    492.65688    308.27192   -719.88015    34646.235 
  450600    303.57187   -1485.5427    511.45178    396.81754    -553.9159    34646.235 
  450700     306.6127   -1497.3938    494.85678    382.10366     -216.493    34646.235 
  450800     291.5162   -1502.7084    522.16563    335.92316   -637.63559    34646.235 
  450900     299.1769   -1557.3275    510.89257    304.62617   -302.11197    34646.235 
  451000    302.79415   -1505.2874    491.15406      353.263   -366.77929    34646.235 
  451100     298.3711   -1555.9597    485.83412    277.29656   -460.44502    34646.235 
  451200    296.38973   -1542.6093    502.14722    298.01237    496.09655    34646.235 
  451300    301.12877   -1480.6137    517.13593    396.39784    808.36948    34646.235 
  451400    293.60626   -1459.3623    482.04343    348.58564   -129.72626    34646.235 
  451500    311.29182   -1472.8735    485.09207    417.98978    415.18299    34646.235 
  451600     307.2215   -1481.9877    530.87936    436.28158    306.09831    34646.235 
  451700    300.83899   -1551.5065    511.56161    318.62208    488.11275    34646.235 
  451800    291.07765   -1549.9028    486.00573    250.58843   -462.51806    34646.235 
  451900    307.31216   -1536.0645    487.73084    339.46573   -757.11149    34646.235 
  452000    311.59135   -1480.1397    509.58205    436.56628   -630.56368    34646.235 
  452100    298.82066   -1500.4352    510.01018     359.0273   -986.19979    34646.235 
  452200    303.36332   -1549.1425    503.31319    324.13737    -241.3022    34646.235 
  452300    300.54544   -1530.5885    490.05163    316.70444   -135.85312    34646.235 
  452400    292.04384   -1511.0263    497.46403    305.28648     165.9477    34646.235 
  452500    319.93253   -1508.7865    504.56327    440.56877     46.58876    34646.235 
  452600    296.16268   -1492.8952    497.73754    342.29141   -641.69615    34646.235 
  452700    309.06483    -1493.436    513.23096    415.50919   -496.77724    34646.235 
  452800    285.82136   -1515.3586    493.41287    268.80279   -451.87514    34646.235 
  452900    307.78253   -1511.6115    512.55092    390.86299   -385.03875    34646.235 
  453000    298.29916    -1517.005    513.10703    343.19938   -150.61696    34646.235 
  453100     299.0828   -1515.4949    502.85941    338.00067    -117.7865    34646.235 
  453200    287.79823   -1510.0471    480.61058    270.23932    553.78384    34646.235 
  453300     303.8143   -1479.8871     540.8674    432.98356    243.33654    34646.235 
  453400    294.66565   -1528.0772     479.2356    281.84698     207.8249    34646.235 
  453500    299.27363   -1521.4926    510.80377    340.80906    160.71651    34646.235 
  453600      298.747   -1463.6807    524.06702    409.50601    509.86157    34646.235 
  453700    295.49947   -1502.7548    519.74227    351.44157    67.151647    34646.235 
  453800    301.43159   -1502.8767    534.39363    392.76006   -58.504708    34646.235 
  453900    294.07757   -1561.5367     483.3551    249.85131    389.10657    34646.235 
  454000    301.66174   -1547.7356    507.33088    321.87773    289.68944    34646.235 
  454100    300.54603   -1521.9942    486.01302    321.26282    34.773395    34646.235 
  454200    311.32051   -1527.1036    500.08903    378.88618    585.53526    34646.235 
  454300     284.8391   -1549.1813    530.15798    267.28934    686.00204    34646.235 
  454400    288.46951   -1539.5084    500.76539    263.96434    186.90645    34646.235 
  454500    304.40299   -1507.9332     509.9831    376.71165    642.92216    34646.235 
  454600    303.40364   -1540.2931    527.37534    357.23101    39.624839    34646.235 
  454700    299.41382   -1505.7218    530.57531    376.98457   -346.38602    34646.235 
  454800    288.77958   -1540.7352    505.06896    268.44137   -537.03195    34646.235 
  454900    303.59515   -1526.3976    517.31174    361.92777   -57.975485    34646.235 
  455000    300.18326   -1545.0829    485.31977    295.84263     29.48905    34646.235 
  455100    305.35358   -1549.3336    504.86947    334.49042    386.96314    34646.235 
  455200    305.80083   -1511.7765    512.54853    381.74627    194.07804    34646.235 
  455300     304.3051   -1536.9021    483.92081    321.23839    774.47914    34646.235 
  455400    306.96743   -1512.3214    516.20493    390.12605     895.3082    34646.235 
  455500    303.50379   -1551.6419     509.6628    328.62191    250.73897    34646.235 
  455600    294.73215   -1550.0204    484.30423    265.27277   -210.29624    34646.235 
  455700     302.8709   -1545.5094    513.72018    335.95373     948.5255    34646.235 
  455800    302.61127   -1546.3968    474.08255    294.25617     186.6227    34646.235 
  455900    297.30209   -1504.4238    524.36109    362.53189   -10.080563    34646.235 
  456000    297.80424   -1530.3891    506.66854    321.14165    230.17411    34646.235 
  456100     290.1203    -1531.709    499.99833    278.45155   -386.44228    34646.235 
  456200    299.32967   -1494.6572    515.21286    372.30667   -559.50517    34646.235 
  456300    305.93725   -1476.6758    518.22554    423.14003   -839.79616    34646.235 
  456400    312.13485   -1499.8295    484.49895    394.24777   -557.66812    34646.235 
  456500    302.86859   -1490.3399    524.58822    401.98079   -660.65531    34646.235 
  456600    301.35558   -1494.7246    524.25196    390.42723   -73.457323    34646.235 
  456700    288.04152    -1544.015    525.85927    282.61883   -987.86089    34646.235 
  456800    298.65838   -1455.6417    522.69354    415.77139   -722.33502    34646.235 
  456900    296.81357   -1494.2239    504.09722    350.26179    16.794802    34646.235 
  457000    291.77169   -1514.9289    524.30369    326.99449    120.19981    34646.235 
  457100    308.39775   -1475.5225    524.25321    441.43253   -205.67548    34646.235 
  457200    293.33477   -1533.1652    502.97239    294.48568   -281.27894    34646.235 
  457300     286.6413   -1511.5561    526.35151     309.2467   -48.841504    34646.235 
  457400    298.16687   -1509.3023    522.30624    359.50382   -33.969395    34646.235 
  457500    301.38849   -1516.1826    495.74481    340.61072   -251.43365    34646.235 
  457600    309.40321   -1541.2965    505.25975    361.20564    497.52547    34646.235 
  457700    292.59434   -1510.7071    526.14443    336.77211    362.97291    34646.235 
  457800    299.33229   -1505.1227    516.48465     363.1248    165.77903    34646.235 
  457900    300.24524   -1478.9377     504.6791    381.62703    164.82361    34646.235 
  458000    312.05148   -1518.9127    535.34344    425.63256    316.29395    34646.235 
  458100    313.51958   -1488.1441    524.05576    451.74325     555.8687    34646.235 
  458200    299.92553   -1492.8876    510.81905    372.37336    215.73379    34646.235 
  458300    289.55437    -1523.387    504.19292    288.41233   -80.122022    34646.235 
  458400    297.93265   -1490.0933     520.5184    375.86728   -793.72617    34646.235 
  458500    296.78802    -1521.015    497.62423    316.88231   -944.74621    34646.235 
  458600    297.28083   -1499.9759      499.406    341.92873    94.044861    34646.235 
  458700     284.1288   -1547.2471    501.40154     237.2594    -180.5453    34646.235 
  458800    307.44205   -1505.8952    528.07518    410.56591   -268.83863    34646.235 
  458900     305.0116   -1492.4211    500.14976    385.13887   -167.35593    34646.235 
  459000    292.88109   -1533.4729     520.8536    310.01036   -131.17408    34646.235 
  459100    291.22262   -1490.4827    531.06215    355.71963    412.23417    34646.235 
  459200    305.53636    -1523.277    518.93577    375.43878   -22.351179    34646.235 
  459300    292.17106   -1562.4849    522.41466    279.35295   -26.455193    34646.235 
  459400    304.84784    -1519.988    543.82862    400.51129    394.53832    34646.235 
  459500    306.00656   -1492.8897    507.92041    396.93413   -445.86581    34646.235 
  459600    301.66665   -1517.6645     495.5672    340.20732   -559.40632    34646.235 
  459700    294.05793   -1497.1115     510.3781    341.21078   -104.03034    34646.235 
  459800      303.437   -1557.8662    494.13155    306.56474   -204.65859    34646.235 
  459900    300.76532   -1525.5129    520.63503    353.35646    236.96861    34646.235 
  460000    295.82004   -1552.4917     506.2691    289.67916    153.57785    34646.235 
  460100    297.40758   -1575.2382    489.51818    257.35093   -893.37915    34646.235 
  460200    305.18058   -1548.6758    508.93611    338.43363   -771.80464    34646.235 
  460300    299.98006   -1541.6748     500.5693    313.58261   -625.25414    34646.235 
  460400    298.73877   -1528.0748    516.30622    337.31396   -628.81867    34646.235 
  460500    300.81946   -1503.7009    538.75157    393.52949   -435.15903    34646.235 
  460600    292.96195   -1534.4389    501.26773    289.82371      191.445    34646.235 
  460700    301.37271   -1531.6827     503.2154    332.50993    469.22229    34646.235 
  460800    301.18911   -1507.0356    535.26022    388.37276    391.44175    34646.235 
  460900    293.59929   -1503.6633    520.81265    343.02238    376.43135    34646.235 
  461000    306.58743   -1523.9346    501.02312    361.61499   -526.37534    34646.235 
  461100    299.55632   -1511.2861    522.80743     364.2959   -1041.6834    34646.235 
  461200    305.59038   -1527.5119    512.43767    364.94967   -436.96979    34646.235 
  461300     300.3969   -1475.6393    496.77037     377.7016   -369.83741    34646.235 
  461400    295.81898   -1497.8791    545.42934    383.44729   -302.72981    34646.235 
  461500    299.46251   -1471.4303    509.11215    390.03276    216.35543    34646.235 
  461600    299.36732   -1515.6676    508.45629    344.70973   -92.357909    34646.235 
  461700    302.80668   -1489.5534    520.80096    398.70052   -579.97251    34646.235 
  461800    298.62392   -1516.9291    531.98875     363.6235    -384.7977    34646.235 
  461900    307.53601   -1532.7134    521.37368    377.47056   -951.55854    34646.235 
  462000    299.97038   -1516.7582    485.12672    323.01292   -625.67661    34646.235 
  462100     291.8263   -1498.7661    514.97799    334.07824   -687.21393    34646.235 
  462200    308.39892   -1524.6954    514.92404    382.93578   -287.40347    34646.235 
  462300    306.76737   -1543.0041    510.05761    352.39267    466.51302    34646.235 
  462400    290.61984    -1618.014     517.2409    211.64499    -346.1036    34646.235 
  462500     305.7219   -1558.1042    496.95797    319.47159   -356.21124    34646.235 
  462600     301.5708   -1540.5651    515.70147     337.0082   -284.35734    34646.235 
  462700     299.7595   -1536.1759    543.77097    361.28716   -136.25972    34646.235 
  462800    309.15903   -1523.2448    513.97754     386.8724    684.88678    34646.235 
  462900    290.58744   -1542.8445    514.67968    284.10687    661.22793    34646.235 
  463000    297.07336    -1512.315      516.873    346.11974    193.66975    34646.235 
  463100    304.42728    -1497.047    518.14583     395.8703    44.400085    34646.235 
  463200    298.11474   -1521.1319    534.17585    359.30849    -1161.224    34646.235 
  463300    307.88867   -1507.7174    516.13236    398.81775   -941.24723    34646.235 
  463400     295.0434   -1503.4467    482.79338    311.74121    -920.6329    34646.235 
  463500    303.83424   -1506.4115    512.36992    378.05177    -589.8433    34646.235 
  463600    312.93489   -1550.3686    505.30841    368.13103   -500.87058    34646.235 
  463700    295.40751   -1541.1757     535.1531    328.01622    -517.2455    34646.235 
  463800    295.21503   -1517.1801    522.10906    338.09856    -460.3182    34646.235 
  463900    301.07559   -1535.2808    506.76634    331.12104    68.063505    34646.235 
  464000    300.10781   -1549.5931    533.10783    338.77976   -287.41048    34646.235 
  464100    284.54877   -1563.9511    519.14585    240.19628   -639.78624    34646.235 
  464200    292.94842   -1518.1524    521.07763    325.85895   -753.08777    34646.235 
  464300    305.88779   -1484.3255    532.82101    429.86246    -927.0699    34646.235 
  464400    294.52005   -1538.0403    513.75513    305.74596   -512.75901    34646.235 
  464500    303.79514   -1558.2598    526.52283    340.17973   -442.39096    34646.235 
  464600     294.2013   -1516.0142    508.08761    320.66504   -220.79867    34646.235 
  464700    299.46529   -1562.4822    509.39467    299.27588   -255.47179    34646.235 
  464800    299.06459   -1547.6893    545.94857    348.81317   -134.68775    34646.235 
  464900    295.15634   -1593.9532    506.74752    245.69892   -54.151677    34646.235 
  465000    306.14651   -1544.7832    519.85275    357.60493     17.23962    34646.235 
  465100    291.16722   -1543.3441    524.61493    296.16085    222.59543    34646.235 
  465200    299.09389   -1629.6855    509.36212    230.36289    375.86913    34646.235 
  465300     300.9205   -1608.5773    470.26985     220.6276    381.82961    34646.235 
  465400    299.53324   -1588.9099    507.72126    271.48165    66.087025    34646.235 
  465500    304.11551   -1520.1889    496.70027    349.87492     874.5244    34646.235 
  465600     307.3163   -1549.5445    504.21141    342.48494    27.988736    34646.235 
  465700    298.88049   -1605.2824    520.15488    264.59501    418.08409    34646.235 
  465800     308.0437   -1608.9888    497.88818    280.00226    700.26653    34646.235 
  465900    312.15088    -1550.442    499.31724    358.52592    225.68202    34646.235 
  466000    295.31898   -1521.0459    499.00727    311.60043    774.54936    34646.235 
  466100    302.46996   -1554.5895    514.24763    325.59043    209.06342    34646.235 
  466200    300.64964   -1523.1732    491.84307    326.38178   -326.66832    34646.235 
  466300    311.22901   -1556.7246    521.82457    370.58756    408.66016    34646.235 
  466400    292.79608   -1571.1921    541.82643    292.88007    607.32145    34646.235 
  466500    293.62966   -1550.5394    534.51095     309.9817    331.49321    34646.235 
  466600    310.16967   -1587.7506    507.31576    320.26886    282.98125    34646.235 
  466700    301.69615   -1536.7431    539.64641    365.34118    635.76358    34646.235 
  466800    296.65275   -1591.9155    509.65525    257.40194    185.31308    34646.235 
  466900    309.63045   -1560.3042    520.32987    358.29425     334.9081    34646.235 
  467000    308.08426    -1621.671    529.91316    299.52825    31.740377    34646.235 
  467100    303.92227   -1577.8864    479.28258    273.88706    201.24608    34646.235 
  467200    307.49801   -1612.8439    504.05325    279.84796   -81.320541    34646.235 
  467300    301.59217   -1582.0106    495.87737    275.83506   -426.00453    34646.235 
  467400    295.22591   -1584.4287    525.93358    274.72357    -792.4929    34646.235 
  467500      301.368   -1562.4491    503.39665    301.90353   -920.06482    34646.235 
  467600    299.48955   -1589.9604    500.49016    263.00278   -610.85992    34646.235 
  467700    299.72609   -1579.9612    482.54534    256.12534   -161.75208    34646.235 
  467800    298.45177   -1555.7908    539.40175    331.39745   -240.48902    34646.235 
  467900    302.66724   -1571.3168    499.48803    294.99446    340.74893    34646.235 
  468000    295.84255   -1577.0468    484.52825    243.48487   -117.44269    34646.235 
  468100    301.49992   -1587.3575    508.09055    282.28478   -213.09688    34646.235 
  468200    298.44977   -1579.3828    531.40205    299.79671   -9.6340597    34646.235 
  468300    296.55484   -1594.7243    512.79964    257.29535     859.4566    34646.235 
  468400    299.10381   -1612.6111    494.34434    232.46424    1091.7134    34646.235 
  468500    301.03112   -1591.6606    498.01002    265.78411    79.669777    34646.235 
  468600    302.87886   -1555.9132    505.18353     317.0492   -33.612105    34646.235 
  468700    302.63708   -1549.0262    493.29615    310.95699    378.72776    34646.235 
  468800     293.5642   -1554.3979     529.9857     301.3024    100.34879    34646.235 
  468900    301.63998   -1521.5899    505.92892    346.52323    200.48342    34646.235 
  469000    305.24167   -1489.8511    521.40224    410.00028    259.12193    34646.235 
  469100    292.43523   -1548.1556    513.65749    286.11812   -25.437862    34646.235 
  469200     297.5582   -1564.5317    520.59098    299.81043    37.429758    34646.235 
  469300    307.76452   -1532.3825    521.67032    379.12999    307.34933    34646.235 
  469400    292.82429    -1517.513    550.63935    355.49953    182.19829    34646.235 
  469500    301.47302   -1542.1865    528.33949    347.58322    22.767098    34646.235 
  469600    309.45111   -1536.2686    545.98514    407.17524    318.99318    34646.235 
  469700    299.57983   -1501.2023    530.27982    381.95826    481.71359    34646.235 
  469800    299.81532   -1571.4555    523.76747    306.25609   -238.56071    34646.235 
  469900    303.25783   -1492.0589    536.08619    413.51757    194.78881    34646.235 
  470000    287.34866   -1550.0074    511.64441    259.28271   -94.367383    34646.235 
  470100    305.62796    -1546.991    500.38712    333.58974   -1131.6104    34646.235 
  470200    291.54521   -1533.4851    520.05469    303.16652   -734.54596    34646.235 
  470300    302.35954   -1516.4069    518.55808    367.58483    -194.3132    34646.235 
  470400    301.03815   -1527.0063    514.48165    346.94169    131.67645    34646.235 
  470500    293.63107   -1516.6543    517.74751    327.10976     179.0888    34646.235 
  470600    312.10358   -1538.7704     514.8391    385.50576    158.41541    34646.235 
  470700    299.38447   -1517.3393    494.81847    329.47765   -319.89239    34646.235 
  470800    305.78138   -1550.4462    530.81337    361.25367   -233.12227    34646.235 
  470900    295.42232   -1474.9209    492.16956    351.35439    48.709119    34646.235 
  471000    313.23802   -1506.6888    527.80269    435.67396   -110.71307    34646.235 
  471100    300.14416   -1517.5657    537.52744    375.39089   -8.5148534    34646.235 
  471200    294.55511   -1548.1348    525.78953     307.8442     216.4339    34646.235 
  471300    305.39953   -1592.3979    522.64005    309.40422    239.39856    34646.235 
  471400     293.1395   -1537.3921    500.06254    286.46714    508.85553    34646.235 
  471500    297.20236   -1571.0888    504.36997    275.42541    686.84642    34646.235 
  471600    301.49928     -1548.42    496.61448    309.74325     282.3129    34646.235 
  471700    295.62595   -1560.2055    515.70755    290.52739    285.80972    34646.235 
  471800    302.85974   -1522.9498    517.91447    362.65724    305.98479    34646.235 
  471900    292.72772   -1482.3425    516.38116    355.97567   -94.612382    34646.235 
  472000    302.46273   -1483.0743    548.79911     431.6245     -71.5806    34646.235 
  472100    300.69478   -1519.2133    501.86714    340.56954   -147.45762    34646.235 
  472200    292.51828   -1503.3051    509.86512    327.55133   -128.29772    34646.235 
  472300    295.57331   -1477.1876    527.48993    385.08992   -840.70815    34646.235 
  472400    292.43132   -1516.3875     525.1577    329.36873   -214.58124    34646.235 
  472500    300.08554   -1530.0086    487.62637    312.78227    548.40886    34646.235 
  472600    299.79925   -1509.6583    521.89629    366.10957    187.98898    34646.235 
  472700    297.79738   -1499.2123    519.17669     364.7957    570.50501    34646.235 
  472800    305.17987   -1482.3243    519.01472    414.86053    307.10642    34646.235 
  472900    305.78876   -1491.8856    512.67106     401.7053    99.335999    34646.235 
  473000    295.34198   -1435.3407    511.32845    409.73061   -239.43894    34646.235 
  473100     306.8681    -1499.161    517.30742    403.94041   -435.57674    34646.235 
  473200    291.88692    -1506.306     505.2777    317.11181   -714.38837    34646.235 
  473300    289.12311   -1496.5158    518.70966    327.85284   -714.61682    34646.235 
  473400     310.2223    -1516.367    504.07467    388.64895   -625.08708    34646.235 
  473500    288.05603   -1509.1506    489.49781    281.18733   -514.98769    34646.235 
  473600    307.08832   -1533.0547    504.44812    358.18189   -592.10328    34646.235 
  473700    298.33178   -1476.7315    523.60276    394.11588   -541.37253    34646.235 
  473800    295.60551   -1527.8763     493.7346    300.79126    -832.0962    34646.235 
  473900    295.23449    -1487.896    532.53814    377.89959   -664.50306    34646.235 
  474000    296.62034   -1489.3898     521.1933    371.31929   -597.88858    34646.235 
  474100    306.23449   -1498.5999    493.70322    378.03605      100.435    34646.235 
  474200    302.58882   -1480.8167    538.85418    424.50653   -813.66325    34646.235 
  474300    304.18365   -1511.1521    505.21702    367.73614   -478.02716    34646.235 
  474400    302.81125   -1472.4908    502.59096    397.57373   0.85178241    34646.235 
  474500    300.15815   -1464.2797     523.3349    414.54757   -61.947108    34646.235 
  474600    300.33903   -1489.6281    537.12977    403.81089    221.11301    34646.235 
  474700    306.75044   -1498.0503    498.09663    385.30896     1247.551    34646.235 
  474800    300.10957   -1499.5171    530.55224    386.30814    1023.0194    34646.235 
  474900    295.36471   -1508.5864    499.22419    324.48327    547.43978    34646.235 
  475000    287.06125   -1503.2433    519.80348    312.90793    782.98835    34646.235 
  475100    310.67387   -1502.9851    519.26927    419.26472     643.9882    34646.235 
  475200    300.06234   -1471.2785    498.20442    381.98567    202.61515    34646.235 
  475300    305.26424   -1514.8433    500.60549    364.31326    322.10474    34646.235 
  475400    297.71584    -1478.685    503.12891    368.90692   -320.95737    34646.235 
  475500    298.59985   -1488.3453    500.20592    360.31583   -411.86733    34646.235 
  475600    301.31895   -1501.7503    505.09112    364.07528   -6.7166873    34646.235 
  475700    306.86264   -1459.1755     502.8426    429.43649    84.731492    34646.235 
  475800    298.65785     -1440.32    517.77506    426.17222    430.07951    34646.235 
  475900    302.90233   -1513.1273    517.63416    372.39178    587.07296    34646.235 
  476000    308.10525   -1505.4087    519.49906    405.47122    807.10353    34646.235 
  476100    295.84808   -1493.7203    504.28154    346.58959    775.54039    34646.235 
  476200    301.56512   -1488.3193    499.83878    373.36562    127.23713    34646.235 
  476300    295.13112   -1521.6389    522.77245    333.92422   -387.44105    34646.235 
  476400    294.09964   -1527.2885    499.50585    300.34997   -237.28124    34646.235 
  476500    305.35062   -1504.7653    489.51983    363.69568   -38.541618    34646.235 
  476600    298.58408   -1493.6485    514.75227    369.48772   -502.08159    34646.235 
  476700    284.03639   -1476.1554    519.14802    325.68031   -276.71445    34646.235 
  476800    294.47508   -1500.5022    506.08336    335.40918   -22.833209    34646.235 
  476900    304.14451   -1504.0412    529.94575    399.39904    382.21426    34646.235 
  477000    309.89627   -1524.1823    509.43486    384.72155    453.49382    34646.235 
  477100     291.6905   -1493.1633    492.80213    316.89188    22.516075    34646.235 
  477200    308.15527   -1515.2591    495.85232    372.19998    334.96707    34646.235 
  477300    304.38484   -1573.7439    498.89445    299.73031   -182.85284    34646.235 
  477400    306.16453   -1529.1287    493.76744    347.25547    39.817377    34646.235 
  477500    305.18909   -1535.6854    525.66925    368.19561    253.69912    34646.235 
  477600    295.71165    -1532.411    506.72155    309.72281    14.004435    34646.235 
  477700    287.81738   -1536.4691    503.58715     266.8804    31.615383    34646.235 
  477800    297.67277   -1485.3129    526.47779    385.43342    170.86471    34646.235 
  477900    298.20647   -1461.3983    544.67735    429.95778   -99.087831    34646.235 
  478000    305.85377   -1492.8776    521.53154    409.86732   -334.30841    34646.235 
  478100    295.44355   -1501.3571    517.73012    350.57458    157.59708    34646.235 
  478200    301.71074   -1523.6683    526.48974    365.32512    234.78818    34646.235 
  478300     305.2603   -1514.2757    514.38536      378.643    507.07135    34646.235 
  478400    299.44759   -1486.0024    503.61939    369.90055    320.90061    34646.235 
  478500    295.79123   -1506.6903    540.24759     369.3289   -44.071144    34646.235 
  478600    293.64801   -1534.2311     495.6273     287.4892    162.60049    34646.235 
  478700    296.15352   -1496.9553    497.41578    337.86821    106.63303    34646.235 
  478800    304.30118   -1492.8134    539.29157    420.68018   -682.68433    34646.235 
  478900    306.63201   -1472.2151    474.45162    386.96434   -608.40565    34646.235 
  479000    302.16188   -1479.2866    507.71387    392.96835   -1028.2024    34646.235 
  479100    308.85457   -1458.3747    507.02586    443.41594    -630.5524    34646.235 
  479200    295.17829   -1501.5245    495.15865    326.63781   -933.70157    34646.235 
  479300    296.13867   -1486.9736    510.64688    361.01392    113.38433    34646.235 
  479400    306.38837   -1521.9552    520.81228    382.48462   -138.35876    34646.235 
  479500    308.26566   -1500.2551    512.35394     404.2041    424.52993    34646.235 
  479600    306.02333   -1469.0713    539.40573    452.31353    186.94548    34646.235 
  479700    301.17194   -1511.0033     525.4345    374.50178   -250.40113    34646.235 
  479800    291.93173   -1500.1533    496.06767    314.25686   -79.473382    34646.235 
  479900     294.3184   -1501.8687    513.47949    340.73128   -366.96087    34646.235 
  480000    291.70655   -1485.4577    507.32973     339.1976    -321.0125    34646.235 
  480100    307.26199   -1478.1094    500.34729    409.81075    233.43339    34646.235 
  480200    300.49638   -1493.4958     492.1605    355.68449    629.80163    34646.235 
  480300    308.92657   -1471.7447    531.86875    455.21395    510.96308    34646.235 
  480400    301.82793   -1442.8466    503.21281     423.3992    -246.7993    34646.235 
  480500    300.09009   -1489.9357    527.61121    392.86054   -234.44096    34646.235 
  480600    302.19816   -1461.7686    515.77262    418.70892    176.56974    34646.235 
  480700    307.02012   -1499.5393    507.05266    393.99389    606.36737    34646.235 
  480800    295.67451   -1488.6495     503.8102    350.40531   -382.22025    34646.235 
  480900    298.48849   -1486.9182    486.71172    347.74584    -631.3731    34646.235 
  481000    291.40057   -1471.2289    523.62039    368.33525   -362.11892    34646.235 
  481100    302.61186   -1533.3941    494.02121    327.20027    73.073726    34646.235 
  481200    302.54515   -1526.3058    501.57325    341.53933    563.82611    34646.235 
  481300     311.1974   -1509.5414    480.72495    376.52832    471.85796    34646.235 
  481400     292.8442   -1505.2993    517.17175    334.33557    402.91059    34646.235 
  481500    308.00803   -1484.0269    527.89768    434.81266    319.87707    34646.235 
  481600    300.78958   -1561.9724    498.12121    294.49266   -377.52299    34646.235 
  481700    294.11983   -1536.0661    499.28552    291.44314   -977.15702    34646.235 
  481800    295.24415   -1531.5363    494.95839    296.72322   -840.00832    34646.235 
  481900    302.06864   -1486.9442    480.00444    357.18022   -463.78225    34646.235 
  482000    301.57422    -1499.921    496.39415    358.36033   -576.87328    34646.235 
  482100    305.57724   -1498.3315    506.10592    387.73901   -687.57387    34646.235 
  482200    302.83809   -1500.2235    489.92574    357.29702    18.071149    34646.235 
  482300     299.7961   -1486.9825    517.00345    383.87833   -245.64537    34646.235 
  482400    303.11137   -1456.2837    501.61636     414.1616   -78.007401    34646.235 
  482500    294.91877    -1461.421    499.03907    369.44975    165.07687    34646.235 
  482600    300.09845   -1452.3335    503.51502    406.40429    713.18797    34646.235 
  482700    309.10907   -1448.9762    513.32799    460.26582    341.81515    34646.235 
  482800    306.88224   -1444.7802     496.9791    438.05679    344.26326    34646.235 
  482900    283.86466   -1433.9309     523.2523    371.23359   -358.47234    34646.235 
  483000    303.69025   -1490.8429    510.87887    391.47908   -1063.0211    34646.235 
  483100    306.31575   -1494.0027    478.56078    367.85776    -431.5866    34646.235 
  483200    301.99828   -1492.6508    504.84367    375.99513   -1078.1791    34646.235 
  483300    292.54967   -1496.9696    515.33001    339.49346   -738.18853    34646.235 
  483400    305.85755   -1437.9874    497.53337    440.77634   -812.65303    34646.235 
  483500    298.42596   -1460.4474    504.03865    391.26121   -818.04513    34646.235 
  483600    299.85883    -1483.651    487.82114    358.31078   -900.07016    34646.235 
  483700    295.70704   -1467.0654    502.77433    371.10044   -194.62269    34646.235 
  483800    290.96966   -1484.6974    530.49604    359.79648   -227.85181    34646.235 
  483900    307.93177   -1489.7132    483.84416    384.72837   -131.94109    34646.235 
  484000    292.39742   -1475.2123    517.33186    362.56499     336.4926    34646.235 
  484100    303.22125    -1482.181    537.91945    425.06358   -134.22734    34646.235 
  484200    294.49864   -1501.4366    497.89701    326.39482    16.794253    34646.235 
  484300    301.96484   -1493.1805    511.65133    382.12207   -579.69065    34646.235 
  484400    294.59929   -1499.6369    474.51779    305.26984   -513.42453    34646.235 
  484500    301.84089   -1506.3923     506.4605    363.15969    57.919898    34646.235 
  484600    297.26418   -1527.3411     497.2178    312.30011   -272.56207    34646.235 
  484700    303.64156   -1496.4378    496.67237    371.45775   -312.47752    34646.235 
  484800    304.18324   -1498.5889    507.29171    382.37221   -704.09599    34646.235 
  484900     300.7273    -1505.743    509.10683    361.42638   -701.25781    34646.235 
  485000    294.49099   -1512.2535    505.67596    323.32238   -629.66862    34646.235 
  485100    304.27118   -1470.1387    484.45224    388.38003   -536.32002    34646.235 
  485200    292.81969   -1484.8292    522.97503    360.49822   -1487.6428    34646.235 
  485300    294.20492   -1450.9937    492.51388    370.12819   -559.25683    34646.235 
  485400    304.92289   -1484.2302    491.03068    383.81013   -292.84353    34646.235 
  485500    302.43466   -1508.5449    517.21443    374.44249     96.52667    34646.235 
  485600    300.44099   -1511.5848     494.3597    339.54453    50.677532    34646.235 
  485700    296.29334   -1466.2335    521.60833    393.41392    39.786837    34646.235 
  485800      292.661   -1450.5374    496.68955    367.78794   -296.73019    34646.235 
  485900    297.51941   -1472.4096    499.63555      370.802   -171.12485    34646.235 
  486000    291.26235    -1453.782    494.79313    356.33071   -523.77548    34646.235 
  486100     305.8408   -1480.7793    490.58561    390.96109   -215.30339    34646.235 
  486200    307.79616   -1546.1337    507.25396    351.10529   -967.18528    34646.235 
  486300     307.1002   -1499.0703    507.35237    395.12426   -941.64844    34646.235 
  486400    307.33814   -1472.3514    499.98395    415.54919   -146.41374    34646.235 
  486500    307.03503   -1528.7738    534.08849    391.86254   -16.674239    34646.235 
  486600    297.75297   -1521.3688    489.41724    312.67917   -154.77342    34646.235 
  486700    302.39097   -1498.7462    509.78027    376.60963    42.170486    34646.235 
  486800    293.25597   -1522.7313    522.21219    323.80355    190.33264    34646.235 
  486900    301.05231   -1475.3972     510.0848    394.21796    122.25062    34646.235 
  487000    300.25368   -1489.0436    484.34943    351.22955    193.04019    34646.235 
  487100     309.2025   -1490.6875    514.11949    419.76799   -376.67095    34646.235 
  487200    307.04008   -1486.5983    486.86353    386.83585    219.01505    34646.235 
  487300     293.5241   -1505.7487    498.47498     318.2597    368.75745    34646.235 
  487400    304.39543   -1521.1695    484.46148    337.91961    471.10783    34646.235 
  487500    301.35861   -1507.7157    512.87714    366.07499    289.14683    34646.235 
  487600    295.49969   -1498.2081    479.60862    315.85562    193.41846    34646.235 
  487700    312.53988   -1537.9416    498.41765    371.88346     628.8464    34646.235 
  487800    302.17637   -1535.2164    505.76268    335.15274    653.77466    34646.235 
  487900    303.80232   -1532.7439    501.94915    341.15444    283.87217    34646.235 
  488000    286.61208   -1512.5894    498.92086    280.65072   -167.71658    34646.235 
  488100    291.68851   -1513.4661    513.44523    317.22327    612.17754    34646.235 
  488200    305.35286   -1505.7679    517.73486    390.91822    1022.4207    34646.235 
  488300    301.20797   -1541.9191    494.96738    313.28159    329.95301    34646.235 
  488400    295.89202   -1519.2551    490.91925    307.89092   -59.022301    34646.235 
  488500    304.10115    -1530.674    495.64074    338.26536    428.39713    34646.235 
  488600    306.17553   -1533.3742    513.39557    362.68781   -211.31911    34646.235 
  488700    305.59817   -1549.8136    457.35985    287.60538   -721.49015    34646.235 
  488800    300.19027   -1559.7672    510.30104    306.17122   -317.76246    34646.235 
  488900    298.37672    -1570.459    486.83664     263.8252   -236.02763    34646.235 
  489000    283.27353   -1567.3586    514.66047    226.54448    322.37073    34646.235 
  489100    295.48439   -1600.9435    515.39086    248.83334    585.35706    34646.235 
  489200    295.23938    -1589.464    508.22352    252.03907    306.52532    34646.235 
  489300    296.51761   -1546.1829    487.21123    280.08032    441.29655    34646.235 
  489400    302.74639   -1547.7929    484.37545    303.76324    313.58507    34646.235 
  489500    304.14906   -1556.1464    496.88916     314.2578   -46.372289    34646.235 
  489600    305.18592   -1573.4383     468.9689    273.72805   -428.73893    34646.235 
  489700    299.88727   -1535.5842    507.56966    326.25456   -402.50542    34646.235 
  489800    300.08026    -1550.872    492.46211    296.73075    -570.7338    34646.235 
  489900    302.09841   -1550.0076    500.95383    315.20074   -620.88774    34646.235 
  490000    297.40654   -1551.6211    515.68336    307.12852   -10.658999    34646.235 
  490100    308.90268   -1507.0901    489.97518    377.86711    27.439248    34646.235 
  490200    298.39956   -1568.9159    511.37415     290.0089    454.88603    34646.235 
  490300    307.89939   -1561.7481     526.2868    354.98997    978.70218    34646.235 
  490400    295.04042   -1561.6517    489.06727    259.79659   -91.095743    34646.235 
  490500    289.86172    -1534.306    544.66574    319.35419    61.231039    34646.235 
  490600     306.9419   -1565.5427    492.35792    312.94253    435.68054    34646.235 
  490700    315.23713   -1511.0011    480.18213    392.76893    520.82415    34646.235 
  490800    299.26985   -1525.8728    515.72923     341.3373   -253.50966    34646.235 
  490900    302.05982   -1490.2988    505.57285    379.35424   -324.69924    34646.235 
  491000    303.30351   -1483.8285    521.75099    407.61908   -327.66571    34646.235 
  491100     294.7288   -1544.3975    506.08454    292.66084    -130.8576    34646.235 
  491200    300.93085   -1558.6322    505.58014     305.9298   -422.28148    34646.235 
  491300    297.00994   -1494.5261    511.16674    357.91591   -382.54078    34646.235 
  491400    300.51274   -1484.3228    489.99451    362.76534   -74.764253    34646.235 
  491500    306.28936   -1502.5303    524.01138    404.66161    386.30708    34646.235 
  491600     289.4823   -1496.8791     500.7301      311.132    297.07041    34646.235 
  491700    302.80949   -1468.6022    519.40821    418.27165     549.2635    34646.235 
  491800      306.868   -1483.3223    517.33125    419.80253    288.25739    34646.235 
  491900    290.17516   -1496.2703    519.02666    333.16625    490.15843    34646.235 
  492000    301.35281   -1471.5155    525.40864    414.78056    223.12589    34646.235 
  492100    302.47479   -1512.7165    525.26098    378.49863    -324.4481    34646.235 
  492200     293.9286   -1522.8896    513.48922    317.95975    -412.1634    34646.235 
  492300    308.77315   -1508.7323     537.5581    423.22291    120.52825    34646.235 
  492400    287.40949   -1503.1683    533.25583    328.00785   -379.44445    34646.235 
  492500    295.20942   -1499.3214    542.62908     376.4519    345.03251    34646.235 
  492600    294.86906   -1479.5839     515.0728    367.09607    312.20309    34646.235 
  492700    292.27413   -1491.9699    528.76661     356.6854   -164.49838    34646.235 
  492800    307.54322   -1498.2978    509.43494    399.97995   -607.69384    34646.235 
  492900    291.55476   -1513.3435    503.03514     306.3317    -413.6931    34646.235 
  493000    298.05139   -1501.5426    529.01187     373.4476   -207.56722    34646.235 
  493100    302.36459   -1512.7018    528.97328    381.72799   -51.564608    34646.235 
  493200    299.81928   -1521.5854    537.67459    370.05128    420.05557    34646.235 
  493300    307.69346   -1515.8701    533.67544    407.32664    1114.9498    34646.235 
  493400    308.05233   -1564.2189    519.54016     346.4632    1006.9494    34646.235 
  493500    295.88883   -1548.5294    502.48811    290.17115    513.26974    34646.235 
  493600     307.7459   -1461.4095    552.85779    481.20641    14.905606    34646.235 
  493700    299.79603   -1497.6046    510.62921    366.88166   -187.25421    34646.235 
  493800    296.36836   -1499.8534    506.58302    345.10758   -27.568298    34646.235 
  493900    301.07876    -1499.719    525.51002    385.44077   -379.05054    34646.235 
  494000    303.83221    -1531.957    527.53835    367.66549    75.794547    34646.235 
  494100    302.32958   -1524.2768     500.8969    341.91846   -564.56869    34646.235 
  494200    297.25108   -1512.2974     506.3254    336.39223   -549.76125    34646.235 
  494300    297.89649   -1497.8622    501.62521    349.04187   -670.12871    34646.235 
  494400    290.61773   -1484.6627    499.59619    327.34203   -1254.1326    34646.235 
  494500    307.94479   -1525.7236    529.19552    394.12813   -424.88365    34646.235 
  494600    300.51601   -1514.3493    480.44776    323.20687   -242.84089    34646.235 
  494700    300.70265   -1554.8707    515.83995    318.92052    166.93877    34646.235 
  494800    313.01026   -1499.9789    521.79671    435.34939    578.14367    34646.235 
  494900    288.39217   -1506.6772    520.82825    316.50909    257.19838    34646.235 
  495000    289.66578   -1555.9938    507.27444    259.39017    283.81777    34646.235 
  495100    302.45233   -1544.2199    505.84817    327.48096    202.46838    34646.235 
  495200    293.79323    -1560.912    493.39892    259.23581    460.04499    34646.235 
  495300    300.78008    -1559.149    504.91465    304.06659    129.73418    34646.235 
  495400    302.86356   -1519.2924    498.11835    346.53576    65.163872    34646.235 
  495500    302.99607    -1559.946    513.57261    321.93481    227.21794    34646.235 
  495600    301.86455   -1537.2225    517.71317    343.68902     594.6448    34646.235 
  495700    303.13984   -1575.9616     513.9433    306.93912    523.81318    34646.235 
  495800    304.86573   -1552.7703    524.55865    348.53978    104.67105    34646.235 
  495900    315.71446   -1523.3338    535.16191    437.57163    214.05741    34646.235 
  496000    297.35267   -1505.9141    517.59449    354.50336    177.74208    34646.235 
  496100     311.4972   -1588.0293    537.47797    356.14739   -573.84845    34646.235 
  496200    305.01445   -1571.6845    506.96508    312.70362   -723.88749    34646.235 
  496300     289.0134   -1585.8991    496.11841    215.38277    -1004.779    34646.235 
  496400     301.9095    -1567.838    540.44048    336.00387   -420.79526    34646.235 
  496500    293.60781   -1534.0199    498.76791    290.65954   -191.68373    34646.235 
  496600    319.39496   -1520.8413    501.55587    423.07901    33.888216    34646.235 
  496700    296.09606   -1510.8737    511.75801    338.03257    636.96278    34646.235 
  496800    304.34773   -1505.3389    516.96306    386.03636     942.1948    34646.235 
  496900    299.71671     -1509.01    527.33342     371.8223    470.04851    34646.235 
  497000     295.1661   -1509.1203     524.7668     348.5951    137.06034    34646.235 
  497100    290.88607   -1536.4949    531.02545    308.15093    339.07259    34646.235 
  497200    306.38243   -1515.5202    533.84705     401.9276    315.41567    34646.235 
  497300    291.15452   -1502.2855    511.23469    323.78178    452.58319    34646.235 
  497400    300.69595   -1535.4034    560.99705    383.51474    701.28132    34646.235 
  497500     290.9617   -1510.0988    506.26611    310.12915    541.58554    34646.235 
  497600    305.50651   -1502.3636    523.90443    401.18599    272.37087    34646.235 
  497700    291.67081   -1511.3092     526.2447    332.09959    15.996582    34646.235 
  497800    310.92309   -1544.2219    519.90502     379.7892     196.0699    34646.235 
  497900    304.63405   -1507.6679    522.72507    390.76238    75.907815    34646.235 
  498000    309.51371    -1450.212    530.15102    477.68046   -495.37146    34646.235 
  498100    300.14638   -1471.8757    540.64389    424.20746   -101.39561    34646.235 
  498200    298.19321   -1486.3286    531.16156    391.45175   -11.595767    34646.235 
  498300    297.58721   -1476.2909    514.67092    382.26219   -38.482095    34646.235 
  498400    297.84974   -1460.9554    545.05814    429.17044   -657.82104    34646.235 
  498500    290.80395   -1491.0845    531.83785    354.00282   -540.62788    34646.235 
  498600    301.06966   -1493.1071    521.41147    387.91309   -237.99978    34646.235 
  498700    299.28084   -1487.2985    577.18816    441.42017    -185.0532    34646.235 
  498800    295.21945   -1550.4368    520.77804    303.53083    36.962177    34646.235 
  498900    305.54028   -1528.6732    501.62841    352.75293    540.45215    34646.235 
  499000    295.84402   -1503.8166     531.3498     363.5433    644.82717    34646.235 
  499100    308.67484   -1500.3614     517.1557    410.74737    253.18577    34646.235 
  499200    306.12134   -1491.8809    519.24069    409.78146    546.44482    34646.235 
  499300     307.4715   -1524.0229    503.51432     368.0103    702.73444    34646.235 
  499400    287.96257   -1529.8107    539.78728    310.39464    446.55908    34646.235 
  499500    292.50807   -1526.8243    495.57655    289.69736    258.21899    34646.235 
  499600    298.76566   -1529.3647    515.92532     335.7646    255.04561    34646.235 
  499700    302.84485   -1524.4329    515.04595    358.23836    1.4429026    34646.235 
  499800    309.45002   -1483.9937    513.04304    426.50309    70.485585    34646.235 
  499900    301.80714   -1511.0861    522.54144    374.39445    251.70453    34646.235 
  500000    293.53908   -1523.4697    526.63654    328.76796   -266.39677    34646.235 
  500100    287.06377   -1482.4294     507.5298    321.45949    412.65895    34646.235 
  500200    294.52661   -1529.5603     511.9275    312.42792    173.04786    34646.235 
  500300    297.14066   -1518.3165    538.06176    361.61086    171.82772    34646.235 
  500400    296.30049   -1494.2411    490.79663      334.627    233.54365    34646.235 
  500500    297.91535   -1468.0384    527.33973    404.66535    398.55233    34646.235 
  500600    305.47569   -1514.1629    519.68511    385.02821   -258.44752    34646.235 
  500700    297.22829   -1536.1915    508.60206    314.67189    195.99574    34646.235 
  500800    286.17834   -1517.5364    506.83592    281.66005   -783.88554    34646.235 
  500900    290.13118   -1590.5591    523.70104     243.3532   -191.92004    34646.235 
  501000    296.17792   -1552.1987     536.5266    321.84585    -309.4625    34646.235 
  501100    305.67574   -1545.5579    501.10013    335.95162    83.176251    34646.235 
  501200    300.65995   -1543.4681    509.48683    323.77717   -68.668813    34646.235 
  501300    298.92433   -1510.9452    519.67618    358.65156    212.21276    34646.235 
  501400    303.56345   -1505.2232    509.19047    374.83774    485.69209    34646.235 
  501500    299.92946   -1555.7486    501.38544     300.0965   -210.20221    34646.235 
  501600    300.32827   -1582.9483    503.05113    276.36344   -878.95812    34646.235 
  501700     308.3028   -1485.8036    482.15571     388.6251    -823.6878    34646.235 
  501800    302.45042   -1522.2361    514.23584     357.8438   -293.69117    34646.235 
  501900    310.75961    -1516.932    498.45032    384.88609   -201.04255    34646.235 
  502000    288.92731   -1516.2471    522.38478    310.91243    243.17087    34646.235 
  502100    299.32422   -1505.8163     523.4556    369.36574   -129.24063    34646.235 
  502200     307.9813   -1471.2298    514.58854    434.17989   -7.2507375    34646.235 
  502300    300.82962   -1539.9734     492.9041    311.45535   -236.82362    34646.235 
  502400    299.10603   -1550.1946     528.2021    328.74858    -22.05532    34646.235 
  502500    288.31698   -1498.1843      507.343    311.17722     -330.611    34646.235 
  502600    308.87965    -1510.779    489.60638    373.70544    330.19326    34646.235 
  502700     293.0045   -1547.7292    486.93316    262.39095   -167.35034    34646.235 
  502800    305.27626   -1542.1932        491.9    328.31222   -894.97845    34646.235 
  502900    302.33962   -1508.3843     513.1983    370.15772    10.351571    34646.235 
  503000    295.97397   -1527.2655    501.51654      310.848   -403.92062    34646.235 
  503100    290.56977   -1493.3132    535.50009    354.37885   -349.48899    34646.235 
  503200    300.27854   -1500.7128    490.50902    345.83227    591.09665    34646.235 
  503300    296.95769   -1506.1545    510.34032    345.22511    366.95568    34646.235 
  503400    296.08128   -1528.3005    517.25621     326.0372   -158.57284    34646.235 
  503500    297.05497   -1499.1868    490.83695    333.12882    216.56933    34646.235 
  503600    293.88056   -1531.4189     506.8975    302.62188    895.34741    34646.235 
  503700    291.60692   -1525.4049    499.35372    290.82439    949.96244    34646.235 
  503800    308.86154   -1533.0037    522.35387    384.14637    1632.1043    34646.235 
  503900    295.84283   -1548.5164    523.81157    311.29985    931.83086    34646.235 
  504000    300.90703   -1570.3272    502.10646    290.65347    513.00651    34646.235 
  504100    307.57437   -1524.6565    505.82361     370.1506   -340.76724    34646.235 
  504200    296.91048    -1524.445    513.36056    329.74164   -232.05288    34646.235 
  504300    303.61034    -1494.435    507.99923    384.64647   -17.375338    34646.235 
  504400    308.44553   -1536.7441    509.89878    366.07219   -531.65698    34646.235 
  504500    298.87379   -1487.1766    542.07684    404.59249    186.23991    34646.235 
  504600    310.63188   -1534.2459    520.00883    388.55388    267.93459    34646.235 
  504700    299.91509   -1499.6736    526.92534    381.64642    483.66915    34646.235 
  504800     299.9332   -1521.0902    521.77207    355.15837    379.59823    34646.235 
  504900    308.66871   -1545.3604    512.80776    361.37277     106.0167    34646.235 
  505000    296.75688   -1507.4755    547.49868    380.15568    479.76015    34646.235 
  505100     306.6682   -1556.5916    510.64976    338.94944    787.80673    34646.235 
  505200    315.78726   -1524.1611     546.3017    448.21287    426.07823    34646.235 
  505300    297.81034   -1601.4322    509.40595    252.86357    668.53592    34646.235 
  505400     292.2951   -1557.2507    548.70983     311.4425    752.32484    34646.235 
  505500    314.30264   -1561.4561    519.04095    376.95272    1313.6486    34646.235 
  505600    293.61327   -1524.1285    509.05634    310.86396     33.83087    34646.235 
  505700    302.48218    -1569.676    507.61116    303.92269    800.83599    34646.235 
  505800    315.58093   -1568.8123    524.91275    381.24093    710.17852    34646.235 
  505900    305.90655    -1547.248    518.67496    352.87871   -89.765973    34646.235 
  506000    297.56896   -1569.0683    497.92494    272.65643    334.07302    34646.235 
  506100    303.17766   -1559.6417    491.58174    301.06832   -379.02517    34646.235 
  506200    302.36161   -1524.0423    520.08225    361.48301   -588.10881    34646.235 
  506300    292.80768   -1505.4746    511.19492    328.01845   -858.64695    34646.235 
  506400    301.70014   -1509.8314    538.53828    391.16275    -330.8751    34646.235 
  506500    293.39707    -1527.248     505.3891    303.10094    742.58753    34646.235 
  506600    303.10579   -1536.3643    539.59975    372.03915    390.50399    34646.235 
  506700    302.54338   -1524.3001    531.36725    373.33109    96.599265    34646.235 
  506800    302.95685   -1570.5628    503.40113    300.96941    114.37616    34646.235 
  506900    310.94016   -1530.2241    513.93072    387.88975    246.10259    34646.235 
  507000    301.00441   -1536.1842     517.5999    340.72974    577.33974    34646.235 
  507100     288.5538   -1531.5206    509.40809    280.97541    337.41886    34646.235 
  507200    298.96708    -1556.403    511.05752    304.76816    774.44059    34646.235 
  507300    294.01874   -1535.0148    525.39946     318.1519    444.86396    34646.235 
  507400    302.33009   -1499.4664    542.56143    408.39572    72.651631    34646.235 
  507500    295.11664   -1538.6038    495.31826    289.43971   -97.263652    34646.235 
  507600      300.368   -1519.9592    506.39904    342.87986    40.842475    34646.235 
  507700    304.93859   -1472.3265    491.50464    396.25866   -382.86678    34646.235 
  507800    294.79229   -1474.1149    568.29532    425.44091    285.32414    34646.235 
  507900    301.76277   -1478.3686    509.70261    394.07273    -13.78797    34646.235 
  508000    307.81986   -1469.0348    532.10364    453.16091   -390.45402    34646.235 
  508100    300.52419    -1481.457    533.48711    409.17548   -336.10307    34646.235 
  508200     298.7034   -1504.1493    523.42871     368.2022   -722.26203    34646.235 
  508300    303.54832   -1488.7304     530.0183    412.09003   -658.89502    34646.235 
  508400    296.50942    -1504.553    544.02147    378.48337   -734.96634    34646.235 
  508500    296.08594   -1520.1331    524.40866    341.37817   -399.08149    34646.235 
  508600    313.91208   -1492.3511    529.60164    454.85464   -84.211403    34646.235 
  508700    301.29331   -1502.7298    545.59148    403.48032    795.32959    34646.235 
  508800    291.29255   -1489.2931    544.52033     370.6832    1081.3814    34646.235 
  508900    314.95094   -1542.1275    520.20098    400.36903    906.53939    34646.235 
  509000    301.38604   -1517.4592    492.81733    336.39556     149.8713    34646.235 
  509100    307.16644   -1504.9546    532.49215    414.67889    -49.99572    34646.235 
  509200    299.43572   -1507.1154    493.52582    338.64039    349.86895    34646.235 
  509300    299.22822   -1529.4509    501.19321    323.03522     589.1001    34646.235 
  509400    311.87729   -1540.5743    528.09551     395.9364     278.6571    34646.235 
  509500    294.06548   -1564.6071    483.59801    246.96924    373.04425    34646.235 
  509600    293.59099   -1546.5806    511.88002    291.13496    227.19704    34646.235 
  509700    304.63272   -1587.1422    528.67373    317.23075    619.84702    34646.235 
  509800    290.93483   -1598.2809    521.54129    237.10093    254.94405    34646.235 
  509900    298.63596   -1580.2744    496.82019    265.16399    232.54107    34646.235 
  510000    299.36586   -1541.6021    512.31816    322.63048    834.12169    34646.235 
  510100    299.69682   -1579.2564    514.43882    288.59149    160.28062    34646.235 
  510200    301.50421   -1542.3064    516.89811    336.16275    630.80362    34646.235 
  510300    293.69448   -1572.4579     513.2873    267.13229    471.93741    34646.235 
  510400    291.70142   -1560.6779    539.57343    296.19787    981.66031    34646.235 
  510500     280.2204   -1512.4731    533.24891     286.2307    876.69148    34646.235 
  510600    307.59862   -1522.7184    537.32768    403.70223    920.64361    34646.235 
  510700    297.81564   -1527.7488    535.79455    352.95951    66.998118    34646.235 
  510800    302.07404   -1523.1522    528.77509    369.76729    24.967137    34646.235 
  510900    304.86839   -1499.8082    519.45007    396.40536    385.22103    34646.235 
  511000    298.50073   -1503.5935    519.08105    363.49515    340.68817    34646.235 
  511100     305.0414     -1512.99      522.131    386.68572   -213.02748    34646.235 
  511200    312.48823   -1501.8704    492.37887    401.68257    369.49881    34646.235 
  511300    294.26913   -1553.5569    517.48499    292.82608   -488.01081    34646.235 
  511400    295.95736   -1571.4697    521.10564    286.15786   -133.09972    34646.235 
  511500    302.77909   -1584.1485    513.96906    297.14892   -543.92541    34646.235 
  511600    301.16976   -1550.8109    506.22582    315.47567    380.91696    34646.235 
  511700    306.50644   -1562.2158    515.67584    337.62084   -151.49365    34646.235 
  511800    299.12825   -1544.1447    503.28114    309.97783   -749.11473    34646.235 
  511900    301.32107   -1560.2264    511.83808    312.35572   -65.512269    34646.235 
  512000    317.81032   -1553.2483    514.45322    396.41321   -109.08607    34646.235 
  512100    290.05931   -1517.7315    529.50508    321.66028   -1028.6451    34646.235 
  512200    306.35034   -1510.3155    489.76277     362.9031   -463.28271    34646.235 
  512300     295.8672   -1489.3783    528.47172    375.20814   -263.68367    34646.235 
  512400    308.23582   -1525.6072    513.43592    379.79925   -385.04919    34646.235 
  512500    306.68741   -1501.2019    510.83395    394.61004    394.68237    34646.235 
  512600    297.61165   -1573.9838    523.82654    293.83531    51.401312    34646.235 
  512700    305.88904    -1552.179    509.42007    338.61374     195.5614    34646.235 
  512800    299.55663   -1537.0626    506.05818    321.77149   -3.0962586    34646.235 
  512900    288.71549   -1546.8914    492.09986    249.02662   -330.57416    34646.235 
  513000    295.04385   -1568.3946    532.82643    296.82835   -791.57926    34646.235 
  513100    311.37723   -1574.2245    466.21617    298.14858   -733.32293    34646.235 
  513200    303.21846   -1528.0959    519.79403     361.0106   -440.71329    34646.235 
  513300    292.56824   -1539.9456    488.67762    269.94896   -499.54665    34646.235 
  513400    308.96945   -1512.1655    528.65789    411.77599   -48.688579    34646.235 
  513500    304.05819   -1498.2735    510.99077    385.82194    -769.6885    34646.235 
  513600    304.65323   -1525.6818    519.18693    369.29699    8.4546519    34646.235 
  513700     298.0093   -1506.8354    524.00951    362.96245    492.62436    34646.235 
  513800    307.50518   -1499.7264    515.79966    404.74422   -67.237068    34646.235 
  513900    292.29212   -1461.6946    518.78435    377.05971   -56.134557    34646.235 
  514000    301.92924   -1461.2467    509.87357    412.11732    7.0652379    34646.235 
  514100    302.73933   -1482.4797    513.03558    397.70474    408.39622    34646.235 
  514200    299.48527   -1521.3826    504.06944    335.14059   -143.75509    34646.235 
  514300    303.95392   -1483.6283    508.02671    397.03223   -34.029173    34646.235 
  514400     309.5395   -1450.5394    500.42932    447.74775   -325.72859    34646.235 
  514500    295.93461   -1506.8192    530.09429    359.69424     283.4202    34646.235 
  514600     291.8979   -1513.3803    528.15383    332.96317   -59.708888    34646.235 
  514700    291.93523   -1509.8627    517.59547    326.09103   -204.70985    34646.235 
  514800    298.33373   -1511.0381    514.91681    351.13214    191.54298    34646.235 
  514900    294.36481   -1499.0641     524.2342    354.50017    208.72281    34646.235 
  515000    306.53226   -1490.9972    501.82192    395.10208    253.39456    34646.235 
  515100    303.27241   -1494.8062    545.94293    420.69289    502.00772    34646.235 
  515200    311.94069   -1492.2406    546.94326    463.40416    625.90672    34646.235 
  515300    299.98247    -1523.085    496.91647    328.53043    988.96929    34646.235 
  515400    298.68998   -1514.4886    532.21622    366.58981    406.63204    34646.235 
  515500    297.74392   -1507.2279    529.31612    366.67809    586.14636    34646.235 
  515600    291.29214   -1512.9317    523.26111    325.78352   -134.82702    34646.235 
  515700    296.61338   -1505.8217    548.26442    381.92714   -192.37987    34646.235 
  515800    307.30599   -1504.2317    522.04665    405.58644   -183.18703    34646.235 
  515900    298.04134   -1477.8333    510.40642    378.50607   -156.14127    34646.235 
  516000    293.32814   -1517.9198    545.02354    351.75222   -42.207894    34646.235 
  516100    295.71706   -1494.6895    510.04889    350.79606    284.30325    34646.235 
  516200    295.94254   -1495.5331    532.73315    373.65501   -204.84364    34646.235 
  516300    283.88576    -1510.473    539.26448    310.79892     88.26558    34646.235 
  516400    298.61924   -1499.6929    513.43613    362.28601   -189.86385    34646.235 
  516500    299.69318   -1532.2827    518.47485    339.58468    68.139895    34646.235 
  516600    302.84231    -1510.989    531.72648    388.35128    418.82198    34646.235 
  516700    306.84783   -1537.3098    491.92363    340.31628    538.53837    34646.235 
  516800    292.60666   -1499.5804    484.90739    306.71735   -315.71904    34646.235 
  516900    309.61398   -1525.1744    524.13873    397.15853    172.17675    34646.235 
  517000     309.9138   -1503.1327     504.1664    400.58184   -176.01073    34646.235 
  517100     298.8919   -1492.8097    515.52869    372.49301    435.23236    34646.235 
  517200     354.0178   -1521.4601    538.32687    615.58539    31.944285    34646.235 
  517300    300.30515   -1477.2585    519.65638    398.55404    799.23406    34646.235 
  517400    300.31961   -1506.6927    522.60638    372.13524    117.67235    34646.235 
  517500    300.98798   -1502.1562    523.79338      380.877    260.81225    34646.235 
  517600    300.70647   -1564.1367    497.77737    291.60917    124.93214    34646.235 
  517700     294.6402   -1542.7124    517.67163    305.53294    169.88258    34646.235 
  517800    309.70035   -1502.7428    504.44421    400.28571   -339.26251    34646.235 
  517900    293.67668   -1488.3289     511.9664    349.85996   -761.28176    34646.235 
  518000    310.43861    -1474.587    508.72039     436.0516   -324.17114    34646.235 
  518100    302.73792   -1478.1526    515.89914    404.88899   -170.77033    34646.235 
  518200    294.93397   -1512.2397    532.08297    351.74364    184.67775    34646.235 
  518300    292.86138   -1514.2709    513.53512    321.80494    35.939005    34646.235 
  518400    298.89474   -1513.1828    516.38712    352.99118    90.748124    34646.235 
  518500    291.85079   -1517.5585    523.25724    323.67564     67.61323    34646.235 
  518600    299.35748    -1513.449    545.12581    383.55337    350.88513    34646.235 
  518700    299.78442   -1515.6285    542.59516    380.77128    362.56722    34646.235 
  518800     302.7443   -1514.0185    516.42357    369.57628    269.65868    34646.235 
  518900    290.88238   -1477.7305    523.02085    358.89404    479.76792    34646.235 
  519000    298.51887   -1517.5967    523.23379    353.72655   -53.999102    34646.235 
  519100    292.89262   -1528.2003    511.57485    306.05627   -225.80981    34646.235 
  519200    294.02201   -1506.1283    518.09099    339.74471    156.43208    34646.235 
  519300    297.95989   -1489.9253    533.00837    388.64825   -126.46688    34646.235 
  519400    307.99879   -1502.6294    509.05998    397.33069   -6.9400823    34646.235 
  519500    306.62658   -1525.9924    521.06451    379.77544    384.39063    34646.235 
  519600    297.67029    -1515.372     523.6942    352.57951    23.614085    34646.235 
  519700    294.96073   -1523.9186    503.88006     311.9826    -504.1406    34646.235 
  519800    301.21708   -1604.8562      531.865    287.28324   -512.22216    34646.235 
  519900    299.94846   -1503.9539    493.03114    343.62267   -153.38359    34646.235 
  520000    301.10984   -1528.3412    533.00675    364.45567    -219.4537    34646.235 
  520100    294.09598   -1495.4664     500.1445    332.79413    112.72674    34646.235 
  520200     294.8907    -1550.395    522.34573    303.65566    101.14018    34646.235 
  520300     294.9339   -1527.2503    501.07173     305.7215   -15.909679    34646.235 
  520400    299.68594   -1584.8264    520.52771    289.06119   -144.78992    34646.235 
  520500    306.35247   -1569.1748    506.55234    320.84304    93.601228    34646.235 
  520600    304.92687   -1538.8404    512.49135    350.67857    335.93155    34646.235 
  520700    297.97489   -1574.3986    503.56918    274.80349    57.802017    34646.235 
  520800    299.41765   -1550.5921    565.36005    366.91629    155.51782    34646.235 
  520900    294.62374   -1569.7804     484.7856    245.50456     278.3205    34646.235 
  521000    304.44341   -1528.4293    499.70624    346.12125   -453.72482    34646.235 
  521100    299.98627   -1499.3866     500.2272    355.55677   -603.81699    34646.235 
  521200    307.30208   -1509.6649    519.91462    398.00354   -167.03484    34646.235 
  521300    296.68413   -1548.7723    546.84269    337.87434    806.65701    34646.235 
  521400    293.00224   -1569.6354     499.3724    252.91377    837.03709    34646.235 
  521500    294.38134   -1565.4967    516.20737    280.11531   -168.75145    34646.235 
  521600      315.657   -1562.7918    510.40798    373.10015    271.68436    34646.235 
  521700    298.26461   -1569.7537    518.62379    295.81133    592.67916    34646.235 
  521800    301.88836    -1517.759    520.06931     365.6162    699.21975    34646.235 
  521900    300.64438   -1542.5902    516.13206    331.23003    1048.4105    34646.235 
  522000    302.90352   -1514.9546    517.88824    370.82389     202.9847    34646.235 
  522100    296.02267   -1488.6809    559.25726    407.39324    539.09291    34646.235 
  522200    296.32901   -1505.9698    505.94937    338.17985   -36.055658    34646.235 
  522300    307.35769   -1546.1414    513.10798    354.97155    629.20003    34646.235 
  522400    303.08672   -1538.7143    535.74825    365.75152    832.91005    34646.235 
  522500    298.94524   -1572.8861    503.18689    280.31576    348.21649    34646.235 
  522600    307.81123   -1540.8421    492.96601    342.17704    123.79188    34646.235 
  522700    294.64361    -1524.513    517.67716    323.75328   -146.75403    34646.235 
  522800    299.98167   -1563.2394    526.56499    318.02103     494.4445    34646.235 
  522900    299.47907   -1539.6907    520.18843    332.92346   -91.734616    34646.235 
  523000    310.98173   -1531.9705    491.27511    363.67543    458.43396    34646.235 
  523100    298.68012   -1509.4628    533.79576    373.15061   -417.38169    34646.235 
  523200    306.38859   -1524.8621     491.9465    350.71303   -503.64192    34646.235 
  523300    300.36107   -1521.0677    500.63942    335.98045   -394.29639    34646.235 
  523400    307.61483   -1550.5296    502.01685    340.65341   -1094.3025    34646.235 
  523500    297.69325   -1530.6472    507.75453    321.46835    -95.20341    34646.235 
  523600    288.35522   -1491.0527    504.35993    315.49844   -666.60842    34646.235 
  523700     294.1801   -1518.7187     505.3065    315.08377   -1179.9395    34646.235 
  523800    307.40107   -1503.1919    521.40864    406.41767   -569.61754    34646.235 
  523900    294.67246   -1486.0532     515.2464    359.91259   -728.98456    34646.235 
  524000    296.72324   -1461.8323    506.91966    385.06792   -281.08978    34646.235 
  524100    295.37101   -1454.3788    533.75065    413.24584    77.680901    34646.235 
  524200    292.75146   -1506.9713    514.16879    329.24174     173.5183    34646.235 
  524300    300.38548   -1470.3126    520.93987    407.14623    97.971737    34646.235 
  524400    297.95604   -1483.8105    511.07104     372.8083     -113.833    34646.235 
  524500    302.81921   -1494.0929    509.30991    382.72652    391.86789    34646.235 
  524600    295.56942   -1455.5443    529.85762    409.08326   -56.677108    34646.235 
  524700    295.08552   -1495.5482    526.32227    363.35881   -535.68751    34646.235 
  524800    294.60807   -1498.1012    508.71527     341.0427   -115.50214    34646.235 
  524900    315.86768   -1541.3676    486.79133    371.85923   -246.15437    34646.235 
  525000    303.06136    -1485.006    532.56356    416.16063   -309.83853    34646.235 
  525100    302.04043   -1486.7011    514.71733    392.00883   -215.89197    34646.235 
  525200    297.63162   -1513.3453    526.55821    357.29572    157.97567    34646.235 
  525300    305.94877   -1493.9934    511.33791     398.9869    286.27175    34646.235 
  525400    302.37159   -1540.9309    519.08835    343.64552    218.27192    34646.235 
  525500    298.10114   -1527.0871     497.6558    316.77173    276.29699    34646.235 
  525600    321.23096   -1538.3158    500.56558    412.90539    41.654815    34646.235 
  525700     287.3383   -1561.7293    501.77708    237.64659    275.78652    34646.235 
  525800    301.47803   -1531.1337    528.54335    358.86251    -80.80351    34646.235 
  525900    294.62556   -1543.0317    544.48519    331.96103   -88.417461    34646.235 
  526000    290.67907   -1518.8065     505.5742    299.45318    353.77311    34646.235 
  526100    288.75519    -1500.698    507.32228    310.62176     565.6511    34646.235 
  526200    290.50629    -1596.014    513.87863    229.76987    462.41948    34646.235 
  526300    294.23432   -1571.8974    491.75248     248.5959    324.06706    34646.235 
  526400    298.67483   -1519.6175    497.51673    326.69303    -49.88406    34646.235 
  526500    303.00668   -1527.9109    531.77283    372.21807   -200.86798    34646.235 
  526600    304.93167   -1561.6954    498.59126    313.94511   -28.755631    34646.235 
  526700    299.17961   -1588.3859     505.4953    268.18274   -107.94745    34646.235 
  526800    306.84387   -1537.8566    519.81302    367.64099   -439.08867    34646.235 
  526900    295.78836   -1555.8384    497.27252    277.19279    -528.8913    34646.235 
  527000    313.12254   -1551.1994     493.8774    356.71662   -197.56385    34646.235 
  527100    306.80468   -1531.2012    506.57952    360.88594   -376.78393    34646.235 
  527200    303.57852   -1552.7268    510.73554    328.94722   -423.48193    34646.235 
  527300    304.03541   -1542.6971    524.81759    355.12228    116.72859    34646.235 
  527400     302.1087   -1558.9623    490.02743      295.366    104.18999    34646.235 
  527500    308.13004   -1545.8881    507.96476    353.56954     119.7273    34646.235 
  527600    304.01329   -1522.9122    498.03723    348.02692    1272.5452    34646.235 
  527700    302.82699   -1567.9333    523.89185    323.50314    631.39503    34646.235 
  527800    294.13572   -1533.3669    533.32499    328.25357    827.80807    34646.235 
  527900    305.47298   -1509.2497    524.86161    395.10565    989.76128    34646.235 
  528000    311.01028   -1541.0281    533.63991    397.11157    1444.2494    34646.235 
  528100    291.39609   -1544.0413    504.67319    276.55541    952.70024    34646.235 
  528200    292.00911   -1544.0007    530.73339    305.42456    1002.0209    34646.235 
  528300    290.07234   -1550.3145    514.93489    274.56598    653.98625    34646.235 
  528400    298.68595   -1520.2916    494.68959    323.24202    826.13605    34646.235 
  528500    298.62948   -1508.4554    500.10442    340.23799    1065.1825    34646.235 
  528600    299.63567   -1549.0979    519.12583    323.16085    761.57848    34646.235 
  528700    294.44923   -1540.6068    504.04883    293.15336    426.52923    34646.235 
  528800    309.68231   -1540.9232    494.99159    352.57115    48.526014    34646.235 
  528900    293.14095   -1503.9382    498.56647    318.43149   -111.70256    34646.235 
  529000     304.7573   -1503.8728     503.6818    376.07076   -238.96212    34646.235 
  529100    304.41371   -1494.9298    480.01088    359.79129   -392.95445    34646.235 
  529200    299.93768   -1522.6073    502.87628    334.76568   -613.91126    34646.235 
  529300    299.49967   -1553.5825    497.07115    296.00737    46.700525    34646.235 
  529400    292.91024     -1525.61    484.69851    281.84978    274.24114    34646.235 
  529500    299.51883   -1535.0387    521.56944    339.13601   -90.492481    34646.235 
  529600    290.76749   -1544.2082    507.18418    276.06078     153.3223    34646.235 
  529700    299.79976   -1519.2414    498.13384    332.76634   -364.11279    34646.235 
  529800    296.02923   -1548.8751    511.81059    299.78196    54.969134    34646.235 
  529900    301.24034   -1535.2066    534.28176     359.4546    366.91982    34646.235 
  530000    292.55443   -1546.4789    451.01316    225.68878   -659.29101    34646.235 
  530100    288.30938   -1509.2556    496.39344    289.12196   -463.82152    34646.235 
  530200     308.9367   -1487.7007    509.72406    417.15905   -382.97557    34646.235 
  530300    305.38627    -1533.346     488.5865    334.34269   -878.95645    34646.235 
  530400    306.41906   -1510.9539    483.94055     356.7528   -232.51138    34646.235 
  530500    305.78433   -1544.7087    512.84157    349.03265   -260.38403    34646.235 
  530600    306.67629   -1517.3061    509.27459    376.89632    32.595277    34646.235 
  530700    304.63134   -1506.8046    517.73846    386.62683    109.78249    34646.235 
  530800    293.96212   -1492.6308    506.21112    341.09184   -603.94279    34646.235 
  530900    303.40708    -1550.649    489.53429    309.04959    569.38193    34646.235 
  531000    293.14535   -1535.0346    496.89709    285.68557    139.36272    34646.235 
  531100    294.90422   -1517.2932    508.91146    323.38423    410.75464    34646.235 
  531200    290.55795   -1460.0247    479.20705    331.32086     212.1726    34646.235 
  531300    294.57031   -1506.5428     504.2361    327.95134    450.04112    34646.235 
  531400    288.57413   -1508.4038    508.21739    302.99332   -290.08756    34646.235 
  531500    305.40744   -1470.7895    527.22116    435.62942   -598.88403    34646.235 
  531600    297.89288   -1411.0765    528.11609    462.30216   -466.54363    34646.235 
  531700    309.44767   -1452.3633    507.04976    452.12965   -894.24649    34646.235 
  531800    302.04731    -1413.933     526.2331    476.32377   -581.05819    34646.235 
  531900    293.83603   -1415.2769    535.79086     447.4561   -1106.1147    34646.235 
  532000    303.65987   -1431.4925    512.93568    452.74904   -1512.3121    34646.235 
  532100    283.96119   -1431.3333    531.29644    382.31122   -796.43871    34646.235 
  532200    297.70704   -1446.7606     504.2458    401.90853    284.03473    34646.235 
  532300    293.49729   -1453.3963    527.85047    399.86657    130.43137    34646.235 
  532400    297.03085   -1510.7766    537.08707    367.68017    322.42222    34646.235 
  532500     300.3745   -1455.7814    518.54072    419.22873    842.92135    34646.235 
  532600    298.11413   -1492.5657    506.51031    360.20632   -225.46355    34646.235 
  532700    289.27364   -1516.9295    505.90304    295.31224      497.439    34646.235 
  532800     295.7251   -1553.1777    495.73076    278.02612    597.01634    34646.235 
  532900    296.66629   -1520.9735    521.41855    340.16841   -772.75503    34646.235 
  533000    302.03354   -1509.1057    472.55293    327.40868   -613.61306    34646.235 
  533100    299.55933   -1565.1241    501.72707    289.39113   -907.31789    34646.235 
  533200    301.92271   -1499.3745    520.34995    384.43646   -1342.6866    34646.235 
  533300    303.58415   -1479.1922    490.92047    382.69219   -777.90125    34646.235 
  533400    298.46333   -1496.4789    511.95929    363.31911     630.7365    34646.235 
  533500    301.10408   -1489.0822    535.72299    406.40486    497.30793    34646.235 
  533600    294.53144   -1451.2327    501.45509    380.30497    492.49168    34646.235 
  533700    290.61322   -1425.7198    522.42812    409.09645    882.65317    34646.235 
  533800    305.71795   -1428.7644    511.91559    463.75119    1136.6821    34646.235 
  533900    297.06071   -1467.9664    519.06765    392.60582    1064.2051    34646.235 
  534000    288.88082   -1438.0424    520.80225    387.32459    938.81096    34646.235 
  534100    302.25022    -1437.749    525.64783    452.83879    912.75384    34646.235 
  534200    303.40139   -1489.3965     505.7111    386.45318    284.69788    34646.235 
  534300    311.02163   -1511.6131    499.13681     392.0747    39.214761    34646.235 
  534400    304.04734   -1480.0779    510.56969    403.54742   -487.59125    34646.235 
  534500     301.6363   -1473.3563    497.24942    386.06069    -686.2037    34646.235 
  534600     305.8153     -1483.24    487.71185     385.5115   -220.82566    34646.235 
  534700    295.79145   -1512.8127    488.27282     311.2328   -380.80584    34646.235 
  534800    298.93786   -1482.8194    490.18065    357.34281   -66.265945    34646.235 
  534900    303.42252    -1513.865    513.09094    369.45994    18.903734    34646.235 
  535000    299.65598   -1528.1117    523.64493    348.75783    42.595911    34646.235 
  535100    298.94488   -1509.7835    521.95477    362.18456    403.20744    34646.235 
  535200    299.13355   -1517.5313    509.14138    342.47546   -481.04234    34646.235 
  535300    295.45713   -1484.6501    538.25494     387.8677    374.85318    34646.235 
  535400    292.38307    -1467.409    529.80477    382.77647   -260.83663    34646.235 
  535500    286.10722   -1460.1859    519.86848    351.72194    134.12624    34646.235 
  535600    305.12472   -1489.3057    484.03192    372.64724    -383.4529    34646.235 
  535700    301.86604    -1530.054    493.13726    326.28833    -96.63947    34646.235 
  535800    289.50831    -1484.156    500.11924    323.36172   -79.320228    34646.235 
  535900     301.2555   -1507.6195    506.82459    359.65298   -489.38913    34646.235 
  536000    296.77825   -1506.9941    488.85113    322.08607   -739.87858    34646.235 
  536100    298.67659   -1510.7503    510.25956    348.31099   -645.57758    34646.235 
  536200    304.29601   -1507.0448    487.81793    354.95175   -644.97511    34646.235 
  536300    305.36652   -1515.4881    526.85565    390.38051   -157.26055    34646.235 
  536400    301.16665   -1490.2278    504.74527    374.56419   -170.22865    34646.235 
  536500    296.15435   -1459.4709    491.56794    369.50852    381.22054    34646.235 
  536600    302.87247   -1482.4027    525.89847    411.24577    36.283669    34646.235 
  536700    294.90236   -1480.3261    541.34159    392.77306    173.50557    34646.235 
  536800    300.06001   -1507.1062    498.48788    346.43085   -224.69564    34646.235 
  536900    292.59795   -1529.6332    514.37217    306.08998    239.71952    34646.235 
  537000    303.95606   -1495.9065    534.82668    411.56362    207.10617    34646.235 
  537100    298.81205   -1510.1239     485.0976    324.38717    1327.5938    34646.235 
  537200    307.02276   -1520.9235    491.25018    356.81907    361.65019    34646.235 
  537300    294.08515   -1523.4005    516.57541    321.24206    619.62729    34646.235 
  537400    289.99829   -1507.6308    505.43564    307.41602    207.68202    34646.235 
  537500    302.99628   -1528.2052    517.07291    357.17685    314.36257    34646.235 
  537600    295.07805   -1534.7737    515.90626    313.68357    250.41764    34646.235 
  537700     305.2201   -1541.0663    520.98073    358.26618   -181.50926    34646.235 
  537800    296.83658   -1539.7417     502.6638    303.41446   -114.23156    34646.235 
  537900    297.14446   -1533.4851    517.28664    325.68434   -342.20706    34646.235 
  538000    300.19272   -1566.6193    500.21482    289.24399   -435.24925    34646.235 
  538100    308.74996   -1521.3556    497.48357    370.42032   -469.71878    34646.235 
  538200    297.03617   -1508.6064    524.02417     356.8115   -125.89224    34646.235 
  538300    309.66229   -1542.4182    502.54125    358.53544   -16.367774    34646.235 
  538400    298.65632   -1523.4674    511.98391    337.22675    -373.5657    34646.235 
  538500    291.89561   -1529.4953    504.85934    293.54339   -1122.9464    34646.235 
  538600    290.91206    -1518.648    492.31695    287.40662   -350.54156    34646.235 
  538700    302.91657     -1533.71    491.39863    325.63778   -106.43063    34646.235 
  538800    309.78546   -1550.3664    518.80298     367.4052    71.345204    34646.235 
  538900     292.0393   -1536.9851    495.45599    277.29912    34.747317    34646.235 
  539000     302.4335   -1488.1866     531.2751    408.85617    398.02879    34646.235 
  539100    300.11359   -1466.3801    525.37502    414.28606   -179.70112    34646.235 
  539200    296.36312   -1518.6908    497.32892    316.99243   -113.65694    34646.235 
  539300    306.18509   -1509.7606    525.23453    398.18351    -2.930054    34646.235 
  539400    304.79051    -1518.896    500.79283    358.30862     451.0161    34646.235 
  539500    297.91391    -1526.848    517.04229    335.55185   -148.59906    34646.235 
  539600    301.47727   -1531.8526    517.49696    347.09376      481.398    34646.235 
  539700    295.03983   -1508.6882     528.7786    352.46885     711.9458    34646.235 
  539800    291.83694   -1514.9611    514.92324    317.87654    332.90521    34646.235 
  539900    294.16302   -1537.8694    490.49101    281.04045    556.99676    34646.235 
  540000    302.09104   -1512.9944    511.70328    362.93001    1150.4882    34646.235 
  540100    305.23676   -1479.7111      533.323    432.03892    936.99245    34646.235 
  540200    303.14816   -1527.1697     511.5946     353.4199    638.38936    34646.235 
  540300    302.32356   -1459.2096     519.1097    425.17129    733.28602    34646.235 
  540400    300.44125   -1496.0018    515.88175    376.65078     257.0058    34646.235 
  540500    297.17635   -1520.2384    536.82231    358.61072   -336.49423    34646.235 
  540600    307.62455   -1498.4351    509.83198    400.60693   -316.06369    34646.235 
  540700    287.11213   -1527.4613    483.94565    253.06183   -53.194774    34646.235 
  540800    302.76649   -1541.8675    542.66497    368.06888   -649.41927    34646.235 
  540900     295.8538   -1464.9089    502.51482     373.6602    125.99308    34646.235 
  541000    295.45254   -1524.2323    480.43295    290.44284   -872.56548    34646.235 
  541100      308.894   -1558.7454    492.50753    328.70499   -64.251667    34646.235 
  541200    299.00036    -1535.016    533.77495    349.02284    254.92845    34646.235 
  541300    299.69675   -1508.0236      498.244    343.62907    119.16188    34646.235 
  541400    293.46255   -1546.2031     497.4935    276.54594    53.662243    34646.235 
  541500    297.58945    -1519.223    480.63239    305.30171    559.64959    34646.235 
  541600    295.73725   -1508.5263    506.82395    333.82554     606.2605    34646.235 
  541700    295.60347   -1560.5995    500.40735     274.7316   -147.79399    34646.235 
  541800    292.76659   -1515.2185    489.28422    296.17838    76.531374    34646.235 
  541900    306.08085     -1534.26    501.89886    349.87766   -410.23034    34646.235 
  542000    296.05552    -1504.637    482.91899    315.24715    -113.1396    34646.235 
  542100    297.24795    -1511.645    482.19475    312.89988   -95.329117    34646.235 
  542200    305.19909   -1497.0651    519.10474    400.29652    236.25599    34646.235 
  542300    303.12391   -1545.5957    504.47298    327.76282    222.74353    34646.235 
  542400    299.23513   -1500.2978    488.86215    339.88839   -103.64151    34646.235 
  542500    289.96491   -1517.2821    524.40506    316.58345   -368.40956    34646.235 
  542600     304.4406   -1519.4229    480.85583    336.26456   -698.93398    34646.235 
  542700    300.74268   -1516.3113    507.42951    349.25032    287.29934    34646.235 
  542800    294.48852   -1511.1446    493.96279    312.70697   -181.63022    34646.235 
  542900    297.76253   -1537.8781    482.81823    289.61404   -83.814711    34646.235 
  543000    297.63072   -1542.0178    512.01489    314.07576   -43.902913    34646.235 
  543100    303.78884    -1511.948    491.21811    351.15845    368.03285    34646.235 
  543200     304.4045   -1518.7206    495.39874     351.3467    542.53791    34646.235 
  543300    304.78557    -1494.371    489.67373    371.69217    573.91134    34646.235 
  543400    298.57605   -1504.4404     500.7465    344.65383    550.41374    34646.235 
  543500    311.88158   -1515.5227    482.99384    375.90559     451.6769    34646.235 
  543600    293.77055   -1499.6801    483.99024    310.95653    552.23131    34646.235 
  543700     295.2711    -1501.772    494.77101    326.42176    338.17349    34646.235 
  543800    294.65676   -1513.8243    512.88394    329.70806    151.98774    34646.235 
  543900    298.90901    -1482.729    519.91303    387.03537   -123.99667    34646.235 
  544000    289.60738    -1492.185    503.84464     319.5055    -30.88681    34646.235 
  544100    304.47362   -1516.6771    507.97505    366.27872   0.26023304    34646.235 
  544200    299.00527   -1494.8619    495.17964    350.60382   -324.60974    34646.235 
  544300    297.02215   -1487.3908    497.62261    351.56218   -737.45007    34646.235 
  544400    297.26256   -1491.8242    493.94078    344.53273   -224.53087    34646.235 
  544500    294.58357   -1502.3366    505.01308    332.99439   -108.50384    34646.235 
  544600    306.64404   -1483.3383    497.29833    398.74221    484.26471    34646.235 
  544700    299.19945   -1505.2898    518.72872    364.60184   -210.66959    34646.235 
  544800    301.42199   -1482.4971    501.02769    379.73035   -436.11146    34646.235 
  544900    294.17958    -1485.069    475.13296    318.55748   -373.81711    34646.235 
  545000    290.15578   -1469.8891    513.82499    354.25826    369.58074    34646.235 
  545100    313.21639   -1471.2362    523.95702    467.18325   -446.28536    34646.235 
  545200    300.47058   -1502.6864    499.21138    353.42827   -614.12735    34646.235 
  545300    296.80365   -1481.3807    496.92032    355.88329   -496.57975    34646.235 
  545400    291.79331   -1477.5223     514.6959    354.89098   -1127.5692    34646.235 
  545500    301.08812   -1491.9038    504.13877    371.92702    133.66878    34646.235 
  545600    305.40255   -1460.1346    517.06238    436.10346    264.82233    34646.235 
  545700    308.79598   -1476.3616     519.2125    437.35109    417.64759    34646.235 
  545800     307.6455   -1473.8892    526.16761     441.5831    500.67617    34646.235 
  545900     290.0888   -1448.3002    493.16533    354.88503    216.10678    34646.235 
  546000    308.19651   -1474.8168    493.34006    410.31628    365.28874    34646.235 
  546100     304.3635   -1506.1924    505.74007     374.0311    399.19077    34646.235 
  546200    303.29005   -1497.4999     498.3572    370.49308   -569.48501    34646.235 
  546300    292.51267   -1451.4403    478.46587    347.99148    -155.7554    34646.235 
  546400    307.06457    -1480.351    541.22167    447.55191    -365.7811    34646.235 
  546500    299.77386   -1494.0577    499.75549    359.45473   -126.11107    34646.235 
  546600    297.90062   -1483.9284    514.51024    375.87942   -759.00881    34646.235 
  546700    299.00888    -1491.471    501.30924    360.14056   -628.17129    34646.235 
  546800    300.69078   -1503.2942    537.74996     392.3534   -671.97824    34646.235 
  546900    288.42121   -1505.7747    498.59458    295.30907   -166.52865    34646.235 
  547000    309.50413   -1475.4412    509.43937    431.69628   -206.66851    34646.235 
  547100    295.48434   -1462.1003    515.80092     388.0864    -970.5985    34646.235 
  547200    308.27637   -1522.3534    529.54436    399.34461   -791.36297    34646.235 
  547300    298.03103    -1541.921    484.02539    287.99086    247.02427    34646.235 
  547400    302.80219   -1540.8486    492.59663    319.18067   -223.26908    34646.235 
  547500    296.05926   -1482.9497    520.64822    374.68059    352.17921    34646.235 
  547600    295.60665    -1513.502    498.37154    319.80761   -294.35731    34646.235 
  547700    304.87828   -1501.2171    495.69366    371.28464   -699.87225    34646.235 
  547800     293.6262   -1469.0316    481.40152    338.36451   -229.41172    34646.235 
  547900    299.19769   -1483.4344    498.03964    365.76029   -624.00173    34646.235 
  548000    298.72637    -1515.297    498.85043    332.58003    -776.1374    34646.235 
  548100    295.53778   -1511.6251    500.38622    323.38824   -549.82464    34646.235 
  548200    297.64264   -1485.2781    501.74774    360.60215   -450.49366    34646.235 
  548300       302.28   -1506.1044    503.25378    362.22391    116.24689    34646.235 
  548400    299.24659   -1493.1359    511.23666    369.47657   -29.067628    34646.235 
  548500    301.62189   -1520.8649    517.85824    359.09586   -420.95193    34646.235 
  548600    300.01456   -1527.5211     496.0557    323.37852   -609.79351    34646.235 
  548700    302.28897   -1473.8024    529.53926    420.85183    209.74285    34646.235 
  548800    301.69581   -1441.3306    499.41253    420.51826   -483.47242    34646.235 
  548900    300.19806   -1464.1591    523.77129    415.28476   -199.07909    34646.235 
  549000    312.99164   -1482.4168    492.54415    423.57487    646.79074    34646.235 
  549100    310.91707   -1525.8406     481.4796    359.71784   -38.010853    34646.235 
  549200    293.51027   -1485.2811    511.45307    351.64298   -61.100087    34646.235 
  549300    298.06762   -1537.3688    511.12394    319.80687   -445.24235    34646.235 
  549400    305.30274   -1515.6689    521.75884    384.81484    38.316985    34646.235 
  549500    301.66014   -1479.8115    503.88043     386.3442    497.83303    34646.235 
  549600     300.5017   -1510.1835    496.05774      342.918    706.07295    34646.235 
  549700    288.73882    -1491.766    475.43602    287.59351   -73.130397    34646.235 
  549800    290.16035   -1483.3862     477.3402      304.297   -357.86752    34646.235 
  549900    299.66938   -1500.2272    517.04074    370.09868    84.208538    34646.235 
  550000    295.64624   -1490.4934    485.34842    329.97189    -255.1802    34646.235 
  550100     298.1549   -1543.8177    511.90239    314.53051   -371.86204    34646.235 
  550200    294.08527   -1503.0284    527.19722    352.23647    104.81555    34646.235 
  550300    309.79113   -1554.5693      502.149    346.57392    292.66122    34646.235 
  550400    296.08004   -1490.0387    488.25746    335.29471     933.7906    34646.235 
  550500    300.76899   -1529.3981    502.87002    331.72277    321.50969    34646.235 
  550600     304.0306   -1527.8832    525.83491    370.93174   -138.81672    34646.235 
  550700     291.2831    -1517.986     484.8439    282.27124    -243.8672    34646.235 
  550800    312.03767   -1552.8209    484.36245    340.68099    29.488636    34646.235 
  550900    298.27902   -1519.5266    512.62178     340.1015   -442.75622    34646.235 
  551000     301.3216    -1524.676    488.17431    324.24477   -386.32958    34646.235 
  551100    304.53183   -1517.5841    531.25282    388.91225    -533.2439    34646.235 
  551200    305.67889    -1472.759    503.56127    411.22592   -494.78154    34646.235 
  551300    299.74592   -1497.1521     491.7817    348.26035   -330.62817    34646.235 
  551400    306.20989    -1494.278    506.85688    395.40041   -110.72298    34646.235 
  551500    309.74639   -1485.5176    499.71193    412.98648   -366.58065    34646.235 
  551600     306.9173   -1524.9094    504.45416    365.56098    94.853021    34646.235 
  551700    297.14124   -1554.2269    486.77384     274.4152    626.41901    34646.235 
  551800     318.0957   -1530.4599    499.25868    405.29578     156.9397    34646.235 
  551900    296.22162   -1540.9687    482.61931    279.36588    7.4875121    34646.235 
  552000    292.32154   -1534.9987    502.53151    287.63566    -206.3438    34646.235 
  552100    290.88393   -1516.3064    520.53545    317.83975    153.37299    34646.235 
  552200    297.57386   -1522.5776    511.07765      332.322   -43.302551    34646.235 
  552300    305.59446   -1567.4354    517.02189    329.62888    849.12786    34646.235 
  552400    295.46504    -1546.968    507.31662    294.64726    52.269618    34646.235 
  552500    302.64806   -1530.8079    528.60476    364.53351    259.00395    34646.235 
  552600    302.05391   -1525.3725    512.82963    351.51064    14.263352    34646.235 
  552700    302.72652   -1520.7087    528.92525     375.3075     294.6901    34646.235 
  552800    294.17452   -1573.5174    501.15616    256.10954   -368.43689    34646.235 
  552900    299.77448    -1525.779    493.56719    321.54797    763.98331    34646.235 
  553000    303.72572   -1562.5501    512.71836    321.77146    351.59624    34646.235 
  553100     312.1046   -1538.9482    497.79771    368.29114     214.4759    34646.235 
  553200    301.50737   -1554.0726    503.38367    310.89646    -13.46924    34646.235 
  553300    304.59374   -1589.1615     501.1356    287.49725    268.21351    34646.235 
  553400    302.76561   -1536.6434    502.33226    332.95636    937.62951    34646.235 
  553500    308.24765   -1533.4743    490.15861    348.70826    551.30741    34646.235 
  553600    297.05918   -1507.0041    511.58402    346.07757    243.93952    34646.235 
  553700    304.72686    -1538.707     539.5322    376.94955   -146.07303    34646.235 
  553800    293.01939    -1511.662     513.0877    324.67995    423.12173    34646.235 
  553900    314.67769   -1545.3317    532.99696    408.72676     293.0139    34646.235 
  554000    299.91918   -1540.0647    510.58441    324.93289   -292.44981    34646.235 
  554100    297.31422   -1534.5484    507.91407     316.0151    208.49961    34646.235 
  554200     310.2866   -1494.7052    521.86164    428.38815    308.90359    34646.235 
  554300    297.21216   -1524.4915     504.6509    322.34786    493.68053    34646.235 
  554400    305.73499   -1533.0564    527.56919    375.18976    654.59279    34646.235 
  554500    297.42567   -1541.4501     504.8577    306.56024    72.102652    34646.235 
  554600    298.97061   -1529.5879    493.35422    313.89583    269.22134    34646.235 
  554700    301.78989    -1478.169    539.26611    423.95827    238.61274    34646.235 
  554800    291.06895   -1508.8497    506.65874    312.25528   -283.31781    34646.235 
  554900    302.82111   -1537.9791    533.95947    363.49852    386.30549    34646.235 
  555000    293.74756   -1457.7998    526.78737    395.53019    513.90085    34646.235 
  555100    300.62867   -1529.5194    524.98194    353.07977    636.75834    34646.235 
  555200    303.20781   -1487.1987    486.25033    368.31599    592.21987    34646.235 
  555300    283.75911   -1523.5059     522.0996    280.02915    12.894567    34646.235 
  555400    302.01917   -1509.4061    528.41812     382.9086    277.93708    34646.235 
  555500    296.93607   -1502.1772    510.98195    349.74646   -777.76413    34646.235 
  555600    294.83812   -1523.1512    509.89321    318.20948   -165.84349    34646.235 
  555700    306.21594   -1513.2992    505.98644    375.53611    127.70856    34646.235 
  555800      297.622   -1497.8369     483.2531    329.45547    709.94529    34646.235 
  555900    296.34744   -1507.6668    524.60049    355.21716    68.281536    34646.235 
  556000    297.27595   -1492.9626     522.4762    371.99015    118.79242    34646.235 
  556100    292.43527   -1509.6328    526.20128    337.18486    361.68536    34646.235 
  556200    295.28333   -1491.4953    542.50922    384.49198   -294.04849    34646.235 
  556300    294.52783   -1552.5328    502.08744    279.62085   -26.954478    34646.235 
  556400    283.58485   -1536.9773    513.60471    257.27594   -216.86096    34646.235 
  556500    293.90958   -1482.3419    517.79947    362.73187   -657.20621    34646.235 
  556600    305.87951   -1528.0832    499.44524    352.69166   -347.83438    34646.235 
  556700    325.32933   -1525.7311     531.5704    475.00291    167.59175    34646.235 
  556800    294.14605   -1532.4682    514.04592    309.91988    107.77031    34646.235 
  556900    288.54474    -1508.296    536.00665    330.75766    -358.5047    34646.235 
  557000     289.1941   -1508.1209    517.81929    315.67795   -396.46396    34646.235 
  557100    302.89579   -1493.3664    523.30902     397.7979   -679.34841    34646.235 
  557200     296.5615   -1518.4887    503.39447    324.15594   -489.46724    34646.235 
  557300    308.27843   -1531.0072    514.00655     375.1623   -777.94554    34646.235 
  557400      296.213   -1542.7107    506.56314    301.52879   -352.33501    34646.235 
  557500    290.78145   -1524.3586     492.3663    281.15563   -114.77962    34646.235 
  557600    294.29242    -1539.811    532.92431    322.11646   -168.35765    34646.235 
  557700    306.78778   -1526.6859    524.65618    383.40152    208.82918    34646.235 
  557800    304.10296   -1559.7699    502.49939    316.03632    137.49933    34646.235 
  557900    291.23921   -1546.8382    512.43171    280.80856    140.94808    34646.235 
  558000    299.35136   -1526.1768     522.8891    348.56122   -901.35296    34646.235 
  558100    297.28943   -1526.3702     504.3402    320.50744   -1335.7758    34646.235 
  558200    302.70487   -1554.1046    519.74454    332.63313   -835.33115    34646.235 
  558300    298.87456    -1547.954     514.3498    316.09151   -695.91422    34646.235 
  558400    307.35622   -1529.2141    532.57559    391.35984    340.86339    34646.235 
  558500    304.15849   -1519.7025    523.35198    377.20707    990.59256    34646.235 
  558600    301.37636   -1522.4961    528.05184     366.5494    505.53647    34646.235 
  558700    305.50498   -1564.4879    502.26081    317.41122    147.07251    34646.235 
  558800    290.31906   -1600.5685    509.22283     219.7141    503.52806    34646.235 
  558900    303.42917   -1569.9627    511.12186    311.42325    348.00839    34646.235 
  559000    306.48191   -1611.7553    529.77738    302.07204    603.34222    34646.235 
  559100    301.49595   -1591.6643    528.79621    298.66568    84.949753    34646.235 
  559200     300.9158   -1599.1574    479.84922    239.60569   -313.12765    34646.235 
  559300    298.54836   -1590.1937    512.45815    270.48711   -31.516034    34646.235 
  559400    293.57999   -1617.0912    505.13817    213.83287   -276.72984    34646.235 
  559500     297.1759   -1589.5964    516.03744    268.46575    215.75336    34646.235 
  559600    299.04042   -1613.1092    488.84804     226.1836   -193.58039    34646.235 
  559700    302.23562   -1600.0859    513.05358    277.84176    121.44008    34646.235 
  559800    306.97073   -1555.4044    520.49811    351.35119    313.07679    34646.235 
  559900    299.26768   -1575.4427    504.30517    280.33352    546.54128    34646.235 
  560000    311.78357   -1581.6801    523.84865    350.16044    1374.2285    34646.235 
  560100    302.85548   -1557.6952    501.38553    311.36362   -54.133952    34646.235 
  560200    314.77147   -1559.4793     498.5552     360.5609    801.19161    34646.235 
  560300    304.43442   -1589.3565    549.92138    335.36858    31.013129    34646.235 
  560400     296.2217   -1564.6368    484.28533    257.36412    464.04303    34646.235 
  560500    296.88718   -1568.5817    495.13272    267.27194   -43.610403    34646.235 
  560600    301.21067   -1570.6961    515.90546    305.45483   -333.10638    34646.235 
  560700    300.44835   -1538.7325    489.40549    307.47586   -448.81892    34646.235 
  560800    285.13234   -1525.6893    497.11402    259.06157    -456.5227    34646.235 
  560900    294.15064   -1584.1938    499.61361    243.78271   -886.59846    34646.235 
  561000    295.11568   -1570.9383    504.17763    265.96023   -410.78144    34646.235 
  561100    301.63933   -1559.1126    516.59993     319.6686   -523.63313    34646.235 
  561200    303.24359   -1550.6562    496.42976    315.19952   -223.52708    34646.235 
  561300    301.05992   -1512.8406    504.16833    350.89245     -428.474    34646.235 
  561400     300.2078   -1521.0849    510.74378    345.37543    -243.1396    34646.235 
  561500    294.02891   -1570.9935    512.94942    269.76913   -635.74178    34646.235 
  561600     313.6516   -1515.5924    538.36478     439.2002   -164.41639    34646.235 
  561700    294.93606   -1543.6475    497.07241    285.33473   -252.71366    34646.235 
  561800    303.68876   -1572.9808    539.72306     338.1786    132.80483    34646.235 
  561900    296.08186   -1532.4947    519.57606    324.16552    439.82287    34646.235 
  562000    310.65769   -1601.7498     540.2432    341.40097    58.532381    34646.235 
  562100    297.49155   -1599.4864    496.72389    240.68772    194.08631    34646.235 
  562200    312.31437   -1565.6956    516.28121    360.97457    425.91869    34646.235 
  562300    300.71631   -1584.9357    491.00575    264.08304   -86.380619    34646.235 
  562400    301.53317   -1571.7645    513.23898    303.17632    498.41177    34646.235 
  562500    305.98652   -1584.6843    520.74911    317.87765    645.91721    34646.235 
  562600    297.28713   -1537.4993    510.70342    315.73115   -247.30733    34646.235 
  562700     294.1293   -1523.3003    534.86211    339.82835   -367.45555    34646.235 
  562800    305.47663   -1557.1947    503.59327    325.90877    78.671126    34646.235 
  562900    289.86432   -1550.9685    524.99568    283.03339   -670.40245    34646.235 
  563000    338.22137   -1555.7449    525.12226    496.76042    257.33301    34646.235 
  563100    298.00451   -1545.1686    517.18452    317.78256    1201.3647    34646.235 
  563200    293.94885   -1550.3671    491.03726    268.12182    651.25305    34646.235 
  563300    302.67621   -1588.2834    537.04881    315.62915   -85.920396    34646.235 
  563400    296.58194   -1557.1402    510.41244    292.61474    304.69769    34646.235 
  563500    297.20298   -1532.7822    516.23123    325.59607    280.23654    34646.235 
  563600    294.90091   -1576.9698    542.44633    297.22762   -215.55962    34646.235 
  563700    300.85654   -1530.8082    507.45678    335.29485   -68.231877    34646.235 
  563800    289.64127    -1522.999     511.4366    296.43653    449.97926    34646.235 
  563900    299.81566   -1540.6551    504.47416    317.76482    514.66232    34646.235 
  564000    290.69835   -1590.5284    506.60072    228.84491    983.76198    34646.235 
  564100    301.12556   -1568.6446       501.22    292.43648    699.78169    34646.235 
  564200    299.11824   -1568.7153    525.68121     307.7621    162.41145    34646.235 
  564300    299.17791   -1519.5326    509.17883    340.71185    145.18958    34646.235 
  564400    297.17249   -1545.6701    515.76389    312.10307    742.23325    34646.235 
  564500     295.2843   -1534.2765    493.94622    293.15214   -393.99331    34646.235 
  564600    293.99028   -1540.5377    518.38312    305.48413   -851.68859    34646.235 
  564700    300.03193   -1508.5457    532.14227    378.51896   -237.50175    34646.235 
  564800     289.0604   -1553.3372    511.80092    263.83945    -473.3065    34646.235 
  564900    289.68809   -1551.8053     502.0732    258.47828     485.3959    34646.235 
  565000    302.89985   -1599.5063    496.51755    264.88488   -223.47745    34646.235 
  565100    292.10584   -1526.0765    524.57013    317.62235   -350.62695    34646.235 
  565200    297.87918   -1556.5025    511.07358    299.77174   -131.32905    34646.235 
  565300    293.13659   -1532.2611    507.12179    298.64418   -489.48444    34646.235 
  565400    299.49629   -1569.1111    524.12627     307.5186   -626.29627    34646.235 
  565500    308.57387   -1630.3411    520.08184    283.23792   -893.12112    34646.235 
  565600    308.60995   -1607.6238    489.33239    275.36868   -737.07106    34646.235 
  565700    302.89312   -1528.9343    513.59645    352.50538   -156.74913    34646.235 
  565800    309.00745   -1532.1328    540.63503    403.95741    485.24871    34646.235 
  565900    296.77989    -1543.097    534.35695     331.4963     389.4232    34646.235 
  566000    303.85549   -1553.3908    538.01428    356.81279    712.82358    34646.235 
  566100    297.78865   -1544.8127    506.30252     306.2817   -12.569925    34646.235 
  566200    298.52572   -1567.8088    521.89821    302.20978    1221.3411    34646.235 
  566300    303.29262   -1549.9977    549.12604    368.77574    372.30216    34646.235 
  566400    304.89896   -1554.4566    533.59302    356.03796    669.14775    34646.235 
  566500    296.55286      -1545.8    513.55566    306.96678    321.55619    34646.235 
  566600    293.29083   -1554.2853    533.63722    303.83196    707.47608    34646.235 
  566700    295.12921   -1573.1717    557.33647    316.94674    748.01766    34646.235 
  566800    296.59105   -1528.4128    514.96025    325.93108    142.68964    34646.235 
  566900    294.66962   -1564.6725    533.71512    299.74915   -446.20809    34646.235 
  567000    302.68755   -1587.1306      525.946    305.73031   -489.94017    34646.235 
  567100    295.66539   -1575.4801    508.83344    268.55671   -225.00066    34646.235 
  567200    304.32442   -1541.4786    547.38063    380.20892   -293.49859    34646.235 
  567300    297.13202   -1523.5221    527.52831    345.83273    545.23353    34646.235 
  567400    294.90801   -1517.4726    530.30605    344.61649    250.12623    34646.235 
  567500    300.92672   -1515.2686    528.81504    372.50961    419.77158    34646.235 
  567600     295.2922   -1551.5464    536.80907     318.7807   -13.539229    34646.235 
  567700    302.08657   -1556.2022    504.73757    312.73633   -10.939958    34646.235 
  567800     309.4517    -1590.807    530.86861    337.52293    16.144506    34646.235 
  567900    289.39979   -1537.9563    518.38125    287.33333    272.87079    34646.235 
  568000    291.83319   -1581.2334    512.78056    249.44465    210.24236    34646.235 
  568100     299.4149   -1576.2306    497.63424     273.5395    191.27295    34646.235 
  568200    298.88168    -1537.941    515.61149    327.39837   -178.91602    34646.235 
  568300    301.97733   -1518.8294    511.27558    356.15383   -44.595269    34646.235 
  568400     299.1869    -1512.736    521.09389    359.46418   -236.63213    34646.235 
  568500    290.88689   -1507.9375    518.12351    323.81005   -378.97244    34646.235 
  568600    311.68708   -1483.5756    486.32352    410.30411    83.791692    34646.235 
  568700    303.49184   -1505.5277    534.76307    399.78244    187.68726    34646.235 
  568800    301.79967   -1501.4023    528.90574    390.40886   -88.358119    34646.235 
  568900    299.82433   -1502.2705     525.8279    377.54229    277.23767    34646.235 
  569000    295.40641   -1496.9785    536.68183    373.73717   -185.67838    34646.235 
  569100    289.84253   -1505.7515    518.72412    321.88038    159.09281    34646.235 
  569200     310.7594   -1500.2265    521.29227    424.43266    390.67952    34646.235 
  569300    297.49544    -1508.323    511.50126    346.64607    938.62514    34646.235 
  569400    302.96316   -1478.5016    522.08213    411.74013    935.05092    34646.235 
  569500    314.26695   -1467.3463    530.59735    482.45769    455.19085    34646.235 
  569600    296.91593   -1492.8994    556.83857    404.78991    968.55765    34646.235 
  569700    300.74032   -1528.3529    527.19878    356.96727    1428.5789    34646.235 
  569800    299.60766    -1525.166    533.46262    361.30301    1251.0272    34646.235 
  569900    306.76791   -1502.2508    533.95927       417.05    724.67824    34646.235 
  570000    300.29618   -1510.8516    513.86804    359.13217    288.05951    34646.235 
  570100      310.841   -1480.2526    508.76699    432.24967   -128.05637    34646.235 
  570200    300.06645   -1492.2312    500.00752    362.85454   -389.94609    34646.235 
  570300    294.68274   -1497.3124    513.75291    347.20633    -108.9964    34646.235 
  570400    308.94914   -1492.6391    529.46314    432.01581    401.95413    34646.235 
  570500    293.11131   -1526.2573     523.1579    320.56993    163.20249    34646.235 
  570600    301.86125   -1532.4634    512.59403    343.31404   -109.85942    34646.235 
  570700    307.93364   -1512.1788    533.12876    411.55585   -471.35594    34646.235 
  570800    300.23097   -1499.9952    498.35989    354.18591   -532.11451    34646.235 
  570900    293.04515   -1502.2184    549.04252     370.1947   -348.79916    34646.235 
  571000    307.43932   -1526.5662    539.89158    401.69896    6.5572662    34646.235 
  571100    312.55627   -1474.7123    484.69178    421.46082   -510.83324    34646.235 
  571200    296.85969   -1509.7621     485.1375    315.97214    -954.7917    34646.235 
  571300    298.33303   -1543.7591     511.5223    315.01342   -562.05139    34646.235 
  571400    296.51355   -1500.1209    508.15391    347.06661    -757.9085    34646.235 
  571500     295.2059   -1487.0505    533.60963    379.68749   -317.60446    34646.235 
  571600    302.67853   -1498.6686    516.38472    384.59027   -61.432846    34646.235 
  571700    303.20388   -1523.7879    506.75073    352.20953   -553.51909    34646.235 
  571800     292.8827   -1497.5015      521.832    346.96748    338.14496    34646.235 
  571900     286.6862   -1526.3388    512.08023    280.39543    671.60551    34646.235 
  572000    303.96089   -1530.1749    508.70568    351.19603    378.55386    34646.235 
  572100    283.75861   -1537.4228    498.47355    242.48396     75.73763    34646.235 
  572200    297.78579   -1539.5894    497.81165     303.0012    -185.4419    34646.235 
  572300    304.08196   -1539.3452    524.81441    358.68123   -486.22379    34646.235 
  572400    296.12939   -1533.6602    490.81985    294.45846   -155.80988    34646.235 
  572500    299.05161   -1536.5642    510.56185    324.49297    341.47025    34646.235 
  572600    295.94489   -1491.0001    551.13149    396.59692    -372.6467    34646.235 
  572700    302.40699   -1501.5468    507.51676    371.61795    -585.6251    34646.235 
  572800    304.96277   -1467.3324    504.94581    414.80308   -194.25435    34646.235 
  572900    289.09734   -1502.0977    518.07488    321.51972   -458.71327    34646.235 
  573000    300.36727   -1501.9745    500.09064    354.55288     275.0279    34646.235 
  573100    294.78648   -1523.3791    512.14557    320.00074    396.59969    34646.235 
  573200     302.7986   -1514.3326     526.3288    379.41267    431.19625    34646.235 
  573300    297.41933   -1466.5838    517.64744    394.18771    306.57063    34646.235 
  573400    307.83475   -1507.7354    529.80456    412.22849    253.98759    34646.235 
  573500    296.01172   -1495.2981    539.05689    380.52617   -325.82973    34646.235 
  573600    296.48785   -1498.9854    510.25021    350.18237    228.03387    34646.235 
  573700    305.12888    -1489.842    523.61196    411.70978   -223.20134    34646.235 
  573800    298.40409   -1491.1301    494.32151    350.76251   -534.22723    34646.235 
  573900    303.24162   -1487.4882    532.08859    414.01748     213.1169    34646.235 
  574000    291.34092   -1479.9439    498.07844    333.80898   -172.35496    34646.235 
  574100    295.04263   -1492.4712     516.7952    356.71501   -250.74541    34646.235 
  574200    306.21687   -1501.2956    483.35145    364.90891   -339.33077    34646.235 
  574300    304.84491   -1472.0923    505.83014    410.39532   -109.78783    34646.235 
  574400    297.65676   -1517.3638    523.47895    350.31145   -41.367474    34646.235 
  574500    297.24488   -1507.5597    495.86477    330.64132    559.16279    34646.235 
  574600     300.7029   -1513.9528    501.58038    345.58002   -89.945464    34646.235 
  574700    293.67786   -1498.9824    537.96974    365.21522    205.25057    34646.235 
  574800    297.68395   -1458.5002    508.12824    393.94706    215.97905    34646.235 
  574900    304.65546   -1503.0949    528.62083    401.32784     272.7838    34646.235 
  575000     294.2265   -1518.3121    507.67491    318.06831    -49.36788    34646.235 
  575100      304.601   -1557.3662     491.4014    309.59116   -659.21282    34646.235 
  575200     300.9126   -1583.2865    496.67559    272.28852   -99.809445    34646.235 
  575300    304.05045   -1541.6273    511.99818    343.44057   -710.55506    34646.235 
  575400    293.08144   -1573.8827     503.2331    252.88484   -10.608482    34646.235 
  575500     306.9344   -1543.2975    516.26565    359.06153   -308.44768    34646.235 
  575600    311.17918   -1514.4345    514.27567    405.10364   -246.61487    34646.235 
  575700    300.10762   -1522.0947    496.21367     329.3832   -337.24682    34646.235 
  575800    298.97112   -1511.9328    505.84904    344.04803   -149.41601    34646.235 
  575900    297.76831   -1512.9063    482.61461    314.40834    199.24225    34646.235 
  576000    295.45121   -1540.7859    526.28639    319.73661   -461.68055    34646.235 
  576100    306.23489   -1501.5814    509.02518    390.37824   -546.27312    34646.235 
  576200    298.92528   -1478.9845    501.76065    372.70099   -280.16484    34646.235 
  576300    302.64713    -1494.955    516.06974     387.8472   -351.77392    34646.235 
  576400    292.34684   -1485.0194    506.53662    341.73424    30.449515    34646.235 
  576500    307.41947   -1475.4933    532.31344     445.1041    397.41635    34646.235 
  576600      290.522   -1457.6552    479.17528    333.49628    98.255357    34646.235 
  576700    304.68734   -1494.8662    517.65211    398.73178   -308.01696    34646.235 
  576800    295.56088   -1527.0792     489.7779    297.43014   -465.45535    34646.235 
  576900    294.59612   -1534.4087    517.12408    313.08998   -387.11431    34646.235 
  577000    311.32799   -1514.5953    501.52474    392.86401    956.82643    34646.235 
  577100    292.01639   -1571.5425    512.07381    259.25606    515.65592    34646.235 
  577200    293.66061   -1542.5847    527.46026    311.02544    812.81769    34646.235 
  577300    302.36654   -1513.5075    496.49911    348.45692    298.55706    34646.235 
  577400    302.82273   -1519.3749    512.88707    361.03757    91.482144    34646.235 
  577500    296.74491   -1541.1281    496.98945    295.93982    243.45109    34646.235 
  577600    302.78279   -1523.8189    529.11333    372.63951    324.18969    34646.235 
  577700    307.71712   -1543.6628    526.28377    372.24909    486.95543    34646.235 
  577800    297.21879   -1523.4625    524.81343    343.56933    464.66746    34646.235 
  577900    288.57135   -1527.6922    517.27025    292.74524    479.54645    34646.235 
  578000    286.79828   -1544.7226    502.20328    252.64085    157.41521    34646.235 
  578100    295.23837   -1546.4523    525.33167    312.15433    -303.4764    34646.235 
  578200    302.40012   -1512.6198    498.38412    351.38129    716.11023    34646.235 
  578300    310.04881    -1527.458    488.45984    361.15971    496.36046    34646.235 
  578400    298.33969   -1534.2442    518.35124    331.38735    670.56967    34646.235 
  578500    300.60123   -1522.4587    516.46262    351.49721    216.89668    34646.235 
  578600    299.64109   -1536.6369    502.47581    318.99623   -119.19537    34646.235 
  578700    302.14343   -1512.1435    512.12708    364.44135   -164.91728    34646.235 
  578800    293.53171   -1514.3897     526.9321    338.11024     57.60826    34646.235 
  578900    297.97485   -1519.9798    530.89056    356.54353   -157.95717    34646.235 
  579000    296.62253   -1535.6792    518.25832    322.10485   -314.75861    34646.235 
  579100    291.10953   -1514.4557    514.97802    315.15179    87.288269    34646.235 
  579200    295.10907   -1511.7548    542.24343    363.17969    200.31437    34646.235 
  579300    295.74378    -1495.023    485.17879    325.71322   -70.446106    34646.235 
  579400     310.7318   -1435.2178    543.06946    511.09389   -490.94119    34646.235 
  579500    290.48566   -1490.6974    501.08296    322.19768   -13.794225    34646.235 
  579600    305.26666    -1484.555    510.28676    404.29375    -597.2952    34646.235 
  579700    297.52981   -1498.2932    507.12309     352.4529   -417.30054    34646.235 
  579800    302.05656   -1487.0749    525.98874    402.97925   -914.11119    34646.235 
  579900    293.57936   -1516.9768     503.3493    312.15548   -607.59715    34646.235 
  580000    308.26762   -1508.9782    501.06181    384.19769   -378.10492    34646.235 
  580100    295.88192   -1482.0502    521.98997    376.12104   -181.22178    34646.235 
  580200    298.11618   -1486.2783    504.23702    364.22965    346.58153    34646.235 
  580300     301.2881   -1514.7184    532.37689    378.25359     405.7172    34646.235 
  580400    294.40145   -1460.8681    529.17937     397.8068    149.39382    34646.235 
  580500    300.37613   -1495.4761    525.65017    386.65085   -246.18153    34646.235 
  580600    299.35632    -1495.213    486.18865    342.84701   -98.546798    34646.235 
  580700    300.63586   -1510.5652    474.76867    321.85307   -530.56525    34646.235 
  580800    307.60792   -1504.2334    493.83934    378.74089   -146.62241    34646.235 
  580900    299.09778   -1520.1611    499.99824      330.541   -451.96957    34646.235 
  581000     303.2896   -1555.0052    520.67082    335.29935    19.952787    34646.235 
  581100    313.24277   -1548.2662    489.89745    356.21279    35.120935    34646.235 
  581200    292.59178   -1506.3407    499.42809    314.41064   -40.637709    34646.235 
  581300    293.50278   -1481.8164    506.97857    350.59935   -430.06845    34646.235 
  581400     308.7013   -1476.4109    535.41764    453.07937   -92.166064    34646.235 
  581500     309.7465   -1514.9673    494.56009    378.38546    130.24049    34646.235 
  581600    293.82272   -1496.9868    510.63584    340.53105    70.083699    34646.235 
  581700    301.69361   -1524.7974    506.81839    344.44738    129.08927    34646.235 
  581800    299.32583   -1499.7468    517.07219    369.05904    698.95721    34646.235 
  581900    304.56157   -1548.5627    500.57992    327.39513   -241.16299    34646.235 
  582000    300.19658   -1554.3356    475.00741    276.33773    579.96367    34646.235 
  582100    298.03912   -1536.4124    491.50717    301.01773    614.75358    34646.235 
  582200    290.39069   -1558.8826     502.9614    255.46202    651.01122    34646.235 
  582300    288.42409   -1543.6968    515.73456    274.53999    723.70947    34646.235 
  582400    297.18194   -1511.3177    518.43398    349.16833    985.09352    34646.235 
  582500    303.15514   -1516.4164    521.10061    373.71075    92.515688    34646.235 
  582600    295.63998   -1508.6333    536.72142    363.17671   -258.30261    34646.235 
  582700    297.85231    -1471.473     524.3209    397.92724    320.69286    34646.235 
  582800    302.84403   -1447.7632    519.80318    439.66157   -6.7210351    34646.235 
  582900    298.71395   -1468.9596    511.54082    391.55163   -33.047448    34646.235 
  583000    300.37804   -1440.5985    547.09634    462.98317   -384.10795    34646.235 
  583100    312.60144   -1479.2407    511.78395    444.22857   -401.35632    34646.235 
  583200    297.82461   -1425.2016    547.28208     467.0348   -483.81848    34646.235 
  583300    296.11296   -1449.9369    510.90656    398.19418    -679.3937    34646.235 
  583400    300.10375   -1467.8872    506.94717     394.3067   -312.37425    34646.235 
  583500    306.59612   -1449.2117    535.67491    471.02897   -396.51821    34646.235 
  583600    291.79019   -1504.8695    484.47508    297.30882    304.83798    34646.235 
  583700    289.18963   -1492.9498    509.76579    322.77529    357.16481    34646.235 
  583800     308.1914   -1533.0967    485.22249    343.89573    722.91581    34646.235 
  583900    294.14736   -1524.3196     513.7463    317.77478    726.80361    34646.235 
  584000    295.24325   -1462.9578    517.24321    387.58241   -50.938679    34646.235 
  584100    294.79114    -1443.051    504.05523    392.25962     336.8217    34646.235 
  584200    310.99039   -1467.2538    499.38413    436.54032   -73.319426    34646.235 
  584300    300.86479   -1523.1511    499.44549    334.97791   -258.32965    34646.235 
  584400    307.00986   -1511.8203    497.93081    372.54465     647.9415    34646.235 
  584500    300.44052   -1521.9784    503.07526    337.86444    -355.3492    34646.235 
  584600    307.20415   -1471.1918    477.41037    393.53017    -273.9723    34646.235 
  584700    301.57031   -1490.6362    481.05085     352.2842   -116.60452    34646.235 
  584800     289.9421   -1486.6638    529.22885    351.92245   -153.23774    34646.235 
  584900    296.35318   -1461.0286    504.60089    381.88171    163.87853    34646.235 
  585000    296.01697   -1481.9495    507.93841    362.78002   -337.49675    34646.235 
  585100    296.70183    -1496.238    513.37862    357.02454    293.20091    34646.235 
  585200    291.17109   -1471.0538    513.93596    357.78956    -784.1452    34646.235 
  585300    298.24199   -1431.7767    516.44183    431.50427    66.221137    34646.235 
  585400    312.22663   -1473.4845    493.08441    429.59267   -291.06716    34646.235 
  585500    305.51256   -1414.2995    520.33874    485.71174    132.10147    34646.235 
  585600    297.25521   -1481.1472     487.7444    348.98007   -260.30557    34646.235 
  585700    307.35344   -1505.9429      512.316    394.35885    394.45302    34646.235 
  585800    296.12459   -1499.2398    490.43929    328.47663    479.85545    34646.235 
  585900    301.25455   -1507.3273     497.0807    350.19704     589.3736    34646.235 
  586000     304.9029   -1510.6619    507.32058    373.57795    -74.20765    34646.235 
  586100    304.26385   -1503.0593    532.54627    403.52042    440.42839    34646.235 
  586200    298.77008   -1494.1359    527.85917    382.94717    14.050014    34646.235 
  586300    293.12439   -1524.1282    494.23752    293.83777   -61.871547    34646.235 
  586400    310.11336   -1492.7088    492.11254    399.85307   -2.2744548    34646.235 
  586500    297.04636    -1506.473     512.6809    347.64767   -267.99099    34646.235 
  586600    302.47086   -1562.0777    488.15516    292.01386   -228.61514    34646.235 
  586700    307.05844    -1514.299    485.54918    357.90371    106.96437    34646.235 
  586800    311.31378   -1494.2471    509.76081    421.38413   -489.97619    34646.235 
  586900     298.5134   -1475.2395    502.54279    375.36804   -971.65368    34646.235 
  587000    296.07044   -1492.7724    504.56819    348.82831   -695.12334    34646.235 
  587100    301.35717   -1471.8968    508.80708     397.8173   -348.17526    34646.235 
  587200    299.62553   -1514.2934    506.30145    345.09516   -52.696639    34646.235 
  587300    300.62676   -1477.3226    523.19683    403.48283    -1.839747    34646.235 
  587400    288.36368   -1495.1723     524.5968    331.65388    257.18916    34646.235 
  587500    296.06095    -1479.947    510.73714    367.77981    -219.5605    34646.235 
  587600    296.58619   -1459.9922     495.3021    374.67155    116.00726    34646.235 
  587700     293.9696    -1467.535    511.91787    371.92817   -383.97169    34646.235 
  587800    312.30213    -1448.391    533.38531    495.32799   -170.07491    34646.235 
  587900    292.83944   -1491.8047    514.10855    344.74543    89.626538    34646.235 
  588000    289.35546   -1472.9861    535.28592    369.00798    -261.9583    34646.235 
  588100     299.8525   -1476.7979    485.13886    362.45309   -786.92599    34646.235 
  588200    294.12723   -1470.2165    498.09184     356.1325   -582.44979    34646.235 
  588300    309.76149   -1497.9949    494.48453    395.34999   -1099.0345    34646.235 
  588400     310.6129   -1513.9665    535.86111    424.59989    82.912344    34646.235 
  588500    291.81024    -1502.911    500.02757    314.91042     463.2379    34646.235 
  588600    299.82323   -1507.5938     491.2667    337.65282   -205.04407    34646.235 
  588700    289.99788   -1560.2183    502.51042    251.90143    -240.2363    34646.235 
  588800    296.84404   -1514.3783     489.1534    315.30117    193.57199    34646.235 
  588900    300.15261   -1518.4354    505.34831    342.38028   -220.42499    34646.235 
  589000    305.82598   -1518.1474    516.32845    379.26894   -445.13214    34646.235 
  589100    302.67886   -1480.6935    504.35873    390.54091   -314.80649    34646.235 
  589200    310.71785   -1481.9085     501.6361    422.90685    -465.4634    34646.235 
  589300    291.90228   -1511.4072    507.78385    314.58616    -1077.033    34646.235 
  589400    300.70043   -1467.4985     515.4525     405.8953    -962.0119    34646.235 
  589500    298.76216   -1493.6514    482.95599    338.49281   -1334.4566    34646.235 
  589600    295.11261    -1501.425    519.32759    350.60966   -789.87974    34646.235 
  589700    303.34923   -1502.1544    481.59445    349.34311   -616.87452    34646.235 
  589800    303.54103   -1548.1889    465.76549    288.34578   -448.18528    34646.235 
  589900    288.38127   -1528.0717    478.66907    252.90615    71.242519    34646.235 
  590000    292.19699   -1530.1802    526.21192    315.57203    380.55134    34646.235 
  590100    311.95572   -1546.3785    488.97936    351.37014    560.08717    34646.235 
  590200    303.33734   -1530.4066    476.49355    315.93631   -37.239875    34646.235 
  590300    298.85168   -1486.4163    521.94875    385.12483   -423.15075    34646.235 
  590400    295.90299   -1461.5396    496.46453    371.20131    368.75173    34646.235 
  590500    294.12238   -1474.6812    515.58599    369.14004    -211.6349    34646.235 
  590600    291.04938   -1495.8083    540.59279    359.14228    -398.2029    34646.235 
  590700    296.33383   -1473.4267    502.92091    367.71624   -135.64594    34646.235 
  590800    305.58434   -1472.0458    522.43278    430.38361   -71.984312    34646.235 
  590900    301.81498      -1465.9    514.87156    411.94608   -447.61972    34646.235 
  591000    303.87897     -1455.03    524.45657    441.72185   -85.186313    34646.235 
  591100    293.82095   -1480.2813    498.56111    345.15382   -476.05098    34646.235 
  591200    295.62826   -1433.4262    520.01283    421.62239   -709.90093    34646.235 
  591300    283.55706   -1477.3813    497.24624    300.38794   -276.15609    34646.235 
  591400    285.87546   -1453.2373    541.28389    379.03934    -417.3534    34646.235 
  591500    292.23318    -1418.367    528.58153    429.91826   -1017.1761    34646.235 
  591600    307.40655   -1397.1899    528.30499    519.34071   -360.98057    34646.235 
  591700    303.80464   -1386.6525    520.81509    506.12218   -255.69024    34646.235 
  591800    309.83814   -1422.5774    516.08013    492.70921    192.66105    34646.235 
  591900    299.54714   -1487.6717    510.93074    375.99218    448.30739    34646.235 
  592000    301.89551   -1456.4401    505.90365    412.80168    494.02592    34646.235 
  592100    300.62586   -1513.4958    513.59249    357.70118    737.78333    34646.235 
  592200    305.50654   -1535.3523    524.40167    368.69472     104.3339    34646.235 
  592300    301.80164   -1505.5181    527.47077    384.86689    16.227061    34646.235 
  592400    296.36126   -1502.9515    499.26885    334.66321    235.95038    34646.235 
  592500    302.51231    -1469.762    538.66337    435.02495   -11.725577    34646.235 
  592600    288.48073   -1491.4686    510.74112    322.03055    96.672835    34646.235 
  592700    299.20734   -1508.9588    507.66917    349.90894    89.921941    34646.235 
  592800    309.73171   -1489.9325    526.57199    435.36534   -380.58188    34646.235 
  592900    296.06454    -1463.288    531.20936    404.92732   -1213.2849    34646.235 
  593000     297.0089   -1435.1242    496.05867    402.20508   -501.21834    34646.235 
  593100    290.31031   -1488.5919    509.40209    331.83041   -305.17872    34646.235 
  593200    293.61574   -1487.1874    520.13223    358.89219   -491.05556    34646.235 
  593300    306.08486   -1501.4502    536.76543    417.57215    198.50861    34646.235 
  593400    311.04196   -1467.4434     534.3869    471.58632    110.97332    34646.235 
  593500    301.95929   -1492.3628    520.08382    391.34718    403.37416    34646.235 
  593600    291.03211   -1521.6474    505.53403    298.16646    229.18624    34646.235 
  593700    311.34688   -1530.1444    515.44866    391.32409    445.22752    34646.235 
  593800    293.57809   -1553.6342      529.754    301.89707     512.7091    34646.235 
  593900    300.28734   -1477.8231      520.026    398.27865    672.93928    34646.235 
  594000    295.54537   -1505.6283    522.75827    351.79136    814.69694    34646.235 
  594100    302.93821   -1545.2497    531.01929    353.81648    1251.0709    34646.235 
  594200    294.33645   -1528.3246    510.05306    310.93042    421.59426    34646.235 
  594300    307.03994   -1504.8447    514.01036    395.73573    996.87105    34646.235 
  594400    296.06461   -1543.3119    509.99401    303.68831    174.92752    34646.235 
  594500    302.83543   -1534.4173    505.85832    339.02381    356.92691    34646.235 
  594600    297.43765   -1498.4657    520.22081     364.9619   -361.98287    34646.235 
  594700    296.62701   -1532.9699    500.46907    307.04517   -308.12123    34646.235 
  594800    308.64535   -1546.5301     506.5063    353.79613   -561.72823    34646.235 
  594900     295.9931   -1554.7709    527.34667    309.25908   -1022.2655    34646.235 
  595000    305.13771   -1532.3032     458.3458    304.02226   -859.32166    34646.235 
  595100    300.64446   -1503.4529    553.67501    407.91055   -1101.6305    34646.235 
  595200    298.63724   -1541.0286     520.7558    328.35126   -548.68806    34646.235 
  595300    300.01562    -1522.068    506.93113     339.7118    227.35386    34646.235 
  595400    299.49947   -1518.1796    501.94783    336.28605   -664.16407    34646.235 
  595500    301.71891   -1498.6041    519.74036    383.67694    -33.85533    34646.235 
  595600    301.47343   -1506.4526    528.61835    383.59785    -154.4017    34646.235 
  595700    310.99133   -1550.3018    497.08249    351.19491   -181.75479    34646.235 
  595800     299.8297    -1473.366    550.00898    430.65206   -523.98507    34646.235 
  595900    297.91595   -1492.8253    479.46791    332.00937    110.06802    34646.235 
  596000     294.1966   -1475.2576    509.15551    362.46829   -298.46835    34646.235 
  596100    314.31384   -1495.6039     527.3444    451.15894    -435.7303    34646.235 
  596200    292.76267   -1518.9471    496.86473    300.01255   -276.27749    34646.235 
  596300    298.80505   -1497.0011    485.71174    338.09247   -171.23837    34646.235 
  596400    296.50356   -1475.7688    502.76556    365.98523   -137.89323    34646.235 
  596500     289.3395   -1501.5806    495.03179    300.08731   -340.55602    34646.235 
  596600    300.31317   -1463.6124    513.94199    406.52199    573.40849    34646.235 
  596700    293.50263   -1502.6781     517.0166    339.77504    372.47064    34646.235 
  596800    301.30869   -1527.0626    514.76823     348.3938    576.07908    34646.235 
  596900    304.74153   -1534.0889    511.05605    353.15767   -32.619498    34646.235 
  597000    301.23662   -1483.2356    505.20232    382.32938    110.16716    34646.235 
  597100    289.40362    -1484.779    512.33056    334.47722   -484.65337    34646.235 
  597200    302.50795   -1479.2194    491.84675    378.73126    -453.6872    34646.235 
  597300    296.35707   -1474.6316    486.32304     350.0184   -73.109481    34646.235 
  597400     297.2231   -1453.4414    531.69052      420.487    283.64074    34646.235 
  597500    305.82268   -1481.6784    523.88488    423.27948   -31.929442    34646.235 
  597600    296.40363   -1522.8677    491.06087    306.73036    241.86482    34646.235 
  597700    310.26258   -1507.8667    497.66029    390.91679    173.99752    34646.235 
  597800    294.46935   -1478.9839    501.82453    352.64277    284.12364    34646.235 
  597900    303.99359   -1503.8764    517.69488     386.6314    -544.1156    34646.235 
  598000    310.15894   -1499.1142    501.44406      402.985   -145.08223    34646.235 
  598100    294.86332   -1472.8847    512.62426    371.32082   -293.53833    34646.235 
  598200    306.53429   -1489.2059    523.95508    419.03572   -311.05626    34646.235 
  598300    296.77257   -1498.0688     503.8718    346.00632    434.89868    34646.235 
  598400    300.23552   -1500.9272     500.5564     355.4709   -257.30143    34646.235 
  598500    305.04628    -1449.563     530.5221    458.52586    266.37432    34646.235 
  598600    293.29783   -1458.8114    509.59849    375.29871    1064.8527    34646.235 
  598700     304.6622   -1471.2915    531.58203    436.12291    667.58813    34646.235 
  598800    301.97256   -1467.2105    521.55072    418.02638    696.39867    34646.235 
  598900     296.5638   -1506.7814     515.6714    348.15055    27.275918    34646.235 
  599000    289.99743   -1521.7529    522.68752    310.54192    28.531928    34646.235 
  599100    305.44334   -1489.8074    530.48304    420.03557    35.110467    34646.235 
  599200    298.85174    -1526.351    501.92047    325.16213   -269.18755    34646.235 
  599300    302.64225   -1533.6807    498.51069    331.54033    660.37333    34646.235 
  599400    306.99245   -1516.1938    521.12853    391.29028    720.93071    34646.235 
  599500     316.8567   -1515.3561    539.26061    454.80626    341.73283    34646.235 
  599600    299.65673   -1518.8527     528.7119    363.08713    188.88347    34646.235 
  599700    293.78395   -1485.7865    542.46977    383.39018    164.08726    34646.235 
  599800    287.28248   -1440.3182    520.20098     377.2295   -88.613443    34646.235 
  599900    300.76236   -1514.7991     500.1971    343.61894    349.81961    34646.235 
  600000    294.33077   -1490.8063    525.73343    364.10352    85.058363    34646.235 
  600100    310.94901   -1506.4746    484.47614    382.22464    249.16182    34646.235 
  600200    292.58348   -1537.1501    503.95463    288.09023    182.97449    34646.235 
  600300    319.28318   -1510.5276    510.46853    441.80057   -812.54934    34646.235 
  600400    301.08815   -1562.5263    487.46559    284.63144   -394.54704    34646.235 
  600500     298.7883   -1494.2494    520.69137     375.7482   -763.66473    34646.235 
  600600    301.20334   -1517.2036    495.08803    338.09686   -785.31497    34646.235 
  600700    292.73413    -1529.374    487.75069    280.34267    84.924168    34646.235 
  600800    303.09082    -1523.674    484.22184    329.28389   -87.129176    34646.235 
  600900     307.9795   -1542.5642    519.04827    367.29711   -232.61953    34646.235 
  601000    301.83873   -1516.5215    516.79866    363.35891    184.60882    34646.235 
  601100    295.79319   -1532.5879    512.63407    315.82665    89.706348    34646.235 
  601200    297.76336   -1565.2835    502.99881    282.39295    258.39592    34646.235 
  601300    286.06198   -1560.7015    486.95508     218.0887    292.41354    34646.235 
  601400    320.27754   -1537.2397     506.9871    416.09745    397.42485    34646.235 
  601500    307.39421   -1533.5838    481.50954     336.0956   -201.65331    34646.235 
  601600    294.37822   -1518.6508    535.65471    346.39457    659.29313    34646.235 
  601700     300.8599   -1502.4644    507.34851    363.54551    1024.9758    34646.235 
  601800    297.68418   -1474.6005    500.58954    370.30913    676.24788    34646.235 
  601900    285.68166   -1516.8266     490.2934    263.58438    7.7318498    34646.235 
  602000    308.31866   -1497.0785    528.44649    423.71264     43.17851    34646.235 
  602100    285.54285   -1534.3095    499.35485    254.53611    -166.4291    34646.235 
  602200     305.2766   -1563.9988    490.01925     304.6274    290.04822    34646.235 
  602300      292.365   -1507.2223    525.83449    338.91125    178.88314    34646.235 
  602400    293.85156   -1564.4808    478.76123    241.29271    61.994963    34646.235 
  602500    300.46815   -1556.1154    473.01889    273.79577    668.58521    34646.235 
  602600    305.09479   -1539.8774    540.27585    378.18436   -71.592013    34646.235 
  602700    299.94102   -1521.6367    497.52554    330.40065   -38.063494    34646.235 
  602800    302.91195   -1507.7801    503.46305    363.61125   -225.96143    34646.235 
  602900    302.30108   -1524.3578    519.59437    360.40622   -424.31322    34646.235 
  603000    303.80745   -1487.4911    504.03317    388.51443   -847.88511    34646.235 
  603100    304.47096   -1478.7495    526.27718     422.4964   -396.68756    34646.235 
  603200    306.66401    -1473.963    525.55152    436.46091    -457.1078    34646.235 
  603300    311.84405   -1504.2107    520.25039    424.30474   -144.72945    34646.235 
  603400    309.39744   -1466.4541    490.24446    421.00673   -114.34912    34646.235 
  603500    309.19979   -1499.5784    492.41855    389.16396    250.32226    34646.235 
  603600    299.57706    -1506.911    524.67385    370.63109   -3.3331245    34646.235 
  603700    296.66385   -1528.8785    498.70214    309.53601    596.24517    34646.235 
  603800    304.81931   -1548.7048    516.88316    344.72013    154.22139    34646.235 
  603900    298.57376   -1526.7779    512.43351    333.99298    298.57178    34646.235 
  604000    298.31543   -1500.8699    503.06833    349.36925    609.36529    34646.235 
  604100    308.13413   -1524.1945    504.93375    372.25061    581.17847    34646.235 
  604200    301.41383    -1537.075    473.94624    298.03417    212.86617    34646.235 
  604300     310.6152   -1515.7506    502.63617    389.60123      75.7647    34646.235 
  604400    295.21206   -1494.2465    488.55619    327.46587   -7.8951783    34646.235 
  604500    297.39257   -1481.6194    485.83226     347.2161   -426.18399    34646.235 
  604600    305.17589   -1524.9095    495.49218    348.73476    307.46615    34646.235 
  604700    303.47719   -1558.6386    513.39619    325.23847     312.6613    34646.235 
  604800    309.41763   -1560.0065    487.88978    325.19077    183.18062    34646.235 
  604900    302.44174   -1523.4578    522.69847    365.04556   -117.07192    34646.235 
  605000    302.99625   -1566.2225    462.68859    264.77508   -481.98135    34646.235 
  605100    303.51735   -1611.0059    496.13137    255.78771   -472.18631    34646.235 
  605200    289.85008   -1599.3714    498.55493    208.12542   -11.817902    34646.235 
  605300    301.31588   -1562.0626    506.94033    305.59838   -466.93501    34646.235 
  605400    299.06671   -1522.5479    501.36762    329.38317   -370.91572    34646.235 
  605500    288.28997   -1531.8133    477.50629    247.58948   -781.36908    34646.235 
  605600    300.59037   -1510.1799    519.42828    366.69259   -376.70382    34646.235 
  605700    308.44973   -1529.3382    512.53231     376.1306    213.49583    34646.235 
  605800    302.78844   -1507.9161    506.20399    365.65849    376.74939    34646.235 
  605900    295.26987   -1518.6293    498.52233    313.31033    391.45702    34646.235 
  606000    300.28447   -1521.2083    487.12401    321.97854    535.14205    34646.235 
  606100    292.31008   -1527.6039    493.80912    286.25625     239.1319    34646.235 
  606200     301.1527   -1525.6396    527.95148    362.29556    31.360526    34646.235 
  606300    301.54897   -1537.8395      489.632    313.56571    196.19648    34646.235 
  606400    302.19911   -1547.0118    519.14763    336.84503    476.67466    34646.235 
  606500    293.32988   -1538.8393    507.55407    293.37119   -346.20737    34646.235 
  606600    305.78266   -1520.0087    519.59121     380.4747    132.72566    34646.235 
  606700    295.19238   -1536.3249    498.99869    295.74106   -518.13221    34646.235 
  606800     299.8453   -1510.8037    508.76865    352.04453   -259.65306    34646.235 
  606900    309.68227   -1518.0154    483.59705    364.08426   -255.83869    34646.235 
  607000    289.30069   -1513.3637    485.51205    278.60918   -528.19457    34646.235 
  607100    290.35788   -1495.8698    501.26907    316.63435   -680.93635    34646.235 
  607200    299.35134   -1537.3778    489.89229    304.36337   -167.19042    34646.235 
  607300    298.90432   -1501.9332    505.14626    353.04318    8.0055963    34646.235 
  607400    297.01203   -1521.5201    504.06726    323.83183   -80.977521    34646.235 
  607500    299.96768   -1525.0594    494.57156    324.14439   -137.08095    34646.235 
  607600     297.4335   -1515.8118    491.99508     319.3713    357.32234    34646.235 
  607700    302.93369   -1514.8451    481.68392    334.86534   -199.07736    34646.235 
  607800    298.09457   -1548.4025     488.9927    286.76364    96.651514    34646.235 
  607900    297.00512   -1471.0642    504.15421    374.34354   -544.44267    34646.235 
  608000    292.92917   -1489.2499    491.58022    325.17719   -583.93813    34646.235 
  608100     295.1225   -1491.4567    493.33626    334.63132   -302.06801    34646.235 
  608200    310.21909   -1486.5064    559.30092    473.72138    -399.2301    34646.235 
  608300    297.13019   -1446.0041    505.15424    400.96847   -13.310541    34646.235 
  608400    302.64357   -1505.1075    520.65495    382.26385    15.502244    34646.235 
  608500    292.10579   -1518.2933    496.45892     297.2941     157.1965    34646.235 
  608600    301.04565   -1522.7686    493.04911    329.78074   -262.59438    34646.235 
  608700    305.48865   -1513.6671    528.06332    393.96072   -456.99688    34646.235 
  608800    298.50513    -1509.788    496.63852    334.87792   -263.24947    34646.235 
  608900    305.76693   -1516.6281    501.62712    365.82025   -608.52872    34646.235 
  609000    289.34323   -1492.7373    539.09238    353.00803     -1029.78    34646.235 
  609100    295.33678    -1506.047    497.19438     324.8668   -682.10191    34646.235 
  609200    301.79473   -1534.6284    495.76695    324.02156    327.59676    34646.235 
  609300    299.13778   -1533.3368    497.06163    314.60921    1173.7883    34646.235 
  609400    298.58985   -1512.1298    501.95078      338.231    771.45749    34646.235 
  609500    307.62963   -1450.3188    519.11761    458.03183    691.73269    34646.235 
  609600    288.41523   -1496.6933    513.89973    319.66861   -297.21442    34646.235 
  609700    306.88743   -1504.3932    516.73728    398.22543   -386.17859    34646.235 
  609800    308.22084   -1478.2186    513.61982     427.3041   -265.60082    34646.235 
  609900    294.30461   -1466.5929    523.80023    386.26554   -17.384759    34646.235 
  610000    298.61477   -1461.1428    503.60117    390.98089    -30.47131    34646.235 
  610100    303.70468   -1518.1124    493.28965    346.68549   -470.52728    34646.235 
  610200    296.03467    -1484.954    504.87171    356.78876    498.33741    34646.235 
  610300    292.77852   -1493.3675    502.67077    331.46976    637.84394    34646.235 
  610400    306.68252   -1498.5731    530.80232    417.18518    50.133338    34646.235 
  610500    288.32079   -1517.0221    493.55584    278.56948    -574.1389    34646.235 
  610600    306.46764   -1544.9199    504.59714    343.66277   -20.899545    34646.235 
  610700    296.84857   -1487.7994    493.81351    346.56064   -50.234333    34646.235 
  610800    305.31035   -1532.6808    511.73864    357.81718   -841.02166    34646.235 
  610900    301.35799   -1514.8352    503.23457    349.31016   -558.46789    34646.235 
  611000    301.74316    -1497.845    477.08912    341.89431   -36.915354    34646.235 
  611100    301.69695   -1487.5575    489.69861     364.5826    531.64359    34646.235 
  611200    285.84968   -1494.9504    508.44589    304.37179    115.61898    34646.235 
  611300      299.887   -1491.6769    519.09439    381.68539    444.14787    34646.235 
  611400    303.61172   -1519.0401    504.86947    356.91781    45.339524    34646.235 
  611500    303.31566   -1515.7593    501.79111    355.78329    416.00069    34646.235 
  611600    295.76584   -1523.8408     519.1731    330.98933    254.95604    34646.235 
  611700     305.3981    -1516.566    522.43894    385.02851    418.31493    34646.235 
  611800    306.53949   -1485.7033    519.16725    417.77399    288.07934    34646.235 
  611900    307.17906    -1508.503    477.25079    355.94611   -451.82967    34646.235 
  612000     313.9288   -1456.2295     512.4929    473.94298    -226.2191    34646.235 
  612100    298.61044   -1477.3363     520.6435    391.81019    37.450573    34646.235 
  612200    293.37109   -1540.2204    477.83018    262.45229   -83.325496    34646.235 
  612300    305.49478   -1552.2277    517.49878    344.86329    42.427876    34646.235 
  612400    290.19332   -1541.1125    528.67955    298.05891   -730.69317    34646.235 
  612500    291.41671   -1542.9175    492.08136    265.18055   -396.57365    34646.235 
  612600    311.30046   -1545.7612     503.3529    363.40187    77.309211    34646.235 
  612700    299.07529    -1556.037    515.80655    310.37176   -1090.0057    34646.235 
  612800    306.36516   -1484.8147    478.12432    376.83234   -503.83526    34646.235 
  612900    296.96859   -1509.1804    515.00898    346.91708   -153.60282    34646.235 
  613000      298.722   -1477.8903    518.25245    389.36895    191.80592    34646.235 
  613100    302.79105    -1497.707    503.69148    373.36684    369.12018    34646.235 
  613200    295.65417   -1492.4029    530.68189    373.43171   -293.77955    34646.235 
  613300    292.75013   -1478.7815    536.05189    379.30871   -254.12757    34646.235 
  613400    293.42252   -1472.1191    517.77633    370.73196      -303.76    34646.235 
  613500    291.12258   -1468.9069    531.71297    377.49446    149.99277    34646.235 
  613600    305.61913   -1471.7042    518.73698    427.18648   -74.785038    34646.235 
  613700    295.87632   -1443.5198    523.59652    416.23267    579.47633    34646.235 
  613800    305.82004   -1471.5119    535.44308    444.99223   -490.61772    34646.235 
  613900    304.75741    -1431.598    516.40626    461.07056   -380.71638    34646.235 
  614000     300.7943   -1489.5168    502.90337    371.75173   -98.998702    34646.235 
  614100    294.51875   -1480.2247    541.17895    390.97947      -207.35    34646.235 
  614200    304.35082   -1506.5333    545.24003     413.1329    330.62756    34646.235 
  614300    300.50952   -1477.2213    506.61548    386.47327    -26.42732    34646.235 
  614400    292.95177   -1460.6546    525.40493    387.69916   -266.01653    34646.235 
  614500     299.7919   -1466.3012    529.06428    416.60152   -112.66119    34646.235 
  614600    296.11707   -1465.7172    489.79455    361.32049    120.67573    34646.235 
  614700      302.497   -1460.3133     523.4923    429.23348    313.85316    34646.235 
  614800    294.01808   -1439.1954    530.24588     418.8147    476.30874    34646.235 
  614900    312.64427   -1464.5092    504.83669    452.20627    72.727126    34646.235 
  615000    299.04658   -1428.5238    507.46222    429.41101    -357.4169    34646.235 
  615100    299.32767   -1448.9711    512.07138     414.8423     249.6947    34646.235 
  615200    297.40105   -1421.1911    511.66755    433.51795    591.46797    34646.235 
  615300    292.84379   -1486.6704    526.01551    361.80632   -91.742262    34646.235 
  615400    295.53588   -1456.9797    517.46334    395.10218    1005.4647    34646.235 
  615500    304.86947   -1494.8011    514.48943    396.45665    849.46099    34646.235 
  615600     293.7538    -1459.751    539.42966    406.24938   -73.290752    34646.235 
  615700    301.34389   -1459.0629     495.9353    397.71951   -49.873383    34646.235 
  615800    302.99523   -1451.7391    534.34909    450.91447   -334.46787    34646.235 
  615900    303.13474   -1472.4133    492.59835    389.11942    -302.9455    34646.235 
  616000     301.1964   -1513.3873    516.68811    363.48184   -543.32422    34646.235 
  616100    292.53255   -1476.9237    501.49253    345.62454   -436.82059    34646.235 
  616200    299.72369   -1506.6465    533.32234    380.20625    521.49768    34646.235 
  616300    289.92773   -1466.9526    495.89066    338.23062    387.94403    34646.235 
  616400    301.02512   -1478.7968    542.00666    422.61737    751.93671    34646.235 
  616500    299.23631   -1522.0859    503.98476    333.22828    258.87262    34646.235 
  616600    293.51911    -1512.086     509.8528    323.27774   -112.41632    34646.235 
  616700    290.50624   -1504.4631    523.22556    330.66754   -374.01513    34646.235 
  616800    304.32711   -1506.7239    516.09272    383.68793   -473.59216    34646.235 
  616900    294.56577   -1519.9926    501.77176    312.01677   -560.15284    34646.235 
  617000    295.57537   -1499.2108    502.29788    337.88398   -183.02163    34646.235 
  617100    294.23333   -1472.0584     481.7784    338.45636   -1071.7982    34646.235 
  617200    305.73864   -1479.8414    501.17373    402.02582   -524.83065    34646.235 
  617300    302.73949   -1453.3634    515.47484    429.26094   -595.71224    34646.235 
  617400    293.35041   -1471.7907    526.52714    379.48556    -167.3309    34646.235 
  617500    307.00278   -1459.8737    511.30746    437.83597   -160.84929    34646.235 
  617600    308.54353   -1480.5843    503.04917    415.82504    -14.21719    34646.235 
  617700    306.14221   -1497.6076    538.51654     423.4249    -12.02313    34646.235 
  617800    306.29693   -1520.1033    487.85114    350.96249    96.943469    34646.235 
  617900    308.14748   -1471.3003    482.81758    403.08888   -390.92836    34646.235 
  618000    290.15433   -1482.2741    518.62068    346.66239   -672.68565    34646.235 
  618100    297.28837   -1477.9535    498.82295    363.40208    89.531517    34646.235 
  618200     302.2852   -1481.9911     512.1541    395.26094   -333.62848    34646.235 
  618300    300.04221   -1491.0114    515.41504    379.37239    98.059749    34646.235 
  618400    298.06688    -1525.092    500.91382    321.87018    332.80162    34646.235 
  618500    301.40829   -1491.5502    493.52975     363.1174    482.16167    34646.235 
  618600    300.56564   -1502.9904     497.9635    352.30567    317.36942    34646.235 
  618700    296.70864   -1527.6737    511.03925    323.28015    719.26571    34646.235 
  618800    295.28062   -1518.3907    498.81475    313.88984    41.196605    34646.235 
  618900    302.22112   -1511.9934    505.57975    358.39497    110.99715    34646.235 
  619000    296.19407   -1463.0027    532.12602    406.71421   -255.12715    34646.235 
  619100    306.56404   -1489.3228    507.89513    402.99326     -521.341    34646.235 
  619200    289.28887   -1483.2422    484.19421    307.35948   -794.56162    34646.235 
  619300    305.64167   -1527.5267    492.01135    344.74017   -1333.2165    34646.235 
  619400    299.01343   -1494.8514    512.85891    368.33041    -583.7993    34646.235 
  619500    298.38659   -1494.7337    508.89752    361.65598   -280.41874    34646.235 
  619600    297.79552   -1495.4281    496.75097    346.14576   -119.54813    34646.235 
  619700    296.68936   -1460.2622     516.2724    395.83777   -205.41783    34646.235 
  619800    292.87289   -1499.9691    501.61018     324.2337   -441.07526    34646.235 
  619900    290.04771    -1471.079    508.04407    346.79941   -244.92376    34646.235 
  620000    291.92901   -1537.6322    486.65221    267.35022    206.98096    34646.235 
  620100    293.92136   -1562.8834    531.83929    296.28338    163.96336    34646.235 
  620200    295.85914   -1543.4762    515.07298    307.67508    413.27825    34646.235 
  620300    298.78636   -1522.2595    508.42875    335.46667    287.66416    34646.235 
  620400    305.30539   -1554.3234    503.97515    328.38869    159.78852    34646.235 
  620500     306.1907   -1500.8575    509.12677    391.00418    298.68586    34646.235 
  620600    304.19388   -1514.6568     513.8436    372.90421    13.132029    34646.235 
  620700    309.44525   -1565.7048    464.28181    296.00929   -800.70719    34646.235 
  620800     299.9983   -1527.3822    501.85484    329.24311   -797.48265    34646.235 
  620900    288.15726   -1484.5352    508.43678    325.19883   -621.33331    34646.235 
  621000     299.2843   -1463.6354    514.92764    402.83839   -553.77653    34646.235 
  621100    286.38175   -1502.5382    519.83076    310.57167   -682.34976    34646.235 
  621200     300.6053   -1484.9164    521.77858    394.37384   -273.22099    34646.235 
  621300    293.18875   -1517.8192    508.87607    315.07595   -302.06213    34646.235 
  621400    291.80739   -1515.1096    528.37379    331.04508     -486.223    34646.235 
  621500    303.26422   -1527.3917    496.25916    338.38657   -930.60985    34646.235 
  621600    297.29018   -1488.9907    500.72215    354.27229   -586.08735    34646.235 
  621700    301.19339   -1480.0923    482.73738    362.81251   -1070.7626    34646.235 
  621800    295.16181   -1470.8323    478.31473    340.41163   -47.081133    34646.235 
  621900    306.17049   -1502.1127    511.72177    392.25273    462.35623    34646.235 
  622000    304.20964   -1523.8784    525.95341    375.86366    437.01734    34646.235 
  622100    291.74345   -1505.8767    521.00478    332.62024    750.29494    34646.235 
  622200    309.20254   -1485.7263    491.15409    401.76398    346.46965    34646.235 
  622300    303.04795   -1536.5738    503.73306    335.70174    418.42947    34646.235 
  622400    303.75215   -1524.4281      502.368     349.6625    154.34104    34646.235 
  622500    303.38924   -1523.0716     509.7567    356.76881   -226.93931    34646.235 
  622600    309.56029   -1563.4105    515.75277    350.29402   -106.39728    34646.235 
  622700    287.11021   -1531.8776    493.42533    258.11651    321.67312    34646.235 
  622800    298.26278   -1593.8983    493.03118     246.0659    18.083137    34646.235 
  622900     301.9758   -1546.9884    501.50293    318.21523    577.98846    34646.235 
  623000    302.28301   -1559.0396    511.83311     317.8816    182.70366    34646.235 
  623100    307.65443     -1539.12    474.36947    324.59453   -207.03586    34646.235 
  623200    294.39405   -1501.3043    508.49475    336.65256   -243.00383    34646.235 
  623300    301.93691   -1515.4407    510.81936    358.90374   -339.47879    34646.235 
  623400    297.89484   -1504.5352    533.28565    374.02186     554.6128    34646.235 
  623500    304.34548   -1505.2428    484.95747    354.11676    -136.4078    34646.235 
  623600    305.47379   -1484.2828    525.27054    420.48519    0.2584346    34646.235 
  623700    303.03598   -1536.0333    511.95978    344.41488   -357.20247    34646.235 
  623800    291.20326   -1504.9674    482.62478    292.71014   -701.19578    34646.235 
  623900    304.34587   -1472.3077    501.50441    403.60053    328.19048    34646.235 
  624000    293.73783   -1523.0958    525.30033    328.70326    525.58469    34646.235 
  624100    304.24432     -1525.99    494.82978    342.78496    654.78261    34646.235 
  624200    307.64314    -1496.592    535.95713    428.65915    153.17102    34646.235 
  624300    299.82843   -1472.5945    521.34012    402.74902    386.29621    34646.235 
  624400    290.48548   -1483.2988    514.98308    343.49555    -104.4335    34646.235 
  624500    295.77262   -1478.3692    515.94266    373.26111   -268.79834    34646.235 
  624600    302.55102    -1494.834    524.31471    395.77906   -449.94759    34646.235 
  624700    305.93634   -1522.8483    500.69839    359.43637   -87.523768    34646.235 
  624800    295.79878   -1510.7152    519.26984    344.36044    612.39736    34646.235 
  624900    308.56541   -1533.0818    501.40399    361.78116    171.06765    34646.235 
  625000    305.32974   -1541.2177    532.92323    370.55243    619.54738    34646.235 
  625100    298.58282    -1517.953    496.32236    326.74767    501.85206    34646.235 
  625200    297.00674   -1474.1471    514.63452     381.7482    19.945265    34646.235 
  625300    300.79574   -1462.9162    503.08586    398.54135    323.04881    34646.235 
  625400    291.94555    -1531.111    496.57168    283.86554   -667.38669    34646.235 
  625500    295.00708   -1530.9261     512.3178    313.62214   -22.096953    34646.235 
  625600    304.80075   -1545.5003    524.17628    355.13403    398.72195    34646.235 
  625700    296.13173   -1502.2086    511.96367    347.06446    231.90875    34646.235 
  625800    300.75118   -1520.7926    525.81793    363.19581    -225.0874    34646.235 
  625900    308.22486   -1484.2186    530.96429    438.66668    380.32997    34646.235 
  626000     301.3443   -1561.4929    498.17332    297.52933    205.82251    34646.235 
  626100    296.51741   -1546.3081    505.88549    298.62841   -6.9867199    34646.235 
  626200    295.32939    -1522.212    492.72082    304.19487    90.568295    34646.235 
  626300    300.22511   -1534.7903    496.16891    317.17341   -327.51364    34646.235 
  626400    310.02636   -1531.9649    498.93502    367.02658   -258.21122    34646.235 
  626500    305.37446     -1538.84    491.40578    331.61463     101.6958    34646.235 
  626600    290.85943   -1519.3699    499.41524    293.54537   -673.34969    34646.235 
  626700    306.30987   -1543.7041    511.87217    351.44119   -92.562886    34646.235 
  626800     303.7664   -1547.7483    475.88729    299.92599   -240.15676    34646.235 
  626900    297.47373   -1498.6122     515.9144    360.67192    45.315808    34646.235 
  627000    300.75384   -1536.6801    526.42303    347.92535    101.74586    34646.235 
  627100    305.42821    -1528.136    521.01605    372.17161    63.712502    34646.235 
  627200    304.34576   -1492.1986    512.16594    394.37066   -78.702708    34646.235 
  627300    288.82939   -1481.9145    504.27252    326.69054   -429.74937    34646.235 
  627400    306.16155   -1473.6245    519.21644    428.19519   -336.06434    34646.235 
  627500     291.5471   -1490.9605    520.39849    346.04348   -691.37317    34646.235 
  627600    297.95905   -1490.1053    492.57697    348.03311   -178.69028    34646.235 
  627700    290.55692   -1498.4012    518.97034    332.70302   -780.98436    34646.235 
  627800    289.37179    -1528.856    500.81401    278.73996    -270.9751    34646.235 
  627900    290.50783   -1509.0109    534.41879    337.32006   -124.27042    34646.235 
  628000    309.27386    -1464.719    500.16547    432.10476    -184.1001    34646.235 
  628100    306.39669   -1473.7441     506.7672    416.68828    101.52869    34646.235 
  628200    304.92641   -1494.4891    522.61528    405.15165   -254.07508    34646.235 
  628300    294.41556   -1466.7477    513.16872     375.9803    -17.04813    34646.235 
  628400    311.66143   -1503.8589    540.31001    443.89143   -544.10517    34646.235 
  628500    302.74349   -1503.4494    500.85333    364.57152   -123.69995    34646.235 
  628600    291.43634   -1507.3249    509.95909    318.73954    -454.4215    34646.235 
  628700    304.23601   -1540.3531    514.65094    348.20546   -437.32462    34646.235 
  628800     305.1685   -1507.1805    512.12976    383.06797   -425.68199    34646.235 
  628900    303.01098   -1529.6859    512.71875    351.40835    323.43311    34646.235 
  629000    297.47356    -1492.367    502.79952    353.80143    69.312312    34646.235 
  629100    301.59679   -1479.3002    518.82535    401.51435    52.590577    34646.235 
  629200    294.89717   -1552.5525    513.41932    292.60102   -189.23731    34646.235 
  629300     305.4788    -1521.769    506.52656    364.27763    362.62702    34646.235 
  629400    292.07679   -1525.7451    501.91783    295.17023   -187.19617    34646.235 
  629500    293.31985   -1473.8584    507.18442     357.9371   -458.91408    34646.235 
  629600    294.90583   -1494.7941    542.17037    379.14951   -763.19178    34646.235 
  629700     295.6143   -1471.9646    498.60033    361.60836   -899.81037    34646.235 
  629800    299.15153    -1511.412    523.57896    363.11345   -696.85971    34646.235 
  629900    297.21799   -1499.3385    490.11907    332.99533   -52.750656    34646.235 
  630000    302.19004   -1453.5183    538.19358    449.34346    206.90356    34646.235 
  630100    300.31601   -1468.6452    502.93169    390.49176   -171.18937    34646.235 
  630200    294.09595   -1476.3881    478.33345    330.06131    -392.8801    34646.235 
  630300    292.98444   -1461.1245    530.00573    391.97767   -142.20869    34646.235 
  630400    292.43793   -1460.6413     531.8753    391.86239    171.29407    34646.235 
  630500    293.08914   -1480.4278    542.29623    385.43771    83.309396    34646.235 
  630600    297.14149   -1489.3483    525.64556    378.16662    424.94843    34646.235 
  630700    299.19062   -1504.5215     511.6808     358.2824    286.68111    34646.235 
  630800    294.01632     -1455.77    529.01655    401.00287    525.09009    34646.235 
  630900    305.43473   -1481.3173    487.30125     385.3049   -55.515218    34646.235 
  631000    295.73346   -1488.1396    515.71081    363.08196    843.63398    34646.235 
  631100    304.62454   -1520.5733    524.39939     379.4883    1030.7717    34646.235 
  631200    299.48375   -1489.6336    483.36906    346.18225    489.99013    34646.235 
  631300    302.26561    -1481.968    549.60819    432.64967     851.4353    34646.235 
  631400    300.66308   -1551.3555    498.41579    304.83285    313.48378    34646.235 
  631500    306.53376   -1559.8952    530.11643     354.5054    761.31171    34646.235 
  631600    293.10793   -1558.3562    484.00374    249.30159    123.21062    34646.235 
  631700    291.63032   -1552.0566    493.97707    258.90175     133.0217    34646.235 
  631800    299.73824   -1560.0639    506.99664    300.52876    164.08104    34646.235 
  631900    298.64609   -1554.8079    522.85405    316.71018   -638.94094    34646.235 
  632000    303.72925   -1485.9774    498.92207    384.56388    -252.2902    34646.235 
  632100    296.76634     -1534.83    531.21128     336.5565   -513.22399    34646.235 
  632200    304.80423   -1549.0622    510.20951    337.62102   -491.34462    34646.235 
  632300    309.52665   -1520.2401    499.79297    377.35271    -189.0552    34646.235 
  632400    306.59113   -1462.1753    521.55997     443.9279   -286.19555    34646.235 
  632500     300.9327    -1472.676    517.58472     403.8989   -50.790514    34646.235 
  632600    308.34977   -1485.2189      530.154    437.42028    -57.56652    34646.235 
  632700    297.24644   -1479.7588    527.93859    390.52311   -333.90365    34646.235 
  632800    303.94415   -1501.1135    533.90454     405.3807   -60.703503    34646.235 
  632900    306.25816   -1513.6227    506.35073    375.76761    60.828076    34646.235 
  633000    299.98889   -1522.6159    509.66227    341.77432    688.92159    34646.235 
  633100    312.13565   -1538.0818    519.40124     390.9013    629.74621    34646.235 
  633200    292.02069   -1493.7064    510.52697    335.56477    767.30682    34646.235 
  633300    310.19019    -1492.493    543.97614    452.27945    729.86325    34646.235 
  633400    298.04537   -1528.2143     499.1454    316.88234   -258.27765    34646.235 
  633500    297.67116   -1511.4464    513.43658    346.25152   -241.72021    34646.235 
  633600    293.77756   -1495.0295    534.78168    366.43028    -28.87986    34646.235 
  633700    303.43501   -1509.0806    529.00995    390.21979    569.28533    34646.235 
  633800    299.42431   -1537.3539    500.70523    315.52972   -114.99456    34646.235 
  633900    306.95597   -1546.2928    508.33418    348.23225    236.45799    34646.235 
  634000    291.59968   -1536.5353     496.4895    276.79717    30.484573    34646.235 
  634100    292.94473   -1506.6526    520.25947    336.52394   -72.759193    34646.235 
  634200    299.44805   -1489.7866    515.01719    377.51623    504.89087    34646.235 
  634300    295.15607   -1562.6083    509.75756    280.05258    314.12279    34646.235 
  634400    308.25045   -1488.2198    518.09676    421.91352    50.575893    34646.235 
  634500    289.94138   -1458.1377    536.95104     388.1675    133.71677    34646.235 
  634600    305.02674   -1490.4896    522.31536    409.30428    369.76039    34646.235 
  634700    307.64105   -1465.9199    513.80418    437.16889   -13.115948    34646.235 
  634800    307.50064   -1502.1419    512.64435    399.15302    459.92408    34646.235 
  634900    302.62741    -1545.439     526.9506    348.15493    781.46907    34646.235 
  635000    294.67618   -1531.3576     496.7597    296.13834     373.5348    34646.235 
  635100    301.25646   -1490.1009    523.88661     394.2379    700.46763    34646.235 
  635200    315.03409   -1527.0031    537.03438    432.70233    442.16555    34646.235 
  635300     292.6822   -1545.1371    518.81269    295.40709   -603.98593    34646.235 
  635400    305.06878   -1545.7979    489.69536     321.5659   -240.34195    34646.235 
  635500     297.3323   -1533.0327    534.28829    343.98666   -239.10775    34646.235 
  635600    306.41335   -1534.0153     495.0085    344.73354    23.661249    34646.235 
  635700    305.78037    -1516.371    537.50039    402.01131    519.63276    34646.235 
  635800    292.88229    -1552.579    528.55333    298.60945   -121.93478    34646.235 
  635900    287.55539   -1538.5117    543.27416    303.34167    19.231968    34646.235 
  636000     295.1363    -1504.705    520.31906    348.42808   -238.11977    34646.235 
  636100    303.42884   -1574.8994    491.54239    286.90556   -42.501742    34646.235 
  636200    308.52558   -1551.6487    492.64844    334.27882    -106.6481    34646.235 
  636300    300.48211   -1513.7311    496.09828    339.32256    461.92305    34646.235 
  636400     295.4901   -1469.3198    525.16787    390.25989   -24.022132    34646.235 
  636500     295.6183   -1495.9258    509.64274    348.70771    -285.1314    34646.235 
  636600    301.80143   -1559.0037    476.64079    280.55039    275.88019    34646.235 
  636700     292.5986   -1534.2474    525.06651    312.17308    769.08156    34646.235 
  636800    301.31454   -1528.2875    535.02161    367.44867    424.30856    34646.235 
  636900    298.21727    -1540.762    497.47739    303.44289    433.39391    34646.235 
  637000    303.01053    -1535.441    526.42816    359.36066   -642.31011    34646.235 
  637100    300.43901     -1536.43    522.71163     343.0423   -402.31546    34646.235 
  637200    309.49836   -1550.1025    488.01566    335.58522   -131.01755    34646.235 
  637300    297.02163   -1535.4423    523.74736    329.63311    -122.3839    34646.235 
  637400    309.51297   -1544.3721    483.03037    336.39629    47.980304    34646.235 
  637500    298.69329   -1541.2592    523.74908     331.3671    96.053367    34646.235 
  637600      296.423   -1584.6579    479.41907    233.38583   -325.35366    34646.235 
  637700    295.49705   -1521.2614    464.27143     277.4532   -247.92245    34646.235 
  637800    300.58321    -1492.888    536.32715    400.85107   -375.15684    34646.235 
  637900    293.26723   -1484.8028    514.63763    354.20829    53.687123    34646.235 
  638000    305.05188   -1528.8122    490.57166    339.35154   -189.84134    34646.235 
  638100    305.65524   -1548.2491    508.85695     340.9246   -11.902942    34646.235 
  638200     301.1484   -1576.7148    458.51524    241.76472   -309.14698    34646.235 
  638300    305.26727   -1500.3809    536.78041    414.96432   -386.60716    34646.235 
  638400    295.91193   -1555.4584     492.4528    273.31107    371.92901    34646.235 
  638500    307.43042   -1531.1405    518.78163    375.97457    180.99137    34646.235 
  638600    295.79417   -1507.3319    497.74075    326.19384    562.48638    34646.235 
  638700    297.48306   -1536.6309    515.98546    322.76641     8.633034    34646.235 
  638800    297.55469   -1547.4705    504.40092    300.66573    378.60507    34646.235 
  638900    296.16066   -1510.5808    502.25146    329.11069    343.62161    34646.235 
  639000    303.10821   -1522.2879    514.94581    361.47255    650.82468    34646.235 
  639100     298.6278   -1547.3745    513.94596    315.15282   -59.948637    34646.235 
  639200    308.40869   -1469.7035     516.3786    439.42626   -182.24173    34646.235 
  639300    306.53101    -1528.065    500.70178    356.90853    235.49881    34646.235 
  639400    302.04491   -1497.9433    525.51295    391.58247    481.31295    34646.235 
  639500    301.66324   -1497.8427    540.39471    404.84122    548.91366    34646.235 
  639600    299.52883   -1514.2214     518.1372    356.56623    97.661169    34646.235 
  639700    286.33035   -1460.0286    525.08994     358.1084   -76.543349    34646.235 
  639800    300.87583   -1420.1865    536.51598    475.06282   -24.157593    34646.235 
  639900    301.55896    -1454.344    523.87203    431.34633   -454.37676    34646.235 
  640000     288.1188   -1447.4656    505.93366    359.59162   -1212.0783    34646.235 
  640100     298.0753   -1499.5972    512.07076    358.55997   -1242.9855    34646.235 
  640200    312.20578   -1508.9634    495.63136    396.56652   -1520.9128    34646.235 
  640300     303.4794   -1468.3441    517.57995    419.72673   -832.99835    34646.235 
  640400    292.38562   -1515.5674    536.16745    340.99218    -1473.527    34646.235 
  640500    293.43321   -1522.1303    497.57923      300.572   -705.69598    34646.235 
  640600    306.72252   -1532.5045    501.53718    354.16921   -669.09025    34646.235 
  640700     302.7208   -1549.9898    519.05326    336.12862   -786.45048    34646.235 
  640800    303.70249   -1493.5335    496.66812    374.63299   -367.49865    34646.235 
  640900    286.10978   -1525.4116    533.71715     300.3565   -1012.0652    34646.235 
  641000    302.32374   -1521.0436    526.50714    370.73558    163.85525    34646.235 
  641100    301.28718   -1473.5257    486.16136    373.22665    301.28769    34646.235 
  641200    300.54745   -1525.6973     534.4677    366.02082    316.57528    34646.235 
  641300    292.44565   -1525.6848    512.17544    307.15395     585.2253    34646.235 
  641400    303.48324   -1491.3571    521.49816    400.64931     703.6957    34646.235 
  641500     291.9346   -1519.7913    507.48201    306.04609    230.72173    34646.235 
  641600    300.71334   -1489.0949     524.9741    393.87876    52.055179    34646.235 
  641700    289.80583   -1502.2241    488.37877    294.89673   -137.54891    34646.235 
  641800    292.89391   -1499.2409    507.44522    330.89187   -115.78136    34646.235 
  641900    293.88485   -1463.9479    525.09594    388.31065    49.813818    34646.235 
  642000    304.35624   -1486.6757    518.72081    406.49569    159.65986    34646.235 
  642100     299.6643   -1517.5978    521.47858    357.14301    945.85279    34646.235 
  642200    290.91521   -1536.1674    538.18603    315.77059   -42.024267    34646.235 
  642300    294.32061   -1552.3291    518.40051    295.20188    118.05563    34646.235 
  642400    300.27868    -1523.649    492.15983    324.54752    236.23821    34646.235 
  642500    286.48448   -1512.5679    516.04374    297.21893   -96.679299    34646.235 
  642600    299.53668   -1570.5631    467.31653    249.43928   -182.31304    34646.235 
  642700    297.88117   -1527.4267    521.16077     338.9438    379.39679    34646.235 
  642800    310.91454   -1502.5254    492.63042    394.17247    155.19708    34646.235 
  642900    303.69096   -1492.8195     503.9434    382.57015   0.16174275    34646.235 
  643000    297.38206   -1506.5459    504.84955    341.25937    86.777676    34646.235 
  643100    297.07133   -1521.6521    523.41461      343.315    324.93161    34646.235 
  643200    302.57236   -1511.3371    487.12072     342.1784   -244.84937    34646.235 
  643300     305.1431      -1517.4    529.65789    390.26195   -139.89432    34646.235 
  643400    294.76184   -1479.4315    512.79035    364.48185    81.176305    34646.235 
  643500    311.25962   -1525.6699    508.94751     388.9034    445.00679    34646.235 
  643600    300.20462   -1533.3835    496.27235    318.59103    197.77672    34646.235 
  643700    301.08114   -1549.7462    486.77788    296.69217    416.25293    34646.235 
  643800    297.06053   -1525.9423     536.5312    352.09264    19.032033    34646.235 
  643900    298.55463   -1508.4285    527.05846    366.88096    512.65122    34646.235 
  644000    300.42835   -1530.3223    516.00987    342.40018      530.881    34646.235 
  644100    304.50334   -1491.7436      547.228    430.59935    672.78402    34646.235 
  644200      306.953   -1506.8745    500.56981    379.87274    616.08685    34646.235 
  644300     290.9218    -1504.227    503.13994    312.69457    385.39312    34646.235 
  644400    296.21764   -1467.5764    494.91365    365.03455    524.01122    34646.235 
  644500    308.32133   -1490.6961    502.67697    404.33759    513.44093    34646.235 
  644600    295.66813   -1497.6279    498.04812    335.63593     334.5767    34646.235 
  644700    299.28669    -1503.195    506.88191    355.24387     409.6579    34646.235 
  644800    298.66062   -1513.2398    518.19371     353.6835    282.69945    34646.235 
  644900    300.04938   -1472.2014     548.6168     431.4166   -441.05794    34646.235 
  645000    293.98733   -1483.1038    491.28729    335.80888   -205.87428    34646.235 
  645100    295.54826   -1488.6501    516.72611    362.75041   -247.46076    34646.235 
  645200    298.95466   -1516.8574    511.14603     344.3461    14.350743    34646.235 
  645300    296.30598    -1495.947    532.39973    374.54896   -41.086459    34646.235 
  645400    295.36769   -1467.8178     532.5019    398.54307   -43.938627    34646.235 
  645500    292.66272   -1518.3264    497.99851    301.31565   -414.53081    34646.235 
  645600    294.83899   -1506.7718    494.15578    318.85539   -558.94893    34646.235 
  645700    296.14401   -1486.2713    531.31146    382.40493   -580.34099    34646.235 
  645800    296.02859   -1490.2072    510.91782    357.55417   -419.22109    34646.235 
  645900     301.0611   -1459.3793    508.71146    408.90212   -166.96573    34646.235 
  646000    291.25802   -1474.3179    519.25163    360.23379    -481.2753    34646.235 
  646100    312.74924   -1511.6307    515.18434    415.90646    38.118073    34646.235 
  646200    303.44051   -1482.6202    481.95862    369.65374    -60.70634    34646.235 
  646300    304.07426   -1477.8598    508.20636    403.52383    432.29773    34646.235 
  646400    291.12663   -1523.0062    527.28866    318.98916    188.37408    34646.235 
  646500    302.83533   -1505.5368    504.90225    366.94771     163.8963    34646.235 
  646600    303.81034   -1509.3856    531.57042    394.17018    327.49639    34646.235 
  646700    313.24123   -1468.6491    514.90397    460.82946    111.57545    34646.235 
  646800    292.66834   -1478.2617    527.07523    370.48246   -381.76856    34646.235 
  646900    295.95398   -1474.1403     511.8065    374.17284   -153.18864    34646.235 
  647000    292.24882   -1469.2751    496.70052    347.19981    143.28045    34646.235 
  647100    287.42254   -1515.9517    502.57662     284.6042    410.17668    34646.235 
  647200    294.72269   -1545.6039    504.17807    289.52039   -197.87332    34646.235 
  647300    304.44244    -1506.159    504.47314      373.154    573.05002    34646.235 
  647400    305.91193   -1505.8916    515.51484    391.09921    -92.24714    34646.235 
  647500    298.61837   -1475.5082    526.66569    399.69635    37.555895    34646.235 
  647600     297.9094   -1510.7257    511.43589    346.04735   -283.31776    34646.235 
  647700    298.90756   -1470.8929    520.45131    399.40324   -659.82611    34646.235 
  647800    301.22295   -1514.4155    496.70477    342.59018   -823.82903    34646.235 
  647900    299.79437   -1522.4991    492.13752    323.48803    -213.2949    34646.235 
  648000      300.892   -1473.1706    523.46936    409.10516  -0.27256272    34646.235 
  648100    290.54029   -1487.1545    518.24961    343.15396   -106.82952    34646.235 
  648200    298.74292   -1475.6792    499.20961    372.63168     191.0772    34646.235 
  648300    302.79635   -1494.3238    547.03979    420.12226      929.213    34646.235 
  648400    310.28021   -1484.7494    505.57549    422.02893     691.9209    34646.235 
  648500    304.69155   -1505.3363    506.99067    377.61925    373.56771    34646.235 
  648600    300.87413   -1478.7819    534.01325    413.95702   -198.96154    34646.235 
  648700    303.53945   -1537.6327     512.1792    345.30857    179.55295    34646.235 
  648800    296.90126   -1474.3776    506.22899    372.63589    80.571907    34646.235 
  648900    302.86988   -1482.3087     494.6902    380.11983    769.93394    34646.235 
  649000     294.1082   -1546.3224     532.4515    314.30034    642.88445    34646.235 
  649100     306.9297   -1492.7114    522.96601    416.32683    143.23038    34646.235 
  649200    309.01706     -1476.33    513.59358    432.76212    24.363554    34646.235 
  649300    303.52803   -1509.9916    506.05501    366.77389    383.70421    34646.235 
  649400    305.84908   -1512.4764    524.41029    393.12608    521.23462    34646.235 
  649500    294.95987    -1484.488     521.1961    368.72537    287.52154    34646.235 
  649600     315.9687   -1505.3198    508.77554    430.34736    1274.6174    34646.235 
  649700    290.54776   -1497.8787    529.13468    343.34853    927.69653    34646.235 
  649800    297.98353   -1534.6351     511.7925    322.82931    927.60038    34646.235 
  649900    296.53412   -1523.7874    505.16233    320.50146    1290.3463    34646.235 
  650000    291.26157   -1472.1535    516.17508    359.33761    321.33696    34646.235 
  650100    303.90266   -1480.4372    515.92332    407.88837    461.26071    34646.235 
  650200    301.04885   -1569.1672    523.08725    313.43476   -119.64315    34646.235 
  650300    304.88435   -1572.7664    522.63794    326.70708   -130.92889    34646.235 
  650400      303.192   -1550.0369    499.22678    318.38288   -193.39175    34646.235 
  650500    300.83107   -1556.5589    490.29425    292.26655   -417.53144    34646.235 
  650600    306.48924   -1540.6986    521.41841    364.80293   -302.84542    34646.235 
  650700    306.81736   -1589.2777    513.22612    309.51333    101.74971    34646.235 
  650800    288.69162   -1540.8916    526.26294    289.08166    155.41147    34646.235 
  650900    300.70344   -1506.8011    497.64374    348.79746   -384.44534    34646.235 
  651000    299.37848   -1463.1581    518.89764    407.71095   -574.28088    34646.235 
  651100    302.29177   -1510.5711    529.34145    383.89799   -662.74963    34646.235 
  651200    298.43648   -1549.7678     522.3548     320.3044   -706.13363    34646.235 
  651300    292.44455   -1511.7135    507.43849    316.38327   -837.27801    34646.235 
  651400    288.81534   -1484.0366    522.81304    343.04546   -434.03481    34646.235 
  651500    298.57596   -1467.7488    515.60934    396.20784   -167.38309    34646.235 
  651600    305.63412   -1458.2281    547.71588    469.70924   -201.34869    34646.235 
  651700    312.51212   -1468.7472    532.03585    474.57058   -23.996811    34646.235 
  651800    307.37789   -1456.0823     538.3713    470.38519   -239.05605    34646.235 
  651900    302.17762   -1482.9853    527.40428    409.03109    1.8826789    34646.235 
  652000    307.04929   -1446.0191    519.67968    460.27277   -145.53305    34646.235 
  652100    301.24335   -1513.1546    516.44299    363.68139   -376.37564    34646.235 
  652200    294.45814   -1483.7323    537.08585    383.10503    392.08762    34646.235 
  652300    304.79246   -1506.7093    514.70445    384.41576   -317.16602    34646.235 
  652400    295.62013   -1534.9828    495.95308    295.96931   -417.19991    34646.235 
  652500    302.75642   -1497.8285    528.60342    398.00086    52.408544    34646.235 
  652600    297.56547   -1513.4519    494.93641    325.26856   -571.46012    34646.235 
  652700     301.5746   -1556.5427    546.21751    351.56375   -353.88886    34646.235 
  652800    295.27238   -1516.9057    503.93341    320.45632    888.80532    34646.235 
  652900    292.87508   -1577.5156    523.60967    268.69658   -287.95314    34646.235 
  653000    301.06983   -1522.3482     502.0768    339.33802    -161.3737    34646.235 
  653100    307.65126   -1496.6653    509.74483    402.41019   -684.57265    34646.235 
  653200    304.34168   -1509.4829    528.65596    393.55797    -81.38539    34646.235 
  653300    299.74317   -1455.8995     502.8044    400.52331   -92.597373    34646.235 
  653400    293.51021   -1522.2855    510.73713    313.92234   -802.49421    34646.235 
  653500    291.24388   -1525.4755    492.86587    282.62649   -664.49163    34646.235 
  653600    296.46598    -1504.027    517.59178    352.38354   -500.70085    34646.235 
  653700    305.17495   -1487.7916    509.44363    399.79995   -208.73152    34646.235 
  653800    313.20774   -1427.6486    502.39419    489.16897   -412.42037    34646.235 
  653900    311.50533   -1473.9153    495.02883    427.84897    562.35784    34646.235 
  654000    302.90736   -1460.7336    535.71275    442.88678   -135.89815    34646.235 
  654100    308.40363   -1480.7496    519.16134    431.14014    463.41136    34646.235 
  654200    303.14677   -1489.7784    496.45143    375.66181    726.20132    34646.235 
  654300    291.11691    -1495.254    484.09961    303.50837    76.488045    34646.235 
  654400    306.42826   -1531.4729    497.49257    349.82738   -78.689087    34646.235 
  654500    298.53553   -1467.8161    517.33491    397.68352    215.59053    34646.235 
  654600    296.77902   -1477.3181    504.84172    367.75613     332.3077    34646.235 
  654700    294.27544   -1502.7331     516.6552    342.84858    2.0722091    34646.235 
  654800    296.05157   -1496.4797    502.58553    343.05316    617.31315    34646.235 
  654900    311.13053   -1511.6142    518.41125    411.83986    764.41652    34646.235 
  655000    308.07562   -1493.8305    528.10401    425.52061    669.06011    34646.235 
  655100    300.22203   -1478.6857    525.21435    402.30945    896.01914    34646.235 
  655200    296.68378   -1474.6336    512.40416    377.57288   -331.12763    34646.235 
  655300    296.56187   -1457.8892    520.95022    402.31282   -351.65787    34646.235 
  655400    312.47599   -1465.2585    494.76776    440.62814     189.0758    34646.235 
  655500    318.42216   -1462.4596    523.84143    499.35309   -705.61415    34646.235 
  655600    292.19699   -1448.7083    497.71585    368.54785   -696.84765    34646.235 
  655700    289.67681    -1482.388    507.74772    333.51915   -176.09357    34646.235 
  655800    296.44761   -1468.4639    524.16176    394.43366   -603.84616    34646.235 
  655900    293.26572   -1430.7589    508.87237     402.4801   -671.68634    34646.235 
  656000    297.04441    -1449.792    529.94403      421.583    -391.4121    34646.235 
  656100    305.27363   -1430.0858    519.80298    468.31064   -771.72946    34646.235 
  656200    298.99126   -1429.8143    512.24904    432.65752    61.343557    34646.235 
  656300    287.28845   -1485.0978    495.24545    307.52134    23.868158    34646.235 
  656400    306.28657   -1480.0807    532.72205    435.80924   -206.38243    34646.235 
  656500    292.34792   -1454.0479    491.06264    357.23666    309.66928    34646.235 
  656600     296.3984   -1450.4137    494.48962    382.58956    142.52339    34646.235 
  656700    290.06814   -1498.3276    520.87478    332.47376    19.391939    34646.235 
  656800    288.00639   -1481.4526    510.74446    329.90779    280.11067    34646.235 
  656900    303.62312   -1455.3373    515.71317    431.51579    454.78832    34646.235 
  657000    298.62473   -1510.2313    532.33352    370.66977   -270.82003    34646.235 
  657100    303.72201   -1462.5833    486.94124    395.94446    -108.9689    34646.235 
  657200    306.29529   -1473.5195    488.49188    398.17965   -339.37879    34646.235 
  657300    290.89415   -1482.2807    487.39554    318.77162   -314.04394    34646.235 
  657400    289.26094   -1485.8637    511.22599    331.64362   -685.20907    34646.235 
  657500    309.87805   -1465.3296    497.30676    431.36386    39.375639    34646.235 
  657600    314.35291   -1486.2622    487.11126    420.44394    157.64304    34646.235 
  657700    301.44897    -1455.219    500.93137    407.03401   -266.25204    34646.235 
  657800    305.61383   -1427.5812     493.0889    445.63756   -298.96705    34646.235 
  657900    298.12648   -1423.9829    512.51224     434.8468   -543.46069    34646.235 
  658000    293.72069   -1430.7853    490.84083    386.47681     422.5705    34646.235 
  658100    294.89288   -1462.0871    510.39361    380.02127    35.978136    34646.235 
  658200    298.59181   -1431.4746    509.18719    426.13143   -552.06236    34646.235 
  658300    302.84652   -1445.9844    521.96663    443.61514   -133.69383    34646.235 
  658400    297.96225   -1450.6631    513.98539    408.89816    67.975445    34646.235 
  658500    301.35728   -1425.7136    517.64796    452.84189   -138.51915    34646.235 
  658600    302.35569   -1468.5631    518.08047    414.93363    9.1578591    34646.235 
  658700    296.74846   -1456.0453    469.51917    353.56835    48.775325    34646.235 
  658800    308.93951   -1478.2922    515.23053    432.08667   -147.38231    34646.235 
  658900    293.96805   -1470.7265    522.02551    378.83738    164.88948    34646.235 
  659000    310.93058   -1405.5307    525.38684    523.99603    433.15894    34646.235 
  659100    302.57768    -1396.336    528.91988    499.00267     118.3193    34646.235 
  659200    302.83663   -1430.3403    529.16965    466.41754   -112.50381    34646.235 
  659300    296.51523   -1453.4303     511.0284     396.6393    130.31444    34646.235 
  659400    308.97601   -1448.3738    501.81169    448.75104    45.794243    34646.235 
  659500    301.04796   -1481.5333     502.5579    380.53531   -92.967452    34646.235 
  659600    297.66774   -1496.0466    507.24052     355.4398    175.28273    34646.235 
  659700    300.26178   -1499.2889    489.61823    346.28966    227.82209    34646.235 
  659800    303.84708   -1481.9555    539.77705    429.97284   -95.577249    34646.235 
  659900    291.17023   -1439.8571    462.96766    338.01409    738.73004    34646.235 
  660000    300.76346   -1504.1699     510.0411    364.09711    350.01778    34646.235 
  660100    301.91374   -1472.1213    502.52992    393.82911    844.20132    34646.235 
  660200    304.81097   -1448.3197    524.01365    452.19811    701.65537    34646.235 
  660300    306.44487   -1435.8019    506.97568    455.05654     672.2236    34646.235 
  660400    302.71054   -1474.9535     505.9298    397.99506    712.65638    34646.235 
  660500    305.03865   -1456.3657    538.25495    459.42159    843.22029    34646.235 
  660600    307.93457    -1481.683    488.97558    397.90269    408.44189    34646.235 
  660700    288.35603   -1471.9109    506.23713    336.52109   -159.05694    34646.235 
  660800    298.27936    -1462.212    529.14972    413.94557    470.53765    34646.235 
  660900    312.07272   -1452.8242    496.10374    452.57726   -438.07647    34646.235 
  661000    298.12885   -1426.6736    486.41508    406.06963    -891.8185    34646.235 
  661100    297.42336   -1446.3568    510.45812    407.24357   -255.55447    34646.235 
  661200    292.06811   -1445.4516    492.94688    366.45359   -637.39813    34646.235 
  661300     301.8232   -1429.2174    522.77092    456.56519    20.228292    34646.235 
  661400    306.67889   -1475.7626    540.12025    449.29721   -356.55466    34646.235 
  661500    306.25382   -1459.6156    493.57381    416.97815    93.453906    34646.235 
  661600    297.98802   -1490.5624     489.4773    344.60713   -156.67934    34646.235 
  661700    294.26419   -1470.7958    501.53651    359.61637    -1190.287    34646.235 
  661800    306.67499   -1450.6686     506.2896    440.54298   -187.20025    34646.235 
  661900    303.62242   -1479.8153    491.88404    383.20553   -401.27244    34646.235 
  662000    293.67247   -1507.8854    515.88432     334.2024   -642.15614    34646.235 
  662100    307.08981   -1489.3639     476.3602    373.79147   -889.54711    34646.235 
  662200    298.74076   -1492.3764    498.02602    354.74112    -1084.677    34646.235 
  662300    298.43214   -1522.3503    483.20261     308.5502   -717.41339    34646.235 
  662400    296.89594   -1459.2255    481.97832    363.51329   -494.58592    34646.235 
  662500    295.06155   -1475.8933    530.90205    387.48526     732.4515    34646.235 
  662600    298.93885   -1467.3608    498.26439    380.88969    57.507144    34646.235 
  662700    297.74418   -1471.2738    490.56928    363.88656   -495.76507    34646.235 
  662800    303.26671   -1477.1114      505.723    398.14197   -43.151104    34646.235 
  662900    302.78692   -1463.0904    496.40353    400.67681    282.57143    34646.235 
  663000    302.10779   -1498.2229    506.46841    372.54235    163.24568    34646.235 
  663100    299.00918   -1500.8206    498.89395    348.37704   -181.71205    34646.235 
  663200    304.14634   -1494.7648    469.46127    348.19922    348.44743    34646.235 
  663300    303.70766   -1510.5774    469.49629     330.4406    319.90246    34646.235 
  663400    298.33881   -1523.4093    500.30472    324.17176     54.28361    34646.235 
  663500    313.31998   -1493.0262     503.0314    424.93544    139.81312    34646.235 
  663600    305.11951   -1530.9918    488.32635    335.23206   -607.17892    34646.235 
  663700    292.55741   -1521.7725    482.41607    281.81156   -355.05336    34646.235 
  663800    292.92202   -1509.6239    490.97911    304.16976   -445.34479    34646.235 
  663900     297.8653   -1522.3345    460.30901    283.11254    1.4572144    34646.235 
  664000    297.51824   -1493.1649    481.43493    331.84074    243.62313    34646.235 
  664100    304.59166   -1534.6735    513.91593    354.75619    338.19091    34646.235 
  664200    299.52148   -1487.4423    487.83029     353.0052   -275.85889    34646.235 
  664300    302.87887   -1509.8628     506.7246    364.64071   -847.63699    34646.235 
  664400    294.87215   -1503.5802    488.64064    316.68165   -384.79168    34646.235 
  664500    306.40221   -1460.1153    504.11302    427.68783   -125.11641    34646.235 
  664600    300.43257   -1458.5444    497.80246    395.98968   -114.99866    34646.235 
  664700    298.16592   -1463.4467    507.60873    390.65766     539.1474    34646.235 
  664800    301.02515   -1490.1559    513.37707     382.6288    182.63651    34646.235 
  664900    299.28005   -1468.7902    486.03483    368.77156    718.11636    34646.235 
  665000    302.07937   -1480.8147    521.61756    404.97133    617.54799    34646.235 
  665100    314.27437   -1526.4176    492.05657    384.87917    662.01958    34646.235 
  665200     295.2193   -1505.0367    498.37588    326.52804     261.6284    34646.235 
  665300    295.82268   -1477.7937    514.20224     372.3222   -354.62309    34646.235 
  665400     309.5337   -1466.1925    494.27941    425.91854     -95.3363    34646.235 
  665500    302.73389   -1506.6055    494.39295    354.91167    186.57225    34646.235 
  665600    297.75755   -1431.6265    522.63894    435.66388    70.245847    34646.235 
  665700    297.81455   -1459.2658    498.85361     384.4966   -160.71723    34646.235 
  665800     294.3783   -1463.7893     487.0232    352.62491   -78.430136    34646.235 
  665900    304.53034   -1475.7386    512.12928    411.62753   -718.87386    34646.235 
  666000    299.80147   -1498.0409    508.23481     364.0756   -479.47344    34646.235 
  666100    291.86655   -1445.8378    505.96041    378.17071   -836.63716    34646.235 
  666200    302.36605   -1483.6141    496.18564    378.03463   -924.34268    34646.235 
  666300      297.183   -1469.5796    489.09326    361.57049   -195.57919    34646.235 
  666400    296.39952   -1432.1854    506.49772    412.83097   -227.06019    34646.235 
  666500    311.82328   -1437.3883     515.0855     485.8684   -221.20945    34646.235 
  666600    296.10577   -1411.2738    487.23366    413.15201   -173.85146    34646.235 
  666700    302.15838   -1489.5391    506.60534    381.59148    518.58433    34646.235 
  666800     294.1539   -1527.1041    510.14688    311.42035    -29.36727    34646.235 
  666900    297.22571   -1475.4375    513.77223    380.58438    294.29436    34646.235 
  667000    307.22623   -1475.3166    501.71867    413.81336   -113.29334    34646.235 
  667100    294.96637   -1445.8721    520.05831    406.23293    150.25835    34646.235 
  667200    305.68802   -1452.8957    509.29017    436.85926   -246.03314    34646.235 
  667300    293.17534     -1491.92    491.28448    323.32303   -33.235694    34646.235 
  667400     289.8599   -1468.9357    512.55457    352.60506    106.25065    34646.235 
  667500    305.54188   -1461.7406    480.55101    398.61526    328.29335    34646.235 
  667600    297.83494   -1471.5106    494.01675    367.50704    469.44713    34646.235 
  667700    308.04073   -1433.5576    504.00314    461.53503      275.618    34646.235 
  667800    295.15534   -1430.9076    507.09467    409.08711   -483.07841    34646.235 
  667900    305.22873   -1476.1676     511.8434    414.06658    14.091329    34646.235 
  668000    307.34683   -1447.3492    522.24661    462.85335   -300.82134    34646.235 
  668100    293.47735   -1494.6575    504.17907    334.84397   -1039.9433    34646.235 
  668200    301.15219   -1488.4473    479.19459    350.72866   -356.05671    34646.235 
  668300    294.64479   -1494.0224    509.16281     345.7348   -552.15681    34646.235 
  668400    311.24419   -1477.2957    483.69806    411.95847   -143.64306    34646.235 
  668500    295.00754   -1442.0124    515.89277    406.11296    494.73251    34646.235 
  668600    301.07617   -1462.9741    512.61211    409.27605    78.540359    34646.235 
  668700    305.20542   -1459.0588    484.64652    403.87322    84.204238    34646.235 
  668800    301.10225   -1481.6536    512.03687    390.13918   -229.48986    34646.235 
  668900    301.62215   -1474.9194    498.14985    385.33408    85.431113    34646.235 
  669000    297.38076    -1465.428    518.49139    396.01331   -643.06642    34646.235 
  669100    312.16913   -1456.6667    527.91496    480.98133    337.55559    34646.235 
  669200    299.89071   -1495.2155    490.95113    350.02028   -168.66017    34646.235 
  669300    299.89923   -1492.8763    510.97392    372.42074    247.59885    34646.235 
  669400    290.79189   -1463.7375    509.29297    358.75048    1.6413319    34646.235 
  669500    311.82224   -1469.5542    492.75145    431.36379    337.79983    34646.235 
  669600    309.82045   -1478.7858    487.71582    408.05659    30.290483    34646.235 
  669700    309.02421    -1459.982    538.25724    473.80602      225.337    34646.235 
  669800    310.29301   -1405.4658    520.61179    516.40661    620.65575    34646.235 
  669900     299.1215   -1468.1185    504.87059    387.56297   -637.98022    34646.235 
  670000    295.60721   -1492.5221    513.69021    356.10873   -324.25981    34646.235 
  670100    301.20876   -1467.1494    505.07683    398.16427   -37.088176    34646.235 
  670200    283.93674   -1464.7018      515.678    333.21387   -746.58906    34646.235 
  670300     300.8474   -1461.3047     494.6527    391.95297   -671.74276    34646.235 
  670400    296.39793   -1478.8238    487.72734    347.41497   -481.38725    34646.235 
  670500    298.46631   -1474.0392    529.23285    403.04574   -192.90648    34646.235 
  670600    302.68806   -1458.7382    506.84139    415.02042   -226.92113    34646.235 
  670700    295.25136   -1466.3128    519.37224    386.39309    101.65511    34646.235 
  670800    297.66259   -1492.9945    516.11231    367.34039    489.81932    34646.235 
  670900    301.95981   -1527.4533    488.62148    324.79672     224.9309    34646.235 
  671000    289.83634   -1531.2874    506.07455    283.66695   -185.40821    34646.235 
  671100     298.1142   -1481.5097    522.08605    386.83838   -119.94089    34646.235 
  671200    309.50939      -1477.2    482.53844    403.06032   -634.74649    34646.235 
  671300    305.57889   -1476.1726    516.21558    420.01496   -833.63826    34646.235 
  671400    299.63751   -1499.2909    511.65628    365.50658   -209.19206    34646.235 
  671500    298.55521    -1479.159    515.52846    384.62302   -699.67246    34646.235 
  671600    300.33813   -1487.4244    499.71661    368.59738   -120.68308    34646.235 
  671700     300.2747    -1496.907    497.36456    356.47622   -18.375206    34646.235 
  671800    307.41844   -1487.5172    506.87753    407.63965    291.37652    34646.235 
  671900    299.79074   -1463.8178    523.61644    413.63185    125.52086    34646.235 
  672000    291.81655   -1481.0736    517.78986    354.53858    115.18706    34646.235 
  672100    281.36764   -1473.7998    516.12022    312.95626    413.11475    34646.235 
  672200    290.62886   -1492.2451    522.82324     343.0369    329.95903    34646.235 
  672300    292.44323   -1504.9498    496.01497    311.71749    218.15802    34646.235 
  672400    302.25977   -1519.4909    519.93963    365.43183    965.07876    34646.235 
  672500    303.91101   -1505.0678    532.33005    399.70226    785.08277    34646.235 
  672600     300.6476   -1507.7137    487.98201    337.97102    926.23595    34646.235 
  672700    307.48163    -1474.886    502.43779    416.11648    711.51968    34646.235 
  672800    293.69136   -1464.5544    524.57723    386.31162    544.80536    34646.235 
  672900    298.78491   -1519.9544    502.95888    332.29538    724.17901    34646.235 
  673000    309.94349   -1519.6067    487.68859    367.76413    263.61954    34646.235 
  673100    308.54988   -1495.3643    484.53611    382.56059   -671.94928    34646.235 
  673200    310.73702   -1458.2881    531.67378    476.65145   -165.49186    34646.235 
  673300    292.41377   -1474.7402    495.50391      341.283   -162.38108    34646.235 
  673400    298.12716   -1471.6122    501.59765    376.30602   -182.49583    34646.235 
  673500    299.26907   -1483.6485    485.62708    353.45597   -386.87298    34646.235 
  673600    298.09842   -1469.0088    502.53039    379.71237   -355.30405    34646.235 
  673700    304.49173   -1538.9784     484.8004    320.88453   -219.19031    34646.235 
  673800    308.29368   -1497.1372     533.4384    428.53302   -255.06964    34646.235 
  673900    299.11509   -1491.4354    514.96334     374.3099    -46.33864    34646.235 
  674000    309.35941   -1494.4205      510.053    412.67705    108.93672    34646.235 
  674100    302.78624   -1485.5437    516.51686    398.33378    380.42534    34646.235 
  674200    292.10311   -1521.9658    481.94026    279.09085    648.66099    34646.235 
  674300    303.24734   -1498.6669    511.38818    382.16415    598.64261    34646.235 
  674400    303.59395   -1481.0533     493.0328    382.98772    129.88995    34646.235 
  674500    296.73207   -1475.5529    474.10181    338.56932    294.04694    34646.235 
  674600    312.34208   -1479.8686    505.66887     436.3144    60.402789    34646.235 
  674700    304.81894    -1502.934    514.66876    388.27488     665.4867    34646.235 
  674800    292.48245   -1513.9193     508.5031     315.4133     637.6404    34646.235 
  674900     287.4569   -1488.0949    502.85196     312.8915    290.14675    34646.235 
  675000     302.1301   -1473.4768    517.09775    408.01854   -100.45369    34646.235 
  675100    303.11832   -1500.9871    504.18098    372.05415   -42.579275    34646.235 
  675200    305.11426   -1507.7033    483.64592    353.81642   -1.8758811    34646.235 
  675300    290.45149   -1506.2608     467.2043    272.60134   -335.13843    34646.235 
  675400    305.32185   -1491.0935    482.72556    370.44333    20.866607    34646.235 
  675500    292.85943   -1499.0823    490.15722    313.60683    573.57964    34646.235 
  675600    290.90664   -1499.2815    501.37719    315.80886    414.19838    34646.235 
  675700    294.06915   -1497.9214    482.68095    312.75443    754.75306    34646.235 
  675800     301.1122   -1508.1287    505.79769    357.46978    101.44461    34646.235 
  675900    290.26321    -1516.313    526.60324    321.09781   -405.54233    34646.235 
  676000    307.07278    -1509.476    482.16982    359.41215    96.874717    34646.235 
  676100    290.55098   -1476.4138    492.88721    328.58044   -433.27439    34646.235 
  676200    307.11531   -1523.4451    509.28584    372.75111    -352.1519    34646.235 
  676300    292.38738   -1495.0737    488.52932    313.85577   -167.10482    34646.235 
  676400    293.71608   -1442.7768    511.06446    394.68814    121.77485    34646.235 
  676500    313.36825   -1484.9435    502.46263    432.66738    545.23787    34646.235 
  676600    291.89541   -1485.6828    499.56268    332.05834    95.151969    34646.235 
  676700    312.19677   -1486.1834    511.64437    435.31885    309.33114    34646.235 
  676800    301.27713   -1462.6564    505.47381    403.36295   -27.373265    34646.235 
  676900    299.39693   -1475.9568    500.30407    376.40198    383.52818    34646.235 
  677000    300.38674    -1474.371    504.06358    386.21727    471.88696    34646.235 
  677100    291.06929   -1497.3757    509.72712    326.79916    76.579436    34646.235 
  677200    288.30657   -1479.3267    521.13316     343.7779    105.19559    34646.235 
  677300    296.16562   -1499.9727    515.45871    352.94839   -576.17149    34646.235 
  677400    297.99397    -1500.618    496.73356    341.83467   -488.00675    34646.235 
  677500    301.82638   -1448.9285    506.64548    420.74297    3.8759806    34646.235 
  677600    295.39235   -1491.3721    509.70025    352.29846    379.35431    34646.235 
  677700    309.60079   -1482.5873    495.75125    411.29858    416.73767    34646.235 
  677800     291.0278   -1511.1772    490.92665     294.0098   -269.26685    34646.235 
  677900    290.99614   -1476.5442    487.24485    324.81806   -194.13363    34646.235 
  678000    303.06269   -1481.7559    515.73432    402.58751   -914.67312    34646.235 
  678100    310.03656   -1453.9506    492.44826    438.60025   -305.64393    34646.235 
  678200    304.27429   -1471.6594    497.73493    400.15605   -361.43841    34646.235 
  678300    301.97129   -1466.4918    495.15355    392.34207   -845.56899    34646.235 
  678400    303.06634   -1491.2512    512.06391    389.43825    271.01338    34646.235 
  678500    299.40331   -1522.4687    502.95161    332.56647   -322.58117    34646.235 
  678600    296.63324   -1520.5604    486.07033     305.0841    51.567148    34646.235 
  678700    297.50707   -1541.2558    478.06939    280.33387   -404.30751    34646.235 
  678800    307.45715   -1489.6429    519.37534    418.18659   -459.64905    34646.235 
  678900    305.41043   -1518.1518    497.52976    358.58923   -169.19814    34646.235 
  679000    295.59649   -1492.4752    528.45662    370.87364   -130.47516    34646.235 
  679100    289.60349   -1532.5261    485.76261    261.06483    -259.1959    34646.235 
  679200    290.68983   -1465.1289    499.60034     347.2055     -560.456    34646.235 
  679300    297.45505   -1519.7858    481.22655    304.72611     -519.757    34646.235 
  679400    295.75646   -1520.1096     507.0361    322.54114    308.82393    34646.235 
  679500    301.27135   -1465.5828    475.63883    370.57552    367.40136    34646.235 
  679600    303.96474   -1492.7437    501.19718    381.13613   -650.48401    34646.235 
  679700    300.37374   -1486.6371    490.16481    359.99363    355.52596    34646.235 
  679800      288.247   -1473.7344    501.16703    329.13513   -171.73036    34646.235 
  679900    289.78691   -1490.8776    479.05604    296.83502   -81.435086    34646.235 
  680000    304.86975   -1495.2418    479.95531    361.48313     -13.8198    34646.235 
  680100    301.93726   -1428.5207    491.28764    426.29358   -80.836786    34646.235 
  680200    290.59227   -1456.6393    506.56035    362.21461   -325.30985    34646.235 
  680300    292.72455   -1507.5229    522.73165    337.13145   -267.57982    34646.235 
  680400    297.37641   -1493.9144    486.84644    335.86231    472.75962    34646.235 
  680500    293.92998   -1508.5884    494.25816    313.03619    433.35819    34646.235 
  680600    296.34041   -1507.0502    493.93009    325.13159    519.62542    34646.235 
  680700    309.50241   -1494.4728    504.84989    408.06743    1466.2388    34646.235 
  680800      293.217   -1486.7155     484.9185    322.34956    546.02886    34646.235 
  680900    290.44768   -1497.9697    503.36089    317.03183    -689.4148    34646.235 
  681000    290.97493   -1516.4935    505.41183    302.93996   -4.2011371    34646.235 
  681100    300.96344    -1509.821    520.67904    369.98705   -450.00519    34646.235 
  681200    291.02175   -1446.8277    478.72498    346.13039    352.95765    34646.235 
  681300    300.44299   -1490.5527    526.92223    393.14817    65.407435    34646.235 
  681400    299.91629   -1484.7236     488.9909    358.66749    175.92851    34646.235 
  681500    298.59257   -1487.8746    492.60129    353.14902    1049.5914    34646.235 
  681600    312.68842   -1486.7901    482.70949    407.99759    1224.9895    34646.235 
  681700    307.28241   -1512.2013    510.04063    385.50431     1230.053    34646.235 
  681800    295.07961    -1485.261    498.84944    346.14651    884.55249    34646.235 
  681900    295.14193   -1523.3547    487.41378    296.89849    476.60968    34646.235 
  682000    303.02713   -1451.5963    500.02775    416.87996    250.56332    34646.235 
  682100    308.52562   -1466.5887    491.16524    417.85576    406.10306    34646.235 
  682200    296.56255   -1508.1099      497.171    328.31605    298.97012    34646.235 
  682300    306.99185   -1501.3162    503.56737    388.60396    90.527942    34646.235 
  682400    297.13635   -1468.2109    485.94942    359.58469   -478.09526    34646.235 
  682500    299.06702   -1473.1588    493.58107    370.98724   -74.149975    34646.235 
  682600    305.02717   -1508.3533    476.99357    346.12075    94.903122    34646.235 
  682700    301.91356   -1542.3418    485.07325    306.15117    269.74565    34646.235 
  682800    306.41489   -1525.5682    480.28756    338.46669    568.88834    34646.235 
  682900    301.41171   -1469.1864    503.70283    395.66974    1010.9468    34646.235 
  683000    298.58927   -1449.9501    495.46485    393.92221    741.86967    34646.235 
  683100    292.88978   -1477.4082    515.91558     361.1763    473.89438    34646.235 
  683200     298.7557    -1500.562    482.83951    331.43654    379.65707    34646.235 
  683300    295.00514    -1464.497    493.58969    361.31445   -527.11808    34646.235 
  683400    304.01141   -1479.3914    502.70627    396.20827   -398.04312    34646.235 
  683500    285.78054   -1471.0783    472.07924    291.56513   -785.40545    34646.235 
  683600    301.29879   -1486.6635    513.99463    387.97453   -774.19436    34646.235 
  683700    293.36612   -1437.8867    499.43811    386.37142    -385.7626    34646.235 
  683800    289.16433   -1468.1179    501.28942    339.01656   -584.67922    34646.235 
  683900    307.25254   -1511.6481    470.02082    345.90283   -1242.1195    34646.235 
  684000    288.21618   -1504.5357    474.23217    271.25971   -824.32731    34646.235 
  684100    309.98373   -1510.0558    467.26665    357.07487   -349.38982    34646.235 
  684200    289.24872   -1508.4934    487.59502    285.32775    65.592516    34646.235 
  684300    300.97229   -1479.3487    481.87589    361.69612    374.12381    34646.235 
  684400    298.09646   -1453.1317     494.9979    388.04809    204.00316    34646.235 
  684500     304.4394   -1478.3794    519.70549     416.1523    63.989791    34646.235 
  684600     308.9184   -1487.6128    499.60426    407.04447   -72.265779    34646.235 
  684700    296.93829   -1441.1622    486.94687    386.73639    147.35895    34646.235 
  684800     296.8983   -1500.6656    521.00077    361.10628    493.44181    34646.235 
  684900    298.69292   -1483.4532    473.59881    339.02108    517.32533    34646.235 
  685000    294.88011   -1482.4312    502.54417    351.77011    528.12303    34646.235 
  685100    304.81408   -1452.9687    512.03719    435.58675    706.77637    34646.235 
  685200    305.99377   -1484.1204     486.5611    384.28632   -103.59395    34646.235 
  685300    295.22867   -1517.3206    497.39641    313.30699   -316.37402    34646.235 
  685400    298.58476   -1503.1737    523.34324    368.55661   -314.13058    34646.235 
  685500    293.70626   -1532.4259    491.48941    285.41956    117.93087    34646.235 
  685600    290.87805   -1509.8202    505.53909    309.30297   -75.167409    34646.235 
  685700    309.86003   -1466.8348    508.39265    440.86314   -135.47628    34646.235 
  685800    288.34401    -1468.052    479.89932    313.98785   -287.29192    34646.235 
  685900    296.68009   -1468.2605    516.89214    388.41736    52.063656    34646.235 
  686000    295.44122   -1460.2856    507.07212    380.97751    429.98096    34646.235 
  686100     293.6513   -1484.4929    502.62718    344.24214     450.5262    34646.235 
  686200    298.59878   -1467.8514    507.33447    387.93343   -517.37164    34646.235 
  686300    319.47553   -1480.5317    505.34067    467.53723    264.90484    34646.235 
  686400    300.66531   -1432.5124    490.47019    415.74044   -497.30748    34646.235 
  686500    303.17607   -1452.8472    499.84452    416.11839    -541.6742    34646.235 
  686600    296.58475   -1480.2959     522.5827    381.64194   -535.33458    34646.235 
  686700    295.92812   -1422.6203    499.49012    413.25971   -579.77921    34646.235 
  686800    312.00141   -1434.9979    507.93922    481.91697   -601.82643    34646.235 
  686900    293.35461   -1484.7275    507.81309    347.85368   -202.84337    34646.235 
  687000    292.44611   -1424.3671    512.30981     408.6081   -355.25491    34646.235 
  687100    303.84433   -1408.2858    513.18901    477.04211   -355.81489    34646.235 
  687200    280.89207   -1422.5943    541.30736    387.20122    72.634918    34646.235 
  687300    304.03769   -1436.2221    491.42565    428.21562      776.208    34646.235 
  687400    301.58087   -1443.7746    506.84616     424.9888    722.17699    34646.235 
  687500    300.86107   -1469.7829    530.17292    419.05666    749.94264    34646.235 
  687600    299.01197   -1495.0988    513.82577    369.04331    330.62433    34646.235 
  687700    293.67501   -1508.5809     495.2555    312.88958    58.919728    34646.235 
  687800    290.94454   -1510.3149    509.78749     313.3569   -140.46427    34646.235 
  687900    297.72978    -1488.007    530.96451    387.48347    635.11534    34646.235 
  688000    292.26601   -1485.5004     480.4814    314.83305   -243.83864    34646.235 
  688100    298.47947   -1516.0281    499.71561    331.59908    461.85454    34646.235 
  688200    306.47631   -1492.3043    494.19375    385.91412    422.79898    34646.235 
  688300    293.36416    -1479.887    511.71066    356.63484   -42.186277    34646.235 
  688400    297.54134   -1488.9484    491.26475    345.99135   -357.49804    34646.235 
  688500    292.96329   -1506.2451    510.06142    326.81719   -133.25086    34646.235 
  688600    308.88304   -1504.8153    503.15753    393.23559   -223.71173    34646.235 
  688700    308.38883   -1465.5433    494.10571     421.2239   -389.86951    34646.235 
  688800    290.73732   -1495.8262    491.95795    309.08031   -271.41971    34646.235 
  688900    298.05194   -1495.6519    502.12241    352.45143   -140.53879    34646.235 
  689000    305.54117     -1483.96    511.85226    407.69391   -172.86531    34646.235 
  689100    290.73479   -1500.4487    510.46954    322.95797   -155.53047    34646.235 
  689200    298.11825   -1534.8669    504.23469     315.6481    229.92387    34646.235 
  689300    308.93143   -1537.4803    514.44519    372.07675    424.08605    34646.235 
  689400    294.23897   -1536.5868    494.90245    287.07745   -78.501109    34646.235 
  689500    302.19181   -1536.2508    469.11196    297.53739    634.73581    34646.235 
  689600    295.86657   -1517.1581    510.19178    329.14558    333.96986    34646.235 
  689700    296.07411   -1484.8197    497.61768    349.84714    325.89836    34646.235 
  689800    304.58976   -1498.0034    510.78856     388.2904     713.4028    34646.235 
  689900    305.31309   -1551.8685    511.35934    338.26257    975.68987    34646.235 
  690000    298.23772    -1540.392     487.8854    294.31317     579.8689    34646.235 
  690100    299.14956   -1548.0585    525.98746    328.86664    306.35598    34646.235 
  690200     307.8053   -1520.4889    483.57291    353.11039   -40.325671    34646.235 
  690300    301.13521   -1569.8181     511.1622    301.24883   -192.51087    34646.235 
  690400    295.11803    -1488.335    485.34118    329.73769   -452.30653    34646.235 
  690500    302.53649   -1496.5207    513.09634    382.80839   -248.75277    34646.235 
  690600    311.76973   -1522.7578    490.07443    375.24601   -342.14817    34646.235 
  690700    303.96508   -1532.2355    515.09735    355.54599    4.3039884    34646.235 
  690800    309.17048   -1487.5177    519.65801    428.33168    85.723093    34646.235 
  690900      305.439   -1494.5136    526.19541    411.02217    181.05173    34646.235 
  691000    305.43228   -1481.2668    523.26649    421.30966     -159.906    34646.235 
  691100     306.7179    -1455.261    514.76435    444.61903   -57.960335    34646.235 
  691200    308.96512   -1477.3131    524.72753    442.67845    -101.5315    34646.235 
  691300    299.56795   -1532.5476    520.03598    340.31543    299.27018    34646.235 
  691400    303.30378   -1506.3877    495.65527    358.96538   -90.178922    34646.235 
  691500    309.19129   -1504.5038    525.56954    417.35111   -384.54887    34646.235 
  691600    293.32926   -1499.9387    522.95305    347.66795   -144.19958    34646.235 
  691700    299.53821   -1538.7525    536.46002     350.4003    448.98103    34646.235 
  691800    287.54336   -1593.6807    522.85872    227.70297    930.11995    34646.235 
  691900    303.16341   -1573.3707    494.57781    290.27102    385.87359    34646.235 
  692000       294.56   -1555.3877    528.92635    303.75021    435.72557    34646.235 
  692100    310.96417   -1509.2228     499.1753    394.24403    467.32503    34646.235 
  692200    306.63158   -1515.7058    544.38638    413.40651    1212.0767    34646.235 
  692300    298.56125   -1522.8464    511.94633     337.3808    598.04886    34646.235 
  692400    299.26694   -1475.4855    517.38173    393.36393    205.28473    34646.235 
  692500     298.6076   -1551.6832    517.25808     314.0651    450.28729    34646.235 
  692600    296.47217   -1552.5058    534.80749    321.14841    406.49878    34646.235 
  692700     302.5348   -1526.7558    513.14803    352.61737   -121.20205    34646.235 
  692800    303.56079   -1512.4947    522.75585    381.11957    428.19895    34646.235 
  692900    301.92424   -1523.7361    514.20405    353.93587     54.94913    34646.235 
  693000    309.27794    -1488.662    537.02015    445.03477     94.05296    34646.235 
  693100    309.28608   -1529.5179    526.48913    393.68461     271.5451    34646.235 
  693200    296.88198   -1517.2483     533.3332    356.78236   -38.858953    34646.235 
  693300    308.38053   -1514.5078    530.89321    409.00948   -115.50502    34646.235 
  693400    289.95461   -1532.6772    519.41655    296.15328   -578.10623    34646.235 
  693500    301.29249   -1540.2817    509.70497    330.03818    160.51417    34646.235 
  693600    303.88534   -1509.5346    537.76964    400.55914   -162.48132    34646.235 
  693700    296.14738   -1497.6954    490.11929    329.80392   -704.87265    34646.235 
  693800    296.99925    -1513.012    533.29835    361.51331     -504.133    34646.235 
  693900    303.72909   -1521.6582     521.0698     371.0301    87.928528    34646.235 
  694000    308.76122    -1504.241    528.15084      418.253    715.75726    34646.235 
  694100    301.76289    -1499.399    536.01554    399.35579     403.9344    34646.235 
  694200    290.04139   -1498.8408    529.62448    340.58948   -106.34245    34646.235 
  694300    300.36433   -1434.6168    537.50547    459.31216    681.28426    34646.235 
  694400    312.43845   -1472.7987     528.6898    466.84041   -197.18006    34646.235 
  694500     307.6765   -1472.6528    536.84497    453.63689     136.5145    34646.235 
  694600    289.38925   -1522.4179    502.18879    286.63166   -275.82993    34646.235 
  694700    298.17942   -1538.4275    514.40043    322.52955    -426.8254    34646.235 
  694800    303.35876   -1529.5635    537.15161    377.53422    512.01285    34646.235 
  694900     302.8909   -1524.5128    544.50386     387.8243    662.26897    34646.235 
  695000    293.61733   -1508.6993    543.09546    360.35068     155.0708    34646.235 
  695100    296.70882   -1525.7891    528.44229    342.56868   -145.90091    34646.235 
  695200    293.71216    -1558.988    494.48994    261.88467   -355.54179    34646.235 
  695300    306.33083   -1487.4474    542.70431    438.62461   -530.04282    34646.235 
  695400     295.5086   -1539.5026    496.47628    291.46903   -854.79597    34646.235 
  695500    304.82727   -1552.2618    529.43153    353.74751   -723.02412    34646.235 
  695600    292.43611   -1539.2315    499.07908    280.46777   -778.65796    34646.235 
  695700    309.20472   -1534.9669    524.23006     385.6092   -160.02283    34646.235 
  695800    299.05697   -1550.2335    528.49867    328.78471   -160.58106    34646.235 
  695900    307.37149   -1583.3026    535.25475    340.01943   -114.01286    34646.235 
  696000    293.79239   -1595.7225    496.67698    227.69949    309.98857    34646.235 
  696100    295.77646   -1588.4978    509.20493    256.41208   -217.09277    34646.235 
  696200    302.01813   -1573.5787    509.30512    299.61838   -184.32772    34646.235 
  696300     306.7315   -1574.7925    510.22416    320.60881     -117.818    34646.235 
  696400    297.10502   -1559.0509    538.05785    320.71166   -315.27941    34646.235 
  696500     298.3967   -1541.7929    494.97192    300.71678   -611.72513    34646.235 
  696600    305.37657   -1592.8085    508.97041    295.22029   -683.87551    34646.235 
  696700      304.965   -1587.0281    522.85975    313.03144    -361.5629    34646.235 
  696800    307.05612   -1539.5754     528.4116    375.47936    221.62048    34646.235 
  696900    297.46897   -1519.4505     528.4742    352.37194   -44.900596    34646.235 
  697000    304.58169   -1546.0648    508.55178    337.95574    212.74212    34646.235 
  697100    304.15113   -1605.9207    526.25528    293.85898    -274.7226    34646.235 
  697200    292.93269   -1571.8847    519.12596    270.10398    108.42661    34646.235 
  697300     298.4421   -1606.1582    507.29686    248.88152   -122.40255    34646.235 
  697400    307.23356   -1600.9747    501.31088    287.78062    49.851588    34646.235 
  697500    304.53498   -1622.8336    504.81385    257.23808    178.12129    34646.235 
  697600    297.08776   -1603.4179    525.00438     263.2132    158.98037    34646.235 
  697700    287.74261   -1546.2774    517.43578    270.58308   -191.27791    34646.235 
  697800    304.19311   -1550.0162     516.8189    340.51662   -323.12386    34646.235 
  697900    292.89693   -1551.0219    516.88676    288.56609    97.756069    34646.235 
  698000    309.34165   -1614.5107    502.91589    285.36959    75.137472    34646.235 
  698100    318.18525   -1563.7127    517.19747    390.38617    254.07004    34646.235 
  698200    302.57027   -1532.2461    519.02948    353.16875    628.08246    34646.235 
  698300    302.52238   -1518.2769    552.99495    400.88707    788.51122    34646.235 
  698400    284.94733   -1510.5346     534.0013    310.26807    385.74748    34646.235 
  698500    304.34009   -1558.3278    534.04928    350.09915    418.12064    34646.235 
  698600    291.67727   -1542.2505    512.59286    287.53561   -429.14409    34646.235 
  698700    302.90314   -1537.8658    552.38308     382.4058   -49.987938    34646.235 
  698800    297.94812   -1539.7346    530.36135    336.13877   -548.53526    34646.235 
  698900    304.70205   -1528.8966    524.38839    371.50407   -193.96155    34646.235 
  699000    295.98315   -1523.0264    530.31471    343.92667   -213.84695    34646.235 
  699100    302.71513   -1546.6661    516.52459    336.89798   -194.18602    34646.235 
  699200    306.73041   -1585.6478    524.53057    324.05501    362.45109    34646.235 
  699300    308.74402   -1556.7917    528.31986    365.79369    100.49693    34646.235 
  699400    308.25609   -1580.6343    531.62038    343.04818    136.66871    34646.235 
  699500    291.48839   -1582.6953    541.79401    275.43909    272.69136    34646.235 
  699600    298.68719   -1577.0011    488.15249    260.00106    783.22865    34646.235 
  699700    289.08916   -1509.9261    539.48529    335.06483    207.74081    34646.235 
  699800    301.67001   -1542.4109    559.90367    379.81257      145.207    34646.235 
  699900     296.0251   -1562.5657    522.28329    296.54537     800.0319    34646.235 
  700000    307.77899   -1560.4312    507.67529    337.15158    989.99827    34646.235 
  700100    299.77233    -1570.567    525.49325    308.67626   -132.00333    34646.235 
  700200    301.26483    -1548.029    519.22308    331.68414    43.305706    34646.235 
  700300    289.44705   -1548.7776    535.59613    293.94035    37.092341    34646.235 
  700400    298.39268   -1521.0293    538.84503    365.33533    -194.4502    34646.235 
  700500    307.47363   -1545.3408    554.25648     397.4442   -417.22218    34646.235 
  700600    302.21036   -1521.4945    507.55115    350.81667   -294.91164    34646.235 
  700700    300.06145   -1524.6343     555.6521    386.07347   -910.66706    34646.235 
  700800    302.18633   -1498.8781    498.25853     364.0319   -35.798157    34646.235 
  700900    300.90559   -1519.1205    541.33895    381.08614    533.45394    34646.235 
  701000    298.23493   -1556.5373    517.03895    307.30887   -574.90065    34646.235 
  701100    297.69515   -1515.3109    522.82246     351.8812   -118.36596    34646.235 
  701200    296.76389   -1513.7997     530.0617    356.42611   -326.85802    34646.235 
  701300    324.51698   -1506.9218    553.99161    512.56487   -554.75233    34646.235 
  701400    306.91796   -1491.6859    525.06372      419.397   -628.09436    34646.235 
  701500    303.81959    -1522.203    522.43833     372.2625   -979.60696    34646.235 
  701600     300.0975   -1476.9952    553.83549    432.05872   -74.140149    34646.235 
  701700    295.40388   -1479.2522    531.65387    386.42411    352.76773    34646.235 
  701800    293.99058   -1489.6037    533.81137    371.84777    586.02592    34646.235 
  701900    296.53866   -1490.6966    548.77579    397.22624    403.60728    34646.235 
  702000    309.33436   -1511.3865    529.95032    415.49528   -316.18699    34646.235 
  702100    299.83378    -1523.045    517.90578    348.88836   -529.66637    34646.235 
  702200    305.67449   -1514.9381    511.97306    377.43875    144.48522    34646.235 
  702300    306.57568   -1532.4939    523.00563    374.98518   -91.854196    34646.235 
  702400    298.07919   -1545.5371    522.22196    322.78877    -11.43478    34646.235 
  702500    301.92292   -1557.9414    519.54217    325.06273    360.34036    34646.235 
  702600    305.77024   -1555.5188    532.16588    357.48323    173.10814    34646.235 
  702700    300.22306   -1530.4449    533.47262    358.81324    409.94353    34646.235 
  702800    294.96636   -1540.3106    511.72549    303.46147    458.65143    34646.235 
  702900      291.672   -1521.7023    550.27827    345.74549    320.60808    34646.235 
  703000    293.36703   -1531.1471    533.43161    327.10867    566.06991    34646.235 
  703100    295.62584   -1522.8998    525.45952    337.58455    539.40321    34646.235 
  703200    275.73215   -1511.2525    542.21267    276.14646    255.58339    34646.235 
  703300    301.76589   -1505.9906    532.43294    389.19519    118.70875    34646.235 
  703400    290.83322     -1527.95    501.14836       286.58    77.667087    34646.235 
  703500    299.34313   -1513.2806    548.61816    387.14937   -350.55055    34646.235 
  703600    295.14261   -1503.1714    504.38459    334.05577    226.42154    34646.235 
  703700    297.91042   -1527.2284    512.37725    330.49066    170.30101    34646.235 
  703800    309.13093    -1535.601    516.94088     377.3527   -415.70473    34646.235 
  703900    299.38678   -1543.6272    509.82901    318.21068   -480.42401    34646.235 
  704000    292.47709   -1592.9257    504.31461    232.19409    -734.7061    34646.235 
  704100    296.29968   -1546.0927      546.184    338.15907    -726.1375    34646.235 
  704200    290.02044   -1565.2735    538.20144    282.63916   -639.82519    34646.235 
  704300    297.10238   -1526.4142    544.41097    359.68953    374.29746    34646.235 
  704400    302.77622   -1526.1906    505.96872     347.0935   -67.010314    34646.235 
  704500    281.85549   -1506.8687     509.6534     275.6236     -106.757    34646.235 
  704600    299.01479   -1533.3271    526.45578    343.45769   -493.25799    34646.235 
  704700    299.19124   -1521.9848    534.40415    363.54525   -67.282778    34646.235 
  704800     297.3215   -1547.7625    516.63003     311.5498    85.622677    34646.235 
  704900    307.56491   -1564.3885    500.21791    324.77012   -795.64985    34646.235 
  705000    296.23582   -1554.7046    509.88255    292.95739     -1513.75    34646.235 
  705100    297.54273   -1545.5171    520.87131    319.03553   -1100.0826    34646.235 
  705200    310.78248   -1568.8402    529.01859    363.64947    -559.4148    34646.235 
  705300    298.34484   -1528.9939    512.52654    330.83619   -496.31176    34646.235 
  705400    305.85634    -1559.573    523.38783    345.03983    -725.7716    34646.235 
  705500    299.34422   -1554.9913    527.65879    324.48423   -732.37099    34646.235 
  705600    297.63377   -1546.2397    517.17154    315.02428   -52.524594    34646.235 
  705700    305.29653    -1550.004     512.4792    341.17211   -187.47189    34646.235 
  705800     299.3244   -1581.8449    529.03971    298.92205   -358.89339    34646.235 
  705900    294.77921   -1511.5503    502.74772    322.39889    -304.2382    34646.235 
  706000    300.35047    -1494.714    526.55709    388.20394    504.06566    34646.235 
  706100    299.10535   -1516.7273    543.99937    378.01001    261.17612    34646.235 
  706200     300.0708   -1547.2071    527.07712    334.96785    61.500475    34646.235 
  706300    304.13938   -1507.0662    532.18356    398.58873   -155.03727    34646.235 
  706400    294.12043   -1521.7678    546.22233    352.68104   -730.51427    34646.235 
  706500    295.09909   -1540.5278    498.39143    290.50965    109.11787    34646.235 
  706600    299.10256   -1528.2098    526.29774    348.81329    676.87649    34646.235 
  706700    291.25041   -1521.1613    524.90205    319.00639    827.82859    34646.235 
  706800    299.06478   -1541.3919    520.02933    329.19225    568.26968    34646.235 
  706900    292.02778   -1534.5572    530.31012    314.52912   -1101.1456    34646.235 
  707000    304.32622    -1502.716    551.15449    422.75358   -479.47812    34646.235 
  707100    301.94628   -1510.9354    505.46602    358.09807   -349.20318    34646.235 
  707200    303.40618    -1564.783    519.74925    325.12651   -283.21605    34646.235 
  707300    296.75617   -1536.8826    561.49824    364.74494     15.68639    34646.235 
  707400    302.70698   -1541.8504    516.92816    342.08044   -180.75306    34646.235 
  707500    303.84739   -1541.1088    543.96686    375.01072   -22.856074    34646.235 
  707600    294.73319   -1556.2137     513.1851    287.96503   -400.50393    34646.235 
  707700    300.93524   -1514.4805    515.91751    360.43866   -763.89634    34646.235 
  707800    301.85814   -1547.2274    527.11811    343.06014    135.62688    34646.235 
  707900    289.45354   -1537.8048    529.14478    298.49112    102.20451    34646.235 
  708000    295.18599   -1511.1472    536.05465    357.94589   -141.40176    34646.235 
  708100    304.76052   -1564.0403    514.18622    326.42226   -133.33471    34646.235 
  708200    293.08052   -1572.2648    504.82406    256.08951   -570.47471    34646.235 
  708300    296.63304   -1562.1069    571.17709    348.64345   -54.302459    34646.235 
  708400    298.95292   -1545.4369    524.63472     329.2474    138.21237    34646.235 
  708500    307.18578   -1579.4588    492.69272     300.4626   -6.1417376    34646.235 
  708600    301.00298   -1530.3817     539.8813    368.80715   -305.77296    34646.235 
  708700    288.75702   -1534.0299    527.27205    297.24784   -137.28069    34646.235 
  708800    293.59343   -1572.5093    514.30669     267.6439   -277.29227    34646.235 
  708900    298.84526    -1533.377    543.70813    359.89461   -384.09742    34646.235 
  709000    293.14386   -1531.5824    503.81333    296.04724   -374.51572    34646.235 
  709100    310.46544   -1509.4562    541.51924    434.10238     216.8865    34646.235 
  709200     292.1266   -1588.1222    532.21722    263.31749   -337.10329    34646.235 
  709300    301.33063   -1615.4568    525.04054    270.37097   -167.94445    34646.235 
  709400    292.99298    -1543.961    517.20305    296.37704   -189.64109    34646.235 
  709500    298.30578   -1592.0971    517.02595    272.05605   -43.292242    34646.235 
  709600    290.60084   -1577.3312    520.55866    255.55967   -424.32706    34646.235 
  709700     303.2622   -1560.4855    508.43179    317.45628   -562.71968    34646.235 
  709800    294.68641   -1596.3023    506.67979    241.15988   -1521.3985    34646.235 
  709900    297.67612   -1555.1037    527.25502    316.43501   -820.81685    34646.235 
  710000    302.32199   -1569.4286    510.12898    305.96452   -259.77067    34646.235 
  710100    296.79648   -1608.2682    510.37305     242.4161   -84.168892    34646.235 
  710200    289.80441   -1601.8889    529.01902    235.86581   -86.096019    34646.235 
  710300    295.96508    -1588.062    511.13006    259.62477   -414.27911    34646.235 
  710400    302.98947   -1543.9589     525.4849     349.8044   -336.12751    34646.235 
  710500    290.28887   -1593.9809    505.81295    222.75546   -539.56167    34646.235 
  710600     308.8826   -1558.5434    529.02968    365.37765   -200.88029    34646.235 
  710700    292.80755    -1574.786    533.71902    281.23057    342.70654    34646.235 
  710800    296.95813   -1570.8437    504.92013    275.11774    307.23921    34646.235 
  710900    307.20572   -1572.1697    523.38373    338.53269    234.58355    34646.235 
  711000    298.92964   -1575.6852    531.78489     306.0442    640.53946    34646.235 
  711100    300.47912   -1593.7555    524.52507    287.71145    513.09952    34646.235 
  711200    300.54818   -1578.0592    530.45258    309.64713    32.001318    34646.235 
  711300    296.52586   -1577.7658    522.12567    283.44909    209.58634    34646.235 
  711400    309.84673   -1594.8663    515.90249    320.28145    278.75095    34646.235 
  711500    306.52251   -1585.7123    526.73469    325.25569   -73.992822    34646.235 
  711600     290.6471   -1541.4674    534.96982    306.04358    20.057436    34646.235 
  711700    298.08445   -1527.9109    527.59816    345.81493     485.7562    34646.235 
  711800    294.67874   -1526.9092    506.91442    310.75301    334.28274    34646.235 
  711900    317.32453   -1516.5806    566.00341    482.43728    114.03135    34646.235 
  712000    301.53602    -1533.709    500.32659    328.33234   -551.50972    34646.235 
  712100    292.73262   -1562.0896    546.40523    306.27487   -199.16174    34646.235 
  712200    289.54338   -1525.3843     538.3876    320.56016   -357.26628    34646.235 
  712300    298.20048   -1513.1923    539.58201     373.0414    287.25836    34646.235 
  712400    311.57472   -1537.1796    521.01173    390.88089    710.20008    34646.235 
  712500    304.52153   -1541.8523    539.04586    372.39058    226.14083    34646.235 
  712600    305.61091   -1540.6901     535.0131    374.43962   -159.86142    34646.235 
  712700    300.57286   -1543.2379    508.20223    322.32946    489.43316    34646.235 
  712800    308.26447   -1578.0774    519.32772    333.35019   -384.74454    34646.235 
  712900    293.58052   -1545.7504    513.60425    293.64211   -179.02298    34646.235 
  713000    298.63255   -1466.5828    535.66399    417.68409   -197.34308    34646.235 
  713100    310.98125   -1475.5765    513.30483    442.09705   -557.38355    34646.235 
  713200    302.47323   -1514.1288    520.25976    372.07805   -210.55014    34646.235 
  713300    282.03204   -1539.2383     531.2429    265.64073   -306.32554    34646.235 
  713400    298.78325   -1529.5726     559.9367    379.64749   -679.51399    34646.235 
  713500    294.68927   -1495.0304    524.76509    360.52999   -32.949493    34646.235 
  713600    300.37853   -1525.5276    514.26854    345.22856   -78.954163    34646.235 
  713700     303.1964   -1563.5298    535.06103    340.74413   -197.06758    34646.235 
  713800    295.58021   -1535.4207    507.18327    306.58128    37.991967    34646.235 
  713900     299.1542   -1527.7537    565.79122     388.9961    11.757729    34646.235 
  714000    290.30082    -1544.034    502.75508    269.69844    202.22777    34646.235 
  714100    294.70262   -1546.2829      498.889    283.46168    67.612842    34646.235 
  714200    308.28391    -1536.337    536.97433    392.82505    405.97781    34646.235 
  714300    310.91213   -1524.9236      512.663    391.79597    389.73403    34646.235 
  714400    294.46322   -1509.8025    527.57298    347.54493    49.003684    34646.235 
  714500    294.96865   -1554.0569    530.90196    308.90207    426.12132    34646.235 
  714600    290.76361   -1524.9621    539.55692     327.6621    248.54408    34646.235 
  714700    282.80298   -1546.5455    530.38856    260.96072    485.91682    34646.235 
  714800    299.01188   -1508.2196    557.00444    399.10071    525.52702    34646.235 
  714900    289.65238   -1508.2974    522.19072    321.94235    311.20901    34646.235 
  715000    310.87769   -1522.1182    483.08893     364.8718    468.82486    34646.235 
  715100    300.40185   -1537.4287    546.31109    365.47524    646.07938    34646.235 
  715200    298.98673   -1536.5232    503.67511    317.35426    609.58246    34646.235 
  715300    306.99547   -1560.6316    543.24196    368.97953    784.67756    34646.235 
  715400     295.9346   -1580.7357     516.0494    271.73284      459.793    34646.235 
  715500    295.82105   -1599.1176    507.91182     244.7005   -54.300286    34646.235 
  715600    296.86257   -1557.5722    525.30067    308.33823    140.78153    34646.235 
  715700    294.65767   -1546.1996    551.44651    335.89946    284.90823    34646.235 
  715800    299.76515   -1550.5925    531.01593    334.14102    373.63572    34646.235 
  715900    308.95396   -1538.4975    497.05988    353.77592   -77.432547    34646.235 
  716000    294.72647   -1530.4315    507.49595    308.02771   -186.61941    34646.235 
  716100     299.3093   -1533.9383    512.09897    329.81972     137.4017    34646.235 
  716200     301.3012   -1517.5734    535.28557    378.36653     361.3232    34646.235 
  716300     297.7331   -1550.0153    544.86223     339.3879   -332.46571    34646.235 
  716400    293.35015   -1557.1549    547.83648    315.42953    -308.6171    34646.235 
  716500    294.65034   -1549.9802    531.67636    312.31568   -3.2372593    34646.235 
  716600    302.40245   -1562.8183    543.58867    346.39778   -301.75628    34646.235 
  716700    307.01654   -1577.4938    528.13099    337.10161   -476.43014    34646.235 
  716800    292.49949   -1577.5925    526.85378     270.1677    153.28807    34646.235 
  716900    297.38086   -1564.5282    531.51198    309.93414    122.01634    34646.235 
  717000    299.59163   -1572.7157    524.41849    304.63685    223.24183    34646.235 
  717100    303.37729   -1572.3695    525.86835    323.52861   -185.43808    34646.235 
  717200    304.65496   -1564.4654    527.25937    338.59363   -297.28295    34646.235 
  717300    305.61854   -1574.0183    528.57198    334.70473   -241.80599    34646.235 
  717400    299.81941   -1554.2476    505.16778     304.8828   -659.28492    34646.235 
  717500    302.22444   -1532.8294    526.69073    358.68486    1.1383868    34646.235 
  717600    298.12273   -1585.3025    529.56527    290.56336   -274.11227    34646.235 
  717700    298.49183   -1583.9508    534.23592    298.25248   -28.882712    34646.235 
  717800    290.16788   -1601.8211    535.43797    243.99389    63.808363    34646.235 
  717900    294.61178   -1597.6806    522.73163    255.49639    -128.4995    34646.235 
  718000    289.14653   -1551.1728    513.83778    268.42971    399.28112    34646.235 
  718100    300.52273   -1592.5229    566.39122    331.00716   -344.34836    34646.235 
  718200     300.9124   -1552.4329    525.42359    331.88919   -851.96629    34646.235 
  718300    292.03852   -1541.9789    517.40471    294.25045   -521.23042    34646.235 
  718400     310.0811   -1604.8726    525.99476    321.42584    54.569423    34646.235 
  718500    298.15775   -1625.6548    528.02114    248.82507   -735.34716    34646.235 
  718600    289.59512   -1604.5511    513.84849    217.08784    89.902454    34646.235 
  718700    294.89278   -1551.3881    508.63474    288.96099    253.11427    34646.235 
  718800    303.68759   -1615.6655    550.36878    306.13431   -384.00772    34646.235 
  718900     307.9709   -1645.9239    527.91163    272.76188    919.34572    34646.235 
  719000    289.94479   -1607.4823    514.01949    215.90679    610.57085    34646.235 
  719100    293.04945   -1581.7718    533.52569    275.14384   -8.9798421    34646.235 
  719200    295.08923   -1558.6616    539.03201    312.97194    113.43855    34646.235 
  719300    302.16275   -1570.3582    505.31525    299.50202    706.52575    34646.235 
  719400    315.48374   -1544.7235    539.98273    419.96085    222.45839    34646.235 
  719500    293.21542   -1569.8546    510.99068    265.27555    259.83894    34646.235 
  719600    314.34687   -1536.3642    505.43338    388.63678   -41.924581    34646.235 
  719700    312.01873   -1575.7149    528.93389    362.27291    588.14885    34646.235 
  719800    307.89494   -1584.9878    532.45495     337.8983     988.9802    34646.235 
  719900    300.94272   -1591.0563    512.74103    280.72021    693.06622    34646.235 
  720000    303.69926   -1581.7951    549.22087    338.90956    767.38972    34646.235 
  720100    292.60615   -1522.2733    510.30584    309.42062    362.73454    34646.235 
  720200     299.5893   -1533.3353    544.04198    363.63019   -80.083203    34646.235 
  720300    309.50954   -1530.7489    528.41342    395.38712   -259.76065    34646.235 
  720400    305.25059   -1532.2964    501.49273    347.68583   -96.521524    34646.235 
  720500    309.29594   -1507.7744    495.57895    384.56253   -530.01952    34646.235 
  720600    300.23243   -1541.9763    530.57089    344.42238   -178.48149    34646.235 
  720700    308.74974   -1569.7315    538.96995    363.52976   -230.16452    34646.235 
  720800    305.09804   -1537.3593    506.37474    346.81599    977.06365    34646.235 
  720900    307.31448   -1547.8868    521.39107    361.31408    638.24636    34646.235 
  721000    302.59045   -1529.0055    512.74849    350.21939    206.93892    34646.235 
  721100    295.32991   -1554.5584    545.68524    324.81523    200.98094    34646.235 
  721200    302.67481   -1555.6229    523.01427    334.24876    189.94833    34646.235 
  721300    315.90577   -1541.7183    489.64179    374.53094   -297.65683    34646.235 
  721400    299.88659   -1535.1513    487.26563    306.38034   -383.14705    34646.235 
  721500    307.73375   -1564.8955    523.24748    348.05524   -480.41713    34646.235 
  721600    300.32037   -1538.0081    535.13061    353.34744    31.222366    34646.235 
  721700    292.70508    -1538.213    482.44468    266.06647   -178.46852    34646.235 
  721800    294.07538   -1501.5694    562.33646    388.79008    458.58559    34646.235 
  721900    297.70425   -1566.1206     529.8092    308.09936    61.449043    34646.235 
  722000    302.25011   -1549.3295    499.29773    314.90773    444.42307    34646.235 
  722100    298.33341    -1555.344    495.04833    286.95632   -262.66618    34646.235 
  722200    303.09566   -1534.8259    531.13218    365.06421   -117.70849    34646.235 
  722300     288.3051    -1540.585    501.60899    262.98883   -156.62506    34646.235 
  722400    298.39262     -1559.17    519.49966    307.84903    128.14863    34646.235 
  722500    301.74172   -1550.4147    503.37075    315.59968    676.89597    34646.235 
  722600    309.84905   -1535.1764    509.55455    373.63395    363.56487    34646.235 
  722700    301.24956   -1571.4606    535.90624    324.86676    465.47313    34646.235 
  722800    312.00196   -1541.0717    536.47193    404.37836    738.31382    34646.235 
  722900     293.1686   -1562.9262    512.33132    273.33316    444.53573    34646.235 
  723000    300.47262   -1509.8781    512.49425    359.52862    818.54448    34646.235 
  723100    307.86612   -1526.4379    514.95089    378.81396    130.92747    34646.235 
  723200    306.25599   -1535.9076     505.9662    353.08836    -503.5313    34646.235 
  723300    302.41628    -1517.628    524.72813    372.79003   -247.15845    34646.235 
  723400    305.11331   -1548.1908    525.75893    355.43759   -147.56498    34646.235 
  723500    291.52422   -1518.6825    531.97972    329.79934   -72.239621    34646.235 
  723600    309.91099   -1522.6318    522.66381    399.56746   -432.92705    34646.235 
  723700    295.51988   -1536.1342    532.26929    330.68135   -811.93242    34646.235 
  723800    304.56476   -1502.8264    526.56291    399.12878   -806.57847    34646.235 
  723900     298.7103   -1508.6985    502.75073    343.00616   -673.89617    34646.235 
  724000    305.92937   -1499.6707    546.86742    428.75148    -760.3355    34646.235 
  724100    308.95865   -1552.5535    483.90782    326.58916   -372.36082    34646.235 
  724200    297.93399   -1567.4167    509.67447    287.70597   -553.13456    34646.235 
  724300    299.96595   -1573.7056    517.96654    298.88538   -233.65045    34646.235 
  724400    308.92478   -1563.4532    566.98391    398.61253    97.567884    34646.235 
  724500    304.14481   -1563.8058    493.53174     303.2218   -70.489823    34646.235 
  724600    296.94681   -1537.9728    526.79966    329.81703   -176.65037    34646.235 
  724700    291.86257   -1568.3745    513.65466    263.31029    122.05077    34646.235 
  724800    294.17605   -1568.3126    503.83321    263.99821    456.74588    34646.235 
  724900    299.89632   -1583.9326    537.98114    308.35853   -51.491373    34646.235 
  725000    304.94555   -1571.9625    525.13362    330.28305    156.38643    34646.235 
  725100    302.63119   -1577.8628    507.52333    296.32094   -323.66784    34646.235 
  725200    292.15193   -1536.7956    504.58971    287.13096   -85.578742    34646.235 
  725300    298.80313   -1570.3565    539.72071    318.73737    -225.0639    34646.235 
  725400    298.73472   -1539.2478    515.76661    325.58312   -104.49417    34646.235 
  725500     288.5258   -1564.9515    518.19671    256.20675   -29.154464    34646.235 
  725600    300.03419   -1534.6727    491.52544    311.78533   -609.91427    34646.235 
  725700    294.97203   -1538.3134    542.35112    336.10996   -499.07909    34646.235 
  725800    301.92119   -1559.4296    517.98173    322.00625   -521.15809    34646.235 
  725900    301.47387   -1554.9205    535.47226    341.98579   -172.60613    34646.235 
  726000    311.35945   -1555.6285     518.7303    369.17847   -671.41597    34646.235 
  726100     294.6014   -1566.2207    528.79079    292.96855   -382.24099    34646.235 
  726200    290.42477    -1570.236    513.51488    254.81596   -251.02057    34646.235 
  726300    291.33049   -1551.6248    524.47611    288.47857   -672.48026    34646.235 
  726400    297.75221   -1539.0175    507.03893    312.64874   -552.98897    34646.235 
  726500    312.37085   -1551.6088     507.3858    366.42107   -394.46475    34646.235 
  726600    300.60374   -1568.6696     528.3746     317.2096   -477.43309    34646.235 
  726700    290.12585   -1576.3742    511.77082     245.5839   -401.72679    34646.235 
  726800    301.91353   -1578.2041    502.88477    288.10019   -138.97055    34646.235 
  726900    292.66292   -1579.1516    492.79427    235.28715    30.216235    34646.235 
  727000    309.27821   -1546.4601    503.46249    353.68027  -0.21471601    34646.235 
  727100    303.72811   -1516.7458    515.26841     370.1367      81.8758    34646.235 
  727200    306.95664   -1521.3663    532.21416    397.04167    356.80101    34646.235 
  727300    295.46131   -1498.6677    510.68887    346.30295   -326.76106    34646.235 
  727400    304.41013    -1508.535    506.55332    372.71229    604.15561    34646.235 
  727500      292.661    -1550.917    506.65125       277.37   -154.43947    34646.235 
  727600    299.91348   -1514.9198     523.8071    363.27475   -68.008035    34646.235 
  727700    295.37879   -1540.9987    499.19491    292.10532    67.804515    34646.235 
  727800    298.90292   -1560.1556    542.67464    332.34293    262.40963    34646.235 
  727900    300.01767   -1583.0424    510.16045      281.976    690.21771    34646.235 
  728000    299.08779   -1545.6475    534.17438    339.18556     689.6824    34646.235 
  728100    298.00359   -1550.5656    513.78019    308.97715    78.801944    34646.235 
  728200     294.2347   -1567.7326    515.28144    276.29132    444.32664    34646.235 
  728300    296.80958   -1572.9829    516.51872    283.90629       621.27    34646.235 
  728400     300.7396   -1541.2176    525.07578    341.97636    711.87208    34646.235 
  728500    298.01175    -1553.342    515.59179    308.04919     667.6685    34646.235 
  728600    293.77242   -1573.5231    503.34977    256.48153    897.61667    34646.235 
  728700    305.62226   -1566.6081    509.35994     322.9197   -36.181572    34646.235 
  728800    291.94266   -1534.6679    521.63505    305.35895   -226.82524    34646.235 
  728900    305.17622    -1502.525    532.77152    408.40005   -532.90214    34646.235 
  729000    305.60317   -1568.9831    521.80371    332.90225   -12.940409    34646.235 
  729100    298.20957   -1576.9859    510.55137    280.25818   -559.82379    34646.235 
  729200    298.98943   -1588.8501    506.38695     267.7514    150.39477    34646.235 
  729300    301.83229    -1559.752    507.95915    311.25985    441.66831    34646.235 
  729400    299.48572   -1533.1058    543.01816    362.36806    211.06748    34646.235 
  729500    294.23369   -1539.5576    482.32544    271.50575    325.22631    34646.235 
  729600    293.09203   -1556.2662    509.80645    277.12252    334.33078    34646.235 
  729700    298.87898   -1561.9572    509.23115    296.98965    839.39065    34646.235 
  729800    303.76034   -1543.4073    538.43014    366.78241    916.25454    34646.235 
  729900    289.43715   -1520.2016    529.10145    315.97691    304.83943    34646.235 
  730000    304.41412   -1467.2536    538.98503     446.4434   -3.9226281    34646.235 
  730100    304.74139     -1468.83    517.98842    425.34836   -146.26375    34646.235 
  730200    304.22848   -1474.1007    496.07698    395.84997   -494.84957    34646.235 
  730300    305.31629   -1481.8787    509.78444    406.69183   -399.94833    34646.235 
  730400    304.65253   -1496.9356    519.72612    398.57918   -859.15451    34646.235 
  730500    301.16276   -1494.2991    517.42424    383.15421    -831.0653    34646.235 
  730600    296.89138   -1549.1778    507.22781    298.78988   -544.73203    34646.235 
  730700    295.77766   -1514.8114    534.22838    355.12741    -368.6948    34646.235 
  730800    296.46764   -1525.3296    523.12428    336.62094   -364.72834    34646.235 
  730900    306.11207   -1562.7546    533.87261    353.49788    513.33712    34646.235 
  731000    292.23134   -1562.4483    492.27117    249.51831    497.18274    34646.235 
  731100    313.11077   -1540.1221    497.25719    371.12059    316.72419    34646.235 
  731200    286.96969   -1557.4075     529.5035    268.03025    1238.0552    34646.235 
  731300    312.65683   -1538.8726    537.28576    410.34866    377.30411    34646.235 
  731400    302.72396    -1556.864    502.56748    312.78289    304.81009    34646.235 
  731500    296.35827   -1535.8224    518.38033    320.89032   -150.42066    34646.235 
  731600    291.26673   -1562.2771     508.0983    261.16052    163.70838    34646.235 
  731700    310.52651   -1517.5138    535.80411    420.60536    275.12251    34646.235 
  731800    298.24022   -1540.8087    490.64804    296.67047   -41.531054    34646.235 
  731900    293.27186   -1535.8684    514.07239    302.59834   -600.05539    34646.235 
  732000    307.36307   -1500.5076    497.72952     385.2512    93.479316    34646.235 
  732100    302.11484   -1505.0982    508.42648    367.65696   -103.49969    34646.235 
  732200     306.3942   -1490.6283    537.77582    430.80145   -14.056122    34646.235 
  732300    297.77656   -1501.3043     538.8939    382.32686   -279.06432    34646.235 
  732400    290.07218   -1502.8039    518.38093    325.52185   -99.483858    34646.235 
  732500    291.23097   -1517.0575    531.67073    329.79108    948.71652    34646.235 
  732600    303.31784   -1468.8972    524.94235    425.80643    995.86472    34646.235 
  732700    297.00115   -1488.6513    531.74648    384.33074    980.08877    34646.235 
  732800    300.03202    -1474.313    517.45207    398.06188    250.22392    34646.235 
  732900     312.2232   -1502.6988    534.45334    441.73178    293.47876    34646.235 
  733000    303.57789   -1476.8166    528.31616    422.43521    79.547408    34646.235 
  733100    306.49873   -1426.1353    540.00074    497.99134    471.10985    34646.235 
  733200    309.09666   -1461.9523    525.88669    459.79242    143.00887    34646.235 
  733300    295.79632   -1455.7038    517.50815    397.59905   -364.72362    34646.235 
  733400    298.07058   -1471.4689    531.89249    406.48864   -655.83883    34646.235 
  733500    291.11707   -1427.1562    492.91888    380.42613   -260.57071    34646.235 
  733600    306.12944   -1463.6789    525.23069    444.01011  -0.73705688    34646.235 
  733700     297.7614   -1489.4476    529.25441    384.47556   -87.003155    34646.235 
  733800    296.80346    -1490.496    517.63716    367.48402   -90.908021    34646.235 
  733900    299.98439   -1532.6319    494.57036    316.64615    280.29109    34646.235 
  734000    298.86208   -1538.0551     521.9472    333.53148   -242.78951    34646.235 
  734100     302.0368   -1539.8518    523.17399    347.29847    263.08745    34646.235 
  734200    290.07812   -1542.4791    494.42754    261.92009    880.12954    34646.235 
  734300    301.77688   -1551.5386    546.07491    357.33875   -398.39739    34646.235 
  734400    291.10413   -1507.9038    505.94982    312.65114    79.938651    34646.235 
  734500    302.40563   -1485.9731    533.32881    412.99758    351.90841    34646.235 
  734600    307.98008     -1498.05    545.61428    438.37989    156.36964    34646.235 
  734700     300.1605   -1510.3316    514.09214    359.26353    666.63422    34646.235 
  734800      300.952   -1440.9878    510.92365    429.01314    812.41252    34646.235 
  734900    299.36596   -1526.5873    568.62198    393.94956    95.372771    34646.235 
  735000     305.1015   -1503.6036    509.81674    384.02935   -394.72982    34646.235 
  735100    307.64665   -1455.4445    467.87962    401.74505    128.01099    34646.235 
  735200     307.9694   -1494.5914    525.95524    422.13124   -581.81909    34646.235 
  735300    299.33073   -1502.5446    524.24168    373.45283   -550.55626    34646.235 
  735400    298.96478     -1463.46    498.93442    385.57759   -425.65195    34646.235 
  735500    309.70995   -1525.5645    524.62355     397.6866    32.519172    34646.235 
  735600    304.18918   -1522.1683    517.96717    369.49504   -97.958238    34646.235 
  735700    300.98388   -1528.4939    488.03655    318.76394    -203.2917    34646.235 
  735800    297.15401   -1532.1742    528.70042    338.45211   -998.46132    34646.235 
  735900    299.79101   -1532.8957    486.33375    307.27241    -343.2658    34646.235 
  736000    307.05293   -1501.7517    519.33078    404.20777   -277.14881    34646.235 
  736100    299.54547   -1545.4114    483.29485    290.60896   -476.37544    34646.235 
  736200    294.50268   -1570.1788    506.49211    266.26593   -87.570607    34646.235 
  736300    305.87097   -1551.4992    519.65785    349.44967   -313.17474    34646.235 
  736400    304.96808   -1561.3281    510.60241    326.48801   -167.21934    34646.235 
  736500    298.96781   -1541.9809    494.95551     303.0915   -1089.2103    34646.235 
  736600    302.82711   -1524.4066    497.40495    340.54358   -276.48617    34646.235 
  736700    291.54634   -1528.9951    522.76691    310.37383   -411.30888    34646.235 
  736800    304.49003    -1535.175    509.67226    349.55209    327.34292    34646.235 
  736900    299.74056   -1555.0151    521.49371    320.08515    585.03369    34646.235 
  737000    296.84263   -1527.3945    529.52134    342.64655    387.73411    34646.235 
  737100    291.30752   -1568.7371    491.03342    237.81985   -68.250854    34646.235 
  737200     301.8065   -1524.2965    500.54283    339.18254   -220.11361    34646.235 
  737300    308.70707   -1543.6631     501.6055    352.04106    31.826849    34646.235 
  737400    301.34067   -1527.4083    507.67367     341.0979   -62.442989    34646.235 
  737500    298.90042   -1533.5391    509.52515    325.79864    92.568274    34646.235 
  737600    295.74098   -1521.1643    471.99688    286.37732    266.14004    34646.235 
  737700    299.75913    -1532.285    517.18944    338.59491    129.55839    34646.235 
  737800     309.1359   -1547.8997    491.85667    339.99216    213.26535    34646.235 
  737900    301.93427    -1496.162    510.48048    377.83169    797.00529    34646.235 
  738000    303.99798   -1544.3044    525.95533    354.48372    192.79248    34646.235 
  738100    307.82345   -1487.4829    507.17449    409.79988     308.4806    34646.235 
  738200    294.34537   -1478.4466    517.08914    367.88478   -233.31452    34646.235 
  738300    296.93581   -1479.7886    515.21797    376.36986   -154.00854    34646.235 
  738400    307.63172   -1504.3601    522.05822    406.94053   -261.48944    34646.235 
  738500    297.66873   -1535.4434    483.78405    292.59101    193.98846    34646.235 
  738600    286.82689    -1565.129    503.45196    233.61234    300.23393    34646.235 
  738700    305.61151   -1530.7274    511.30138    360.69332   -31.764764    34646.235 
  738800    291.95679    -1536.297    526.78927    308.94784    729.23529    34646.235 
  738900    311.03032   -1540.8221    504.01273    367.78092    804.05077    34646.235 
  739000    302.50058   -1506.2655    519.44563    379.25069    265.85228    34646.235 
  739100    298.20114    -1483.732    514.02805    376.95076    512.35238    34646.235 
  739200    301.98847   -1539.8298     521.7851    345.71326    797.04156    34646.235 
  739300    298.64111   -1517.0821    500.90136    332.46076    1054.4151    34646.235 
  739400    300.09207    -1472.316    542.90241    425.78042    666.59352    34646.235 
  739500     292.4586   -1520.8473    511.68556    311.55998    837.66637    34646.235 
  739600    305.27144    -1496.875    525.18089    406.88946    80.046705    34646.235 
  739700    286.09633   -1509.0861    541.90527    324.80934    68.373406    34646.235 
  739800    299.82658   -1512.7993    514.13571     355.3314    504.61693    34646.235 
  739900    303.85947   -1536.5786    502.82153    338.45021    122.25818    34646.235 
  740000     294.0561   -1506.9966    526.04965    346.98901    69.792415    34646.235 
  740100    302.66959   -1483.7054    536.89261    420.02107   -402.32201    34646.235 
  740200    293.95813   -1530.4375    542.08793      339.144   -653.85528    34646.235 
  740300    314.41192   -1499.9196    485.76697    405.70878   -939.00901    34646.235 
  740400    313.73651   -1547.0646    524.59394    394.34058   -844.79742    34646.235 
  740500    296.92863   -1520.2161    512.74692    333.43893   -477.86583    34646.235 
  740600    290.11252   -1506.7871    498.34921     301.6892   -173.37615    34646.235 
  740700    296.76787   -1477.3951    560.29982    423.08682   -234.77942    34646.235 
  740800    288.05537   -1514.0387    474.43321    261.23155   -241.82121    34646.235 
  740900    310.96562   -1507.0935    534.77922    431.98385    193.83691    34646.235 
  741000      301.855   -1536.0878    516.27527    343.34269   -329.81431    34646.235 
  741100    301.49497   -1497.4107    514.11071    378.22931   -642.34088    34646.235 
  741200    298.73909   -1510.2511    502.39475    341.22766   -1264.5579    34646.235 
  741300    298.12864   -1504.9517    500.33977    341.71529    -585.0354    34646.235 
  741400    292.83713   -1503.1266    535.80409    355.10861   -653.76137    34646.235 
  741500    312.51581    -1525.969    491.57715    376.90681   -8.4123106    34646.235 
  741600    295.15922    -1544.493    533.41922    321.84381   -467.49725    34646.235 
  741700      299.926   -1559.5552    504.80127    299.69006   -514.24767    34646.235 
  741800     298.5323   -1488.9484    520.66238    379.86411   -418.87926    34646.235 
  741900    302.12094   -1500.4173    510.51973    374.45866   -472.55132    34646.235 
  742000    304.42515   -1520.6133    491.88029     346.0288    -820.3255    34646.235 
  742100    294.67065    -1496.367    516.82435    351.16856   -1031.7142    34646.235 
  742200    296.96962   -1562.9441    504.07363    282.22273   -1135.6641    34646.235 
  742300     310.9173   -1553.4269    494.06302    344.71597   -585.21815    34646.235 
  742400    293.06585    -1491.835    512.91393      344.543   -498.70372    34646.235 
  742500    305.49636   -1482.1252     505.9187    403.39285   -205.71755    34646.235 
  742600    302.31118   -1457.2114    513.41487    421.41875   -239.28608    34646.235 
  742700    298.50293   -1488.6409    522.40334    381.77993    298.08079    34646.235 
  742800     314.5026   -1517.8735    489.20123    391.59856    151.55754    34646.235 
  742900    301.84528   -1467.0141    519.60239    415.69958    422.90517    34646.235 
  743000    285.71239   -1520.1623    526.71213    296.80615   -261.34008    34646.235 
  743100     290.3138   -1485.4913    507.89744    333.44219   -61.794562    34646.235 
  743200    304.93577   -1488.9349    532.66594    420.79882    784.47357    34646.235 
  743300    307.30735   -1510.2504    486.70461    364.23185   -129.93807    34646.235 
  743400    307.18528   -1523.0159    488.58639    352.79688    282.87887    34646.235 
  743500    297.97953   -1510.9829    504.86979     339.5407    671.60581    34646.235 
  743600    298.90356   -1519.7954    529.52646    359.55783    723.97829    34646.235 
  743700    300.81132    -1528.246    508.36404     338.5601    522.12019    34646.235 
  743800    308.18368   -1506.1879    509.72856    395.27576    452.06701    34646.235 
  743900    289.87932   -1481.0065    533.66685    361.73431    572.68108    34646.235 
  744000    304.10415   -1494.8651    525.24157    403.68872    784.84036    34646.235 
  744100    294.52308   -1481.7833    497.90173    346.16324     402.7529    34646.235 
  744200    305.33498   -1475.9094    518.32379    421.28494   -263.48706    34646.235 
  744300    296.75975   -1484.9689    498.99721    354.17373    346.82774    34646.235 
  744400    296.87515   -1504.7359    490.38754    326.31821    530.90493    34646.235 
  744500     303.9652   -1486.8323    513.75669    399.60911    810.43072    34646.235 
  744600    309.16242   -1462.6363    494.25567    427.77436   -187.19003    34646.235 
  744700    301.13583   -1460.0389    522.23293    422.10155   -237.35702    34646.235 
  744800    312.27224   -1472.6563    493.86198    431.40444   -563.33584    34646.235 
  744900    298.48592   -1480.8355    512.38184    379.48704    545.96892    34646.235 
  745000    294.92764   -1552.5315    510.32451    289.66473    150.70991    34646.235 
  745100    306.85655   -1521.0352    509.99626    374.70294    499.04745    34646.235 
  745200     297.5316   -1522.4183    513.73797    334.95076    268.10811    34646.235 
  745300     302.9525   -1546.5594    494.43951    315.99159    629.36036    34646.235 
  745400    295.42548   -1489.6707    505.78875    350.23801    414.69578    34646.235 
  745500    292.28173   -1510.1762    508.64328    318.39008   -255.89718    34646.235 
  745600    310.36807   -1502.3331    540.88084    440.14738    552.55196    34646.235 
  745700    313.23945   -1529.7879    505.26887    390.04759    1381.3232    34646.235 
  745800    300.39558   -1495.1695     508.1129    369.50796    519.10429    34646.235 
  745900    298.72437   -1514.2712    497.55542     332.3017     419.5027    34646.235 
  746000    302.47842   -1578.2751    528.37476    316.07019    397.54658    34646.235 
  746100    293.61592   -1521.2987    505.29987     309.9493    -169.7437    34646.235 
  746200    300.30388    -1495.502    516.89701    377.54547   -1102.8607    34646.235 
  746300    298.79568   -1473.3768    513.01783    388.98052   -793.79749    34646.235 
  746400     286.8868   -1494.0758    502.22675    303.71081   -333.35493    34646.235 
  746500    290.65602   -1497.9506    508.96282    323.59368   -34.583143    34646.235 
  746600    303.77419   -1520.1979    514.50798    366.13225   -107.04434    34646.235 
  746700    295.21705   -1557.5652    503.02615    278.63966    296.38883    34646.235 
  746800     301.5173   -1527.2512    527.06334     361.4423   -175.78525    34646.235 
  746900    295.37314   -1534.5251     490.3524    289.71086   -748.36135    34646.235 
  747000    307.28248   -1500.3346    488.75067    376.08132   -589.70722    34646.235 
  747100    295.82688   -1543.1638    514.39861    307.16746   -153.56392    34646.235 
  747200    301.09133   -1488.3913    520.39271      391.708    155.18172    34646.235 
  747300    306.69262   -1492.6564    516.72401     409.0692    444.16463    34646.235 
  747400    296.70862   -1514.2441    524.92712    350.59757    471.79278    34646.235 
  747500    298.63417   -1562.0487    509.95153    296.51299    447.95373    34646.235 
  747600    305.64261   -1544.4817    508.11438    343.89252    787.33971    34646.235 
  747700      300.829   -1554.7298    531.86129     335.6534     798.6427    34646.235 
  747800    298.79617   -1506.5107    512.45449     355.2856    899.65113    34646.235 
  747900    296.43003   -1521.7057    512.04025    328.99096    589.62072    34646.235 
  748000    301.00765    -1546.011    505.06695    318.38456    54.935174    34646.235 
  748100    298.29088   -1543.8533    464.86733    268.07387    209.63703    34646.235 
  748200    285.52988   -1518.0374    529.11876    300.51358   -319.88586    34646.235 
  748300    290.93726   -1557.4582    471.85359     228.2469    -484.6196    34646.235 
  748400    294.83153   -1552.1923    480.87081    260.11627    335.63639    34646.235 
  748500     310.0103   -1554.4116    502.08511     347.6575    395.78689    34646.235 
  748600    302.56189   -1578.2218    503.91382    292.03951      705.305    34646.235 
  748700    300.55143   -1517.4896    496.75067    336.52942   -327.97688    34646.235 
  748800    296.77156   -1521.9003    486.72784    305.02625   -19.619893    34646.235 
  748900    302.23632   -1500.9635    506.25538    370.16909   -143.38112    34646.235 
  749000     298.7257   -1527.4889    507.89783    329.43242   -139.36361    34646.235 
  749100    293.29194   -1521.5249    514.17419    317.13433    61.447103    34646.235 
  749200    313.18237   -1531.7829    549.90216    432.42799    168.62473    34646.235 
  749300    304.24772   -1543.5295    509.52172     339.9528   -281.88778    34646.235 
  749400    305.58638   -1507.3369    501.17011    373.83911    569.56136    34646.235 
  749500    294.43758     -1556.89    475.03368    247.80236    338.83563    34646.235 
  749600    311.88648   -1522.8009    523.71242    409.36815    48.349897    34646.235 
  749700    299.06778   -1547.3352    500.64093    303.87411    297.29049    34646.235 
  749800    313.16417    -1516.499    491.65405    389.38171    -134.4778    34646.235 
  749900    301.80061   -1563.5323    489.19107    288.56835   -207.54969    34646.235 
  750000    299.89423   -1516.6171    490.34059    328.02402   -214.00212    34646.235 
  750100    296.01939   -1493.7128    487.73074    330.81999   -618.89091    34646.235 
  750200    297.48737   -1536.2647     473.9684    281.13505    248.03622    34646.235 
  750300    302.48743   -1476.3262    520.28539    409.97046   -1.7301911    34646.235 
  750400    290.96719    -1514.542    501.61305    301.05769   -337.00885    34646.235 
  750500    304.79956   -1519.4748    530.29483    387.27268   -454.34368    34646.235 
  750600    304.70744   -1534.0558    499.93096    341.91183   -832.92225    34646.235 
  750700    288.07859   -1506.3279    480.52062    275.13462   -289.44887    34646.235 
  750800    301.34093   -1540.7194     518.9887      339.103    52.184082    34646.235 
  750900    300.26958   -1567.4975    506.45123    294.94929    293.51617    34646.235 
  751000    305.64183   -1568.9527    524.39102    335.69458   -348.34854    34646.235 
  751100     291.0616   -1554.6265    489.72175    249.50831    167.78077    34646.235 
  751200    294.56032   -1517.2397    520.87229    333.84558   -268.12395    34646.235 
  751300    304.39029   -1543.7507    484.06728    314.92101    974.10532    34646.235 
  751400    312.56185   -1569.1935    525.79608    368.10915    700.50812    34646.235 
  751500    308.37925   -1543.3467    501.97232    351.24389    1012.9524    34646.235 
  751600    296.32745   -1553.6344    506.78283    291.34169    926.28628    34646.235 
  751700    291.97302   -1550.3603    517.22368    285.39236    337.48987    34646.235 
  751800     302.4607   -1590.3548    495.09149    270.62721    407.24191    34646.235 
  751900    293.59325   -1538.2927    491.02815    278.58116    -209.8804    34646.235 
  752000    303.73013   -1556.5426    495.54052    310.62115   -118.25478    34646.235 
  752100    287.73878   -1549.4782    509.87164    259.80084   -540.29121    34646.235 
  752200    304.76601   -1550.2668    504.84329    330.87762    50.027856    34646.235 
  752300    308.58225   -1517.4126    501.24549    377.36791   -476.76547    34646.235 
  752400    303.99221   -1488.9699    504.07876    387.91556   -203.50662    34646.235 
  752500     294.6929    -1538.708    517.18726    309.29097   -750.27653    34646.235 
  752600    294.75765   -1483.7726    512.21471    359.54617   -845.14147    34646.235 
  752700    305.42951   -1475.5723    489.10731    392.83243   -416.94198    34646.235 
  752800    299.80536    -1532.507    489.67966    311.07183    4.3354937    34646.235 
  752900    294.27389   -1537.4942    502.47237    293.89769    607.80506    34646.235 
  753000    290.98834   -1545.3013    480.78352    249.56443    643.90946    34646.235 
  753100     295.6411   -1552.3473      496.417    279.16341    575.67035    34646.235 
  753200    303.19496   -1529.0547    501.19094     341.3426    880.65176    34646.235 
  753300    301.96519   -1527.6185    511.61121     347.6455    208.06309    34646.235 
  753400     298.2756   -1534.4012    475.14804    287.73767    278.07391    34646.235 
  753500    305.84018   -1518.0003    503.88763    367.03936    803.30831    34646.235 
  753600    307.04939   -1576.5008    475.63208    285.74403   -157.13299    34646.235 
  753700    313.30547   -1540.3346    485.99913    360.52925   -166.75705    34646.235 
  753800     301.3134   -1516.5414    493.97022    338.13817     164.5075    34646.235 
  753900    292.32109   -1510.0146    488.95567    299.04187   -62.302587    34646.235 
  754000    294.42589   -1574.8733    503.13542      257.868   -212.32328    34646.235 
  754100    291.88947   -1564.5662    482.49503    236.08039   -128.71226    34646.235 
  754200    293.71753   -1538.9094    458.42512    245.92272    247.88024    34646.235 
  754300    288.29949   -1503.7532    504.95458    303.14095   -107.12447    34646.235 
  754400    298.41234   -1513.3262     491.8556    326.13782    128.45241    34646.235 
  754500     295.4806   -1533.4908      491.701    292.57903    -145.3931    34646.235 
  754600    297.89138   -1486.5591    518.72402    377.42076    32.456853    34646.235 
  754700    295.01645   -1535.0781    479.91833    277.11307   -729.55232    34646.235 
  754800    300.18974   -1482.4954    495.61408    368.75363   -774.79291    34646.235 
  754900     292.7161   -1583.0289      491.732     230.5877   -998.13579    34646.235 
  755000    296.71205   -1524.5642    479.82332    295.18917   -1175.9891    34646.235 
  755100     301.8481    -1527.617    484.43281    319.93983   -718.75487    34646.235 
  755200    304.25149   -1550.2163    508.73269    332.49401   -401.61272    34646.235 
  755300    298.80704   -1482.5313    499.82805    366.68758   -370.21563    34646.235 
  755400     290.0061   -1507.4674    509.67314    311.85221   -62.071726    34646.235 
  755500    307.62781   -1496.5376     510.4516     403.1388    596.93749    34646.235 
  755600    299.19429   -1455.8487    496.92118    392.21212    71.858449    34646.235 
  755700     299.2725   -1464.8637     503.7656    390.39473   -437.32936    34646.235 
  755800    298.98047   -1517.5954    498.21741    330.79609    -414.8338    34646.235 
  755900    296.53781   -1485.6082    487.11655    340.65152     143.8621    34646.235 
  756000    300.76478    -1509.923    497.19699    345.50581    174.25763    34646.235 
  756100    306.76102   -1509.6624    462.01203    337.66004    103.02936    34646.235 
  756200    307.43426   -1524.2525    524.90262    389.00084    432.54711    34646.235 
  756300    295.51925    -1513.707     474.2908    295.12726     308.3169    34646.235 
  756400    293.64251   -1520.0244    483.72529     289.7691    296.69582    34646.235 
  756500    297.35158   -1518.4019    524.96317    349.37939   -286.89554    34646.235 
  756600    301.11094   -1504.2111    487.71272    343.29671   -684.19231    34646.235 
  756700    304.18987    -1507.427    510.51742    376.78972   -147.46021    34646.235 
  756800    290.13394   -1502.6973    491.33991    298.86637   -579.49893    34646.235 
  756900    299.10472   -1519.1876    492.11206    323.65964   -466.44766    34646.235 
  757000    293.21971   -1529.9531    496.19389    290.39969   -309.64331    34646.235 
  757100    314.55872   -1519.9244    458.90212    359.50203   -196.96838    34646.235 
  757200    296.13447   -1516.7119    493.17146    313.78131   -190.74556    34646.235 
  757300    305.10177   -1519.4748    486.84637    345.18898    413.20701    34646.235 
  757400    298.69544   -1524.7843    515.41393    339.51646    241.96177    34646.235 
  757500     298.0391   -1540.8778    498.47631     303.5214    392.51477    34646.235 
  757600    299.27745    -1540.573    510.28862    321.23083   -74.723551    34646.235 
  757700    299.20354   -1507.4025     480.0164    323.79528    656.10078    34646.235 
  757800    291.25705    -1542.862    506.11089     278.5445    746.33117    34646.235 
  757900    289.56098    -1537.987     509.2279    278.87715    130.07744    34646.235 
  758000    297.23404   -1505.6007    494.23656    330.92315    508.70917    34646.235 
  758100    311.40927   -1517.4198    528.68262    417.56439    259.07245    34646.235 
  758200    298.88461   -1539.6064    495.82338    305.95817    847.36154    34646.235 
  758300    305.38416   -1527.8195    520.68618    371.95933    216.12821    34646.235 
  758400    307.02651   -1511.1668    499.47961    374.82221    261.29372    34646.235 
  758500    300.98382   -1498.5524    521.28487    381.95345    517.35288    34646.235 
  758600    291.14015   -1432.7771    506.67777     388.6684    -380.4242    34646.235 
  758700    293.49485   -1475.5469    501.99802    351.85255   -1212.1984    34646.235 
  758800    299.42553   -1503.6621    500.53989    349.06167   -1104.4219    34646.235 
  758900     300.0363   -1507.4009    493.46217    341.00342   -720.83405    34646.235 
  759000    305.64675   -1472.9475    479.03429    386.36524   -697.68967    34646.235 
  759100    304.67787   -1532.4318    461.61957    305.09087   -972.22004    34646.235 
  759200    287.52265   -1486.9278    506.92855    318.43212    71.028111    34646.235 
  759300    308.34685   -1574.3885    509.51624    327.59966   -190.57817    34646.235 
  759400    301.07049   -1515.2148    505.05203    349.44963    28.262189    34646.235 
  759500    304.05417   -1472.4893    476.10309    376.70031     251.1363    34646.235 
  759600    295.73102   -1503.3244    507.11109    339.28646    226.58714    34646.235 
  759700    303.36084   -1546.7495     519.1669    342.37288   -449.03986    34646.235 
  759800    286.63234   -1466.8661    500.63092    328.17559   -708.24218    34646.235 
  759900    300.42291     -1502.64    497.74996    351.79795   -367.06919    34646.235 
  760000    299.49348   -1522.0834    530.79477    361.20217   -437.08278    34646.235 
  760100    299.67948   -1535.9136     486.4989    303.91606   -35.897606    34646.235 
  760200    302.82997   -1558.7222    509.70637    318.54233    -347.7031    34646.235 
  760300    306.79396   -1543.2779    480.97416    323.15548    7.4693765    34646.235 
  760400    300.66042   -1560.9306    496.95586    293.78588    509.23391    34646.235 
  760500    304.07499   -1511.0906    502.26746    364.35737   -151.66194    34646.235 
  760600    301.44955   -1507.9469    509.72435    363.10167    75.736604    34646.235 
  760700    297.34852   -1495.5582    502.15639    349.40245    21.097256    34646.235 
  760800    293.12818   -1483.2839    499.67376    340.13541   -315.46767    34646.235 
  760900    298.14424    -1495.886    541.53418    392.04588   -74.163507    34646.235 
  761000    290.56586   -1538.4411    501.99916    275.73237    17.074626    34646.235 
  761100    289.64182   -1536.5211    516.93036    288.41069   -199.87213    34646.235 
  761200    302.01141   -1495.4293     528.4031    396.83528   -355.98994    34646.235 
  761300    298.61717   -1487.3439    497.51492    358.70447    129.40722    34646.235 
  761400    297.90637   -1468.3961    538.67475    415.60212    202.47994    34646.235 
  761500    294.43124   -1500.5652    503.76933    332.83414    475.27924    34646.235 
  761600    302.29754   -1528.2511    513.83633    350.73892    803.83086    34646.235 
  761700    296.68561   -1544.5081    518.10232    313.40485    1030.8128    34646.235 
  761800    296.93038   -1518.0222    529.72993    352.62374    612.58177    34646.235 
  761900    306.28212   -1515.5463    525.75112    393.35254    988.49848    34646.235 
  762000    303.77449   -1437.1718    496.03434    430.68598    698.35354    34646.235 
  762100     297.4039   -1489.9478    508.94752    362.05415     147.0319    34646.235 
  762200    295.80483   -1512.1861    510.34289    333.98986    493.23749    34646.235 
  762300    295.39427   -1524.5258    505.59667    315.04989   -198.70988    34646.235 
  762400    303.83485   -1482.4081    487.99643    377.68444   -717.53967    34646.235 
  762500     323.3492   -1525.9712    508.33573    442.58593   -175.44217    34646.235 
  762600     301.3731   -1521.0432    486.09168    326.02746    165.14964    34646.235 
  762700    304.29884   -1493.8586    527.09378    407.42665    358.67284    34646.235 
  762800    300.08452   -1469.3301    520.22282    406.05254    437.75132    34646.235 
  762900    304.93635   -1523.5764    509.58936    363.08335    625.06807    34646.235 
  763000    294.59354   -1525.3241    494.83136    299.87024   -124.31906    34646.235 
  763100    292.38805   -1493.8287    536.82825    363.40274   -140.33788    34646.235 
  763200    294.66401   -1513.1387    506.84134    324.38384    -2.624869    34646.235 
  763300    296.07299    -1531.265    493.08643    298.86545   -834.94261    34646.235 
  763400     299.5216   -1547.3781    536.21175    341.45141   -447.78699    34646.235 
  763500    296.98484   -1571.4593    478.43051    248.13316   -724.37664    34646.235 
  763600    302.21324   -1490.7359    512.36407    386.40115   -759.73492    34646.235 
  763700    297.45413   -1489.4946    524.59679    378.38335   -400.54891    34646.235 
  763800     311.4731   -1539.8841    505.76241    372.46811   -14.795842    34646.235 
  763900    300.23934   -1524.5289    519.21124    350.54139   -68.448619    34646.235 
  764000    303.28123   -1496.7039    524.41774    397.30978    155.45103    34646.235 
  764100    300.14657   -1550.5014    481.24901    286.18765   -33.849737    34646.235 
  764200    305.43509   -1467.4401    517.97161    429.85416   -31.959773    34646.235 
  764300    296.34393   -1491.1806     512.0478    359.13479    227.07287    34646.235 
  764400    292.08244   -1528.9315     502.6845    292.77606    41.815137    34646.235 
  764500    305.36145   -1473.3258    528.84009    434.50439   -296.35365    34646.235 
  764600     299.6582    -1526.647     488.8804    315.46802   -59.325456    34646.235 
  764700    286.17479   -1545.9645    528.57004     274.9501    148.53206    34646.235 
  764800    303.53191   -1497.9975    513.45756    386.18811    6.0021891    34646.235 
  764900    297.13169   -1493.8467    480.72483    328.70326    696.38411    34646.235 
  765000    305.38514   -1521.2971    527.25102    385.05093    530.70254    34646.235 
  765100    292.15637   -1550.5886    489.84702    258.61529    171.29151    34646.235 
  765200    295.93899   -1556.5982    515.22855    295.06929    -400.9004    34646.235 
  765300    304.51383    -1514.094    526.31011    387.37837    285.23384    34646.235 
  765400    297.40972   -1506.0163    500.79175    337.85611   -593.91391    34646.235 
  765500    298.87043   -1495.8493    477.94741    331.77521    -64.82916    34646.235 
  765600     293.7689   -1536.1622    491.86181    282.33857   -237.07769    34646.235 
  765700    297.81514    -1545.611    524.20135    323.50183     294.9866    34646.235 
  765800    289.08172   -1542.0156    509.94251    273.39888   -88.378345    34646.235 
  765900    301.36557   -1519.6846    486.25895     327.5193   -40.698579    34646.235 
  766000    310.20969   -1505.4564     491.6548    387.08281   -648.08423    34646.235 
  766100    309.89965   -1542.8155    503.02506    359.69385    160.31596    34646.235 
  766200    290.65298   -1526.2341    534.24952     320.5831   -176.56425    34646.235 
  766300    298.35665   -1501.1139    532.91715    379.16022   -24.932259    34646.235 
  766400    304.95627   -1523.6088    492.21787    345.76939    862.52783    34646.235 
  766500    302.89229    -1558.136     507.2626    316.96613    731.38554    34646.235 
  766600    300.45714   -1488.6736    535.93502    404.10403    587.02547    34646.235 
  766700     297.4134   -1516.7368    503.04044     329.4009    369.92877    34646.235 
  766800     304.6437   -1510.3688     520.1914    385.57137    448.15889    34646.235 
  766900    287.70802   -1534.0129    516.63703    281.89259    498.28501    34646.235 
  767000    301.71428   -1481.4776    532.85224     413.8944    116.29684    34646.235 
  767100    309.85281   -1473.5164    513.08382     438.8402    105.04488    34646.235 
  767200     295.0957    -1532.848    507.39206     307.1748   -87.704768    34646.235 
  767300    301.90696   -1508.8588    502.51401    357.04509   -551.74673    34646.235 
  767400    306.63335   -1528.6855    467.77993    323.82835     20.78529    34646.235 
  767500    306.62242   -1519.9606    482.90968    347.63365   -45.168174    34646.235 
  767600     307.0212   -1514.8676    506.98314    378.60091    610.34206    34646.235 
  767700    299.59975   -1518.9567    508.07983    342.09376    307.65091    34646.235 
  767800    308.33069   -1534.4492    500.79955    358.74927    375.41594    34646.235 
  767900    301.62212   -1523.1406    504.40986     343.3728    874.23115    34646.235 
  768000    305.50048   -1587.6567    491.85628    283.81755    573.24633    34646.235 
  768100    299.06701   -1555.0542     485.9779    281.48857    287.88998    34646.235 
  768200    299.36041   -1534.1879    503.75289    321.45479    282.63657    34646.235 
  768300    293.79419   -1572.7879    516.32448    270.28976    152.56363    34646.235 
  768400    298.34022   -1540.7593    485.03262    291.55601    783.53492    34646.235 
  768500    296.62276   -1543.9343    504.19346    299.78597    418.34571    34646.235 
  768600    303.63472   -1521.3722    508.78172    358.60177    675.65125    34646.235 
  768700    294.63886   -1548.0805    516.60597    299.09316    353.73314    34646.235 
  768800    295.55685   -1540.7625    499.35924    293.30992    423.36433    34646.235 
  768900    302.17267   -1507.4441    520.47581    377.62151    831.50418    34646.235 
  769000     310.3481   -1503.5956    509.62983    407.54366    408.62735    34646.235 
  769100    307.76183   -1534.6258    509.51011    364.71431    262.55666    34646.235 
  769200    296.31218   -1547.9106    489.20297    279.41661    173.22611    34646.235 
  769300    306.18948   -1464.0721    517.09567    435.75304   -203.32896    34646.235 
  769400    304.71135   -1497.7881    513.69655    391.96271     -442.702    34646.235 
  769500    291.92051   -1503.4769    498.44601    313.26092   -648.58616    34646.235 
  769600    300.80828   -1516.9576     537.1056    378.57634   -80.192565    34646.235 
  769700    294.17878   -1480.9798    500.59107    348.10126    510.25231    34646.235 
  769800    298.16048   -1505.8038    510.65215    351.31941    109.46291    34646.235 
  769900    300.48966   -1467.5799      540.619    430.02856    9.4375092    34646.235 
  770000    290.91171    -1472.952    512.28624    353.07037    633.34759    34646.235 
  770100    301.67112   -1447.4561      520.135    435.00376    73.342534    34646.235 
  770200    295.16529   -1429.6987    529.35229    432.59853   -214.36999    34646.235 
  770300    292.83212    -1461.378    507.44717    368.47773   -26.047193    34646.235 
  770400    311.16287   -1509.6727    488.52355    384.03976   -106.76487    34646.235 
  770500    287.67309   -1492.0418    518.93084    325.99974    77.321177    34646.235 
  770600    299.43937   -1508.6875    504.93183    348.49073    15.600415    34646.235 
  770700    288.97095   -1489.3902    524.14817    339.72976   -132.79244    34646.235 
  770800    306.86238   -1495.2274    519.95634    410.49707    20.797878    34646.235 
  770900    294.64794   -1487.0865    536.21095    379.73309   -790.35158    34646.235 
  771000     298.6748   -1483.4942    537.81121     403.1107   -729.71144    34646.235 
  771100    293.43826   -1533.5154    500.04546    291.67584   -524.68482    34646.235 
  771200    303.82327    -1535.161    514.35671    351.23944   -383.46955    34646.235 
  771300    296.95057   -1524.2943     513.0606    329.77347   -399.36665    34646.235 
  771400     297.2036   -1494.1448    501.30876    349.31379    -983.7987    34646.235 
  771500    287.10233   -1461.1894    492.14162    327.48546   -936.95857    34646.235 
  771600    299.76804   -1480.2998    539.86103    413.29191   -1527.0112    34646.235 
  771700    296.52679   -1528.4801    508.76331    319.37657   -953.56618    34646.235 
  771800    305.24685   -1555.7516    527.20763    349.92859   -514.91257    34646.235 
  771900    301.87392    -1540.267    500.31204    323.28572    227.54172    34646.235 
  772000    306.64011   -1534.6757    512.07357     362.1623    101.01611    34646.235 
  772100    301.90174   -1522.2304    509.47224    350.60816    377.75696    34646.235 
  772200    303.40162   -1515.3088    512.80633    367.63712    214.32044    34646.235 
  772300    293.01448   -1551.1296     509.3231     281.4256   -346.79649    34646.235 
  772400    298.78114   -1533.7703     495.5306    311.03419    41.300897    34646.235 
  772500    306.66768   -1514.8908    514.82106     384.8192    -303.1064    34646.235 
  772600     302.2513    -1491.933     555.9791    428.99094    88.949557    34646.235 
  772700    308.36138   -1541.7771    490.00669    340.76716   -120.24885    34646.235 
  772800    294.78164   -1540.4999    516.33452    307.04709    23.037988    34646.235 
  772900    310.19841   -1510.6577    519.12825    409.30402    173.87941    34646.235 
  773000    304.51611   -1517.3736    510.16974    367.96875    440.06503    34646.235 
  773100    295.21069   -1514.5159    526.44635    345.08044    33.932212    34646.235 
  773200    278.05889   -1523.0704    495.24468    227.86798    -676.7444    34646.235 
  773300    303.58685   -1520.2549    537.58711    388.30836   -19.897862    34646.235 
  773400    299.95701   -1523.9833    500.01046    330.61121   -509.13116    34646.235 
  773500    299.65323   -1555.4873    526.76901    324.49386   -774.42356    34646.235 
  773600    293.13112   -1498.0894    536.19301    361.86244   -444.06389    34646.235 
  773700    302.50574   -1482.7913    523.03209    406.33474   -427.83686    34646.235 
  773800    311.01137   -1481.3081    530.09053    453.28712    420.50689    34646.235 
  773900    290.20478   -1457.9765    528.56328    381.13045    345.77166    34646.235 
  774000    299.77177   -1489.9246    516.68386    380.50679    145.62784    34646.235 
  774100    300.99868   -1478.8017    504.14837    384.63484    246.62211    34646.235 
  774200      303.315    -1503.986    540.67982    406.44232    520.00467    34646.235 
  774300    304.72788   -1470.6714    507.95386    413.41137   -78.971654    34646.235 
  774400    295.25587   -1465.4504    552.29593    420.19952   -210.85352    34646.235 
  774500    310.25057   -1477.0591    512.50166    436.51159    26.088811    34646.235 
  774600    294.30903   -1464.9777    517.25125    381.35169    64.268796    34646.235 
  774700    301.82319   -1472.4295    535.74658    426.32864    178.97142    34646.235 
  774800    290.87938   -1529.3646    509.01569    293.24124    405.38034    34646.235 
  774900    299.86585   -1509.6448    513.26673     357.7943   -293.60326    34646.235 
  775000    306.13342   -1536.1785    502.20161    348.49934   -506.16582    34646.235 
  775100    298.22738   -1522.1736     521.2171    345.81667   -542.40112    34646.235 
  775200     319.8038   -1497.0558    506.95718    454.11203    268.71487    34646.235 
  775300    309.02396   -1547.3243    515.11414    363.31953    265.24252    34646.235 
  775400    299.47676   -1550.5052    520.69064    322.60068   -8.4479775    34646.235 
  775500    295.98511   -1524.3879    492.20993     304.4692   -494.25136    34646.235 
  775600    299.57593   -1527.1085    507.82339    333.57796   -340.26916    34646.235 
  775700    306.10291   -1589.5807    498.01781    290.77561   -58.062491    34646.235 
  775800     309.7306   -1547.6052     511.3427    362.45832   -456.43047    34646.235 
  775900    305.39571   -1554.6062     497.4068    321.94543   -162.33582    34646.235 
  776000    296.15668   -1534.6091    503.16529    305.97823   -679.28732    34646.235 
  776100     301.2707   -1549.0034    517.77297    329.28614   -221.73468    34646.235 
  776200    302.02795   -1460.5633    524.25045    427.62339    196.46252    34646.235 
  776300    299.57044    -1495.525    522.10402     379.4173    69.677701    34646.235 
  776400    312.95682   -1532.9885    496.70021    377.00193   -164.53685    34646.235 
  776500    296.37196   -1481.2249    501.06749     358.2368   -997.05281    34646.235 
  776600    290.55705   -1504.8085     515.3876    322.71362   -1231.3031    34646.235 
  776700    298.62318   -1477.0922    535.04278    406.51112   -1083.9385    34646.235 
  776800    296.34876   -1497.9685    501.10998    341.43095     -1570.87    34646.235 
  776900    300.15832   -1506.6795    518.58386    367.39752   -1291.6051    34646.235 
  777000    298.28893   -1508.5369    486.06804     324.5822   -1086.9878    34646.235 
  777100    299.29801   -1528.6614    501.70886    324.65554   -293.41259    34646.235 
  777200    310.71382   -1517.0442    503.05588    389.17264    193.54542    34646.235 
  777300    296.57092   -1512.7747    499.30849    325.82646   -243.98279    34646.235 
  777400    293.08273   -1486.3448    507.72254    344.91801   -58.089928    34646.235 
  777500    301.79255   -1513.8164    534.84646    383.90327    223.51439    34646.235 
  777600    291.70363   -1498.3203    518.29123    337.28328   -63.987106    34646.235 
  777700    292.14992   -1489.1216    522.39912    352.60532   -527.44128    34646.235 
  777800    294.25958   -1501.5509    504.27599    331.57994   -969.69545    34646.235 
  777900    303.60351   -1530.6496    523.56756    363.96931   -421.64303    34646.235 
  778000    302.14778   -1588.1074    506.38126    282.75124    9.9131792    34646.235 
  778100    306.29426   -1500.2374    505.08747     388.0526    226.74798    34646.235 
  778200    303.63579   -1528.7709    480.89225    323.31852   -267.60782    34646.235 
  778300    298.58084   -1537.3641    498.50669     309.5119   -318.99878    34646.235 
  778400    300.57621   -1503.4036    495.53431    349.51099   -84.613627    34646.235 
  778500    297.90233   -1502.1669    514.76143    357.89977   -708.09057    34646.235 
  778600    290.74261   -1525.3363    490.75819    278.39438   -783.76574    34646.235 
  778700    301.54469   -1560.2206    527.03546    328.56873    346.88209    34646.235 
  778800    293.14816   -1554.6973    525.72013    294.85861    653.96049    34646.235 
  778900    300.20159   -1542.3018    494.88954    308.27625    178.46039    34646.235 
  779000    306.59184   -1519.0704    527.98053    393.45655    303.30379    34646.235 
  779100    295.01603    -1531.678    488.23293    288.82588    205.80308    34646.235 
  779200    298.10064   -1550.9686    528.95706    324.18927   -308.34365    34646.235 
  779300    297.12926   -1502.1014    487.69305    327.40581   -395.81103    34646.235 
  779400    306.85251    -1528.125    496.07576    353.67434   -277.05271    34646.235 
  779500    295.67353   -1553.9493    519.02248    300.31335   -566.52821    34646.235 
  779600    311.03313   -1547.9906    502.83308    359.44546    505.58973    34646.235 
  779700    313.08599   -1566.2958    499.36254    346.94023    63.466415    34646.235 
  779800    306.95284   -1562.4618    493.01092    316.72581    155.58442    34646.235 
  779900     299.4081   -1529.3553    517.47675    340.22668    -272.4886    34646.235 
  780000    302.77838   -1510.7323    528.54166    385.13446   -368.45332    34646.235 
  780100    304.85682   -1552.5932    502.54798    326.66599   -757.38914    34646.235 
  780200    297.46248   -1488.9581    509.86639    364.22722   -571.94207    34646.235 
  780300    301.75587   -1526.5038    501.90082    338.10458   -633.79376    34646.235 
  780400    307.51947   -1505.7765    493.39908    376.35815   -154.63249    34646.235 
  780500     294.4722   -1484.6353    518.22216    363.40189   -629.59948    34646.235 
  780600    305.77504   -1485.3243    501.75114    397.28466   -263.68784    34646.235 
  780700    297.82466   -1522.3794    497.69743    320.27252   -525.91019    34646.235 
  780800    302.47616   -1524.9123    572.55657    413.60461   -153.09825    34646.235 
  780900     294.0419   -1487.6166    498.48169    338.73692    9.9712882    34646.235 
  781000    308.12768   -1499.2147    497.22242    389.48989   -158.48016    34646.235 
  781100    301.18741   -1503.6071    549.28342    405.81672   -306.58573    34646.235 
  781200    293.61001   -1466.2618    514.81648    374.47614    478.31296    34646.235 
  781300     294.3966   -1505.9646     526.7512    350.26023    66.188297    34646.235 
  781400    294.52997   -1539.3757    517.98647    308.68665   -157.30583    34646.235 
  781500    298.17987   -1498.9178    508.50602     356.1468     127.5233    34646.235 
  781600    293.36975   -1512.6609    500.03649    312.21204    231.43535    34646.235 
  781700    292.03184    -1529.777    501.79405    290.81164    238.67222    34646.235 
  781800    299.70286   -1521.3027    534.16626    366.29992     22.39523    34646.235 
  781900    289.72099   -1533.7264    473.15108     247.7836   -534.41193    34646.235 
  782000    301.69714   -1503.7402    542.52712    401.22922    116.13969    34646.235 
  782100    310.41517   -1477.8398    487.20314    411.17561    256.40035    34646.235 
  782200    303.86471   -1512.8653       523.36    382.72562    15.244729    34646.235 
  782300    295.20386   -1503.9305    506.40205    335.59071    198.35742    34646.235 
  782400     310.1056    -1501.983    495.24208    393.67343    373.16633    34646.235 
  782500    296.97619   -1546.7142    511.70893    306.11764    543.56722    34646.235 
  782600    301.85924   -1503.4775    527.77813    387.47501    395.47938    34646.235 
  782700     295.1947   -1473.5111    500.40658    359.97333    307.80682    34646.235 
  782800    303.78931    -1514.623    504.65787    361.92531    870.37398    34646.235 
  782900    310.72882   -1525.3491    512.91221    390.79183    464.82725    34646.235 
  783000    300.29263   -1528.7538    501.22127    328.56716    339.00304    34646.235 
  783100    299.10891   -1536.5121    493.30765    307.54963    1026.1908    34646.235 
  783200    300.13123   -1516.3721     527.8214     366.8201    973.83331    34646.235 
  783300    297.22565   -1513.0048    508.54772    337.79231    964.67605    34646.235 
  783400    307.59219    -1516.728    544.97649    417.31248    299.75244    34646.235 
  783500    277.36861    -1530.489    490.86848    212.95596    290.33108    34646.235 
  783600    301.62018   -1566.7395    470.89587    266.25113    743.38967    34646.235 
  783700    302.40684   -1543.8863    516.42395    338.18493    39.772136    34646.235 
  783800    299.19946   -1521.6103    481.56084    311.11353    344.28218    34646.235 
  783900    302.57015   -1514.1423    491.38831    343.63076   -128.55502    34646.235 
  784000    304.45664   -1537.7696    473.99735    311.13174   -484.86194    34646.235 
  784100    302.70351   -1501.3865    506.56023    372.16077   -640.29238    34646.235 
  784200    303.08636   -1499.4099     523.7527     393.0587   -559.13719    34646.235 
  784300    306.09548   -1479.9639    513.04057    415.38161     262.7196    34646.235 
  784400    304.96805   -1490.0334    494.67332    381.85339  -0.49292656    34646.235 
  784500    297.11634   -1486.9198    533.65939    388.49529   -374.10394    34646.235 
  784600    311.63403   -1514.7059    509.37519    401.98593   -104.35062    34646.235 
  784700    304.00611   -1501.4179    519.48307    390.93462    155.15874    34646.235 
  784800    287.97595   -1537.8124    493.80405    256.47011   -370.65875    34646.235 
  784900     308.9493   -1593.8154    482.04472    283.42191   -449.14444    34646.235 
  785000    303.26606     -1513.34    495.29596    351.48338   -412.87634    34646.235 
  785100    307.71762   -1519.7575    482.81608    352.68897    -331.5196    34646.235 
  785200    293.54343   -1516.3943    532.14552    341.37199   -242.45738    34646.235 
  785300     292.2372   -1522.3802    493.25111    290.59285   -169.45571    34646.235 
  785400    298.89102   -1519.0127    525.94125    356.69864    655.87406    34646.235 
  785500    295.13032   -1561.4145    514.38635    285.75887    893.67049    34646.235 
  785600     309.7171   -1539.7017    527.41698    386.37522    1004.0115    34646.235 
  785700    298.75841   -1564.5391    503.43165    288.06374    901.01998    34646.235 
  785800    301.20018   -1572.6264    514.84894    302.42064    695.62612    34646.235 
  785900    308.84237   -1562.8582    513.75408    345.60556    161.96157    34646.235 
  786000    296.09596   -1523.0782    533.05028    347.11989    139.33784    34646.235 
  786100    293.26005   -1528.6598    507.09096    302.77215    134.90587    34646.235 
  786200     305.7143   -1535.3037    495.54972    340.82957   -657.30728    34646.235 
  786300    306.63009   -1548.3342    527.87796    364.26294   -406.56216    34646.235 
  786400    307.33333   -1521.2869    501.17506    367.78306    312.12421    34646.235 
  786500    308.69917   -1506.3985    500.40196    388.06649   -309.25801    34646.235 
  786600    298.97166   -1519.3248    513.10021    343.90962    35.705373    34646.235 
  786700    297.90185   -1560.9236    507.65861    292.03814    430.19491    34646.235 
  786800    296.06895   -1501.2573    529.29841    365.06694     142.5857    34646.235 
  786900    304.31078   -1495.8653    530.24995    408.62996   -334.84602    34646.235 
  787000    299.61846   -1478.3868    510.41162    385.07998   -87.444062    34646.235 
  787100    303.24451   -1539.0892      506.956    337.29694   -299.30363    34646.235 
  787200    306.74507   -1505.2367    501.78655     381.7883   -48.162847    34646.235 
  787300    294.16737   -1533.7972    505.05773    299.69899    102.71515    34646.235 
  787400    298.93838    -1491.251    518.79361    377.52662   -492.69059    34646.235 
  787500    307.95268   -1519.5608     513.9044    385.03543   -773.71576    34646.235 
  787600    307.22719   -1510.7447    520.15967    396.83064   -1552.0398    34646.235 
  787700    307.39785   -1519.9949    489.12006    357.31146   -970.45218    34646.235 
  787800    291.09817   -1523.0175    509.62258    301.18325     -1198.81    34646.235 
  787900    302.36043   -1548.4187    509.14679     326.1658   -844.47943    34646.235 
  788000    298.51354   -1551.4847     501.7428    298.32353   -520.37464    34646.235 
  788100    307.46759   -1538.6395    507.68536    357.54713   -306.50916    34646.235 
  788200    306.38634    -1509.447    517.27849    391.44993    252.43614    34646.235 
  788300     293.4387   -1560.3981    543.38704    308.13671    348.63842    34646.235 
  788400    309.48075   -1572.1276     501.4638    326.92882    919.02857    34646.235 
  788500    300.75396   -1543.4204    509.00047     323.7631    437.08464    34646.235 
  788600    305.50893   -1532.7394    545.43534    392.35198    638.67421    34646.235 
  788700    288.56996   -1495.2546    490.20896    298.11526    807.82722    34646.235 
  788800    291.78485   -1468.7241    516.60812    365.56314    1045.9246    34646.235 
  788900    306.39059   -1499.4665    538.18102    422.35218    95.016803    34646.235 
  789000    293.43719   -1514.6437    519.52137    330.01868   -112.15698    34646.235 
  789100    290.61292   -1479.8536    543.58433    376.11752    -487.2259    34646.235 
  789200    307.40604   -1528.3912    489.28582     349.1179   -274.95807    34646.235 
  789300    310.77953   -1481.4837    530.37582     452.3499   -348.40024    34646.235 
  789400    291.68287    -1508.892    501.91297    310.23953   -637.87755    34646.235 
  789500     293.7639   -1516.5855    523.25144    333.28237   -432.02096    34646.235 
  789600    285.65456   -1522.3183    534.94643    302.62331   -228.54522    34646.235 
  789700    295.31545   -1557.5482    498.75454    274.82939    -303.1981    34646.235 
  789800    307.78362   -1504.2663    525.31484    410.97693   -513.44644    34646.235 
  789900    303.85691   -1497.2298    494.00999    368.97589   -301.81311    34646.235 
  790000    298.07005   -1513.0751    489.71897    322.70649   -67.357929    34646.235 
  790100    305.31749   -1548.5338    531.69568    361.95345    10.580028    34646.235 
  790200    295.07192   -1559.8365    513.87066    286.55744    319.94872    34646.235 
  790300    298.90397    -1546.962    491.86341    294.72998    484.27177    34646.235 
  790400    305.17314   -1522.3856    509.70632    365.46043    550.05969    34646.235 
  790500     300.7894   -1516.6659    530.02592    371.70305     501.0799    34646.235 
  790600    297.71106   -1580.5149    485.03502    248.96157    718.24022    34646.235 
  790700    304.77664   -1533.1606     507.8548    351.04328    154.83185    34646.235 
  790800    304.02699    -1542.038    514.39227    345.31801   -310.76012    34646.235 
  790900     294.2208   -1553.0546    500.67334    276.29849   -127.32017    34646.235 
  791000    303.59456   -1576.8309    516.74017    310.92025   -150.69217    34646.235 
  791100    300.41488   -1557.6478     487.1816    286.18551   -273.22825    34646.235 
  791200    296.82018   -1574.6848    492.95177    258.68533     236.0448    34646.235 
  791300    306.25088   -1551.3966    511.68043    343.29049    466.35477    34646.235 
  791400    306.90708   -1527.3076    518.61025    377.27269    433.96559    34646.235 
  791500    301.58308   -1512.7978    509.22325    358.35274    10.102437    34646.235 
  791600    299.75606   -1518.2048    501.98281     337.4546    270.14451    34646.235 
  791700    312.50007   -1519.4585    538.09202    429.86108     671.0652    34646.235 
  791800    292.47035   -1508.6035    533.41976    345.59114    242.36576    34646.235 
  791900      311.572   -1521.7034    499.85338    385.18649    145.80556    34646.235 
  792000    294.28941   -1551.8402    523.36981    300.51914   -800.70638    34646.235 
  792100    300.83906   -1518.9717    492.79893    332.39446   -738.56884    34646.235 
  792200    293.41375   -1569.1215    490.92941    246.84311     -117.822    34646.235 
  792300    301.67159   -1523.8504    509.26448    347.74102   -507.39567    34646.235 
  792400    297.78232   -1548.1662    517.26066    313.85772    -600.9999    34646.235 
  792500    304.02562   -1494.1667    522.03272    400.82362   -207.34484    34646.235 
  792600    296.24285   -1509.9029    511.81731    339.72556   -703.58537    34646.235 
  792700    300.19591   -1554.6335    524.66976    325.69912   -625.02364    34646.235 
  792800    292.23699   -1544.9283    471.60214    246.39487   -618.01818    34646.235 
  792900    298.86444   -1553.0855     517.7945    314.35911   -952.93598    34646.235 
  793000    309.03937   -1512.8311    529.83119    412.59937    142.85772    34646.235 
  793100    300.16827   -1529.0545    489.89919    316.38274    34.703476    34646.235 
  793200    300.45736   -1524.6728    521.46373    353.63445   -127.58263    34646.235 
  793300    307.78792   -1491.1847    506.52642    405.28955   -154.54553    34646.235 
  793400    299.70546   -1462.3674    513.12499    404.20563    184.46253    34646.235 
  793500    291.70799   -1509.9266    534.22361    341.62903   -3.7018255    34646.235 
  793600    291.17527   -1515.7355    529.00841    328.19919    396.15433    34646.235 
  793700    297.59981   -1466.1688    507.03426    384.80452   -120.12618    34646.235 
  793800    293.87667   -1507.6208    519.16805    338.67296   -289.78963    34646.235 
  793900    301.35541   -1482.3801    499.64276    378.16174    873.96728    34646.235 
  794000    298.34958   -1499.0356    508.53568    356.82505    140.03664    34646.235 
  794100      295.193   -1478.9391    543.57059    397.70162    70.470718    34646.235 
  794200    288.62141   -1498.5305    535.36018    340.22292    194.42549    34646.235 
  794300    294.06874   -1493.7382    513.34725    347.60206   -222.99796    34646.235 
  794400    297.73271   -1492.0787    508.11814    360.57868   -299.37246    34646.235 
  794500    309.53451   -1512.2684    512.06375    397.63065   -34.857078    34646.235 
  794600    302.15662   -1516.3655    511.19837    359.35021     231.4038    34646.235 
  794700     299.7647   -1503.4453    506.60623    356.87652    524.08675    34646.235 
  794800    300.81717   -1513.7148    492.47515    337.22882    555.22101    34646.235 
  794900    303.20944   -1512.3114    545.91507    402.87541    698.01061    34646.235 
  795000    289.23384   -1538.5901    476.44968     244.0186   -302.16842    34646.235 
  795100    304.63407   -1545.6157    498.63556    328.72512    84.225531    34646.235 
  795200    291.93575   -1504.8838    510.32831    323.80514   -571.68309    34646.235 
  795300    290.52391   -1524.1298    478.30445     266.1595   -384.52504    34646.235 
  795400    302.65268    -1501.979    520.73166    385.51018    118.99762    34646.235 
  795500    298.28406   -1467.3439     498.4785    378.16367   -257.33288    34646.235 
  795600    297.01261   -1483.8255    478.58497    336.04675   -168.52398    34646.235 
  795700    303.69718   -1489.9913    506.22822    387.71127    127.49141    34646.235 
  795800    297.17481   -1479.4405    507.47885     370.0582    -184.3249    34646.235 
  795900    307.97083    -1509.331    510.22035    391.66315    23.733927    34646.235 
  796000    300.91897   -1510.8634    497.43137    345.49613    147.75052    34646.235 
  796100    300.13374   -1525.2389    505.78041     335.9237    460.85633    34646.235 
  796200    303.40736   -1510.2394    496.79225    356.71838    84.600666    34646.235 
  796300    299.81786    -1470.608    476.65751    360.00516   -228.22215    34646.235 
  796400    305.80236   -1514.2818    493.83196    360.53136   -157.83888    34646.235 
  796500    290.87297   -1501.4235    501.07093    313.20858    498.95125    34646.235 
  796600    300.87782   -1493.2172    525.58418    391.10934    562.81714    34646.235 
  796700    300.33007   -1470.3745    530.69824    416.59253     61.12098    34646.235 
  796800    299.57425   -1460.1031    537.59139    430.34382   -87.438696    34646.235 
  796900    292.32472    -1507.067    503.35951    316.40964   -16.172276    34646.235 
  797000    301.86814   -1513.7847    537.80887    387.23869   -428.26761    34646.235 
  797100    300.60062   -1487.6452    485.25072    355.09598   -646.44171    34646.235 
  797200    315.39781   -1480.9915     499.7056    443.02764    -423.6848    34646.235 
  797300    302.88403    -1478.769    505.90415    394.93741    -518.4012    34646.235 
  797400    294.63328   -1494.3271    490.57595    326.79128   -330.11132    34646.235 
  797500    292.96949   -1485.6323    491.02166    328.41827   -354.68301    34646.235 
  797600    290.34992   -1495.3822    508.88276     324.6997   -801.62125    34646.235 
  797700    295.21933   -1446.0681    521.82278    408.94367   -209.73341    34646.235 
  797800    300.71553   -1487.6364    522.85631    393.22939    510.86872    34646.235 
  797900    301.46483   -1501.4815    515.80655    375.71823   -80.146198    34646.235 
  798000    305.95862   -1528.0853    514.80871    368.41025    450.63377    34646.235 
  798100       298.82   -1466.3756    507.15295    390.22671    309.79399    34646.235 
  798200    303.96291   -1501.3963    521.50317    392.78122    333.70725    34646.235 
  798300    296.15619   -1501.0838    492.80947    329.14548   -171.54349    34646.235 
  798400    301.96858   -1513.0788    515.28451    365.87385   -593.43674    34646.235 
  798500    294.13077    -1527.552    517.83901    318.56012    213.07214    34646.235 
  798600    295.98743   -1514.4234    512.49549    334.72976    444.23675    34646.235 
  798700    302.22453   -1497.8721     512.0796    379.03143    738.54255    34646.235 
  798800    308.62164   -1503.7928    522.83722    412.75724    196.06377    34646.235 
  798900    306.05446    -1539.322    483.08686     325.8845    304.04741    34646.235 
  799000    291.93727   -1507.3694    506.70597    317.70403    327.60225    34646.235 
  799100    301.66614   -1497.5595     488.6362    353.37902   -55.341623    34646.235 
  799200    305.40117   -1512.5149    490.24755    356.90217    92.754299    34646.235 
  799300    293.34661   -1505.5453    523.69522    342.88182    223.51044    34646.235 
  799400    306.55463   -1445.0705    513.06481    452.37274     567.6684    34646.235 
  799500    284.96738    -1487.838    477.91955    276.97347   -677.43935    34646.235 
  799600    300.23589   -1504.4143    502.30095    353.73012   -241.37023    34646.235 
  799700    310.31362   -1493.7697    481.71903    389.30302    228.17219    34646.235 
  799800    298.14753   -1479.9847    536.24501    402.67289    704.18583    34646.235 
  799900    304.46349   -1466.8849    487.50594    395.55602     862.1645    34646.235 
  800000    306.32162   -1499.2265    521.78437    405.88398   -569.20122    34646.235 
  800100    301.49354    -1491.042    495.21628    365.69715   -504.63324    34646.235 
  800200    303.74532   -1483.8579    512.32493    400.15873   -492.34264    34646.235 
  800300    299.91508   -1491.4321    513.56813    376.53068    307.27742    34646.235 
  800400    301.11058   -1487.8471    499.00549    370.95188    1.3306277    34646.235 
  800500    297.84857   -1461.3659     512.6958    396.39238    260.52695    34646.235 
  800600    301.44304   -1429.8042    493.66144     425.1521    502.20598    34646.235 
  800700    293.92195   -1499.3239    506.23833    334.24457    296.33865    34646.235 
  800800     306.8742   -1511.2176    506.94009    381.54404    269.13056    34646.235 
  800900    291.79687   -1482.3319    516.54322    351.94478   -441.84544    34646.235 
  801000     296.3272   -1444.5812     548.1198    441.73065    234.52264    34646.235 
  801100    287.91677   -1440.3924    490.39818      350.217   -4.6608056    34646.235 
  801200    302.50314   -1469.2916    509.35378    406.14429   -408.15162    34646.235 
  801300    309.89027    -1487.736    512.06645     423.7724   -303.98357    34646.235 
  801400    310.44103   -1455.2621    508.02238    454.68933   -65.863128    34646.235 
  801500    300.15578   -1477.2245    507.68088    385.93802    -170.3064    34646.235 
  801600    300.20807   -1489.1306    485.73429    352.32154     406.3138    34646.235 
  801700    304.21469   -1499.5311    520.53279    394.81309    152.79785    34646.235 
  801800    311.71874   -1465.2788    515.86119    458.28153    378.66366    34646.235 
  801900    295.19041   -1470.7235    512.95888    375.29377    240.71597    34646.235 
  802000    297.40881   -1483.6791     537.8033     397.2008    433.25724    34646.235 
  802100     302.7267   -1469.0367    530.37626    428.43133    117.89213    34646.235 
  802200    304.93552     -1470.77    517.33927    423.63585    -252.8263    34646.235 
  802300    302.50745   -1462.6362    512.46379     415.9292   -613.09129    34646.235 
  802400    297.02077   -1526.0421    481.07276    296.35481    -672.3001    34646.235 
  802500     289.7802   -1508.8397    512.73963     312.5262   -583.05353    34646.235 
  802600    296.09191   -1518.2028    491.37226    310.29898   -242.84311    34646.235 
  802700    297.14175   -1516.8989    480.79526    305.76688    -7.406071    34646.235 
  802800    301.56267   -1488.9412    511.03158    383.92544    274.47767    34646.235 
  802900    299.77278   -1507.8132    499.72462    345.66349    1051.9958    34646.235 
  803000    295.05577   -1491.4177    507.05627    348.08894    179.81136    34646.235 
  803100    301.56245   -1528.9763    509.74795    342.60577    360.11288    34646.235 
  803200    298.06154   -1501.0752     531.6408    376.58981    -133.7644    34646.235 
  803300     295.6463   -1521.0949    514.71235    328.73459    102.87623    34646.235 
  803400    291.87167   -1508.7603    500.94517    310.25611    326.88434    34646.235 
  803500    293.14634   -1495.9847    508.63041    336.47329    49.011347    34646.235 
  803600    292.35042   -1531.8022    497.63374    286.06474    637.23618    34646.235 
  803700    299.85534   -1558.8538    518.91065    314.18174    633.69194    34646.235 
  803800    295.91466   -1559.4145    488.54795    265.46249    557.50537    34646.235 
  803900    301.27665   -1521.1149    502.67176    342.10025    763.34573    34646.235 
  804000    293.64726   -1501.5158    499.54109    324.11493    371.51513    34646.235 
  804100    293.15478   -1483.4401    509.63851     350.0641   -149.52529    34646.235 
  804200    310.97451   -1507.2373     506.4949    403.59586     310.3011    34646.235 
  804300    288.96852   -1482.0588    508.94095    331.84299     614.4928    34646.235 
  804400    299.30262   -1484.3302    496.43325     363.7319   -136.52003    34646.235 
  804500    297.60856   -1515.4389     497.7226    326.26232    204.64855    34646.235 
  804600     301.2277   -1522.4156    494.31557    332.22235    -140.5177    34646.235 
  804700    315.17953   -1523.5282      512.193    411.99266   -766.05402    34646.235 
  804800    294.38498   -1502.2734    477.47044    304.61813   -277.25979    34646.235 
  804900    300.36556   -1541.6157    502.66648    317.47978   -268.01643    34646.235 
  805000    294.80534   -1593.5443    470.37704    208.15221   -225.63667    34646.235 
  805100       299.13   -1608.2477    456.22023    198.82188    202.80758    34646.235 
  805200    293.03796   -1572.2429     491.5334    242.62861     270.0581    34646.235 
  805300    293.38268   -1525.9613    499.70833    298.64188    263.57129    34646.235 
  805400    294.49502   -1557.9511    472.63003    244.59706   -238.67698    34646.235 
  805500    290.66816   -1573.4492    492.82793    232.01504   -504.02751    34646.235 
  805600    303.36196   -1547.1828    508.02819    330.80596    220.83285    34646.235 
  805700    293.74046    -1561.599     528.1655    293.07706     139.8398    34646.235 
  805800     296.8959   -1519.8942    517.07033    337.93645    50.938969    34646.235 
  805900    293.00918   -1565.0121    485.28801    243.48409   -8.3649991    34646.235 
  806000    298.68697     -1514.14    483.09812    317.80676    523.31308    34646.235 
  806100     298.4921    -1550.126    489.31183     287.1544    349.57607    34646.235 
  806200    305.35073   -1543.5631    502.68322    338.06181    892.10369    34646.235 
  806300    305.09094   -1506.6157    482.54392    353.69676    632.03355    34646.235 
  806400    303.87277   -1515.0794    508.14487     365.3328    887.19738    34646.235 
  806500    297.62504   -1492.3006    510.41316    362.16564    416.48961    34646.235 
  806600    280.96208    -1491.602    520.76406    297.96636    105.53854    34646.235 
  806700    307.10397   -1471.6675    544.86274    460.05444   -250.05865    34646.235 
  806800    301.24875   -1505.2615    497.11937    352.27528   -423.18667    34646.235 
  806900     309.5251   -1525.6858    495.19138     367.2984    257.25696    34646.235 
  807000    292.46852   -1516.1244    480.24625    284.88836    375.09035    34646.235 
  807100    311.21182    -1479.621    526.15872    451.94762    745.93848    34646.235 
  807200    291.64958   -1479.3668    507.17009    344.87156     104.3092    34646.235 
  807300    302.89943   -1499.0296    499.72185    368.56402    982.81239    34646.235 
  807400    289.65172   -1529.0672    486.44764    265.42653   -111.41161    34646.235 
  807500    301.03339   -1495.1293    485.53517    349.85073   -102.10414    34646.235 
  807600    302.76643   -1499.7538    501.60004    369.11735   -1674.9268    34646.235 
  807700    293.91524   -1519.3358    492.55114     300.5152   -731.94333    34646.235 
  807800    302.04712   -1543.8936    524.19222     344.3214   -16.174957    34646.235 
  807900    307.16916   -1501.6022    503.01922    388.57063    376.57034    34646.235 
  808000    289.44858   -1478.9268    512.55094    340.75283   -573.13439    34646.235 
  808100    293.04408   -1492.5593    540.15921    370.96561   -179.19883    34646.235 
  808200     303.1375    -1483.551    502.20479    387.60063    349.98506    34646.235 
  808300    310.09994   -1463.2257    499.29149    436.45455    912.65952    34646.235 
  808400    306.43673   -1452.8697    494.27985     425.2561    252.75699    34646.235 
  808500    306.13779    -1476.091    538.61102    445.01604    170.52851    34646.235 
  808600    293.88214   -1505.0271    494.16251    316.28572    632.86821    34646.235 
  808700    290.79131   -1528.1788    503.45411    288.46771    314.99465    34646.235 
  808800    306.28381   -1529.2431    478.00768    331.91996    189.29466    34646.235 
  808900     296.2708   -1517.4705    476.54843    297.01527    -280.4442    34646.235 
  809000    307.18403   -1551.9056    490.10313    325.41822    857.35384    34646.235 
  809100    311.21057   -1494.4407      493.451    404.41461    629.15653    34646.235 
  809200    302.87249    -1545.048     487.7729    310.47498    668.65219    34646.235 
  809300    296.21465   -1553.3422    517.38299    301.72454    389.24446    34646.235 
  809400    297.37161   -1544.6918    485.19044    283.40713   -280.16391    34646.235 
  809500    309.13005   -1490.8949    486.77031    391.88421    437.38962    34646.235 
  809600    295.42488    -1518.313    517.88872    333.69296    -438.1508    34646.235 
  809700    302.89287   -1574.4537    480.53023    273.91869    274.24874    34646.235 
  809800    303.77265   -1545.3974    519.25661    345.67438    782.09422    34646.235 
  809900    304.91153   -1558.8747    513.20148     331.2851   -20.245659    34646.235 
  810000    303.36943   -1546.3783    452.93447    276.55042    463.89501    34646.235 
  810100    298.79516   -1487.0823    513.62698    375.88189    639.78989    34646.235 
  810200    304.58301   -1501.2667    496.82093    371.02889    52.408105    34646.235 
  810300    296.65912   -1497.0816    484.61525    327.22462    182.31342    34646.235 
  810400    292.31634   -1545.3292    508.10693    282.85699   -148.20051    34646.235 
  810500    291.29173   -1514.0009    486.85071    288.30204    -107.4873    34646.235 
  810600    302.79473   -1476.9845    503.70694    394.12143   -139.06113    34646.235 
  810700    304.40021   -1466.2058    489.36736    397.81073    261.45788    34646.235 
  810800    301.68153   -1508.3882    491.96474    345.94836    57.100382    34646.235 
  810900    299.21141    -1482.464    504.86496    373.61796    147.88561    34646.235 
  811000    302.45988   -1481.1423    525.05788    409.80235   -11.059971    34646.235 
  811100    309.73655   -1470.8616    500.43231    428.31842   -130.50935    34646.235 
  811200    303.92636   -1480.8743    503.67902    395.31407   -447.42851    34646.235 
  811300    311.40912   -1470.9375    484.58372     419.9472    243.73411    34646.235 
  811400    300.18168   -1501.7644    500.64357     354.4778   -226.69776    34646.235 
  811500    293.79483   -1495.8234    516.54386    347.47651    394.99904    34646.235 
  811600    290.31885   -1510.0997    497.83711    298.79622    23.167114    34646.235 
  811700    283.43198   -1527.2539    517.16028    269.86458    342.71354    34646.235 
  811800    302.70565   -1510.0729    488.50645    345.43025   -308.89922    34646.235 
  811900    300.58975   -1492.0233    509.55017     374.9683     -314.271    34646.235 
  812000    294.79742   -1504.6457    510.62877    337.26678    143.74566    34646.235 
  812100    299.14763   -1501.6021    482.52855     331.8554    77.371721    34646.235 
  812200    294.32745   -1511.5576    502.22634     319.8301   -414.95861    34646.235 
  812300    302.62707   -1518.0756    497.19871    345.76495   -97.987346    34646.235 
  812400    294.09733   -1503.8024    504.41489    328.73464   -209.79687    34646.235 
  812500    299.96201   -1518.1092    534.27088    370.76829    211.81186    34646.235 
  812600    306.30759   -1504.5176    500.99664    379.74178    867.92466    34646.235 
  812700    287.45573   -1504.4123    491.83807    285.55493     966.6918    34646.235 
  812800    294.04354   -1521.1762    515.47898    322.18199    558.59321    34646.235 
  812900    290.26796   -1507.9235    503.34956    306.25505    767.48158    34646.235 
  813000    307.74609   -1509.2423    521.56432    402.08098    1049.0267    34646.235 
  813100    289.04407   -1513.5252    483.58838    275.36523    153.28066    34646.235 
  813200    294.96624   -1476.3377    483.66526    339.37364    192.16882    34646.235 
  813300    292.01974   -1449.7591    499.68252    368.66336   -1048.4902    34646.235 
  813400    305.79214   -1524.0162    510.11771    367.03652   -1159.6588    34646.235 
  813500    300.47182   -1496.9884    479.79969    339.72014   -655.35193    34646.235 
  813600    301.79135   -1464.8561     490.9202    388.93189   -1206.0862    34646.235 
  813700     305.7541   -1460.3655    487.88476    408.28249   -659.42818    34646.235 
  813800    307.71211    -1435.208    507.50761    461.90515     -534.614    34646.235 
  813900    298.13198   -1461.1701    502.79958    387.97182   -458.26159    34646.235 
  814000    307.48893   -1500.3788    487.37033    375.58922   -573.51932    34646.235 
  814100    308.91817   -1493.6594    511.70557    413.09812   -689.42915    34646.235 
  814200    308.70665   -1515.5939    499.42421    377.92706    -597.9851    34646.235 
  814300    297.81866   -1510.8834    508.13517    342.17919   -710.74696    34646.235 
  814400    292.61244   -1526.1894    480.36883    275.59588   -807.07102    34646.235 
  814500    294.34378   -1473.1015    515.51384    371.64746   -423.87491    34646.235 
  814600    300.36653   -1517.8147     470.3609    308.97963    12.500013    34646.235 
  814700    307.76677   -1527.7216    522.74584    384.87659   -88.671076    34646.235 
  814800    296.66009   -1499.2112    506.47876     346.9629    399.41192    34646.235 
  814900    311.08169   -1502.2956    479.17507    381.70175    837.27533    34646.235 
  815000    302.36504   -1459.9664    517.71731     423.2094    16.072798    34646.235 
  815100    311.20893   -1463.6858     514.7848    456.49586    618.75946    34646.235 
  815200    301.45999   -1487.3842    477.39165    351.37884    402.19378    34646.235 
  815300    307.49441   -1429.1498    513.38369    472.85626    370.64589    34646.235 
  815400    306.66213   -1485.4995    500.89642    400.26083    172.77216    34646.235 
  815500    301.53051   -1484.0257    514.56671    392.23083   -320.18808    34646.235 
  815600    302.71271   -1497.3532     516.1135    385.78888   -46.778829    34646.235 
  815700    292.08227   -1499.4884    484.60013    304.13399   -950.46635    34646.235 
  815800    305.58967   -1478.8056    488.79078    390.00587   -848.64748    34646.235 
  815900    292.98882   -1490.7981    501.85272    334.17078    -773.5031    34646.235 
  816000    293.81164   -1525.9371    512.57348    313.46837   -860.04135    34646.235 
  816100     299.0012   -1511.8299    482.53081    320.96854   -797.05427    34646.235 
  816200    311.89258   -1486.4674    500.20062     422.2174    550.81864    34646.235 
  816300    295.38933   -1481.0752      515.272    368.15358    449.17155    34646.235 
  816400    294.66239   -1545.6636    504.43511    289.44542    537.70788    34646.235 
  816500    297.58646   -1539.5212    499.43079     303.7884    828.52363    34646.235 
  816600    295.37323   -1527.9385    510.90709    316.85261    -207.6923    34646.235 
  816700    300.87253   -1498.0986    520.82011    381.43996    78.595838    34646.235 
  816800    304.01826   -1509.6152     498.4925    361.80167    182.13186    34646.235 
  816900    292.61306   -1498.1897    509.03874    332.26834   -35.198506    34646.235 
  817000    300.40009   -1479.6598    497.01218    373.93736    204.98181    34646.235 
  817100    300.74443   -1468.4859    501.37627    391.03028    112.36808    34646.235 
  817200    305.59849    -1508.794    502.68898    373.95551   -568.71944    34646.235 
  817300    295.03761   -1529.0791    491.13604    294.42535    192.33935    34646.235 
  817400    303.13767   -1503.4926    504.16863    369.62375    503.13096    34646.235 
  817500    307.20609   -1457.0431    528.11352    458.39071    83.009039    34646.235 
  817600    295.95081   -1485.1001    508.03807    359.43032    -233.4783    34646.235 
  817700    300.19664   -1483.3568    504.87543    377.18483    195.72134    34646.235 
  817800    297.08875   -1474.5797    534.82496    401.87647     156.5316    34646.235 
  817900    302.75339   -1449.7507    497.31652    414.77813   -26.422083    34646.235 
  818000    291.58164   -1487.2299    495.74552     325.2771    279.26283    34646.235 
  818100    293.35428   -1445.3414    506.01577    385.44099   -684.49854    34646.235 
  818200    297.37451   -1419.6632    497.59599    420.85445   -569.81463    34646.235 
  818300    302.33679   -1475.2418    496.14915    386.23831   -1442.0041    34646.235 
  818400    305.38318   -1465.2047    533.73903    447.62261    -1283.132    34646.235 
  818500    297.11218   -1493.0712    497.12222    345.78806   -642.24444    34646.235 
  818600    305.31529    -1552.725    494.90712    320.96373    -94.03625    34646.235 
  818700    298.07925   -1532.6051     505.6701    319.16921    437.88349    34646.235 
  818800    305.70033   -1535.2683    487.02034    332.27246    895.07207    34646.235 
  818900    308.99767   -1522.3188    501.43929    374.53152    202.65815    34646.235 
  819000    298.31713   -1511.5822    486.23525    321.83149    567.06588    34646.235 
  819100    301.30394   -1453.1053    516.51712    424.07852    589.50725    34646.235 
  819200    310.06849   -1448.3144    528.80342    480.73573    55.526734    34646.235 
  819300    292.92665    -1472.379     503.1032    353.55965   -42.044682    34646.235 
  819400    292.44878   -1463.0268      518.646    376.29656   -333.24572    34646.235 
  819500     308.5173    -1496.369    500.79771     397.6704   -668.26789    34646.235 
  819600    301.66506   -1463.6127    494.22501    392.90973   -518.94624    34646.235 
  819700    296.39338   -1533.3459     519.0836    324.22865   -35.216703    34646.235 
  819800    301.79745   -1536.3706     487.6337    314.15842    809.89405    34646.235 
  819900    301.10318   -1530.7521    513.11539    342.12337    944.82542    34646.235 
  820000    293.25293   -1517.4115    478.81764    285.71505    657.35317    34646.235 
  820100    296.79732   -1485.5302    502.39658    357.18143    460.72167    34646.235 
  820200    302.05253    -1459.001    526.32625    431.37255     432.5929    34646.235 
  820300    290.81255   -1450.5812    511.27789      373.985    412.80704    34646.235 
  820400     302.3538   -1474.1656    512.03337    403.27549    586.76503    34646.235 
  820500    303.29802   -1459.7999    509.99398    419.86582    517.32617    34646.235 
  820600     301.9802   -1472.8172    497.48583    388.38925     925.4687    34646.235 
  820700    297.11323   -1434.1279    495.37501    402.98886    351.54245    34646.235 
  820800    295.71015   -1470.5883    496.51878    361.33603    25.590321    34646.235 
  820900    305.16111   -1462.7251    508.59015    423.95043    422.57514    34646.235 
  821000    301.39018   -1458.6745    484.77719    387.15879   -405.91528    34646.235 
  821100    298.13866   -1487.0787    499.44472    358.73854   -114.14934    34646.235 
  821200    308.63676   -1488.9298    517.38988    422.24122    -308.2759    34646.235 
  821300    298.93557   -1500.6726     489.4679    338.76653   -259.95729    34646.235 
  821400    302.37832   -1481.5534    513.08589    397.05092   -150.11223    34646.235 
  821500    292.06177   -1580.1319    483.36903    222.16683   -353.93661    34646.235 
  821600     303.2474   -1528.3313    499.23481    340.34671   -56.855738    34646.235 
  821700    300.26498   -1512.2511    498.59677    342.32044   -47.490152    34646.235 
  821800    288.91239    -1529.378    488.59597    263.92533    305.33707    34646.235 
  821900    287.76596   -1524.7202    497.59944    272.40936    266.55162    34646.235 
  822000    301.01539    -1528.256    488.77196    319.87954    106.47968    34646.235 
  822100     298.1697   -1526.7345    522.44725    342.22544    435.35684    34646.235 
  822200    298.69267    -1505.613    490.60925    333.87063   -370.56209    34646.235 
  822300    303.57482   -1522.6744    517.69389    365.94133    -56.12682    34646.235 
  822400    303.87657   -1527.8177    481.33457    325.80139   -629.51322    34646.235 
  822500    297.37946   -1507.4809    517.58723    353.05031    693.41106    34646.235 
  822600    295.15011   -1528.2305    494.09414    298.74009   -89.632975    34646.235 
  822700    302.57993   -1525.6111    462.43957    303.25742   -1136.4892    34646.235 
  822800    298.71365   -1521.7446    476.91066    304.13513   -731.95713    34646.235 
  822900    298.72068   -1500.1791    519.76365    368.58541   -673.22603    34646.235 
  823000    293.05954   -1460.2438    499.94042    363.13216   -591.62233    34646.235 
  823100    305.57045   -1460.0613    502.43568    422.30827   -825.77842    34646.235 
  823200    302.70278   -1507.1991    497.38245    357.16703   -777.68035    34646.235 
  823300    296.34172   -1478.0014    496.90376    357.15997   -1198.4597    34646.235 
  823400    301.87664   -1518.2905    484.53471    329.49713   -832.22852    34646.235 
  823500    293.38985   -1481.4053    506.72095    350.24282    -561.5398    34646.235 
  823600     297.1027   -1538.3425    485.46181     288.8135    -685.3498    34646.235 
  823700    296.76191   -1505.1445    525.91536    360.92604    -567.4596    34646.235 
  823800    289.43659   -1460.0934    492.98776    339.96889   -411.17526    34646.235 
  823900    295.62999   -1495.9843    502.76738    341.82654   -952.01849    34646.235 
  824000    292.05111   -1481.1095    496.09518    333.86721   -799.89871    34646.235 
  824100    296.24544     -1474.19    485.89753    349.53037    132.43025    34646.235 
  824200    298.11166   -1481.4846    509.90053    374.66647    -343.3521    34646.235 
  824300    294.94707   -1493.6581    479.51304    317.81439   -39.497317    34646.235 
  824400     307.8652   -1539.1281    464.61744    315.78616   -181.22235    34646.235 
  824500    303.07177    -1582.277    490.14299    276.51606    257.29386    34646.235 
  824600    310.74568   -1528.1958    487.26173     362.3708    894.31825    34646.235 
  824700     297.8959   -1576.6743    508.98607    277.58793     1200.121    34646.235 
  824800     304.5376   -1516.9631    510.20583    368.51234    715.91188    34646.235 
  824900    305.91129   -1525.0473    480.23048    336.65627   -157.23764    34646.235 
  825000    300.19752   -1511.5276    483.65207    327.79463    105.70671    34646.235 
  825100    293.46183   -1508.9595    493.89051    310.18324     180.0444    34646.235 
  825200    301.33914   -1526.0699    505.53762    340.29338   -355.71861    34646.235 
  825300    306.88761   -1487.5644    507.10443    405.42212   -64.796248    34646.235 
  825400    294.06894   -1508.2238    476.92672    296.69692   -400.22195    34646.235 
  825500    300.38654   -1532.0091    501.93403    326.44868   -74.613578    34646.235 
  825600    297.92663   -1507.4846    518.45522    356.38563    987.53886    34646.235 
  825700    292.75141   -1572.0722    535.54788    285.51979    387.86425    34646.235 
  825800    303.57388   -1541.1649    512.66546    342.41817    216.45845    34646.235 
  825900    300.52814   -1524.2779    496.50767    329.39298    198.73273    34646.235 
  826000    302.10913   -1524.5253    492.88853    332.66601   -380.76344    34646.235 
  826100    306.57837   -1539.9087    512.60087    357.17772    395.99348    34646.235 
  826200    288.37626   -1543.6957    515.82849      274.419    154.44155    34646.235 
  826300    289.27174   -1545.7086    484.13605    244.75755   -43.212661    34646.235 
  826400    298.88613   -1489.2651    500.30024    360.78316   -479.28595    34646.235 
  826500    296.55289   -1500.6995    515.62364    354.13539   -546.92106    34646.235 
  826600    296.38655   -1545.8308     484.8936     277.5229   -679.78138    34646.235 
  826700    308.36107   -1520.5646    518.15462     390.1261   -28.285029    34646.235 
  826800    301.31123   -1500.5274    512.45013    372.62233   -201.79327    34646.235 
  826900    300.96386    -1509.323    521.08521    370.89316    578.36039    34646.235 
  827000    308.46179   -1478.6683    517.58439    431.90714     274.7867    34646.235 
  827100    290.34577   -1509.3772    518.21626    320.01943    605.27781    34646.235 
  827200    294.58175   -1492.8223    503.59624    341.08369    778.45359    34646.235 
  827300    290.51503   -1517.0818    492.68989    287.55278    407.07976    34646.235 
  827400    297.19658   -1525.2549    528.61521    345.47847    468.55368    34646.235 
  827500    297.04264   -1559.2937    507.37594     289.5052    270.59266    34646.235 
  827600    302.48154   -1498.4493    517.14963    384.68491    1178.0592    34646.235 
  827700    296.83456   -1537.1849      487.507    290.80538    960.56564    34646.235 
  827800    291.25693   -1505.5641    538.80512    348.53614    1456.8454    34646.235 
  827900    305.23193   -1553.8329    503.56569    328.13794    957.86827    34646.235 
  828000    308.87232   -1546.4969    511.79908    360.14713    778.62221    34646.235 
  828100    300.74632   -1490.3784    523.86627    391.63639    765.03846    34646.235 
  828200    300.26609   -1528.6303    504.01639    331.36593    190.04934    34646.235 
  828300    303.91991   -1520.3588    503.20317    355.32454   -178.22126    34646.235 
  828400    298.41686   -1474.8383    531.06614    403.85671   -466.51889    34646.235 
  828500    292.90282   -1501.3972    528.02303    349.35362    291.10543    34646.235 
  828600    308.55446   -1504.0824    504.97137    394.29844    271.23745    34646.235 
  828700     303.2777   -1520.2548    492.31357    341.63879     677.5179    34646.235 
  828800      302.479   -1495.8977      515.347    385.42245    998.08378    34646.235 
  828900    299.88274   -1514.6503    548.22397    387.82232       877.61    34646.235 
  829000    315.79195   -1501.2678    521.22298    446.04867    660.87384    34646.235 
  829100    304.07468   -1519.9122    519.14093    372.40784    297.47233    34646.235 
  829200    297.77521   -1514.8566    515.80482    345.67941    319.41891    34646.235 
  829300    311.18154   -1507.3017    516.81922    414.79073    358.41989    34646.235 
  829400    296.19842    -1456.518    539.57284    420.66538    382.79547    34646.235 
  829500    292.05947   -1463.2119    537.79729    393.50471    611.99595    34646.235 
  829600    296.08218   -1509.6391    512.60551    340.05194    63.027439    34646.235 
  829700    303.26167   -1513.9709    515.70859     371.2453    22.172816    34646.235 
  829800    305.72833   -1467.6923    533.86037    446.81499   -94.750319    34646.235 
  829900    309.72049   -1468.3717    528.80511    459.10863    640.00614    34646.235 
  830000     293.4199   -1465.3755    533.30232    392.98971    696.71518    34646.235 
  830100    304.35539   -1532.5577    534.70218    376.59124     610.3156    34646.235 
  830200    300.29874   -1499.7036       538.59    395.01371    -274.0272    34646.235 
  830300    300.58062   -1545.7734    480.02433    291.65114   -504.57029    34646.235 
  830400    298.73756   -1526.2385    490.90747    313.74609   -456.08907    34646.235 
  830500    292.09239   -1513.3923    503.22918    308.90485   -485.21898    34646.235 
  830600    294.21084   -1552.4529    492.54016    268.72197   -136.36985    34646.235 
  830700    291.05701   -1548.7002    514.22605    279.91811   -358.86436    34646.235 
  830800      307.185   -1538.7114    487.61742    336.13108    40.731347    34646.235 
  830900    313.74985   -1537.0653    505.01982    384.82604   -114.25983    34646.235 
  831000     300.7395   -1541.6652    529.41388    345.86636    73.026898    34646.235 
  831100    303.18904   -1533.6238    516.50131    352.05711   -134.91757    34646.235 
  831200    294.10929   -1522.2941    495.54825     301.4303   -212.43342    34646.235 
  831300    292.14025   -1496.7819    529.22177    351.72403    775.87598    34646.235 
  831400    295.20631   -1491.4414    504.70443    346.39324   -92.586029    34646.235 
  831500    300.02837   -1495.2921     545.6056    405.21982    639.47449    34646.235 
  831600    304.17417   -1520.2638    520.28453    373.64911   -231.44249    34646.235 
  831700    308.58588   -1547.7459    511.25524    357.06073    336.52152    34646.235 
  831800    299.78727   -1477.1449    499.99503    376.66762   -235.66167    34646.235 
  831900    301.84415   -1483.4641    523.03538    402.67751    240.00446    34646.235 
  832000    308.04495     -1469.57    530.38633    451.92485   -559.96787    34646.235 
  832100    296.60923   -1479.1006    533.87856    394.24365   -498.32117    34646.235 
  832200    294.33999   -1498.7246    538.12526    368.61865   -959.99963    34646.235 
  832300    290.90278   -1568.7784    464.53456    209.45196   -378.35557    34646.235 
  832400    306.83126   -1496.3696    487.84596    377.10396    40.318817    34646.235 
  832500    306.15942   -1530.8364    510.96321    362.72051    175.00056    34646.235 
  832600     309.3085    -1524.368    502.13634    374.58299    505.14126    34646.235 
  832700    298.38994   -1501.6122    521.35693    367.25198    29.851758    34646.235 
  832800    295.47623   -1525.0055    511.14551    320.48915    -138.0358    34646.235 
  832900    297.37417   -1469.8998    505.92114    378.94151    751.20957    34646.235 
  833000    299.58173   -1526.2611     504.8044    331.43258    -204.0405    34646.235 
  833100    292.34232   -1524.1433    504.24192    300.29528   -411.56363    34646.235 
  833200    293.79596    -1522.465    519.81682    324.11302   -658.53163    34646.235 
  833300     315.7216    -1478.662    530.07405    477.18783    43.349266    34646.235 
  833400    303.86168    -1497.051    532.97121    408.13748    178.55199    34646.235 
  833500    301.65158   -1515.7909    506.26844    352.71411    -62.26506    34646.235 
  833600      300.184   -1524.0473    504.59305    336.15484   -729.63561    34646.235 
  833700    305.00279   -1544.1684    516.85452    350.05649   -274.89155    34646.235 
  833800    308.23484   -1518.8883    489.05818    362.13595    98.999092    34646.235 
  833900    295.48014   -1547.7899     522.9579    309.53478   -455.07838    34646.235 
  834000    300.72723   -1546.0535    490.13705    302.14588    43.143685    34646.235 
  834100    295.91474   -1496.3782     492.1499    332.10107   -188.44763    34646.235 
  834200    306.76554   -1540.8709    498.92933    343.38929    73.241762    34646.235 
  834300    293.05141   -1519.3483    506.62144      310.672   -26.240917    34646.235 
  834400     305.7606   -1522.2699    521.93911    380.46182   -59.266687    34646.235 
  834500    299.38374   -1482.2969    537.64533    407.34361    350.39098    34646.235 
  834600    294.91878   -1458.3751    518.01316    391.46982    329.30851    34646.235 
  834700    295.89474   -1485.7675     489.0411    339.51272    926.35521    34646.235 
  834800    301.84728   -1474.4869     517.9677    406.60112    60.952567    34646.235 
  834900    303.66319   -1483.0082    511.70406    400.01671    352.16248    34646.235 
  835000    300.18927   -1491.5096     505.6074    369.73072    203.27683    34646.235 
  835100    294.32538   -1475.3345    500.31067    354.12815     177.7985    34646.235 
  835200    299.18629   -1519.2569    527.67505    359.52165    885.28653    34646.235 
  835300    286.45809   -1478.8201    530.91322    345.71697    968.42836    34646.235 
  835400    296.85929   -1473.7216    522.24807    389.12147    652.25867    34646.235 
  835500    293.78945   -1462.8949    535.85432    399.69121     750.4713    34646.235 
  835600     295.8761   -1447.7441    529.54801    417.95884    14.734675    34646.235 
  835700     297.9333   -1461.1445    527.23141    411.53204    125.36292    34646.235 
  835800     296.0487   -1468.5901    519.31003    387.65433    347.58294    34646.235 
  835900    315.10022   -1496.5971    533.61227    459.98483    154.42419    34646.235 
  836000    307.30507   -1525.2522    483.74563    346.26078    594.86564    34646.235 
  836100    288.61891   -1510.5316    528.97815    321.82853   -221.69325    34646.235 
  836200    295.12949   -1500.4207    517.00616    349.36877   -478.81343    34646.235 
  836300    299.99021   -1481.4896    495.09023    368.33455   -298.80296    34646.235 
  836400    299.49059   -1497.6533    502.13099    356.95536    607.81427    34646.235 
  836500    297.70632   -1498.4576    522.71908     368.6816    196.82241    34646.235 
  836600    306.02259   -1518.2609    547.65399    411.36887    516.65027    34646.235 
  836700     304.5624   -1510.1617     525.6764    390.89638    318.49838    34646.235 
  836800    298.87803   -1477.2919    517.10626    389.52578     590.0665    34646.235 
  836900    302.92839   -1529.0853     527.5547     366.4719    968.78088    34646.235 
  837000    293.62141   -1532.7767    474.01791    267.21407    280.32373    34646.235 
  837100    305.45436   -1521.6182    498.47216    356.26365    11.225577    34646.235 
  837200    298.95425    -1489.229    506.92799     367.7546    99.935757    34646.235 
  837300    300.51098   -1502.1226     507.8222    362.78531    -529.3145    34646.235 
  837400    291.50223   -1531.5148    518.47147    303.35948   -925.32558    34646.235 
  837500    302.55484   -1496.4309    511.48181    381.36653   -355.77955    34646.235 
  837600     305.7965    -1529.375    509.74559    361.32539   -563.68315    34646.235 
  837700    307.60567   -1504.4914    499.62824    384.26167   -926.42204    34646.235 
  837800    307.76539   -1490.3446    519.97793    419.47946   -387.51469    34646.235 
  837900     305.2453   -1516.1756    514.90654    377.19649   -576.42209    34646.235 
  838000    290.31649   -1472.7256    501.91492    340.23748   -300.61918    34646.235 
  838100    301.70378   -1494.9781    509.32815    376.82237     482.8767    34646.235 
  838200      294.266   -1503.8479    507.24616    332.28205    448.90224    34646.235 
  838300    290.38608   -1503.7064    492.87648     300.5325   -205.90723    34646.235 
  838400    290.78496   -1544.2806    529.43103    298.31414   -181.12537    34646.235 
  838500    292.32901   -1509.3148    525.53275    336.35448   -437.84451    34646.235 
  838600    313.39842   -1478.3208    507.27882    444.24248   -311.27213    34646.235 
  838700    301.00028   -1459.8739    514.07506    413.49654   -434.43542    34646.235 
  838800    304.39521   -1507.1701    525.49745    392.95403   -308.83244    34646.235 
  838900    301.15834   -1479.4314    520.67078    401.24851    98.907296    34646.235 
  839000    292.69993   -1477.5863    516.10813     360.3334    364.85439    34646.235 
  839100    302.35307   -1511.7215    517.09218    370.77516    66.768178    34646.235 
  839200    295.90373   -1501.9665     534.3964    368.70963    30.327025    34646.235 
  839300    300.02506   -1530.7731    518.35725    342.47549    1006.7417    34646.235 
  839400    305.98954   -1501.8952    560.68037    440.61165    831.91725    34646.235 
  839500    309.58606   -1472.4764    503.53696    429.12872    133.75421    34646.235 
  839600    310.35387   -1483.8461    522.78898     440.4784   -72.651712    34646.235 
  839700    305.87279   -1437.3987    530.77171    474.67228   -167.92687    34646.235 
  839800     297.8868    -1468.184    503.19644     380.2476   -605.46839    34646.235 
  839900    302.15845    -1487.094    550.69767    428.12919   -535.89961    34646.235 
  840000    305.61723   -1450.0114    527.50789     457.6417   -313.13634    34646.235 
  840100    289.62747   -1502.3716    522.19546    327.76043   -816.54978    34646.235 
  840200    303.51704   -1447.2118    516.15917    439.60829   -199.95509    34646.235 
  840300    295.18207   -1455.5011     530.8955    408.41518   -135.55144    34646.235 
  840400    294.66464   -1522.7424    494.80461    302.74631    553.42637    34646.235 
  840500    309.51078    -1492.325     527.7334     433.1365     174.1122    34646.235 
  840600     286.3388   -1504.1376    523.35935    312.30692    97.281158    34646.235 
  840700    303.87913   -1463.4841    505.84432    414.65631    430.71465    34646.235 
  840800    299.87826   -1475.6984    526.20736    404.73743    271.15924    34646.235 
  840900    297.88436   -1517.7113    535.46014    362.97291    456.15969    34646.235 
  841000    303.21933   -1484.1034    552.26165    437.47464   -205.95331    34646.235 
  841100    289.96531   -1464.7033    535.77065    380.52962   -823.41231    34646.235 
  841200    310.78637   -1483.3103    522.95991    443.13821   -223.50538    34646.235 
  841300    290.04777   -1503.8372    498.35625    304.35367    -780.3093    34646.235 
  841400    301.78634   -1472.7595    533.45019    423.53585   -840.21202    34646.235 
  841500    295.96998   -1484.5124    513.28532    365.35178   -610.93574    34646.235 
  841600    307.56079   -1522.0225    520.38486    387.28449   -641.45018    34646.235 
  841700    290.20148   -1520.1323     509.6445    300.04097    123.08463    34646.235 
  841800    304.94771   -1461.0409    529.39543    445.47624   -49.356949    34646.235 
  841900    297.48473   -1484.3058    518.03688    377.15043   -452.63113    34646.235 
  842000    294.79678   -1469.8031     517.0032    378.48095   -227.51301    34646.235 
  842100    290.07377   -1541.1502    494.39574    263.19756    34.712339    34646.235 
  842200    300.08672   -1548.4566    544.14103    350.85419    770.01402    34646.235 
  842300     303.6635    -1561.947    505.54913    314.92437    496.74128    34646.235 
  842400    309.16109   -1537.5963    494.22183     352.7745     551.5671    34646.235 
  842500    299.71368   -1553.1351    533.87688    334.22697    115.41571    34646.235 
  842600    295.21489   -1522.1382    501.82654    312.85724   -181.50281    34646.235 
  842700    293.60303   -1498.8862    539.92556    366.92927    157.53424    34646.235 
  842800    311.45217   -1525.7467    520.02634    400.77498    280.50653    34646.235 
  842900    301.97205   -1533.1233    539.51131     370.0718      232.708    34646.235 
  843000    285.55294   -1515.6102     515.2031    289.12918   -434.95589    34646.235 
  843100     301.6155   -1531.6248    516.03829    346.48712   -596.26538    34646.235 
  843200    309.40439   -1519.4873    516.03578    393.79618    62.438268    34646.235 
  843300    297.56476   -1531.3452    529.29065    341.72624    309.02977    34646.235 
  843400    310.75855   -1508.7313    548.36534    442.99701   -157.41082    34646.235 
  843500    291.71096   -1547.6656    518.27774    287.95763     54.65784    34646.235 
  843600    305.65386   -1515.7907    527.09992    391.61983    319.09538    34646.235 
  843700    295.71613   -1571.7242    524.15734    287.86569    -257.1132    34646.235 
  843800    285.62329   -1532.6015    531.64351      288.896    177.76206    34646.235 
  843900    302.93302   -1536.5119    526.41475    357.92638    621.13266    34646.235 
  844000    298.57435   -1565.9119    515.76852    298.19668    210.84056    34646.235 
  844100    293.99154   -1581.6948    526.46617    272.41577   -320.37546    34646.235 
  844200    296.97815   -1577.0241    495.35069    259.45825    77.949615    34646.235 
  844300    295.15437   -1546.6236    511.70724    297.97928    637.41185    34646.235 
  844400    304.55957   -1527.9069    508.00831    355.47023    303.64206    34646.235 
  844500    306.81083   -1569.3499    489.69879    305.88427    268.42059    34646.235 
  844600    294.13742   -1544.6659    513.50465    297.14194    248.82609    34646.235 
  844700    306.72386    -1569.903    547.57229    362.81188    606.80019    34646.235 
  844800    306.71874   -1543.5873    482.46169    323.99393   -371.70537    34646.235 
  844900    296.57903    -1556.129     526.7465    309.94686   -809.16083    34646.235 
  845000    295.35242    -1559.783    524.48038     298.4874   -643.44253    34646.235 
  845100       304.58   -1510.8545    521.76322    386.36989   -357.10029    34646.235 
  845200     291.6184   -1563.6229    514.24398    267.54857    52.029774    34646.235 
  845300     307.2407   -1590.4503    532.12875    329.15508    743.23422    34646.235 
  845400    310.11978   -1615.0602    495.08037    280.49855    320.34271    34646.235 
  845500    303.53228   -1580.3071    528.08394    318.50654    271.71454    34646.235 
  845600    305.30254   -1558.9644    521.17618    340.93582      152.987    34646.235 
  845700    305.53209   -1592.3015    493.07222    280.53144    460.22538    34646.235 
  845800    300.05495   -1617.0772     519.1967    257.14581     378.9725    34646.235 
  845900    308.78008   -1552.9757    529.05875    370.51148   -37.264594    34646.235 
  846000    301.91164    -1604.415    497.35726    256.35327    553.31154    34646.235 
  846100    305.68194   -1617.7391    497.27884    259.97708    93.454806    34646.235 
  846200    306.08771   -1600.1547    511.91099    294.02611    246.11332    34646.235 
  846300    289.70998   -1577.0744    497.87725    229.11206    414.13024    34646.235 
  846400    292.04836   -1570.2528    520.89744    269.51383    646.20725    34646.235 
  846500    300.11235   -1596.6904    528.77009    287.36518    83.484869    34646.235 
  846600    299.17198   -1546.0974    520.11565    325.05716    515.62722    34646.235 
  846700    301.67292    -1542.451    521.39427    341.27621    28.680726    34646.235 
  846800    305.79509   -1571.4463    524.38226    333.88431    342.24322    34646.235 
  846900    291.63495   -1571.5119    500.04526    245.53558    265.69037    34646.235 
  847000    297.54712   -1591.8876    531.02699    282.84053   -396.25097    34646.235 
  847100     288.6136   -1571.4712    522.28104    254.16787   -144.58736    34646.235 
  847200    298.48643    -1598.417     488.7171    238.24314   -200.20563    34646.235 
  847300    292.04927   -1542.8014    528.96303    305.03485   -741.42384    34646.235 
  847400    292.43102   -1544.8255    540.63395    316.40564   -510.05321    34646.235 
  847500    301.56114   -1544.6765    537.45567    354.60733   -433.35067    34646.235 
  847600    290.38881   -1527.7677    539.07383    322.68084    438.13437    34646.235 
  847700    292.33098   -1527.4051    536.12065    328.86094    405.57411    34646.235 
  847800    303.87211   -1522.6578    514.21235    363.81891    97.936201    34646.235 
  847900    299.23502   -1512.8371    548.98891    387.47538   -21.983223    34646.235 
  848000     306.2216   -1528.5193    513.64413    367.99925   -690.35207    34646.235 
  848100    292.84426   -1523.2776     525.7839    324.96969   -263.38807    34646.235 
  848200    297.43035   -1548.8574    539.53312    333.84958   -430.46102    34646.235 
  848300    290.06822   -1562.4568    525.87312    273.34332    242.05825    34646.235 
  848400    301.73155    -1575.052    526.45678    314.00248    243.58671    34646.235 
  848500    305.33686    -1569.837    536.86368     345.9057     84.74004    34646.235 
  848600    283.51694   -1541.5002    488.40467    227.24634   -292.72489    34646.235 
  848700     289.7871   -1580.6738    523.33891    251.32255   -20.039175    34646.235 
  848800    299.21229   -1529.2103    522.05365    344.06425   -343.27472    34646.235 
  848900    298.37343   -1564.2835    526.11551    309.26468   -212.07817    34646.235 
  849000    296.09031   -1565.3248    528.23153    300.02898    66.698583    34646.235 
  849100    295.56845   -1598.2553    527.65201    264.16235   -694.40821    34646.235 
  849200    298.81774   -1578.0555    548.72178    320.10544   -409.89337    34646.235 
  849300    296.52066   -1537.2181    527.24583    329.09348    -584.9414    34646.235 
  849400    295.16206   -1557.9014    531.03295    306.06194    44.338566    34646.235 
  849500    291.56385   -1561.4377     524.6054    279.84888   -195.30489    34646.235 
  849600     299.6171   -1542.0076    529.80068    340.84207    264.96685    34646.235 
  849700    300.49903   -1532.3155    532.87507    357.59134   -475.57899    34646.235 
  849800    303.40599   -1551.6103    524.10336    342.65246    -288.3992    34646.235 
  849900     291.8929    -1547.802    540.06772    310.43282   -152.15661    34646.235 
  850000    311.46298   -1557.4435     550.2255    399.32618    122.75461    34646.235 
  850100    301.66706   -1534.1554    536.55278    364.70387    -58.67205    34646.235 
  850200    298.12379   -1567.0439    528.67947    307.94095   -843.42962    34646.235 
  850300    302.74814      -1581.4    507.16434    292.95294   -331.83135    34646.235 
  850400    288.31512   -1581.1812     509.5791    230.40802   -196.68951    34646.235 
  850500    299.64136   -1580.3571    518.66497    291.46646    284.93535    34646.235 
  850600    297.12885   -1594.5347     544.5941    291.87167    295.16587    34646.235 
  850700    291.77913   -1583.3168    516.12242    250.45897    405.66161    34646.235 
  850800    304.90051   -1554.3317    531.16686    353.74371    562.83237    34646.235 
  850900    297.63002   -1517.7816    539.52694     365.8209   -292.85866    34646.235 
  851000    290.47984   -1541.2219    546.39048    316.95433    -129.4059    34646.235 
  851100    297.14219   -1556.8747     569.6962    354.69404   -652.50284    34646.235 
  851200    287.98407   -1553.8676    538.55678    285.20429   -97.453549    34646.235 
  851300    302.69924   -1540.6845    527.18554     353.4688   -264.82487    34646.235 
  851400    299.73285   -1528.8496    518.03001    342.75216   -67.154824    34646.235 
  851500    293.30958   -1540.2491    537.74818    322.06379    117.86158    34646.235 
  851600    308.54739   -1605.6767    534.63847    322.33932    789.74764    34646.235 
  851700    313.93046   -1607.3591    524.58962    334.91768    467.10971    34646.235 
  851800    298.67196   -1566.2475    530.02197    312.55533   -29.689129    34646.235 
  851900    307.75391   -1574.8987    524.19052    339.08613    624.83873    34646.235 
  852000    289.27698   -1580.4144    529.78259    255.72193   -256.84307    34646.235 
  852100    305.09435   -1580.8525    532.71849    329.64989   -789.71907    34646.235 
  852200    296.63349   -1600.1173    516.33211    255.79008   -596.35653    34646.235 
  852300    310.74832   -1579.4394    521.37375    345.25108    -987.6331    34646.235 
  852400    307.86268    -1594.679    511.05036    306.65682   -796.09735    34646.235 
  852500     295.1378   -1608.7781    520.51013    244.55285   -832.81209    34646.235 
  852600    301.69219   -1604.3511    518.09757    276.16642    18.690787    34646.235 
  852700    289.31484   -1599.1548    519.66947    227.03946   -270.97874    34646.235 
  852800    296.26036   -1610.2155    533.63485    261.30951   -140.89675    34646.235 
  852900     294.6153   -1628.6225    499.90139    201.74014    401.50967    34646.235 
  853000    301.45795   -1588.0824    535.97326    309.25306   -522.30259    34646.235 
  853100     302.6603   -1564.1927    512.90813    315.50729   -360.58906    34646.235 
  853200    292.07339   -1603.5712    538.40159    253.81253   -241.25137    34646.235 
  853300    301.48693   -1585.5045    510.55476    286.54329   -259.39117    34646.235 
  853400    298.54895   -1604.4879    538.88434    282.62174    44.771101    34646.235 
  853500    299.97234   -1587.1572    527.96588    295.46197   -303.02511    34646.235 
  853600    295.35549   -1577.1625    527.38828     284.0297   -349.22257    34646.235 
  853700    311.80295   -1591.8282     535.8261    352.07731   -484.40085    34646.235 
  853800    301.38849   -1577.1702    523.19639    307.07472   -527.07567    34646.235 
  853900    290.79469   -1572.4199    528.16907    268.95679   -253.53576    34646.235 
  854000    296.37182   -1584.6414    535.33508    289.08726   -227.96963    34646.235 
  854100    288.34004    -1584.347    546.40728    264.18284   -239.97393    34646.235 
  854200    315.90937   -1544.9728    550.35796    432.00892    121.92924    34646.235 
  854300    303.17012   -1545.2434    557.21834    381.06915   -148.06059    34646.235 
  854400    308.71072   -1551.7299    532.40459    374.78981   -83.255741    34646.235 
  854500    297.46872   -1551.0506    518.13662     310.4331   -638.69281    34646.235 
  854600    308.29676   -1573.9804    541.41717    359.68243   -640.62694    34646.235 
  854700    280.20196   -1548.3319    533.79663    250.83641   -339.17448    34646.235 
  854800    295.14764   -1538.5429      534.922    329.24435   -903.66429    34646.235 
  854900    303.99099   -1551.7392    542.56029    363.62228   -658.80746    34646.235 
  855000    302.14403   -1603.0552    508.99695    270.40213   -880.45526    34646.235 
  855100    287.73725    -1560.085    489.02807     228.3435   -577.04708    34646.235 
  855200    307.72403   -1580.2024    549.56604    359.02301   -674.09141    34646.235 
  855300    296.54007   -1576.0682    511.75704    274.84228    -396.3153    34646.235 
  855400     301.0882   -1589.2068     544.2091    314.69471   -133.82143    34646.235 
  855500    294.10468   -1590.6815    527.37894    264.85274     512.2429    34646.235 
  855600    300.94396   -1539.8069     559.4164    378.65055     377.4261    34646.235 
  855700    297.70998   -1562.5234    527.06145    308.97468    536.62913    34646.235 
  855800    305.09276   -1544.6255    527.35055    360.50175    549.02501    34646.235 
  855900    310.84854   -1580.8788    537.87189    360.76244    594.80618    34646.235 
  856000    301.30368   -1562.8946    531.56792     329.3388     62.25198    34646.235 
  856100    297.98272   -1574.4833    537.07796    308.26292    364.45576    34646.235 
  856200    310.30577   -1538.4906    558.52819    421.35581   -798.48572    34646.235 
  856300    305.43418   -1531.3991     530.4115    378.33092   -1004.5533    34646.235 
  856400    287.00879   -1566.1345    525.04337     255.0197   -1549.1754    34646.235 
  856500    304.91424   -1539.3486     535.0608    372.68272   -1455.9146    34646.235 
  856600    298.14447   -1553.4279    525.87351    318.84434    -1077.812    34646.235 
  856700    293.61722   -1515.3831    537.61706    348.18792   -1122.3753    34646.235 
  856800    306.34188   -1536.2282    545.86425    393.05372   -390.78027    34646.235 
  856900    301.07023   -1550.4421    496.03438    305.20352   -339.45603    34646.235 
  857000    304.84726   -1532.9178    550.59127    394.34153   -336.20656    34646.235 
  857100    304.66317    -1521.168    568.49694    423.16564   -83.117662    34646.235 
  857200    296.06085   -1544.7137    522.74008     315.0156   -369.52549    34646.235 
  857300    299.78635   -1521.3218    535.03136    367.52289   -508.29946    34646.235 
  857400    296.11132   -1516.7784    514.05872    334.49749   -585.11019    34646.235 
  857500    304.32699    -1529.443    550.20377    395.07935   -673.42454    34646.235 
  857600     294.8368   -1545.3121    524.29948    310.44893   -424.00664    34646.235 
  857700     305.8261   -1534.5643    545.06754    391.59167   -1057.3195    34646.235 
  857800    308.18139   -1524.7494    546.66847    413.64383   -414.96067    34646.235 
  857900    291.26056   -1528.9783    536.87065    323.20383   -203.81813    34646.235 
  858000    305.01069    -1517.185    556.41948    416.64053    331.66159    34646.235 
  858100    297.77842   -1509.2348    538.92472    374.43564    26.347766    34646.235 
  858200    308.04064   -1539.5762    580.64064    432.15359    870.67006    34646.235 
  858300    295.19281        -1561    531.29905    303.36824   -50.107806    34646.235 
  858400    300.57014   -1549.5526    527.70355    335.50382    182.61517    34646.235 
  858500    301.55471   -1529.6165    497.82936    330.01194    384.41433    34646.235 
  858600    298.14349   -1543.0261    512.66358    316.03173   -358.13999    34646.235 
  858700    286.48069   -1559.6328    545.09715     279.1903   -135.33204    34646.235 
  858800    298.94913   -1552.5741    535.61479     333.0732   -271.52281    34646.235 
  858900    302.01751   -1549.7683    499.51393    313.63473   -524.05101    34646.235 
  859000    309.60627   -1573.3127    542.69836      367.545   -428.28472    34646.235 
  859100    295.04306   -1598.3923    527.40639    261.40703   -420.08699    34646.235 
  859200    287.22144   -1582.0955    512.03955    227.01515   -129.62201    34646.235 
  859300    281.65899    -1543.622    540.71501     269.0445   -454.39309    34646.235 
  859400     292.7129   -1511.6357     514.8549     325.0893    197.09854    34646.235 
  859500    293.42494   -1529.9635    532.09041    327.21255   -660.78413    34646.235 
  859600    293.80091   -1540.8619    524.56101    310.48266   -396.36994    34646.235 
  859700    296.12353   -1550.7393    535.66825    322.20121    16.162813    34646.235 
  859800    299.67367   -1526.8521    553.03723    379.48959    170.26011    34646.235 
  859900    307.82481   -1512.4246    549.04921    426.73905    471.35571    34646.235 
  860000    292.41148   -1536.9907     537.5955    321.11375    153.98116    34646.235 
  860100    295.12674   -1504.0971    521.17571     349.8495    52.892022    34646.235 
  860200    298.34057   -1554.6918    516.31624    308.90876    548.55996    34646.235 
  860300    303.67556   -1532.9143    547.06789    385.53035   -101.30908    34646.235 
  860400    298.37091   -1529.6148    514.77223    332.57878   -811.29748    34646.235 
  860500    299.26105   -1530.0655     548.7126    370.08821   -648.12536    34646.235 
  860600    303.81494   -1558.4746    541.85811    355.38964   -851.84909    34646.235 
  860700    298.29956    -1523.214    515.15337    339.03847   -992.50843    34646.235 
  860800    298.57976    -1557.039    515.55986    306.88529   -455.28702    34646.235 
  860900    290.96311    -1586.029    533.70502    261.64428   -181.91294    34646.235 
  861000    313.56625   -1503.3329    530.33092     443.0404    597.77702    34646.235 
  861100    310.23409   -1498.7523     525.5935     427.8358    98.616477    34646.235 
  861200    301.16117   -1556.8926    523.90917     327.0385   -603.09165    34646.235 
  861300    296.98848   -1561.0335    533.36573    313.51058    140.01829    34646.235 
  861400    291.98047   -1551.0183    513.18227    280.72659    496.59892    34646.235 
  861500    307.19089   -1498.6904    536.21721     424.7785   -348.80174    34646.235 
  861600    303.42388   -1492.7893    513.64779    391.09863   -360.37936    34646.235 
  861700    298.86416   -1474.4454    546.45079    421.65424      53.5668    34646.235 
  861800    307.13182   -1499.1644    512.40478    400.22539   -384.39934    34646.235 
  861900    302.52981   -1508.4498    522.87227    380.62512    165.32924    34646.235 
  862000    313.14274   -1536.1749    551.29334    429.24826    512.86053    34646.235 
  862100    300.02273   -1512.8955    512.09207    354.07734     714.7403    34646.235 
  862200    299.59941   -1557.5248    540.39004     335.8343    40.684453    34646.235 
  862300    294.57335   -1555.1286    507.51012    282.65335    -87.81032    34646.235 
  862400    295.25926   -1560.3811    538.25155    311.23982   -114.03649    34646.235 
  862500    303.30899   -1529.9161    551.61003    391.41523    256.01731    34646.235 
  862600    298.35895   -1531.5719    512.98092     328.7763    389.72299    34646.235 
  862700    298.50244   -1582.0114    549.00821     315.0121    253.39554    34646.235 
  862800    303.28288   -1570.3877    513.67834    312.89404    205.67862    34646.235 
  862900    299.89819   -1593.8024    532.81838     293.3344       42.482    34646.235 
  863000    300.64888   -1522.3897    531.98994    367.30867    394.11269    34646.235 
  863100     311.4468   -1543.8568    520.73297    383.34723    867.56471    34646.235 
  863200    299.92595   -1579.4564    510.03084     285.0182    210.82675    34646.235 
  863300    295.46054   -1565.6752    518.95429    287.55745    185.69936    34646.235 
  863400     296.4013   -1555.7325    507.23943    290.03366    159.54674    34646.235 
  863500    292.05924    -1562.509    507.13019    263.53947    485.33679    34646.235 
  863600    288.73636   -1597.8137    527.81322    233.91188    745.52293    34646.235 
  863700    309.16505   -1580.4764    531.98088    347.67129    263.36938    34646.235 
  863800    290.89472    -1587.983    505.43051    231.10684   -257.17705    34646.235 
  863900    304.50283   -1561.7258    514.20997     327.5968    192.31564    34646.235 
  864000    303.79288   -1541.3212    496.64716    327.23252    241.45215    34646.235 
  864100    305.95862   -1569.4799    542.66847    354.87545    298.60391    34646.235 
  864200    296.48755   -1556.6716     513.9981    296.24264    33.941154    34646.235 
  864300    298.99201   -1538.7737    540.75721    352.20969   -833.42394    34646.235 
  864400    295.84024   -1557.8791    514.49802    292.61195   -230.67426    34646.235 
  864500    301.73712   -1544.5406    547.80078    365.88303     305.8177    34646.235 
  864600    300.77817   -1535.0926    517.68069    340.88041   -8.4268474    34646.235 
  864700    313.67578   -1577.6271    479.93114    318.84109    166.60111    34646.235 
  864800    296.64019   -1602.3188    505.61012    242.89685    339.04375    34646.235 
  864900    299.92493    -1580.665    505.36981      279.144    69.765633    34646.235 
  865000     303.3188   -1575.0965     503.4552    298.12432   -199.78786    34646.235 
  865100    297.60958    -1558.129    500.22061    286.07486   -110.12361    34646.235 
  865200     293.5287   -1554.2783    544.45015    315.72615   -1187.8271    34646.235 
  865300    312.62975   -1564.8325    475.46404    322.44477   -797.15433    34646.235 
  865400    295.81909   -1589.2843    514.82938     261.4426   -775.84311    34646.235 
  865500    298.84874   -1522.1565     560.2473    387.66996   -576.73662    34646.235 
  865600    303.97116   -1538.9243    511.00384    344.79117   -787.38422    34646.235 
  865700    305.57811   -1552.0065     528.4367    356.39874   -256.39566    34646.235 
  865800    304.18003   -1532.1691    543.92892    385.41473   -537.82944    34646.235 
  865900    298.18183   -1535.4997    508.75401    319.82176    74.362037    34646.235 
  866000    294.77732   -1526.2501    537.36129    342.30411    282.81777    34646.235 
  866100    301.73441   -1522.0539    551.14027    391.69696    320.17803    34646.235 
  866200    302.19395   -1514.1744    521.80796    372.31946   -293.52682    34646.235 
  866300    296.94988   -1488.2169    526.31492    379.10207     161.1079    34646.235 
  866400    281.69149   -1512.2358     501.2423    261.10482   -823.80156    34646.235 
  866500    304.99514   -1523.5399     505.2473    359.04324    -333.1119    34646.235 
  866600    297.67792   -1514.6331    522.83997    352.49868    -698.2552    34646.235 
  866700    295.96537   -1541.1643    499.27714    294.67091   -667.32894    34646.235 
  866800    297.32408   -1563.0593     507.8348    287.46947   -33.214099    34646.235 
  866900    291.91957   -1515.3724    535.01249    337.92763    493.91489    34646.235 
  867000    299.32953    -1535.285    527.54538    344.01072   -245.80051    34646.235 
  867100    303.53345   -1504.6416    501.28521    367.37863    208.37496    34646.235 
  867200    292.94196   -1482.8748    510.74815    350.77794    113.38808    34646.235 
  867300    299.30677   -1474.9156    518.31441    395.04643    107.05991    34646.235 
  867400    299.91717   -1494.6626    523.82287    383.56439    50.497973    34646.235 
  867500    298.19699   -1519.2964    510.37264    337.71209    152.29363    34646.235 
  867600    295.72247   -1529.6654    513.65041    319.44612     135.5152    34646.235 
  867700    304.92427   -1554.2117    543.24094    366.04507   -182.98663    34646.235 
  867800    302.73992   -1534.5671    508.31629    340.90065   -508.88409    34646.235 
  867900    301.39282   -1559.7791     517.5761    318.86508   -225.46519    34646.235 
  868000    311.61581   -1532.1571    536.46369    411.54097   -385.31066    34646.235 
  868100    299.94596   -1490.5755    494.86483    358.82343   -364.03065    34646.235 
  868200     299.0987   -1508.3197    492.10234     334.4906   -731.47948    34646.235 
  868300    303.67528   -1522.1449    500.44031    349.67087   -416.13008    34646.235 
  868400     291.4236   -1515.0071    514.03711    315.07774   -394.81752    34646.235 
  868500    298.69595   -1536.0821    523.01705    335.82415   -334.34304    34646.235 
  868600     300.9662   -1555.7288    510.32152    313.73423   -362.09325    34646.235 
  868700    291.56662   -1603.5905     498.9331    212.03622    506.97557    34646.235 
  868800    296.84625   -1590.7575    488.01485    237.79338    -39.78805    34646.235 
  868900    305.39055   -1570.7072    511.24747    319.66176   -118.43975    34646.235 
  869000    296.20348   -1536.1869    495.30479    296.75125   -139.29435    34646.235 
  869100      299.123    -1527.068    537.96476    361.71447    285.66576    34646.235 
  869200    306.79565   -1549.2454    517.43216    353.65362    683.66338    34646.235 
  869300    297.56508   -1524.1488    499.86289    319.49637    181.64424    34646.235 
  869400    299.95947   -1534.3339    487.82759    308.08879    436.23978    34646.235 
  869500    301.72947   -1542.6189    516.20752    336.17694   -434.85023    34646.235 
  869600    298.08188   -1470.8377    521.28219    396.56053   -573.50465    34646.235 
  869700    305.35965   -1482.7592    512.52436    408.74714    -507.5498    34646.235 
  869800    303.21858   -1457.8754    555.10848    466.54614   -472.16304    34646.235 
  869900    300.66783   -1463.9948    519.24047    413.03967   -172.60482    34646.235 
  870000    302.07851   -1498.8462    535.57092    400.88933   -703.62703    34646.235 
  870100    298.65198   -1501.9161    511.60683    358.38134   -368.07093    34646.235 
  870200    296.77898    -1482.975    518.37188    375.62917   -525.06301    34646.235 
  870300    297.66656   -1496.5789    509.64251    357.30413   -470.54784    34646.235 
  870400    304.70398   -1483.5164    516.13139      408.636   -103.67271    34646.235 
  870500    299.38936   -1485.7547    529.09373    395.35958    734.14912    34646.235 
  870600    300.33189   -1517.4623    523.56457    362.37924    688.67439    34646.235 
  870700    304.67022   -1496.1421    511.29356    391.02003    719.49949    34646.235 
  870800    294.07999   -1540.0217    514.36487    302.38703    206.68461    34646.235 
  870900    297.58184   -1536.5353    528.69385    336.01652    254.18251    34646.235 
  871000    294.58475   -1528.8456    535.07313    336.55082    475.58032    34646.235 
  871100    292.12725   -1533.6527    509.25441    294.82706   -677.33955    34646.235 
  871200    300.82514    -1546.486    526.28668    338.30511   -854.50621    34646.235 
  871300    288.61924   -1561.5021    534.12748    276.00886   -191.63104    34646.235 
  871400    297.83332   -1512.7718    531.05746    363.27923    -329.7711    34646.235 
  871500    300.41481   -1540.1502    518.28795    334.78914    198.01808    34646.235 
  871600    303.68461   -1539.2292    523.93302    356.12141    19.173088    34646.235 
  871700    289.83016   -1559.9921    508.12967    256.98946    320.55137    34646.235 
  871800    289.79812   -1560.5038    479.20538    227.40881   -80.644619    34646.235 
  871900    300.43639     -1515.74    526.82714    367.83599   -508.36133    34646.235 
  872000    295.49326    -1506.002    527.72901    356.15301   -711.58685    34646.235 
  872100     299.9892   -1514.7027    522.63394    362.66064    476.17918    34646.235 
  872200    291.84647   -1496.8403    525.15856    346.27572    -628.9057    34646.235 
  872300    301.59475    -1534.831    527.22837    354.37731   -427.10621    34646.235 
  872400     300.1147   -1511.8486    539.55016    382.99772    125.67631    34646.235 
  872500    301.29368   -1502.5704    505.23649    363.28645   -99.038214    34646.235 
  872600    292.62794   -1491.4833    513.36411    343.36725    388.88601    34646.235 
  872700    305.78612   -1519.3134    506.88633    368.48081   -322.51015    34646.235 
  872800    301.45193   -1539.8382    525.09106    346.58782    439.69258    34646.235 
  872900    306.42181   -1522.4124      504.732    366.09816    174.20098    34646.235 
  873000    303.48257   -1475.5039    508.33453    403.33579   -423.17443    34646.235 
  873100    305.64271   -1507.4973    520.92721    393.69011   -258.63812    34646.235 
  873200    302.33902   -1529.2772    533.18936    369.25312    209.85891    34646.235 
  873300    299.47738   -1478.7319    535.76469    409.45088   -110.93103    34646.235 
  873400    295.06473   -1508.5203    515.76836    339.73893    141.60132    34646.235 
  873500    294.04659   -1483.9833    526.12096    370.03071    213.14175    34646.235 
  873600    304.64349   -1519.7111    511.44478     367.4815    26.654448    34646.235 
  873700    313.45038   -1525.8657    523.41997    413.07337    348.03223    34646.235 
  873800    302.10169   -1537.1588    511.52574    338.63616   -249.36306    34646.235 
  873900    298.44988   -1490.5202    516.94253    374.20032    350.59844    34646.235 
  874000    293.15757   -1490.7549    535.67312    368.79645   -213.51269    34646.235 
  874100    297.89911   -1501.9851    524.28804    367.59361   -108.43641    34646.235 
  874200    304.85345   -1529.1043     533.0539    380.64555   -220.99681    34646.235 
  874300    303.29136   -1540.9153    518.69579    347.42224   -155.74274    34646.235 
  874400    327.31262   -1537.8387    533.81947    474.10078   -257.89013    34646.235 
  874500    300.99949   -1580.8894    488.81172    267.21413   -362.12828    34646.235 
  874600    298.81839   -1522.9249    515.27705    341.79425    241.83086    34646.235 
  874700    291.72238   -1511.4155    484.91019    290.89174   -452.85543    34646.235 
  874800    306.89854   -1577.6817    523.04484    331.29463   -254.99625    34646.235 
  874900    300.07947   -1549.6273    524.15107    329.66086   -186.43932    34646.235 
  875000    310.16814   -1590.2641    501.95097    312.38359     93.90496    34646.235 
  875100    293.41342   -1589.2095    518.46077    254.28492    19.334037    34646.235 
  875200    304.17718   -1593.2199    521.26709     301.6892   -148.75998    34646.235 
  875300    308.73516   -1546.8883    499.68834    347.02562    202.95649    34646.235 
  875400    290.33668   -1565.0104    525.46786     271.5968    461.71899    34646.235 
  875500    296.27675   -1582.2441     505.0068    260.72691    214.78545    34646.235 
  875600    290.82801   -1567.7622    514.24988    259.84577     -87.1967    34646.235 
  875700    304.21501   -1575.0986     537.5591    336.27331   -264.83239    34646.235 
  875800     304.6409   -1546.6432    506.66249    335.75543    237.50635    34646.235 
  875900    311.64389   -1565.1995    510.56936    352.73095    81.940791    34646.235 
  876000    298.47561   -1549.7677    481.06063    279.18707   -169.37146    34646.235 
  876100    299.12983   -1518.5061     516.0779    348.42033   -179.41824    34646.235 
  876200    284.70798   -1523.8083    500.77966    262.69187   -214.99954    34646.235 
  876300    298.29824   -1490.6339    523.21414    379.67335   -560.57027    34646.235 
  876400    296.89788   -1496.2681    509.82448     354.3256   -503.28067    34646.235 
  876500    301.07609    -1488.962    526.96444    397.64019   -994.32778    34646.235 
  876600    300.55695    -1512.673    516.88234     361.5026   -820.31002    34646.235 
  876700     294.7117   -1458.4123    556.62098    429.10531   -481.59308    34646.235 
  876800     294.8179   -1501.5809    480.67267    310.46793   -649.74869    34646.235 
  876900    299.94964   -1520.1658    525.11668    359.50164    201.75654    34646.235 
  877000    299.82189   -1544.6383    519.84233    329.17793    481.83378    34646.235 
  877100    295.76277   -1474.1917     540.6898    402.14124    598.29556    34646.235 
  877200    295.86644   -1500.6058    498.25474    333.76029    542.50743    34646.235 
  877300    300.19223   -1500.5129    511.39564    366.52901    14.661465    34646.235 
  877400    297.39898   -1507.7793    522.16634     357.4192   -293.53343    34646.235 
  877500    295.47505     -1511.05    530.23125    353.52513    181.16423    34646.235 
  877600    294.68889   -1481.4807    544.51568    393.82862   -50.578867    34646.235 
  877700    293.62862   -1539.3368    523.59984    310.26854    -402.5473    34646.235 
  877800    292.23498   -1560.5271    524.00222    283.18697    645.51931    34646.235 
  877900    301.95218   -1545.7131      498.522    316.40295    94.477762    34646.235 
  878000    305.31378   -1554.2981    508.81093    333.28759    132.67715    34646.235 
  878100    307.99094   -1496.3437    511.18985    405.71079    399.42835    34646.235 
  878200    295.21327   -1459.9137    518.89894    392.14691    466.75214    34646.235 
  878300    307.87567   -1536.8469    496.17004     349.6672      671.298    34646.235 
  878400    287.03859   -1533.9128    529.19255     291.5252   -286.77409    34646.235 
  878500    297.61147   -1537.7421    521.85761    328.10727    342.32275    34646.235 
  878600    305.66703   -1539.8392    520.26472    360.79557    564.60341    34646.235 
  878700    304.30391   -1511.6033    521.19961    383.81066    165.46043    34646.235 
  878800     297.0337   -1512.1998    519.02126    348.20402   -287.15777    34646.235 
  878900     301.7774   -1505.4376    530.94785    388.31498   -596.05428    34646.235 
  879000    296.21863   -1493.0049    514.33163    359.02857   -964.47066    34646.235 
  879100    292.26631   -1500.8727    513.80467    332.78532   -547.00106    34646.235 
  879200    294.20319   -1546.9825    527.46841    309.08607   -62.177324    34646.235 
  879300    301.36432   -1524.2087    525.39376    362.12441   -783.40894    34646.235 
  879400    300.86154   -1504.4921    517.75201    371.92871    -220.9141    34646.235 
  879500    293.55718   -1486.6575    521.59559    360.62094   -203.14312    34646.235 
  879600    290.26197   -1486.7246    533.34606    357.42339   -211.05165    34646.235 
  879700    301.88869   -1509.6293    529.75784    383.43591    -552.4565    34646.235 
  879800     304.1569   -1517.8705    521.99014     377.6701   -364.58426    34646.235 
  879900    307.60928   -1496.9029     534.4791    426.71736   -54.731123    34646.235 
  880000    312.02247   -1507.9602    528.33778    429.44836   -359.08415    34646.235 
  880100    308.15064    -1504.538    516.30913    403.35694   -413.18935    34646.235 
  880200    308.59933   -1531.9312    523.67809    385.35895    72.549409    34646.235 
  880300    297.26903   -1547.3114    508.36417    303.49804   -32.777271    34646.235 
  880400    304.69456   -1536.1347     518.8156    358.65938   -425.94249    34646.235 
  880500    298.07142   -1536.2844     492.0578    301.84226   -367.29928    34646.235 
  880600    302.56168   -1523.6841    528.10376    370.76621   -399.66136    34646.235 
  880700    307.44048   -1538.7515    492.52365      342.151     -438.465    34646.235 
  880800    295.33687   -1516.8466    505.94865    322.82186   -724.57328    34646.235 
  880900    288.85737    -1504.398    541.54512    341.60597    294.73376    34646.235 
  881000    298.81447   -1499.0088    542.74459    393.16017    87.929695    34646.235 
  881100    313.71957   -1519.4888    525.01949    422.26537      758.335    34646.235 
  881200    295.08521   -1545.7671    550.85469    337.67095    636.46349    34646.235 
  881300     301.8244   -1552.2282    553.49556    364.28439    917.96736    34646.235 
  881400     303.2333   -1561.9111    530.04685    337.51521    78.306842    34646.235 
  881500    292.93687    -1507.066    528.99221    344.80778     664.3798    34646.235 
  881600    292.30879   -1553.1351    548.48286    315.39302    1148.4167    34646.235 
  881700    290.80725   -1523.5018    517.45397    307.21652   -57.912007    34646.235 
  881800    301.90703   -1559.8167    522.95122    326.52472     96.85441    34646.235 
  881900    299.60118   -1491.6326    496.54282    357.88732   -97.093818    34646.235 
  882000    288.81867   -1524.3455    514.57922    294.51782   -179.17141    34646.235 
  882100    300.44247   -1518.7683    485.08151    323.08956   -136.64963    34646.235 
  882200      310.054   -1506.9365    537.78459    431.02933   -405.55283    34646.235 
  882300     299.4249    -1498.757    528.64175    382.06579   -634.85781    34646.235 
  882400    289.09147   -1498.5269     517.4291    324.41818   -994.45759    34646.235 
  882500     302.8199   -1524.0918    543.12851    386.54939   -592.58128    34646.235 
  882600    287.89538   -1479.4365    513.98922    334.66736    223.72114    34646.235 
  882700     302.9265   -1500.0232     526.8583    394.82915   -802.42539    34646.235 
  882800    293.83363   -1467.7091    523.50753    382.72971   -715.13738    34646.235 
  882900    301.26529   -1514.9919    514.47902    359.97925   -608.37015    34646.235 
  883000     303.7426   -1497.5399    527.00074    401.14028    298.42127    34646.235 
  883100    293.75953   -1533.4189    493.30566    286.48346   -69.220957    34646.235 
  883200    299.74228    -1552.558    528.87684    329.93317   -328.07652    34646.235 
  883300    297.73393   -1567.7267    532.85516    309.67323   -274.06574    34646.235 
  883400    296.27115     -1527.19    507.64255    318.39154    66.933414    34646.235 
  883500     306.1984   -1557.1318    515.29879    340.93674    411.90043    34646.235 
  883600    306.82305   -1492.4169    526.91351    420.08718   -435.31031    34646.235 
  883700    290.34593   -1498.8647    477.44337    289.75975    84.974466    34646.235 
  883800    307.71205    -1498.613    537.58766    428.57991    126.62695    34646.235 
  883900    301.85343   -1496.7169    486.76115    353.19234    255.05933    34646.235 
  884000    300.78508   -1498.5747     510.5168    370.26564    238.37257    34646.235 
  884100    299.51679   -1537.3399    502.71277    317.96888    411.02324    34646.235 
  884200     295.9595   -1520.7396    492.67894    308.47085    132.45201    34646.235 
  884300    298.67772   -1525.9747    523.97888    346.81106   -527.14308    34646.235 
  884400    292.88301   -1532.2523    500.37013    290.75621   -448.01515    34646.235 
  884500    293.91793   -1537.9244    507.95527    297.34282   -410.81756    34646.235 
  884600    300.35692   -1532.2341    518.66554    342.82141   -543.31471    34646.235 
  884700    300.19757   -1553.5262    487.88392    290.02811   -514.67818    34646.235 
  884800    302.40804   -1519.1326    523.36109    369.88121    352.07306    34646.235 
  884900    298.53909   -1538.1645     512.9659    322.98223    145.64816    34646.235 
  885000    289.01687   -1528.3795    518.19617     294.9958    357.23262    34646.235 
  885100    292.95525   -1508.7824    506.40516    320.58729     469.5082    34646.235 
  885200    300.57124   -1455.0636    510.29121    412.58548    523.91023    34646.235 
  885300    297.72751   -1487.1286    531.70654     389.0937    -100.4416    34646.235 
  885400    302.06777   -1517.5095     528.5191     375.1256   -981.75958    34646.235 
  885500    307.34135   -1500.3394    482.02683    369.61867   -159.72702    34646.235 
  885600    305.00151   -1502.8815    506.34856    380.83167   -284.85142    34646.235 
  885700    295.99721   -1489.3498    544.71986     392.0719   -651.39858    34646.235 
  885800    299.87642   -1487.3818    508.84239    375.68062    215.48213    34646.235 
  885900     288.8239   -1515.3756    505.13906    294.07117    171.99455    34646.235 
  886000    292.49626   -1532.8191    526.76297    314.83564    190.67088    34646.235 
  886100    302.17633   -1533.2596    491.93089     323.2776     233.8163    34646.235 
  886200    297.73213   -1511.5687     517.1421    350.11005   -311.57109    34646.235 
  886300    301.50404   -1509.2666    528.92057    381.22424    44.628593    34646.235 
  886400    305.80961   -1529.0298    496.90418    348.88832   -263.23224    34646.235 
  886500     303.8555   -1523.3112    476.84388    325.72201    415.48515    34646.235 
  886600    292.49961    -1531.619    505.56675    294.85472   -279.08085    34646.235 
  886700    300.03099   -1535.9191    534.68223    353.68118   -345.85687    34646.235 
  886800    311.96167   -1524.7195     511.9861    396.06286   -390.04331    34646.235 
  886900    300.89176   -1527.6584    504.97399    336.12088   -341.13835    34646.235 
  887000    298.43447   -1552.3887    494.73536      290.055   -378.58538    34646.235 
  887100    293.65657   -1522.2872    515.88679    319.73128   -878.27298    34646.235 
  887200    281.82827   -1488.8005    526.97972     310.8952    -216.1648    34646.235 
  887300    305.18987   -1524.5415    487.32925      341.003   -222.32042    34646.235 
  887400    285.55277   -1500.8037     524.4158    313.14759   -547.41267    34646.235 
  887500     310.4328    -1471.632    522.35259    452.61247    310.91215    34646.235 
  887600    292.99548   -1494.2434     513.2958    342.19868   -356.91192    34646.235 
  887700    298.88667   -1517.2789    493.40585    325.87743    228.69245    34646.235 
  887800    294.91929   -1524.2866    506.01486     313.5623    243.33113    34646.235 
  887900     303.0086   -1493.8385    539.42009    413.94638    429.63712    34646.235 
  888000    299.42962   -1486.6553    495.73876    361.28581   -24.334759    34646.235 
  888100    304.37141   -1511.5464    534.13838    397.11109   -21.298259    34646.235 
  888200    305.66549   -1486.6412    491.57849    385.30035   -355.58992    34646.235 
  888300    299.12577   -1512.1486    514.28472    352.96631   -415.90014    34646.235 
  888400    299.78001   -1543.7777    530.60333    340.61036    280.26428    34646.235 
  888500    303.09062   -1542.6178    518.78985    344.90725    383.91289    34646.235 
  888600    306.11188   -1461.1879    495.28305    416.47412     89.45947    34646.235 
  888700    304.06426   -1473.6584    519.04452    418.51821   -614.77141    34646.235 
  888800    302.27423   -1518.9227    508.35025    354.47599   -462.00887    34646.235 
  888900    295.31226   -1552.6918    517.71471    298.63158   -587.13655    34646.235 
  889000    301.47094   -1554.5262    528.85466    335.74933   -148.24121    34646.235 
  889100    300.62683   -1510.4229    511.58938    358.77534   -79.006322    34646.235 
  889200    295.82027   -1570.8423     494.0274     259.0879   -173.45515    34646.235 
  889300    290.51326   -1534.2664    512.02821    289.69852     154.2898    34646.235 
  889400    306.55336   -1504.5816    500.44016    380.23121    486.45377    34646.235 
  889500    307.83958   -1560.4013    516.97611      346.756    472.66756    34646.235 
  889600    301.52813    -1529.764    505.74518    337.66028   -445.59314    34646.235 
  889700    304.47438   -1563.0703    515.42365    327.33752   -244.64297    34646.235 
  889800     303.4659   -1545.5012    479.34862    304.27734   -435.69962    34646.235 
  889900    300.42732   -1511.1721    488.35023    333.88605    225.05203    34646.235 
  890000    299.51966   -1564.2292    498.17824    286.55808    10.580525    34646.235 
  890100    298.72775   -1514.3538    510.67969    345.35869     75.41237    34646.235 
  890200    293.99615   -1545.6171    512.24476    294.29283   -200.75184    34646.235 
  890300    288.76327   -1512.9627    508.19835    299.26954    229.87231    34646.235 
  890400    295.73564   -1469.3685    509.76318    375.91529    545.25584    34646.235 
  890500    297.03919   -1522.4914      525.067    343.98291    791.33442    34646.235 
  890600    296.90017   -1519.1508     503.2737    324.90246    966.79969    34646.235 
  890700    299.87984   -1504.0511    516.52993    366.71441    1175.0534    34646.235 
  890800    300.64915    -1482.103    522.18647     397.7931    1046.1392    34646.235 
  890900    303.18546   -1577.5926    503.40373    294.97463    511.43375    34646.235 
  891000    303.87041   -1536.7996    505.62579    341.08281    653.74839    34646.235 
  891100    308.12404    -1512.303    508.28098    387.44376    270.45933    34646.235 
  891200    306.31106   -1503.6185      505.709    385.36898   -533.87698    34646.235 
  891300    299.64903   -1497.5203    499.44932    355.12228   -405.31297    34646.235 
  891400    302.23795   -1524.2054    533.98366    374.66283   -436.07994    34646.235 
  891500     292.3096    -1466.427    514.35393    367.97577    256.92113    34646.235 
  891600    305.54783   -1493.8021    502.49816    388.52787    208.85268    34646.235 
  891700    299.05185   -1532.4017    517.81301    335.90766    700.91235    34646.235 
  891800    304.98993   -1478.1918    503.86934    402.98991     136.6112    34646.235 
  891900     301.2027   -1495.3335    490.18202      355.058   -288.74725    34646.235 
  892000    301.71335   -1499.5465    521.32289    384.29186   -843.82547    34646.235 
  892100     299.0898   -1481.1298    498.91719    368.45518   -876.19006    34646.235 
  892200    296.68508   -1468.5671    523.84717    395.08828   -356.55891    34646.235 
  892300    298.18742   -1492.8842    496.35433    350.06281    -525.8417    34646.235 
  892400    293.62474   -1494.9845    509.80636    340.80979   -367.65333    34646.235 
  892500    300.70604   -1529.5204    508.59089     337.0371    134.43984    34646.235 
  892600     295.0161   -1543.5572    507.04123    295.75527   -577.16025    34646.235 
  892700    295.53639   -1542.8901    490.17607     281.9068   -428.66924    34646.235 
  892800    291.91223   -1535.0137    493.15072    276.39143   -180.07976    34646.235 
  892900    291.14143   -1517.4913     498.3674    295.64958   -169.29031    34646.235 
  893000    300.43269    -1541.136    502.26461    317.86074   -52.444852    34646.235 
  893100    305.38388   -1503.8091    506.74624    382.02856    122.21755    34646.235 
  893200    292.71555   -1526.5664    479.10456    274.42026    421.20772    34646.235 
  893300    305.76659    -1496.356    496.04736    380.51107    419.07549    34646.235 
  893400    293.38179   -1489.1239    506.80381    342.57073    -37.39143    34646.235 
  893500    296.07805   -1526.1272    499.63866    310.57839   -390.71688    34646.235 
  893600     298.6663   -1512.6431    480.06497    316.17715   -784.03847    34646.235 
  893700    297.00998    -1509.453    523.86583    355.68832   -223.06999    34646.235 
  893800     293.4141   -1511.3657    513.06379    326.73485   -243.88843    34646.235 
  893900    294.69631   -1480.4596    482.18612    332.55358    182.80964    34646.235 
  894000    299.08791   -1503.0155    502.26989     349.9136      77.7904    34646.235 
  894100    306.85532   -1532.4723    502.63451    355.89851    475.11046    34646.235 
  894200    305.74303   -1526.0457    523.01592    377.68343    632.99546    34646.235 
  894300    304.29121   -1504.7375    521.13976    390.55922    695.33394    34646.235 
  894400    300.14741   -1537.7855    505.38065    323.03897    828.31833    34646.235 
  894500    293.23353    -1492.629    519.12494    350.71722     854.1927    34646.235 
  894600    306.64765   -1516.9585    513.21843    381.05841   -104.19768    34646.235 
  894700    301.08118   -1531.1859    509.89586    338.37064    31.555837    34646.235 
  894800    291.80534   -1498.5709    516.06958    335.27039    -368.7796    34646.235 
  894900    297.93829   -1524.0726    499.21481    320.60983   -530.23682    34646.235 
  895000    303.19951   -1544.5937    488.74628    313.37947    108.54289    34646.235 
  895100    298.60522   -1523.8063     524.8602    349.53332    431.70583    34646.235 
  895200    299.70337   -1548.0963    492.43715    297.77944    1031.6199    34646.235 
  895300    299.82244   -1532.1498    500.43787    322.26444    1208.2715    34646.235 
  895400    311.12698   -1559.3553    496.31327    341.98481    831.45216    34646.235 
  895500    304.11941    -1532.787    526.20685      366.801    876.38458    34646.235 
  895600    301.54293   -1552.2016    498.30307    307.84741    515.38162    34646.235 
  895700    296.82169   -1539.6227    493.10309     293.9056    518.77133    34646.235 
  895800    287.79023   -1548.4065    509.69884    260.93206   -73.774905    34646.235 
  895900    298.27403   -1555.2813    517.34017    309.04263   -258.30367    34646.235 
  896000    299.76968   -1532.3172    515.60426    337.02512    146.02322    34646.235 
  896100    305.99253   -1557.6741    522.95997    347.12591    851.24319    34646.235 
  896200    293.35587   -1570.1336    511.46857    266.10871    496.07361    34646.235 
  896300    302.49324   -1555.7797    504.40258    314.66033   -7.6956587    34646.235 
  896400    298.99053   -1504.8809     508.8697    354.20829    267.80448    34646.235 
  896500    291.58864   -1532.0287    491.04533    275.80974   -625.43422    34646.235 
  896600    297.78251   -1513.7662    515.63154     346.6295    198.99649    34646.235 
  896700    298.86307   -1549.2955    495.62925    295.97759   -283.35037    34646.235 
  896800    284.95247   -1548.3364    500.04183    238.53003    56.253303    34646.235 
  896900    301.02252   -1512.4812    513.46635    360.38093   -578.19873    34646.235 
  897000    305.83281   -1470.7952    530.80365    441.12713   -117.83281    34646.235 
  897100    291.10666   -1440.3501    506.16355     380.4299    71.247927    34646.235 
  897200    297.39484   -1504.9003    507.05408    345.16718    -554.3237    34646.235 
  897300    290.30386   -1477.0968    503.75325    337.64761   -420.71391    34646.235 
  897400    292.34882   -1514.5277    503.48895    309.18725   -231.56983    34646.235 
  897500    309.80105   -1495.7699    505.94976    409.21892   -1186.8191    34646.235 
  897600    307.63864   -1501.7548    502.97998    390.49886   -662.83599    34646.235 
  897700    298.64789   -1526.5282    504.27961    326.42357     211.9515    34646.235 
  897800    301.76251   -1506.8343    528.41245    384.31568   -97.012319    34646.235 
  897900    298.73882    -1493.852     493.7151    348.94593    33.253492    34646.235 
  898000      300.176   -1517.6129    530.19387    368.15395    465.21609    34646.235 
  898100    291.77755    -1560.501    493.57011     250.7153   -167.75938    34646.235 
  898200    307.59525   -1535.2987     493.6587    347.43775    119.81401    34646.235 
  898300    289.57597     -1600.14    507.95138    215.51538   -206.29659    34646.235 
  898400    299.83313   -1539.6842    498.33079    312.67118    14.625801    34646.235 
  898500     298.7493   -1548.7161    481.31686     281.7308   -352.28648    34646.235 
  898600    290.67771   -1535.5828     496.6205    273.71709   -463.75714    34646.235 
  898700    303.09228    -1501.761    508.26726    375.24892    46.894725    34646.235 
  898800    291.72425   -1502.4384    512.42902    327.39614    486.80922    34646.235 
  898900     293.5147   -1521.9273    510.48943    314.05315    495.00902    34646.235 
  899000    296.30749   -1504.6733    506.61466    340.04441     414.1899    34646.235 
  899100    293.05814    -1514.394     506.4612    315.49639    585.66482    34646.235 
  899200    291.62321   -1553.8465    523.18957    286.29226    726.75497    34646.235 
  899300    301.60716   -1561.7192    494.02229    294.33908     212.9289    34646.235 
  899400    295.15755   -1493.1857     497.7805    337.50477    121.17196    34646.235 
  899500    300.21112   -1510.9593    519.14096     363.9132     747.3434    34646.235 
  899600    306.66987   -1509.0221    508.59094    384.46764    235.43306    34646.235 
  899700    293.95527   -1529.5378    491.53275     289.4755    32.372287    34646.235 
  899800    299.86716   -1558.8363    499.18297    294.52496    613.51713    34646.235 
  899900    293.44215   -1492.5513    488.71666    321.32878    332.05818    34646.235 
  900000    301.61022    -1519.662    508.84627    351.23406    582.00696    34646.235 
  900100    300.65238    -1499.878    495.55545    353.40167    487.54207    34646.235 
  900200    305.96041   -1502.6244    518.62042    397.69097   -41.501255    34646.235 
  900300    293.74982   -1508.3975    497.83327    315.98855    -171.0193    34646.235 
  900400    303.13671   -1482.3608    500.07331    386.65587    146.69608    34646.235 
  900500    300.07098   -1524.3312    494.31854    325.08609   -391.89902    34646.235 
  900600    300.80215   -1531.6981     516.1195    342.82205   -207.14266    34646.235 
  900700    299.87893   -1563.9743    504.78955    295.04666    110.87407    34646.235 
  900800      307.326   -1572.5535     518.9632    334.27154   -171.94354    34646.235 
  900900    297.86388   -1555.8049    491.57315    280.89984    -99.64921    34646.235 
  901000    298.30142   -1596.3207    465.22469    216.01151    156.17461    34646.235 
  901100    299.44875   -1555.2081    482.70648    279.78712   -446.11484    34646.235 
  901200    302.37772   -1540.8791    525.98022    350.61686    19.309507    34646.235 
  901300    295.59231   -1517.5277    492.78722    310.13291   -50.329365    34646.235 
  901400    301.78224   -1573.1791    510.18938    299.83689     131.4941    34646.235 
  901500    298.40006   -1562.7023    496.42537    281.27602    268.81031    34646.235 
  901600    284.36544    -1536.915    490.69659    237.95525    346.54662    34646.235 
  901700     303.6831   -1558.7422     503.3398    316.00833    58.917827    34646.235 
  901800    308.65897   -1549.4904    514.85076    359.24177    390.53752    34646.235 
  901900    298.38022   -1574.2165    512.24248    285.48932    362.26931    34646.235 
  902000    308.22183   -1541.2499     510.1504    360.80789    627.05935    34646.235 
  902100    294.72382   -1501.6515    521.71639     351.0162    205.06555    34646.235 
  902200    296.79618   -1517.8146    518.44599    340.94136    452.06092    34646.235 
  902300    293.02582   -1517.4342    501.04637    306.89548    42.966376    34646.235 
  902400    307.28031   -1537.3953    514.50662    364.76682    457.63519    34646.235 
  902500    293.71602   -1492.8504    501.63232    335.18211   -209.46031    34646.235 
  902600    303.38196   -1533.7639    516.14161    352.42862   -105.99848    34646.235 
  902700     291.9137   -1524.2021    527.55287    321.61183   -382.10962    34646.235 
  902800    303.79597   -1523.4315    510.49945    358.98846   -534.13256    34646.235 
  902900    306.11914   -1515.8575    497.44473    363.99895   -404.04855    34646.235 
  903000    299.84045   -1553.0502    494.77394    295.78138   -33.089425    34646.235 
  903100    311.87881   -1546.6602    518.23251     379.9943     526.9072    34646.235 
  903200    302.62554   -1500.2305    501.96901    368.37345    137.68305    34646.235 
  903300    293.50051   -1459.9268    506.39393    371.89411   -99.128646    34646.235 
  903400    283.05152   -1490.2858    511.38074    299.33501    396.42106    34646.235 
  903500    309.41725   -1508.1795    493.23006    382.35632   -204.75954    34646.235 
  903600    301.53432   -1508.4232    509.74166    363.02548     110.0331    34646.235 
  903700    303.29012   -1490.2152    501.37222     380.7931    123.14862    34646.235 
  903800    304.69274   -1510.6122    496.28743    361.64546   -655.98147    34646.235 
  903900    299.03827   -1530.3425    508.99264    329.08525   -10.016259    34646.235 
  904000    299.38081   -1526.9262    495.46342    320.51917    301.95529    34646.235 
  904100    298.41392   -1492.3077    516.51982    371.82766   -249.34741    34646.235 
  904200    303.68721   -1483.9821    511.85888    399.30615     52.88076    34646.235 
  904300    303.37143   -1485.0588    508.55875    393.50327   -342.12606    34646.235 
  904400     297.1425   -1487.2133    512.71511    367.37567   -320.04916    34646.235 
  904500    302.72727   -1459.1845    525.74103    433.65083   -219.45593    34646.235 
  904600    299.42922   -1529.6864    502.94748    325.46161    382.85566    34646.235 
  904700    297.75725   -1472.4832     496.9053    369.07215    394.20719    34646.235 
  904800    302.52417    -1491.041    513.28563    388.42177   -310.01376    34646.235 
  904900    301.56418   -1488.4389    505.80032    379.20336   -139.62392    34646.235 
  905000    306.26827   -1474.8597    491.25741    399.48293   -193.06968    34646.235 
  905100    294.04544   -1461.1431    526.65133    393.39601   -451.84435    34646.235 
  905200    289.44291   -1453.1553     516.6026    370.55048   -504.26729    34646.235 
  905300    295.57448   -1485.7528    509.31728    358.35732   -328.10933    34646.235 
  905400    299.41754   -1499.1275    470.52192    323.54226   -516.50388    34646.235 
  905500    302.72369   -1453.8213    556.57445    469.83132   -561.78531    34646.235 
  905600    296.09868   -1453.2645    502.39633    386.29195   -242.78024    34646.235 
  905700    299.18788   -1441.2566    534.10282    443.95694   -493.76362    34646.235 
  905800    306.59748   -1483.9534    488.73268    389.35114    151.26058    34646.235 
  905900    294.28262   -1467.0471    489.88989    351.80168   -135.53573    34646.235 
  906000    299.41206   -1479.0748    523.45301    396.50124   -459.47516    34646.235 
  906100    292.76902   -1461.2897    509.00877    369.84262   -327.50943    34646.235 
  906200    301.45767   -1508.6801    506.74613    359.42689    318.08614    34646.235 
  906300    306.55345   -1518.1371    506.94002    373.17597   -85.228369    34646.235 
  906400    293.53495   -1490.9136    521.02849    355.69731   -307.91021    34646.235 
  906500    309.77749   -1528.6099    510.88552     381.2082    316.26044    34646.235 
  906600     303.4163   -1542.0789     510.8101    338.93713    226.91253    34646.235 
  906700    301.15509   -1505.9217    527.35919    381.43196    179.90511    34646.235 
  906800    292.86332   -1484.3307    501.09559    339.31428    450.41624    34646.235 
  906900    304.49518   -1510.6817    503.86388    368.26026    583.73048    34646.235 
  907000    308.33023   -1492.1182    534.59609    434.87471    534.24521    34646.235 
  907100    302.38186   -1475.7954    477.50639    367.24551    637.40804    34646.235 
  907200    306.67561    -1481.453    513.67513    417.14688   -5.4640902    34646.235 
  907300     302.3542   -1472.1105    493.40174    386.70087    361.04171    34646.235 
  907400    299.48806   -1524.3253    509.83036    337.97135   -463.84654    34646.235 
  907500    288.35784    -1493.317    523.23771    332.12371    491.52512    34646.235 
  907600    304.41856   -1531.4498    507.98651    351.26882    476.12623    34646.235 
  907700    294.61878    -1505.213    523.82115     349.0851   -419.23048    34646.235 
  907800    305.03378   -1479.9201    530.36356    427.95383   -31.348158    34646.235 
  907900    292.84639   -1528.6648    496.29842     290.1066   -209.95579    34646.235 
  908000    293.86117   -1523.1132    497.18542    301.12786   -79.169995    34646.235 
  908100    301.20856   -1525.7729    511.24492    345.70794   -149.06076    34646.235 
  908200    290.48606   -1545.6403    473.21161    239.38523    262.07797    34646.235 
  908300    306.98024   -1534.5375    471.71142    323.47433     246.8966    34646.235 
  908400    303.75989   -1544.9446    491.48022     318.2932   -282.37414    34646.235 
  908500    290.17017   -1557.3594    501.52243    254.55043    375.94801    34646.235 
  908600     293.9565   -1581.2499    491.92383    238.16012    111.88366    34646.235 
  908700    304.50272   -1571.8514    491.76652     295.0273    593.91098    34646.235 
  908800    308.33456   -1576.5336     517.4898    333.37265   -488.19202    34646.235 
  908900    304.79899   -1534.9088     493.6837    335.22491    12.942278    34646.235 
  909000    299.29448   -1540.5591    477.23038    288.26334   -231.84191    34646.235 
  909100    298.02732   -1514.3404    500.70655    332.23582   -262.45081    34646.235 
  909200    297.30434   -1516.8647    492.99484    318.73486    202.71834    34646.235 
  909300      298.721   -1514.4402    484.57797    319.14005    303.87107    34646.235 
  909400     297.5671   -1512.7798     496.2355    327.24708    709.20701    34646.235 
  909500    302.32014   -1495.8361    505.73426    375.15395   -127.32347    34646.235 
  909600    304.63211   -1527.6842     511.3337    359.34597    438.47008    34646.235 
  909700    295.96815   -1527.0385    467.26562    276.79773    195.22107    34646.235 
  909800    298.34491   -1505.9287    517.34804     358.7232    371.06356    34646.235 
  909900    296.01864   -1525.5567    484.18522    295.42713     257.8892    34646.235 
  910000    306.38651   -1540.1559    502.12544    345.58869    343.32079    34646.235 
  910100    308.76012   -1500.6383     505.7145    399.41442    255.22701    34646.235 
  910200    305.54358   -1527.2736    483.34708    335.88609    55.684929    34646.235 
  910300    297.42643    -1503.859    512.04725    351.34438   -216.04703    34646.235 
  910400    307.59089   -1538.3018    483.76693    334.52318    59.082515    34646.235 
  910500    297.65109   -1521.8327    522.80078    345.13877     -274.277    34646.235 
  910600    307.06211   -1517.0227    505.90621    375.55367   -296.39312    34646.235 
  910700    306.54384   -1502.8928    511.43574    392.87265   -250.70575    34646.235 
  910800    295.31099   -1509.9395    493.97347    317.63687   -545.77821    34646.235 
  910900     294.2101   -1496.6019    526.29686    358.32639   -580.40988    34646.235 
  911000    295.30425   -1515.0509     514.6937    333.21535   -858.30164    34646.235 
  911100    301.29588   -1460.2173    487.05029    387.46323    14.904273    34646.235 
  911200     299.8357   -1503.7412    523.11978    373.41483    53.170795    34646.235 
  911300    297.62908   -1496.4456    506.78882    354.41445    436.97378    34646.235 
  911400    295.80742   -1486.6346    511.13046    360.34064   -270.62863    34646.235 
  911500    304.16035    -1484.721    529.73863    418.58363   -111.53179    34646.235 
  911600    289.88392   -1470.8742    489.61873     327.8392    427.67991    34646.235 
  911700    307.98348   -1465.8783    532.54569    457.49841    292.68653    34646.235 
  911800     294.3541   -1492.4873    510.60233    347.39671    286.52353    34646.235 
  911900    309.33263   -1503.7173    502.65086    395.85723      -31.118    34646.235 
  912000    294.82261   -1502.3428     547.4405    376.49518   -64.434564    34646.235 
  912100    295.19513   -1479.8123    524.36485    377.63228    270.14926    34646.235 
  912200     301.5198   -1447.3765    516.83516    431.10013    602.39909    34646.235 
  912300    292.09291   -1474.4586    541.57793    386.18971    137.54234    34646.235 
  912400    300.08168   -1510.0171    506.44111    351.57101     767.9263    34646.235 
  912500     300.1071    -1497.219    512.43689    370.47972    380.12057    34646.235 
  912600    294.65468   -1510.0041    497.26899    317.90396   -120.67758    34646.235 
  912700    301.68002   -1476.2062    501.61645    387.77526    99.183268    34646.235 
  912800    289.56631   -1519.0254    480.57913    269.21407    319.06585    34646.235 
  912900    290.41584   -1504.1365    539.87149    347.23182    858.87049    34646.235 
  913000    298.10108   -1499.3723    549.58152    396.41205    813.13632    34646.235 
  913100    308.73356   -1494.1464    500.93766     401.0095    869.78398    34646.235 
  913200    301.75897   -1500.8176    479.56706      341.471    1213.1021    34646.235 
  913300    306.83374    -1513.046    525.83709    398.42994     1087.768    34646.235 
  913400    301.99114   -1547.2865    503.38499    319.86851    1020.5422    34646.235 
  913500    302.95224   -1536.7696    483.44531    314.78601    127.89358    34646.235 
  913600    297.50774   -1511.7922    505.11058    336.84166   -272.64508    34646.235 
  913700    306.40557    -1505.657    511.99825    390.04651    319.12834    34646.235 
  913800    297.00102    -1479.364    488.90188     350.7729   -433.15527    34646.235 
  913900    304.25369   -1482.8584    490.72073     381.8498   -170.01206    34646.235 
  914000    295.01498     -1501.29    505.41908     336.3952   -439.62353    34646.235 
  914100     305.2512    -1509.435    507.15684      376.214   -279.65729    34646.235 
  914200    295.70742   -1488.7968    469.65951    316.25595   -489.45197    34646.235 
  914300    301.69821   -1512.6143     505.0603     354.8932    492.55539    34646.235 
  914400    298.34875   -1483.4493    541.79664    405.66859   -103.98443    34646.235 
  914500    294.96512   -1503.7794    467.48345     295.7451     668.9762    34646.235 
  914600    298.20597   -1510.9481    494.81505    330.54343    527.13588    34646.235 
  914700    298.04806   -1540.9922    499.63101    304.60219    59.209499    34646.235 
  914800    299.98705   -1500.9063    493.80782    347.62119    350.82142    34646.235 
  914900    309.35153   -1475.6348    498.83161    420.20579   -233.91474    34646.235 
  915000    307.85057   -1450.9401    518.59825    457.88897    -22.60726    34646.235 
  915100    301.45955   -1463.8565    480.55685    378.06974   -130.80195    34646.235 
  915200     296.9526   -1501.0789    500.89745    340.83486   -12.666235    34646.235 
  915300    310.33854     -1537.62    484.58471    348.43099   -251.82534    34646.235 
  915400    307.26958    -1535.564    464.51453     316.5576   -898.09815    34646.235 
  915500    293.84446   -1530.3029    462.47376    259.15107   -535.24926    34646.235 
  915600    297.80192   -1492.8246    528.24625    380.27346    -351.4391    34646.235 
  915700    296.55715   -1513.2922    482.03018    307.96848     236.4735    34646.235 
  915800    311.51503   -1511.0002    495.22692    391.00592   -45.826543    34646.235 
  915900    303.02572   -1472.0835    511.40545    407.76405   -89.308452    34646.235 
  916000    299.08039   -1546.9835    492.46458    296.10636   -172.56598    34646.235 
  916100    307.26069   -1504.0173    506.21366    389.76323    80.654971    34646.235 
  916200    299.70335   -1489.0988      524.027    388.36676    565.28864    34646.235 
  916300    291.83535   -1467.3297    485.27827    335.85576    211.04658    34646.235 
  916400    306.86514   -1495.4883    504.24527    394.53755   -121.63301    34646.235 
  916500    300.38696    -1500.939    496.70954    352.29618   -10.613593    34646.235 
  916600    296.47105   -1502.2654    496.28636    332.86262   -71.010207    34646.235 
  916700    304.01154    -1516.379    466.31422     322.8292    43.743955    34646.235 
  916800     299.0328   -1498.4607    492.89712    344.84683    134.05826    34646.235 
  916900    306.05375   -1481.9388    482.61802    382.79564   -1.2661083    34646.235 
  917000    300.62318   -1500.8099    514.60092    371.38342     397.6711    34646.235 
  917100    296.61144   -1483.4575    499.35606    355.37419    149.46928    34646.235 
  917200    289.69817   -1471.0217    490.03908    327.27323    243.58037    34646.235 
  917300    287.17119    -1504.246    518.83672     311.4349   -265.90538    34646.235 
  917400    307.64066    -1470.831    486.16931    404.62114    37.308298    34646.235 
  917500    302.55929   -1508.1692    501.24397    359.41048   -359.63999    34646.235 
  917600    308.13179   -1504.2963    508.43841    395.64287    39.206452    34646.235 
  917700    307.53512   -1486.2223    495.32578     397.9097    137.42938    34646.235 
  917800    296.78719    -1468.991    505.29057    376.56895   -537.28242    34646.235 
  917900    299.60271   -1476.8363    502.91547     379.0632   -1061.2093    34646.235 
  918000    302.88383   -1463.3597    497.84356    402.28518   -482.55394    34646.235 
  918100    296.67364    -1464.241    516.12782    391.64341   -639.27788    34646.235 
  918200    309.60075   -1494.7629    506.95898    410.33049    -464.7501    34646.235 
  918300    295.92326   -1501.5158    507.76448    342.61659   -245.57285    34646.235 
  918400    295.94525   -1497.9723    524.83942    363.33437   -739.72071    34646.235 
  918500    302.80277   -1453.2526    504.81026    418.99292   -1144.1594    34646.235 
  918600    306.83258   -1473.9511    525.24643    436.92894   -789.59119    34646.235 
  918700     294.4885   -1509.7488    486.57629    306.71616   -486.88437    34646.235 
  918800     297.4153   -1509.6198    502.49294    335.97902   -593.40235    34646.235 
  918900    298.69345   -1476.7206    528.54476    400.70205   -638.46227    34646.235 
  919000    307.31466   -1507.5579    515.07966    395.33242   -242.76414    34646.235 
  919100    303.46422   -1488.0587    488.83575    371.19935   -237.22585    34646.235 
  919200    305.59898   -1488.7879     515.1293    406.40419   -553.60007    34646.235 
  919300    296.35309   -1501.8143    520.71983    357.21452    20.063905    34646.235 
  919400    302.71966    -1444.105     495.7886    418.74358   -134.27118    34646.235 
  919500    314.44316   -1515.1675    508.41872    413.25369    31.104756    34646.235 
  919600    305.73218   -1483.8138    512.95804    409.80848    194.88899    34646.235 
  919700    297.69447   -1489.6356    482.95416    337.68513    779.35013    34646.235 
  919800    306.68813   -1509.5863    531.32967    406.72468    791.95062    34646.235 
  919900    309.01543   -1500.9077    533.89603    428.47951     865.3111    34646.235 
  920000    294.78271    -1521.086    515.34294    325.47421    1123.6198    34646.235 
  920100    297.40007   -1560.8614    506.99063    289.16628    797.50036    34646.235 
  920200    305.82238   -1538.4032    473.48285    316.15127    62.249124    34646.235 
  920300    311.77863   -1476.1483    511.58576    443.40706    260.38465    34646.235 
  920400    297.33923    -1515.532    516.48057    343.71083    436.03393    34646.235 
  920500      290.171   -1490.7177    502.97584     322.6493    637.34588    34646.235 
  920600    298.50145   -1464.0453    493.31773     377.2833    179.95833    34646.235 
  920700    294.25689    -1508.582    516.80429    337.06499    230.40443    34646.235 
  920800    304.51764    -1487.541    501.96324    389.60173   -134.00649    34646.235 
  920900    306.87492   -1465.3519    508.36034    428.83327    971.18413    34646.235 
  921000    306.43099   -1521.4377    498.90089    361.28321    888.74274    34646.235 
  921100    306.18595   -1554.0229    521.50906    350.19966    1105.1087    34646.235 
  921200    292.94534   -1533.5253    510.46761    299.86219    1505.3294    34646.235 
  921300    285.01923    -1546.161     502.7967    243.76184    262.32235    34646.235 
  921400     291.4345   -1456.7356    510.14647    369.50781    536.97892    34646.235 
  921500    301.33683   -1457.1989    496.90555    400.52182   -336.03799    34646.235 
  921600    301.68938   -1484.9352    502.48141    379.95344    -506.2708    34646.235 
  921700    297.68423    -1484.016    522.80297    383.10732   -104.90658    34646.235 
  921800    292.38703   -1488.3809    481.28439    313.30201    -366.3954    34646.235 
  921900    294.76088   -1473.7937    497.84735    355.17238    -157.5808    34646.235 
  922000    291.76957   -1512.7676    484.00198    288.84451   -427.42826    34646.235 
  922100    303.39202   -1480.4162     538.1681    427.84816   -721.14392    34646.235 
  922200    301.32486   -1490.7091      483.688    353.74004   -637.71867    34646.235 
  922300    304.28106   -1470.8997    505.20636    408.41783    -522.9248    34646.235 
  922400    306.02768   -1468.5919    497.60215    411.00898     307.8461    34646.235 
  922500    296.15194   -1490.7076    507.34701    354.04007    45.017727    34646.235 
  922600    295.52701   -1457.0283    514.40036    391.95056    18.581212    34646.235 
  922700    298.74086   -1486.5159    497.53155    360.10763   -623.33866    34646.235 
  922800     295.4089   -1460.7287    490.47036    363.78676    -501.5041    34646.235 
  922900    308.31364   -1454.2809     470.3105    408.35156   -143.11919    34646.235 
  923000    305.23128   -1510.9298    493.29939    360.77182    477.12416    34646.235 
  923100    300.82846   -1494.9172     486.3469    349.94912    840.53031    34646.235 
  923200    300.13161   -1506.6441    463.61831     312.3467    1199.0145    34646.235 
  923300    294.96539   -1473.2706     501.5945    360.36608    1874.2795    34646.235 
  923400    302.33221   -1503.3067    525.60388    387.60741    674.77655    34646.235 
  923500    300.77612   -1515.3974    497.97628    340.86194    947.52299    34646.235 
  923600    302.32483   -1453.4431    513.91075    425.74455    428.70783    34646.235 
  923700    299.43624   -1479.7855    502.18532     374.6321    534.22664    34646.235 
  923800    299.24326   -1483.7729    533.29599    400.88383   -601.52008    34646.235 
  923900    302.55411   -1444.6871    500.13466    421.75993   -508.17946    34646.235 
  924000    301.64429   -1448.4086    494.69972    408.49483   -664.56488    34646.235 
  924100    296.07852   -1435.8761    504.17804    405.37099   -229.24474    34646.235 
  924200    306.51487    -1454.636    516.85555     446.4184   -428.12796    34646.235 
  924300    306.34889   -1459.1844    541.01601    465.28095    87.695817    34646.235 
  924400    313.17692   -1478.4825    509.12662    444.92826   -408.54552    34646.235 
  924500    309.24981   -1473.8893    513.92451    436.58486    542.79343    34646.235 
  924600    297.57628   -1443.9615    516.96146    416.83281    288.29286    34646.235 
  924700    303.92638   -1475.8732    501.53795    398.17413    667.11958    34646.235 
  924800    302.69149   -1507.5518    487.15892    346.53989     590.3789    34646.235 
  924900    304.61933   -1506.1903    506.58992    376.03834    112.73648    34646.235 
  925000    301.88003   -1494.1755    478.44348    347.53624   -162.80065    34646.235 
  925100    294.65172   -1487.6307    476.19662    319.19162   -412.05624    34646.235 
  925200    291.83954   -1499.6008    507.38694    325.71228   -151.68982    34646.235 
  925300     304.0803   -1474.0579     504.8515    403.99815   -531.67584    34646.235 
  925400    296.70068   -1488.6241      512.243    363.49758   -157.47386    34646.235 
  925500    301.91053   -1483.2121    501.78781     381.9817   -178.78912    34646.235 
  925600    295.21696   -1445.8174    488.12395    375.48483   -41.786932    34646.235 
  925700    294.01453   -1467.6903    506.37692    366.43485    73.930409    34646.235 
  925800    301.43674   -1507.3313    480.46516    334.40019    105.45722    34646.235 
  925900    302.09073   -1493.8924    491.63972    361.96703    -304.9222    34646.235 
  926000    296.72705   -1502.0038    505.49282     343.4868   -587.01148    34646.235 
  926100      295.906   -1503.4278    501.37424    334.23638   -322.00757    34646.235 
  926200    303.23261   -1496.6289    530.59542    403.34286   -415.50158    34646.235 
  926300    292.53789   -1531.3296    519.77326    309.52346   -822.02928    34646.235 
  926400     294.8007   -1522.5711    514.13961    322.86702   -359.98883    34646.235 
  926500    312.29049   -1521.5171    508.12028    396.88433   -225.85182    34646.235 
  926600    299.46966   -1496.6956    498.12243    353.81008   -338.70484    34646.235 
  926700    295.19276   -1498.1834    515.41695    350.30258   -278.85925    34646.235 
  926800    305.45771   -1502.3707    513.67006    390.72417    381.30795    34646.235 
  926900    293.00424   -1479.3679    500.05508    343.87294   -166.77655    34646.235 
  927000    293.93554   -1467.9992    507.45694    366.84926   -56.405195    34646.235 
  927100    293.67328   -1467.0208    514.61861    373.80494     284.2454    34646.235 
  927200    302.83018   -1467.2031    529.98122    430.33714   -211.23278    34646.235 
  927300    291.69708   -1438.2282    507.62587    386.68045    132.68984    34646.235 
  927400    306.54898   -1439.0298    531.68989    477.01296   -369.97425    34646.235 
  927500    298.22048   -1472.8762    524.84437    398.71019   -604.97184    34646.235 
  927600     303.7676   -1479.1537    556.42898    449.06762   -934.93843    34646.235 
  927700    298.01769   -1482.7411    489.42783    352.51292   -486.74358    34646.235 
  927800    314.99051    -1452.348     529.1439    499.27014   -479.20201    34646.235 
  927900    301.70743   -1415.3545    527.74581    474.88017   -248.77741    34646.235 
  928000    302.32897   -1442.4162    509.96148    432.84092   -726.54555    34646.235 
  928100    299.93452   -1483.1178    507.80731    379.17199   -634.07445    34646.235 
  928200    302.47881   -1463.1091    538.90181    441.76505    -532.1179    34646.235 
  928300    295.02402   -1464.6144     512.9271    380.61969   -721.20782    34646.235 
  928400    297.20705   -1515.0204     511.5593    338.70424   -442.83115    34646.235 
  928500    292.41142   -1498.5837    526.42693    348.35198   -212.87525    34646.235 
  928600    302.14038   -1525.5758    530.62918    369.49737    67.073821    34646.235 
  928700     302.8925   -1491.4701    502.59356    378.96393    92.937113    34646.235 
  928800    302.86626   -1507.8973    479.33921    339.16391   -762.32642    34646.235 
  928900    291.11769    -1469.431     510.1857    355.42102   -1276.3323    34646.235 
  929000     293.2485   -1473.0018    527.48268    378.76971   -680.60046    34646.235 
  929100    294.41524   -1483.8913    501.15247    346.81895   -562.68407    34646.235 
  929200    278.87197   -1518.7847    488.10186    228.68274   -383.78265    34646.235 
  929300    299.56507   -1458.4689     528.0561    422.40123    154.51137    34646.235 
  929400    305.82727   -1481.5067     511.4794    411.06634   -273.98225    34646.235 
  929500    292.29434   -1484.6773    510.31649    345.61919   -42.857231    34646.235 
  929600    307.35964   -1474.9163    511.12574    424.22321   -257.42587    34646.235 
  929700    293.93947   -1451.9215    516.02778    391.51554   -450.34251    34646.235 
  929800    288.44346   -1496.5698    516.14308    322.16297   -214.26713    34646.235 
  929900    303.85659   -1479.1862    525.58211    418.59015     317.9048    34646.235 
  930000    293.29789   -1469.7431    511.99933    366.76815   -279.88738    34646.235 
  930100    299.17664    -1479.306    553.78132    425.53527   -233.54823    34646.235 
  930200    293.42586   -1491.3898    510.71093    344.41091   -539.66802    34646.235 
  930300    298.94107   -1458.1384    504.80079    396.65851   -250.47649    34646.235 
  930400    306.79165   -1434.3338    517.56363    468.67857   -346.87072    34646.235 
  930500     297.4525   -1439.7868    517.56177    421.04882   -484.03057    34646.235 
  930600    296.69439   -1480.3235    513.90493    373.43166   -648.16675    34646.235 
  930700    298.44924   -1522.6808    497.54191    322.63619   -110.53545    34646.235 
  930800    310.48574    -1500.847    514.46854    415.75258   -514.94458    34646.235 
  930900    302.40011    -1519.037    513.03414    359.61401    140.98608    34646.235 
  931000    311.10613   -1449.4743    546.72446    502.18277    269.21239    34646.235 
  931100    292.65617   -1504.9707    514.66257    331.30585    -327.2703    34646.235 
  931200    308.65014   -1497.5362    513.61161    409.91701   -546.86656    34646.235 
  931300    303.63804   -1494.4798    507.72592    384.45338    357.90992    34646.235 
  931400    306.35193   -1483.5128    518.34365    418.29384    28.444802    34646.235 
  931500    313.04405   -1433.3508    528.22073    508.55403     133.3207    34646.235 
  931600    297.38921   -1460.3188    507.23888    389.90807      -122.81    34646.235 
  931700    302.60881   -1481.0838    508.79332    394.26889   -103.44813    34646.235 
  931800    304.65178   -1443.4559    538.68299    471.01238   -164.39271    34646.235 
  931900    297.48709   -1493.4763    532.18723      382.141    439.37446    34646.235 
  932000    293.53158   -1446.2553    518.31108    397.62298   -241.15143    34646.235 
  932100    292.64993   -1476.7167    513.70667    358.57575   -120.98734    34646.235 
  932200    308.49986   -1518.9574     527.6416     401.8471   -275.48761    34646.235 
  932300    297.55175   -1525.7948    531.50935    349.43659   -18.701545    34646.235 
  932400    306.53275   -1506.7494    530.55509    408.08534   -59.095827    34646.235 
  932500    306.33441   -1524.8843    529.29974    387.79936   -279.09304    34646.235 
  932600    309.14811   -1481.7237    498.19646    412.56312   -149.05175    34646.235 
  932700     303.6686    -1488.344    501.86372    384.86504     277.0478    34646.235 
  932800    306.34383   -1514.8354    501.96795    370.55898    55.852519    34646.235 
  932900    302.97099   -1514.5638    494.49605     348.1272    5.8276949    34646.235 
  933000    294.02911   -1513.6127    501.49457     315.6959   -243.76145    34646.235 
  933100    294.23778   -1490.0169    500.23174    338.97119    58.700428    34646.235 
  933200     291.9753   -1511.2683    509.02489    316.29579    72.105138    34646.235 
  933300    304.34774   -1506.1551    513.15917    381.41626    33.225464    34646.235 
  933400    301.86044   -1498.2573     506.2837    371.20616    308.62734    34646.235 
  933500    303.80603    -1520.122    532.40468    384.24864    185.66788    34646.235 
  933600    288.90477   -1564.4749    492.58492    232.78297   -79.481453    34646.235 
  933700    294.25262   -1524.2896    503.86236    308.39612    231.68183    34646.235 
  933800    302.40547   -1503.3168    503.12979    365.45411    288.93272    34646.235 
  933900    300.50487   -1521.2705    506.94024    342.72783   -5.0146855    34646.235 
  934000    312.41987   -1554.0385    504.02987     360.8568    347.91475    34646.235 
  934100    296.70402    -1539.327    518.01758    318.58437   -56.420824    34646.235 
  934200    295.95716   -1528.7693    481.69226    289.44396    256.46033    34646.235 
  934300    310.13395   -1505.3358    504.16674    399.37329   -11.405353    34646.235 
  934400    303.16258   -1504.3017    532.64783    397.40626    118.43006    34646.235 
  934500    297.35676   -1483.3617    505.74932    365.22909   -26.911677    34646.235 
  934600     303.3503   -1524.2852    514.51495    360.13761    174.02826    34646.235 
  934700    309.11849   -1490.3262    527.73059    433.36099     300.6702    34646.235 
  934800    294.48866   -1526.5828    507.36348    310.67008    395.63943    34646.235 
  934900    306.09209   -1522.4166    516.08014    375.95314    697.63278    34646.235 
  935000    302.67855   -1513.7334    536.27961    389.42052     878.4337    34646.235 
  935100    299.33742   -1480.8914    512.04061    382.93526    1613.3424    34646.235 
  935200    298.92011   -1494.0613    540.01819    395.85835    768.83446    34646.235 
  935300    301.55967    -1504.256    522.29709    379.86263    569.70206    34646.235 
  935400    302.02773   -1459.2707    527.52186    432.18641     84.79262    34646.235 
  935500    285.29167   -1547.6862    523.65926    264.32954     72.69157    34646.235 
  935600    312.70178   -1467.2378    508.07912    452.97982     192.6797    34646.235 
  935700    298.82893   -1532.8706    531.58356    348.20259   -1103.2113    34646.235 
  935800    297.17617   -1551.2932    518.23827    308.97108    -972.9968    34646.235 
  935900     302.6353   -1542.6534    506.41774    330.44333   -565.54209    34646.235 
  936000    298.84969   -1510.4889    505.61018    344.70475   -151.46285    34646.235 
  936100       300.09   -1531.3631    527.94358    351.76513    137.43171    34646.235 
  936200    302.15589    -1548.763     532.0632    347.81426    286.68703    34646.235 
  936300    297.75865   -1566.8292    492.69023    270.51745    312.44427    34646.235 
  936400    303.28485   -1561.9212    510.13867     317.8298   -36.825823    34646.235 
  936500    293.29968   -1510.2926    521.51682     335.7442    247.91938    34646.235 
  936600    294.33168   -1553.5992    513.41825     288.9995    3.4219907    34646.235 
  936700     307.0034   -1533.9151    515.34012    367.83004   -465.53459    34646.235 
  936800    304.17183   -1535.0916    497.99926    336.52549   -706.17906    34646.235 
  936900    295.14583    -1520.953    545.49006    357.39414   -735.22919    34646.235 
  937000    301.73438   -1509.8091     503.6115    356.41293   -473.18327    34646.235 
  937100    305.50742   -1549.0347    524.71325    355.32779     -618.409    34646.235 
  937200    294.33627   -1592.2247    496.77835    233.75487    406.07043    34646.235 
  937300    303.18707   -1560.6859    525.32954    333.81443    168.56432    34646.235 
  937400    295.66825   -1540.9237    520.99984    315.29238    256.41856    34646.235 
  937500    307.58733   -1532.3378    539.78055    396.48478     506.6864    34646.235 
  937600    291.26822   -1539.2188    506.53577     282.6631    75.340273    34646.235 
  937700    298.17857   -1543.5695    514.66714    317.65033   -102.00568    34646.235 
  937800    297.20715   -1538.4639    511.19218    314.89414    315.32693    34646.235 
  937900    306.39183   -1548.8459    527.23993    362.03728   -16.188515    34646.235 
  938000    299.85305   -1547.3655    506.24617     312.9952   -589.16163    34646.235 
  938100    306.54076   -1555.7759    518.64691    347.18675    355.73925    34646.235 
  938200    303.66879   -1530.3646    515.62287    356.60446    136.43712    34646.235 
  938300    296.56152   -1580.0751    506.33595    265.51112    471.77177    34646.235 
  938400    304.81176   -1586.2943     493.0522    283.26564    301.91547    34646.235 
  938500    306.51054   -1532.1586    499.20284    351.22351    102.86478    34646.235 
  938600    301.88459   -1575.1339     512.6156    300.77058   -298.92254    34646.235 
  938700    304.20181   -1546.4039    517.06088    344.41017   -175.04313    34646.235 
  938800    307.31556   -1588.5998    507.33673    306.55165   -35.949393    34646.235 
  938900    299.79537   -1571.5822    497.64466    279.91658    279.12449    34646.235 
  939000    298.82965   -1538.4734     513.9725    324.99208   -283.79142    34646.235 
  939100    299.30066   -1496.6063      523.466    378.47971   -259.16752    34646.235 
  939200     301.8533   -1517.5133    530.72867    376.36289    87.853877    34646.235 
  939300    298.60925    -1517.703    539.03159    369.82621   -126.00328    34646.235 
  939400    300.66659   -1575.0852    512.32889     295.0321     244.0163    34646.235 
  939500    306.50774    -1555.937    511.98843    340.21805    276.87507    34646.235 
  939600    293.77626     -1543.35    520.26251    303.58475    677.66796    34646.235 
  939700    306.60117   -1512.0002    511.31461    383.90296   -190.85112    34646.235 
  939800    303.22991   -1499.4375     515.8102    385.73691   -56.417447    34646.235 
  939900    297.83631   -1499.3175     534.2674    379.95698   -159.23562    34646.235 
  940000    296.11351    -1530.906    522.53041    328.85149   -335.87085    34646.235 
  940100    295.29982   -1497.8474    521.27107    356.97618    82.352603    34646.235 
  940200    312.88343   -1542.0721    499.47758    370.36425    55.569475    34646.235 
  940300    305.82348   -1572.3682    525.87219    334.58054   -363.28666    34646.235 
  940400    302.53448   -1535.5371    531.59181    362.27839    315.71193    34646.235 
  940500    291.50743   -1519.4546     525.9918     322.9636   -59.723021    34646.235 
  940600    291.65528   -1515.2728    525.53365    327.35489    174.95296    34646.235 
  940700    299.80817   -1497.0056    532.57092     389.4772   -6.1650495    34646.235 
  940800     299.5895   -1530.2274    520.31993    343.01693    879.92231    34646.235 
  940900    291.62573    -1540.885    516.88443    292.95997   -3.3025676    34646.235 
  941000    300.78566   -1561.0835      505.756    302.99872    743.64749    34646.235 
  941100    294.11797   -1520.4215    553.80921    361.60306    286.41302    34646.235 
  941200    302.97023   -1505.7203     514.9456    377.41685   -374.28046    34646.235 
  941300    301.25237    -1507.783    505.76397    358.41472    123.22286    34646.235 
  941400    302.10731   -1526.2879    521.61556    359.62228    188.80415    34646.235 
  941500    293.09348   -1503.4839    528.26896    348.37389     506.4634    34646.235 
  941600    299.12905    -1546.268    538.04853    342.62551    9.5512901    34646.235 
  941700    302.65648   -1496.6212    516.63809    386.79146   -226.73915    34646.235 
  941800    303.54494   -1503.5715    534.15461    401.36992   -231.51392    34646.235 
  941900    302.11839   -1525.8698    537.92183     376.3967   -109.60579    34646.235 
  942000    306.69319   -1518.7426    517.56849    383.82999   -293.74849    34646.235 
  942100    300.25669    -1509.552     523.5833    369.96866   -267.74941    34646.235 
  942200    302.57252    -1490.606     560.4136    436.20312    3.5414165    34646.235 
  942300    300.34912   -1556.7934    547.56914    347.13057    440.21309    34646.235 
  942400    309.60316   -1509.5004    509.03088    397.67579    61.474172    34646.235 
  942500    311.37408   -1468.4722    527.22839     464.8989    672.79333    34646.235 
  942600    305.31438   -1512.0469    517.81675    384.54741    500.18847    34646.235 
  942700    296.15452   -1537.3137    550.54771    350.64626   -89.323213    34646.235 
  942800    295.91347   -1511.3232     529.0027    354.00322    57.030905    34646.235 
  942900    302.80868   -1521.1471    521.73383    368.04875   -10.612502    34646.235 
  943000    299.23862   -1516.7522    526.27406    360.86173    208.71756    34646.235 
  943100    303.85379   -1515.3262    522.19153    379.04693   -156.85015    34646.235 
  943200    304.62351   -1519.7689    503.26083     359.1495       221.79    34646.235 
  943300    291.32218   -1486.2134    544.98202    374.35838   -212.73112    34646.235 
  943400    304.67532   -1459.2557    523.32491    439.96077    79.004569    34646.235 
  943500    299.60328   -1510.7066    546.61746    388.89749   -232.82881    34646.235 
  943600    307.11091   -1517.9522    507.42936    376.36768   -322.85895    34646.235 
  943700     295.2448   -1516.6182    507.31548    324.00136   -272.73342    34646.235 
  943800    309.30511   -1488.4796    519.30259    427.62237   -33.488744    34646.235 
  943900    291.71693   -1525.1108    538.56432    330.82595    692.52187    34646.235 
  944000    295.75655   -1513.8711    525.48809     347.2321    157.23148    34646.235 
  944100    308.57789   -1509.7125    528.38835    412.19117    488.67604    34646.235 
  944200    297.55076   -1524.1236    516.26059    335.85459   -287.67035    34646.235 
  944300    299.64942   -1462.6342    487.22419      377.785   -799.79116    34646.235 
  944400    305.74661    -1491.047    525.80894    415.49138   -880.47734    34646.235 
  944500    297.55162   -1527.0182     489.9673    306.67055    132.25575    34646.235 
  944600    306.30927   -1482.2759    517.40915    418.40359   -365.40544    34646.235 
  944700    301.87755   -1483.4398    523.26612    403.08336   -616.41596    34646.235 
  944800    295.45125     -1471.76    525.70375     388.1801   -75.352055    34646.235 
  944900    305.96997   -1514.7829    508.44091    375.39612    81.710493    34646.235 
  945000    298.48623   -1521.0396    493.73503    320.63756    279.84319    34646.235 
  945100    304.70207   -1505.4567    523.02499     393.5807    190.76085    34646.235 
  945200    304.20542   -1513.9845    499.03802    358.82305   -92.277957    34646.235 
  945300    296.33985   -1530.9206    512.93536    320.26396   -856.57172    34646.235 
  945400     315.3024   -1542.1347    500.94838    382.69636   -478.78179    34646.235 
  945500    299.17851   -1533.8837    492.38007    309.56477   -652.15939    34646.235 
  945600    304.22542   -1533.9541    507.98438    347.89013     152.6231    34646.235 
  945700    301.49887   -1539.3878       528.78    350.93916    883.39085    34646.235 
  945800    294.85432   -1530.9167    510.67872    311.30269    614.07568    34646.235 
  945900    297.42674   -1523.5677    539.54915    359.13898    734.70968    34646.235 
  946000    299.58699   -1526.6685    509.42709    335.67163    278.98211    34646.235 
  946100    298.42684   -1538.5026    522.99022    332.16152   -705.17068    34646.235 
  946200     310.1079   -1535.8524     498.5333    363.10558   -283.44565    34646.235 
  946300    296.59422   -1515.1925    536.00974    360.21518   -225.69825    34646.235 
  946400    305.13745    -1564.895     488.5588    301.64231   -778.50667    34646.235 
  946500    299.17343   -1518.6531    518.27068    350.66307   -186.74769    34646.235 
  946600    292.20629   -1554.7418    489.14986    253.99036   -186.41737    34646.235 
  946700    302.62164   -1538.9143    531.75306    359.45609    410.49084    34646.235 
  946800    299.54693   -1545.0103    540.55735     348.2792    577.85106    34646.235 
  946900    292.56779   -1439.5107    539.08499     420.7892    279.76091    34646.235 
  947000    295.05458    -1487.507    509.10835    354.04632    645.18542    34646.235 
  947100    322.37185   -1546.3001    544.01071    453.51846    1058.7817    34646.235 
  947200    306.55811   -1546.4289    525.25933    363.22455    215.78682    34646.235 
  947300    295.44513   -1542.8556    511.29871    302.65179   -328.27665    34646.235 
  947400    289.66449   -1524.0173    511.11786    295.20429   -60.900442    34646.235 
  947500    291.90973   -1512.6239    514.75805    320.37724   -619.43118    34646.235 
  947600    303.61863   -1512.8881    545.83649    404.06801   -200.83214    34646.235 
  947700    292.45718    -1559.297    518.63684    280.05518    -587.8979    34646.235 
  947800    293.55348   -1542.2019    502.40916    285.87346   -955.82461    34646.235 
  947900    310.19526   -1590.0026    485.62606    296.44267    -874.3999    34646.235 
  948000    293.26383   -1534.1004    497.92959    288.18731   -595.95226    34646.235 
  948100    294.72078   -1562.3803    498.55617    267.11348    278.89507    34646.235 
  948200    308.42951   -1534.1767    509.79993    368.46843    267.77167    34646.235 
  948300    294.60168   -1527.1678    516.14574    319.37771    233.73324    34646.235 
  948400    304.07895   -1537.2806    526.79639    362.71416    505.07661    34646.235 
  948500    292.41804   -1522.9721    512.54225    310.10876    25.957384    34646.235 
  948600    298.06467    -1515.046    494.96851    325.96084   -248.45252    34646.235 
  948700    302.79149   -1501.5832    528.34469    394.14587    201.08467    34646.235 
  948800    300.56631   -1477.2063    505.74542    385.87467    222.53747    34646.235 
  948900    296.80315   -1490.4244    509.91828    359.83532    691.85977    34646.235 
  949000    303.85743    -1499.503    497.96968     370.6647    21.942145    34646.235 
  949100    301.61576   -1507.7873    529.96779     384.2553   -109.76218    34646.235 
  949200    300.83154   -1494.5516    515.05093    379.03268   -612.75473    34646.235 
  949300    302.19704   -1524.4064    519.92559    360.21907    226.09824    34646.235 
  949400    315.34525   -1523.9417     490.0565    390.19097    842.54262    34646.235 
  949500     298.4019   -1510.3823     529.7414    366.92038    389.76832    34646.235 
  949600    295.74861   -1499.7108    507.57348    343.44186    141.80756    34646.235 
  949700    287.14331    -1523.252    518.15075    291.61697   -257.50994    34646.235 
  949800    301.78196   -1533.5172    510.49437    339.80249   -49.683233    34646.235 
  949900    303.89844    -1523.041     530.5105    379.85274    167.12883    34646.235 
  950000     294.9781   -1549.8876    494.41188    276.62397    812.89813    34646.235 
  950100    294.54751   -1532.8778     523.2258    320.50318    742.28865    34646.235 
  950200      293.428   -1542.5798    531.94932    314.46901     129.3166    34646.235 
  950300    302.17526   -1543.9474     509.7233    330.37742    111.32198    34646.235 
  950400    291.95155   -1560.6718    521.12933    278.88949    120.42481    34646.235 
  950500    305.97454   -1558.8583    548.33337    371.23388    179.62538    34646.235 
  950600    303.99058   -1565.2942     495.2075    302.71268    71.420766    34646.235 
  950700     299.9627   -1564.8704    493.72942    283.46874   -110.00207    34646.235 
  950800    305.94358   -1543.1348    531.33767    369.82182   -333.29972    34646.235 
  950900    297.62906   -1555.6417    522.55236    310.98185    33.034383    34646.235 
  951000    311.19386   -1539.6184    524.26253    389.97299    332.46028    34646.235 
  951100    290.15715   -1526.0324    529.73313    314.02928   -93.424684    34646.235 
  951200    289.40582   -1524.6141    536.07508    318.39657   -129.00295    34646.235 
  951300    296.98001   -1531.0953    527.64874    337.69356    86.808381    34646.235 
  951400    304.40309   -1494.9492    491.17805    370.89103    292.32437    34646.235 
  951500    305.12739   -1536.5472    485.73671    327.12257    414.60447    34646.235 
  951600    305.67604   -1526.6508    528.97956    382.73949   -138.83983    34646.235 
  951700    286.96012    -1532.626    505.51541    268.78041   -376.61733    34646.235 
  951800    303.48565   -1548.6898    537.70449    359.53381    550.35092    34646.235 
  951900    293.97034    -1547.314    503.02258    283.25723    484.90609    34646.235 
  952000    306.26975   -1531.3385    514.02095    365.77429    468.80523    34646.235 
  952100    313.59893   -1538.2243    522.21436       400.18     245.6678    34646.235 
  952200    304.65599   -1552.0282     512.2133    335.98934    265.78137    34646.235 
  952300    297.96739   -1538.7807    527.47769    334.29608    916.27806    34646.235 
  952400    297.87563   -1549.0085    529.27845    325.45462   -368.53324    34646.235 
  952500    294.78619    -1514.821    522.36394    338.77595   -55.701848    34646.235 
  952600    299.21466   -1546.6205    490.39003    295.00117    59.216053    34646.235 
  952700     303.8764   -1512.2317    525.76129    385.81331    143.65939    34646.235 
  952800    301.92388   -1577.6697    521.62778    307.42429   -170.22209    34646.235 
  952900     302.3134    -1578.267    512.35283    299.31116    46.441029    34646.235 
  953000    300.44136   -1534.0069    512.69696     335.4614   -5.0845287    34646.235 
  953100    292.68361   -1492.4581    497.83146    327.11121    108.35715    34646.235 
  953200     312.2556   -1496.4583     531.9911    445.65638     609.6498    34646.235 
  953300    290.04987   -1492.2952    543.82011    361.36897    -50.59998    34646.235 
  953400    311.01159   -1532.3307    526.55892    398.73395    302.32607    34646.235 
  953500    300.72819   -1541.6719    504.47265    320.86741    600.35888    34646.235 
  953600    307.31183   -1504.0479     509.6894    393.43937    23.210408    34646.235 
  953700    303.23352   -1498.2956    540.97997     412.0649   -193.98621    34646.235 
  953800    308.04778   -1481.2053    510.40053    420.31659   -68.924087    34646.235 
  953900     304.8145   -1523.9611    527.09576    379.65476    300.66148    34646.235 
  954000    300.74311   -1538.7788    491.80269    311.15788    636.72486    34646.235 
  954100    304.44774   -1546.7568     495.8147    323.92171    584.10589    34646.235 
  954200    303.22781   -1526.6878    515.56862    358.23559    241.20681    34646.235 
  954300    293.12386    -1524.851    518.39378    317.26884    172.86539    34646.235 
  954400    299.79447   -1527.6922    522.29696    348.45479    699.50424    34646.235 
  954500    301.49063      -1518.4    505.21024    348.32002   -132.61698    34646.235 
  954600    306.68818   -1551.9872     504.7826    337.77695   -418.79371    34646.235 
  954700    309.19353   -1492.3534    482.00248    385.94455    371.28869    34646.235 
  954800    300.93574   -1511.8445    500.81931    347.97869   -140.61948    34646.235 
  954900    298.41036   -1509.9873    519.19271    356.80493    341.54313    34646.235 
  955000    297.30311   -1529.8596     490.2957    303.03535   -84.188733    34646.235 
  955100    290.69863    -1509.241    561.70055    365.23344   -342.51433    34646.235 
  955200    308.81344   -1518.8746    515.28892     390.9934   -338.72194    34646.235 
  955300    301.50564   -1474.9698    511.14945    397.75724    440.59765    34646.235 
  955400    291.19747   -1539.7447    516.66365     291.9455    83.678185    34646.235 
  955500    301.64616   -1491.6585    521.43001    391.98363   -10.077823    34646.235 
  955600    295.40609   -1480.0742    513.31072    367.26893    82.604716    34646.235 
  955700    301.82062    -1551.171    514.39821    326.22715   -25.094287    34646.235 
  955800    303.82613   -1508.6668    515.93099    379.32091    63.646595    34646.235 
  955900    299.65488   -1533.2633    512.14658    332.10294    -263.3157    34646.235 
  956000    291.81747   -1478.9088    547.23112    386.14874   -532.96363    34646.235 
  956100    291.63603   -1482.7889     526.7207    360.93883   -539.12768    34646.235 
  956200    292.60966   -1499.4226    514.63099    336.61234   -188.30833    34646.235 
  956300    306.33327   -1485.2443     509.9064    408.04084   -65.231073    34646.235 
  956400     286.2929   -1510.5793    532.11266     314.4113   -783.54966    34646.235 
  956500    301.39473   -1483.4718    523.02256    400.62739    24.011617    34646.235 
  956600    304.07685   -1499.7025    498.44915    371.93559   -356.16494    34646.235 
  956700    299.62611   -1455.4059    538.55374    436.23756   -153.59892    34646.235 
  956800    293.07136   -1461.9034     501.7253     363.3108   -732.47767    34646.235 
  956900    305.03481   -1439.0785    504.64935    443.08587   -396.51656    34646.235 
  957000    300.40134   -1498.2885    540.77893    399.08102    48.105291    34646.235 
  957100    289.73498   -1501.3809    519.90992    326.95115   -639.96544    34646.235 
  957200    296.42535   -1515.5204    526.40669    349.52163   -29.116367    34646.235 
  957300    294.30308   -1529.9888    512.62912    311.69166   -286.87294    34646.235 
  957400     303.8242   -1486.2847    508.70425    394.46754   -252.17857    34646.235 
  957500    297.89786   -1520.7463    520.99922    345.53802   -184.43617    34646.235 
  957600    289.57551   -1531.4835    492.71755    268.93598    159.71865    34646.235 
  957700    299.64552   -1530.2783    515.76984    338.66892   -264.55278    34646.235 
  957800    288.84687   -1525.1923     541.3143     320.5334    81.702256    34646.235 
  957900    312.21297   -1567.0034    508.82016    351.74781   -51.799165    34646.235 
  958000    296.69785   -1508.1517    501.95836    333.67259    496.67592    34646.235 
  958100    301.86207   -1506.4089    516.34333     373.1216    329.63393    34646.235 
  958200    302.54911   -1497.2849    512.21699    381.22189   -435.88663    34646.235 
  958300    312.13929   -1524.6074    497.84273    382.83365   -305.08407    34646.235 
  958400    302.11763   -1501.2909     532.2059    395.25623    200.18264    34646.235 
  958500     294.8767    -1528.441     504.5878     307.7885   -437.16177    34646.235 
  958600     297.6902     -1531.95    518.10992    330.50721    374.57497    34646.235 
  958700    293.16602   -1497.7742    510.66712    336.80936     543.2605    34646.235 
  958800    304.35329    -1514.625     514.5092    374.32149   -174.72305    34646.235 
  958900    303.53516   -1535.8857    482.55507    317.41209   -80.184204    34646.235 
  959000    306.24782   -1489.9628    524.28946     417.3195    42.227263    34646.235 
  959100    293.94449   -1489.7803    499.21555     336.8672    398.73185    34646.235 
  959200    298.57224   -1484.8869    503.44478    366.88838    432.12666    34646.235 
  959300    302.49447    -1497.854    488.94624    357.13528   -498.96811    34646.235 
  959400    302.22208   -1506.9057    533.87865    391.78587   -332.77743    34646.235 
  959500     303.0213   -1488.7133    500.48953    380.19839   -576.70838    34646.235 
  959600     290.4859   -1483.8761    510.56479    338.50186   -666.23798    34646.235 
  959700    311.12776   -1452.2993     500.9049    453.63597    -551.5005    34646.235 
  959800    305.22067   -1475.3976    513.11275    416.06954   -433.16829    34646.235 
  959900    307.72486   -1487.2756    504.55126    406.93876   -168.94637    34646.235 
  960000    289.95253   -1480.3428    527.96779    357.02948     -618.725    34646.235 
  960100    291.58667   -1483.8601    523.08968    356.01372   -193.00925    34646.235 
  960200    315.37069    -1477.163    503.55763    450.58565    80.770356    34646.235 
  960300    290.37242   -1471.3497    533.43457    373.38562   -780.08762    34646.235 
  960400    308.57513   -1531.2572    496.22017     358.4658   -164.75035    34646.235 
  960500    312.52541    -1535.069    501.42688    377.69991   -837.64728    34646.235 
  960600    292.10392   -1541.7251    509.09205    286.48696   -573.19932    34646.235 
  960700    297.54059   -1495.3895    506.69472    354.97691   -542.01477    34646.235 
  960800    303.08664   -1502.8663    515.99561     381.8465   -176.46056    34646.235 
  960900    302.37179   -1538.0257    492.07748    319.54076   -161.91937    34646.235 
  961000    307.57372   -1510.9396     512.2094    390.25033   -442.20826    34646.235 
  961100    296.93286   -1460.6243    522.58218    402.88507   -317.40252    34646.235 
  961200    302.17878    -1483.237    515.05369    396.43405   -217.70868    34646.235 
  961300    294.66794   -1473.7269    531.33607    388.30815    1011.0346    34646.235 
  961400    300.55105   -1493.9812    517.56208    380.84751   -81.985847    34646.235 
  961500    290.99572   -1482.6653     500.1063     331.5565   -283.94129    34646.235 
  961600    298.78938   -1517.6337     520.8969    352.57431   -340.03055    34646.235 
  961700    297.68196   -1515.3143    502.81832    331.81407    235.99403    34646.235 
  961800    289.87677   -1509.0232    548.00324    348.04247    54.158678    34646.235 
  961900    294.44767   -1583.4376    516.90097    263.16764   -58.195665    34646.235 
  962000    301.15659   -1554.3676     505.6126    311.24621     30.10271    34646.235 
  962100    297.33688   -1475.6987    528.97588    396.02887    459.35453    34646.235 
  962200    302.08798     -1545.32    529.06042    347.94774    197.25023    34646.235 
  962300    298.86592   -1544.0919    509.52714    315.09201   -123.91857    34646.235 
  962400    299.37797   -1524.8264    498.39652    325.53924    314.80992    34646.235 
  962500    300.96067   -1532.7656    543.54594    369.89684   -80.001277    34646.235 
  962600    297.86467   -1502.8591    497.65834    339.93443    140.07303    34646.235 
  962700     305.9872    -1492.437    525.37667    414.75563   -699.31811    34646.235 
  962800    301.28938   -1492.8397    536.48671    404.24795   -919.06242    34646.235 
  962900      301.997    -1501.642    519.50409    381.65858   -245.52557    34646.235 
  963000    291.28819   -1480.4541    521.16368    356.14585   -973.81779    34646.235 
  963100    295.46179   -1519.7608     508.1609    322.68401   -1035.3361    34646.235 
  963200    300.00201   -1493.4502    568.22548    429.56251   -238.15701    34646.235 
  963300    302.98488   -1482.9029    487.13258     372.4874   -89.763734    34646.235 
  963400     300.4621   -1495.9874    549.44756    410.32511   -194.49984    34646.235 
  963500    296.50035   -1492.1042    501.95451     348.8243   -424.71462    34646.235 
  963600    303.43627   -1494.2729    571.16253    447.18571   -555.66096    34646.235 
  963700    304.02905    -1485.479     491.5468    379.04087   -682.80424    34646.235 
  963800    288.20915   -1466.3269    529.19361    364.39825    145.71735    34646.235 
  963900    300.95289   -1467.3981    499.54739    391.23063    366.67574    34646.235 
  964000    295.69889   -1461.4077    515.85955     389.8065    377.64507    34646.235 
  964100    311.04791   -1531.9223    523.71494    396.46242    1702.3412    34646.235 
  964200    296.76584   -1509.1823    517.50863    348.49927    462.52256    34646.235 
  964300    296.82334   -1535.9962    526.19676    330.63321    140.48196    34646.235 
  964400    302.74401   -1537.3412    503.51198    333.34073   -313.64986    34646.235 
  964500    303.56501   -1460.8503    511.34945    421.37665   -154.25967    34646.235 
  964600    298.22348   -1484.7715    496.17369    358.15769     -189.733    34646.235 
  964700     301.0463   -1477.7906    528.77437    410.48699   -108.13178    34646.235 
  964800    303.84856   -1541.7392    503.84469    334.26352    728.75444    34646.235 
  964900    296.51973   -1506.4057    517.11677    349.77257     302.2236    34646.235 
  965000    303.70737   -1531.2551    520.09807    360.36332     860.1462    34646.235 
  965100    307.38779   -1534.6245    497.27722    350.79365    318.17357    34646.235 
  965200    305.65615   -1536.1572    512.92585    357.08953    273.52325    34646.235 
  965300    288.70664   -1548.9449    505.16486     259.9981    803.40559    34646.235 
  965400    305.88494   -1545.6248    526.19122     361.9206     149.0506    34646.235 
  965500    305.18725   -1537.3921    480.85943    321.67068   -48.250709    34646.235 
  965600     293.5426    -1576.029    489.51239    239.10047   -1244.9978    34646.235 
  965700    302.43579   -1573.8575    499.64828    291.56883   -662.92873    34646.235 
  965800    297.90375   -1497.9684    527.48653    374.82983   -704.01553    34646.235 
  965900    309.15895   -1531.3571    473.65148    338.43368   -628.32292    34646.235 
  966000    305.85552   -1523.5927    535.14737    392.77594    62.825957    34646.235 
  966100    295.42679   -1514.4685    517.47675    337.13406    557.59189    34646.235 
  966200    299.09373   -1544.2326    494.71591    301.16884    52.274819    34646.235 
  966300    305.22757   -1546.1339    502.76084    335.01243    812.38588    34646.235 
  966400    304.57498   -1513.3656    518.60968    380.68256    276.78224    34646.235 
  966500      287.526   -1498.6379    501.83934    301.64789    235.32952    34646.235 
  966600    303.58631   -1484.9925     505.2637    391.24487    711.81901    34646.235 
  966700    290.82834   -1433.3058    507.78547     387.8393   -101.06887    34646.235 
  966800    310.04285   -1521.4655    511.83227    390.49772   -121.38405    34646.235 
  966900    301.62831     -1537.77    496.80282    321.16432    5.1957065    34646.235 
  967000    301.94526   -1513.6956    535.93305    385.80032   -53.208198    34646.235 
  967100    305.23325   -1475.5888    513.93804     416.7604   -48.045409    34646.235 
  967200    304.59649    -1518.522    522.42352    379.43709    177.54977    34646.235 
  967300    302.92151   -1537.3049    517.00369    347.67031     527.4523    34646.235 
  967400    293.16744   -1537.5785    483.03254    269.37686    394.51265    34646.235 
  967500    301.16521   -1486.1755    557.26154    431.12626    295.38329    34646.235 
  967600    294.96355   -1524.8234     496.8381    304.04865   -316.57721    34646.235 
  967700     308.5188   -1521.2394    493.63034    365.63937    197.64879    34646.235 
  967800    303.05211   -1537.0625    507.18335     338.6821    7.0257468    34646.235 
  967900    289.58995   -1522.3442    507.16535    292.58827    189.52655    34646.235 
  968000    305.44869   -1467.9237    544.82874    456.28909    402.00042    34646.235 
  968100    302.86726    -1515.988    501.50636    353.24487    296.16787    34646.235 
  968200    309.52705   -1515.3229    508.10274    390.58149   -359.77305    34646.235 
  968300    307.66721   -1552.4558    485.62532    322.57225   -299.94141    34646.235 
  968400    301.40841   -1553.9357    489.12368    296.32638   -663.18426    34646.235 
  968500    306.33914   -1526.5969    522.21383     379.0222   -532.09862    34646.235 
  968600      298.848   -1461.8147    506.42315    394.18428   -424.13308    34646.235 
  968700    296.61508   -1504.7612    519.97169    354.70263   -1131.4382    34646.235 
  968800    298.70479   -1472.9653    493.60095    369.56479    276.46524    34646.235 
  968900    308.36349    -1482.632     519.8337    429.74876    230.81721    34646.235 
  969000    309.40758   -1479.3181    528.73521    446.67927     355.6856    34646.235 
  969100    302.52436   -1496.3926    485.61622    355.40163     1111.583    34646.235 
  969200      307.803   -1518.3505    506.59549    378.26096    720.46913    34646.235 
  969300    300.30554   -1506.7556    517.50997    366.91232   -150.56913    34646.235 
  969400    300.55433    -1480.636    508.87591    385.52141   -422.70697    34646.235 
  969500    306.58849   -1512.8976    483.78608    355.41979    51.298419    34646.235 
  969600    300.91416    -1512.421    552.45045    398.93589   -234.11212    34646.235 
  969700    300.44414   -1505.5331    481.23112    332.48183    137.54147    34646.235 
  969800    304.56439   -1546.3989    507.70976    336.70144   -116.01858    34646.235 
  969900    292.18274   -1502.9128    523.84383    340.40705   -196.38505    34646.235 
  970000    303.84616   -1492.5506    496.77031    376.36683    374.82745    34646.235 
  970100    290.47136   -1457.2827     530.7287    385.19355     197.4081    34646.235 
  970200     293.8058   -1504.2751    514.09518    336.62568   -711.87959    34646.235 
  970300    296.96489   -1539.6833    504.22765    305.61614   -603.96943    34646.235 
  970400     303.1808   -1462.8032    506.18933    412.52861    366.91522    34646.235 
  970500     301.2144   -1483.5558    497.42349    374.12997   -783.11888    34646.235 
  970600    294.74324    -1504.648    512.26865    338.65961   -448.59746    34646.235 
  970700    319.69043   -1542.2296    495.17983     396.6489    3.9266756    34646.235 
  970800    297.59344    -1507.877    522.34231    358.37559   -364.28428    34646.235 
  970900    297.93296   -1546.2573    559.45822    358.64446    3.7695914    34646.235 
  971000    292.97779   -1555.5653     521.1155    288.61657    423.76629    34646.235 
  971100    298.49638   -1530.8617    525.29494    342.42114    429.29987    34646.235 
  971200    293.24819   -1519.2557    476.72335    281.75513    608.59681    34646.235 
  971300    297.56304   -1546.9695    491.51272    288.31622    1011.4383    34646.235 
  971400    294.85671   -1547.8089    525.28839    309.03092    459.31996    34646.235 
  971500    301.16937    -1598.313    487.98859    249.73459    19.053989    34646.235 
  971600    307.87208    -1572.467    516.76713      334.628    481.36554    34646.235 
  971700    317.54251   -1558.8218     542.6141    417.79119    75.389851    34646.235 
  971800    296.06758   -1556.8649    474.01603     254.1708    650.71088    34646.235 
  971900     301.6014   -1559.8985    530.92914    333.04056   -83.355954    34646.235 
  972000    294.22253    -1521.381    537.56985    344.87641    321.23076    34646.235 
  972100    289.88336   -1531.8031     515.5866    292.87563    310.11269    34646.235 
  972200    300.23367   -1536.4512    480.21237    299.59457    130.05359    34646.235 
  972300    286.83025   -1490.5219    523.31909    328.10171    436.91432    34646.235 
  972400    303.15865    -1511.541    491.03674    348.53813     739.9532    34646.235 
  972500    301.33873   -1517.8988    502.38253    345.30754   -216.41655    34646.235 
  972600    303.81526   -1512.9709     475.5218    334.55851    -858.1455    34646.235 
  972700    291.51001   -1500.1739    533.81851    350.08256   -604.64406    34646.235 
  972800    299.22248   -1567.2482    513.94551    297.96424   -140.73742    34646.235 
  972900    296.62572   -1479.5906    515.67632    375.62582   -37.233186    34646.235 
  973000    298.39617   -1512.8109    494.16787    328.89238    33.460663    34646.235 
  973100    298.92831   -1548.9584    511.13142    312.11146   -165.44456    34646.235 
  973200    303.21025   -1536.3367    530.27047    363.20922    387.84061    34646.235 
  973300    298.07914    -1522.016    512.18143    336.26908   -34.719241    34646.235 
  973400     297.9565   -1571.7403    525.21408    299.02367    22.840699    34646.235 
  973500    296.45665   -1502.4773    499.41497    335.71435   -916.91246    34646.235 
  973600    301.49155   -1510.1678     508.4348    359.78087   -939.58808    34646.235 
  973700    288.54946    -1521.443    531.40312    313.02843   -531.11276    34646.235 
  973800    311.57126   -1493.9369     498.8201    411.91631    65.587193    34646.235 
  973900    304.10898   -1472.0587    497.63543     398.9108    64.835286    34646.235 
  974000    290.23804     -1466.29    524.61748    369.02133   -110.35713    34646.235 
  974100    296.56965   -1494.1615    486.66302    331.78844   -3.0564143    34646.235 
  974200    286.68092   -1484.1123    494.21453    304.73242   -125.16672    34646.235 
  974300    303.37031   -1528.4282    503.12116    344.69114   -325.44157    34646.235 
  974400    292.34275    -1535.212    492.69403    277.68058    -707.4853    34646.235 
  974500    283.99189   -1512.7344    542.17631    311.92857   -1013.2218    34646.235 
  974600    299.13208   -1568.7526    525.12791    307.23405   -787.74698    34646.235 
  974700    293.47707   -1565.7776     490.3758    249.91925    -357.5884    34646.235 
  974800    300.39106   -1558.2338     502.5407    300.85106    117.99532    34646.235 
  974900    305.53575   -1551.2004    508.68308     337.2599   -292.08681    34646.235 
  975000    300.01666   -1534.6151    514.41906    334.65732   -375.23517    34646.235 
  975100    296.92157   -1559.1626    497.00528    278.71886   -917.45176    34646.235 
  975200    301.00953   -1579.8706    509.03912    288.50569   -868.45186    34646.235 
  975300    304.42265   -1515.3863    522.46964    381.83386   -183.94372    34646.235 
  975400    299.30032     -1558.16    543.06339    336.52181   -248.54553    34646.235 
  975500    300.20398    -1513.899    514.66278     356.4631     330.0678    34646.235 
  975600    309.12938   -1503.9997    494.61174    386.61779    472.72659    34646.235 
  975700    298.67339   -1560.7532    490.19169    278.22574     326.5699    34646.235 
  975800    299.82462   -1511.2713    511.80177    354.51662   -116.99246    34646.235 
  975900    292.42801   -1504.2836    499.30039    315.60039   -524.31567    34646.235 
  976000    287.28502    -1538.835    487.06983    245.59311    -507.1662    34646.235 
  976100    298.35299   -1522.6777    524.86892     349.5316   -737.40659    34646.235 
  976200    297.90891    -1527.149    544.03381    362.21979   -502.17516    34646.235 
  976300    304.92633    -1507.657    523.68224    393.05033   -234.06019    34646.235 
  976400    304.56024   -1550.7434    508.05053    332.67898    194.42587    34646.235 
  976500    303.05061   -1506.9511    489.35846    350.96192    1279.9388    34646.235 
  976600     310.0663   -1515.9693    522.23067    406.49822    699.29579    34646.235 
  976700    287.63826   -1511.0234    511.41287    299.34289     52.94416    34646.235 
  976800    303.02795   -1479.5186    513.56045      402.494   -301.47396    34646.235 
  976900    294.83321   -1492.2498    502.08497    341.28051    -648.2789    34646.235 
  977000    306.18102   -1481.4912    537.14705    438.34711   -261.30456    34646.235 
  977100    302.30765   -1451.8617    526.30291    439.64058   -528.30662    34646.235 
  977200    297.79786   -1457.7386    518.57221    405.66709   -680.73803    34646.235 
  977300    305.93878   -1432.3271    542.39525    491.66541   -468.00405    34646.235 
  977400    294.07897   -1424.5209    476.03668    379.55495   -184.48649    34646.235 
  977500    301.40591   -1443.8698    526.00581    443.26319   -153.48606    34646.235 
  977600    306.75353   -1483.7408    506.69558    408.23141   -604.29572    34646.235 
  977700    300.56946   -1453.4258    528.39927     432.3233   -313.75637    34646.235 
  977800    297.56799   -1519.0171    515.36657    340.14484   -540.04543    34646.235 
  977900    297.73078   -1496.6696    548.83184    396.69277    163.61246    34646.235 
  978000    301.86744    -1490.511    528.56888    401.26927   -9.1333389    34646.235 
  978100    294.60834   -1515.0768    508.53729    323.89031   -95.225566    34646.235 
  978200    294.08774   -1476.8813    507.41157    358.60915   -95.231403    34646.235 
  978300     302.1043   -1441.3747    535.20909    458.11544   -868.87379    34646.235 
  978400    292.61519   -1508.0954    507.97864    321.31218   -1004.0793    34646.235 
  978500    289.39881   -1533.5762    523.73173    297.05954   -614.17261    34646.235 
  978600    291.59264   -1496.5952    505.60321    325.81917   -123.23163    34646.235 
  978700    302.13574   -1520.1352    530.35449    374.64235    85.582779    34646.235 
  978800    306.77621   -1476.4164    529.05894    438.02157   -593.93487    34646.235 
  978900    284.38033   -1468.4257    495.55498    311.37012   -348.48445    34646.235 
  979000    309.87013    -1485.852    506.58064     420.0796   -649.19371    34646.235 
  979100    293.68938   -1483.6576    477.87571    320.49798   -448.70167    34646.235 
  979200    305.49928   -1523.3695    481.00712    337.25018   -85.375459    34646.235 
  979300    293.87141   -1542.9347    520.42629    304.59355    168.30406    34646.235 
  979400    299.96331   -1559.7983    511.77864    306.59277    74.167765    34646.235 
  979500    306.54152    -1528.194    511.74343    367.86862    446.95367    34646.235 
  979600    302.82019   -1518.8435    521.98507    370.65548   -200.42552    34646.235 
  979700     295.1085   -1503.4584    533.35295     362.5831    637.01515    34646.235 
  979800    288.43288   -1473.0314    495.66768    325.17819    528.15084    34646.235 
  979900    295.81105    -1510.594    527.65387    352.92099    364.04519    34646.235 
  980000    301.32009   -1492.2088    536.09679    404.62755    420.00552    34646.235 
  980100    303.13985   -1508.9487    482.87291    342.88175   -234.59724    34646.235 
  980200    299.14813   -1508.8775    531.49447    373.54817   -566.40453    34646.235 
  980300    307.51312   -1506.1815    492.44447    374.96979   -759.54983    34646.235 
  980400    305.33685   -1467.9592     480.2157    391.13546   -578.82978    34646.235 
  980500    299.61063   -1453.5667    533.80241    433.25545   -1006.3438    34646.235 
  980600    303.17187   -1468.0238    523.24667    424.32501   -82.919881    34646.235 
  980700    301.73073   -1529.8814    524.19918    356.91175   -171.91677    34646.235 
  980800    297.97612   -1494.0429    513.66763    365.26317    186.66772    34646.235 
  980900     303.3174   -1462.3682    518.37284    425.76393    577.61274    34646.235 
  981000    314.57831   -1480.8527    547.21762    486.97764    397.34069    34646.235 
  981100    313.05124   -1477.4373    530.40572    466.68498    21.418994    34646.235 
  981200    292.42576   -1497.6282    536.77227    359.71749   -151.58578    34646.235 
  981300    301.35411   -1482.6206    511.29027    389.56293    30.421669    34646.235 
  981400    306.27736   -1471.8711    539.93263    451.18778    139.59851    34646.235 
  981500    297.92594   -1460.5556    506.50248    391.35877    356.07973    34646.235 
  981600     298.2389   -1496.9236    494.09624    343.99782    59.204334    34646.235 
  981700    298.44363   -1497.9167    519.45298    369.28593   -278.50595    34646.235 
  981800     288.9586   -1522.7385    526.32302    308.50053    297.72581    34646.235 
  981900     307.1274    -1523.747    512.30587     375.5238   -7.7170138    34646.235 
  982000    303.32284   -1532.4979    496.01757    333.30353    172.82068    34646.235 
  982100    300.07379   -1503.3981     549.3048     401.0181   -623.04533    34646.235 
  982200    296.44332   -1521.3604     507.1825    324.53854   -434.37346    34646.235 
  982300    313.24893   -1480.9331    511.36877    445.04503   -723.29615    34646.235 
  982400    305.51805   -1451.4657    531.13633    459.36788   -883.99684    34646.235 
  982500    289.28484   -1511.8189    523.75732    318.32771   -696.52992    34646.235 
  982600    300.91223   -1537.8025    527.17346    348.26865   -703.02715    34646.235 
  982700    303.25917   -1490.7182    474.90103    353.67915   -445.46382    34646.235 
  982800    298.00993   -1552.6833    506.53528    299.64311   -500.25659    34646.235 
  982900    298.39227   -1574.8176    500.28601    272.98616    140.07925    34646.235 
  983000    299.25283   -1574.5697    500.92325    277.75756    1082.6079    34646.235 
  983100    296.65889   -1570.2551    507.23258    276.66748     1242.439    34646.235 
  983200    298.50253    -1554.247    520.34341    314.11209    553.27579    34646.235 
  983300    293.87053    -1560.507     502.6667    269.25765    179.59091    34646.235 
  983400    305.57082   -1553.4499    497.78097    324.26663    32.881347    34646.235 
  983500    302.88462   -1542.8116     502.1906    327.18396    -115.4231    34646.235 
  983600    304.36943   -1538.5201    492.52169    328.51179    104.29219    34646.235 
  983700    304.20518   -1548.9117    517.05683    341.91357   -101.85312    34646.235 
  983800    306.08952   -1508.8705    519.44945    392.85691   -398.01593    34646.235 
  983900    305.50968   -1529.4174    501.72288    351.96495   -32.335524    34646.235 
  984000    303.44313   -1514.5201    509.11625    364.92326    -5.043421    34646.235 
  984100    300.09706   -1498.5497    510.50854    367.17539   -560.98531    34646.235 
  984200    302.38344   -1474.4806    519.69673    410.75773   -175.10066    34646.235 
  984300    293.47573   -1514.1633    514.46926    325.62098    -436.9476    34646.235 
  984400     299.2416   -1519.3305    514.61818    346.64097   -170.31942    34646.235 
  984500    306.87439   -1471.9659    513.40887    427.26542   -677.46749    34646.235 
  984600      307.866    -1483.539    529.47785    436.23929   -577.12588    34646.235 
  984700    302.55017   -1511.7004      487.883    342.47716   -309.95571    34646.235 
  984800    295.58423   -1523.9567    503.10683    313.98704   -229.26523    34646.235 
  984900    296.56874    -1523.862     547.0937    362.51456   -436.99993    34646.235 
  985000    287.65382   -1534.0373    485.20395     250.1904   -304.88581    34646.235 
  985100    302.27381   -1509.2699    528.81895    384.59551   -379.15082    34646.235 
  985200    291.20489   -1602.6532    531.57363    243.98054    207.52985    34646.235 
  985300    303.56556   -1561.3352    502.44372    311.98851    261.99308    34646.235 
  985400    289.11789   -1553.7767    512.21044     264.0691   -445.82023    34646.235 
  985500    303.70284   -1548.3821    542.58148    365.69934   -40.558518    34646.235 
  985600    293.04885   -1525.7738    485.28752      282.901   -665.95841    34646.235 
  985700    300.06311   -1573.0905    509.93928    291.91193    510.03854    34646.235 
  985800    304.52124   -1567.2693    524.45695    332.38339    493.00689    34646.235 
  985900    307.86542   -1572.7823    477.59193    295.10744    577.57106    34646.235 
  986000    296.36828   -1553.7798    514.00497    298.60273    301.50038    34646.235 
  986100    306.31997   -1458.0134    536.42325    461.72849    757.17933    34646.235 
  986200    297.63427   -1521.5639     517.8242    340.35502    734.45938    34646.235 
  986300    295.75503   -1529.8243    512.24132    318.02521   -25.701851    34646.235 
  986400    290.69993   -1513.5118    511.08573    310.35363    335.03668    34646.235 
  986500    299.04213    -1523.566    532.60475    359.49126    277.93276    34646.235 
  986600    292.28328   -1523.9954    547.64795    343.58263    131.78554    34646.235 
  986700    298.26882   -1523.4204    494.60699    318.14687    568.70626    34646.235 
  986800    289.30893    -1531.528    525.12327    300.09331    697.40363    34646.235 
  986900    306.00357   -1518.4905    513.12347    376.52282   -55.656421    34646.235 
  987000     292.2769   -1500.0481    505.72624    325.57931   -177.60919    34646.235 
  987100    308.54554   -1564.9555    516.66157    345.07524   -221.67848    34646.235 
  987200    297.44555    -1509.758    539.92636    373.41079    266.64886    34646.235 
  987300    306.47135   -1515.3265    505.61102    374.28679   -218.49482    34646.235 
  987400    296.37398   -1560.4291    510.18429    288.15857   -258.35867    34646.235 
  987500    296.51361   -1564.4256    496.65568    271.26398   -141.82051    34646.235 
  987600    306.08941   -1577.3148    498.72918    303.69193     45.40871    34646.235 
  987700    310.44757    -1563.341    494.11776    332.73538   -105.52973    34646.235 
  987800    299.60134   -1562.3975    506.73044    297.31076   -303.77821    34646.235 
  987900    308.74877   -1566.8696    521.35021    348.76756   -93.646602    34646.235 
  988000    295.87202   -1520.5807    516.55388    332.10966    203.39055    34646.235 
  988100    300.31538   -1519.7882    475.30324    311.71747    102.34776    34646.235 
  988200    300.99231   -1516.0609    549.67645    392.87494   -240.62257    34646.235 
  988300    295.72993   -1523.4246    507.44372      319.514   -624.78248    34646.235 
  988400    292.64299   -1528.4419    519.53654    312.64911   -743.15191    34646.235 
  988500    304.55387   -1558.0067     519.6228    336.95918    -883.8583    34646.235 
  988600    288.42032   -1528.0248    508.23152    282.69192   -629.69837    34646.235 
  988700    289.12461    -1495.851    511.36672    321.18139   -158.39789    34646.235 
  988800    300.70656   -1503.6558    512.73853    367.05173   -531.75628    34646.235 
  988900    305.14282   -1472.6906    493.36285    398.67503   -222.61553    34646.235 
  989000    307.20844   -1521.4904    536.82935    402.66994     -571.061    34646.235 
  989100    296.45331   -1534.1976    508.10427     312.6682   -147.69482    34646.235 
  989200    300.98304   -1512.2954    519.57429    366.49635    291.21167    34646.235 
  989300    298.03077   -1510.7974    523.61517    358.70309    471.20368    34646.235 
  989400    299.52516   -1521.4455    509.80517    340.99352    144.82439    34646.235 
  989500    298.36895    -1495.317    505.83496    357.93047   -48.614133    34646.235 
  989600    302.22412   -1481.2668    516.34605    399.90141   -311.82401    34646.235 
  989700    300.62247   -1535.2745    523.38211    345.69679   -522.13156    34646.235 
  989800    305.55968   -1575.9092    495.20535    299.18141   -587.05715    34646.235 
  989900    304.93787   -1557.4404    523.79992    343.43673   -58.647809    34646.235 
  990000    299.08569   -1544.5864    507.76002    313.82282   -180.49917    34646.235 
  990100     302.8169   -1549.8711    493.75082    311.37881   -192.22288    34646.235 
  990200    299.51702   -1563.2806    518.98363    308.30011    849.63475    34646.235 
  990300     294.2931   -1549.4965    519.75875    299.26849     998.7746    34646.235 
  990400    299.71055   -1519.6488    520.52483    354.34711    854.21062    34646.235 
  990500    292.43839   -1539.6132    527.41393    308.43118    543.22116    34646.235 
  990600    315.12839   -1510.1842    499.98033    412.89301    5.4038148    34646.235 
  990700    305.16701   -1488.6554    497.46548    386.92214    149.71374    34646.235 
  990800    298.16833    -1516.224    546.20172    376.48419    841.21763    34646.235 
  990900    306.81702   -1498.7072    512.23985    399.09595    678.83075    34646.235 
  991000     295.5211   -1506.4185    500.05715    328.19046   -20.667407    34646.235 
  991100    294.51534   -1531.0451    533.78753    332.75224   -174.38349    34646.235 
  991200     296.2041   -1488.6372    530.74514    379.74408    343.50361    34646.235 
  991300    300.28591   -1473.0982    520.46525    403.43635    835.46434    34646.235 
  991400    297.42841   -1517.4913    528.28154    353.95536    958.65051    34646.235 
  991500    302.30709   -1530.3079    523.83068     358.7196    677.96052    34646.235 
  991600    297.88858    -1535.733    537.92105    347.43126    1298.9841    34646.235 
  991700    301.76867   -1575.9124    507.90064    294.75357    670.58533    34646.235 
  991800    298.00004   -1534.1545    504.09367    315.68562    646.35301    34646.235 
  991900    295.26051   -1524.2804    509.78279    318.87737    277.24585    34646.235 
  992000    294.83853   -1554.7823    518.40169    295.08873    450.07165    34646.235 
  992100    304.78923   -1538.5309    503.21729    341.09234    577.48011    34646.235 
  992200    289.34632   -1518.7934    521.74853    309.62202    25.923883    34646.235 
  992300    291.19456   -1520.6758    512.03488    306.37247   -234.35142    34646.235 
  992400    289.23782   -1536.3819    521.27844    291.07348    -897.1941    34646.235 
  992500    301.06709    -1548.825    476.77973     287.5518   -91.368382    34646.235 
  992600     298.6181   -1533.2323    510.90743    326.21269   -566.84969    34646.235 
  992700    303.27846   -1523.7088    541.36458    387.23927   -551.31269    34646.235 
  992800    295.94243   -1549.8366     488.3011    274.91901    297.29801    34646.235 
  992900    300.51832   -1566.8339    489.81254    280.09747    -215.9745    34646.235 
  993000     294.2817   -1552.0548    512.58524    289.48515    63.232169    34646.235 
  993100    287.08344   -1577.6312    512.18785    231.00451   -247.18369    34646.235 
  993200    302.44018    -1560.964    499.29389    304.12771    288.25157    34646.235 
  993300    294.00153   -1582.9681    484.58242    229.30379    218.14081    34646.235 
  993400    301.47189   -1596.4989    537.46028    302.38647   -23.182381    34646.235 
  993500    307.89767   -1548.2515    487.28506    329.47709    111.11335    34646.235 
  993600    308.53444    -1589.393    469.01455    272.94061   -266.20625    34646.235 
  993700    310.97959   -1606.7142    516.77097    314.41793    370.88657    34646.235 
  993800     305.2812   -1567.8374    515.75612    326.54645   -47.001297    34646.235 
  993900    295.83243   -1589.9517    512.20229    258.20831    298.18025    34646.235 
  994000    301.08907   -1566.8279    524.12556    316.99394    125.39792    34646.235 
  994100     301.3964   -1564.0025    492.13555     289.2173   -215.68092    34646.235 
  994200    303.47878   -1555.0206    478.50483    293.97227   -494.21181    34646.235 
  994300    291.45895   -1548.0507    539.95428    308.11098     30.20655    34646.235 
  994400    297.59479   -1551.9228    508.44695    300.44056    604.76837    34646.235 
  994500    297.47276   -1583.5677    517.73924    277.53686    8.9203053    34646.235 
  994600    303.48282   -1524.2205    501.77051    348.05635   -621.70281    34646.235 
  994700    303.88682   -1538.1905    484.40691    318.54716   -326.08673    34646.235 
  994800    292.32811   -1541.9243    521.05393    299.26216    273.45307    34646.235 
  994900    302.66925   -1561.7619    541.35903    346.42945   -262.72676    34646.235 
  995000    291.09744   -1551.4525    504.73549    267.85786   -122.22745    34646.235 
  995100    292.60252   -1549.3187    513.36833    285.42132   -631.70685    34646.235 
  995200    301.15815   -1559.7054    508.92751    309.23033   -693.09719    34646.235 
  995300    296.29934   -1488.4687    526.33328    375.93086    17.581591    34646.235 
  995400    287.81953   -1531.0658    504.94695    273.65324   -291.22456    34646.235 
  995500    306.13882   -1495.8239    521.76605    408.44279    261.99482    34646.235 
  995600    297.88217   -1540.5337    518.78972    323.47021    -242.7935    34646.235 
  995700    316.24885   -1547.8698    547.97941    428.26642    300.37709    34646.235 
  995800    298.01441   -1509.0444    491.11434    327.88128    141.39964    34646.235 
  995900    298.32438    -1535.168    504.98906    317.03227    50.194586    34646.235 
  996000     299.7204   -1527.6549    503.91085    329.77142   -337.09701    34646.235 
  996100    302.61162   -1461.2103    551.65665    457.01845   -454.52246    34646.235 
  996200    306.70194   -1485.9844    495.40455    394.46376   -906.08294    34646.235 
  996300      299.553   -1445.0221    511.54221    419.27962   -874.21244    34646.235 
  996400    298.19765    -1432.556    529.21503    443.29795   -772.85199    34646.235 
  996500    296.97187   -1466.2383    521.37296    396.23804     -722.217    34646.235 
  996600    303.92419   -1432.5327    515.21199    455.17884      149.711    34646.235 
  996700    296.89438   -1505.8258    509.32865    344.25626   -112.41847    34646.235 
  996800    288.54261   -1472.6306    519.09492    349.50182   -729.07679    34646.235 
  996900    300.87099   -1474.1261    521.81212    406.39753   -695.37236    34646.235 
  997000      297.025   -1488.1326    542.14427    395.35495    -354.0848    34646.235 
  997100    305.83548   -1548.9203     487.2217    319.43212    -312.5703    34646.235 
  997200    297.62774   -1516.5506    530.32778    357.84236   -57.771372    34646.235 
  997300    298.43053   -1466.4906    499.89492     381.0949   -405.18937    34646.235 
  997400    308.34911   -1521.5507    491.92834    362.85975    46.590251    34646.235 
  997500    285.10128   -1514.6073     524.3155    297.20485   -503.73774    34646.235 
  997600    304.99677   -1483.9253    518.28097    411.69893   -333.00649    34646.235 
  997700    298.24946    -1472.834    523.15115    397.19002   -532.75816    34646.235 
  997800    294.30109   -1468.4124    548.31262    408.94248    320.41872    34646.235 
  997900     307.2534   -1496.4277    520.35246    411.45872   -540.52651    34646.235 
  998000    297.70691   -1494.1095    466.30347    316.61667   -479.56586    34646.235 
  998100    294.31098   -1470.8621    516.99309    375.21792   -1043.5219    34646.235 
  998200    292.19858   -1476.9222    537.89207    380.51743   -405.01144    34646.235 
  998300     310.1371   -1538.0156    518.61088    381.15185   -534.13599    34646.235 
  998400    309.04206   -1543.2866    525.78073     378.1056   -590.59616    34646.235 
  998500    292.74416    -1474.881    519.15941    366.28973   -288.27173    34646.235 
  998600    298.67158   -1501.1842    486.29268    333.88757    443.81053    34646.235 
  998700    292.06245   -1477.8413    509.85565    350.94711    906.42162    34646.235 
  998800    301.56027   -1496.1106    529.52215    395.23576    41.530004    34646.235 
  998900    303.89274   -1514.5778    515.68621    373.46597   -304.75653    34646.235 
  999000    291.81545    -1493.729    509.74595    333.83428   -496.87743    34646.235 
  999100    298.67105   -1512.8929     527.2332    363.11709     295.4313    34646.235 
  999200    310.16331   -1535.2235    511.06478    376.51626    955.25236    34646.235 
  999300    292.98328   -1470.5519    505.07343    357.61274    700.25603    34646.235 
  999400    307.12239   -1526.0881     498.8299    359.68418    43.555633    34646.235 
  999500    303.06382   -1502.9079    510.40234    376.10857   -495.60889    34646.235 
  999600    303.43789   -1529.5127    491.48371    332.27442    -453.0022    34646.235 
  999700    306.46288   -1504.8541    535.56865    414.67864    -372.5871    34646.235 
  999800    299.46038   -1476.6629    492.94801    368.62635   -217.15624    34646.235 
  999900    307.50953    -1514.948    503.34663    377.08931    559.80901    34646.235 
 1000000    311.68325   -1524.2799    508.46383     391.7228    431.81379    34646.235 
 1000100    302.17568   -1536.7674    509.34543    337.18145   -203.50965    34646.235 
 1000200    307.19615   -1533.5271    528.84696    382.59528       -1.012    34646.235 
 1000300    306.15902    -1549.016    521.89167    355.46758    384.36136    34646.235 
 1000400    303.95448   -1529.6699     495.9701     338.9365     184.2654    34646.235 
 1000500    300.49849   -1569.8145    505.02503    292.23986    941.36462    34646.235 
 1000600    296.42002   -1542.3865    519.64658    315.87135    208.02849    34646.235 
 1000700    304.05785   -1559.8257    541.57695    354.85437    519.93834    34646.235 
 1000800    283.34604   -1569.1878    493.84928    204.23161    119.91566    34646.235 
 1000900     295.5469    -1575.867    525.73781    284.53909    223.38538    34646.235 
 1001000    300.34592   -1500.8863    509.44992    364.90394    989.26873    34646.235 
 1001100    290.40436   -1562.6537    504.00782    252.79908      830.407    34646.235 
 1001200    296.62137   -1549.1335    496.33704    286.72404    503.03888    34646.235 
 1001300    295.22615   -1546.6053     518.5988    305.21328    94.638253    34646.235 
 1001400    293.32701   -1584.6518    507.38127     247.3729   -558.77221    34646.235 
 1001500    286.29636   -1529.8181    500.09213    263.16755   -921.51361    34646.235 
 1001600    294.76725   -1563.2027    500.45753     268.4023   -768.70201    34646.235 
 1001700    301.03357   -1531.5324    511.03538    338.94871   -418.79907    34646.235 
 1001800    290.52927   -1572.4761    523.18554    262.71842   -293.69037    34646.235 
 1001900    301.98839   -1578.1358    512.57255    298.19431   -693.79729    34646.235 
 1002000    307.90752   -1565.4602    482.63503    307.66279   -519.61554    34646.235 
 1002100     298.3429   -1587.1805    497.04408    257.15843   -633.67087    34646.235 
 1002200    297.71465   -1557.5961    510.40261    297.26422    558.67897    34646.235 
 1002300    295.47298   -1582.9087    496.78144    248.20718    279.90247    34646.235 
 1002400     297.4165   -1537.8419    508.69648     313.9659    91.763805    34646.235 
 1002500     307.2044    -1497.987    500.77924    390.10495    432.54292    34646.235 
 1002600    299.89774    -1542.103    504.23304    316.44635    827.58946    34646.235 
 1002700    295.09044   -1516.1556    498.11098    314.56238   -72.080758    34646.235 
 1002800    300.28205   -1529.5452    499.10388    325.61056   -9.2401064    34646.235 
 1002900    291.41941   -1534.8442    511.02984    292.21451    285.69831    34646.235 
 1003000    294.38228   -1526.8692    497.09968     299.6394    349.98603    34646.235 
 1003100    307.46173   -1543.7569     491.8276    336.54548    89.868696    34646.235 
 1003200     305.8414   -1513.9631    508.35877    375.55322   -290.43541    34646.235 
 1003300    299.26396   -1521.0223    526.45585    356.88779   -919.53249    34646.235 
 1003400    309.16766   -1497.0026    495.87893    395.05505   -504.61169    34646.235 
 1003500    299.77117   -1472.2146    495.74224    377.27247   -138.15691    34646.235 
 1003600    303.01422   -1483.3458     544.6259    429.67031   -264.95748    34646.235 
 1003700    299.52436    -1517.884    517.01395    351.76011   -508.65189    34646.235 
 1003800    310.87869   -1456.0302    512.06787    459.94316   -672.23979    34646.235 
 1003900    285.98756   -1448.6093    479.13371    322.02341   -881.16071    34646.235 
 1004000    301.59585   -1498.8346     520.0964    383.24675   -801.61151    34646.235 
 1004100    291.18448   -1477.7411     515.4403    352.66715   -675.15577    34646.235 
 1004200    300.57778   -1503.0459     501.0109    355.35236    134.87061    34646.235 
 1004300    297.29786   -1485.5299    539.75243    396.79807    47.103514    34646.235 
 1004400    300.76873   -1517.7699    527.97369    368.45345    349.07783    34646.235 
 1004500    293.22196   -1522.3946    520.22996     322.0044   -339.12749    34646.235 
 1004600    295.83394   -1487.5265    511.87517    360.31321    188.57808    34646.235 
 1004700    309.93752   -1455.6289    508.80041    452.82685    240.64583    34646.235 
 1004800    301.60742   -1493.0838    494.42175     363.3751   -164.56884    34646.235 
 1004900    297.34347   -1557.2694    512.82616    298.33824    -119.4915    34646.235 
 1005000    295.60963    -1522.046     501.9202    314.82572    130.52238    34646.235 
 1005100    303.79012   -1531.4399    500.48055    340.93466   -59.513572    34646.235 
 1005200     300.2845   -1522.7078    515.04924    348.40443   -312.32386    34646.235 
 1005271    295.65508   -1506.7862     511.7347    340.10529   -22.990771    34646.235 
Loop time of 590.935 on 32 procs for 1000000 steps with 1516 atoms

Performance: 146.209 ns/day, 0.164 hours/ns, 1692.234 timesteps/s
100.0% CPU use with 32 MPI tasks x no OpenMP threads

MPI task timing breakdown:
Section |  min time  |  avg time  |  max time  |%varavg| %total
---------------------------------------------------------------
Pair    | 271.15     | 290.25     | 320.48     |  75.6 | 49.12
Bond    | 1.4466     | 1.6059     | 1.7691     |   7.1 |  0.27
Neigh   | 38.084     | 38.157     | 38.234     |   1.0 |  6.46
Comm    | 218.11     | 248.27     | 267.41     |  81.7 | 42.01
Output  | 0.3886     | 0.40558    | 0.85579    |  12.7 |  0.07
Modify  | 8.9363     | 9.0774     | 9.2655     |   2.8 |  1.54
Other   |            | 3.164      |            |       |  0.54

Nlocal:        47.3750 ave          76 max          14 min
Histogram: 1 1 1 4 4 9 7 3 1 1
Nghost:        2132.19 ave        2201 max        2084 min
Histogram: 5 2 5 4 6 2 2 3 1 2
Neighs:        5694.06 ave       10785 max        1204 min
Histogram: 2 1 2 6 9 4 5 2 0 1

Total # of neighbors = 182210
Ave neighs/atom = 120.19129
Ave special neighs/atom = 2.0395778
Neighbor list builds = 49594
Dangerous builds = 0

# Output the system volume
variable v equal vol
print 'The system volume is $v'
The system volume is 34646.2345436659

# Outputs
variable A equal xhi-xlo
variable B equal yhi-ylo
variable C equal zhi-zlo
variable D equal xy
variable E equal xz
variable F equal yz
print 'Lattice vectors'
Lattice vectors
print '$A 0 0'
32.6000810916929 0 0
print '$D $B 0'
0 32.6000810916929 0
print '$E $F $C'
0 0 32.6000810916929
Total wall time: 0:09:55
