LAMMPS (29 Sep 2021 - Update 1)
# Test LAMMPS input file for single DeFDe

# Initialize simulation

clear

units real
atom_style full
boundary p p p
dielectric 1
special_bonds dreiding

bond_style harmonic
angle_style harmonic
dihedral_style harmonic
improper_style umbrella
pair_style hybrid/overlay hbond/dreiding/lj 4 9.0 11.0 90 lj/cut 8.50000

# Read data file
read_data frag5.dat
Reading data file ...
  triclinic box = (0.0000000 0.0000000 0.0000000) to (15.000000 15.000000 15.000000) with tilt (0.0000000 0.0000000 0.0000000)
  2 by 4 by 4 MPI processor grid
  reading atoms ...
  1515 atoms
  scanning bonds ...
  4 = max bonds/atom
  scanning angles ...
  6 = max angles/atom
  scanning dihedrals ...
  9 = max dihedrals/atom
  scanning impropers ...
  1 = max impropers/atom
  reading bonds ...
  1014 bonds
  reading angles ...
  524 angles
  reading dihedrals ...
  25 dihedrals
  reading impropers ...
  2 impropers
Finding 1-2 1-3 1-4 neighbors ...
  special bond factors lj:    0        0        1       
  special bond factors coul:  0        0        1       
     4 = max # of 1-2 neighbors
     5 = max # of 1-3 neighbors
     9 = max # of special neighbors
  special bonds CPU = 0.002 seconds
  read_data CPU = 0.017 seconds

# Dreiding potential information

bond_coeff 1 350 1.375
bond_coeff 2 350 1.09
bond_coeff 3 700 1.275
bond_coeff 4 700 1.22
bond_coeff 5 350 1.43
bond_coeff 6 350 1.53
bond_coeff 7 350 0.935
bond_coeff 8 350 0.98

angle_coeff 1 50 109.471
angle_coeff 2 50 120
angle_coeff 3 50 120
angle_coeff 4 50 104.51

dihedral_coeff 1 0.0833333333333333 -1 6
dihedral_coeff 2 5.625 -1 2
dihedral_coeff 3 0.111111111111111 -1 3

improper_coeff 1 40 0

pair_coeff 1 1 lj/cut 0.0951 3.8983
pair_coeff 1 2 lj/cut 0.0857947550844456 3.77835472527395
pair_coeff 1 3 lj/cut 0.0951 3.8983
pair_coeff 1 4 lj/cut 0.0953995283007206 3.64309650983885
pair_coeff 1 5 lj/cut 0.0380199947396104 3.52917391183829
pair_coeff 1 6 lj/cut 0.00308382878902186 3.52806914614779
pair_coeff 1 7 lj/cut 0.0953995283007206 3.64309650983885
pair_coeff 2 2 lj/cut 0.0774 3.6621
pair_coeff 2 3 lj/cut 0.0857947550844456 3.77835472527395
pair_coeff 2 4 lj/cut 0.0860649754545948 3.53100349192691
pair_coeff 2 5 lj/cut 0.0342998542270955 3.42058613398347
pair_coeff 2 6 lj/cut 0.00278208554864871 3.41951536039831
pair_coeff 2 7 lj/cut 0.0860649754545948 3.53100349192691
pair_coeff 3 3 lj/cut 0.0951 3.8983
pair_coeff 3 4 lj/cut 0.0953995283007206 3.64309650983885
pair_coeff 3 5 lj/cut 0.0380199947396104 3.52917391183829
pair_coeff 3 6 lj/cut 0.00308382878902186 3.52806914614779
pair_coeff 3 7 lj/cut 0.0953995283007206 3.64309650983885
pair_coeff 4 4 lj/cut 0.0957 3.4046
pair_coeff 4 5 lj/cut 0.0381397430510485 3.29813538230316
pair_coeff 4 6 lj/cut 0.0030935416596516 3.29710294046152
pair_coeff 4 7 lj/cut 0.0957 3.4046
pair_coeff 5 5 lj/cut 0.0152 3.195
pair_coeff 5 6 lj/cut 0.0012328828005938 3.19399984345648
pair_coeff 5 7 lj/cut 0.0381397430510485 3.29813538230316
pair_coeff 6 6 lj/cut 1e-04 3.193
pair_coeff 6 7 lj/cut 0.0030935416596516 3.29710294046152
pair_coeff 7 7 lj/cut 0.0957 3.4046
pair_coeff 2 2 hbond/dreiding/lj 6 j 9.50 2.75 4 9.0 11.0 90
pair_coeff 2 4 hbond/dreiding/lj 6 i 9.50 2.75 4 9.0 11.0 90
pair_coeff 2 7 hbond/dreiding/lj 6 i 9.50 2.75 4 9.0 11.0 90
pair_coeff 2 7 hbond/dreiding/lj 6 j 9.50 2.75 4 9.0 11.0 90
pair_coeff 4 7 hbond/dreiding/lj 6 j 9.50 2.75 4 9.0 11.0 90
pair_coeff 7 7 hbond/dreiding/lj 6 j 9.50 2.75 4 9.0 11.0 90

neighbor 2 bin
neigh_modify every 2 one 10000

# Gemoetric relaxation
fix 1 all box/relax iso 1.0 vmax 0.001
minimize 1.0e-4 1.0e-6 10000 10000
WARNING: Using 'neigh_modify every 1 delay 0 check yes' setting during minimization (../min.cpp:188)
Neighbor list info ...
  update every 1 steps, delay 0 steps, check yes
  max neighbors/atom: 10000, page size: 100000
  master list distance cutoff = 13
  ghost atom cutoff = 13
  binsize = 6.5, bins = 3 3 3
  3 neighbor lists, perpetual/occasional/extra = 3 0 0
  (1) pair hbond/dreiding/lj, perpetual, skip from (3)
      attributes: full, newton on
      pair build: skip
      stencil: none
      bin: none
  (2) pair lj/cut, perpetual, half/full from (3)
      attributes: half, newton on
      pair build: halffull/newton
      stencil: none
      bin: none
  (3) neighbor class addition, perpetual
      attributes: full, newton on
      pair build: full/bin
      stencil: full/bin/3d
      bin: standard
Per MPI rank memory allocation (min/avg/max) = 14.41 | 14.77 | 15.34 Mbytes
Step Temp E_pair E_mol TotEng Press Volume 
       0            0 1.2713415e+16     274.2184 1.2713415e+16 1.0331718e+18         3375 
    5181            0   -1111.2946    37.283197   -1074.0114    132.23635     36976.26 
Loop time of 4.97421 on 32 procs for 5181 steps with 1515 atoms

100.0% CPU use with 32 MPI tasks x no OpenMP threads

Minimization stats:
  Stopping criterion = energy tolerance
  Energy initial, next-to-last, final = 
    1.27134147883874e+16  -1073.42864239931  -1073.52133212223
  Force two-norm initial, final = 1.9405494e+18 122.54115
  Force max component initial, final = 1.2059104e+18 95.592658
  Final line search alpha, max atom move = 1.7804763e-05 0.0017020046
  Iterations, force evaluations = 5181 5181

MPI task timing breakdown:
Section |  min time  |  avg time  |  max time  |%varavg| %total
---------------------------------------------------------------
Pair    | 0.84474    | 2.5386     | 4.1702     |  46.7 | 51.03
Bond    | 0.0042959  | 0.010949   | 0.021667   |   3.0 |  0.22
Neigh   | 0.09589    | 0.096573   | 0.097097   |   0.1 |  1.94
Comm    | 0.35174    | 1.9851     | 3.6839     |  52.9 | 39.91
Output  | 0          | 0          | 0          |   0.0 |  0.00
Modify  | 0          | 0          | 0          |   0.0 |  0.00
Other   |            | 0.343      |            |       |  6.90

Nlocal:        47.3438 ave          72 max          17 min
Histogram: 1 1 3 1 3 11 5 4 2 1
Nghost:        1974.22 ave        2036 max        1915 min
Histogram: 5 2 8 1 0 0 2 5 6 3
Neighs:        4949.31 ave        8895 max        1769 min
Histogram: 3 1 1 8 8 5 2 2 0 2

Total # of neighbors = 158378
Ave neighs/atom = 104.53993
Ave special neighs/atom = 2.0303630
Neighbor list builds = 89
Dangerous builds = 0

# MD simulation
velocity all create 300.0 12345 rot yes dist gaussian
timestep 1.0
fix 2 all nvt temp 300.0 300.0 1

# Compute interaction energy
group WAT molecule <> 2 501
1500 atoms in group WAT
group MOL molecule 1
15 atoms in group MOL

compute w WAT group/group MOL pair yes
fix 3 all ave/time 10 5 100 c_w file outa

# Outputs
thermo 100 # Output thermodynamic data every nth step
#dump mf1 all xyz 10000 mol_*.xyz

# Run
run 1000000
Neighbor list info ...
  update every 2 steps, delay 10 steps, check yes
  max neighbors/atom: 10000, page size: 100000
  master list distance cutoff = 13
  ghost atom cutoff = 13
  binsize = 6.5, bins = 6 6 6
  4 neighbor lists, perpetual/occasional/extra = 3 1 0
  (1) pair hbond/dreiding/lj, perpetual, skip from (4)
      attributes: full, newton on
      pair build: skip
      stencil: none
      bin: none
  (2) pair lj/cut, perpetual, half/full from (4)
      attributes: half, newton on
      pair build: halffull/newton
      stencil: none
      bin: none
  (3) compute group/group, occasional, copy from (2)
      attributes: half, newton on
      pair build: copy
      stencil: none
      bin: none
  (4) neighbor class addition, perpetual
      attributes: full, newton on
      pair build: full/bin
      stencil: full/bin/3d
      bin: standard
Per MPI rank memory allocation (min/avg/max) = 13.26 | 13.31 | 13.81 Mbytes
Step Temp E_pair E_mol TotEng Press Volume 
    5181          300   -1111.2946    37.283197    279.87255    1805.9891     36976.26 
    5200    288.92742   -1008.8434     283.4808    578.55136    1748.6352     36976.26 
    5300     300.5651   -1132.2604    214.82356    438.99733   -597.11108     36976.26 
    5400    298.10121   -1128.9632    212.53378    428.88537   -50.052181     36976.26 
    5500     296.9569   -1156.7848    171.66497    355.03071    49.537372     36976.26 
    5600    302.73604   -1103.1877    208.99712    472.04089      355.885     36976.26 
    5700    302.95694   -1146.4319    200.77162    421.56815     112.9687     36976.26 
    5800    303.50066   -1119.4612    191.67522    441.89625    453.56817     36976.26 
    5900    302.76889   -1162.6001    197.20996    400.98958    511.66715     36976.26 
    6000      303.893   -1116.4361    205.33599     460.3527    634.56719     36976.26 
    6100    295.40618   -1173.8387    183.34967    342.66322    513.16885     36976.26 
    6200    305.73091   -1103.2926     207.1899    483.64446    937.57358     36976.26 
    6300    302.11041    -1091.668    210.15261    481.89271     615.5482     36976.26 
    6400    290.04273   -1074.5908    221.67639    456.03288    937.22103     36976.26 
    6500    284.58552   -1093.3378    208.31794    399.29937    680.30262     36976.26 
    6600     292.9666   -1123.1868    201.44316    400.39893    359.20913     36976.26 
    6700    305.64296   -1120.9626    205.63179    464.01947     157.4367     36976.26 
    6800    285.19531   -1118.7523    201.23874    369.55755   -69.926909     36976.26 
    6900    310.76436   -1124.4204     209.9616    488.00408    491.42289     36976.26 
    7000    305.53165   -1097.8146    216.65671    497.69008   -47.152354     36976.26 
    7100    288.38184   -1156.6805    230.59402    375.36533   -192.49886     36976.26 
    7200    299.19101   -1095.5268    222.20552    476.91173    360.79047     36976.26 
    7300    295.27415   -1095.7558    223.99776    460.79835     758.2936     36976.26 
    7400    312.07423   -1126.1012    221.75376    504.02681    756.97078     36976.26 
    7500    298.05949   -1132.4111    215.46655      428.182    325.96436     36976.26 
    7600    297.09296   -1136.3699    217.37634    421.77103    775.33447     36976.26 
    7700    293.31261   -1141.5524    204.81918    386.97093    548.77278     36976.26 
    7800    303.12388   -1142.1962    236.86581    462.65147    359.38272     36976.26 
    7900     299.5039   -1112.6773    218.35877    457.32655    118.71547     36976.26 
    8000    303.46693     -1164.92    217.12365    421.73358     931.0456     36976.26 
    8100     298.5828   -1123.8946    238.70775    462.30127     140.9519     36976.26 
    8200    305.14061   -1137.7906    223.20741    462.49999    505.59631     36976.26 
    8300    301.73687   -1198.7303    235.68314    398.67519     946.7351     36976.26 
    8400    305.88598   -1230.1269    229.29078    379.61087    528.93957     36976.26 
    8500    295.02775   -1201.0734      242.433    372.80401    601.65228     36976.26 
    8600    302.93104   -1210.6417    233.32346    389.79336    636.58473     36976.26 
    8700    298.43616   -1224.4971    227.08267    349.41196    731.75004     36976.26 
    8800    300.54056   -1170.1043    235.53958    421.75876    697.63851     36976.26 
    8900    294.27533   -1179.9614    239.30284    387.39027    613.85466     36976.26 
    9000    307.46267   -1148.9425    245.71674    484.33677    445.32089     36976.26 
    9100    311.16759   -1154.0142    252.78081    503.04925    739.95745     36976.26 
    9200    309.69996   -1132.3151    242.87604     508.2203    554.16398     36976.26 
    9300    290.59617   -1099.7999    238.50382     450.1489    5.5292274     36976.26 
    9400    305.33352   -1106.0284    246.71943    518.64482    223.53741     36976.26 
    9500    302.55205   -1150.2431    246.67631    461.83442     172.5569     36976.26 
    9600    296.75124   -1127.8491    242.49407     453.8674   -3.1017676     36976.26 
    9700    303.93413   -1170.0457    255.40029    456.99301   -210.21485     36976.26 
    9800    292.88387   -1133.1853    261.33305    449.91697   -82.872337     36976.26 
    9900    309.84539   -1164.4542    252.14758    486.00899    221.78713     36976.26 
   10000    308.06063   -1161.7759     242.6682    471.15342    364.43333     36976.26 
   10100    300.37112   -1173.3005    265.89705    448.15533    446.86851     36976.26 
   10200    298.97971   -1146.6633     269.5479    472.16398    823.68122     36976.26 
   10300    296.94586   -1166.5534    263.33155    436.87886    642.12344     36976.26 
   10400    297.18236   -1135.9544    259.78379    464.99746    443.44443     36976.26 
   10500    291.19079   -1176.5827    253.65953    391.20525    460.04771     36976.26 
   10600    309.69187    -1142.663    250.14769    505.10752    862.19467     36976.26 
   10700    302.37509   -1140.8995    257.59389      481.297    761.80192     36976.26 
   10800    303.84549   -1122.4577    270.36769    519.14836    628.99144     36976.26 
   10900    302.96051   -1156.0927    254.79176    465.94363    215.17922     36976.26 
   11000    300.31728   -1164.1058    249.50825    440.71828    826.85029     36976.26 
   11100    291.92338   -1201.4284    260.59735    376.60352    464.84604     36976.26 
   11200    303.62021   -1196.5591    250.18907    423.85166    553.36268     36976.26 
   11300    292.81424   -1180.7148    270.86247    411.60261    380.51158     36976.26 
   11400    291.97236   -1133.4252    259.22613    443.45651    265.55353     36976.26 
   11500    295.97738   -1084.8326    265.89535    516.79282    346.70681     36976.26 
   11600    307.98884   -1111.1626     265.9734    544.74796    167.27131     36976.26 
   11700    288.48979    -1108.606    282.33645    475.66947    241.32562     36976.26 
   11800    290.84518   -1095.1506    261.50387    478.92198     276.8796     36976.26 
   11900    298.38998   -1135.0791    267.22104    478.75994    278.18442     36976.26 
   12000    297.92032   -1153.0352     271.8002    463.26341    377.62185     36976.26 
   12100    297.02245   -1131.1902    265.95729    475.21351    161.43421     36976.26 
   12200    298.37488   -1173.4301    264.51731    437.63705    142.65417     36976.26 
   12300    304.58027   -1131.9845    268.75525    511.32519    637.17343     36976.26 
   12400    308.75054   -1138.8918     268.7426    523.22545    212.63427     36976.26 
   12500    306.29069   -1104.7743    271.25549    548.75464    458.02556     36976.26 
   12600    299.75956   -1135.8911    262.76202    479.66974     349.8608     36976.26 
   12700    298.13834   -1155.2663     266.3083    456.52435    14.511077     36976.26 
   12800     291.7488    -1144.894    277.46059    449.21333   -185.28308     36976.26 
   12900    315.40021   -1126.0643    273.41693    570.73691    189.86556     36976.26 
   13000    301.77605   -1109.7663    284.59751    536.73033    421.09611     36976.26 
   13100    295.34587   -1141.0282    264.21009    456.06199   -447.43933     36976.26 
   13200    287.38694   -1148.4173    275.60643    424.15101   -151.46506     36976.26 
   13300    301.52349    -1140.159    268.79812    489.39842    77.630309     36976.26 
   13400    286.64737   -1154.6897    276.14322    415.07773   -63.077126     36976.26 
   13500    302.72713   -1151.5681    271.19565    485.81885    163.94153     36976.26 
   13600    305.01876   -1134.5562    284.21093    526.18808   -37.138656     36976.26 
   13700    304.59737   -1153.7581    281.39776     502.2713     346.1318     36976.26 
   13800    296.65541   -1130.8988    284.43954    492.33065    455.08665     36976.26 
   13900    294.79377   -1161.1272    283.87159    453.13286    262.00313     36976.26 
   14000    304.43359   -1169.7429     309.0382    513.18779    61.148084     36976.26 
   14100    303.74602   -1179.5627    255.16414    446.39098    86.859699     36976.26 
   14200    297.59635    -1172.323    296.27929    466.99266    374.56842     36976.26 
   14300    294.65959   -1162.5695    288.55282    455.76626    255.25394     36976.26 
   14400    313.79587   -1144.0795    294.69907    566.76347    613.90675     36976.26 
   14500    308.35697   -1153.6096    291.91347    529.90237    530.92586     36976.26 
   14600    295.63995    -1225.291    286.48602    395.40231    344.15778     36976.26 
   14700    293.47378   -1185.4983    296.24071    435.17384    -161.7142     36976.26 
   14800    297.70614   -1140.2989    296.87769    500.11065   -135.48222     36976.26 
   14900    294.56277   -1194.1027    304.24312    439.48647   -363.01456     36976.26 
   15000    298.74194    -1175.792    296.49572    468.91006    338.07175     36976.26 
   15100    299.90793   -1226.8309    289.28773    415.92524     380.2458     36976.26 
   15200    291.36845   -1174.0413    308.65091    449.53985    522.75465     36976.26 
   15300     296.4717   -1179.8877    316.37072    474.44387   -470.24458     36976.26 
   15400    302.70935   -1168.8867    294.34138    491.56578   -216.40193     36976.26 
   15500    307.59177   -1177.4107    283.31598    494.05044    489.61838     36976.26 
   15600    301.45345   -1160.8895     311.3693    510.92302    68.288582     36976.26 
   15700    313.56708   -1202.7073    313.22461     525.6287    722.63688     36976.26 
   15800    295.73999   -1168.2936    288.09261    454.45774    339.52145     36976.26 
   15900    298.04202   -1179.0842     299.7903    465.75374    394.55959     36976.26 
   16000    306.65448    -1182.999    315.75294    516.66921    526.00967     36976.26 
   16100    303.29364   -1185.8134    310.07015    493.00465    791.11269     36976.26 
   16200    303.15449   -1219.5691    309.54353    458.09438     150.0202     36976.26 
   16300    293.98136   -1250.8992    307.00127    382.82419    733.61403     36976.26 
   16400    308.58332   -1231.4001    308.45196    469.67186    847.71767     36976.26 
   16500    294.80501    -1230.338    293.36326    393.46449    540.23449     36976.26 
   16600    307.72045   -1219.6357    318.47304    487.56328   -124.97675     36976.26 
   16700    293.76953   -1210.2439    316.02675    431.54899    471.92978     36976.26 
   16800    312.09982     -1180.92    301.18262     528.7524    112.85894     36976.26 
   16900    300.99497   -1201.5368    329.31395    486.15127    -10.61092     36976.26 
   17000    304.35044   -1192.7876    302.76294     483.4925   -16.429952     36976.26 
   17100    301.86115   -1177.3978    313.67585     498.5612    148.99401     36976.26 
   17200    309.24677   -1232.1905    301.40377    464.82736   -47.940726     36976.26 
   17300    306.65043   -1230.7646     291.8935    445.02585    240.50257     36976.26 
   17400    304.27839   -1230.9151    322.41127    464.68827    752.13164     36976.26 
   17500    302.07383   -1194.5265    304.94562    473.66215   -199.93419     36976.26 
   17600    300.75178    -1178.718    334.77415    513.33283   -73.677246     36976.26 
   17700    304.22767   -1152.1644    314.58633    535.38508    332.88478     36976.26 
   17800    307.33818   -1164.2885    315.98205    538.69428    248.46988     36976.26 
   17900      302.501   -1233.9656    327.90545    459.11067    -350.4251     36976.26 
   18000    298.61326    -1170.839    314.15911     490.9458    62.645893     36976.26 
   18100    288.17526   -1212.2868     308.4682    396.70092    464.27896     36976.26 
   18200    305.53125   -1213.6932    320.83097    485.98393    266.51214     36976.26 
   18300    297.37653   -1174.4919    321.98425    489.53666    234.84171     36976.26 
   18400    296.58418   -1211.9865    327.58002    454.06204    34.670174     36976.26 
   18500     296.4235   -1218.5823     306.3992    425.56031     131.9179     36976.26 
   18600    300.80285   -1202.7694    323.20709    477.94483    88.370887     36976.26 
   18700    304.34251   -1221.6579    328.55924    480.38277    264.29829     36976.26 
   18800    299.09265   -1188.9272    323.17639    484.03826    384.35929     36976.26 
   18900    310.01102    -1191.021     331.9501    539.99219    556.66333     36976.26 
   19000    303.02237   -1172.1382    322.84445    518.22994    760.79569     36976.26 
   19100    291.56618   -1195.7585    331.93678    452.00081    920.60473     36976.26 
   19200    291.43073   -1244.6778    337.28339    407.81687    627.49932     36976.26 
   19300    310.90552   -1188.3366    310.08115    524.84455    1108.2856     36976.26 
   19400    304.97525    -1217.396    335.86298    494.80394    707.58975     36976.26 
   19500    307.43414   -1219.0683     339.1437    507.50917    283.32453     36976.26 
   19600    306.02572   -1182.0057    316.39273    515.46468     335.7226     36976.26 
   19700    310.50462   -1163.2446    310.85812    548.90424    611.59918     36976.26 
   19800    309.22583   -1209.9429    325.27855    510.85522    -42.47842     36976.26 
   19900    300.70875   -1190.5979    307.46642    473.95105    610.63484     36976.26 
   20000    297.58111   -1192.7431    333.55036    483.77486    240.87563     36976.26 
   20100    308.58118   -1185.0087    319.50874     527.1104    500.94733     36976.26 
   20200    303.98628   -1169.2411    326.94792    529.58067    609.20793     36976.26 
   20300    301.78108   -1201.1508    328.44346    489.21452    552.69801     36976.26 
   20400    303.56443   -1204.3457    335.45896    501.08325    150.56701     36976.26 
   20500    302.37697   -1205.7662    347.20257    506.04747    17.979395     36976.26 
   20600    306.52465   -1191.0531    337.94541    530.22165   -34.438783     36976.26 
   20700    295.89391   -1192.8692    335.92575    478.40991    453.99658     36976.26 
   20800    303.69903   -1208.8752    339.01688     500.7191    -14.21914     36976.26 
   20900    302.52283   -1193.4101    353.03664    524.89592    313.51493     36976.26 
   21000    301.25815   -1257.3446    317.95678    420.17407    547.94692     36976.26 
   21100    295.08756   -1202.0145    346.92265    476.62251    605.28832     36976.26 
   21200    295.70677   -1184.4024     347.4522    497.55862    919.94929     36976.26 
   21300    301.75002   -1177.9762    334.42526    518.23078    12.164367     36976.26 
   21400     301.2398   -1201.5633    341.46156    499.37735    -130.3464     36976.26 
   21500    293.64462   -1238.6351    331.21932    417.78664    137.76712     36976.26 
   21600    298.15656   -1232.6432    332.50302    445.42436   -210.23824     36976.26 
   21700     293.3561   -1229.0798    341.43615     436.2567    189.55701     36976.26 
   21800    311.50363   -1218.7454    356.74472    543.79853    195.34063     36976.26 
   21900    305.37538   -1211.0735    350.57166    517.64085    368.12785     36976.26 
   22000    294.70416   -1184.7489    346.75592    491.99115    268.18806     36976.26 
   22100    293.31251   -1242.4586    341.69005    422.93504    328.90987     36976.26 
   22200    292.51225    -1198.427    346.51768    468.18275    658.04752     36976.26 
   22300    307.73531   -1193.9303    352.11344    546.97608    703.87251     36976.26 
   22400    306.31945   -1196.7559    333.49866      519.146    356.62592     36976.26 
   22500    307.27987   -1237.8561    344.35878    493.24025    176.37583     36976.26 
   22600    297.40422     -1283.83      338.777    397.11628   -298.45007     36976.26 
   22700    307.42941   -1228.8731    340.88343    499.42278   -153.76954     36976.26 
   22800    306.12127   -1250.7459    343.75369    474.51671   -125.77774     36976.26 
   22900    295.26687   -1249.7395    318.12126    400.90535    146.09025     36976.26 
   23000    290.03775   -1232.1181    342.93135     419.7381    50.649202     36976.26 
   23100     303.9419   -1240.0422    361.44587    493.07712    -91.34937     36976.26 
   23200    294.58526    -1233.643    347.87025    443.67476   -152.23449     36976.26 
   23300    300.75465   -1222.8582    340.08791    474.51933    642.86633     36976.26 
   23400    295.59965   -1269.9703    346.47328    410.52838    192.79254     36976.26 
   23500    305.63139   -1243.9558    344.29755    479.63984    222.22748     36976.26 
   23600    294.76625    -1206.515    336.46456    460.21386    460.48322     36976.26 
   23700    300.97561   -1240.2163     330.2685    448.33904     916.5705     36976.26 
   23800    298.27761   -1246.1635    363.31654    463.26396    591.70416     36976.26 
   23900    300.46097   -1230.5802    374.72244    500.10654    758.45214     36976.26 
   24000    304.35992   -1207.9412    341.98795    507.60671    292.00993     36976.26 
   24100    302.06243   -1176.6632    378.83908    565.36741    332.88356     36976.26 
   24200     306.2137   -1214.3695    354.00624    521.56281    488.76186     36976.26 
   24300    294.81851   -1215.5849    356.94134    471.85653    363.94536     36976.26 
   24400    287.35426   -1251.3312    360.27726     405.7604    410.35051     36976.26 
   24500     290.8025   -1244.2001    365.36089     433.5369    550.27546     36976.26 
   24600    299.26789   -1227.5925    356.14091    479.12838    99.906614     36976.26 
   24700    306.25305   -1245.0384    342.11369    479.17884    361.39449     36976.26 
   24800    301.33958   -1263.9814    347.12381     443.0718    495.94421     36976.26 
   24900    296.97962   -1207.1891    348.73748    481.80152   -478.14317     36976.26 
   25000    304.20326   -1253.6154    338.07951    457.31713    249.51106     36976.26 
   25100    295.21676   -1185.5648    363.10706    509.83964   -467.86218     36976.26 
   25200     298.6743    -1190.733    366.78364    523.95177    132.40553     36976.26 
   25300    303.17007   -1251.1191    367.46133    484.53247    293.54012     36976.26 
   25400    303.15662   -1252.6004    351.11767    466.64684     722.5979     36976.26 
   25500    308.18652   -1221.0349    364.03086    533.82516    285.58051     36976.26 
   25600    290.07046   -1208.5078     368.7875    469.35211    18.711231     36976.26 
   25700    296.83947   -1250.2606    366.67659    456.03659    148.39424     36976.26 
   25800    305.94376   -1218.1211    371.85681    534.44349    549.06742     36976.26 
   25900    303.18224   -1239.7139    356.88806    485.41934    86.234308     36976.26 
   26000    284.15262   -1245.9211    366.34603    402.79049    211.91879     36976.26 
   26100    304.25032   -1261.2197    358.76136    470.60708    182.86389     36976.26 
   26200    294.69908   -1213.7375    352.61893    468.84263    109.04242     36976.26 
   26300    302.69714    -1206.731    343.72689    503.05183   -168.58636     36976.26 
   26400    300.13686   -1183.2505    376.33775    547.58882   -101.35084     36976.26 
   26500    298.19533   -1203.3796    377.82321    520.18317   -57.882178     36976.26 
   26600     319.2234   -1212.9791     386.5297    614.18871    48.021542     36976.26 
   26700     302.5129   -1208.0593    374.28808    531.45327    231.88906     36976.26 
   26800    309.85372   -1302.2701    350.68114    446.76431    872.26482     36976.26 
   26900    289.34251   -1295.7898    372.71804     382.7155    432.34438     36976.26 
   27000    294.00965    -1332.918    360.58242    354.51417    192.44032     36976.26 
   27100    299.68228   -1281.5763     370.3428    441.21658    815.15741     36976.26 
   27200    304.13235   -1251.1083    375.46636    496.89108     181.6014     36976.26 
   27300    292.73554   -1297.4975     354.4164    378.01873    282.24412     36976.26 
   27400    303.28494   -1300.5206    357.72522    425.91331     409.5814     36976.26 
   27500    296.22316   -1309.1026    356.94451    384.68119   -32.388636     36976.26 
   27600    299.79148   -1286.5336     355.5988    422.00806   -353.67482     36976.26 
   27700     300.8122   -1286.8865    361.53476    432.19763    173.16983     36976.26 
   27800     290.3836   -1305.6992     363.3022    368.08863   -172.39317     36976.26 
   27900    307.02067   -1271.0152    374.09693    488.64953   -183.92645     36976.26 
   28000    303.32434   -1291.9316    364.30164    441.25652    131.99956     36976.26 
   28100    292.11395   -1245.1222    383.45884    456.63121   -145.00835     36976.26 
   28200    299.05966   -1240.6132    374.07147    483.09847   -49.957363     36976.26 
   28300    300.62484   -1242.3662    373.66306     488.0007    196.81887     36976.26 
   28400    305.98005    -1299.827      381.907    462.95154    59.200714     36976.26 
   28500    299.13183   -1279.8712    378.86539    448.96008    36.380478     36976.26 
   28600    294.35481   -1275.9207    379.11573     431.6025    364.14441     36976.26 
   28700    303.24699   -1311.9128    380.67656    437.30115    447.66232     36976.26 
   28800    300.27848    -1302.534    360.83692    413.44366    274.45387     36976.26 
   28900     293.5883   -1280.0955    393.33693    438.18966    444.65737     36976.26 
   29000     304.5862   -1288.4692    376.94155    463.05359   -90.644793     36976.26 
   29100    299.66407   -1322.0665    347.59715    377.89853    425.66186     36976.26 
   29200    301.31326   -1342.6492     359.8179    376.97925   -67.227863     36976.26 
   29300    295.83505   -1335.0467    383.04895    383.08999    250.75206     36976.26 
   29400    309.48654   -1304.4883    377.75869     469.9666    316.76882     36976.26 
   29500    307.75049   -1285.0924    379.25944    483.02848    257.49565     36976.26 
   29600    291.91281   -1281.6927    372.19508    407.88921   -193.62393     36976.26 
   29700    298.64715   -1281.3304    393.12003    459.56825     -462.002     36976.26 
   29800    303.81012   -1293.2466    379.71303    457.54527   -523.31646     36976.26 
   29900     297.2273   -1273.1948    382.71516    450.89126   -179.54909     36976.26 
   30000    295.30113   -1301.8536    390.79966    421.62426   -447.47769     36976.26 
   30100    304.19922   -1264.8745    375.65788    483.61814    167.56575     36976.26 
   30200     294.9727   -1321.0207    369.74213    379.91742   -476.39592     36976.26 
   30300    304.19234   -1326.5511    395.89403    442.14661    -403.4846     36976.26 
   30400     301.6406   -1325.2244    384.53776    420.60127   -14.098074     36976.26 
   30500    304.22632   -1292.0998    375.60016    456.45744   -317.05605     36976.26 
   30600    296.13311   -1314.0408    376.50251    398.89454   -297.07163     36976.26 
   30700    298.41412   -1285.9344    366.10787    426.90037    142.24237     36976.26 
   30800    298.21364   -1321.6902    363.03423    387.16618   -203.49837     36976.26 
   30900    305.97514   -1353.4095    389.88536    417.32526   -292.85145     36976.26 
   31000    290.93579   -1328.0946    375.26839    360.15143    81.190141     36976.26 
   31100    304.04742   -1282.3426     397.1438    486.95092    137.45589     36976.26 
   31200    292.36852   -1302.7231    366.28549    383.00583    -285.2964     36976.26 
   31300    302.61123   -1327.3264    355.66238    394.00422   -258.93415     36976.26 
   31400    297.24411   -1348.2112    376.93028    370.16586    122.82096     36976.26 
   31500    310.75509   -1307.9629    381.24504    475.70321    269.78017     36976.26 
   31600    300.43537   -1309.4304    396.50071    442.91909     293.1081     36976.26 
   31700    309.85163   -1290.3051    367.30252    475.34124    676.29043     36976.26 
   31800    303.68393    -1297.482    383.59213    456.61949    272.34907     36976.26 
   31900     300.4072   -1300.9065    388.82582    443.64093    56.718292     36976.26 
   32000    311.97855   -1300.6899     365.5465    472.79907    648.82133     36976.26 
   32100    300.32414   -1274.9057    368.65373    449.09482    310.94617     36976.26 
   32200    292.91988    -1288.876    382.49467    415.55041    112.60799     36976.26 
   32300    306.19139    -1317.306     385.9032    450.42256    780.80645     36976.26 
   32400    300.57069   -1336.0118    373.87219    394.31981    334.38327     36976.26 
   32500    297.62147   -1308.3996    392.75843    427.50861    85.770517     36976.26 
   32600     304.7867   -1267.1157    381.86865    490.23899   -90.946708     36976.26 
   32700    303.83207    -1297.523    385.34725    459.00212   -231.80957     36976.26 
   32800    311.32437   -1319.0854    402.60941    488.51424    146.96678     36976.26 
   32900    291.34884    -1319.429    389.89305     385.3058   -94.906631     36976.26 
   33000    309.23256   -1303.6981    367.11923    458.97111    314.05358     36976.26 
   33100    306.36223   -1314.1285    376.41504    444.88292   -50.767022     36976.26 
   33200    307.32591   -1296.3829    366.06387    456.62629    145.57002     36976.26 
   33300    292.05299   -1293.3837    374.86177    399.49756   -11.916133     36976.26 
   33400    296.67067   -1278.1127    369.75866    430.50479   -222.05329     36976.26 
   33500    306.94359    -1284.413     390.6672     491.4742   -373.08544     36976.26 
   33600    296.39558   -1327.9782    393.73852    403.37774   -870.79676     36976.26 
   33700    295.56834   -1330.9516    364.37665    367.30913   -347.43433     36976.26 
   33800    298.75934   -1330.6123    395.11439    412.78701    208.25669     36976.26 
   33900    294.97361   -1344.4743    383.58481    370.31058    380.74792     36976.26 
   34000    301.69466   -1337.4946    392.05053    416.08778    652.36737     36976.26 
   34100      301.499   -1351.5771    373.89264    382.96435   -183.97776     36976.26 
   34200    303.35014   -1358.8494    377.73042    387.88391   -188.12675     36976.26 
   34300    299.02337    -1349.735    374.03023    373.77165    498.01329     36976.26 
   34400    293.16761   -1360.6939    381.39556    343.75144    264.22419     36976.26 
   34500      302.461   -1332.3915    375.02087     407.6196    315.06894     36976.26 
   34600    298.82108   -1314.4603    390.43807    424.54125   -17.768432     36976.26 
   34700    297.06167   -1319.8126    372.14837    392.95922    883.00534     36976.26 
   34800    298.73715   -1336.4431    393.65374    405.39537    556.17189     36976.26 
   34900    295.50989   -1304.5475    380.24712    409.31998    457.58266     36976.26 
   35000    293.33344   -1318.8025    395.92091    400.91653    535.12181     36976.26 
   35100      305.592   -1342.9143    393.48194    429.68799    277.49271     36976.26 
   35200    297.98718   -1322.7484    405.62226    427.67404     244.0118     36976.26 
   35300    296.23334   -1349.0984    386.30965    374.09645    353.77863     36976.26 
   35400    304.35358   -1340.9568    373.44692     406.0215     174.2531     36976.26 
   35500    296.43249   -1358.9632    395.36698    374.18775      46.2628     36976.26 
   35600    298.25481   -1323.2945    387.95677    410.67024   -133.32083     36976.26 
   35700    307.90428   -1310.6708    394.32532    473.21003    310.89753     36976.26 
   35800     296.8208   -1309.5061     424.1662     454.1965    11.474503     36976.26 
   35900    312.28035   -1320.2419    400.05249    489.11504    62.331549     36976.26 
   36000     302.6514   -1328.8318    380.10367    417.12145    53.835212     36976.26 
   36100    290.19749   -1298.0167    389.47632    401.10528    22.739933     36976.26 
   36200    288.73369   -1330.7324    388.63822    360.94554    111.54756     36976.26 
   36300    300.35081   -1330.6469    400.46541     425.2856     302.7327     36976.26 
   36400    305.67424   -1337.5062     380.1247    422.10991   -663.91857     36976.26 
   36500    291.22752   -1318.2614    388.49348    384.52626   -78.076527     36976.26 
   36600    299.42189   -1319.5204    387.88788    419.64244    245.54141     36976.26 
   36700    289.78851   -1303.7962    408.09788     412.1017   -171.98741     36976.26 
   36800    295.44153   -1269.8955    390.00025    453.41657   -82.419469     36976.26 
   36900    300.62306   -1310.8553    360.95621    406.79667     395.2425     36976.26 
   37000    296.13331   -1285.6633    410.51177    461.28223    615.13613     36976.26 
   37100    302.44254   -1305.6594    392.93366    452.18127    12.669818     36976.26 
   37200     291.9019   -1309.5407     383.5596     391.3565    144.70223     36976.26 
   37300    290.76398   -1337.6271    384.38585    358.96102    574.94571     36976.26 
   37400    297.60142   -1332.3497    406.29668    417.00622    704.83576     36976.26 
   37500    293.28875   -1324.0227    363.54929    363.12303   -255.97899     36976.26 
   37600    295.04531   -1307.4492    397.55348    421.62796   -121.65923     36976.26 
   37700    292.55778   -1300.7236    386.85579     406.4298   -409.58622     36976.26 
   37800     294.2007   -1326.6433     409.0445    410.11315   -12.020243     36976.26 
   37900    295.39578   -1338.0841    396.45205     391.4733    158.09345     36976.26 
   38000    304.23932   -1337.0805    388.01272    423.94802    78.187994     36976.26 
   38100    297.31012   -1314.6315    372.92271    400.03586    -346.5678     36976.26 
   38200    289.95183   -1315.1286    367.31035    360.71882    10.163333     36976.26 
   38300    299.18351   -1288.4531    383.71425    445.46029    -235.1636     36976.26 
   38400    294.46043   -1298.7683     413.8648     443.9806    151.22715     36976.26 
   38500    294.66225   -1326.6523    386.58836    389.73101   -254.15716     36976.26 
   38600    293.97723   -1351.3267    404.88087    380.25766    161.71894     36976.26 
   38700    306.61169   -1400.1611    404.09789    387.65894     246.6654     36976.26 
   38800    296.26038   -1342.9462    410.98666    405.04769    208.81438     36976.26 
   38900    307.43728   -1372.5339    391.21154    406.12565   -71.912283     36976.26 
   39000    292.74505   -1355.2812    381.08783    346.94939    304.17888     36976.26 
   39100    301.34376   -1370.7398    387.94645    377.15485    283.10483     36976.26 
   39200    304.42404   -1359.2487    392.37062    406.97127    315.52389     36976.26 
   39300    319.14498   -1355.3926    387.90263     472.7942   -129.63359     36976.26 
   39400    301.60819   -1369.8728    387.30809    378.57687   -204.61306     36976.26 
   39500    296.07855   -1370.8012    395.33104    360.71643   -681.23551     36976.26 
   39600    310.11651   -1366.2914    395.44651    428.69433    38.569874     36976.26 
   39700    292.53484   -1324.8479    404.29773    399.64389   -775.12505     36976.26 
   39800    295.38511   -1325.0244    385.23135     393.2641   -102.25667     36976.26 
   39900    311.98318   -1348.1398    397.81196    457.63552   -197.40349     36976.26 
   40000    290.59818   -1315.3433      394.324    390.43477   -400.04813     36976.26 
   40100    298.76577   -1345.5882    403.01923    405.74494   -308.85882     36976.26 
   40200    305.32009   -1349.4742    406.63591    435.05494    -555.2411     36976.26 
   40300    294.34969   -1300.0203    415.21567    443.57978   -119.28485     36976.26 
   40400    302.78618   -1324.1048    397.74583    440.09882    110.99953     36976.26 
   40500     295.2345   -1315.5495    406.00466     422.8326   -23.896458     36976.26 
   40600    310.63521   -1358.2291    412.50691    456.15788     337.4403     36976.26 
   40700    296.18063   -1317.1966     402.6267    422.07741   -162.46033     36976.26 
   40800    294.58607   -1332.3452    390.85471    387.96066   -115.00129     36976.26 
   40900    296.50721   -1321.1757    408.23222    425.17767   -666.47207     36976.26 
   41000    302.06196   -1316.0799    402.50673    449.61631   -76.425477     36976.26 
   41100    289.45715   -1284.6168    393.04883    414.73666    65.968165     36976.26 
   41200    304.35669    -1308.994    390.34634    454.89781    175.24922     36976.26 
   41300    292.11422   -1268.6164    397.25096    446.93039    256.62848     36976.26 
   41400    301.94287   -1333.3563    411.84332    441.13901    229.84361     36976.26 
   41500    306.82241   -1356.6431    399.41974    427.44972    112.27989     36976.26 
   41600     306.7538   -1314.9531    407.95131    477.36169   -377.26188     36976.26 
   41700    307.90441   -1371.6013    384.57581    402.53058    233.22156     36976.26 
   41800    311.28303    -1376.933    397.34499    425.21566    245.77277     36976.26 
   41900    301.24963   -1365.8047    418.97409    412.69286   0.45554729     36976.26 
   42000    297.43418   -1346.3367    415.03147    410.99932   -78.433717     36976.26 
   42100    303.99405   -1365.2469     378.8881    385.55001   -290.24713     36976.26 
   42200    299.17063   -1360.2492    393.94444     383.8363   -388.41753     36976.26 
   42300    297.03008   -1375.9087    398.96859    363.54073   -266.53931     36976.26 
   42400    299.55798   -1368.8379     403.0071    386.05836   -329.60299     36976.26 
   42500    294.56703   -1321.8292    404.64716    412.18312    80.715755     36976.26 
   42600    293.32052   -1348.6113    405.01204    380.14051   -45.944153     36976.26 
   42700    306.15526   -1408.1756    377.65648    351.14314   -360.42652     36976.26 
   42800    300.79082   -1408.2562    387.10272    336.29935   -343.34457     36976.26 
   42900    288.29588   -1416.1773    409.16032    294.04685   -646.72795     36976.26 
   43000    303.22043   -1361.2586    423.81438    430.97331   -411.46788     36976.26 
   43100    292.46627   -1364.7071    419.10329    374.28077   -87.570044     36976.26 
   43200    302.02712   -1346.5516    390.28103    406.76164   -352.64271     36976.26 
   43300    291.27147   -1378.6033    401.14124    337.03054   -434.23723     36976.26 
   43400    307.01081   -1355.7251    403.83718    433.63539   -207.82507     36976.26 
   43500    298.20788    -1362.509    393.68538    376.97258    413.13532     36976.26 
   43600    309.66131   -1416.6715    412.75311    393.56654   -229.43624     36976.26 
   43700    300.55612   -1369.0027    400.67005    388.06106    252.71086     36976.26 
   43800    292.32618   -1394.0205    412.27669    337.50856   -35.863452     36976.26 
   43900    303.99118   -1357.0482    394.84275    409.69044   -289.04765     36976.26 
   44000    298.67282   -1394.7464    401.11384    354.26186   -271.56496     36976.26 
   44100    290.75357   -1396.0108    409.45103    325.59548   -200.29818     36976.26 
   44200    305.71674   -1395.2263    409.60455    394.06149   -162.58002     36976.26 
   44300    306.90885   -1359.6743    444.35074    469.73967   -92.428148     36976.26 
   44400    295.91512   -1376.7597    414.79289    373.48232    79.479062     36976.26 
   44500    289.13229   -1365.7552    400.51545    339.59876    47.179769     36976.26 
   44600    304.95763    -1362.229    423.49125    437.51969   -372.53833     36976.26 
   44700    301.84325    -1388.881    410.04681    383.36827   -289.94485     36976.26 
   44800    300.12643   -1335.6018    385.41257    404.26523   -101.95059     36976.26 
   44900    287.74863   -1367.1284    405.03628    336.50208   -644.02364     36976.26 
   45000     298.1089   -1364.1869    408.34109    389.50372    618.85082     36976.26 
   45100    303.61468   -1358.1022     409.9052    421.99977    388.07399     36976.26 
   45200    297.25799   -1362.6632    415.72608    394.57231    12.660076     36976.26 
   45300    297.58311   -1410.3411    385.66987    318.30541    -94.55173     36976.26 
   45400    299.32505   -1394.7378    402.05328    358.15338    241.02501     36976.26 
   45500    299.39169   -1415.9289    445.60816    380.81786    531.13984     36976.26 
   45600    306.04254   -1363.4927    430.51714    448.17799    75.951489     36976.26 
   45700    304.96633   -1400.6353    429.52211    405.18352   -88.597425     36976.26 
   45800    292.23657    -1357.432    412.95038    374.36637    428.67141     36976.26 
   45900    296.43726   -1340.9896    432.94027    429.75613    560.68888     36976.26 
   46000     286.1878   -1346.7787     429.3731    374.14461    28.722081     36976.26 
   46100    295.10452   -1331.3504    428.16557    428.60611    61.244381     36976.26 
   46200    300.16975   -1337.6688    421.03559    438.01674     408.5104     36976.26 
   46300    309.41645   -1417.9868      407.539    385.93208    330.58511     36976.26 
   46400    295.73944   -1414.6004    415.76369    335.81958    189.15638     36976.26 
   46500    296.37574   -1378.7573    419.27122    378.04178    574.48392     36976.26 
   46600     298.7955   -1362.9182    404.30348    389.83331    801.21182     36976.26 
   46700    306.24565   -1383.9606    405.25707     403.3667    398.58762     36976.26 
   46800    293.64326   -1394.2395    401.26891    332.22573    555.12675     36976.26 
   46900    287.76857   -1350.1873     408.0745    356.57136      436.563     36976.26 
   47000    307.79573   -1416.3306    431.86811    404.60313     717.8693     36976.26 
   47100    305.16725   -1337.9514    429.26884    468.52091    764.28653     36976.26 
   47200    296.21244   -1340.4221    432.09349    428.46229    820.30108     36976.26 
   47300    292.04666   -1356.8625    418.53531    379.66371    304.46964     36976.26 
   47400    305.29425   -1373.1247    424.30435    428.95626    109.67091     36976.26 
   47500    300.06005   -1318.8878    401.65063    436.91777    157.14452     36976.26 
   47600    297.04046   -1289.8382    420.78685    471.47631   -16.295161     36976.26 
   47700    295.38619   -1352.5837     408.7568    389.23512     6.811351     36976.26 
   47800    291.96322   -1343.3827    437.97863    412.21027   -422.63708     36976.26 
   47900     297.8869   -1281.6952     405.5385    468.19094    53.414934     36976.26 
   48000    314.48496    -1343.409    458.62141    534.46619    545.07389     36976.26 
   48100    293.98707   -1339.2318    437.69889    425.21501    615.65916     36976.26 
   48200    310.14286   -1357.9408    433.10215    474.81942   -106.23717     36976.26 
   48300     299.9911    -1354.435    434.39697     433.8057    51.170703     36976.26 
   48400    301.15527   -1339.7275    414.27735    433.64742   -340.39683     36976.26 
   48500    311.28012    -1301.055    416.28051    520.01604   -29.144709     36976.26 
   48600    290.14345   -1311.5273    414.49868    412.37318   -633.82979     36976.26 
   48700    304.27935   -1340.0683    393.02595    426.15408    47.532101     36976.26 
   48800    292.38236   -1339.8254    412.63339     392.3139    335.64309     36976.26 
   48900    293.18257   -1329.3887    417.20284     410.9314   -164.01966     36976.26 
   49000     297.3133   -1351.3501    414.11063    404.51951    526.22077     36976.26 
   49100    298.19088   -1355.2917    426.28251    416.71029    685.50154     36976.26 
   49200    292.45496   -1331.6698    413.39163    401.55542   -195.71409     36976.26 
   49300    288.80363   -1338.7291    449.74883    414.37507   -35.580105     36976.26 
   49400    303.49964   -1287.3172    444.44243    526.80289    378.88356     36976.26 
   49500    298.67222     -1290.45      451.185    508.62679     288.1899     36976.26 
   49600    304.15954   -1346.8301    432.10914    457.93475    414.04966     36976.26 
   49700    310.14001   -1333.2115    430.41709    496.85084    270.30356     36976.26 
   49800    308.66936   -1342.7753    413.75834    463.99127    405.68559     36976.26 
   49900    299.47642   -1335.0766    440.00678    456.45126    121.28113     36976.26 
   50000    293.63811    -1287.496     420.9598    458.63689   -85.003685     36976.26 
   50100    301.60348   -1321.6496    427.39841    466.86921    501.07396     36976.26 
   50200    293.30985   -1346.6997     417.6408    394.63277   -231.32391     36976.26 
   50300    289.67639   -1332.0412    428.97313    404.22599   -84.671525     36976.26 
   50400    296.36418   -1352.1111     432.0503    417.41483    183.34444     36976.26 
   50500    304.07358   -1368.9082    402.08642    405.44603    281.99223     36976.26 
   50600     299.2237   -1335.7394    434.81582    449.45689   -336.62282     36976.26 
   50700    301.07111   -1345.8191    435.97807    448.87674   -675.08969     36976.26 
   50800    298.56011   -1354.9427    394.77112    387.21425   -189.73422     36976.26 
   50900     293.4324   -1383.9021    420.53767    360.88024    -95.68088     36976.26 
   51000    305.79621    -1394.857    445.28031    430.46523    356.10869     36976.26 
   51100    307.03288   -1383.8792    410.42685    412.17055    240.79628     36976.26 
   51200    305.37558   -1397.8031    421.53758    401.87808    286.00403     36976.26 
   51300    297.35193   -1400.3511    397.77388    339.35613    274.49599     36976.26 
   51400    302.54143   -1431.5354    410.54425    344.36206    74.733144     36976.26 
   51500     291.5421   -1425.8165    409.44822    299.34563    313.95433     36976.26 
   51600    305.44608   -1389.5058    410.13691    399.09286    485.77872     36976.26 
   51700    295.83543   -1402.6041    430.03614    362.52149   -40.685949     36976.26 
   51800     296.6857   -1359.3259    440.83387    420.43462     208.0429     36976.26 
   51900    308.11311   -1382.6693    430.07943    437.90808    229.80613     36976.26 
   52000    300.36825    -1464.321    401.69519    292.92003     77.07267     36976.26 
   52100    292.44265   -1410.9471    417.47895    326.30986      464.786     36976.26 
   52200    324.90374   -1441.4568    394.06891    418.88524    681.36716     36976.26 
   52300    296.16353   -1445.0661    422.76943    314.27347   -48.326503     36976.26 
   52400    304.89933   -1420.4176    419.37078    374.94756     112.9786     36976.26 
   52500    294.20886   -1405.0117    426.31435    349.05148   -516.66127     36976.26 
   52600    302.89153   -1365.5516    439.54653    440.92819   -134.91645     36976.26 
   52700     310.0352   -1405.5002    408.39473    402.06679   -451.29504     36976.26 
   52800    297.00827   -1401.9566    418.87019      357.296   -222.77383     36976.26 
   52900    298.49212   -1415.5893    417.76433    349.25399   -278.17919     36976.26 
   53000     294.2493   -1363.5549    415.18891    379.56531    82.305855     36976.26 
   53100    309.35428   -1381.8117    402.91953    417.20717    204.88916     36976.26 
   53200    305.65578   -1394.2509    413.72672    398.88395    725.59166     36976.26 
   53300    294.31954   -1370.3917    405.53513    363.39181    768.34998     36976.26 
   53400    289.35718   -1434.6085    424.73836    295.98333    286.16326     36976.26 
   53500    303.95204   -1387.9482    418.02808    401.79913     122.3884     36976.26 
   53600    308.65111   -1402.9462    429.97801    419.95778    120.82202     36976.26 
   53700    297.06779   -1344.0873    429.15269     425.7164    286.88353     36976.26 
   53800    295.80282   -1353.5336    429.14336    410.55204    431.95434     36976.26 
   53900     300.2961   -1361.8339    446.30086    439.68718    138.79813     36976.26 
   54000    303.95931   -1336.1007    431.82566    467.47703    23.794603     36976.26 
   54100    301.36054   -1339.5262    444.94472    465.44251   -46.289171     36976.26 
   54200    304.96441   -1319.0116    430.40175    487.67817    383.01713     36976.26 
   54300    286.86057   -1356.7318    445.29316    383.14772   -99.849525     36976.26 
   54400    295.67332   -1369.0264    426.68438    392.01584   -450.52118     36976.26 
   54500    294.84814   -1360.2701    430.63931    401.00309    -301.9561     36976.26 
   54600    299.88508   -1335.9464    443.90044     461.3194   -15.385128     36976.26 
   54700    298.74129   -1355.9038    450.60983    442.90944   -118.77985     36976.26 
   54800    302.38896   -1360.1527    448.57702    453.08947   -63.500024     36976.26 
   54900    307.48862   -1353.6795    424.12068    458.12084   -5.1300046     36976.26 
   55000    290.20339   -1411.2988    449.76909    348.14258    368.57654     36976.26 
   55100     311.3606   -1394.4605    433.53236     444.2256    464.79171     36976.26 
   55200    296.56314   -1362.6347    430.68713    406.42594    311.17577     36976.26 
   55300    297.05914   -1334.9712     417.7102      423.351   -15.783119     36976.26 
   55400    293.08286   -1352.1266     421.4245    391.96512   -674.64822     36976.26 
   55500    298.92514   -1317.6829    420.26221    451.61245   -750.74048     36976.26 
   55600    295.16433   -1353.4757    458.62097     437.2061   -119.28919     36976.26 
   55700    292.76084   -1337.3144    435.19391    419.09348   -58.954625     36976.26 
   55800    301.42929   -1358.7324    414.29779    415.89962    -240.8397     36976.26 
   55900    298.41698    -1334.438    423.60781    435.90963    393.84174     36976.26 
   56000    302.05736   -1360.2644    433.87579    436.78005   -390.20145     36976.26 
   56100    306.58482   -1351.9559    435.28422    466.92912    42.750249     36976.26 
   56200    305.99054   -1352.7642    451.87911    480.03381    314.82544     36976.26 
   56300    302.55078   -1387.7745    448.59823    426.21919    214.93396     36976.26 
   56400    291.16248   -1374.8876    447.45689    386.56998    326.86111     36976.26 
   56500    308.77879   -1309.2127    441.20287     525.4923    -225.2581     36976.26 
   56600     299.7503   -1330.8135    440.61165    462.55523    408.42831     36976.26 
   56700    288.89688   -1372.8336    444.36919    375.31176     375.9422     36976.26 
   56800    299.57871   -1364.9946    467.48252    454.47061    464.19727     36976.26 
   56900    295.81431   -1359.8542     434.5111    409.65099    216.04108     36976.26 
   57000    293.97074   -1387.6441    430.04931     369.0794    229.79417     36976.26 
   57100    299.39763   -1408.4967    424.55012    367.21895    191.68996     36976.26 
   57200     296.8587   -1378.1536     421.1674    382.72119    364.29982     36976.26 
   57300    304.33829   -1376.5206    444.35101    441.29279    298.67802     36976.26 
   57400    304.28971   -1350.8248    449.86638    472.28472    673.29277     36976.26 
   57500    293.58064   -1396.4821    436.47681     364.9084   -451.61006     36976.26 
   57600     314.9078   -1371.6862    426.01324    475.48908    -18.76336     36976.26 
   57700    301.59966   -1357.9989     421.9024    425.00658    180.07412     36976.26 
   57800     302.2727   -1363.2662    428.65578    429.53009   -475.61941     36976.26 
   57900    303.97614   -1350.8435    442.13054     463.1151   -537.70253     36976.26 
   58000    299.37348   -1419.4367    437.42364    369.04343   -876.27433     36976.26 
   58100     303.5938    -1401.941    441.40888    409.57039   -410.50205     36976.26 
   58200    291.36192   -1382.9962     429.5939    361.49846   -778.03566     36976.26 
   58300    302.49638   -1401.5844    450.33034    413.89587   -46.480362     36976.26 
   58400    297.31944   -1375.9023    456.11106    421.99545    -439.0462     36976.26 
   58500    310.23072   -1365.2781    450.59976    485.37632   -102.05723     36976.26 
   58600    302.72135     -1357.14    425.15514    434.18037    -192.2551     36976.26 
   58700     298.7183    -1373.665    437.63615     412.0708    191.25799     36976.26 
   58800    295.99288   -1361.1005    441.91945    416.61893   -166.99187     36976.26 
   58900    292.00535   -1381.3109    467.33368    403.82726   -46.142936     36976.26 
   59000    311.48693   -1381.4349    448.05822    472.34715    44.776075     36976.26 
   59100    308.98132   -1387.1194    461.24963    468.54636   -621.11948     36976.26 
   59200    297.96753   -1364.4066    458.15682    438.46177   -314.99299     36976.26 
   59300    291.29766    -1384.066    456.61104    387.15573   -664.15694     36976.26 
   59400    305.09119   -1412.2786    450.85549    415.43706   -350.64865     36976.26 
   59500    286.66503   -1415.6981     464.2465    342.25233   -345.12715     36976.26 
   59600     303.0125   -1386.4497    474.92566    455.95514    381.47147     36976.26 
   59700    301.55727   -1403.3249    440.53872    398.12557    560.67478     36976.26 
   59800      293.422   -1409.8249    438.65505    353.02796    182.74345     36976.26 
   59900    296.38325   -1424.0253    458.32287    371.85927    399.62274     36976.26 
   60000    303.46374   -1376.6701    440.20524    433.05072    799.83176     36976.26 
   60100    300.54543   -1383.0145    455.60881    428.93975    577.82478     36976.26 
   60200    304.80498   -1436.3397     430.4805     369.7093    122.58818     36976.26 
   60300    302.08608   -1408.0946     443.1977    398.40136    20.147846     36976.26 
   60400    300.69931   -1386.7171     449.9815    420.30426    303.89585     36976.26 
   60500    305.39073   -1399.5896    442.67374    421.29616    258.28326     36976.26 
   60600    292.14883   -1367.4336    442.04885    393.06732    144.41635     36976.26 
   60700    304.01087    -1430.275    440.07001    381.77981    803.05429     36976.26 
   60800    302.80904   -1419.7443    450.11937    396.93605     133.7608     36976.26 
   60900    300.66187   -1386.0726    456.35487    427.15313    792.60032     36976.26 
   61000     298.6697   -1419.9997    439.84744    367.72811    239.12381     36976.26 
   61100    288.79476    -1432.888    444.83491    315.26225   -117.93466     36976.26 
   61200    291.72117    -1463.582    442.67261    295.61263   -722.76071     36976.26 
   61300    291.08118   -1411.8055    451.52821    353.35653   -93.958943     36976.26 
   61400    301.64159   -1449.0831    445.51685     357.7261   -303.82545     36976.26 
   61500    296.96824   -1437.2772    429.92034    332.84493   -151.95328     36976.26 
   61600    297.38016   -1419.7413    451.57182    373.89118   -560.70012     36976.26 
   61700    301.28079   -1396.2198    440.93771    404.38199     -467.377     36976.26 
   61800    301.26425   -1433.3865      452.409    378.61191   -554.67957     36976.26 
   61900    294.74084   -1400.3959    467.52281    397.27657   -1127.4011     36976.26 
   62000    295.03219   -1439.1886    431.27953    323.55535   -1169.4698     36976.26 
   62100    305.02904   -1451.5917    431.52133    356.50931   -479.92277     36976.26 
   62200    293.15861     -1459.27    434.57035    298.30942   -666.99068     36976.26 
   62300    305.38437   -1383.8462    415.55736    409.89445   -15.580971     36976.26 
   62400    294.09859   -1397.1234     453.3231    383.45091   -748.89521     36976.26 
   62500    301.88819    -1456.097    467.89287    374.20113   -343.20263     36976.26 
   62600    292.54521   -1455.6904    421.00077    285.55123   -96.264847     36976.26 
   62700    305.41792   -1449.6281    431.24623    359.95281   -307.55259     36976.26 
   62800    300.49735   -1411.8802    425.43701    369.68531   -120.17993     36976.26 
   62900    302.45606   -1433.1527    447.57138    379.38666   -946.28341     36976.26 
   63000    304.69638   -1413.9535    461.22915     422.3541   -895.12156     36976.26 
   63100    294.86469   -1405.0074    453.87655    379.57771   -599.01731     36976.26 
   63200    304.11422   -1377.2426    475.00395    470.21253    -432.6803     36976.26 
   63300    307.92078   -1417.7124    448.90497     420.8225   -219.40908     36976.26 
   63400    291.71671   -1422.2512    484.85834    379.10902   -153.75921     36976.26 
   63500    297.89015   -1446.5518    484.55614    382.36657     45.21411     36976.26 
   63600    302.81528   -1414.0081      465.725    418.30597    543.48922     36976.26 
   63700    302.21227   -1381.8939     481.9104    463.88425    148.50071     36976.26 
   63800    305.40763   -1387.6218    450.72387    441.39037   -305.28964     36976.26 
   63900     301.2597   -1372.4428    441.87405    429.00011   -299.00476     36976.26 
   64000    292.50068   -1376.1278    446.54936    390.46149   -73.496648     36976.26 
   64100    304.73139   -1374.4547    463.65657    464.43831   -167.25112     36976.26 
   64200    296.07995   -1393.2817    476.26779    419.17907    408.86897     36976.26 
   64300    299.81438   -1394.0584    450.57385    409.56167   -19.832898     36976.26 
   64400    292.29043   -1390.6755    467.14701     395.5625   -248.99469     36976.26 
   64500    294.53542   -1398.4265    469.96654    400.76266   -398.15504     36976.26 
   64600    290.22098   -1440.6451    457.15241    326.25903   -270.36407     36976.26 
   64700    294.80319   -1417.6678    452.73427    365.49748   -61.641459     36976.26 
   64800    305.97831   -1435.8739     426.6793    371.66906   -556.61173     36976.26 
   64900    287.29421   -1458.1702    438.36971    276.74284   -293.70122     36976.26 
   65000    306.75778   -1439.8214    442.07083     386.6308   -522.39636     36976.26 
   65100    302.95137   -1434.4501    463.11852    395.87174     304.3393     36976.26 
   65200    300.55779   -1424.2559    475.85009    407.99537   -144.38853     36976.26 
   65300    309.29081   -1411.5497    449.41044    433.67359   -456.35478     36976.26 
   65400    304.00562   -1379.6927    434.44223     426.7106    -719.9036     36976.26 
   65500    296.19381   -1426.0041    460.29106    370.99378    -79.97684     36976.26 
   65600    293.61499   -1391.4793     480.9122    414.50163   -18.064718     36976.26 
   65700    303.97782   -1377.0909     445.4564    440.20115   -30.965509     36976.26 
   65800    293.45455   -1396.7653    469.82045    397.39979   -156.57579     36976.26 
   65900    299.29707   -1430.7469    464.49344    384.45813    -384.2493     36976.26 
   66000    299.86997   -1414.8697    448.54846    386.97582    134.58541     36976.26 
   66100    300.62314   -1491.0032    435.92629    301.61917   -88.406069     36976.26 
   66200    305.17885   -1453.9655    441.69917    364.98943    444.24491     36976.26 
   66300    292.19437   -1390.1395    455.90759     384.4256    382.67479     36976.26 
   66400    305.68469   -1400.3437     472.7175    451.91241    861.78189     36976.26 
   66500    293.45659   -1381.6531    457.31768    400.01849    809.31923     36976.26 
   66600    300.74246   -1388.2216    476.87371    445.88669    1020.7676     36976.26 
   66700    306.36087   -1370.7657    483.26609     495.0906    720.58404     36976.26 
   66800    309.89178   -1411.3688    434.65679    421.81304    227.77632     36976.26 
   66900    304.85008   -1411.9193    465.52858    429.38139    181.50661     36976.26 
   67000    300.42168   -1408.0211    433.79979    381.56565   -343.03096     36976.26 
   67100    295.45297   -1439.1457    447.28522     341.5029    94.058299     36976.26 
   67200     289.7397   -1430.6699    454.70641     331.6162    158.99988     36976.26 
   67300    302.64679   -1404.1525    457.82259    419.49881    461.20472     36976.26 
   67400     291.1715   -1407.8152    463.70549    369.93168    121.95515     36976.26 
   67500    301.57046   -1426.0808    460.75617    395.64671   -2.8671821     36976.26 
   67600    297.15421   -1381.5774    448.91384    408.37746     504.1773     36976.26 
   67700    297.76955   -1426.8344    478.39926    395.38294     168.3553     36976.26 
   67800    297.27084    -1460.973    462.14551    342.73991    989.88497     36976.26 
   67900    288.25433   -1432.2587    463.72622    332.34384     906.0923     36976.26 
   68000    307.84545   -1472.3347    445.15159     362.1069    957.52119     36976.26 
   68100     301.7324   -1397.8527    470.24125    434.09073    1173.7378     36976.26 
   68200    310.15581   -1469.4365     451.2731    381.55317    491.90073     36976.26 
   68300    306.07857   -1420.4028    474.42369     435.3371    195.61967     36976.26 
   68400    283.47614   -1382.8259    476.60302    373.08975    458.54219     36976.26 
   68500    309.10851   -1361.2625    483.56809    517.29574    4.7767881     36976.26 
   68600    307.77935   -1408.4337    418.63241     399.1904   -183.68628     36976.26 
   68700    300.62627   -1397.4768    445.93236     405.1658   -364.14684     36976.26 
   68800    306.00602   -1364.5873    457.96768    474.36913    37.670237     36976.26 
   68900    299.43357   -1418.8515    427.19177    359.66794    239.50274     36976.26 
   69000    293.19447   -1364.1413    473.20749    432.23713   -155.93869     36976.26 
   69100    297.64514   -1394.2484    452.26453    401.27268     83.59722     36976.26 
   69200    292.65141   -1417.4551    474.10613    377.37122    1061.6482     36976.26 
   69300    301.13604     -1401.36    475.26107    432.91186   -26.617436     36976.26 
   69400    297.75258    -1464.094     467.0103    346.65769    227.34461     36976.26 
   69500    300.70187   -1446.8019    439.06418     349.3137    -111.0375     36976.26 
   69600    296.60135   -1439.0814    463.82701    363.29164    -562.6545     36976.26 
   69700    299.10766   -1414.1307    469.69815    405.42425   -107.57665     36976.26 
   69800    289.82465   -1438.5712    447.46621    316.85815   -473.79612     36976.26 
   69900     299.5132   -1480.3028    445.89867    317.28294   -233.10152     36976.26 
   70000    307.78933   -1463.7974     449.8921    375.13145   -622.28399     36976.26 
   70100    301.07818   -1438.7249    435.89986    355.92459   -401.32053     36976.26 
   70200    308.42467   -1381.3004    469.56814    480.17175   -398.21699     36976.26 
   70300    302.69003   -1443.3271    463.43781    386.13456   -78.367514     36976.26 
   70400    309.76274    -1434.552    447.12133    410.51203    304.73871     36976.26 
   70500    305.92579    -1435.994    456.72938    401.36209    4.0166739     36976.26 
   70600    302.52538   -1452.6157     429.7675    342.43269    12.780087     36976.26 
   70700    304.76461   -1443.4495    454.55502    386.49189     82.19024     36976.26 
   70800    329.77939   -1435.3982    456.78534    509.66382    454.78201     36976.26 
   70900    300.68703   -1404.1297    449.88134    402.73608    201.51266     36976.26 
   71000    297.57633   -1409.1412    426.15307    359.95792   -122.20701     36976.26 
   71100    304.32567   -1425.7591    476.30299    423.94934    -38.64078     36976.26 
   71200    296.93914   -1453.8116    442.43566    328.69455   -226.00089     36976.26 
   71300    301.87155   -1418.2057    437.91262    382.03705   -10.362536     36976.26 
   71400    298.05018    -1424.845    456.97627     377.2157    109.75506     36976.26 
   71500     297.2043   -1421.4105    431.69039    351.54694   -18.495723     36976.26 
   71600    302.61793   -1472.1824    465.95923    359.47533   -296.53073     36976.26 
   71700     294.5873   -1473.4255     450.7274    306.75857   -437.47529     36976.26 
   71800    291.52406   -1432.7775    449.84377    332.69869   -12.421282     36976.26 
   71900    304.28819   -1419.3792    449.25293    403.11006    59.311282     36976.26 
   72000    301.60129   -1430.3281    461.08153    391.86387    1182.2373     36976.26 
   72100    296.54772   -1463.0007    444.16605    319.46931    516.59514     36976.26 
   72200    295.71907   -1481.3144    452.10908    305.35901    977.38453     36976.26 
   72300    290.41548    -1450.297    452.19323    312.52571    817.31134     36976.26 
   72400    300.43394   -1424.1259    453.00539    384.72176    754.62851     36976.26 
   72500    300.09687   -1402.3728    439.13427    391.08251    199.71951     36976.26 
   72600    306.26028   -1425.3517     439.7301    396.51465   -299.39445     36976.26 
   72700    292.73508   -1443.2882    453.79741    331.60694   -847.91504     36976.26 
   72800    293.07221   -1401.7174    453.79373    374.69551   -170.16178     36976.26 
   72900    304.81852   -1384.2561    427.12182    418.49538   -141.52469     36976.26 
   73000    310.01088   -1416.2108    451.09249    433.94421    262.43067     36976.26 
   73100    301.57622    -1417.643    452.85334     396.2077   -6.4329303     36976.26 
   73200     305.1773   -1460.1483    444.34254    361.44311     128.3468     36976.26 
   73300    298.94645   -1459.2273    449.11488    339.01686   -50.914691     36976.26 
   73400    295.82164   -1451.3334    466.97716    350.67098   -686.10171     36976.26 
   73500    309.29221    -1456.003    450.59003    390.40616   -273.25004     36976.26 
   73600    296.21526   -1458.0808     449.5776    328.30034    150.07947     36976.26 
   73700     301.0667   -1470.6192    459.96258    348.04124    121.39624     36976.26 
   73800    290.85074   -1452.0017    459.11504    319.70717    529.63266     36976.26 
   73900    304.96699   -1460.0514    475.46681    391.71503    428.10772     36976.26 
   74000     304.0597   -1452.6954    448.72977    368.23949    6.5836452     36976.26 
   74100    301.24389   -1425.6708    448.31743    382.14415   -117.94353     36976.26 
   74200    289.15598   -1444.3399    467.13383    327.73934   -67.986517     36976.26 
   74300    288.38328   -1422.9549    470.10121    348.60462   -260.12905     36976.26 
   74400     301.8013   -1412.8851    454.70498    403.83301   -613.74054     36976.26 
   74500    302.92323   -1383.9612    461.38716    444.50224   -676.03483     36976.26 
   74600    300.94362    -1414.384    462.60195    406.36041   -164.47691     36976.26 
   74700    291.88694   -1390.8997    474.33103    400.70148   -2.7437228     36976.26 
   74800    308.99605   -1410.7006    468.25227    452.03432    411.12148     36976.26 
   74900    295.41842   -1406.6961    443.03446    369.54589    399.79116     36976.26 
   75000    308.61874   -1368.8395    453.01636    476.95666     836.4415     36976.26 
   75100    296.50051   -1438.6161    450.40443    349.87923   -36.693313     36976.26 
   75200    297.57182   -1427.9047    453.00324    368.02427    351.76018     36976.26 
   75300    297.99255   -1433.4599    465.75084    377.11534    30.113311     36976.26 
   75400    294.56495   -1408.4841    452.86729    373.73899    36.811376     36976.26 
   75500    304.17048   -1413.1467    453.36004    412.91838   -153.76731     36976.26 
   75600    309.03733   -1399.1995    463.58724    459.05669   -353.97834     36976.26 
   75700    291.41311   -1415.7828    429.68083    329.02974   -707.69001     36976.26 
   75800    303.93023    -1385.911    437.54788    423.25777   -1002.6735     36976.26 
   75900    294.08216   -1399.7332    452.68582    380.12967   -701.99408     36976.26 
   76000    304.07854   -1388.6695     436.4886     420.1093    69.910009     36976.26 
   76100     300.1562   -1397.3346    474.26584    431.52005   -669.07214     36976.26 
   76200    302.28734   -1425.5111    462.39647    401.09199   -1022.6413     36976.26 
   76300    292.27646   -1453.9607    431.17336    296.24064   -622.33813     36976.26 
   76400    305.08936   -1421.9069    450.33383    405.27886   -424.61281     36976.26 
   76500    296.95233   -1413.3823    481.60935    408.35697    45.393654     36976.26 
   76600    303.87224   -1439.5886    463.90535    395.67591    147.95408     36976.26 
   76700    296.85756   -1480.3429    453.37968    312.73903    483.03999     36976.26 
   76800    301.24755   -1473.9065    463.20387    348.81143    677.52432     36976.26 
   76900    297.22954    -1418.629    471.15735    393.90929    969.01756     36976.26 
   77000    301.14919   -1399.7708    449.73806    409.03745    485.35219     36976.26 
   77100    292.17127    -1389.346    482.44125    411.64858    389.61109     36976.26 
   77200    305.17936   -1406.8286    475.62845    446.05792   -79.676607     36976.26 
   77300    298.14963   -1397.3553    438.43658    386.61454   -834.69899     36976.26 
   77400    295.41112   -1373.8967    477.89993    437.17781   -666.68578     36976.26 
   77500    294.09138   -1422.3081    450.25877    355.16929   -614.39594     36976.26 
   77600    296.11008   -1405.9762     458.8026     389.1553    -594.1383     36976.26 
   77700    304.07918   -1381.2054    485.75398    476.84159   -596.96985     36976.26 
   77800    298.38727   -1408.5283    462.25682     400.3343   -423.95658     36976.26 
   77900    308.39204   -1433.2148    433.48914    392.03116   -117.55147     36976.26 
   78000    286.41461   -1441.0359    446.62611    298.16401   -259.53558     36976.26 
   78100    298.21777   -1444.9822    455.53038    356.38904   -160.52727     36976.26 
   78200     305.2591   -1465.6387    466.74398    378.72325   -224.16491     36976.26 
   78300    304.00873   -1470.8992    453.93066    355.00657   -32.952759     36976.26 
   78400     307.3836   -1445.2722    448.35254    390.28607   -647.43281     36976.26 
   78500    294.49171   -1420.0728    474.05549    383.00805    138.64429     36976.26 
   78600     297.1559   -1442.1086    453.70879    352.64885    380.48922     36976.26 
   78700    293.80005   -1486.5972     478.9284    318.23509    654.24377     36976.26 
   78800    308.05157   -1454.4839    460.73277    396.46907    430.75518     36976.26 
   78900    306.85121   -1445.7909    482.80403     421.8162    344.92577     36976.26 
   79000    301.03467   -1439.6542    466.78912    385.68828    31.833254     36976.26 
   79100    304.55681   -1468.9152    462.59908    368.13249    173.16803     36976.26 
   79200    290.60405   -1493.3555    462.25005    280.37502   -132.61319     36976.26 
   79300    295.59621   -1438.0308    473.17938     369.1584    103.22232     36976.26 
   79400    307.77368   -1450.9006    452.03959    390.10511    28.690041     36976.26 
   79500    294.49411   -1456.0625    450.47876    323.45242   -477.62825     36976.26 
   79600    297.00769   -1455.4356    462.53863     347.4828   -163.21894     36976.26 
   79700    302.56988   -1415.2078    491.26799     441.5418     579.0769     36976.26 
   79800    299.53498   -1406.9916    484.24264    429.03636   -21.654347     36976.26 
   79900    313.28859   -1425.0197    463.08759    451.92254      61.9168     36976.26 
   80000    306.61536   -1388.0458    485.40945     481.1023    351.98872     36976.26 
   80100    299.36536    -1408.871    493.42739    435.57618    206.50891     36976.26 
   80200    304.90645   -1365.9457    483.65322    493.73396    390.53986     36976.26 
   80300    281.95361   -1364.9249    498.67084    406.18744   -255.26156     36976.26 
   80400    298.51123   -1431.1334    476.49105    392.52283   -46.713089     36976.26 
   80500    314.79366   -1387.1552    461.31093    494.80265    343.19926     36976.26 
   80600    299.56149   -1408.6219    464.46643    407.74946   -204.43854     36976.26 
   80700    298.48454    -1407.269    491.15268    430.92841    340.60219     36976.26 
   80800    310.63116   -1432.5761    467.17767    436.46333   -475.01433     36976.26 
   80900     296.8819   -1419.5508    487.13256    407.39381   -909.36485     36976.26 
   81000    306.78859   -1419.9346    457.37896    421.96487   -673.94713     36976.26 
   81100    305.36621   -1407.4446     469.3734    440.03014   -47.968916     36976.26 
   81200    296.10171   -1422.9975    467.41194    380.70565    224.05884     36976.26 
   81300    295.82654   -1404.0491    466.49707    397.49731   -235.93778     36976.26 
   81400    302.18175   -1455.0729    472.84529     381.5025    66.243263     36976.26 
   81500    304.36372   -1462.8041    461.93235    372.70535    71.110072     36976.26 
   81600     310.4318   -1451.5053    447.77897    397.23572    147.51987     36976.26 
   81700    307.50502   -1436.9928    453.22676    403.98762   -373.23234     36976.26 
   81800    296.23814   -1502.4749    474.13777    308.56967   -131.95948     36976.26 
   81900    296.45462   -1471.2612    461.23573    327.85837    -905.6656     36976.26 
   82000    304.05445    -1462.024    442.64855    352.80603   -764.20791     36976.26 
   82100    308.67577   -1466.1008    474.82974    401.76618   -973.18152     36976.26 
   82200    305.24495   -1471.5299      461.517    367.54124   -817.82465     36976.26 
   82300    300.23115   -1445.5238    467.30942    376.71274   -422.93328     36976.26 
   82400    301.53559   -1472.5982    466.22213    354.43787   -752.22155     36976.26 
   82500    306.02647   -1485.3522    486.55337    382.28227   -469.31399     36976.26 
   82600    295.05377   -1482.3375    455.43659    304.66096   -329.60652     36976.26 
   82700    292.74679   -1490.2712    470.53705    301.41641   -51.530875     36976.26 
   82800    310.54545   -1453.8922    471.29018    418.87292     39.72138     36976.26 
   82900    291.23555   -1448.9689    477.91726    343.27881   -33.209351     36976.26 
   83000    302.19156   -1463.9915    461.89519    361.67794    319.20497     36976.26 
   83100    292.50246   -1474.4205    467.91717    313.54459    593.99935     36976.26 
   83200    302.55518   -1495.3584     467.7795     337.8364    540.15642     36976.26 
   83300    293.78032   -1465.3142     475.4564    335.95709   -154.41695     36976.26 
   83400    310.50693   -1504.9872    460.01071    356.32461   -155.25271     36976.26 
   83500    296.17168   -1505.5728    460.16387    291.19795    73.744731     36976.26 
   83600    294.94716   -1514.5883    490.52732    307.01979     258.7441     36976.26 
   83700    298.01471   -1508.2675    461.30437    297.96133   -22.638364     36976.26 
   83800    295.10711    -1470.841    445.43623    306.39777    217.07797     36976.26 
   83900    307.61255   -1479.2978    462.18828    371.12945   -450.14445     36976.26 
   84000    291.31629   -1432.8754    484.10108    365.92056   -262.92756     36976.26 
   84100    304.33867   -1478.9304    500.21057    394.74426    184.38409     36976.26 
   84200     292.9543   -1458.8266    497.37563    360.63606    1032.7237     36976.26 
   84300    291.08784   -1425.1532    469.15901    357.66967    291.09268     36976.26 
   84400    304.62748   -1427.8167    465.28488    412.23566    1156.2496     36976.26 
   84500    298.35148   -1477.7544    457.61562    326.30548    593.81786     36976.26 
   84600     292.1757   -1449.6105    478.58419    347.54698   -453.95047     36976.26 
   84700     303.3631   -1448.6194     484.2583     404.7003   -751.16225     36976.26 
   84800    296.98799   -1436.1385    486.79041    390.94282   -586.01587     36976.26 
   84900    311.83838   -1440.6348    461.31583    427.99092   -339.98696     36976.26 
   85000    294.44978   -1460.6045    476.38084     344.6124    166.83857     36976.26 
   85100    300.16808   -1460.6379    470.35121    364.35575   -74.416266     36976.26 
   85200    297.55464   -1468.7053    451.01157     325.1544   -154.60453     36976.26 
   85300    303.19703   -1469.8088    455.76148    354.26468    146.56509     36976.26 
   85400    305.08106   -1474.0282    472.64887    375.43513   -306.36291     36976.26 
   85500    295.11611   -1504.1586    474.72222    302.40682    353.69611     36976.26 
   85600    307.25264   -1456.9399    485.32773    415.00252    267.56569     36976.26 
   85700    305.80002   -1424.6996    474.06631    429.42583    199.53869     36976.26 
   85800    305.56394   -1450.1188    462.46486    391.33977    618.28303     36976.26 
   85900    291.29781   -1457.4326    489.51511    346.69396    681.46173     36976.26 
   86000    295.38704   -1474.1539    452.86365    311.77562    472.90334     36976.26 
   86100     301.4473   -1490.8911    483.61613    353.14057    376.82243     36976.26 
   86200    305.76185   -1494.0289    461.63885    347.49675    471.42805     36976.26 
   86300    294.07114   -1459.5155    463.01274    330.62458    203.62772     36976.26 
   86400    294.93914   -1504.6515    466.42565    292.81869   -26.482262     36976.26 
   86500    301.62161   -1461.6155    483.77136    383.35801    1097.4146     36976.26 
   86600    302.43673   -1485.9228    478.68955    357.64745    337.50644     36976.26 
   86700    294.06274   -1471.4395    462.06468    317.71457    93.433864     36976.26 
   86800    290.41983   -1495.6551    481.93118    296.92524    603.37018     36976.26 
   86900    283.96793   -1463.1788    497.67559     316.0288     69.35024     36976.26 
   87000    297.73847    -1483.879    483.03591    342.83469   -79.749264     36976.26 
   87100    302.85722   -1464.9285    466.69696     368.5469    229.21514     36976.26 
   87200    294.53929   -1466.8314     463.9116    326.32023   -35.982007     36976.26 
   87300    300.27196   -1432.1175    474.85469    397.84845    145.69085     36976.26 
   87400    309.69088   -1434.3949    469.48808    432.71156    254.09205     36976.26 
   87500    296.82085   -1447.8977    489.60164    381.24056   -171.91929     36976.26 
   87600    297.32448    -1448.224    493.30767     386.8931   -85.187282     36976.26 
   87700    303.09812   -1451.4761    482.10692    398.49635   -62.378862     36976.26 
   87800    298.86093   -1449.4498     495.4855    394.77911   -104.01351     36976.26 
   87900    294.59446    -1441.698    462.24597    350.03698    -12.06977     36976.26 
   88000    292.75879   -1482.4876    497.54874    336.26591    259.09242     36976.26 
   88100     292.8186    -1435.078    495.62538    382.02206    249.24355     36976.26 
   88200    301.73849   -1505.1483    477.67479    334.25615    393.51361     36976.26 
   88300    302.89248   -1492.7045    447.55162    321.78463    465.65317     36976.26 
   88400    288.85705   -1435.5727    465.58699    333.61072   -113.72619     36976.26 
   88500    301.07364    -1436.687    503.70982    425.75201   -614.09699     36976.26 
   88600     295.6096   -1490.6255    486.41262    329.85742   -179.98387     36976.26 
   88700    311.81715   -1450.4728    483.79483    440.53613   -843.90424     36976.26 
   88800    296.04182   -1450.2845    469.02394    354.76027   -202.47385     36976.26 
   88900    315.02409   -1433.3982    458.41038    446.69903   -157.13601     36976.26 
   89000    307.87311   -1458.8229    471.33705    401.92906   -644.24576     36976.26 
   89100    291.94631    -1496.946    453.97177    274.56379   -384.14184     36976.26 
   89200    304.65644   -1512.2992    462.40185    325.00079   -392.52164     36976.26 
   89300    311.81907   -1493.4371    462.30251    376.08819    172.29605     36976.26 
   89400    300.24663   -1438.0848    476.52356    393.43569   -375.30122     36976.26 
   89500    296.55917   -1436.9985    508.60321     409.9604    65.949703     36976.26 
   89600    302.94276   -1446.7766    484.19005    404.57792    900.89963     36976.26 
   89700    296.16275   -1497.3766     471.6565    310.84655    761.57321     36976.26 
   89800    294.18663   -1470.8741     477.7095    334.48388    642.59969     36976.26 
   89900    306.20342   -1453.2332    467.92477    396.57114    184.92557     36976.26 
   90000    295.44996   -1447.0394    458.19284     344.5033    104.94984     36976.26 
   90100    307.23458   -1450.2221    515.86188    452.17298    277.31547     36976.26 
   90200    298.90851   -1451.1196    498.26682    396.10528    526.77015     36976.26 
   90300    302.35179   -1478.3083    459.42152    345.61059    695.14961     36976.26 
   90400    301.53829   -1470.1183    504.89607    395.60392    478.46576     36976.26 
   90500    301.83349   -1508.3198     477.9305    331.76902    1048.2561     36976.26 
   90600    300.82396   -1501.1174    495.10926    351.59432    672.11665     36976.26 
   90700    295.65924   -1518.5609    490.12183    305.85521    598.78264     36976.26 
   90800    296.87996   -1487.3608    487.80914    340.25175    385.79057     36976.26 
   90900    304.80127   -1483.9519    471.80317     363.4031    563.52425     36976.26 
   91000    308.05581   -1504.2751    486.53278    372.49708    601.16779     36976.26 
   91100     296.9411   -1481.2855    456.88863    315.68242    115.10094     36976.26 
   91200    301.15372   -1451.7984    491.14209    398.43424    540.62843     36976.26 
   91300    303.73439   -1488.9833      478.445    360.19871   0.43361629     36976.26 
   91400    306.71831   -1453.5949    482.54083    413.14923   -83.953071     36976.26 
   91500    293.93102   -1517.1492    475.61684    284.96256   -1073.4701     36976.26 
   91600     296.6751   -1500.9204    479.19933    317.15779   -160.80477     36976.26 
   91700    297.12079   -1493.1305    476.58157    324.34128   -94.638306     36976.26 
   91800    305.32425   -1439.8136    487.42672    425.52507   -306.92015     36976.26 
   91900    307.54606   -1468.5916    463.55034    382.89761    -495.1187     36976.26 
   92000     299.6164   -1485.4686     462.0552    328.73935    219.90344     36976.26 
   92100    308.00112   -1478.7662    472.10179    383.32816   -9.0451817     36976.26 
   92200    300.02643   -1463.6268    496.63505    387.01147   -488.17794     36976.26 
   92300    298.67143   -1446.1768    485.20296    386.91431    459.56868     36976.26 
   92400    301.61633    -1489.264    486.52468      358.439     549.7042     36976.26 
   92500    299.87603   -1476.3805    498.51383    375.45776    17.357506     36976.26 
   92600    304.69352   -1504.8408    482.60351    352.82825   -37.079335     36976.26 
   92700    296.96588   -1532.5528    483.52437    291.16267   -121.40638     36976.26 
   92800    316.99332   -1471.2599    467.06547    426.37938    63.556281     36976.26 
   92900    298.79699   -1469.7775    465.86074    344.53805   -553.76475     36976.26 
   93000    297.23155    -1452.979    498.09912    386.51017    -1125.516     36976.26 
   93100    299.59782   -1460.7127    460.04159    351.39777   -941.72177     36976.26 
   93200    300.38926   -1475.9161    506.34054    386.06509   -84.966667     36976.26 
   93300    299.22566   -1474.2459    488.21945    364.36294    59.479463     36976.26 
   93400    296.45332   -1465.2288    494.35852    367.00771     359.6475     36976.26 
   93500    295.37646   -1435.1922     494.9296    392.75557    328.44907     36976.26 
   93600    297.87092   -1483.0163    492.43719    353.69638    345.55293     36976.26 
   93700    297.66053   -1427.7748    487.57919    403.13046    207.90372     36976.26 
   93800    291.20586   -1408.8129    487.95308    393.33659    396.54416     36976.26 
   93900    303.48981   -1442.2902    508.92571    436.26875     610.6825     36976.26 
   94000    294.25764   -1448.8855    479.13241    358.21591    397.34027     36976.26 
   94100     301.5822   -1468.9613    503.09547    395.15847    554.01313     36976.26 
   94200     296.5404   -1519.3789    471.92344    290.81548    501.83508     36976.26 
   94300    296.45668   -1532.7174    480.54925    285.72497    106.61702     36976.26 
   94400    312.55908   -1474.9322    514.53291    450.16303    -351.8845     36976.26 
   94500    290.00596   -1532.3042    468.85572    245.33287   -615.35589     36976.26 
   94600    300.18224    -1503.795    467.32836     318.2397   -252.44961     36976.26 
   94700    300.45181   -1513.3712    478.14665    320.69841    427.98841     36976.26 
   94800    304.95298   -1516.4308    457.37899     317.1846     186.1467     36976.26 
   94900    329.69867   -1493.6874    473.88409    468.10911    -214.3604     36976.26 
   95000    292.58644    -1460.969    493.12254    352.58048    -450.9732     36976.26 
   95100     303.7774   -1478.9908    481.48056    373.42084   -377.38761     36976.26 
   95200     304.0114   -1491.6594    469.26663    349.59443    204.33681     36976.26 
   95300    302.06437   -1495.9428    479.78524    347.04271   -221.01581     36976.26 
   95400    298.42487    -1455.014     489.3467     381.1081   -600.29149     36976.26 
   95500     307.5298   -1459.6501    490.31258    418.52803   -678.37459     36976.26 
   95600    295.60737   -1423.8632     491.7538    401.95081    -95.22732     36976.26 
   95700    300.35086   -1509.0583    484.86052    331.26952    482.56785     36976.26 
   95800    300.07853   -1477.6089    481.37095    358.00042    57.613682     36976.26 
   95900    294.24326   -1452.0607    487.90097    363.74435    495.05275     36976.26 
   96000    300.65433    -1481.802     463.9224    338.95727    636.92728     36976.26 
   96100     299.0472   -1482.7098    453.94357    320.81778    538.37613     36976.26 
   96200    306.66772   -1448.5373    475.38061    410.81831   -35.927092     36976.26 
   96300    313.84933   -1419.6112    509.36401    506.13803   -167.27249     36976.26 
   96400    302.60897   -1460.4994    485.43357    390.59225   -375.10333     36976.26 
   96500    305.89518    -1445.118    488.11477    423.48534    697.78382     36976.26 
   96600    304.11688   -1430.6938    482.73191     424.5013   -124.68542     36976.26 
   96700    293.92238   -1435.0361    503.28338    394.70319    243.79874     36976.26 
   96800     308.5742   -1466.7257    477.63557    403.48871    566.10348     36976.26 
   96900    307.42358   -1468.1113    482.93012    402.20493    552.01163     36976.26 
   97000    306.19138   -1474.6302    467.03506     374.2302    310.20308     36976.26 
   97100    300.58888   -1480.1939    517.98635    394.33395    128.69226     36976.26 
   97200    301.82989   -1445.2818    475.61751    392.47784    489.37464     36976.26 
   97300    294.80294   -1440.0297    508.97148    399.37169    554.32637     36976.26 
   97400    298.76266   -1436.1234    493.55605    405.73252    296.67595     36976.26 
   97500    295.43249   -1492.1346    474.20239    315.33878   -493.14679     36976.26 
   97600      308.829   -1452.4301    502.16193    443.46055    397.08695     36976.26 
   97700    304.07271   -1465.6289    505.46374    412.09875    212.17667     36976.26 
   97800    304.42868   -1450.8329    486.06639    409.10379    309.24918     36976.26 
   97900    300.45753   -1437.9755    477.06188    395.03514    354.55346     36976.26 
   98000    301.70795    -1460.813    514.50283    415.28162    111.50018     36976.26 
   98100    299.61264   -1440.6101    528.13684    439.66251    333.91726     36976.26 
   98200    297.66418   -1450.8495    512.00392    404.49692     854.7387     36976.26 
   98300    297.82978   -1484.1243    479.55456    339.52014    510.24866     36976.26 
   98400    291.99035   -1463.2551    497.14168    351.62344    823.32654     36976.26 
   98500    290.59622     -1469.29    503.95652    346.11167    377.53203     36976.26 
   98600    291.92381   -1454.0152    497.50752    360.92881   -43.442731     36976.26 
   98700    305.67142   -1471.2186    510.36262    418.62273   -274.80717     36976.26 
   98800      294.071   -1463.1068    486.57931    350.59923    57.155654     36976.26 
   98900    300.43448   -1479.6398     483.8259    360.03086   -14.560762     36976.26 
   99000    303.67915   -1435.5691    520.46857     455.3872   -655.89687     36976.26 
   99100    310.47139   -1434.3257    468.20212    435.01722   -31.436294     36976.26 
   99200    298.35277   -1445.7652    496.81388    397.49875   -259.79739     36976.26 
   99300    305.05767   -1458.6569    460.31953    378.37155    567.93877     36976.26 
   99400    295.21511   -1452.4024    503.21111    383.09868    -701.2248     36976.26 
   99500    307.00566      -1438.1    471.58624    418.98637    -205.0299     36976.26 
   99600    290.22748   -1496.3223    477.52919    290.98798   -178.94327     36976.26 
   99700     301.6815   -1494.9237    515.21788    381.76657    277.32314     36976.26 
   99800    294.46632   -1470.8299    475.93069    334.01157   -380.37726     36976.26 
   99900     296.6331   -1480.5564    475.30289    333.43579   -304.79492     36976.26 
  100000    292.07494   -1482.4613    500.89839    336.55562   -394.87814     36976.26 
  100100    303.54463   -1465.6167     487.1598    391.42375     42.08024     36976.26 
  100200     298.8283   -1468.5422    471.12388    351.17775    182.61559     36976.26 
  100300    272.89422   -1482.0662    546.09444    295.58522   -275.87219     36976.26 
  100400    300.14321   -1483.3142     460.5821    331.79809   -494.29954     36976.26 
  100500    304.10521   -1464.2884    485.34286    393.46502   -246.00459     36976.26 
  100600    303.75292   -1468.4958    471.33457     373.6594   -628.54658     36976.26 
  100700    298.70107   -1444.3644    483.18876    386.84625   -1063.1863     36976.26 
  100800    307.88508   -1454.0249    472.33017    407.77412    33.998981     36976.26 
  100900     307.3108   -1488.0387    468.09528    366.93375   -569.18661     36976.26 
  101000    298.75085   -1492.3219     477.8056    333.73023   -162.77802     36976.26 
  101100    296.01804   -1499.0577    488.13258     324.9884    222.14839     36976.26 
  101200    291.78414   -1476.6349    476.56005    316.73139    461.33532     36976.26 
  101300    289.01903   -1435.7686    494.22496    362.78371    365.71256     36976.26 
  101400    296.77491   -1411.9772    486.97455    414.32664    971.10211     36976.26 
  101500    296.07731   -1448.0675    499.07407    387.18762    248.58931     36976.26 
  101600    294.91877    -1448.785    481.01324    363.18083    160.37406     36976.26 
  101700    294.58161   -1474.5253    497.61524    352.52094    391.25235     36976.26 
  101800    308.28496   -1453.8772    478.91718    416.31351    727.13511     36976.26 
  101900    300.14863   -1436.1147     493.9584    412.39842    957.67432     36976.26 
  102000    294.58529   -1449.7976    480.71348    360.36348    557.40459     36976.26 
  102100    297.51576   -1441.9571    494.91082    395.62641    476.13288     36976.26 
  102200    300.27075   -1429.0973    477.27012    403.27867   -4.8988255     36976.26 
  102300    304.21622   -1478.9397    463.94682    357.91861   -340.93543     36976.26 
  102400    303.72011   -1469.5375    492.55391      393.689    6.4677129     36976.26 
  102500    299.39291   -1493.9795    486.36933    343.53396   -533.16083     36976.26 
  102600    296.85308     -1480.88    464.72718    323.52917   -74.167128     36976.26 
  102700    298.04695   -1446.4193    469.03534    367.68594    244.02184     36976.26 
  102800    296.27371   -1478.2481    488.71897    347.53823    63.712021     36976.26 
  102900    308.39696   -1485.2546    503.51844    410.04281   -416.28871     36976.26 
  103000        303.6   -1492.5644     457.7262    335.29231   -570.05499     36976.26 
  103100    295.16901   -1468.6365    493.39862    356.84399    372.92013     36976.26 
  103200    296.54592   -1486.5994    489.91703    341.61347    3.3481403     36976.26 
  103300    303.34759     -1480.08    470.24535     359.1568   -399.14751     36976.26 
  103400    301.87214    -1519.694    481.06885    323.70762   -171.67016     36976.26 
  103500    299.59471   -1532.3921    486.02053    305.68331   -751.62922     36976.26 
  103600    297.25619   -1485.3263    480.59844    336.77337   -189.93584     36976.26 
  103700     298.0439   -1499.4173    491.94188    337.58071    133.40355     36976.26 
  103800    307.17664   -1533.5396    512.68694     365.4191     734.4128     36976.26 
  103900    297.80141   -1485.4718    460.12057    318.61064    789.05383     36976.26 
  104000    291.33223   -1451.3982    510.06246    373.43097    468.36236     36976.26 
  104100    295.83389   -1424.9945    470.73807    380.82599     413.1678     36976.26 
  104200    297.11798   -1484.4528    471.07968    327.50443    477.98254     36976.26 
  104300    301.07402   -1475.8531    487.26727    370.14509    786.46648     36976.26 
  104400    293.61274   -1488.7732    470.60455    306.88987    722.44915     36976.26 
  104500    304.67677    -1489.422    490.47844    376.04632    717.75024     36976.26 
  104600    305.41007   -1489.9312    480.36799    368.73611   -84.403429     36976.26 
  104700    294.09853   -1492.3735    473.76076    308.63817    550.75048     36976.26 
  104800    300.73546   -1481.3729    481.01267    356.84278   -126.97456     36976.26 
  104900    292.73717   -1470.1741    467.04115    317.97422   -408.21574     36976.26 
  105000    309.23753   -1480.8519    480.05095    394.77149   -580.10568     36976.26 
  105100    298.63804   -1456.9584    481.22841    372.00745   -626.44644     36976.26 
  105200    308.10455   -1525.9233    452.78032    317.31634   -745.72947     36976.26 
  105300    296.16689   -1478.3067    480.71764    338.99621   -341.56136     36976.26 
  105400    291.58539   -1455.7454    490.67252    350.83634   -451.69184     36976.26 
  105500    289.47872   -1439.0213    493.45211    360.83276   -493.32636     36976.26 
  105600    308.55523   -1476.8262    487.92821    403.59529   -447.55599     36976.26 
  105700    305.49987   -1521.1956    477.77094    335.27986    128.73591     36976.26 
  105800    305.53103   -1541.8846    464.40361    301.36423    213.73834     36976.26 
  105900    307.65608   -1507.4091    437.42737    318.45362    277.85269     36976.26 
  106000    304.10587   -1481.0074    477.74329    369.14936    757.87488     36976.26 
  106100     291.2047   -1501.4339    476.97074    289.72804     630.7472     36976.26 
  106200    306.84659   -1507.7673    466.10515    343.12007    513.15697     36976.26 
  106300    302.99194   -1509.9139    477.11692    334.58944    731.81547     36976.26 
  106400    307.84264   -1512.4767    478.28146    355.08211     971.6351     36976.26 
  106500    296.24893   -1545.4465    486.03578    277.54484    482.05301     36976.26 
  106600     304.5836   -1540.7628    478.05961    311.86627     775.1721     36976.26 
  106700    307.49687   -1525.7927    486.28504    348.20921    508.60846     36976.26 
  106800    303.42751   -1464.4809    488.21349    393.08463     83.40544     36976.26 
  106900    301.82842   -1484.6177    478.25861    355.77646   -268.78747     36976.26 
  107000    297.84122   -1494.6979    469.01736    318.46092   -134.75233     36976.26 
  107100    303.68322   -1520.8063     461.6591    311.35894    527.49659     36976.26 
  107200    299.71053   -1522.1637    442.25046    272.66433    505.09419     36976.26 
  107300    304.45621   -1504.8519    461.18448    330.32711    602.95068     36976.26 
  107400    293.13392   -1478.8876    479.43431    323.44433    447.63034     36976.26 
  107500    299.06965   -1482.9289    482.27957    349.03592    315.50738     36976.26 
  107600    294.77911   -1494.0797    489.28986    325.53245   -306.78411     36976.26 
  107700    303.92428    -1510.569    478.55899    339.58399    543.10142     36976.26 
  107800    304.14859   -1491.6262    455.13505    336.11516    425.84216     36976.26 
  107900    298.82149   -1501.5303     484.5902    331.62525    353.91956     36976.26 
  108000    296.20751   -1464.3981    494.40446    366.77493    190.44571     36976.26 
  108100    304.78585   -1461.8378    485.83903    399.48342    591.79766     36976.26 
  108200    301.05294   -1518.0321    450.66914    291.27286   -318.86455     36976.26 
  108300    306.05998   -1450.3417     477.0617    407.95232    34.284781     36976.26 
  108400    294.48896   -1483.2109    471.43864    317.24067   -472.80245     36976.26 
  108500    295.95274   -1454.9905    457.94173     338.5701   -29.771824     36976.26 
  108600     300.7649   -1469.1734     484.4873    372.64982    277.74897     36976.26 
  108700    301.19751   -1508.3062    490.86768    341.84968    65.444951     36976.26 
  108800    297.70824   -1492.6117    460.16611    311.09575     690.4573     36976.26 
  108900    301.00701   -1521.9345    490.88347    327.37748    2.2321738     36976.26 
  109000    299.91906   -1525.8311    447.78326    275.47076    187.46284     36976.26 
  109100    298.54446   -1475.6511    468.77961    340.44361     203.0627     36976.26 
  109200    314.43106   -1436.3685    481.12637    463.76836    520.44481     36976.26 
  109300    308.92876   -1475.4494    490.40754    409.13703    775.19751     36976.26 
  109400    263.61939   -1492.4523    460.42004    157.66797    1226.1384     36976.26 
  109500    307.40164   -1478.6304    494.80718    403.46393    1086.6212     36976.26 
  109600    306.72366   -1504.0282    488.73675    368.93605    779.02057     36976.26 
  109700    303.56145   -1504.5651    481.53139    346.92286    288.86475     36976.26 
  109800     294.5642   -1519.1825    457.97682    268.14682   -193.06301     36976.26 
  109900    303.14459   -1509.5354     453.5486    312.08846    252.60071     36976.26 
  110000    303.29737   -1466.8597    470.91067    372.81573   -221.91229     36976.26 
  110100    298.00398   -1499.7705    477.87392    322.97941   -51.269078     36976.26 
  110200    291.99699   -1556.2316    500.28159     261.8168    86.525004     36976.26 
  110300    290.91661    -1506.945    470.99959    276.94567    82.374319     36976.26 
  110400    309.14216   -1517.6049     467.7914    345.32854   -226.16359     36976.26 
  110500    307.54386   -1497.8404    499.03253    389.12107   -262.56573     36976.26 
  110600     300.4177    -1473.332    482.62827    365.06521   -612.81971     36976.26 
  110700    292.31304   -1459.2806    478.54171    338.45418   -285.00406     36976.26 
  110800    299.93269   -1441.8119    490.34213    402.11035   -290.45329     36976.26 
  110900    305.03407   -1492.5221    474.44364    358.52399   -580.36992     36976.26 
  111000    293.52357   -1476.8226    470.48778    318.32134   -631.56436     36976.26 
  111100    292.45502   -1427.2905    485.30863    377.85194    -302.2194     36976.26 
  111200    299.42369    -1437.564     472.4071    386.12616   -323.31716     36976.26 
  111300    294.30053   -1455.7056     491.7582    364.21513   -462.25273     36976.26 
  111400    293.42263   -1443.3214    504.94344    385.82268   -610.55111     36976.26 
  111500    302.34521   -1451.6428    478.92138    391.74628    195.16846     36976.26 
  111600    306.89764   -1453.6159    466.97995    398.37661    -12.56998     36976.26 
  111700    291.92107   -1477.2116    470.23965     310.4522   -265.40814     36976.26 
  111800    304.39943   -1467.6082    481.03823    387.16837    128.22997     36976.26 
  111900     308.8511     -1465.22    442.17543    370.78389     243.2655     36976.26 
  112000    307.36619   -1435.8182    462.43621    413.74513   -1017.6352     36976.26 
  112100    306.48171   -1413.2004    456.50498    426.44016   -473.02091     36976.26 
  112200    308.37674    -1442.451    476.60433      425.841    79.410884     36976.26 
  112300    298.05102    -1477.755     483.8998    351.23305    132.50527     36976.26 
  112400    303.10835   -1467.2674    472.64819    373.29258    512.81808     36976.26 
  112500    300.38574   -1485.3963    482.28034    352.50885    140.07633     36976.26 
  112600     299.1265   -1459.2707    469.44196    360.11308    100.31611     36976.26 
  112700    302.68042   -1469.2769    481.52489    378.22848   -161.64032     36976.26 
  112800    305.67353   -1482.2185    466.26313    363.53284    160.26626     36976.26 
  112900    310.15651   -1498.0144    456.84854    358.55389   -320.64637     36976.26 
  113000    292.06404   -1432.5779     471.7676    357.25906   -8.1622448     36976.26 
  113100    300.84947   -1474.9016    463.96721    346.78312    193.21947     36976.26 
  113200    303.86699   -1442.5861    474.44048     403.1898    20.471911     36976.26 
  113300     306.2292   -1448.5955    482.44457    415.84504   -305.14277     36976.26 
  113400    302.83674   -1452.6705    461.91851    375.93393   -105.98333     36976.26 
  113500    299.00914   -1477.9911    462.93972    334.36089   -93.864561     36976.26 
  113600    290.00307   -1455.2267     480.3687    333.91033     363.8909     36976.26 
  113700    296.87636   -1447.5764    479.23806    371.44875   -400.60192     36976.26 
  113800    289.08362   -1460.7623    478.22226    322.07884   -35.961658     36976.26 
  113900    296.83142   -1481.7999    460.95328    318.73767   -20.356451     36976.26 
  114000    296.91354   -1474.6481    465.98988    331.29666   -60.722272     36976.26 
  114100    298.80323   -1447.0172    475.09309    376.55884    -301.3427     36976.26 
  114200    293.63479   -1506.7595    454.13738    272.53601   -527.03163     36976.26 
  114300    294.19457   -1463.8148    460.86326    324.73278   -223.49875     36976.26 
  114400    299.96238   -1456.4983    456.66698    353.88283   -305.97598     36976.26 
  114500    296.32423    -1462.429     473.8062    348.67259   -655.06275     36976.26 
  114600    301.33139   -1440.5465     464.5707    383.91659   -714.49522     36976.26 
  114700    297.03918   -1433.7592    450.36213    357.12487   -452.68742     36976.26 
  114800    288.81623   -1448.0137    463.97832    319.37674   -158.96629     36976.26 
  114900    288.36601   -1431.6798    505.63953    375.34005    97.428213     36976.26 
  115000    296.87495   -1432.7604    485.25606    392.27641    1014.9263     36976.26 
  115100    299.27412   -1430.0138    481.91911    402.51335     550.0224     36976.26 
  115200    285.81031   -1488.6076     471.7043    272.94331    315.86557     36976.26 
  115300    288.13352    -1496.805    491.36678    294.89296    103.83843     36976.26 
  115400    303.94757     -1493.42    479.48326    357.76235    505.19093     36976.26 
  115500    304.29475   -1466.5598    470.63328    377.33937    922.84187     36976.26 
  115600    302.86412   -1485.8639    459.91695    340.86259     582.8143     36976.26 
  115700    293.91769   -1481.1576    481.63371    326.91085    633.27752     36976.26 
  115800    305.13828   -1479.9205    467.32323    364.47545    998.12089     36976.26 
  115900    302.98834   -1466.8107     479.2886    379.84811    471.64728     36976.26 
  116000      309.367   -1438.9564    485.51779    442.71813   -338.76803     36976.26 
  116100    291.33092   -1446.6879    439.47806    307.55099    116.27115     36976.26 
  116200    305.16594   -1507.7701    492.05106    361.47851   -236.58232     36976.26 
  116300    300.04512   -1495.8566    467.60008    325.83105   -180.24433     36976.26 
  116400     293.3718   -1481.9762    470.81936    312.81441   -67.534883     36976.26 
  116500     299.5523   -1500.3228    478.32722    329.86789    475.16972     36976.26 
  116600    298.65361    -1507.989    481.01209    320.83087    11.918551     36976.26 
  116700    300.25468   -1489.4882    463.24967    328.79475    280.73567     36976.26 
  116800    300.98027   -1517.9104    479.87181     320.2692    -34.14974     36976.26 
  116900    301.56038   -1502.7037    475.84769    334.06987    117.95696     36976.26 
  117000    294.26095   -1485.8366    479.48447    321.63178   -175.93597     36976.26 
  117100    301.23064   -1481.3726    455.15494    333.22006    29.232762     36976.26 
  117200    309.77076   -1481.6582    496.00927    412.32994    6.9971755     36976.26 
  117300    299.08033   -1483.3114    474.05747    340.47958      579.317     36976.26 
  117400    301.84218   -1470.0169    458.31957    350.50022    483.82722     36976.26 
  117500     305.1746    -1482.125     464.0485    359.16015     431.0932     36976.26 
  117600    304.56346   -1489.2659    466.71544    351.92811    373.64709     36976.26 
  117700     305.6442   -1504.2318    479.78818    354.91228     862.3642     36976.26 
  117800    304.85172   -1541.6873    446.65541    280.74755    1020.2931     36976.26 
  117900    289.43796    -1480.266    477.37534    303.32739    396.90693     36976.26 
  118000     305.2379   -1486.0872    496.42383    387.85894    737.93327     36976.26 
  118100    299.82382   -1431.5658    456.27891    377.80196    683.36049     36976.26 
  118200     291.2296   -1425.7188    475.72355    364.30836    102.25575     36976.26 
  118300    303.19928   -1419.3548    490.87801    439.84533    211.22574     36976.26 
  118400    294.34422   -1460.4224    466.64357    334.58084    -124.8452     36976.26 
  118500    302.60709    -1461.951    443.46166    347.16031    125.23732     36976.26 
  118600     294.8307   -1427.7851      473.693    376.46304    6.4935626     36976.26 
  118700    302.70661   -1415.9309    481.46658    431.63443    106.93003     36976.26 
  118800    299.18557   -1437.4952    472.44856    385.16181    28.419799     36976.26 
  118900     295.4369   -1400.7476    469.58441     402.1277    432.38772     36976.26 
  119000    301.29839   -1431.4012    481.79735    410.13961    167.02171     36976.26 
  119100     295.9048   -1442.2892    497.52363    390.63693    273.39563     36976.26 
  119200    294.86541   -1481.1162    474.92084    324.51643    892.56425     36976.26 
  119300    306.83553    -1446.613    469.36066    407.47998    678.64457     36976.26 
  119400    291.91107   -1464.9708    473.81597    326.22421    290.32559     36976.26 
  119500    309.61003   -1422.7049      482.703    457.25153    463.01425     36976.26 
  119600    296.15956   -1455.6027    480.13238    361.08192    100.38448     36976.26 
  119700    294.72436   -1444.4856    478.56297    364.15262     170.2717     36976.26 
  119800    307.71125   -1481.5795    451.55604    358.66089    720.66333     36976.26 
  119900    303.24195   -1456.4061     480.5683    392.67686    1259.9318     36976.26 
  120000    290.87597   -1475.5036    493.45858    330.66267    289.09232     36976.26 
  120100    296.24427   -1495.3599    467.46966    309.04429     44.02084     36976.26 
  120200    302.89964    -1483.078    475.14955    359.04138     68.75362     36976.26 
  120300    304.78746   -1442.0695    465.99015    399.41014    148.79979     36976.26 
  120400    297.37478   -1473.2136    468.86248    337.68531    73.464201     36976.26 
  120500    301.90237   -1481.0032    481.07367    362.53967    137.67182     36976.26 
  120600    300.47789   -1423.6797    495.72585    428.08679   -195.49179     36976.26 
  120700    291.56818   -1427.5179    466.20632    354.51994   -292.26499     36976.26 
  120800     306.8078   -1447.9959    471.02305    407.63434   -356.64255     36976.26 
  120900    299.71575   -1418.0479    485.81281    420.36597   -178.45582     36976.26 
  121000    289.32939    -1456.826    475.75192      324.654   -509.25674     36976.26 
  121100    297.26365   -1429.6782    478.82968    390.68638   -433.12447     36976.26 
  121200     300.0102   -1403.9492    483.45419    433.43495   -566.73885     36976.26 
  121300    293.25561   -1477.2639    474.69818    320.88119   -463.78801     36976.26 
  121400    312.43084   -1459.3106    484.32035    434.99337   -316.73359     36976.26 
  121500    301.71924     -1437.25    444.41894    368.81171   -123.51982     36976.26 
  121600    300.46111   -1415.8652    477.17527    417.27497   -134.54897     36976.26 
  121700    304.67972     -1421.49     476.3007    429.81394   -263.52237     36976.26 
  121800    296.02515   -1436.9722    466.94841    365.92188   -99.882979     36976.26 
  121900    293.21017   -1449.6889    502.19929    375.75222    399.05115     36976.26 
  122000    303.17041   -1460.3803    482.18022    389.99178   -76.496222     36976.26 
  122100    292.92507   -1446.7907    479.11035    354.27478   -526.72874     36976.26 
  122200     302.7861   -1439.8154    486.84085    413.48293    -115.5607     36976.26 
  122300     300.6408   -1444.0232    504.32064    417.07325    196.96465     36976.26 
  122400     298.8762   -1454.8421    465.28902    359.25915     14.74127     36976.26 
  122500    304.89194   -1482.9306    442.77909    335.80944    534.70253     36976.26 
  122600    298.60653   -1448.3198    504.55233    403.82782   -171.58274     36976.26 
  122700     299.8877   -1458.2482     474.7134    369.84229    234.74357     36976.26 
  122800    304.83307   -1446.2027    497.50165    426.99431    200.45722     36976.26 
  122900    317.59671   -1455.9969    494.04152    471.34161    603.85445     36976.26 
  123000    298.70078    -1433.978    473.85999     387.9026    384.96937     36976.26 
  123100    294.91785   -1458.2215    505.55395    378.28083   -8.5319632     36976.26 
  123200    307.84944   -1478.6045    482.55865    393.26212   -126.44907     36976.26 
  123300     302.4679   -1459.2855    460.19005    365.92597    684.02169     36976.26 
  123400    302.08079   -1454.2458    476.73843    385.76707    77.905767     36976.26 
  123500     301.9149   -1436.0232    491.97284    418.47546   -137.98373     36976.26 
  123600    292.83936   -1454.0355    519.98629     387.5191    313.26651     36976.26 
  123700     293.3562   -1455.5414     492.8984    361.25775    501.44056     36976.26 
  123800     314.6926   -1460.1744    496.45795    456.47441   -27.439303     36976.26 
  123900     314.0505   -1479.4995     450.8068    388.60044     229.5315     36976.26 
  124000    305.50714   -1470.9264    476.51019    384.32115    364.37791     36976.26 
  124100    310.33662   -1476.2187      496.858    421.17177    626.35951     36976.26 
  124200    291.40346   -1502.5103     468.1024    280.68025     25.63735     36976.26 
  124300    305.76541    -1461.567    501.14845    419.48433   -383.28211     36976.26 
  124400    297.49817    -1463.437    464.32305    343.47938   -455.70771     36976.26 
  124500    288.63798    -1482.919    487.85618    307.54494   -1378.8444     36976.26 
  124600     305.5978   -1487.9077    495.77594    387.01472   -785.73682     36976.26 
  124700    297.81123   -1498.7962    482.29767    327.50761   -211.32875     36976.26 
  124800    312.33937   -1481.9724    495.10185     422.7003    521.70788     36976.26 
  124900    302.79397   -1439.2578    486.12466    413.35982    16.058742     36976.26 
  125000    304.09154    -1491.391    468.15374    349.11159   -320.26113     36976.26 
  125100    304.12138    -1453.947    492.45146    410.98799   -277.28878     36976.26 
  125200    311.02283   -1467.9588    471.07507    406.74558    -5.086395     36976.26 
  125300    316.59997   -1441.3685    511.36815    498.79835    473.65065     36976.26 
  125400    302.65678   -1393.8077    484.95321    457.01938    121.92123     36976.26 
  125500    303.23569   -1441.6635    491.41869    418.24161     87.33287     36976.26 
  125600    297.74045   -1440.2609    515.34303    418.76886    -35.45653     36976.26 
  125700    292.69516   -1439.7691    473.06562    354.21405    593.63231     36976.26 
  125800    295.27781   -1452.2346    495.71284    376.05115    168.98393     36976.26 
  125900    306.83668   -1367.8581    488.16983    505.04924    65.277547     36976.26 
  126000    310.94633   -1446.0158    467.33347    424.60178    2.6385993     36976.26 
  126100    301.00493   -1450.5995    468.58161    376.40128   -144.36893     36976.26 
  126200     308.4397   -1456.7747    468.57491      403.772   -460.47042     36976.26 
  126300    303.91748   -1460.9945    474.66664    385.23549    -256.5247     36976.26 
  126400    307.19077   -1476.1277    479.59484    389.80262   -459.05969     36976.26 
  126500    297.20906   -1440.1139     501.9807    403.15534    80.461011     36976.26 
  126600    293.26319   -1433.0365    468.12348    358.56805   -327.43451     36976.26 
  126700    297.88723   -1440.1749    500.41853    404.59272   -432.23707     36976.26 
  126800    300.15274   -1403.7149    486.31741    437.17576   -287.43631     36976.26 
  126900    305.71947   -1432.6133    470.29517     417.3775    136.19527     36976.26 
  127000    308.67697    -1431.707    475.78189    437.11748   -447.78276     36976.26 
  127100    311.27566   -1426.0373    500.24426    478.97736   -756.64665     36976.26 
  127200    308.68744   -1413.6187    490.10838    469.57961   -280.36752     36976.26 
  127300    303.29437   -1445.1884    494.45312    418.01595    166.35452     36976.26 
  127400    306.74787    -1445.001    480.45716    419.79286    520.29434     36976.26 
  127500    299.37264   -1447.8724    490.10256    393.28281    586.49864     36976.26 
  127600    291.64275   -1485.6977    503.24007    333.71052    563.76235     36976.26 
  127700     300.4528   -1452.9815    461.14101    364.08687    109.26936     36976.26 
  127800    306.31186   -1444.5915    493.47092    431.24841    754.16625     36976.26 
  127900    301.90785   -1454.6621    493.11299    400.94486    470.32483     36976.26 
  128000    293.59331   -1473.4002    493.39266    344.96337     1016.073     36976.26 
  128100    287.33048   -1474.6644    475.51022    297.55291    579.31585     36976.26 
  128200    309.10826   -1460.5551    503.87387    438.30778     1179.629     36976.26 
  128300    301.93432   -1445.4889    476.21206    393.33662    1027.3373     36976.26 
  128400    292.60682   -1448.5053    486.86419    358.87778    832.14573     36976.26 
  128500    291.19016   -1456.0659    499.94319     358.0029    330.20347     36976.26 
  128600    296.55739   -1466.9886    478.50941    349.86837   -222.21738     36976.26 
  128700    291.29174   -1464.7238    452.09336    301.95358   -338.63164     36976.26 
  128800    298.71823    -1461.898    489.66242    375.86379   -873.69408     36976.26 
  128900     300.2693   -1485.2359    477.43131    347.29468   -368.35258     36976.26 
  129000    292.54963   -1505.3403    463.93965    278.86013   -377.91957     36976.26 
  129100    311.48527   -1489.0014    484.07649     400.7914    -215.9155     36976.26 
  129200    288.87548   -1529.4183    481.68259    255.94389    137.74723     36976.26 
  129300     304.2419   -1501.3634    491.54604    363.21002    481.35404     36976.26 
  129400    296.12029   -1495.0782    506.92695     348.2237   -185.65459     36976.26 
  129500    290.09532   -1510.5346    474.60561    273.25562   -209.24598     36976.26 
  129600    309.16072   -1472.6643    497.02412    419.58557    327.71238     36976.26 
  129700    296.27742   -1473.8256    466.01654    329.27508    182.44712     36976.26 
  129800     291.7904   -1416.0396    508.29501    409.08981    33.231144     36976.26 
  129900    291.58238   -1408.6645    509.71767    416.94881   -82.092224     36976.26 
  130000     303.3347   -1417.7442    508.76866     459.9577    530.05118     36976.26 
  130100    297.84185    -1421.579    468.15169    390.71705    209.53564     36976.26 
  130200    303.19067   -1444.5109    463.30258    387.07494    417.73655     36976.26 
  130300    298.36576   -1452.2031    476.21913    370.52465   -105.43112     36976.26 
  130400    300.22602   -1482.6593    502.46353    374.70813    32.580978     36976.26 
  130500    309.92392   -1476.6533    476.18713    398.20387    781.20749     36976.26 
  130600    306.29446   -1488.0853    444.96623    339.17144    245.26869     36976.26 
  130700    305.72182   -1456.8913    506.12012    428.93498   -43.039827     36976.26 
  130800     300.9246   -1457.8416    490.04657    390.26152    280.99229     36976.26 
  130900    297.03255   -1511.7554    471.11455    299.85111     20.23451     36976.26 
  131000    297.36064   -1480.2729    472.17977    333.87948    116.98931     36976.26 
  131100    295.86639   -1433.0729    504.36482    406.52108    690.39523     36976.26 
  131200    303.40423   -1438.5529    494.15346    424.84759    316.37301     36976.26 
  131300    295.61193   -1490.1706    487.03443    330.94467    -51.64673     36976.26 
  131400    308.51415   -1492.9303    482.46305    381.84062   -396.01151     36976.26 
  131500     300.9916   -1425.7585    525.27337     457.8738   -305.95129     36976.26 
  131600    297.96971   -1450.5752    460.20006    354.34618    -524.3689     36976.26 
  131700    298.44982   -1469.8292    494.54645    371.60524   -557.91366     36976.26 
  131800    297.76289   -1459.9413    468.25818    352.10479   -343.07267     36976.26 
  131900    301.38938   -1435.7284    464.37028    388.79603   -381.28787     36976.26 
  132000    308.10857   -1460.2742    502.67476    432.87803   -19.378575     36976.26 
  132100    303.99977   -1484.0098    482.02017    369.94504    612.07955     36976.26 
  132200    308.57809     -1447.23    504.80288    450.16924    555.02149     36976.26 
  132300    297.20016   -1457.3395    508.59517    392.50409    465.34343     36976.26 
  132400    298.97713    -1443.046    449.14397    355.36577    833.82493     36976.26 
  132500    310.04494   -1441.6218    503.61406    461.20846    331.61613     36976.26 
  132600    307.38165    -1465.058    471.69614    393.83508    218.88815     36976.26 
  132700    303.03441   -1435.8679    478.34934    410.05951    284.52857     36976.26 
  132800    290.12746   -1445.7885    502.06632    365.60747   -179.54319     36976.26 
  132900    291.62079   -1448.9311     493.1042     360.2421    292.17154     36976.26 
  133000    291.51371   -1479.9655     509.8416    345.46183   -571.22784     36976.26 
  133100    303.92889    -1396.137    480.68676    456.16456    6.1623887     36976.26 
  133200    304.51929   -1412.7048    487.84566    449.42007   -498.14286     36976.26 
  133300    297.91616   -1379.8404    503.06661    467.70582   -512.81945     36976.26 
  133400    293.29554   -1359.6838    500.18981    464.13309    429.78938     36976.26 
  133500    291.71196   -1418.0403    501.33853    399.77861    152.78782     36976.26 
  133600    297.85863   -1418.8636    497.42847    422.78491   -54.952437     36976.26 
  133700    301.40813   -1440.8978    492.70473    412.04565   -79.992838     36976.26 
  133800    299.33413   -1451.3724    491.20722    390.71371   -276.93513     36976.26 
  133900     293.4221   -1443.4985    474.46984    355.16955   -395.70749     36976.26 
  134000    299.15212   -1490.3437    463.85977    323.57359   -33.669772     36976.26 
  134100    298.57951   -1491.7875    479.62422    335.31003   -33.878223     36976.26 
  134200     291.2969   -1470.9266     498.9322    342.61289   -143.78993     36976.26 
  134300    296.67196   -1484.7036    489.27751    343.43859    -143.4892     36976.26 
  134400    306.08424    -1480.786    493.77763     394.3334   -107.80515     36976.26 
  134500    301.24775   -1470.3329    477.90647    367.08851   -470.83086     36976.26 
  134600    289.21664   -1469.3265    489.71347     325.6062   -488.09961     36976.26 
  134700    297.65552    -1490.459    463.40475     316.2492   -608.29471     36976.26 
  134800    308.62876   -1488.1988    466.11778    370.74406   -1136.2134     36976.26 
  134900    301.40982   -1503.0355    483.20397    340.41478   -123.14049     36976.26 
  135000    290.72801    -1452.239    483.63977    343.44071   -446.37872     36976.26 
  135100    288.95845   -1461.3806    494.94251    337.61596   -322.41535     36976.26 
  135200    292.81432   -1454.1835    494.25706    361.52888    76.537598     36976.26 
  135300     303.2533   -1423.7502    492.75802    437.57371    773.74346     36976.26 
  135400     298.1496   -1448.4187    479.26265    376.37713    295.30901     36976.26 
  135500    303.09903   -1445.9721    481.06506    402.96261    790.83365     36976.26 
  135600    293.53998   -1462.6438    496.31453    358.40091    1517.2955     36976.26 
  135700    289.55499   -1472.6255    505.53542    339.65609    801.12516     36976.26 
  135800    302.50497   -1463.8233    495.87528    397.24075    1421.0301     36976.26 
  135900    291.87535    -1482.535    509.79362    344.47642    1197.1299     36976.26 
  136000    304.25981   -1468.0779    510.73906    415.76939    790.02018     36976.26 
  136100    313.16934   -1442.8562    483.93209    454.39238    784.53491     36976.26 
  136200    304.90896   -1458.1177    487.13598    405.05607    421.10175     36976.26 
  136300     289.1932   -1435.1154    496.15918    366.15723   -336.42953     36976.26 
  136400    297.12163   -1448.5442    473.14684    365.49666    -395.3469     36976.26 
  136500    299.13278   -1431.3979    490.38625    408.95861   -51.307398     36976.26 
  136600    298.53356   -1407.7037    489.51764    429.07993   -164.84041     36976.26 
  136700    291.64706   -1461.5099    498.22494    352.90259   -153.99993     36976.26 
  136800    304.79272   -1479.6118    473.63631    369.53778    -522.4303     36976.26 
  136900    292.54913   -1498.9107    476.50549    297.85331   -414.48971     36976.26 
  137000    292.90956   -1456.7986     474.9628    340.04935   -111.08763     36976.26 
  137100    305.03832   -1501.1938    508.18104    383.60882   -661.28875     36976.26 
  137200    294.27994   -1500.8624    490.70906    317.91626   -38.980484     36976.26 
  137300    295.67011   -1494.4634    492.90997    332.78995    303.29358     36976.26 
  137400     286.0805   -1532.4736    478.39255    236.98494    68.060927     36976.26 
  137500    289.03906   -1522.9225    485.41443    266.90967    568.09864     36976.26 
  137600    293.12745   -1499.8355    481.39603    304.42898    443.13387     36976.26 
  137700    305.79693    -1456.503    487.55471    411.09686    1016.2006     36976.26 
  137800     297.5302   -1468.0362    510.43009    385.13177    765.46304     36976.26 
  137900    313.40202    -1421.537    495.93174    488.76126    101.44961     36976.26 
  138000    296.01409   -1424.2772    482.57418    394.19271   -163.37255     36976.26 
  138100    295.19158    -1437.469    526.06985    420.78469    188.35812     36976.26 
  138200    289.07492   -1429.2056     483.6578     359.0318    162.30232     36976.26 
  138300    292.41932   -1447.7025    512.96649    384.93669    111.23907     36976.26 
  138400    298.77808   -1414.3345    475.21946    409.25444    173.27668     36976.26 
  138500    302.13058   -1473.3142    462.35665    352.54153   -92.760494     36976.26 
  138600    297.62817    -1489.189    494.68941    348.68034     49.92294     36976.26 
  138700    294.78598   -1432.0439    490.07835    388.38781     250.9397     36976.26 
  138800    296.53755   -1396.7161    504.89302    446.43502    -124.4285     36976.26 
  138900    299.06121   -1426.1913    481.08825    404.54414    61.612784     36976.26 
  139000    290.06006   -1467.3779    483.01137    324.65901    286.51709     36976.26 
  139100    294.48945   -1458.5106    516.75969    387.26417     157.1466     36976.26 
  139200    301.69084   -1467.0101    511.44699    405.95151    266.07853     36976.26 
  139300    298.43993   -1497.0356    500.54158    350.34939    244.57327     36976.26 
  139400    306.80062   -1448.8347    489.29227    425.03232    815.45231     36976.26 
  139500    299.94533   -1419.2566    473.86965    408.25023  -0.29670708     36976.26 
  139600    291.79915   -1435.1957    502.67914     384.3574    134.89707     36976.26 
  139700    299.34277   -1415.3716    507.21043    442.75673   -188.23567     36976.26 
  139800    290.84844   -1446.6463    508.86477    374.80192   -437.21579     36976.26 
  139900    297.40513   -1400.0325    512.89915    455.04002   -490.76483     36976.26 
  140000    291.71376   -1405.8876    500.47863    411.07964    79.079227     36976.26 
  140100    302.60798   -1422.1058    492.23247    435.78031    581.34197     36976.26 
  140200    298.58876   -1430.5558    535.02851    451.98779    512.22681     36976.26 
  140300    306.42902   -1472.9262    501.70624    411.67776    961.84947     36976.26 
  140400    307.16495   -1470.0772    478.78811     394.9298    296.14066     36976.26 
  140500     293.9953   -1504.9417    512.22642    334.06973    297.43605     36976.26 
  140600    296.57119   -1501.7855    489.44106    326.06538    403.39527     36976.26 
  140700    288.18352   -1481.1375    477.60106    297.02033     710.3692     36976.26 
  140800    300.38507   -1481.1642    482.79721    357.25471    583.56641     36976.26 
  140900     293.2774   -1519.4764    521.71681    325.78554    376.80684     36976.26 
  141000    302.90898   -1500.9667    493.85643     359.9017     346.9633     36976.26 
  141100    302.39106   -1475.5558    492.87999    381.99885    323.43848     36976.26 
  141200    294.83411     -1492.32    514.81515     353.0657   -125.69312     36976.26 
  141300    298.59651   -1471.2739    511.32868    387.60479   -63.881206     36976.26 
  141400    302.13187   -1474.0159    477.87316    367.36222   -291.56426     36976.26 
  141500    296.67119    -1464.175    468.32271    343.00887    33.360534     36976.26 
  141600     309.1168   -1501.3966    480.94227    374.57328   -354.89103     36976.26 
  141700    302.10791   -1505.2632     491.0636    349.19722   -145.05805     36976.26 
  141800    304.68775   -1495.3896    500.57219    380.22213   -3.5697376     36976.26 
  141900    309.01159   -1498.3795    480.97197    377.14526       411.92     36976.26 
  142000    298.74115   -1461.3927    511.12702    397.93718    566.10531     36976.26 
  142100    310.84848   -1505.2805    469.85555    367.41758    1295.6944     36976.26 
  142200     298.5666   -1495.3869    507.32693     359.3551    915.82534     36976.26 
  142300    310.13631   -1468.7554    496.21649    427.08969     1142.193     36976.26 
  142400     310.2979   -1507.0079    478.53185    371.88175    694.79502     36976.26 
  142500    303.61917   -1546.0773    461.22006    285.35984     292.0437     36976.26 
  142600    302.73592   -1526.0997    502.51109    342.64242    156.53571     36976.26 
  142700    300.91112   -1529.1323    469.21214    298.07561     43.53314     36976.26 
  142800     304.4969   -1539.3176    506.15097    341.01158    182.19612     36976.26 
  142900    292.87918   -1544.4452    489.07014    266.37298    562.39986     36976.26 
  143000    304.94836   -1522.6218    469.81736    323.41121    350.68681     36976.26 
  143100    293.28846   -1494.8152    500.20856     328.9885    233.18025     36976.26 
  143200    301.02579   -1515.1809    506.95747    350.28979   -130.13103     36976.26 
  143300    296.56555   -1524.1778    493.01221    307.21887   -172.06744     36976.26 
  143400    299.70364   -1517.5992    479.76751     314.7148   -263.60821     36976.26 
  143500    308.06939   -1491.5675    489.33864    388.07175   -532.74094     36976.26 
  143600     304.8713     -1501.87    485.81127    359.80912    51.972833     36976.26 
  143700    300.92416   -1510.1701    506.62201    354.50652    563.00512     36976.26 
  143800    307.35933   -1574.1189    493.29503     306.2723    23.468983     36976.26 
  143900    302.18884   -1552.8114    491.33937    302.29004    387.39146     36976.26 
  144000    300.12871   -1542.0268    512.06206    324.50008    263.40042     36976.26 
  144100    306.94268   -1521.4035    483.29769    347.11004   -543.43982     36976.26 
  144200    298.06915   -1517.7065    485.99529    313.45889   -500.79855     36976.26 
  144300    300.37141   -1536.5421    487.89885     306.9168     188.6436     36976.26 
  144400    300.07398   -1505.6675    485.92328    334.47359   -85.636739     36976.26 
  144500    303.22953   -1514.8597    481.97965    335.57854   -157.89757     36976.26 
  144600    305.31458   -1515.9196    501.62854    363.57723    17.361424     36976.26 
  144700    313.43764   -1518.8109    522.09332    417.80965    18.655515     36976.26 
  144800    308.43445   -1480.7562    493.57197    404.76391   -110.17573     36976.26 
  144900    314.21529   -1521.8125    474.31967     370.5439    137.21406     36976.26 
  145000    305.42259   -1530.3894    493.22256    341.18894    184.18947     36976.26 
  145100    302.28037   -1498.5878    499.01744    364.60473   -368.39055     36976.26 
  145200    288.96655   -1506.7145    504.91996    302.29601   -59.320189     36976.26 
  145300    298.38878   -1532.3008    505.10045    319.41228   -61.310925     36976.26 
  145400    307.19282   -1508.8617    497.67649    375.15947   -792.01186     36976.26 
  145500    306.11108   -1504.2798    474.37331    351.55638   -1073.9822     36976.26 
  145600    296.53013   -1438.8731    492.34255      391.694   -631.28112     36976.26 
  145700    292.62565   -1457.5544    482.67246    345.72196   -183.83995     36976.26 
  145800    289.38061   -1511.4241    499.97778    294.51286   -514.12884     36976.26 
  145900    297.00652   -1498.0023    480.47576    322.84792   -376.78473     36976.26 
  146000    302.12174   -1457.9683    527.27397    432.76495    457.64662     36976.26 
  146100    294.49318   -1465.5121    530.53589    394.05572    113.95431     36976.26 
  146200    294.14604    -1495.955    479.18846    310.69873    189.28249     36976.26 
  146300     305.6009   -1537.8292    513.72821    355.05946   -139.36594     36976.26 
  146400    299.12923   -1524.2024    494.96637    320.71813   -197.16533     36976.26 
  146500    298.43639    -1459.599    532.02621     419.2546    382.13821     36976.26 
  146600    305.49047   -1493.6757    507.69427     392.6807    25.500213     36976.26 
  146700    292.94158   -1517.8969    488.53457    292.66736     393.5948     36976.26 
  146800     301.6149   -1501.9407    493.51807     352.7492    381.33919     36976.26 
  146900    305.49775    -1518.005    494.66001    355.35001     592.5423     36976.26 
  147000    294.80252   -1497.8464     484.0302    316.61172   -76.458963     36976.26 
  147100    292.60571   -1508.3118    507.25202    319.45414    214.22812     36976.26 
  147200    295.61694   -1516.8516    503.94549    321.19733   -205.70525     36976.26 
  147300    297.35344   -1488.2212    472.66887    326.38778   -399.67164     36976.26 
  147400    299.79916   -1487.3478    508.26601    373.89577   -432.54784     36976.26 
  147500    293.19795   -1497.3633     500.8739    326.69724   -377.95889     36976.26 
  147600    298.08995     -1548.47    480.70717     277.5011   -409.04872     36976.26 
  147700    306.30946   -1558.4324    498.21762    322.14346    280.31297     36976.26 
  147800    294.31855   -1527.7472    480.42321    280.91984   -145.43511     36976.26 
  147900    296.27528   -1540.9655      485.308    281.41691    320.61366     36976.26 
  148000    307.71548   -1536.9479    506.82882    358.58443    424.41508     36976.26 
  148100    304.24932   -1516.5813    497.19834    353.67788    1257.3764     36976.26 
  148200    300.77994   -1535.3946    470.78191    292.79112    143.23285     36976.26 
  148300    306.11933   -1537.2217    499.62323     343.9017    179.50903     36976.26 
  148400     302.4755   -1574.7693    466.53607    256.82249    142.94212     36976.26 
  148500    302.74221   -1526.8385    491.19754    330.61842    698.03057     36976.26 
  148600    289.59289   -1569.1768    489.81446     227.5549    603.30008     36976.26 
  148700    303.18869   -1511.2397    516.57056    373.60517    781.14182     36976.26 
  148800    300.46331   -1549.8411    501.81895     307.9527    355.86715     36976.26 
  148900    297.85672   -1546.3206    506.06894    303.95978     177.2798     36976.26 
  149000     302.1498   -1542.8421    469.44504    290.18877   -8.3900533     36976.26 
  149100    302.25522   -1558.7811     513.3685    318.64898   -119.50742     36976.26 
  149200    310.01155   -1528.2318    465.52808    336.36177    47.427123     36976.26 
  149300    293.13837   -1530.3841     478.9233    271.45696   -455.63429     36976.26 
  149400    302.90073   -1503.7241    501.87908    365.12969   -314.28117     36976.26 
  149500    293.80288    -1537.531     494.6397    283.02536   -312.81085     36976.26 
  149600    291.00099   -1551.7292    485.21521    246.75785    95.985716     36976.26 
  149700    297.61879   -1506.1359    520.34271    357.34451    85.277835     36976.26 
  149800    289.88547   -1492.4548    521.07829     336.8611    342.32259     36976.26 
  149900    305.82004   -1488.7986    479.51062    370.86153    550.13761     36976.26 
  150000    305.89471   -1470.6454    516.51226    426.35329    518.19593     36976.26 
  150100     291.2865   -1527.7327    487.19784    274.02548    683.34746     36976.26 
  150200    303.98057   -1499.4242    507.43236    379.85621     -70.3033     36976.26 
  150300    309.05957    -1501.565     471.4253    364.62959   -17.273806     36976.26 
  150400    293.34783   -1452.9597    525.07111    395.97451   -135.17538     36976.26 
  150500    292.60454   -1446.8852     520.7069    394.33027   -343.87592     36976.26 
  150600    308.36976   -1508.2914    531.35532    414.72011    -468.0261     36976.26 
  150700    291.45722    -1528.331    494.03906    281.03886    350.99986     36976.26 
  150800    292.68977   -1527.6466    506.02227    299.26885   -947.88401     36976.26 
  150900    318.42664   -1538.5844    503.18345    401.64144    191.37867     36976.26 
  151000    296.43395   -1496.0421    513.19918    354.94759    -47.56284     36976.26 
  151100    309.99057   -1529.8202    497.62731      366.778    73.348352     36976.26 
  151200    305.35003   -1524.4885    506.55355    360.09337    164.31737     36976.26 
  151300    291.23575   -1545.1644    524.78373    293.95072    411.01993     36976.26 
  151400     307.2826    -1533.271    490.24696    343.72587    657.22239     36976.26 
  151500    293.46001   -1494.8557    526.85044    356.36408    494.33144     36976.26 
  151600    296.35131   -1508.2048    509.67329    338.88607    321.55789     36976.26 
  151700    299.70455   -1514.3537    527.61813    365.81502    44.409646     36976.26 
  151800    303.83768   -1479.3387    524.35683     416.2213     238.2915     36976.26 
  151900    306.84263   -1491.1119    489.07682    382.72927    246.59202     36976.26 
  152000    305.05816   -1506.6792     505.3609    375.39278    36.346619     36976.26 
  152100    296.77826   -1521.7219    490.90463     308.5271    88.241795     36976.26 
  152200    304.50585   -1543.9941    500.69119    330.91566   -18.011286     36976.26 
  152300    308.36347   -1546.6731    517.08992    362.04467   -230.69666     36976.26 
  152400    313.78539   -1550.6478    489.50301    354.95184    41.898921     36976.26 
  152500    297.58495   -1545.5733    503.23033    300.64195   -568.82544     36976.26 
  152600    292.76767   -1495.2006    482.88376      308.928   -346.34349     36976.26 
  152700    310.60285   -1488.0966    503.79043    417.42782   -206.25872     36976.26 
  152800    311.50578   -1493.1253    524.72783    437.41142    71.666564     36976.26 
  152900    293.53502   -1494.4615     457.1013    287.34757    243.20674     36976.26 
  153000    309.16177   -1507.6312    514.48061    402.07992    174.55235     36976.26 
  153100    300.45574   -1524.3195    472.19591    303.81705   -213.78003     36976.26 
  153200     304.9213   -1486.9311    478.12325    367.28568    245.07493     36976.26 
  153300    298.59985   -1511.8937    500.04329    335.71472   -218.47896     36976.26 
  153400    290.79439   -1459.1788    502.57799     355.7387    42.653339     36976.26 
  153500    288.49293   -1464.4984    530.80509    368.25984   -103.15025     36976.26 
  153600    292.16343   -1478.3684    524.69468    364.84416   -5.4848105     36976.26 
  153700    291.51907    -1473.094    494.44096    336.95689    577.13889     36976.26 
  153800    306.54722   -1547.4805    495.20982    331.16051    185.32304     36976.26 
  153900    292.91663   -1556.3245    482.59504    248.18764    871.56962     36976.26 
  154000    297.89523   -1541.4802    505.24668    308.15164    1024.5874     36976.26 
  154100    303.33935   -1503.0927    529.07964    394.94121    279.89886     36976.26 
  154200    292.48684   -1513.7491    523.01449    329.24282     514.7069     36976.26 
  154300    302.27617   -1520.9862    484.26286     327.4328    168.76722     36976.26 
  154400      306.887   -1509.1668    469.99557    345.79332   -17.041827     36976.26 
  154500     308.1982   -1541.1749    492.06828    341.77534    175.92008     36976.26 
  154600    299.13898   -1520.1527    515.79375    345.63925   -271.29621     36976.26 
  154700    305.48431   -1570.8752     490.9683    298.72743   -280.48999     36976.26 
  154800    293.43686   -1519.0132    492.69933    297.95092   -169.47074     36976.26 
  154900    304.97482   -1544.9232    486.63553    318.04736   -445.27276     36976.26 
  155000    308.83104   -1524.7239    483.05733    352.07136   -408.01487     36976.26 
  155100    301.13398   -1529.5024    475.70309    305.20219   -238.06806     36976.26 
  155200    293.69374   -1539.2691    475.55367    261.70867   -27.461706     36976.26 
  155300    307.48179   -1519.8686    480.18562    347.96588    347.01311     36976.26 
  155400    299.19041   -1527.4881     486.1042    308.84637    607.18328     36976.26 
  155500    301.29667   -1572.7474    478.65633    265.64466   -29.756476     36976.26 
  155600    297.12633   -1542.9847    461.58722    259.51776    678.22824     36976.26 
  155700    292.65765   -1577.0572    501.78008    245.47114    404.31997     36976.26 
  155800    307.34647   -1501.9504    502.81026    387.89798   -69.384985     36976.26 
  155900    294.02538   -1502.5123    465.86258    290.27105   -101.06572     36976.26 
  156000    299.25388   -1503.6464    496.88021    343.75051   -332.19443     36976.26 
  156100    296.79258   -1516.2441    513.02544    336.19034    23.413658     36976.26 
  156200    293.13904    -1500.819    493.14752    315.24934    310.68952     36976.26 
  156300     302.4126   -1556.3289    476.72562     285.1686    204.38456     36976.26 
  156400    291.40205    -1566.669     502.1019    250.51468    105.15686     36976.26 
  156500    305.44484   -1529.8356    503.11258    351.73312    481.71128     36976.26 
  156600    296.20975   -1534.2116    493.01934    295.58647   -240.51718     36976.26 
  156700    311.99011   -1523.2644    477.46269    362.19291    544.05873     36976.26 
  156800    292.09345   -1538.8463    488.38001    267.73577    617.06126     36976.26 
  156900    298.97528   -1531.3464     514.9684    332.88143   -216.14993     36976.26 
  157000    292.07223   -1532.3578    498.82755    284.57608   -10.296832     36976.26 
  157100    295.91964   -1494.7902    483.63223    324.31155    389.19634     36976.26 
  157200    306.22471   -1501.7383    485.63908    365.87647    344.84259     36976.26 
  157300    298.12214   -1513.9359    468.56933    300.04266   -146.60481     36976.26 
  157400    297.20477   -1499.1211    492.41404    334.56219   -449.77911     36976.26 
  157500     295.4687   -1479.6245    475.20488    329.01483   -434.86335     36976.26 
  157600    287.02087   -1542.2957    513.91825    266.93237    182.59734     36976.26 
  157700     295.0372   -1528.3663    511.65596    314.77678    449.35303     36976.26 
  157800    312.92827   -1546.3554    483.35059    349.22368     497.1653     36976.26 
  157900    293.83511    -1489.286    479.10714    315.88327    236.13338     36976.26 
  158000    298.05094   -1493.4551    489.20561     340.8384   -379.03777     36976.26 
  158100    300.55514   -1483.5265    494.98521    367.84796   -414.81557     36976.26 
  158200    308.25896   -1512.9269    487.96831    366.19756   -299.57137     36976.26 
  158300    294.65709   -1520.2676    508.90971    318.41377    306.86904     36976.26 
  158400    306.31977    -1512.543    497.85438    367.71605   -242.84108     36976.26 
  158500    292.86861   -1513.2638    494.42513    302.86171    198.91358     36976.26 
  158600    295.13376   -1480.0907    501.84018     353.6723   -192.30001     36976.26 
  158700    307.54705    -1475.682    502.75873    415.02007   -790.13693     36976.26 
  158800    300.28161   -1467.8472    498.88676    386.19434   -329.21602     36976.26 
  158900    299.65722   -1508.8031    487.04112    330.57502   -453.86371     36976.26 
  159000     298.0713     -1478.94    503.98546    370.22522    -423.7772     36976.26 
  159100     305.4581    -1492.265    490.09255    376.34364   -157.00897     36976.26 
  159200    297.35819   -1524.6723    520.31329    337.60251   -583.39821     36976.26 
  159300    289.11437   -1488.4298    514.05148    330.37937   -170.41041     36976.26 
  159400    302.64264   -1476.7151    515.92153    405.01642    352.24881     36976.26 
  159500    291.55402   -1471.0642    509.15909    353.86254    430.60255     36976.26 
  159600    294.38516   -1467.0618     489.9765    351.45912    428.22659     36976.26 
  159700    300.90611   -1479.2454    524.54389    403.27166    230.64021     36976.26 
  159800    296.33683    -1479.342    479.90933    337.91962    32.719888     36976.26 
  159900    305.84234   -1499.0374    514.34922     395.5619   -406.30973     36976.26 
  160000    282.46225   -1494.8905     526.1131    305.95962    -88.94874     36976.26 
  160100    304.38436   -1522.2437    509.07418    360.50079   -30.380837     36976.26 
  160200    299.95292   -1517.8707    503.62691    339.42772    52.176404     36976.26 
  160300    307.22614   -1485.4515     486.4084    387.45197   -185.02665     36976.26 
  160400    306.45864   -1479.9217     497.5226    400.63229    237.59391     36976.26 
  160500    299.50111   -1491.2152     487.3726    347.78986   -273.31672     36976.26 
  160600     291.6345   -1502.0676     506.7615    320.82478   -352.53674     36976.26 
  160700    306.35877    -1529.578    473.72051    326.72326   -261.54068     36976.26 
  160800    300.10967   -1479.5381    505.41297    380.25372   -117.81772     36976.26 
  160900    299.67355   -1504.8284    471.27564    318.85789   -446.19028     36976.26 
  161000    305.74332   -1497.9122    490.10101    371.99206   -403.08619     36976.26 
  161100    288.54321   -1508.0878    516.23333    310.32558   -764.18621     36976.26 
  161200    307.28343   -1526.5584    471.94663     332.1419    -565.7166     36976.26 
  161300    286.08586   -1482.7888    474.88331    283.18468   -976.67607     36976.26 
  161400    309.60859   -1495.3991     482.2254    384.07328   -346.93905     36976.26 
  161500    314.30016   -1466.3431    486.82466    438.90141   -547.97858     36976.26 
  161600    299.52959   -1537.1492    481.97899    296.59077   -377.15748     36976.26 
  161700    309.25201   -1548.7767    494.29043    341.15146   -556.07239     36976.26 
  161800    304.06385   -1519.0051    487.04164    340.26037   -116.54891     36976.26 
  161900    299.05836   -1495.8274    464.17937    317.98633   -783.18541     36976.26 
  162000    297.73692   -1539.0528    488.33315    292.95113   -307.89433     36976.26 
  162100    298.72375   -1514.7958     504.2368    337.56525    322.85341     36976.26 
  162200    305.50423   -1494.6836    497.22468    381.26523   -148.44078     36976.26 
  162300    310.72629   -1494.8412    498.14624    405.59614    -691.2445     36976.26 
  162400    309.21216   -1493.0174    514.68614    417.12664   -576.46744     36976.26 
  162500    291.55944   -1475.3424    499.47998    339.92969    -699.3408     36976.26 
  162600    298.27785   -1528.3018    485.74413    303.55425   -935.59348     36976.26 
  162700    294.08142   -1494.8638    518.39547    350.70536   -215.64465     36976.26 
  162800    295.95523   -1523.6721    489.64643    301.60442    41.281391     36976.26 
  162900    303.19795   -1509.0651    484.41443    343.66546   -40.059716     36976.26 
  163000    292.10068   -1497.7325    516.98285    337.48505   -406.98734     36976.26 
  163100    294.59425   -1496.3859    491.54937    324.65153   -58.619471     36976.26 
  163200    302.85764   -1501.1917     490.3776    355.96621   -361.24416     36976.26 
  163300    295.21921   -1500.6504      482.403    314.06105    290.12261     36976.26 
  163400    289.19596   -1452.1069    522.84736    375.86639    243.85582     36976.26 
  163500    302.37625   -1459.3531    487.14027    392.39498     321.1264     36976.26 
  163600    310.78547   -1500.3802    501.32485    403.50288    734.96912     36976.26 
  163700    293.08257     -1441.49    505.34094    386.51688    924.84204     36976.26 
  163800    297.46222   -1471.7981      501.037    371.66996    502.88966     36976.26 
  163900    301.64251   -1479.5381    504.10456    385.86295    453.85936     36976.26 
  164000    299.71679    -1465.657    522.49497    409.44378   -82.485153     36976.26 
  164100    301.63787   -1477.9234    506.08234    389.43446    171.47198     36976.26 
  164200    299.67405   -1475.9042    484.32644    360.83522    17.954877     36976.26 
  164300    314.51723   -1495.4496    520.40648    444.35634   -69.067588     36976.26 
  164400    300.26024   -1504.4161    486.86214     337.5044   -59.464442     36976.26 
  164500    303.56996   -1514.6437    492.57706    347.92834    -35.35461     36976.26 
  164600    306.84508   -1491.7608    495.46921    388.48387   -496.12679     36976.26 
  164700    307.37696   -1531.6907    492.63247    348.11754   -233.63013     36976.26 
  164800    307.43895   -1512.7108    482.21252    356.95722    171.40823     36976.26 
  164900    305.02738   -1519.6811    487.01946    343.91055    20.594064     36976.26 
  165000     306.5148   -1492.7964    512.51685    403.00529    546.37417     36976.26 
  165100    288.95457   -1516.6768    509.89832    297.25796    516.80131     36976.26 
  165200    294.99639   -1546.9954    497.19379    281.50132    532.75032     36976.26 
  165300    310.54349   -1539.1026    473.23491    335.59842    395.55695     36976.26 
  165400    301.18599   -1517.9225    481.42541     322.7391    264.01017     36976.26 
  165500    309.15359   -1569.3503    478.19377    304.03707    178.09283     36976.26 
  165600    310.48841   -1559.6468    479.31543    320.88624    584.96941     36976.26 
  165700    296.69665    -1579.112    477.04253    236.90658    275.81928     36976.26 
  165800    309.19554   -1543.9802    498.23228    349.63504   -103.19794     36976.26 
  165900    303.85941   -1565.4036    479.58068    285.47828     39.61005     36976.26 
  166000    299.94024   -1532.0296    506.14449    327.72911   -261.88466     36976.26 
  166100    299.16393   -1555.7797    470.72868    265.05974   -619.77559     36976.26 
  166200    308.96099   -1523.9443    481.95275    352.33281   -189.05172     36976.26 
  166300    292.27434   -1524.5352    496.61855    291.10181   -360.99554     36976.26 
  166400    308.54586   -1555.8717    484.41426    320.99353   -77.654481     36976.26 
  166500    295.42334    -1511.632    488.35189     309.9496   -372.90334     36976.26 
  166600    293.22535   -1537.2042    491.52991    277.63603   -437.98472     36976.26 
  166700    300.18563   -1566.6108    493.34375    281.45459   -387.89087     36976.26 
  166800    300.68806   -1521.0124    499.77335    335.75002   -437.99598     36976.26 
  166900    299.76643   -1517.4252    483.93485    319.33946    218.08054     36976.26 
  167000     300.7807   -1575.2152     493.5334    275.72537     410.7369     36976.26 
  167100    295.26053   -1590.1418    499.20593    241.55904    208.41406     36976.26 
  167200    286.28496   -1546.5739    477.50564    222.92039    101.98694     36976.26 
  167300    293.07324   -1540.7895    500.46819    282.30252   -626.92072     36976.26 
  167400     294.9105    -1569.937    490.30552    251.28379   -578.48571     36976.26 
  167500    298.83993   -1559.2725    464.79435    254.17043   -516.95201     36976.26 
  167600    299.26705    -1505.116    470.56748     316.0276   -557.58689     36976.26 
  167700    298.58679   -1512.7546    490.37875    325.13038   -799.99698     36976.26 
  167800    294.38423   -1523.1704    514.35439    319.72423   -381.83058     36976.26 
  167900    300.28391   -1530.2594    507.81285    332.71861    61.138496     36976.26 
  168000    304.86857   -1547.9003    512.58359    340.53879   -9.0696566     36976.26 
  168100    302.81199   -1532.3312    514.61525    348.85835    780.13151     36976.26 
  168200    293.46694   -1536.8523    522.21637    309.76463     63.07588     36976.26 
  168300    304.54516   -1553.0432    497.41594    318.76875    36.765461     36976.26 
  168400    291.01916   -1514.0233    500.63206    299.96265    547.84272     36976.26 
  168500    294.82311   -1559.7385    481.87846    252.66092    150.41142     36976.26 
  168600    319.58302   -1538.7685    517.49106    420.98359    503.30574     36976.26 
  168700    302.88488   -1566.6682    483.19307    283.42811    569.71864     36976.26 
  168800    314.87543    -1513.439    503.33659    410.91347    317.84182     36976.26 
  168900     300.4988   -1505.6134    495.55229    346.07386    565.94264     36976.26 
  169000    311.70435   -1520.3504    489.21099     375.5656    652.22651     36976.26 
  169100    294.91252   -1495.4891    505.61402    341.04935    333.03104     36976.26 
  169200    309.15183   -1501.4936    487.80929    381.50134   -599.44365     36976.26 
  169300    306.54148   -1522.3241    503.23221    364.31332   -380.19873     36976.26 
  169400    297.58654   -1563.7168    473.50314    252.77844   -1.9318561     36976.26 
  169500    294.25478   -1512.0721    497.71523    313.59918    238.55067     36976.26 
  169600      299.064    -1543.461    497.14703    303.34587    259.03716     36976.26 
  169700    296.48915   -1522.9778    526.66841    341.73025    840.45371     36976.26 
  169800    298.57306   -1554.7678     493.1173    285.79375    720.08362     36976.26 
  169900    302.96974   -1582.5906    494.55137    279.24698    425.09422     36976.26 
  170000    303.50427   -1539.8844    508.09477    337.90885    510.24757     36976.26 
  170100    297.76034   -1503.6998    509.54261    349.61931    16.705575     36976.26 
  170200    298.60386    -1533.413    499.22542    313.39562    27.878187     36976.26 
  170300    295.43583   -1552.7149    468.37593    248.94708    157.87324     36976.26 
  170400    300.44737   -1530.9722    498.84318    323.77381   -150.59229     36976.26 
  170500    288.62204   -1553.9615    478.61847    227.19278   -138.30664     36976.26 
  170600    311.89818   -1551.6078    490.28643    346.25845   -736.16361     36976.26 
  170700    298.06252   -1528.3136    503.79147     320.6181    -389.8314     36976.26 
  170800    297.50809   -1575.6605    492.12473     259.1023   -570.21393     36976.26 
  170900    291.49723   -1558.5772    495.49873    252.43285   -439.27268     36976.26 
  171000    296.53104   -1571.1868    486.41628    253.45817    -155.4499     36976.26 
  171100     292.0889   -1535.9554    485.73369    267.95979    -43.92267     36976.26 
  171200    288.69471   -1549.0482    496.71328    250.52887   -743.34397     36976.26 
  171300    313.13346   -1503.7584    490.96449    400.36063   -309.31162     36976.26 
  171400    302.30954   -1538.6283    507.92178    333.60025   -317.77661     36976.26 
  171500    298.12183   -1571.7806    489.70298    263.33024    9.5696489     36976.26 
  171600    303.65809   -1549.4976     488.1194    309.01448   -158.27087     36976.26 
  171700    290.85192   -1532.3604    503.68318     283.9219   -428.70619     36976.26 
  171800    306.19597   -1530.5392     491.2667    342.57346   -511.88327     36976.26 
  171900    296.90701   -1542.9698    515.52339    312.47903   -692.62491     36976.26 
  172000    300.30727    -1521.724    494.84631    328.39297    -349.1106     36976.26 
  172100    305.50707   -1531.1657    501.80703    349.37838   -196.78949     36976.26 
  172200    296.12589   -1521.5807    478.46924    293.28881     -249.873     36976.26 
  172300    300.39425   -1492.6269    507.05084    370.08704   -354.30491     36976.26 
  172400     305.6639   -1510.8822    491.80063    360.36322    -12.45739     36976.26 
  172500     300.8498   -1481.4482    508.55967    384.83044   -644.65097     36976.26 
  172600    296.50237    -1493.483    504.85513     349.4714   -554.27068     36976.26 
  172700    292.68354   -1518.2025    489.11391     291.7766   -397.80648     36976.26 
  172800    307.86894   -1525.8006    491.89882    355.49421   -735.11256     36976.26 
  172900     309.2073   -1494.1055    517.09951    418.42997   -596.90421     36976.26 
  173000    303.86456   -1519.5004    489.72328    341.54731   -229.04538     36976.26 
  173100    294.38518   -1541.6835    498.15737     285.0184    46.774778     36976.26 
  173200    298.16841    -1521.921    495.13366    318.83071    -429.9719     36976.26 
  173300     306.3253   -1511.7445    509.84934    380.53446   -267.11871     36976.26 
  173400    307.26587   -1498.3628    472.98559    361.29721    228.17217     36976.26 
  173500    299.62111   -1495.2939    515.84655    372.72663    638.01029     36976.26 
  173600    304.26893   -1528.9695     509.3948    353.57464     620.8852     36976.26 
  173700    296.01486    -1530.018    514.59204    320.47322      455.196     36976.26 
  173800      297.129   -1567.1297    523.89667    297.69418    466.80961     36976.26 
  173900    294.63411   -1546.7394    512.56239    295.49089    286.32279     36976.26 
  174000    303.02428   -1553.9095    489.06774    302.69059    387.02405     36976.26 
  174100    303.46241   -1558.2909    516.84966    328.06837   -511.85757     36976.26 
  174200    301.70364   -1530.2583    496.31224    327.62626   -196.58286     36976.26 
  174300    306.00445   -1526.4439    495.11976    349.65758    125.35276     36976.26 
  174400    298.59888   -1520.6639    514.53393    341.43077    419.15341     36976.26 
  174500    294.06455   -1527.7389    524.59626    323.95493     253.4772     36976.26 
  174600     306.2578   -1538.7075    514.74271    358.16025   -13.370669     36976.26 
  174700    298.52049   -1558.4598    477.29035    266.03749    42.145155     36976.26 
  174800     302.4412   -1512.6087    520.21548    372.50777    474.31887     36976.26 
  174900    301.55281   -1584.4271    482.15762    258.62219    14.208116     36976.26 
  175000    300.10454   -1554.4541      516.028     315.9296    158.60094     36976.26 
  175100    309.52104   -1523.3796    513.96599    387.43824   -427.80088     36976.26 
  175200    303.01548   -1510.2813    507.16798    364.37928   -435.49732     36976.26 
  175300    289.40344   -1536.1968    532.18485    302.05029   -744.44853     36976.26 
  175400    287.58825   -1533.6813    495.82589    260.01493    -558.9476     36976.26 
  175500    304.89913   -1544.2432    507.79707    339.54732    -297.5304     36976.26 
  175600    290.62938   -1548.2339    505.95012    269.31104    32.953611     36976.26 
  175700     308.6414   -1515.8892    484.69252    361.68543   -80.317341     36976.26 
  175800    294.01336    -1541.634    498.77413    284.00668     285.3253     36976.26 
  175900    311.01343   -1567.6639    472.25162    308.17465    511.77873     36976.26 
  176000    301.26183   -1565.1457    503.32698    297.75979    681.71131     36976.26 
  176100    301.21814   -1586.7745    503.56352     276.1703    392.88497     36976.26 
  176200    297.13329   -1526.2181    485.45207    300.18063    455.01465     36976.26 
  176300     292.8207   -1584.3916    483.04088    220.13341    671.52742     36976.26 
  176400    297.88968   -1532.4041    479.05859    291.01468    558.73945     36976.26 
  176500     298.8906   -1552.5513    533.40002    329.72601    731.83926     36976.26 
  176600    307.92397   -1518.0268    525.97841    397.59602    466.99654     36976.26 
  176700    294.30996    -1543.926    498.81179    283.09085   -65.714414     36976.26 
  176800    298.96151   -1538.7014    491.40941    301.90525    67.547428     36976.26 
  176900    308.71725   -1565.4812    510.77586     338.5191    71.002308     36976.26 
  177000    302.07114   -1554.3904    491.07547    299.91598    413.56164     36976.26 
  177100     306.7165    -1554.883    493.04534    322.35748    37.723838     36976.26 
  177200    292.92831   -1565.2297    496.47389    253.21399    457.94003     36976.26 
  177300    294.56288   -1536.4305    492.77299    285.68894    141.79327     36976.26 
  177400    304.77756    -1534.793    499.92765    340.57947    -21.92555     36976.26 
  177500    300.09463   -1549.3649    488.92957    293.87566    480.30014     36976.26 
  177600    302.58478   -1543.7716    495.87545    317.65274    279.20416     36976.26 
  177700    303.55507   -1531.9236    508.90084    346.90497   -47.117172     36976.26 
  177800    293.03732   -1521.2771    509.35863    310.54328    22.611467     36976.26 
  177900    289.06484   -1486.7579    477.22342    294.99964   -106.14592     36976.26 
  178000    297.72237   -1545.8443    506.84306     304.6038    87.569164     36976.26 
  178100     297.3069   -1508.3714    503.35268    336.71142    100.77002     36976.26 
  178200    303.94903    -1549.117    499.39231    321.98104    252.91743     36976.26 
  178300    301.85708   -1520.3984    513.92314    355.78952   -81.523508     36976.26 
  178400    298.84988   -1547.0516    497.20979    298.85166    141.22271     36976.26 
  178500    304.30748   -1518.1861    485.61669    340.75388    565.29775     36976.26 
  178600    307.94411   -1510.1652     486.8616    366.43165    810.20668     36976.26 
  178700    302.87868   -1554.6143      495.132    307.39291    401.89578     36976.26 
  178800    291.20719   -1565.2168    506.36832    255.35394     405.2564     36976.26 
  178900    302.72037   -1496.7829    469.73805    339.11593    357.07127     36976.26 
  179000    307.36951     -1510.36    539.50557    416.28768    393.77355     36976.26 
  179100    305.67417   -1501.3129    481.08277    359.26103     594.6727     36976.26 
  179200    296.09144   -1550.9636     486.1865    271.46774    185.76388     36976.26 
  179300     308.1102   -1535.9015    492.99659    347.57997    395.27872     36976.26 
  179400     294.0668    -1525.423    516.88967    318.57444    118.15996     36976.26 
  179500    293.46766   -1519.8469    497.91151    302.46851   -321.78484     36976.26 
  179600    292.29511   -1550.5991    496.05764    264.57069     131.0978     36976.26 
  179700    303.31396    -1548.966    485.08195    304.95562   -23.682122     36976.26 
  179800    299.56208   -1531.1719    522.02052    342.75628   -309.92917     36976.26 
  179900    303.57219   -1542.6303    489.70985    317.08462   -548.33655     36976.26 
  180000    286.06142   -1538.4954    504.32348    256.80793   -239.96886     36976.26 
  180100    296.68631   -1538.4427    479.88676    280.37353   -145.18093     36976.26 
  180200    297.44436   -1514.2646    478.11441    306.20026    115.23202     36976.26 
  180300    303.38157   -1544.4267    489.55752    314.27556    199.11975     36976.26 
  180400    308.20855   -1512.6538    490.34155    368.61646    -609.3292     36976.26 
  180500     285.8144   -1548.5196    500.52015    241.86564   -567.59461     36976.26 
  180600     299.0449   -1522.4991    463.11508    290.18955   -548.08891     36976.26 
  180700    297.60983   -1548.1474    492.14199    287.09182   -601.91178     36976.26 
  180800    299.93147   -1535.4247    499.12667    317.27662   -735.64132     36976.26 
  180900    299.43489   -1523.8563    473.54889    301.02618   -247.45413     36976.26 
  181000    300.78789   -1557.1509    460.60024    260.88894   -1083.3108     36976.26 
  181100    303.87876   -1524.6539    496.98564    343.72034      -903.97     36976.26 
  181200    291.45665   -1548.4267    493.91093    260.81249   -820.99437     36976.26 
  181300    290.53718    -1532.191    480.96009    259.94784   -668.98585     36976.26 
  181400    310.47208   -1527.9007    482.02274    355.26589   -523.92883     36976.26 
  181500    291.75771    -1538.367    451.45676    229.77665   -585.67464     36976.26 
  181600    299.01864   -1569.8518    497.93582    277.53914   -677.03136     36976.26 
  181700    296.58719   -1557.6473     461.2285    242.06327   -650.84872     36976.26 
  181800    295.64632   -1535.1701    495.20795    294.27387   -587.87329     36976.26 
  181900    298.17371   -1508.2386    471.12586    308.52921   -743.34112     36976.26 
  182000    303.38616    -1541.192    513.65587     341.6294   -690.00907     36976.26 
  182100    326.21117   -1542.0126    462.27507    392.43602   -120.74793     36976.26 
  182200    297.11713   -1529.5469    509.57546     320.9022    470.45326     36976.26 
  182300    310.70664   -1557.1199    491.38885    336.47134    715.01181     36976.26 
  182400    307.82196   -1553.8076    481.68506     317.0614    796.34333     36976.26 
  182500    302.39399    -1550.351    487.33935    301.67622    913.24665     36976.26 
  182600    293.95053   -1563.5585    460.12177    223.14627    131.15823     36976.26 
  182700    308.19863   -1577.4254    479.76459    293.22306   -236.04166     36976.26 
  182800    287.03404   -1539.3645    494.58671    250.59143    24.069982     36976.26 
  182900    300.46136   -1557.9175    470.29414    268.34264   -107.91229     36976.26 
  183000    302.48611   -1532.2624    507.39344    340.23464   -52.533787     36976.26 
  183100     287.9974    -1550.372    498.34219      247.687    172.39054     36976.26 
  183200    299.19957   -1520.5339     488.0966    317.83434    565.13841     36976.26 
  183300    295.27125   -1542.0674    519.77748    310.25342     32.26087     36976.26 
  183400     302.1258   -1515.9861    512.67042    360.16187    119.57617     36976.26 
  183500    308.36466   -1485.4633    478.68519    384.85504    441.77945     36976.26 
  183600    296.38381   -1497.4741    487.78021    327.87029    247.41264     36976.26 
  183700    296.22735   -1553.3303    529.82147    313.34933     644.4723     36976.26 
  183800    296.64582   -1490.2461    480.89204    329.39257     893.2167     36976.26 
  183900    303.62483   -1497.5735    513.91829     386.5874    721.37055     36976.26 
  184000    289.46243   -1484.2155    502.98443     325.0974    493.72361     36976.26 
  184100    305.16972   -1515.3759     505.0435    366.88217   -384.87503     36976.26 
  184200    304.07002   -1479.1861    493.27116    386.33676   -301.15362     36976.26 
  184300    300.05242   -1467.4143    499.12906    385.83528   -35.423365     36976.26 
  184400    298.17275   -1454.1909    522.32438     413.7711   -178.11007     36976.26 
  184500     304.8274   -1498.6711     499.0786    376.07724    239.98019     36976.26 
  184600    296.30344   -1476.7578    506.35477    366.79849   -201.94089     36976.26 
  184700    300.95983    -1461.221     478.1945    375.18904   -142.22948     36976.26 
  184800    301.71023   -1445.3271    534.63635    450.91136    -454.2531     36976.26 
  184900    294.65066   -1477.0572    522.79055    375.47596    264.24677     36976.26 
  185000    314.74318    -1451.009    481.65719    451.06729    678.41543     36976.26 
  185100    308.30045   -1512.5953    528.50109     407.2492    528.29124     36976.26 
  185200    293.09784   -1507.0807    478.37744    294.03161    407.13915     36976.26 
  185300    303.48723   -1472.0232    524.14174    421.74011    1208.4725     36976.26 
  185400    307.30084   -1510.6096    503.27682     379.4994    792.64578     36976.26 
  185500    298.24716   -1492.7984    541.19908    394.37417    240.66559     36976.26 
  185600    297.27855   -1466.5994    502.94581    377.94851   -42.473377     36976.26 
  185700    305.37409   -1490.6048     494.8601     382.3922   -681.53259     36976.26 
  185800    296.73965   -1456.3957    506.61838    389.39279   -817.94399     36976.26 
  185900    304.71758   -1494.8941    484.72528    365.00527   -259.88289     36976.26 
  186000    288.16022   -1540.6375    515.20391    275.01809   -52.593059     36976.26 
  186100    292.11592   -1484.3402     495.6571    329.62036    204.38439     36976.26 
  186200    298.48657   -1527.5787    523.23972    342.71495   -101.66979     36976.26 
  186300    293.70148   -1511.5471    515.57009    329.48206    191.29438     36976.26 
  186400    310.04162   -1477.2502     502.0465    423.99749    -232.6725     36976.26 
  186500    313.78008   -1513.9756    499.73353    401.83057     -607.711     36976.26 
  186600    295.13384   -1488.3513    498.85505    342.42692    23.440915     36976.26 
  186700    294.99925   -1487.3835    486.78999    330.72234   -210.75228     36976.26 
  186800    305.68003   -1504.2103    519.30028    394.60759   -6.5277345     36976.26 
  186900    308.74018   -1549.3903    527.94146    371.87905   -111.95755     36976.26 
  187000    297.81439   -1543.3773    514.25105    314.89413     165.8945     36976.26 
  187100    300.16635   -1475.2703    518.97925    398.34363   -282.98747     36976.26 
  187200    308.34896   -1505.3707    503.74221    389.93381    535.19353     36976.26 
  187300    308.91592   -1468.7921    480.64023     405.9691    31.580946     36976.26 
  187400    306.93968   -1476.6182     516.5583    425.14244   -385.21833     36976.26 
  187500    301.76133   -1483.2039    530.05812    408.68697   -70.622953     36976.26 
  187600    299.23124   -1483.5119    512.10242    379.00506    446.55769     36976.26 
  187700      288.688   -1495.3325    485.67493    293.17595    -325.0346     36976.26 
  187800    294.87742   -1476.6568    525.15222    379.26145   -692.38795     36976.26 
  187900    298.05108   -1507.3731    495.73197    333.44746     342.6156     36976.26 
  188000    300.21343   -1486.7061    536.00011    404.14117       439.99     36976.26 
  188100     305.8628   -1553.8763     525.8196    352.28571    386.19432     36976.26 
  188200    288.25023   -1503.7608    486.63276    283.72978    3.0719648     36976.26 
  188300    302.92091   -1454.4381    506.75522    419.38296   -88.728575     36976.26 
  188400    294.55808   -1476.5251    494.86351     347.6632   -193.01226     36976.26 
  188500     309.8441    -1451.861    519.33339    465.78222   -579.00168     36976.26 
  188600    299.91533   -1437.4113    519.09692    435.18745    127.05233     36976.26 
  188700    292.85325   -1467.0328     505.9433     360.5415   -165.52264     36976.26 
  188800    306.76907   -1468.6407    517.84176    433.63347   -349.91297     36976.26 
  188900    292.97971   -1475.1719    531.89032    378.92018   -390.76836     36976.26 
  189000    312.94886   -1500.2853    469.25425    381.29038   -675.47712     36976.26 
  189100    289.01811   -1499.2056    519.72222    324.83981   -239.59998     36976.26 
  189200    300.13307   -1523.0329    522.72724     354.1788   -103.73407     36976.26 
  189300    300.67473   -1517.6471    511.63841    350.92027   -33.596613     36976.26 
  189400     303.5446   -1536.6238    492.68294    325.93959    -664.7612     36976.26 
  189500    304.42554   -1531.4242    490.91203    333.34391    239.19647     36976.26 
  189600     305.5364    -1538.289    499.16832    339.74867    271.65609     36976.26 
  189700    297.34201   -1469.8657    506.04812    378.07092    27.180065     36976.26 
  189800    301.94878   -1536.8883    505.17494    330.96527    253.16628     36976.26 
  189900    302.58572   -1519.5211    516.37038    362.40242    47.133565     36976.26 
  190000    295.56995   -1515.5685    522.00519    340.32802    472.62169     36976.26 
  190100      309.871   -1515.5752      521.262    404.11798    107.29051     36976.26 
  190200    299.88192   -1445.1417    499.27438    407.48372    307.42723     36976.26 
  190300    303.51619   -1484.1489    534.72125    420.32463    53.555046     36976.26 
  190400    291.48431    -1457.523    505.34312    363.27316   -317.70791     36976.26 
  190500    293.15851   -1440.7197    509.92035    392.20927   -182.53304     36976.26 
  190600    292.36652   -1466.5055    512.92947    365.85846   -627.28132     36976.26 
  190700    302.83389   -1446.7423    514.85809    434.78891   -102.56476     36976.26 
  190800    306.51602   -1458.0146    504.80815    430.08391   -503.90434     36976.26 
  190900     296.7885   -1547.7045    500.98395    292.67003   -676.04745     36976.26 
  191000    306.47149   -1517.9748    501.79854    366.91313   -679.91701     36976.26 
  191100    294.17571   -1525.2825    503.86596    306.18273     -335.802     36976.26 
  191200    301.63218     -1542.62    515.00327    333.63312    109.02185     36976.26 
  191300     300.6842   -1524.9443    488.13386    320.16123    83.582439     36976.26 
  191400    295.82334   -1540.4173    486.50792    281.12553    -308.8253     36976.26 
  191500    305.68944   -1513.9704    505.23601    370.82569    695.62389     36976.26 
  191600    310.06238   -1553.9786    503.32797     348.6443    427.95532     36976.26 
  191700    295.44144   -1527.3148    520.04981    326.04638    646.15521     36976.26 
  191800    297.05011   -1549.8366    524.88946    315.62411    65.881763     36976.26 
  191900     301.4937   -1516.4477    497.06702    341.24422    -177.0812     36976.26 
  192000    300.54403   -1526.2555    511.97417    342.05772   -98.412947     36976.26 
  192100    304.16346   -1508.5842     488.4994     352.5886   -139.22693     36976.26 
  192200    298.53059   -1522.4398    512.82721    337.64002    255.61071     36976.26 
  192300    312.42465   -1546.7713    510.76595    373.95033    664.32616     36976.26 
  192400    304.68663   -1531.8961    503.19863    346.33701   -1.4410675     36976.26 
  192500    300.36835   -1487.9741     511.7385    379.31067     232.2581     36976.26 
  192600     297.8472   -1508.8585    489.60205    324.91201   -423.66071     36976.26 
  192700    308.13874   -1464.7634    515.66352    441.51373   -77.446399     36976.26 
  192800    294.68973    -1506.138    482.08792    305.86891   -217.93179     36976.26 
  192900      311.069    -1486.336    488.12029    405.62203   -62.206189     36976.26 
  193000    291.86047   -1515.1554    516.36473    318.35999   -605.86725     36976.26 
  193100    296.08411   -1522.2017    503.44992    317.45997   -271.81191     36976.26 
  193200    309.40251   -1505.8365    486.49731     376.9778   -186.71261     36976.26 
  193300    302.64408   -1508.8842     498.0075    354.93985   -5.4014758     36976.26 
  193400    292.31765   -1517.4983    552.27929    353.99491   -239.39393     36976.26 
  193500    300.00936   -1515.9862    471.36245     309.3024   -108.33331     36976.26 
  193600    307.72224   -1527.4153    478.54095    339.85963   -243.09818     36976.26 
  193700    293.40993   -1523.0838    490.09802    291.15747   -192.09884     36976.26 
  193800    300.18173   -1496.9863    502.55557    360.27336     102.6816     36976.26 
  193900    305.27346   -1514.1181    514.88852    378.45314    880.20945     36976.26 
  194000    302.19558   -1478.9504     523.7679    408.60996    521.95831     36976.26 
  194100    301.16401   -1481.0578    498.45919    376.53846   -55.517033     36976.26 
  194200    294.22563   -1473.1786    511.82296    366.46891    -210.6645     36976.26 
  194300    293.21112   -1499.9429    491.24586    314.54906   -15.711396     36976.26 
  194400    308.54212   -1490.1113    502.87691    405.19966     105.5954     36976.26 
  194500     302.8983   -1517.2352    492.12457     341.8532   -143.60768     36976.26 
  194600    300.66679   -1524.3692     523.2124    355.73633     397.7871     36976.26 
  194700    301.28496   -1479.9465    486.93569    366.67205   -436.95941     36976.26 
  194800     292.2418   -1468.1164    522.77943    373.53462   -564.70431     36976.26 
  194900    301.25295   -1479.6183    487.74725    367.66741   -272.96613     36976.26 
  195000    297.90422    -1474.015    497.77524    368.18602   -594.38357     36976.26 
  195100    300.21856   -1470.1734    508.85439    393.55129   -243.07628     36976.26 
  195200    296.84169   -1471.9695    498.08439     365.7455   -340.77968     36976.26 
  195300    303.63497   -1468.3453    492.62331    394.56637    94.543135     36976.26 
  195400    307.19431   -1485.6295    521.47244    422.19438    179.37133     36976.26 
  195500    304.80515    -1511.468    497.50384    361.60515    92.038666     36976.26 
  195600    288.01173   -1519.4879    502.69688    282.99052   -577.82329     36976.26 
  195700     290.5458   -1484.6752    483.23942    309.78186   -126.31688     36976.26 
  195800    298.76201   -1536.4221     516.6041    328.47893   -49.809808     36976.26 
  195900    296.21353   -1509.0965    482.82517     310.5244    277.97535     36976.26 
  196000    303.84841   -1472.3662    537.46985    436.35528    531.81702     36976.26 
  196100    298.81066   -1493.9291    494.85098    349.43835    605.77127     36976.26 
  196200    312.22947   -1505.1529     507.1006    411.02257    576.65371     36976.26 
  196300    299.10238   -1563.0846    504.86185    291.61022    267.18823     36976.26 
  196400    314.59523    -1497.525    492.47498    414.70142    622.14715     36976.26 
  196500    304.10932   -1508.8823    474.47576    338.02254   -187.66489     36976.26 
  196600    300.98879    -1492.047    536.61876    402.91804    13.678755     36976.26 
  196700    294.03763   -1523.4357    509.59746    313.13785   -116.86672     36976.26 
  196800     310.7913   -1446.0114    508.07072    464.64375    41.159062     36976.26 
  196900    304.01509   -1474.8738    508.38134    405.51136   -836.55212     36976.26 
  197000    298.72604   -1486.3489    501.39988    363.18558    -733.1272     36976.26 
  197100    287.26204   -1470.1041    477.49181    303.78588   -825.71766     36976.26 
  197200    304.56371   -1444.4223    488.63132     418.6887   -1247.0837     36976.26 
  197300    305.52251   -1466.3616    497.32381    409.76893   -658.36775     36976.26 
  197400    295.16399    -1446.781    510.37094    395.64925    -246.6649     36976.26 
  197500    296.78113   -1444.7548    495.76098    390.36353   -683.63144     36976.26 
  197600    296.91897   -1457.2603    489.92343    372.64254    -894.8931     36976.26 
  197700    306.37713   -1433.0595    525.86643    475.47048    84.437091     36976.26 
  197800    296.65948   -1420.3359    514.37152    432.84399   -525.83199     36976.26 
  197900    296.40349    -1395.618    509.71235    451.74746   -335.14419     36976.26 
  198000    306.20362   -1461.1133    517.57811    438.34538    14.331106     36976.26 
  198100    301.59837    -1455.028    491.01955    397.08885    130.67929     36976.26 
  198200    298.69217   -1437.1369    532.27144    443.11625    200.65905     36976.26 
  198300    303.66273   -1476.4866    480.14477    374.07178     484.0493     36976.26 
  198400    306.94163   -1487.8572    529.18151    426.53547    316.07639     36976.26 
  198500    295.78184   -1483.5034     498.8078      350.152    208.90262     36976.26 
  198600     304.3048   -1512.6763    485.40905    346.04399   -40.078739     36976.26 
  198700    293.35157   -1518.7242    510.40118    315.55688   -825.49242     36976.26 
  198800    294.75546   -1476.0653    486.62419    340.77445   -851.75073     36976.26 
  198900    302.93409   -1457.4327    491.75486    401.44751    376.49366     36976.26 
  199000    303.53233   -1500.5662    484.89651    354.15548   -362.65365     36976.26 
  199100     294.3739   -1459.1025    495.50764    364.89879   -419.77728     36976.26 
  199200    292.06212   -1454.1256    504.16643    368.10152   -300.02491     36976.26 
  199300    296.93568   -1468.6831    506.92411    378.29583   -32.531224     36976.26 
  199400    305.81537   -1459.0189    505.65363    426.76311   -333.34565     36976.26 
  199500    302.28339   -1475.3202    519.15753    408.02603   -160.46356     36976.26 
  199600     296.2291   -1465.6555    511.07675    382.28731   -201.86762     36976.26 
  199700    298.68906   -1496.2432    483.17541    334.89998   -916.68383     36976.26 
  199800    301.52386   -1458.8333    495.61206    397.53979   -136.35033     36976.26 
  199900    292.93239    -1499.246    497.31499    320.05714    97.323027     36976.26 
  200000    302.96285   -1533.4478    481.87828    315.68558    582.86124     36976.26 
  200100     294.3321   -1466.0463    496.49048    358.74915    531.46492     36976.26 
  200200    294.00164   -1491.8872    512.65795    347.58442    202.42409     36976.26 
  200300    305.41724   -1451.9207    518.18009    444.59109    206.69751     36976.26 
  200400     304.9472   -1493.6279    493.34511    375.92757  -0.76125359     36976.26 
  200500    299.96091   -1462.4502    511.58706    402.84441   -45.144753     36976.26 
  200600    291.98523   -1438.2723    514.28006    393.72142   -236.83116     36976.26 
  200700    301.31187   -1426.5665    509.06758    442.30538   -352.07416     36976.26 
  200800     298.9651   -1429.0262    506.37326    426.56054   -588.80163     36976.26 
  200900    289.33856   -1445.5656     516.9447    377.14856   -456.40728     36976.26 
  201000    301.72845    -1479.091    492.17831    374.77165   -16.128931     36976.26 
  201100    299.33019   -1483.4827    493.92051    361.29894    100.75309     36976.26 
  201200    286.26408   -1464.1843    471.11445    298.82456   -306.59052     36976.26 
  201300    295.32351   -1422.2397    487.57088    398.11032   -134.87317     36976.26 
  201400    303.07322    -1425.093    523.46339     466.1236   -82.319704     36976.26 
  201500     304.1398   -1450.6524    477.49234    399.40657   -431.35857     36976.26 
  201600    299.79505   -1449.5707    516.43611    419.82444   -593.70676     36976.26 
  201700    304.92899   -1475.6381    492.14071    392.63083    78.268218     36976.26 
  201800    307.08807   -1466.5771    496.42376    415.71868    4.9617444     36976.26 
  201900    290.77933   -1444.6869    495.76351    363.34819   -132.15399     36976.26 
  202000    306.28966   -1482.5807    472.07892    371.76701    367.92402     36976.26 
  202100    299.02505   -1485.1448    481.66246    346.00173    626.34811     36976.26 
  202200    310.29287   -1522.1833    491.56788    369.71968    271.77919     36976.26 
  202300     291.5229   -1524.8709    480.63443    271.39081    231.64979     36976.26 
  202400    302.27926   -1520.9086     474.6047    317.86622    -82.79339     36976.26 
  202500    305.73354   -1489.2398    504.04577    394.56503    199.42034     36976.26 
  202600     294.5144   -1450.0526      501.483    380.55812    65.845077     36976.26 
  202700    297.45934   -1489.1852    503.85434    357.08718    343.57641     36976.26 
  202800    306.43844   -1484.7727    506.75914    404.92667   -170.96368     36976.26 
  202900    293.25612   -1504.3852    490.40846    309.47245   -303.33915     36976.26 
  203000    296.97928   -1538.8914    490.29206     291.6523   -329.55914     36976.26 
  203100    296.12697   -1472.1782    496.89966    361.12657   -324.63462     36976.26 
  203200    307.42657   -1473.9898    498.46463    411.87451    89.611889     36976.26 
  203300    298.92062   -1490.5568    483.48368    341.93963    -43.34067     36976.26 
  203400    303.51634   -1513.7479    492.88595    348.89102    247.50143     36976.26 
  203500    305.24325   -1501.9327    509.06694    384.68064    248.07294     36976.26 
  203600    302.02828     -1493.59    474.92015    344.36759    51.989881     36976.26 
  203700    302.57262   -1499.4876    480.26095    346.26733    293.30399     36976.26 
  203800     305.0453   -1503.9978    481.62415    354.27942     351.8801     36976.26 
  203900    298.27025   -1483.7025    478.86974     341.2449    129.81887     36976.26 
  204000    305.53474   -1490.2328    505.20573    393.83482    376.00824     36976.26 
  204100    303.51867   -1513.9795    481.28632    337.07034    199.29223     36976.26 
  204200    302.76772   -1488.8152    501.39611    378.95546    82.120433     36976.26 
  204300    299.90289   -1490.3765     488.3949    351.46409    222.58697     36976.26 
  204400     294.6092   -1510.0653    478.90182    298.39202     106.1903     36976.26 
  204500    299.40903   -1526.3701     509.9584    334.80521   -17.472411     36976.26 
  204600    299.66641   -1565.9763    489.49177     275.8939   -895.01182     36976.26 
  204700    288.57791   -1534.7645     481.6414    249.21358   -878.40321     36976.26 
  204800    290.54295   -1461.2904    476.75064    326.66498   -461.41226     36976.26 
  204900    310.96694   -1531.5164    474.93048     346.7912   -534.23081     36976.26 
  205000    293.81452   -1524.0097    489.87549    291.83498     340.0227     36976.26 
  205100    285.34949   -1540.2758    480.52307     228.0142   -266.17059     36976.26 
  205200    303.66342   -1531.1122    471.83914    311.14367    205.50538     36976.26 
  205300    296.27951   -1548.8504    492.68268    280.92589    192.27552     36976.26 
  205400    296.68243   -1524.1645    490.74136    305.48872    406.72449     36976.26 
  205500    306.27436   -1519.2282    484.67659    347.64822    37.177831     36976.26 
  205600    304.11162   -1484.3014    498.78832    386.92637    197.33074     36976.26 
  205700    305.58484   -1513.3474    478.94069    344.68134    277.96812     36976.26 
  205800    288.77424   -1471.2923    471.93634    303.86669    80.577116     36976.26 
  205900     300.7064   -1504.3771    488.31439     341.0091    223.31676     36976.26 
  206000    301.84262   -1540.5159     497.3897    319.07341    681.05544     36976.26 
  206100    307.40545   -1567.5063    494.14403    313.94208     1075.625     36976.26 
  206200     286.7185   -1553.5069    465.79139    206.22968    434.15494     36976.26 
  206300    300.70913    -1519.303    488.14687    325.92804    183.38807     36976.26 
  206400    308.32937   -1574.7002    480.92393    297.69763   -356.84638     36976.26 
  206500    300.68343   -1539.9195    496.11575    313.16442   -422.17835     36976.26 
  206600    299.29284   -1569.9002    486.37913    267.17149    298.68448     36976.26 
  206700    293.78641   -1557.1708    501.87692    270.54845   -678.56588     36976.26 
  206800    303.31039   -1542.0167    511.82358     338.6304   -67.051886     36976.26 
  206900     295.8931   -1577.2717    470.11425     228.1923    195.53742     36976.26 
  207000    294.67138   -1524.6517    510.57704    315.76149    200.75807     36976.26 
  207100    292.81379   -1502.1279    496.95325    316.27836   -22.343956     36976.26 
  207200    311.36614   -1492.3729    509.75485    422.56062   -183.85163     36976.26 
  207300    295.81741   -1520.7324    487.66287    301.93855    66.779085     36976.26 
  207400    294.96251   -1526.4203    493.37361     298.1033    269.17692     36976.26 
  207500    301.05688   -1512.2664    473.76834    320.15548    671.72414     36976.26 
  207600    297.44624   -1533.7269    502.22944    310.86147   -143.17031     36976.26 
  207700    306.05852   -1476.8273    489.49467    393.89306    143.82854     36976.26 
  207800    298.88567   -1532.2084    509.19159    325.83819   -88.566576     36976.26 
  207900    309.04828   -1531.4641    509.45733    372.71154    263.36588     36976.26 
  208000    298.02054   -1513.9866    504.54071    335.50484    160.97874     36976.26 
  208100    292.65358   -1534.8476    515.97459    301.85688    457.78398     36976.26 
  208200    299.87862   -1530.2329    500.08061    323.18383    171.61742     36976.26 
  208300    289.16914   -1523.3931    505.12917    286.74086    302.33814     36976.26 
  208400    284.24337   -1518.2031    503.79804    268.37003   -158.47906     36976.26 
  208500    299.74846   -1573.7143    513.27248    292.30686   -21.765986     36976.26 
  208600    298.66621   -1576.7845    479.87469    250.95481    -521.4098     36976.26 
  208700    301.64914   -1540.6661    503.74503    324.40539    18.962728     36976.26 
  208800    297.80503   -1558.7306    481.60822    266.85575   -441.20033     36976.26 
  208900    300.32969   -1539.6501    467.93751    283.65918   -390.92985     36976.26 
  209000    310.21028   -1500.0492    477.44956    377.36278    -461.5515     36976.26 
  209100    302.45648   -1524.1474    496.35878    337.18127   -281.77682     36976.26 
  209200    307.21948   -1522.8339    503.22279    366.85391   -631.75868     36976.26 
  209300    308.90746    -1538.617    493.84794    349.31374   -584.66123     36976.26 
  209400    307.91239   -1511.7025    467.39459     345.2842   -409.62867     36976.26 
  209500    308.74292   -1522.1892    501.47051    372.62157   -256.70062     36976.26 
  209600    305.78672   -1503.5236    506.30594    382.78145   -176.60756     36976.26 
  209700    292.42475   -1499.4955    512.42081    332.62249   -292.06889     36976.26 
  209800    312.97915   -1536.6873     499.7339    375.50476    75.684166     36976.26 
  209900    294.17237   -1560.2312     499.4242    266.77714    -343.1279     36976.26 
  210000    305.05057   -1535.7023    490.21406    331.18862   -52.061192     36976.26 
  210100    300.39499   -1560.5884    470.49363    265.57173    49.047061     36976.26 
  210200    297.30395   -1533.3371    480.93755    289.31722    426.84754     36976.26 
  210300    295.25049   -1476.1116    510.49533    366.83332   -294.12599     36976.26 
  210400    302.71205   -1505.4312    518.62418    379.31621    56.932909     36976.26 
  210500    297.48614   -1471.5227    479.86669    350.88301   -134.26155     36976.26 
  210600    297.36108   -1443.4804    515.94694    414.44116    26.393851     36976.26 
  210700    306.11896   -1491.3787    479.62867    369.74847   -398.26311     36976.26 
  210800    300.47474   -1474.7041    502.86107    384.18339    212.48007     36976.26 
  210900    291.25665   -1485.1025    508.68189    338.00502    210.97675     36976.26 
  211000    311.71677   -1518.2192    485.73495    374.27681    323.70716     36976.26 
  211100    292.34816   -1499.9631    478.79698    298.18545    367.40032     36976.26 
  211200     309.8048   -1463.5124    500.39292    435.01294    220.58215     36976.26 
  211300    302.26733   -1521.4118    511.47304    354.17747    292.82054     36976.26 
  211400    312.32682   -1518.7571    472.81753    363.57464    443.81251     36976.26 
  211500      286.412   -1520.3652     470.5313    242.72813   -409.41694     36976.26 
  211600    297.24039   -1494.2661    496.84522    344.00906   -147.94995     36976.26 
  211700    305.62888   -1512.9987    497.24973     363.5378    473.31676     36976.26 
  211800    292.42335   -1517.7396    497.65616    299.60744    257.02515     36976.26 
  211900    300.85469    -1510.246    487.99489    335.48998    453.38347     36976.26 
  212000    298.43622   -1471.7656    514.03358    389.09468    707.76776     36976.26 
  212100    299.90939   -1482.9624    493.30014    363.81274    781.14886     36976.26 
  212200    294.95258   -1453.2243    514.27092    392.15182    466.59299     36976.26 
  212300    298.03627   -1458.2978    503.70796     390.4319    218.72794     36976.26 
  212400    285.31846   -1501.8644    525.20696    310.96944    36.821136     36976.26 
  212500    311.33788   -1511.1945    499.90353    393.76017      599.362     36976.26 
  212600    297.66586   -1494.1118    506.82287    356.06118    717.38554     36976.26 
  212700    303.51231   -1475.9258    519.50747    413.31644     88.70664     36976.26 
  212800    300.83718   -1517.1059    518.24588    358.80201    302.71011     36976.26 
  212900    294.49193   -1523.2152    521.06053    326.87161   -8.2535199     36976.26 
  213000    296.64854   -1470.2824    495.75342    364.23003   -266.39468     36976.26 
  213100    290.41696   -1492.3876    491.60905    309.85757   -298.55352     36976.26 
  213200    296.78096   -1484.7812    527.31506     381.8904    226.47002     36976.26 
  213300     292.5976   -1483.7683    506.61707    343.32601   -100.84379     36976.26 
  213400    295.89587   -1472.5539    510.80417    373.61248   -120.98485     36976.26 
  213500    303.81902    -1480.242    506.84229    397.71924    254.63806     36976.26 
  213600    290.17946   -1522.8065    485.98845    272.74633   -50.960937     36976.26 
  213700    289.18338   -1508.0187    491.60802    288.65838   -243.18453     36976.26 
  213800    301.40159   -1476.4777    500.64205    384.37358   -20.176213     36976.26 
  213900    303.12431     -1522.21    514.66974    360.44353    213.95001     36976.26 
  214000    301.12708   -1505.3115     483.7108    337.36968    100.23695     36976.26 
  214100    307.15681   -1549.5493    480.36507    316.99802   -91.741287     36976.26 
  214200    297.09521    -1533.673    503.84948    310.95128   -75.775834     36976.26 
  214300    301.94382   -1521.2301    505.15066    346.57688   -362.86911     36976.26 
  214400    289.34131   -1512.8611    498.73299    291.65371    102.64935     36976.26 
  214500     304.2605   -1518.5982    474.63679    329.14995     366.6045     36976.26 
  214600    293.30526   -1512.3231    505.74057    317.08841   -333.98069     36976.26 
  214700    305.94772   -1494.1726    509.93703    396.49012    -99.43287     36976.26 
  214800    292.99307   -1504.2395    502.66998    320.69253    210.73886     36976.26 
  214900    301.52084   -1518.6569    503.59293    345.68341   -19.618848     36976.26 
  215000    307.03084   -1516.0759    515.41972    384.95757    700.94815     36976.26 
  215100    301.35871   -1494.7843    504.85406     370.0855    301.83543     36976.26 
  215200    304.59094   -1476.8301    498.55777    396.33028    459.12712     36976.26 
  215300    303.99206    -1537.638    515.14847     349.4104    369.50025     36976.26 
  215400    312.63746   -1513.6382    502.17194    399.44979    483.68912     36976.26 
  215500    303.16106   -1509.0672     476.5543    335.63679    637.54864     36976.26 
  215600    299.58888   -1491.7293    494.62181    354.92113    -134.0923     36976.26 
  215700    299.01533   -1495.1828    506.48554    360.74294   -197.81116     36976.26 
  215800    305.85136   -1523.0809    498.86881     356.0787     132.8771     36976.26 
  215900     306.7781   -1481.3917    509.48284    412.56428    781.47591     36976.26 
  216000    291.09377   -1479.8679     480.3322    314.15482    447.32316     36976.26 
  216100    294.27558   -1462.7664    496.98638    362.26991   -3.3870735     36976.26 
  216200     300.0252   -1449.5795     498.2197    402.63787    41.697895     36976.26 
  216300    294.65991   -1448.6592    521.55338    402.67853   -53.826674     36976.26 
  216400    303.30704   -1467.5791    507.94439    409.17369    409.54915     36976.26 
  216500    302.05601   -1466.7569    506.43582    402.84153    313.90489     36976.26 
  216600    298.30183   -1490.9218    503.42731    358.72569     582.7655     36976.26 
  216700    310.24926   -1473.3589    499.23775    426.01711   -153.97769     36976.26 
  216800    300.46683   -1476.0015    487.18456    367.17376   -391.14217     36976.26 
  216900    303.23199    -1472.474    481.48213    377.47786   -240.19906     36976.26 
  217000    305.76645   -1486.6902    505.35512    398.57255   -118.10865     36976.26 
  217100    294.13981   -1528.4352    494.71032    293.71235   -348.01693     36976.26 
  217200    306.86343   -1500.9358    480.58673    364.50914   -106.80871     36976.26 
  217300    296.35205   -1480.4448    491.91879    348.89488   -172.45464     36976.26 
  217400    301.11689   -1528.5683    488.81315    319.16918    450.16166     36976.26 
  217500     298.6144   -1500.4684    477.15453    324.31691   -70.480649     36976.26 
  217600    303.58571   -1516.4705     506.0818    359.67733    159.44501     36976.26 
  217700    295.24012   -1530.3933     469.4474    271.45697   -502.75341     36976.26 
  217800    294.74985   -1545.7163     465.9748    250.44879   -227.24192     36976.26 
  217900    297.99677   -1514.6808    524.74327    354.90587   -504.97151     36976.26 
  218000    302.04292    -1517.255    475.21396    321.06247   -250.54057     36976.26 
  218100    291.41565   -1504.1879    485.98226    296.93759   -149.26099     36976.26 
  218200    308.19702   -1530.0349    497.47373    358.31552   -272.08498     36976.26 
  218300    306.32994   -1502.5087    477.78611    357.72803   -302.79889     36976.26 
  218400    296.62998   -1506.5701    493.83762    325.94273    70.677319     36976.26 
  218500    300.53256   -1505.3525    481.87517    332.81002    179.79041     36976.26 
  218600    305.40477   -1489.2272    492.47133    381.51948    68.898156     36976.26 
  218700    299.84959   -1440.7772    460.91172    373.33969    178.83492     36976.26 
  218800     298.5394   -1476.6745    498.53937    369.15715    537.89202     36976.26 
  218900    301.13351   -1491.4966    485.51021    353.01299    407.07274     36976.26 
  219000    298.40989   -1516.1336    504.73259    335.30684    215.16617     36976.26 
  219100     305.2565   -1496.5035    480.13399    361.23671    34.020935     36976.26 
  219200    301.71087   -1520.5943    468.77647     309.7872   -231.98539     36976.26 
  219300    296.08207   -1503.5011    481.66035    314.36175   -251.42237     36976.26 
  219400    299.70414   -1484.8097    463.69233    331.43131   -996.94887     36976.26 
  219500     300.0382   -1515.2468    489.22419    328.03377   -360.88816     36976.26 
  219600    298.27242   -1491.5065    498.43719    353.01811   -853.02241     36976.26 
  219700    295.96885   -1463.7885    509.43794    381.34096   -309.65421     36976.26 
  219800    304.20614   -1491.8817    495.05031    376.03463   -757.30422     36976.26 
  219900    293.62104   -1485.9735    468.58717    307.70971   -222.61945     36976.26 
  220000    303.26983   -1467.8557    501.67668     402.4615     -220.071     36976.26 
  220100    303.55175    -1474.668    500.64828    395.89302    54.451239     36976.26 
  220200    297.50751   -1480.7184    469.42711    331.34422   -369.82035     36976.26 
  220300    305.53734   -1482.0923    487.63335    384.41472   -166.57817     36976.26 
  220400    304.63443   -1452.6665    507.60156    429.73394    -340.3334     36976.26 
  220500    290.61164   -1450.2647    501.56478    362.81483   -34.448244     36976.26 
  220600    310.37751   -1448.0687    526.82802    479.47638   -280.00565     36976.26 
  220700    290.73984   -1454.5488     492.1653    349.70983   -692.52206     36976.26 
  220800    302.62731   -1478.1015    481.92299    369.56233   -36.168075     36976.26 
  220900    312.65047   -1450.8725    512.68426    472.78663    -494.1223     36976.26 
  221000    299.00419   -1430.2699    496.86519    415.98517   -189.55554     36976.26 
  221100    298.32089   -1440.2436    493.39599    399.45855   -429.39013     36976.26 
  221200    300.32697   -1447.7764     478.8539    386.43701   -442.52711     36976.26 
  221300    303.49068   -1440.5683    490.54474    419.61367    -140.7461     36976.26 
  221400    306.25304   -1429.1513    493.89751    446.84982    668.28202     36976.26 
  221500    294.71786   -1434.5981     497.5369    392.98472    476.97822     36976.26 
  221600    293.55981   -1474.4554    485.42774    335.79201    284.01296     36976.26 
  221700    298.46901   -1465.9507    501.89786    382.92181    860.77482     36976.26 
  221800    294.40824   -1453.8273    492.47468    367.29604    672.53621     36976.26 
  221900     297.7497   -1439.8005    502.77902    406.70692   -135.85641     36976.26 
  222000    301.63402   -1415.8867    490.92963    436.30111   -40.362216     36976.26 
  222100    301.63189   -1408.7222     498.4866    451.01296   -854.13657     36976.26 
  222200    301.49762   -1478.7793    514.70501    396.56828   -451.85353     36976.26 
  222300    294.48571   -1443.2205    471.40047    357.17822   -473.86949     36976.26 
  222400    296.81021   -1466.8243    504.89692    377.56113    -461.5895     36976.26 
  222500    301.63405   -1458.7166    484.82142    387.36312   -455.57232     36976.26 
  222600    296.14215   -1442.6917    491.13493    384.91691    307.98186     36976.26 
  222700    296.44945   -1451.7212    503.46489    389.60421    355.66826     36976.26 
  222800    293.74208   -1466.1565    489.72173    349.20752   -116.82807     36976.26 
  222900    284.24814   -1494.0574    493.04565    281.78491   -212.48871     36976.26 
  223000    307.34783   -1442.9163    499.30181    443.42979   -498.53863     36976.26 
  223100    296.20674   -1441.8488    483.04174    377.95812   -686.58676     36976.26 
  223200    300.92963    -1476.973    492.54764      373.654   -247.14433     36976.26 
  223300    294.68262   -1521.7241    473.87904     282.0418   -176.60481     36976.26 
  223400    306.00501   -1486.4098    479.35673    373.93119    -267.5607     36976.26 
  223500    290.22588   -1517.9623    442.61962     234.4312   -617.03802     36976.26 
  223600    299.40856   -1513.4384    472.41781     310.1942    -134.2417     36976.26 
  223700    292.66251   -1551.4704    496.15269    265.45251    78.318087     36976.26 
  223800    300.81735   -1525.7068    464.89112    296.75685    277.26843     36976.26 
  223900    294.48664   -1463.3034    489.12036    354.81939    397.10788     36976.26 
  224000    303.52462   -1516.6252    475.12121    328.28632    114.29015     36976.26 
  224100    303.50566   -1514.4846    468.95744     324.1776   -163.43597     36976.26 
  224200    297.37934   -1539.9302    471.27456    273.40139   -101.83555     36976.26 
  224300    303.51432   -1506.1344    462.32195    325.93139   -330.13395     36976.26 
  224400    303.12126   -1475.8985    499.14567    391.21715   -414.59768     36976.26 
  224500    304.97046   -1454.9186    518.46656    439.86332     35.49605     36976.26 
  224600    293.50043   -1494.9646    467.44014    297.02726   -173.80989     36976.26 
  224700    303.87229   -1462.3638    492.25682    401.25233    348.80839     36976.26 
  224800    296.26401   -1460.2755    505.05063    381.79871  -0.21070442     36976.26 
  224900    292.81247   -1448.4246     475.6567    348.67911   -23.558886     36976.26 
  225000    302.84207   -1487.7133    477.15502    356.15179   -265.85337     36976.26 
  225100    301.82213   -1411.2867    515.61236    466.43276    -441.1213     36976.26 
  225200    286.41838    -1439.841    455.93998    308.68978   -557.57567     36976.26 
  225300    306.23931   -1481.6551    480.25582    380.64226    43.354935     36976.26 
  225400    293.09167   -1459.7756    494.60256    357.53401    160.92888     36976.26 
  225500    298.05695   -1457.8873    474.47878    361.70649    68.387284     36976.26 
  225600    302.01076   -1482.3793    500.09796    380.67706    7.2605476     36976.26 
  225700    294.85604   -1496.2002    485.55373    320.02304     193.2625     36976.26 
  225800    310.50651   -1524.6438    466.34775    343.00324    333.83439     36976.26 
  225900     304.6608   -1498.1028     506.9638    383.77884    338.51378     36976.26 
  226000    293.24651     -1496.06    493.00612    320.35191    291.23817     36976.26 
  226100    291.94487   -1517.8985    484.78886    284.42197    70.153586     36976.26 
  226200    305.91389   -1505.9399    474.37579    349.00888   -172.29137     36976.26 
  226300    297.19211   -1479.5519    462.57606     324.2362     126.1306     36976.26 
  226400    301.76159   -1462.2668    493.63398    393.20106   -524.26044     36976.26 
  226500    296.99576    -1539.192    465.88866     267.0226    -242.0243     36976.26 
  226600    293.95368   -1554.1751    484.94406    257.36613   -292.14599     36976.26 
  226700    301.82153   -1540.0736    501.07765    323.10841    234.33306     36976.26 
  226800    295.20328   -1553.6009    505.26298    283.89865    632.81651     36976.26 
  226900    298.95838   -1514.4203     471.6286    306.39148    492.44421     36976.26 
  227000     301.0172   -1510.8965    472.93554    320.51351     641.2793     36976.26 
  227100    303.35853   -1517.9773    503.35225    354.41578    384.44723     36976.26 
  227200    296.46857   -1528.2133    490.16586    299.89936    680.29108     36976.26 
  227300    294.39587   -1522.0926    484.19684    290.69703     600.7305     36976.26 
  227400    305.97821   -1474.5925    516.73502    423.00579    610.00479     36976.26 
  227500     301.8465    -1541.703    489.53079    310.04489    716.92983     36976.26 
  227600    296.18386   -1541.8963    494.50322    289.26881    374.01365     36976.26 
  227700    310.15412   -1515.6722    490.63979    374.67651    50.819243     36976.26 
  227800    304.00515   -1518.2198    504.42492    358.16413   -52.816064     36976.26 
  227900    289.19835   -1503.8536     480.9886    282.27159   -236.24521     36976.26 
  228000    300.30402    -1494.397    506.61667    367.47569    506.26211     36976.26 
  228100    304.10104   -1493.5425    505.14998    383.99917    489.03319     36976.26 
  228200    304.31927   -1508.6306    501.66122    366.40721    100.77023     36976.26 
  228300    303.69506   -1521.1204    491.37521    340.81431     663.4934     36976.26 
  228400    297.36549   -1521.3677     516.1301    336.75689     163.1606     36976.26 
  228500    296.90635   -1484.8634    480.20086    335.25991    188.62822     36976.26 
  228600    308.94052   -1474.3917     472.8263    392.66657    156.95872     36976.26 
  228700    299.39259    -1521.083    492.94001    322.99976   -318.77564     36976.26 
  228800    292.17703   -1510.6101    465.52479      273.494   -853.52667     36976.26 
  228900    301.28511   -1517.7196     511.7239    353.68789   -958.80594     36976.26 
  229000    304.51437   -1502.0241    498.37299    370.60592   -808.68544     36976.26 
  229100    297.07206   -1514.4199    473.91672    300.16713   -282.40745     36976.26 
  229200    307.74876    -1466.394     494.9224    417.38208   -335.47987     36976.26 
  229300    290.82927   -1526.8181     501.6627    287.34158   -254.32921     36976.26 
  229400    287.66351   -1505.0925    481.37996    274.49748    146.73767     36976.26 
  229500    301.88888   -1545.0854    481.65538    298.97828    216.71871     36976.26 
  229600    305.86721   -1535.0264    495.38941    340.72533   -25.712516     36976.26 
  229700    289.22134   -1475.3405    515.92223    345.82212   -409.72803     36976.26 
  229800    307.09871   -1415.4074    502.27459    472.78722   -351.80495     36976.26 
  229900    285.84147   -1507.1779    499.20613     282.0154   -561.55964     36976.26 
  230000    303.57564   -1463.6189     500.1801    406.58184   -845.01438     36976.26 
  230100    284.59529   -1460.2724    476.72007    300.81096   -860.50534     36976.26 
  230200    297.98328   -1513.0272     494.4445    326.19982   -518.43979     36976.26 
  230300    300.77408   -1490.5734    496.28722    363.09111   -183.24666     36976.26 
  230400    294.59892   -1467.7218    485.12674    346.91401   -165.67845     36976.26 
  230500    291.06834   -1453.3051    535.74342    396.01416   -127.30946     36976.26 
  230600    304.76365   -1493.4191    505.19051     387.1534    -350.1049     36976.26 
  230700    302.03154   -1484.2466     506.4526    385.25812   -296.76376     36976.26 
  230800    297.31254    -1477.247    505.57518    370.08377    263.66197     36976.26 
  230900    294.43705   -1535.1237    497.75583    291.41073   -46.679876     36976.26 
  231000    298.98029   -1518.9986    502.54865    332.83206     585.0817     36976.26 
  231100    302.56936   -1488.8318     485.5282    362.17574    563.08912     36976.26 
  231200    307.45721   -1481.6518    508.36924    414.25537     106.0314     36976.26 
  231300    300.55688   -1502.1039    501.29306    355.58624   -440.56106     36976.26 
  231400    299.83886    -1474.835    482.39681     360.7185    182.24054     36976.26 
  231500    299.83502   -1514.3687    516.11704    354.88771    192.03751     36976.26 
  231600    298.05094   -1507.3262    513.09998    350.86171    81.229804     36976.26 
  231700    296.43705   -1461.4329    497.78317     374.1548   -39.438641     36976.26 
  231800    285.60556   -1436.3631    501.33254    353.89199    455.12363     36976.26 
  231900    300.93155   -1474.9243      499.899    383.06264    460.24584     36976.26 
  232000    305.47525   -1473.9499    496.62492    401.26843    212.75082     36976.26 
  232100    300.29041   -1479.8407    498.64796    374.00175   -19.610508     36976.26 
  232200    300.33299   -1455.3737    528.75342    428.76641    528.20211     36976.26 
  232300    303.80568   -1470.3209    494.70337    395.44119    21.751756     36976.26 
  232400    301.45385   -1459.8294     511.8175    412.43316   -450.06889     36976.26 
  232500    297.42325   -1451.0495    497.98117    389.18685   -351.29221     36976.26 
  232600    294.53173   -1494.2875    489.76931     324.6877    18.929042     36976.26 
  232700    297.34489   -1520.2146     495.2202    316.90721    -249.3702     36976.26 
  232800      305.822   -1521.6333    485.74776     344.2728    79.015289     36976.26 
  232900    299.27667   -1532.0604    508.13721    326.69642    318.13507     36976.26 
  233000    299.68883   -1502.4004    507.42179    357.50095    315.95084     36976.26 
  233100    308.44618   -1531.8747    502.20428    362.33068   -113.76732     36976.26 
  233200    308.29861   -1516.2185    496.80936    371.92599     81.12351     36976.26 
  233300    289.41938   -1503.0288    530.09269    333.19804   -574.98294     36976.26 
  233400    298.71216   -1498.7966    482.43543    331.71081   -683.93244     36976.26 
  233500    294.83258    -1563.781    460.42635      227.209   -635.18913     36976.26 
  233600    301.16724   -1519.9597    499.39001    338.58195    2.6065676     36976.26 
  233700    294.26977   -1513.7183    497.61466    311.92008    75.256304     36976.26 
  233800      298.861   -1532.1698    528.00158    344.57543    33.240737     36976.26 
  233900    290.45714   -1496.8874    498.84341    312.77352   -291.39376     36976.26 
  234000    304.01977   -1520.0412    468.34437    320.32804    500.55782     36976.26 
  234100    285.85887   -1510.8179    494.18484    273.43271   -432.60972     36976.26 
  234200    294.13503   -1516.5903    487.91004    298.73538    410.75866     36976.26 
  234300    300.15131   -1488.0747    497.58113    364.07324    440.71099     36976.26 
  234400    304.70374   -1488.2521    479.28804    366.14761    280.44448     36976.26 
  234500    289.04266   -1505.7248    500.65997    299.36923     -150.046     36976.26 
  234600    308.20228   -1485.8301    483.50019    388.57044    627.74887     36976.26 
  234700    299.28934   -1566.5835    497.99708    282.09032    -814.3476     36976.26 
  234800    299.16908   -1516.3552    487.27885    321.05767    -750.6567     36976.26 
  234900    311.32388   -1547.1882    483.52463    341.32437    -819.0352     36976.26 
  235000    297.65852   -1556.1731    468.85976    256.00357   -195.37014     36976.26 
  235100    299.09674   -1550.0033    517.99094    317.79515    54.940041     36976.26 
  235200    294.52314   -1546.5843    507.88489    290.46773    309.82207     36976.26 
  235300    303.66062    -1523.916    497.64453    344.13264    79.740893     36976.26 
  235400    289.23348   -1519.5255    503.25538    289.02511    141.00055     36976.26 
  235500    292.93398   -1516.9832    480.57799    285.59013    117.11114     36976.26 
  235600    306.80305   -1522.4108    482.79439     344.9693   -24.469127     36976.26 
  235700    306.46799   -1547.1263    494.01088    329.95815   -80.825414     36976.26 
  235800    301.75112   -1548.7446    504.17583    317.21789   -71.010848     36976.26 
  235900    299.21113   -1541.5045    500.02659    308.84586   -335.11684     36976.26 
  236000     286.6938   -1545.1786    503.80525    252.46036   -567.51198     36976.26 
  236100     292.8334   -1572.1404    489.07672    238.47771   -311.97716     36976.26 
  236200    303.11012   -1537.6538    481.68103    311.94693    106.66639     36976.26 
  236300    299.00985   -1601.1262    488.09246    236.38172    567.58726     36976.26 
  236400    305.49466   -1595.8118    476.54093    259.41017      624.168     36976.26 
  236500    300.22092   -1566.2309    506.02596    294.67601   -144.43956     36976.26 
  236600    299.93666   -1553.5981     470.6614    270.66136   -346.96882     36976.26 
  236700    301.17476   -1546.0509    483.55355    296.68815   -75.364626     36976.26 
  236800    291.72482   -1516.0511    504.61248    305.09983    49.183592     36976.26 
  236900    298.95298   -1543.5196    496.06511    301.70434    170.03163     36976.26 
  237000    293.18237   -1546.7409    502.16125    278.53662    180.66812     36976.26 
  237100     296.3912   -1567.2782    502.77075    273.09016    226.15752     36976.26 
  237200    282.85751   -1584.3908     475.6321    167.76207    466.34404     36976.26 
  237300    308.60067   -1539.5092      486.548    339.73709   -351.36331     36976.26 
  237400     298.3584   -1530.1552    477.09028    293.41057    121.81198     36976.26 
  237500    297.92208   -1581.3855    479.38335    242.50422    98.613874     36976.26 
  237600    304.64989   -1528.9235    510.85537    356.80054    380.59917     36976.26 
  237700    298.29104   -1507.7519    502.93353    341.35312    150.45774     36976.26 
  237800     297.2839   -1527.2517    485.30405    299.67868    139.80427     36976.26 
  237900    307.30873    -1530.121    470.09535    326.84221     218.8419     36976.26 
  238000    294.50298    -1544.798    494.71401    278.99217    17.883279     36976.26 
  238100    301.86959   -1544.3436    501.94336    319.92101    490.72175     36976.26 
  238200    294.93607   -1541.2031     481.1166    270.94419   -128.29714     36976.26 
  238300    298.81543   -1525.2979    487.92919    311.16925   -503.90818     36976.26 
  238400    298.77375   -1531.3831    497.55178    314.51861   -623.51496     36976.26 
  238500    297.81976   -1543.8834    503.12571    303.28696   -243.73236     36976.26 
  238600    305.83357   -1521.8769    492.08777    350.42137   -167.81263     36976.26 
  238700    299.17277   -1499.7831    504.95145    355.31909   -164.16725     36976.26 
  238800    295.25661    -1521.147     485.5999    296.93012   -718.80663     36976.26 
  238900    294.45591   -1514.5381     503.1218     317.4475    -556.0178     36976.26 
  239000     306.5466   -1492.8835     495.6068    386.15168    -424.8121     36976.26 
  239100    304.42928   -1531.9946    489.14859    331.02703   -106.77126     36976.26 
  239200    290.82247   -1522.3455    536.04093    326.16163    553.98753     36976.26 
  239300    303.44916   -1546.0727    495.44009    318.81718   -58.363394     36976.26 
  239400    300.07971   -1532.1905    506.01772    328.07086   -371.05622     36976.26 
  239500    300.90411   -1519.7446    490.91657    329.13609   -739.79987     36976.26 
  239600    292.93093   -1523.5621    474.95071    273.37021   -529.62047     36976.26 
  239700    301.67663   -1446.8519    543.29519    457.89376    34.608354     36976.26 
  239800    309.36859   -1459.6842    504.04199     440.5216    169.62446     36976.26 
  239900    297.76656   -1509.3551    516.91075    351.36017    318.12055     36976.26 
  240000    301.12946   -1466.6116    522.21557    414.58511    594.83493     36976.26 
  240100    296.62749   -1472.7401    502.69824    368.62215   -364.38713     36976.26 
  240200     291.4048   -1439.5171    506.60747    382.18455    142.04161     36976.26 
  240300    301.63608   -1448.0482     493.6303    406.84955   -133.82778     36976.26 
  240400    299.66136   -1496.1004     496.2397    352.49498   -413.72131     36976.26 
  240500    296.60535   -1457.0242    529.57133    411.11116   -314.08816     36976.26 
  240600     304.6512   -1461.6938    529.14041    442.32116   -190.05598     36976.26 
  240700    303.00243    -1484.957    506.75045    389.22717   -615.12112     36976.26 
  240800    294.65235   -1472.9692    503.64358     360.4246    101.25504     36976.26 
  240900    310.21493   -1504.1596    484.49442    380.31821   -162.65054     36976.26 
  241000    301.56957   -1518.8602    534.23208    376.33921     236.5491     36976.26 
  241100    288.34354   -1520.1431     484.0748    265.21069    125.43943     36976.26 
  241200    300.93385   -1527.4417     505.4124    336.06903   -269.53142     36976.26 
  241300    306.92325   -1530.1056    511.46121    366.48375   -54.772827     36976.26 
  241400    291.97874   -1534.1604    509.83336    293.35735    146.52183     36976.26 
  241500    304.32437   -1464.1351     494.5307    403.79522    215.89766     36976.26 
  241600    305.39743   -1476.1338    522.39075    424.49918     176.0982     36976.26 
  241700     296.2963    -1481.207    500.25929    356.22158    324.51062     36976.26 
  241800    310.22343   -1545.1412    495.72519    350.60573   -118.66302     36976.26 
  241900    291.42752   -1530.9994     475.3715    259.56893   -84.679252     36976.26 
  242000    291.54803   -1501.0488    500.20518    314.89703   -185.13965     36976.26 
  242100    298.28058   -1504.2511    518.37098     360.2441   -307.39872     36976.26 
  242200    286.95712    -1513.859    519.03822    300.20132   -280.60609     36976.26 
  242300    291.88149   -1477.3163    506.86176    346.79103    127.76506     36976.26 
  242400    294.11836    -1519.795    494.90439    302.44976    107.16016     36976.26 
  242500    305.85705   -1448.6057    501.30533    433.01611     69.57226     36976.26 
  242600    300.24526   -1459.7842    503.46123    398.66782    238.97479     36976.26 
  242700    300.46947   -1456.1409    507.11133      406.973    83.963251     36976.26 
  242800    298.24599   -1469.0099    509.69543    386.65369    271.29671     36976.26 
  242900    301.54093   -1462.5926    500.40195    398.64739    427.33062     36976.26 
  243000     303.2168   -1454.9728    507.28689    420.71528    33.872094     36976.26 
  243100    302.64047   -1425.5815    505.28579    445.50457    407.32441     36976.26 
  243200    284.71168   -1456.5148    498.53319    326.90698    341.50697     36976.26 
  243300    304.19083   -1486.1139    507.35011    394.03313    377.69871     36976.26 
  243400       302.54   -1515.0955    508.90571    359.15708   -171.75712     36976.26 
  243500    304.74066   -1524.2423    472.43963    323.47556    79.129205     36976.26 
  243600    295.62093   -1491.1675    506.76997    349.72386    325.00045     36976.26 
  243700    314.12942   -1477.1317    501.51772    442.03526    429.51238     36976.26 
  243800    293.58659   -1546.3394    471.74331    250.34445    308.70348     36976.26 
  243900    303.90978   -1542.6851    502.23715    331.08063    346.69049     36976.26 
  244000    307.09182   -1499.7719    499.60674    385.72376   -231.83913     36976.26 
  244100    293.31124   -1503.1743    498.98615    319.50971   -63.165143     36976.26 
  244200    306.59944   -1516.8185    490.77733    357.62561    54.507849     36976.26 
  244300    308.91717   -1481.9564    490.45634    402.62659   -147.52602     36976.26 
  244400    287.54929    -1518.085    506.75391     286.3635   -239.15738     36976.26 
  244500    301.99167   -1562.1424    473.88772    274.61752     212.2074     36976.26 
  244600    296.22682   -1538.2876    513.01974    311.58794    489.89983     36976.26 
  244700    304.60933   -1542.8586    504.79795    336.62492    439.36028     36976.26 
  244800    308.24612   -1571.7409    498.29579    317.65306    423.98321     36976.26 
  244900    310.70629   -1528.5693    495.16088    368.79242    373.22173     36976.26 
  245000    293.25324   -1553.0894    498.43519    268.78198    663.25283     36976.26 
  245100    289.15789   -1517.8461     514.1698    301.27781    683.30324     36976.26 
  245200    308.09221   -1512.4147    519.28771    397.27666   -71.371087     36976.26 
  245300     298.5006   -1534.0484    509.79696    322.86577   -308.82731     36976.26 
  245400    292.92521   -1493.3769    508.34738    336.92627    20.980793     36976.26 
  245500    294.18619   -1483.9795    502.78499    346.45203   -303.66581     36976.26 
  245600    302.96582   -1533.2045     492.2454    326.30943    50.449042     36976.26 
  245700     292.2047   -1534.3397    475.77117    260.13563    441.03473     36976.26 
  245800    309.04346   -1531.0095    519.57653    383.26363    574.18272     36976.26 
  245900    294.95993   -1543.9466    513.27234    300.46411    429.89263     36976.26 
  246000    314.07772   -1522.3983    505.28962    400.30725    620.30108     36976.26 
  246100    304.76629   -1520.8407    499.17441    353.72764   -420.29643     36976.26 
  246200    298.18324   -1495.9831     516.2667    365.96862    28.997421     36976.26 
  246300    297.99167   -1545.9255    500.52568    299.42062   -693.94678     36976.26 
  246400    295.57051   -1571.4171    488.90821    251.38494    -170.4882     36976.26 
  246500    302.12708   -1522.4454    509.46597    350.50389   -405.25175     36976.26 
  246600    300.11474   -1499.7557    488.72663    343.37269   -346.95396     36976.26 
  246700    287.20328   -1499.8238    494.19384    290.50303   -592.48008     36976.26 
  246800    308.13389   -1503.9548    491.64486    378.28177   -629.46103     36976.26 
  246900    292.66254    -1508.979    487.82422    299.61557   -1148.5081     36976.26 
  247000    297.45481    -1483.993    499.51964    357.92424   -1128.4164     36976.26 
  247100     292.8071    -1506.508    495.92579    310.84053   -731.64256     36976.26 
  247200    303.08316   -1499.8773    506.70556    374.62633   -235.03129     36976.26 
  247300    307.48289   -1511.2276    502.99028     379.4165    237.39616     36976.26 
  247400    288.43647   -1504.8404    539.45652    336.31441    754.26343     36976.26 
  247500    291.17092   -1475.3098    486.75298    325.48194    239.18356     36976.26 
  247600    298.90513   -1436.5647    522.61289    434.99098    -73.95343     36976.26 
  247700    302.04242   -1449.0182    510.18193    424.26498   -268.46171     36976.26 
  247800    298.42286   -1488.7401    514.19366       372.22   -349.82767     36976.26 
  247900    300.86852   -1473.0693    504.53954    389.27373   -652.01776     36976.26 
  248000    295.28017   -1483.5212    517.78324    366.84563   -748.41512     36976.26 
  248100    304.16908   -1458.2779    467.60153    382.02236   -343.27589     36976.26 
  248200    303.86044   -1501.2457    527.57627    397.63639    -377.9914     36976.26 
  248300    297.06584   -1464.9574    502.42322    378.10803    477.28096     36976.26 
  248400    303.47652   -1455.2621    492.85756    407.16873    58.857717     36976.26 
  248500    289.48811   -1462.4088    515.26443    359.29995   -153.01079     36976.26 
  248600    293.01344   -1465.4299    492.42303     349.3471   -178.17895     36976.26 
  248700    300.16652     -1424.38     517.3703    447.62569   -205.83403     36976.26 
  248800    312.47106   -1442.7104     487.8341    455.28884    106.77022     36976.26 
  248900    308.16783    -1464.626     527.0554    453.17425   -168.16531     36976.26 
  249000    293.57984   -1427.8888    498.33214    395.35344    7.1211715     36976.26 
  249100    310.70837   -1403.5191    486.09149    484.78264    354.47832     36976.26 
  249200    308.94165   -1446.2489    531.00455    478.99272   -103.90264     36976.26 
  249300    292.22413    -1427.544    501.92399    393.17186    -606.8976     36976.26 
  249400    301.55329   -1447.6606    503.44716    416.68044   -832.87135     36976.26 
  249500    309.71025   -1471.8713    497.56022    423.39467   -28.597479     36976.26 
  249600    296.92172   -1433.1926    500.59456    407.39374   -50.108977     36976.26 
  249700    301.99819   -1452.5591    508.27259    418.61518   -8.8901778     36976.26 
  249800    294.47372   -1482.0747    521.37124    368.24061    443.96514     36976.26 
  249900    306.21921   -1470.3334    492.03938     403.6569     605.8343     36976.26 
  250000    300.51473   -1466.8328    505.02719     394.4012    125.33912     36976.26 
  250100    306.91959   -1457.3846    492.98688    420.71398    183.72511     36976.26 
  250200    299.99597   -1476.0143    488.85752    366.70897   -120.85583     36976.26 
  250300    295.66272   -1428.0627    506.17893    412.42631   -450.54582     36976.26 
  250400    310.89822    -1487.708    489.97131     405.3303    112.43059     36976.26 
  250500     298.6423   -1492.4223    514.24955    369.58394   -28.126462     36976.26 
  250600      301.693   -1493.3955    490.41855    358.54735   -106.38676     36976.26 
  250700     305.2996   -1489.4591    499.40565    387.74733    378.89619     36976.26 
  250800    302.23159   -1509.3989    507.19472    361.75081   -266.26829     36976.26 
  250900    308.15571   -1498.4838    490.50554    382.71189    283.44602     36976.26 
  251000    288.44432   -1468.7715    513.61537    346.57759     561.0557     36976.26 
  251100    302.14302   -1441.9237    504.31246    425.94398    347.39864     36976.26 
  251200    314.12711   -1524.3887    509.25957    402.50971    655.74417     36976.26 
  251300    296.86096   -1504.4459    509.30089    344.57264    581.24112     36976.26 
  251400    300.09638   -1471.7944    518.21274     400.7372    419.90528     36976.26 
  251500    294.91384   -1513.5184    510.63311    328.04508    -115.2793     36976.26 
  251600     301.8508   -1518.7198    503.85142    347.36807    70.366601     36976.26 
  251700    304.58173   -1486.6591    489.51179    377.41366   -289.40554     36976.26 
  251800    306.02213   -1521.6276    497.70391    357.13776   -15.702453     36976.26 
  251900    288.48818   -1516.8124    496.19176    281.31105   -399.84236     36976.26 
  252000    288.35958    -1544.297    491.76136    248.81566   -137.23775     36976.26 
  252100    300.18616   -1537.2142    498.63198    316.14185   -302.15011     36976.26 
  252200    308.50946   -1513.0865    502.69394     381.8941   -289.50921     36976.26 
  252300     308.5997   -1585.2528    466.20485    273.64592   -230.17852     36976.26 
  252400    302.47705   -1538.9652    485.76789    311.86538   -72.735415     36976.26 
  252500    307.17734    -1565.431    485.99333    306.83723   -182.28316     36976.26 
  252600    301.03056   -1596.1255    495.16889    257.57819    156.66108     36976.26 
  252700    306.05965   -1577.7432     504.6959    308.18351     503.5094     36976.26 
  252800     305.6899    -1539.801    491.84227    331.60346    159.69769     36976.26 
  252900     297.6249   -1556.4919    469.54881    256.22216   -11.615655     36976.26 
  253000    297.26508   -1541.4927    522.50069    322.54944    429.59749     36976.26 
  253100    297.24481   -1558.4248    477.42846    260.45361   -61.179712     36976.26 
  253200    308.52253   -1555.6404     496.2892    332.99448   -313.23438     36976.26 
  253300     288.4062   -1546.6695     508.2025    263.09476   -140.77259     36976.26 
  253400    302.26167   -1567.7058    500.09424    296.47922    -448.9444     36976.26 
  253500    294.22029   -1606.5521    470.31974    191.56806   -204.27075     36976.26 
  253600    295.46752   -1517.6964    506.51169    322.24442    143.13408     36976.26 
  253700    301.03652   -1531.6158      509.024    335.96987    300.68272     36976.26 
  253800    295.86523   -1532.9317    506.20439    308.49663   -316.16162     36976.26 
  253900    309.73705   -1541.7352    494.80117    350.89268     722.6513     36976.26 
  254000    308.47915   -1505.6858    524.09718    410.56131    708.98054     36976.26 
  254100    304.41134    -1496.583     492.2574     369.4665    449.80553     36976.26 
  254200    294.77118   -1506.3261    531.11264    355.07309     311.5961     36976.26 
  254300    295.94033   -1516.6084    490.49068    309.44517    508.59911     36976.26 
  254400     295.4847   -1551.9224    479.95027    261.53445      -86.951     36976.26 
  254500    300.40946   -1527.2923     501.0071    329.44667   -254.76598     36976.26 
  254600    300.61572   -1501.1145    515.39543    370.94359   -48.711591     36976.26 
  254700    294.03153   -1508.2817    514.53979    333.20662    216.83118     36976.26 
  254800    308.86341    -1530.835    476.27979     339.3288    104.28764     36976.26 
  254900    302.30721    -1537.854    498.66576    325.10801   -202.02874     36976.26 
  255000    316.91356   -1519.7301    508.98151    419.46529    217.82216     36976.26 
  255100    295.97768   -1504.4196    494.71167    326.02353   -282.30249     36976.26 
  255200    295.48822   -1479.8408    500.65526    354.33694    543.61957     36976.26 
  255300    307.18314   -1514.7251    492.59419    364.17009   -904.44287     36976.26 
  255400    301.77236   -1499.2664    498.76768    361.38376   -1092.0084     36976.26 
  255500    297.85425   -1524.5689    497.60808    317.23941   -74.848107     36976.26 
  255600    303.02275   -1520.4795    491.96249    339.00836    325.16535     36976.26 
  255700    287.42717   -1541.2244    511.61119    267.53018   -707.54714     36976.26 
  255800     291.8372   -1480.7088     509.9198    346.25669    289.47592     36976.26 
  255900    309.74338   -1480.5975    512.16628      429.424   -1.2633048     36976.26 
  256000    287.42173   -1480.5524    484.70449      301.271   -297.68465     36976.26 
  256100    306.18382    -1502.824    477.32529    356.29244   -240.94561     36976.26 
  256200    297.27734   -1498.8758    503.79196    346.51293   -275.62489     36976.26 
  256300    307.50047   -1510.5293    497.47705    374.68087   -726.71729     36976.26 
  256400    300.58526   -1492.9878    482.45553    345.99292   -532.22991     36976.26 
  256500    290.61645   -1422.7218    485.12692    373.94155   -969.05917     36976.26 
  256600    302.36788   -1471.5012    492.18677    385.25563   -966.57611     36976.26 
  256700    289.43808   -1487.0319    498.30259    317.48923   -1076.6362     36976.26 
  256800    296.49215    -1487.053    494.54506    345.54526   -401.97843     36976.26 
  256900    302.87155   -1506.4645    483.55533    343.93394   -590.48262     36976.26 
  257000    292.39001   -1520.9383    505.76715    304.36928   -1033.5178     36976.26 
  257100    300.87877   -1489.7843    494.52536    362.59086    84.033351     36976.26 
  257200    286.36491   -1498.9083    500.78847    294.22968   -104.32365     36976.26 
  257300    300.87607   -1454.6775    494.36357     397.5237    -146.9398     36976.26 
  257400    298.47977   -1443.7883     520.0372    423.27217   -12.379213     36976.26 
  257500    296.25418   -1513.1596    490.35939    314.17904    213.52957     36976.26 
  257600    300.93777   -1503.1263    506.42259    361.41235    71.969346     36976.26 
  257700    296.60273   -1510.5294    512.40613    340.42894    426.56038     36976.26 
  257800    302.49063   -1523.5414    488.23852    329.82116   -146.90874     36976.26 
  257900    295.94326   -1520.7212    479.91322    294.76806   -342.48943     36976.26 
  258000    299.04888   -1539.5395    491.03287    301.08487   -684.99355     36976.26 
  258100    298.27565   -1498.1157    462.45821    310.44455   -362.06963     36976.26 
  258200    302.31469   -1505.5964    488.56346    347.29703   -305.06586     36976.26 
  258300    296.30758   -1524.9699     503.8258    316.07607    32.536832     36976.26 
  258400    291.62157   -1535.1112    488.53433    269.49565     126.7558     36976.26 
  258500    293.60451   -1524.4622    499.51977    300.07899    110.44235     36976.26 
  258600    291.02389   -1532.7924    481.69809    262.28095    188.23015     36976.26 
  258700    286.06515   -1559.7142    486.80832    218.09081    -473.2754     36976.26 
  258800    295.03829   -1525.1836    498.24715    304.55558    208.29436     36976.26 
  258900    305.78287   -1561.1575    480.58831    299.41245    587.01704     36976.26 
  259000    300.28225   -1548.3697    480.31905    287.10707  -0.58175401     36976.26 
  259100    295.59568   -1530.3211    492.85537    296.54172   -199.11834     36976.26 
  259200    304.65086   -1517.7734    468.01333    325.11289    136.08205     36976.26 
  259300    301.97505   -1538.5705    488.77668    313.00342    215.43249     36976.26 
  259400    294.89032   -1534.7045    478.45121    274.57086   -176.92036     36976.26 
  259500    307.01702   -1529.2812    505.87144    362.14161    514.00667     36976.26 
  259600    304.36831   -1545.1956    504.70341    333.10569    43.488632     36976.26 
  259700    306.74453   -1503.4299     481.1039    361.99565   -191.89464     36976.26 
  259800    298.02899   -1498.5923    500.44778    346.84431   -719.69932     36976.26 
  259900    308.80423   -1503.4901    487.16776    377.29462   -632.16717     36976.26 
  260000    306.87817   -1495.0592    485.21965    375.08516    340.77575     36976.26 
  260100    297.16339   -1466.6831    522.90744     397.3068   -263.39357     36976.26 
  260200    295.93005   -1503.9271    507.47543    339.06475    338.18858     36976.26 
  260300    296.39206    -1479.121    538.29917    396.77963    68.612462     36976.26 
  260400    293.88267   -1504.3303    500.00131    321.94774    181.56331     36976.26 
  260500    302.08946   -1506.9697     516.3239    372.66771     581.6961     36976.26 
  260600    296.85755   -1490.2835    504.44354    353.86222    971.50328     36976.26 
  260700    302.61266   -1517.4425    504.11911    352.35134    624.04993     36976.26 
  260800    294.90802   -1495.7165    494.97686     330.1645    124.44834     36976.26 
  260900     313.5278   -1542.8568    459.17079     331.2481     311.6514     36976.26 
  261000    309.92897   -1517.3107    500.42432    381.80647   -91.074593     36976.26 
  261100    304.27496   -1490.6875    488.78751    371.27661    232.79332     36976.26 
  261200    296.87782   -1491.9172    482.89457    330.77105    287.29978     36976.26 
  261300    291.42871   -1518.8609    495.63725    291.97852    206.73746     36976.26 
  261400      304.231   -1490.9043    493.62491     375.6988   -16.659253     36976.26 
  261500    295.42959   -1486.8392    489.67414    336.09288   -87.454194     36976.26 
  261600    300.65683   -1517.1433     488.9656    328.67047   -297.22862     36976.26 
  261700    296.08008   -1527.0637    502.51174     311.6416    109.62567     36976.26 
  261800    302.64367   -1493.6979    505.73549    377.85232   -397.10217     36976.26 
  261900    299.73545   -1519.5758     511.2474    344.36162   -381.38686     36976.26 
  262000    289.81472   -1518.8434    498.25047    287.32534   -528.15529     36976.26 
  262100    304.55444     -1478.73    500.79771    396.50557   -401.03305     36976.26 
  262200    299.65879   -1468.3718    521.46678    405.43905    -424.3448     36976.26 
  262300    299.90389    -1470.923     498.2957    380.82291    142.10516     36976.26 
  262400     303.3695   -1459.0671    490.43297    400.45618    339.75095     36976.26 
  262500    296.47112   -1484.5227    492.31224     345.7478    103.40852     36976.26 
  262600    299.29866   -1497.8947    495.45413    348.27822    193.45021     36976.26 
  262700    296.81919   -1483.8256    525.74908    381.45256    149.87558     36976.26 
  262800    297.36077   -1466.4716    510.08032    385.58194   -84.141534     36976.26 
  262900    305.29842   -1485.2716    496.94257    389.46636    27.595782     36976.26 
  263000    295.33645   -1486.8662    499.49178    345.46315    -239.6196     36976.26 
  263100    305.85761    -1475.491    507.20971    412.03769    214.56713     36976.26 
  263200    299.94721   -1480.1055    510.33977    383.87992    146.64197     36976.26 
  263300    305.09731   -1499.0769    500.19304    378.00397    136.62643     36976.26 
  263400    295.20291   -1480.1865     517.9176      369.966    6.1629892     36976.26 
  263500    300.00123   -1493.5787    513.37587    373.68663   -311.58023     36976.26 
  263600    303.44107   -1535.9992    505.63859    339.05267    538.89597     36976.26 
  263700    297.15413     -1537.22    498.39077    302.21139    560.75731     36976.26 
  263800    294.00037   -1477.8874    515.37703    364.29758    590.17351     36976.26 
  263900    305.77522   -1548.7953    510.81812    341.97002    265.81094     36976.26 
  264000    312.74134   -1522.5714    512.33604    401.14957    105.59355     36976.26 
  264100    299.16163   -1459.5053    516.36417    406.95924   -125.26283     36976.26 
  264200    294.02719    -1489.121     487.5232    325.33115   -454.70749     36976.26 
  264300     293.0488   -1485.0937    518.96383    356.38364   -510.41079     36976.26 
  264400    294.88601   -1515.6326    501.53144    316.70361   -465.94559     36976.26 
  264500     299.0707   -1521.7889    504.69701    332.59811    -11.07315     36976.26 
  264600    300.55834   -1500.3432    476.39483    332.45529    6.7269249     36976.26 
  264700    303.28157   -1503.8299    505.44515    370.30865    571.01128     36976.26 
  264800    309.24355   -1524.3387    486.19705    357.45797    526.74895     36976.26 
  264900    290.74022   -1460.9935    510.86421    361.96574     544.5312     36976.26 
  265000    298.22672   -1513.0149     502.3452    335.21151    160.78593     36976.26 
  265100    304.99569   -1511.5058    490.49308    355.41643    646.49519     36976.26 
  265200    295.70427   -1537.3775    459.06126    256.18132    292.99546     36976.26 
  265300     301.0126   -1507.9955    482.36349    332.82171    211.93618     36976.26 
  265400    295.54088   -1493.9924    533.23996    373.00776    908.05773     36976.26 
  265500    297.60953   -1525.9208    486.99184    304.16691    682.36082     36976.26 
  265600    292.10373   -1497.0704    508.61393      329.792   -119.16122     36976.26 
  265700    304.13977   -1496.3368    509.70423    385.93395    11.260934     36976.26 
  265800    298.87648    -1507.149    481.36105    323.02555    278.62951     36976.26 
  265900    293.70185    -1491.424    510.86901    344.90572    295.21806     36976.26 
  266000       285.75   -1493.2892    526.89483    323.18005    1067.2383     36976.26 
  266100    317.19125    -1522.943    482.21715    390.74119    612.68281     36976.26 
  266200     311.2681   -1482.2398    472.25038    394.74686    403.87522     36976.26 
  266300    311.06562   -1503.6231    495.49388    395.69321    386.10394     36976.26 
  266400    299.08777   -1496.9146    479.41061    332.26315   -170.34695     36976.26 
  266500    301.31138   -1478.2332    501.80415    383.37302   -360.87876     36976.26 
  266600    304.78814   -1501.1531    498.77033     373.1098   -671.74071     36976.26 
  266700    295.33569   -1488.7533    451.34043    295.42125    -847.1563     36976.26 
  266800     299.9623    -1504.695    516.17038    365.18914   -769.59831     36976.26 
  266900    315.30981   -1542.1851    482.88358     363.6748   -502.60037     36976.26 
  267000    287.18788    -1517.378    479.39366    258.07919   -767.95481     36976.26 
  267100    304.32056   -1518.3865    481.77819    336.77405   -248.35386     36976.26 
  267200    299.27975   -1492.9018    498.45183    356.18354     219.7642     36976.26 
  267300    308.38126   -1498.4178    495.54259    388.83296    170.95489     36976.26 
  267400      294.202   -1502.3835    500.77916    326.11352   -187.59284     36976.26 
  267500    298.55414    -1504.565    493.99751    336.79134    -319.5187     36976.26 
  267600    299.48461   -1522.5703    485.50795     314.4957   -656.43944     36976.26 
  267700    299.70522   -1510.3875    481.17772    323.34383   -889.18926     36976.26 
  267800    307.45225   -1474.2034    464.97958    378.29172   -489.58632     36976.26 
  267900    292.41862   -1507.0028    500.31884     312.9856   -25.759499     36976.26 
  268000    294.95473    -1488.645    504.55449    347.02438   -521.66742     36976.26 
  268100    289.51719   -1500.5888    509.22849    315.21529    391.19541     36976.26 
  268200    291.85979   -1480.0248    489.62332    326.74607   -383.67726     36976.26 
  268300     297.4152   -1502.6769    490.25499    329.79694    8.6547125     36976.26 
  268400     302.6458   -1522.1714    509.19404    352.84688    169.57778     36976.26 
  268500    298.06714   -1475.2249    480.42354    350.35973    182.06038     36976.26 
  268600     294.1285   -1475.9974    523.69642    375.08515    39.100708     36976.26 
  268700    295.23787   -1472.2555    497.49591    357.63315    277.59886     36976.26 
  268800    306.55228   -1511.7075    509.97333    381.71984    322.10786     36976.26 
  268900    296.50629   -1495.2218    501.29355    344.18878   -36.056926     36976.26 
  269000    302.36992   -1471.2358    522.23992    415.58339    527.85993     36976.26 
  269100    289.94645   -1477.3796    504.80074    335.93393   -115.11657     36976.26 
  269200    300.51084   -1446.4578    492.33069    402.06221    245.09251     36976.26 
  269300    297.46057   -1476.5762    495.61904    361.46645   -646.61092     36976.26 
  269400    300.68034   -1484.9346    477.01817    349.03787   -39.096239     36976.26 
  269500    298.87479   -1486.5639     507.6036    369.84563   -275.83708     36976.26 
  269600    299.80267   -1509.6759    487.18819    330.50567   -166.79086     36976.26 
  269700     297.3592   -1479.3239    496.94648    359.58871    -115.1827     36976.26 
  269800    298.19325   -1496.4802    489.40601      338.656   -267.34353     36976.26 
  269900    295.69888   -1500.0289    467.81283    302.25711   -766.33123     36976.26 
  270000    289.24672   -1485.8662    493.21545    312.70414   -84.112101     36976.26 
  270100    301.30831   -1478.8519     505.0022    385.93859   -127.33608     36976.26 
  270200    292.97523   -1476.3006    473.75381    319.63477   -108.40439     36976.26 
  270300    296.54647   -1509.6003    516.87171    345.56969   -49.738854     36976.26 
  270400    305.11043   -1457.1214    470.17897     390.0046    316.97743     36976.26 
  270500    300.88392   -1521.4303    480.73744    317.18011   -40.548183     36976.26 
  270600    292.30052   -1510.0836    480.85554    289.90848    -101.1958     36976.26 
  270700    306.44661   -1507.9807    498.73839    373.73481    -30.56642     36976.26 
  270800     311.1678   -1536.2462    484.76712    352.80455   -178.91655     36976.26 
  270900    301.86027   -1478.3784     510.9091    394.80992    169.68563     36976.26 
  271000    308.69361   -1497.9587    505.57355    400.73253    426.65621     36976.26 
  271100    297.38519   -1491.6602    465.74789    316.17114    30.211807     36976.26 
  271200    310.22612   -1446.2187    487.71588    441.53109    -331.8628     36976.26 
  271300    288.20967   -1455.5913    486.64367    331.72718    23.680494     36976.26 
  271400    300.35831   -1466.9704    487.70801    376.23854   -264.59135     36976.26 
  271500    294.01196   -1491.6124    484.41767    319.66552    105.45987     36976.26 
  271600    296.00941   -1443.9356    505.54911    397.48812    410.15981     36976.26 
  271700    291.13728   -1468.4281    490.20423    335.66306   -194.43188     36976.26 
  271800    300.36228   -1465.0938    483.97047    374.39554    375.45791     36976.26 
  271900    286.67769   -1484.8195    483.19599     292.1375   -1.1958717     36976.26 
  272000    300.82679   -1521.7472    495.45007    331.31803   -332.95445     36976.26 
  272100    298.31948   -1544.1156    473.80492    275.98911   -93.297356     36976.26 
  272200    297.56868   -1502.8508    474.04894    314.10962    99.511048     36976.26 
  272300     305.0455   -1495.2231    504.45653    385.88744    190.77838     36976.26 
  272400     302.2555   -1507.6495     496.1009    352.51424    269.61723     36976.26 
  272500    298.62799   -1509.0809    493.44213    332.05331   -707.71434     36976.26 
  272600    296.13853   -1513.7111     464.9453    287.69156   -517.41485     36976.26 
  272700    307.34791   -1522.7202    482.56723    346.89169   -1027.1083     36976.26 
  272800     293.1098   -1507.0065    490.16093    305.94319   -821.64522     36976.26 
  272900    297.77663   -1511.9685    472.95092    304.83239   -1148.9468     36976.26 
  273000    291.43421   -1488.9809    496.76233    323.00836   -565.29735     36976.26 
  273100    308.94463   -1518.2935     483.8243    359.78143   -221.12268     36976.26 
  273200    301.13921   -1511.3578    484.44127    332.10858    228.51978     36976.26 
  273300    294.36869   -1522.2977    486.19196     292.3644    42.939554     36976.26 
  273400    301.03158   -1512.9978    484.19856     329.7401    265.86328     36976.26 
  273500    288.38731   -1494.3442    509.54418    316.67648   -43.234231     36976.26 
  273600    305.11595   -1493.5914    493.53642    376.91693   -7.0957288     36976.26 
  273700    308.37905   -1479.5293    483.43641    395.60519   -346.22847     36976.26 
  273800    299.87327   -1481.9658    477.76772     349.1139    78.239812     36976.26 
  273900    319.23319   -1497.1648    474.57294    418.09047    463.54071     36976.26 
  274000    299.56338   -1525.7658    500.95885    327.10654    83.564679     36976.26 
  274100    298.29161   -1553.9835    481.23871    273.42927    512.43869     36976.26 
  274200    290.43702   -1515.5834    499.13754    294.28083     53.97965     36976.26 
  274300    311.52482   -1513.4995    483.85953    376.25486    245.89136     36976.26 
  274400    288.97299   -1500.9752    498.11838    301.26275    600.33982     36976.26 
  274500    307.54634   -1477.5025    517.74206    428.17976    304.89587     36976.26 
  274600    304.73367   -1549.1971    481.05196    307.10162    203.77637     36976.26 
  274700     297.4188   -1530.5563    494.76294    306.44177    647.50935     36976.26 
  274800    296.71304   -1547.9214    480.79999    271.92862   -126.94791     36976.26 
  274900    296.79566    -1488.896    478.15521    328.68212   -8.7205053     36976.26 
  275000    300.55886   -1497.1896    476.32496    335.54136    247.08837     36976.26 
  275100    302.07467   -1456.0642    489.15115    396.33373   -116.04784     36976.26 
  275200    295.11405   -1457.0033    487.44046    362.27104   -159.23161     36976.26 
  275300    298.27235   -1504.1997    480.70765    322.59509    204.79458     36976.26 
  275400    303.35554   -1481.4544    492.64151     380.2144    -116.8122     36976.26 
  275500    294.33382   -1486.9922     489.4545    330.77505   -388.55356     36976.26 
  275600    303.54347   -1501.5463     478.3305     346.6596    393.01118     36976.26 
  275700    301.89945   -1519.5036    483.09404    326.04648    331.30861     36976.26 
  275800    295.95899   -1479.1006     489.6628    346.20923    968.67007     36976.26 
  275900    299.14598   -1509.0066    482.23057    323.25374    996.40394     36976.26 
  276000     293.7771   -1515.0561    502.33783    313.08207    445.95167     36976.26 
  276100    299.81435   -1491.5015    514.81562    376.36016   -40.933907     36976.26 
  276200    303.88725   -1490.5256    482.51956    363.42089   -355.48648     36976.26 
  276300    303.19536    -1469.315    493.33196    392.32138   -577.11673     36976.26 
  276400    307.28303   -1496.4747    482.29607     372.5732   -178.90355     36976.26 
  276500    307.32702   -1488.9647     491.9227    389.90837   -403.06958     36976.26 
  276600    298.88203   -1500.1053     450.2939    299.02718    260.91865     36976.26 
  276700    292.12298   -1458.2606    536.19728    396.27199   -189.95157     36976.26 
  276800      299.032   -1477.5945    481.27166    353.19255   -12.959913     36976.26 
  276900    303.34938   -1499.5459    465.69888    335.15254   -170.35211     36976.26 
  277000    303.03933   -1460.7381    487.13625     393.9984   -347.51277     36976.26 
  277100    307.15466   -1467.9994    483.66495    401.83811    170.44245     36976.26 
  277200    305.18496   -1478.3254    500.89888    399.85691   -151.37773     36976.26 
  277300    297.59218   -1469.9024    490.58136     363.6965    222.27019     36976.26 
  277400    307.37974   -1488.5376    478.03068    376.68132    340.88843     36976.26 
  277500    302.66792   -1515.1738    487.31818    338.06845    245.90389     36976.26 
  277600    305.71971   -1476.5587    485.28221    388.42017    234.50442     36976.26 
  277700    291.95876   -1474.4404    463.26037    306.41422    36.799592     36976.26 
  277800    313.77982   -1460.5655    502.86873    458.37468   -603.86054     36976.26 
  277900    300.38985   -1531.8511    474.77493    298.56713   -90.028296     36976.26 
  278000    306.94694   -1510.5975    498.83452    373.47209   -21.629661     36976.26 
  278100    299.16586   -1540.3205    474.86002    284.65905   -421.43916     36976.26 
  278200    296.56159   -1501.4483    473.15702    310.07526   -54.569199     36976.26 
  278300    301.96407   -1481.7443    492.57675    373.58008   -131.73497     36976.26 
  278400    303.35142   -1488.7216    507.33225    387.61932    633.75141     36976.26 
  278500    299.37651   -1465.8575    488.98128    374.19398    334.98447     36976.26 
  278600    303.69364   -1514.9349    462.37648    317.99469    370.15366     36976.26 
  278700    311.22132   -1456.9988    505.39764    452.92398   -448.39186     36976.26 
  278800    300.04372   -1485.3593    487.35532    356.07728   -275.48665     36976.26 
  278900    300.68474   -1498.9816    499.50828    357.50085   -190.50436     36976.26 
  279000    287.00197   -1515.2419    448.18419    228.16676   -208.26282     36976.26 
  279100    306.78324   -1507.0769    506.67264    384.09207    382.89583     36976.26 
  279200    283.85921    -1484.321    468.59338    265.31379    496.29942     36976.26 
  279300    305.74733   -1556.4077    485.76118    309.17476    331.60891     36976.26 
  279400    300.56862   -1494.7091    481.64091    343.38186    866.07006     36976.26 
  279500    294.05249   -1505.7057    466.30155    287.63895    676.92041     36976.26 
  279600    301.52189   -1494.3679    468.95739    335.34166   -19.241299     36976.26 
  279700    293.26162   -1519.6135    482.93959    286.80006    32.406076     36976.26 
  279800    300.42424      -1484.4    471.73705    343.13556    354.15391     36976.26 
  279900    295.97355   -1522.3908    495.11862    308.44057   -116.07072     36976.26 
  280000    302.59344   -1518.3998    481.06339    328.25155    449.39616     36976.26 
  280100    292.54462   -1478.8967    470.04636    311.38781   -343.75222     36976.26 
  280200    301.29552   -1472.5109    490.36002    377.57968   -197.29493     36976.26 
  280300    300.18032   -1492.2103    486.71376    349.20116     222.8745     36976.26 
  280400    308.52541   -1436.7135    488.95874    444.60385   -35.957204     36976.26 
  280500    308.34162   -1455.3226    473.59054    409.79717    352.24695     36976.26 
  280600    306.20246   -1432.7648     487.1644     436.2749    272.17299     36976.26 
  280700    299.45834   -1474.4495      495.865    372.85491    550.08426     36976.26 
  280800    309.72055   -1476.7727    497.11959    418.09917    379.89145     36976.26 
  280900    305.35907   -1438.6428    477.83636    417.26268    616.91171     36976.26 
  281000    298.06111    -1466.983    507.38942     385.5402    437.22818     36976.26 
  281100    296.17191   -1437.3562    504.99088    404.24262     519.4825     36976.26 
  281200    307.50658    -1468.127    480.80529    400.43907    331.20931     36976.26 
  281300    305.82416   -1485.1546     507.5823    402.59578   -404.42188     36976.26 
  281400    293.26138   -1486.1778     476.0967    313.39182   -557.50245     36976.26 
  281500    292.21967   -1488.2189    482.21533    312.76818   -84.156498     36976.26 
  281600    310.70943   -1434.8861    513.69397    481.02288    485.68744     36976.26 
  281700     291.0551   -1454.8277    510.63155     369.3199    210.49874     36976.26 
  281800    288.92156   -1465.9221    503.38807    341.35347    312.43034     36976.26 
  281900     294.5819   -1449.4808    510.17438    390.12596    -427.3797     36976.26 
  282000    305.42408   -1445.2398    489.11082    422.23355   -88.654618     36976.26 
  282100    304.53752   -1415.3239    526.15766    485.19523   -395.65339     36976.26 
  282200     291.0858   -1458.1232     467.6589    323.19033   -467.47613     36976.26 
  282300    303.40008    -1412.826    509.30914    465.71147   -493.64663     36976.26 
  282400    303.22531   -1396.3957    524.55412    496.59795   -877.51021     36976.26 
  282500    301.61704   -1405.3056    501.94785    457.82378   -173.29624     36976.26 
  282600    293.97804   -1437.5118    509.53131    398.72663   -748.36277     36976.26 
  282700    304.17081   -1456.3892    502.19747    418.51484   -820.99026     36976.26 
  282800    297.68875   -1450.0808    510.53474    403.90727   -473.13352     36976.26 
  282900     298.0117   -1434.0578    506.20173    417.05472   -492.63466     36976.26 
  283000     280.9264   -1450.7227    504.62432    321.70734   -546.56461     36976.26 
  283100    296.84506   -1437.4135    528.73343    430.96578   -601.11785     36976.26 
  283200    294.18715   -1434.2279    500.10176    393.52464   -145.39314     36976.26 
  283300     303.8618   -1398.1268    514.75108    487.93637   -209.14189     36976.26 
  283400    295.47217   -1428.0532    525.69191    431.08881   -227.14448     36976.26 
  283500    293.17026     -1478.77    485.06037    329.35209   -22.111334     36976.26 
  283600    307.83778   -1468.3996     523.0785    443.93427    434.12463     36976.26 
  283700    301.29764   -1459.5116    498.81459    399.04305    512.44958     36976.26 
  283800    298.36978    -1419.082     496.9476    424.39241    433.23437     36976.26 
  283900    297.32921   -1449.9517    492.47551    384.35457    704.52373     36976.26 
  284000    301.41643   -1478.1663    505.89589    388.00576    757.84876     36976.26 
  284100    299.44118     -1474.29    504.96093     382.0329    837.84649     36976.26 
  284200    287.55742   -1495.5083    525.43361    327.65657    391.07155     36976.26 
  284300    296.95236   -1514.6998    485.63592    311.06624    158.95004     36976.26 
  284400    295.20631   -1518.1833    520.92124    334.98826    322.95019     36976.26 
  284500    294.27949   -1526.7343    484.04405    285.37734   -138.99053     36976.26 
  284600    296.34131   -1531.7522    479.52504     285.1453    468.48817     36976.26 
  284700     300.9475   -1508.9293    504.02306    353.25371    1032.2446     36976.26 
  284800    309.67968   -1531.7327    481.73284     347.5679    526.05443     36976.26 
  284900     304.3949   -1531.6135    509.81457    351.91898     364.6613     36976.26 
  285000    294.17229   -1550.5206    475.72984    252.79304    411.75395     36976.26 
  285100    303.04631   -1534.2815    514.69177    348.04203    530.09584     36976.26 
  285200    297.37534   -1520.5891    485.58278    307.03266    7.6126902     36976.26 
  285300    292.19893   -1517.4002    502.13721    303.41517     399.6198     36976.26 
  285400    287.32993   -1537.1664    498.24024    257.77845    319.98235     36976.26 
  285500    306.66497    -1531.782    498.67175    350.85235    508.73231     36976.26 
  285600    282.33192   -1574.9385    480.89101    180.10132   -104.58104     36976.26 
  285700    292.93302   -1563.8514    478.70313     236.8428    382.11018     36976.26 
  285800    294.33301   -1588.5634     499.6746    239.42027    483.01855     36976.26 
  285900    304.98335   -1567.9434    503.81419    312.24435    431.46213     36976.26 
  286000     296.1997   -1523.4728    482.36725    295.62781    1087.3756     36976.26 
  286100    300.13785   -1556.9776    493.23811     290.7666    423.10572     36976.26 
  286200    295.06842   -1557.4429    488.98876    263.17378    673.24264     36976.26 
  286300    308.44801   -1537.3785    489.37718    344.00806    694.43233     36976.26 
  286400    303.28834    -1546.204    467.02476    289.54474    377.49919     36976.26 
  286500    307.43206   -1558.9753    503.20288    331.65199    482.53488     36976.26 
  286600    291.90206   -1524.9244    522.17985    314.59378     407.8017     36976.26 
  286700    295.25674   -1530.0108     488.4364     290.9035    295.70378     36976.26 
  286800    302.83713   -1503.6666    478.28069    341.30184    180.17061     36976.26 
  286900    304.43733   -1524.9031    493.60913    342.61538   -94.196444     36976.26 
  287000    292.12832   -1495.4053    486.50076    309.45485   -325.58481     36976.26 
  287100    305.41362   -1519.9198    470.43755     328.8331    21.979959     36976.26 
  287200    294.36491   -1503.7545    503.52825     328.2268    55.689054     36976.26 
  287300    308.51471   -1540.7336    519.27197    370.84874    197.13292     36976.26 
  287400    294.66051   -1540.4954    481.86574    271.15739    465.84859     36976.26 
  287500    307.05292   -1555.5129    515.21174    345.41223    910.78543     36976.26 
  287600    303.63944   -1524.1719    516.90221    363.03881    786.48737     36976.26 
  287700    297.15683   -1528.1013    479.37852    292.33011    436.89915     36976.26 
  287800    313.91849   -1507.5904    503.23565    412.34262    492.24994     36976.26 
  287900    300.04757   -1493.9326    496.82014    356.98611    525.43485     36976.26 
  288000    292.32853    -1459.625    525.42546    385.06345    264.30867     36976.26 
  288100    302.86486    -1489.429    486.72511    364.10897    50.491843     36976.26 
  288200     299.8705    -1499.016    514.67124    368.95473     532.4482     36976.26 
  288300    299.81854   -1503.0083    501.19153    351.24823     32.16754     36976.26 
  288400    298.60014    -1472.809    503.22855    377.98603    296.55933     36976.26 
  288500    290.79271   -1498.7985     487.1674    300.70078   -549.29752     36976.26 
  288600    308.07756   -1487.1277    506.40662     409.6164    51.119292     36976.26 
  288700    291.75819   -1520.2828    496.29517    292.70145   -580.25194     36976.26 
  288800     301.1841   -1473.7224    484.44875    369.95408     355.9032     36976.26 
  288900    301.04563   -1519.6112    484.25685    323.24843    326.94504     36976.26 
  289000    302.15124   -1527.9759    508.34327    343.95968    608.44495     36976.26 
  289100    304.10402   -1544.8044    496.08158    323.68228    835.37176     36976.26 
  289200    298.09547   -1574.8888    484.27397    254.67408    615.61567     36976.26 
  289300    288.18319   -1539.9964    487.09498    247.65387    888.89927     36976.26 
  289400    307.04118   -1515.2541    527.89836    398.30467    141.39735     36976.26 
  289500    296.58984   -1534.2921    493.95871    298.16062    264.87908     36976.26 
  289600    300.68421   -1543.4651    479.53635    293.04294   -352.33856     36976.26 
  289700    306.64735   -1491.6699    511.64961    403.86283   -148.33676     36976.26 
  289800     294.4924   -1486.8244    498.99937    341.20332      396.655     36976.26 
  289900    303.85474   -1482.9446    489.11468    377.45031    44.667296     36976.26 
  290000    303.28698   -1539.1114    498.90791    328.51436    620.24271     36976.26 
  290100    296.72671   -1515.1027    505.45975    329.46882    456.97569     36976.26 
  290200    295.58701   -1526.0409    478.21968    286.14709    378.33274     36976.26 
  290300    300.56196   -1516.3277    499.39079    339.48308    34.769568     36976.26 
  290400    292.59656   -1577.2862    486.26597     229.4524    91.638997     36976.26 
  290500    304.47232   -1542.2253    495.75395    327.59587    216.25629     36976.26 
  290600    300.10454   -1513.4554    497.90277    338.80311    519.15728     36976.26 
  290700    307.81425   -1530.7989    453.25288    311.60321    653.27247     36976.26 
  290800    294.77438   -1563.6088    535.13102    301.82323    8.1529735     36976.26 
  290900    293.12348   -1554.1264     498.3343    267.05846    -5.532495     36976.26 
  291000    300.39929   -1498.6865    486.45988    343.45928    409.73742     36976.26 
  291100    294.63649   -1505.7904    499.83787    323.72617   -351.15371     36976.26 
  291200    287.80075   -1539.0191    491.27708    251.08729   -379.96837     36976.26 
  291300    289.68168   -1539.5737    486.01627    253.76044   -780.46263     36976.26 
  291400    291.30911   -1526.2044     484.5264    272.98437    30.025244     36976.26 
  291500    303.23189   -1515.1259    481.23128    334.57468     -492.197     36976.26 
  291600    305.39433   -1490.9359    478.62715    365.91952    374.49915     36976.26 
  291700    300.22264   -1512.8535     486.3655    328.40069    137.80509     36976.26 
  291800    289.93947   -1510.8307    514.63835    312.28899    325.77401     36976.26 
  291900    297.14356   -1535.7053    473.64273    278.93043   -179.75337     36976.26 
  292000     291.4749   -1534.2248    521.28786    302.47366    640.70571     36976.26 
  292100    311.57158   -1505.2479    510.48995    411.34785    1028.6928     36976.26 
  292200    300.26214   -1515.8121    503.03251    342.28741    465.84758     36976.26 
  292300    298.06315   -1520.5247    504.82876    329.44706   -670.10352     36976.26 
  292400    305.08711   -1531.1247    488.60394    334.32101    -78.86189     36976.26 
  292500    309.38546   -1544.9449    482.59964    333.89477   -283.55543     36976.26 
  292600    307.79795   -1521.1313    492.35766    360.30201   -282.65028     36976.26 
  292700    299.99817   -1502.0936    513.17628    364.95834   -409.31481     36976.26 
  292800    298.90403   -1510.5621    523.50521    361.88098   -887.15642     36976.26 
  292900    311.97954   -1493.7975    491.52285    405.67231    157.96503     36976.26 
  293000    302.85721   -1532.3084    485.69579    320.16574    309.04194     36976.26 
  293100    303.72988   -1550.1101    484.86513    305.47172    1130.8992     36976.26 
  293200    304.10488   -1540.4042    479.95151     311.9563    167.27514     36976.26 
  293300    299.72884   -1523.6602    476.12497    305.12495    336.71804     36976.26 
  293400    299.89354   -1544.9291    503.86952    312.34385    244.67458     36976.26 
  293500    307.01225   -1498.6175    516.92339    403.83577    234.56135     36976.26 
  293600    299.42566   -1500.5525    478.82016    329.55967    254.40428     36976.26 
  293700    310.31495   -1507.1963     497.0039     390.2424    112.95181     36976.26 
  293800     295.6446   -1508.8165    517.35547    342.76721   -243.99391     36976.26 
  293900    303.50716   -1540.9996     481.4196    310.13151     241.8925     36976.26 
  294000    294.41104    -1523.725    492.04401    296.98025    428.32395     36976.26 
  294100    285.99526   -1539.2385    490.36591    241.80873     567.4849     36976.26 
  294200    296.28253    -1521.454    480.49402    296.14715    733.98372     36976.26 
  294300    300.90076   -1512.2166    513.23141    358.96376    530.88503     36976.26 
  294400    294.82052   -1512.9831    475.42552    292.95164    707.18601     36976.26 
  294500    292.91265   -1554.7236    489.22063    256.39615    750.94497     36976.26 
  294600    307.57698   -1553.4957    481.07686    315.65959    270.58119     36976.26 
  294700    296.59755   -1521.4336    501.31971    318.41491    409.71837     36976.26 
  294800    295.90423   -1528.6081    483.70959    290.50144    357.57323     36976.26 
  294900    293.55986   -1560.6479    494.07891    258.25095   -32.093275     36976.26 
  295000    295.93841   -1595.7074    475.49589    215.34266    462.77761     36976.26 
  295100    292.91258   -1560.5296    466.92746    228.29667    676.25208     36976.26 
  295200    297.40115   -1507.9918    503.08554    337.24917    494.40421     36976.26 
  295300    305.71469   -1568.8172    487.63989    298.49669    171.77203     36976.26 
  295400    319.94591   -1541.6155    477.03305    379.31627    648.27431     36976.26 
  295500    300.70287   -1528.4862    517.08469    345.65448    125.40482     36976.26 
  295600    297.74298    -1511.756    479.30716    311.24925      309.533     36976.26 
  295700     298.4441   -1571.0338    502.23332    278.06181   -67.603744     36976.26 
  295800    301.24861   -1526.2872    485.40748    318.63909   -389.72752     36976.26 
  295900    292.98474   -1518.1211    475.91583    280.01914   -661.74436     36976.26 
  296000    299.34813    -1507.326    511.05259    354.66865   -3.3380186     36976.26 
  296100    302.02679   -1502.9113    518.21521    378.33467   -295.48447     36976.26 
  296200    301.31097   -1490.8586    474.23501    343.17666    192.23759     36976.26 
  296300    295.72597    -1527.461     497.8477    304.98218    202.43091     36976.26 
  296400    315.72246   -1524.3936    497.72204    398.16697    532.59068     36976.26 
  296500    296.78871   -1471.4322    478.10909    346.06841    -348.0009     36976.26 
  296600    309.07293   -1524.6161    488.50524    358.71874   -347.62054     36976.26 
  296700     303.3176   -1505.8924    466.64906    329.61279   -455.18074     36976.26 
  296800    304.19811   -1524.3151     466.9629    315.47761   -152.04684     36976.26 
  296900    297.93911   -1510.4079    500.67556    334.85086     124.4339     36976.26 
  297000    300.74223   -1502.1842    513.30668    368.35602   -214.31312     36976.26 
  297100    281.79862   -1502.8567    483.38483    252.27021   -450.90451     36976.26 
  297200    303.96318   -1500.7829    499.88159     370.8682   -480.54495     36976.26 
  297300     285.2143   -1480.3863     476.2576    283.02815   -208.24874     36976.26 
  297400     300.3612   -1534.6753    505.64757    326.48631   -248.96927     36976.26 
  297500    306.78677   -1519.8084    468.10563    332.80949    612.03149     36976.26 
  297600    293.71325   -1506.8484    502.44163    321.10539    316.01232     36976.26 
  297700    302.45965   -1513.1346    493.84587    345.69545    486.35407     36976.26 
  297800    295.22376    -1512.427    483.12693    303.02899    211.94983     36976.26 
  297900    308.86504   -1539.4735    471.96621    326.38413    40.365624     36976.26 
  298000    298.42773   -1506.6385    454.59303    294.74292   -70.326784     36976.26 
  298100    300.31545   -1551.1169    514.83461    319.02526    423.56512     36976.26 
  298200    308.21067   -1542.3972    474.01207    322.55314    390.77294     36976.26 
  298300    303.39117   -1519.7044    494.97718    344.46093    680.00484     36976.26 
  298400    310.92537   -1524.5639    497.98436    376.60995    728.88848     36976.26 
  298500    304.29293   -1497.5012    495.91221    371.66864   -130.26879     36976.26 
  298600    312.44306   -1495.3824    480.05822    394.71461    440.54017     36976.26 
  298700     303.1809   -1499.4767    489.64988    358.41231    707.86339     36976.26 
  298800    306.77998   -1493.2169     476.4687    367.73342    720.25242     36976.26 
  298900    311.53565   -1501.8477     490.9243     395.0203   -402.03659     36976.26 
  299000    300.57311   -1486.5566    474.58385    344.49756   -475.84719     36976.26 
  299100     294.4147   -1504.7778    506.68866    330.58861    -193.3897     36976.26 
  299200    292.08572   -1465.6393     479.3116    331.83947    424.84302     36976.26 
  299300    306.30936   -1469.4064    492.66096    405.61233    586.87618     36976.26 
  299400     307.0456    -1530.035    486.59125    342.23663    210.29384     36976.26 
  299500    299.42355   -1525.2698    455.06746    281.08014    353.31244     36976.26 
  299600    297.16761   -1511.8908    506.52834    335.73908    93.337862     36976.26 
  299700    293.78759   -1542.4715    458.04963    241.42578    267.61932     36976.26 
  299800    302.21898   -1517.2838    484.31481    330.92911    679.17112     36976.26 
  299900    296.12473    -1491.614    485.60567    330.38669    785.54237     36976.26 
  300000    297.89518   -1522.3263    466.86778    288.92649    453.91167     36976.26 
  300100    311.88611   -1506.7037    467.47727    368.29886    16.057617     36976.26 
  300200     295.1567   -1543.4702    463.80286    252.35902    592.13452     36976.26 
  300300    303.79116   -1546.5385    520.78708    345.24178    908.77808     36976.26 
  300400    298.91767   -1515.5102    490.95072    324.43991    439.16677     36976.26 
  300500    291.96642   -1503.2155    464.80131     279.2146   -30.496929     36976.26 
  300600    300.29984   -1540.8306    493.61138    308.01781    13.650392     36976.26 
  300700    289.76164   -1536.5472    506.25814    277.38972   -65.687556     36976.26 
  300800    309.22088   -1585.4862    471.64928    281.66035   -109.67703     36976.26 
  300900    311.52239   -1528.2124    496.06673    373.73817   -386.08539     36976.26 
  301000    300.76086   -1561.7163    498.96746    294.56878    61.495321     36976.26 
  301100    299.19017   -1511.3041    506.97575    345.90088    144.22133     36976.26 
  301200    303.81329   -1521.7796    485.18208    334.49551     513.5645     36976.26 
  301300    304.80793   -1535.3339    493.39894    333.64692    114.23731     36976.26 
  301400    310.23451   -1554.2517    501.26529    347.08535    221.16925     36976.26 
  301500    293.57891   -1536.1457    465.43989    254.20006   -173.74129     36976.26 
  301600    302.82199   -1547.9274    499.19123    317.88323   -409.46988     36976.26 
  301700    298.02904   -1553.4708    472.68979    264.20811   -256.78302     36976.26 
  301800    311.80982   -1548.4873    504.09816    362.79191    93.294674     36976.26 
  301900    294.15081   -1566.6674    491.17817    251.99762   -840.69483     36976.26 
  302000    302.55337    -1519.871    461.59422    307.13035   -200.31275     36976.26 
  302100    294.64618   -1504.6086    496.37999     321.4938    397.97168     36976.26 
  302200    298.05103   -1534.0216    508.37594    319.44263    58.357467     36976.26 
  302300    309.79847   -1544.8087    488.47018    341.76535    443.52505     36976.26 
  302400    305.62096   -1570.9704    498.11722    306.39785    703.00931     36976.26 
  302500    307.23739   -1541.7213    517.39269    362.21731    1034.1312     36976.26 
  302600    294.87797   -1529.7677    495.92628    296.92708     742.5505     36976.26 
  302700    303.69312   -1533.1283     503.5506    340.97303    507.32538     36976.26 
  302800    300.99102   -1503.5057    471.19872     326.0494    264.70445     36976.26 
  302900    304.19058   -1491.6881    532.66137    413.76907    74.467801     36976.26 
  303000      294.322   -1518.7761    484.66563    294.14894   -279.79793     36976.26 
  303100     296.4089   -1509.4604     512.7475    340.96453    208.61148     36976.26 
  303200    298.68397   -1513.7648    491.01955    325.19945    398.94008     36976.26 
  303300    305.11206   -1517.9049    544.82954      403.879    755.59069     36976.26 
  303400    294.13983   -1495.4054    501.93058    333.96242     534.5405     36976.26 
  303500    295.89565   -1522.9521    493.71811    306.12723    177.26513     36976.26 
  303600    301.01806   -1529.6089     507.7685    336.63797   -413.80797     36976.26 
  303700    302.37589   -1502.2185    518.31006    380.69771   -74.601447     36976.26 
  303800    297.94868   -1523.6746    468.43555    289.38742    104.38597     36976.26 
  303900    301.44267   -1487.3404    488.79479    361.84903   -143.08327     36976.26 
  304000    302.71771   -1478.8378    486.40173    373.71274    55.103203     36976.26 
  304100    301.05697   -1455.2359     505.6875    409.10559   -199.07385     36976.26 
  304200    299.32698    -1454.144     489.7733    386.47594    85.100961     36976.26 
  304300    295.68975   -1500.4214    497.80567    331.81627    -177.6029     36976.26 
  304400    299.83112   -1475.6512    508.50197    385.97256    280.99027     36976.26 
  304500    298.76198   -1417.2047    518.58006    449.67215      246.193     36976.26 
  304600    306.60745   -1445.7985     503.7435    441.64799    619.46463     36976.26 
  304700    299.32631   -1451.1563    474.17296    373.86023    487.86059     36976.26 
  304800    304.86926   -1501.3553    490.71673    365.22007     391.1246     36976.26 
  304900     304.5328    -1468.738    507.92937    413.53159     520.7953     36976.26 
  305000    299.74648   -1478.9145    521.13877    394.96404    383.59401     36976.26 
  305100     295.6978   -1457.4663    478.86227    355.86426    460.06438     36976.26 
  305200    301.50884   -1447.7473    507.41201    420.35799     242.4272     36976.26 
  305300     297.5733   -1486.7076    494.49078    350.71553    199.88695     36976.26 
  305400    293.52047   -1441.8166    499.02159     381.8471   -232.47968     36976.26 
  305500    290.89357   -1440.5224    509.18123     381.4459   -262.70241     36976.26 
  305600    303.57135   -1466.6062    492.66193      396.057   -190.29487     36976.26 
  305700    309.05928   -1435.4105    501.17997    460.53742   -198.11323     36976.26 
  305800    301.77391   -1487.5809    498.84076     373.1493   -87.018864     36976.26 
  305900    313.13635    -1470.124    495.42735    438.47089   -721.41312     36976.26 
  306000    306.23021   -1493.9228    477.88624      365.964   -414.64375     36976.26 
  306100    289.43536   -1433.5028    507.76164     380.4651   -715.30499     36976.26 
  306200    301.43743   -1459.7932    502.25028    402.82801   -410.79721     36976.26 
  306300    291.34765   -1471.0009    495.52574    339.36122   -538.67789     36976.26 
  306400    295.04275   -1479.5723     490.0455    341.98532   -399.50803     36976.26 
  306500    295.35531   -1466.1219    514.81836     381.6191    307.98485     36976.26 
  306600    300.94374   -1486.1704    499.00666    370.97922    89.436816     36976.26 
  306700    298.63198    -1502.046    482.81018    328.47428     362.3355     36976.26 
  306800    292.15087   -1494.8329    451.14684    274.77515   -173.32516     36976.26 
  306900    304.72466   -1479.7231    484.82118    380.30414    378.17686     36976.26 
  307000    301.43023   -1477.6861    500.60612     383.2585    357.20236     36976.26 
  307100    297.50941   -1486.5385    482.24382     338.3493    696.37562     36976.26 
  307200    297.69957   -1482.3635    508.88045    370.01911    349.40205     36976.26 
  307300    292.74235   -1478.3143    486.94742     329.7637    592.15189     36976.26 
  307400    298.44229   -1488.4713    507.47682    365.85963   -93.347654     36976.26 
  307500    299.82658   -1463.4682    485.41454    375.04763   -761.00267     36976.26 
  307600    312.54951   -1482.8719    484.34332    411.99063   -453.68364     36976.26 
  307700    304.37676   -1516.2526    474.17493    331.55833   -51.007098     36976.26 
  307800    296.47123   -1522.8383     485.8404    300.96084    35.120446     36976.26 
  307900    303.29722   -1526.2484    461.71871    304.23443    39.362219     36976.26 
  308000    288.39224    -1504.065    477.32044    274.75417    325.53883     36976.26 
  308100    302.42662   -1477.5812    480.05564    367.30961   -248.64561     36976.26 
  308200    299.71106   -1514.9947    481.59682     319.1821   -119.52244     36976.26 
  308300    299.04417   -1538.2919    474.80348    286.08192    487.72042     36976.26 
  308400    295.11153    -1541.194     461.9187    252.54724   -156.04598     36976.26 
  308500    307.55804   -1517.7071     486.4875     356.7733   -297.18892     36976.26 
  308600    296.84701   -1495.3051     442.4295    286.77908   -491.95853     36976.26 
  308700    305.27789   -1480.7068    487.82523    384.82121     -525.184     36976.26 
  308800    306.31467   -1534.6063    480.81199    328.58736    167.34301     36976.26 
  308900    320.94454   -1526.3517    440.94403    362.99784    462.79661     36976.26 
  309000      315.766   -1508.4871    510.13452     426.6824    202.85703     36976.26 
  309100    296.81333    -1493.968    448.95394    294.48859   -97.198258     36976.26 
  309200    292.97566   -1454.1081    472.93602     341.0114   -281.93668     36976.26 
  309300    296.78124   -1487.4393    494.13436    346.05283   -362.20951     36976.26 
  309400    300.46993   -1553.3362    466.17582    268.84435   -553.91342     36976.26 
  309500    291.50302   -1521.2781    486.33146    280.59091   -607.16031     36976.26 
  309600    306.55049   -1545.7842    444.86239    282.52409    64.060972     36976.26 
  309700    300.43062   -1486.8398    487.34313    356.33064   -15.052204     36976.26 
  309800    287.70168   -1521.4361    473.77042    250.71662    110.13987     36976.26 
  309900    300.27079   -1568.1138    515.17304     302.1652    87.028186     36976.26 
  310000     292.6883   -1539.1726    448.83156    230.54562    428.58501     36976.26 
  310100    297.14662   -1537.2624    480.50623    284.25065    575.13969     36976.26 
  310200    305.56604    -1592.379    470.62366    257.24782   -93.279773     36976.26 
  310300     297.0003   -1549.1842    482.98836    274.15057    6.5935446     36976.26 
  310400     311.3683   -1556.4868     461.6626    310.36428   -505.72054     36976.26 
  310500    303.73669   -1539.1906    489.86471     321.4215   -856.92263     36976.26 
  310600    293.66514   -1511.8457    463.56015    277.00951   -991.29109     36976.26 
  310700    298.07932   -1513.3708    483.04705    314.89227   -694.36535     36976.26 
  310800    302.98441   -1495.8834    488.09019    359.55919     316.1936     36976.26 
  310900     293.1919   -1531.8159    458.87838    250.22179    287.90103     36976.26 
  311000    310.62554   -1525.6337    479.90043    356.10316    1017.2523     36976.26 
  311100    297.42171   -1524.4093     498.3497    316.18861    1093.7724     36976.26 
  311200    291.95518   -1501.6931    493.35929    309.24429     1232.955     36976.26 
  311300    300.75834   -1504.0183    473.07503    326.36302    950.33257     36976.26 
  311400    292.58553   -1512.7375    477.03265    284.71791    332.02663     36976.26 
  311500    294.41215   -1520.4169    458.73251    266.98187   -33.289156     36976.26 
  311600    296.55925   -1522.2387    468.09435    284.21164   -149.20517     36976.26 
  311700    298.38687   -1544.5998    492.12184      294.126    430.48915     36976.26 
  311800    299.92387   -1541.2444    474.64779     286.9437    273.14325     36976.26 
  311900    307.83705   -1535.4402    467.64632    321.45826    63.190983     36976.26 
  312000    302.12509   -1517.2194    486.88126    333.13625    339.15332     36976.26 
  312100    294.98086   -1537.0009    464.94251    259.17437    590.66788     36976.26 
  312200    289.37614    -1507.315    478.88154     277.5055     155.3088     36976.26 
  312300    309.73774   -1509.8628    482.89951    370.86653    186.44214     36976.26 
  312400    300.51127   -1495.7321    476.37717    336.83637   -258.83284     36976.26 
  312500    298.65776    -1497.034    481.65539     332.4479    221.70041     36976.26 
  312600    292.17314   -1481.9317    484.15138    320.78146   -115.21621     36976.26 
  312700    308.08914   -1524.0935    494.79265    361.08891   -165.88033     36976.26 
  312800    304.91724   -1527.2933    458.77421    307.55603   -164.87906     36976.26 
  312900     304.7735   -1526.9505    470.94089    319.41685   -14.976539     36976.26 
  313000     304.0671   -1500.3268    453.74569    325.65746    581.67758     36976.26 
  313100    292.62333   -1515.4029    482.92566    288.11614    446.58869     36976.26 
  313200    304.61369   -1484.7515    473.32725    363.28098    386.40276     36976.26 
  313300    306.44264   -1478.3968    479.55141    384.11379    72.230852     36976.26 
  313400    298.96989   -1498.2314    478.46961    329.47331    799.67747     36976.26 
  313500    303.78674   -1491.7465    474.86487    354.09167   -125.23499     36976.26 
  313600    298.89913   -1500.5519    486.48353    334.84744    253.63688     36976.26 
  313700     306.7255   -1492.8567     484.6701     376.0491    224.18613     36976.26 
  313800     300.5331   -1528.4356    479.72843     307.5826    367.46771     36976.26 
  313900    298.30332   -1543.4028    497.70789    300.53202    140.36577     36976.26 
  314000    303.45518   -1517.2642    476.70681    328.91955    870.26984     36976.26 
  314100    287.65882    -1541.343    473.42961    230.27545    658.46397     36976.26 
  314200    298.59895    -1538.156    469.10098     278.5061    1227.5567     36976.26 
  314300     300.7528   -1525.0152    501.22938    333.49545    540.55578     36976.26 
  314400    293.38233   -1545.3788      463.369    242.00896    248.90466     36976.26 
  314500     299.7356   -1498.7038    456.66604    310.65293   -329.51264     36976.26 
  314600    291.03821   -1499.3701    496.32584    310.39558    -340.3325     36976.26 
  314700    301.36348   -1516.6289    455.37987    298.78822   -396.46148     36976.26 
  314800    303.47949   -1543.0422    464.96085    291.50527    90.138663     36976.26 
  314900    309.34047   -1518.2028    473.26947    351.10366    140.55854     36976.26 
  315000     299.3015   -1526.9574    494.60516    318.37942   -282.81482     36976.26 
  315100    295.33331   -1558.4408    455.02463    229.40726     687.3392     36976.26 
  315200    295.61389   -1553.3009    445.92716     226.7159    567.05717     36976.26 
  315300    298.27988   -1474.7176    487.95739    359.36095    426.64798     36976.26 
  315400    288.46524   -1518.5191    474.15674     257.4658    130.41183     36976.26 
  315500    302.79885   -1469.6634    465.35673     362.2083    249.90048     36976.26 
  315600    292.87059    -1467.281    484.23274    338.66104   -366.71082     36976.26 
  315700    310.03578   -1431.4921    483.28008    450.96284    -368.2462     36976.26 
  315800    300.84126    -1483.967     465.7408    339.45432   -516.22952     36976.26 
  315900    301.38042   -1513.0528    497.63015    344.69104   -828.75962     36976.26 
  316000    298.83676   -1462.1833    491.18342    377.63438    -1297.338     36976.26 
  316100    291.05462    -1459.518    493.72474    347.72066   -1184.6432     36976.26 
  316200    299.51235   -1452.7121    485.06645     384.0375   -818.55725     36976.26 
  316300     301.2868   -1439.0893    509.62013      430.222   -646.30002     36976.26 
  316400    296.95941   -1473.3487    485.76986    352.58311   -434.87319     36976.26 
  316500    306.76329   -1484.5403    474.15585    374.02181   -375.39925     36976.26 
  316600    295.97218   -1486.4819     504.6171    353.84174   -349.01281     36976.26 
  316700    312.11037   -1507.4525    480.54265    381.62749   -415.70528     36976.26 
  316800    301.81454   -1497.4474    472.38798     337.0134   -4.4818585     36976.26 
  316900    292.33324   -1508.4722    501.03078    311.84285   -500.49941     36976.26 
  317000    297.33043   -1499.0322    509.47737    352.28148   -809.26163     36976.26 
  317100    296.13718   -1533.1965    495.72613    298.98083   -767.94574     36976.26 
  317200    298.35191   -1511.6876    484.66129    319.41992   -252.88842     36976.26 
  317300    294.32025   -1511.9241    502.24238     318.5698   -167.12085     36976.26 
  317400    292.50504   -1536.7124    485.61172    268.95883   -199.74689     36976.26 
  317500    298.53208    -1495.147    509.05935    361.17162    64.630545     36976.26 
  317600    308.59984    -1509.693    490.57393    373.57547    75.408743     36976.26 
  317700     290.5466   -1482.8512    510.37701    338.74702   -188.77452     36976.26 
  317800    309.20681   -1466.9837    480.96983     409.4199   -55.677113     36976.26 
  317900     297.5147   -1497.4818    490.50189    335.68799   -7.7388792     36976.26 
  318000    299.84159   -1533.4873    497.60223    317.28401   -287.91316     36976.26 
  318100    308.10268   -1521.0654    483.90758    353.29299    396.75311     36976.26 
  318200    307.55779   -1534.1073    486.24492    340.12944   -418.66668     36976.26 
  318300    298.35069   -1540.7278    477.89294    283.60583    134.89558     36976.26 
  318400    295.08943   -1520.5334    487.58229    298.77164     477.9575     36976.26 
  318500    300.68865   -1549.0909    466.21523    274.11603   -502.59926     36976.26 
  318600    310.13115   -1500.1707    470.50273    369.93729   -358.99807     36976.26 
  318700    297.88916    -1532.583    481.79997    293.57477    -178.1497     36976.26 
  318800    300.03822   -1561.9693    490.82528     282.9124    146.10638     36976.26 
  318900    293.23219   -1624.2144    458.45817    157.58493   -251.33596     36976.26 
  319000    297.88441   -1579.5351    476.42505    241.22633   -459.40387     36976.26 
  319100    297.24828   -1538.4073    467.23668     270.2949   -348.21977     36976.26 
  319200    296.04485   -1501.4405    493.82903    328.42313   -253.18108     36976.26 
  319300      289.838   -1576.3381    467.53486    199.22011   -568.77661     36976.26 
  319400    303.98027   -1584.2527    487.46808     275.0621   -533.94095     36976.26 
  319500     297.4534   -1585.3579    492.16878    249.20211   -578.50499     36976.26 
  319600    296.04172   -1584.0118    468.63762    220.64622   -52.901289     36976.26 
  319700     291.7357   -1558.2487    481.64663    239.98556   -234.57305     36976.26 
  319800     301.1804   -1564.5798    488.21319    282.84441    -308.4251     36976.26 
  319900    294.90061   -1566.0303    461.67097    226.51128    -577.3464     36976.26 
  320000     293.1522   -1553.8781     475.9299    245.03201   -99.245212     36976.26 
  320100    299.32425   -1586.9685    497.52823    261.39402   -910.06173     36976.26 
  320200     302.2803   -1574.4594     464.3225    254.03796    -102.5965     36976.26 
  320300    302.43988   -1540.8253    465.20054    289.27023   -196.85745     36976.26 
  320400    293.10766   -1516.4966     505.8285    312.11104   -219.15783     36976.26 
  320500    297.80659   -1536.2884    491.22308    298.91986    30.487726     36976.26 
  320600    306.50219   -1510.5842    506.40078    379.04451   -187.01688     36976.26 
  320700    295.29363   -1537.4015    459.26967    254.51253     84.78201     36976.26 
  320800    299.86765   -1523.6454    482.10325    311.74449   -460.31381     36976.26 
  320900    313.48781   -1592.0492     449.7076    272.41208   -425.71895     36976.26 
  321000    305.85123   -1517.6293    487.79484    350.45576   -880.10554     36976.26 
  321100    292.76901    -1454.396    517.90643    384.76125   -472.61414     36976.26 
  321200    297.31015   -1479.4321    497.76683     360.0795   -773.44364     36976.26 
  321300    290.96917   -1488.1341    498.93623    323.93039   -404.29788     36976.26 
  321400     305.4824   -1504.1694    488.74921    363.20548   -503.38988     36976.26 
  321500    303.83771   -1494.8579     477.1753    353.52068   -420.53713     36976.26 
  321600    298.99863   -1468.3121    509.32027    390.37293   -280.65352     36976.26 
  321700    293.17906   -1487.8687    485.88409     321.1168   -155.73545     36976.26 
  321800    291.05283   -1466.8783     504.2426    350.87007    -674.1823     36976.26 
  321900    301.73279    -1473.337    507.91949    396.28636   -217.41781     36976.26 
  322000    288.39393   -1471.7241     496.6248    326.40706   -846.14911     36976.26 
  322100    298.07629    -1440.588    500.93908    405.55342     174.0117     36976.26 
  322200    291.21179   -1459.1208    508.43096    363.53336     138.1648     36976.26 
  322300    293.20571   -1476.9757    523.48739    369.73339    337.62914     36976.26 
  322400    298.13844   -1426.4042    514.48557    433.56411   -548.40973     36976.26 
  322500    291.54902   -1500.7081    499.86324    314.90027    -951.4719     36976.26 
  322600        292.4   -1527.5137     477.0238    269.09567   -680.64835     36976.26 
  322700    291.04071    -1487.053    520.72811    347.12621    194.84127     36976.26 
  322800     302.0767   -1526.4176    498.83577    335.67411    345.42679     36976.26 
  322900    294.08831   -1509.3117    506.46386    324.35692   -15.150894     36976.26 
  323000    303.00319   -1509.9246    483.64037    341.15298    19.986401     36976.26 
  323100    297.09731   -1510.0405     509.8612    340.60492     404.4902     36976.26 
  323200    298.90605   -1501.6965    480.20501    327.45553   -429.14206     36976.26 
  323300      297.364   -1529.8234    467.55194    279.71633   -240.38169     36976.26 
  323400    301.23137   -1537.2867    476.13902     298.2934    417.38396     36976.26 
  323500    302.98034    -1548.689    480.65073    299.29582    129.27656     36976.26 
  323600    314.72977   -1515.0177    500.24863     405.5895   -226.23655     36976.26 
  323700    302.59915   -1497.6399    510.83898     378.8128   -217.18779     36976.26 
  323800    302.42927   -1522.2432    483.82101    326.42484   -75.505293     36976.26 
  323900    301.72517   -1503.6919    492.67585    350.65343    489.60006     36976.26 
  324000    309.37153   -1556.1591    500.71049    340.72848    392.92017     36976.26 
  324100    294.26749   -1571.3579    458.67189    215.32741    134.97442     36976.26 
  324200    305.95254   -1501.5156    510.56166    389.79346    179.98391     36976.26 
  324300    296.83709   -1555.1633    466.13795    250.58454    93.017054     36976.26 
  324400    297.60465   -1473.1534    488.20727    358.12771   -218.19172     36976.26 
  324500     298.0105   -1489.4249    512.14574    367.62628   -394.34391     36976.26 
  324600    301.37582   -1529.4514    469.64874    300.29026   -92.186338     36976.26 
  324700    312.81315   -1520.2179    482.32341     373.8145    333.51677     36976.26 
  324800    302.37733   -1533.6436    490.44589    321.41499   -156.16103     36976.26 
  324900    306.83686   -1525.3443    502.04634    361.44033   -225.74094     36976.26 
  325000    299.60188   -1551.4129    518.77171    319.44605   -97.412606     36976.26 
  325100    297.14271   -1525.1698    510.31817    326.13749    93.871428     36976.26 
  325200    301.57986   -1559.0979    490.83338    292.74928   -129.83587     36976.26 
  325300    285.99195   -1547.7202    479.57631    222.52241    -308.8401     36976.26 
  325400     294.7413   -1507.8953    491.28924    313.54563    308.30076     36976.26 
  325500    297.80789   -1540.2466    489.16754    292.91199    750.10336     36976.26 
  325600    289.44305   -1504.9999    494.74387    295.98494    394.73916     36976.26 
  325700    306.46868   -1547.8487    490.13958    325.36763    412.39758     36976.26 
  325800    306.49749   -1528.8572    496.30532    350.65483    209.50303     36976.26 
  325900    304.53761   -1547.1097    486.81147    314.06373    147.22481     36976.26 
  326000    311.44614   -1543.4691      488.263    350.33366   -23.735752     36976.26 
  326100    308.10363    -1534.647    529.80192     385.6101    361.91497     36976.26 
  326200    319.02632   -1508.8833    506.25404    437.11939    242.74826     36976.26 
  326300    293.51718   -1485.2843    498.41388    337.75687    587.75692     36976.26 
  326400    296.52704   -1501.0107    517.62235    354.82225    287.34533     36976.26 
  326500    299.62659   -1524.7771    509.36531    336.78698      129.499     36976.26 
  326600    290.27675   -1518.8113    509.74867    300.94081   -463.66618     36976.26 
  326700    302.60357   -1482.5157    495.20605    378.32406   -355.32236     36976.26 
  326800    302.29948   -1436.3152    504.51564     432.4618    -83.56942     36976.26 
  326900    305.20066   -1499.5262    509.92965    387.75768    -223.9632     36976.26 
  327000    298.91264   -1490.9401    480.81156    338.84822     7.643988     36976.26 
  327100    304.63221   -1511.1518    501.98682    365.62389   -4.4472485     36976.26 
  327200    287.37604   -1526.8112    473.02896    243.13041   -285.98131     36976.26 
  327300    303.02983   -1498.0099    475.05099    344.59844    334.25175     36976.26 
  327400     301.7913   -1479.0735     526.7417    409.63621    656.90721     36976.26 
  327500    297.06246    -1493.091    497.29639    344.83239    201.95552     36976.26 
  327600    295.96256   -1448.7312    514.82403    401.75602    529.43088     36976.26 
  327700    302.90247   -1494.0529    484.91448    357.84415    483.86475     36976.26 
  327800    297.70217   -1519.0053    515.34007     339.8487    578.62474     36976.26 
  327900    305.97631   -1460.1069    467.89718    388.64501    -371.3966     36976.26 
  328000    291.10837   -1432.8628    498.62757     379.5212   -690.27762     36976.26 
  328100    302.67296   -1492.0007    501.02392    374.97007   -1046.2257     36976.26 
  328200    294.34638   -1464.6996    497.25492    360.92475     -782.399     36976.26 
  328300    290.73024   -1476.7652    503.45791    338.74269   -318.39484     36976.26 
  328400    297.76145   -1455.7652    498.47544    386.49174   -209.33676     36976.26 
  328500    305.24004   -1447.4575     487.5662    417.64067   -755.03003     36976.26 
  328600     308.1076   -1467.9989    502.10762    424.58187    26.178267     36976.26 
  328700    294.21555   -1486.3563    480.36683    321.78952     0.246888     36976.26 
  328800    303.11442   -1519.2923    500.49005    349.13685   -732.11553     36976.26 
  328900     300.4474   -1499.7627    478.67826    334.81855   -291.90227     36976.26 
  329000    300.29522   -1498.6015    507.46221     364.0769   -463.93254     36976.26 
  329100     290.0862   -1451.2124    483.47235    341.40347   -528.75115     36976.26 
  329200    308.07471   -1459.6894    498.57175    429.20701   -13.362103     36976.26 
  329300    311.36766   -1451.2725    491.54474    445.45783   -100.78503     36976.26 
  329400    294.36158   -1448.4286    479.38672     359.3962    212.76883     36976.26 
  329500    302.49126   -1457.4153    501.73416    409.44564    56.801992     36976.26 
  329600    304.16781   -1475.3093    483.22382    380.60756   -196.54348     36976.26 
  329700    285.65098   -1493.7115    470.01279    265.42883   -638.83698     36976.26 
  329800    302.79229    -1460.996    491.76429     397.2537   -80.141875     36976.26 
  329900    311.19453     -1480.47    480.42636     404.3606   -379.84423     36976.26 
  330000    307.35946   -1482.7461    488.86905    393.21971   -174.25962     36976.26 
  330100    302.68553   -1519.5213    481.21166    327.69393   -187.83461     36976.26 
  330200    306.58991   -1475.3369    467.83221    376.11917    248.41661     36976.26 
  330300    301.06965   -1513.5391    484.23307    329.40519   -12.867345     36976.26 
  330400    298.73531   -1446.0447    485.91158    388.04328   -144.24322     36976.26 
  330500     310.0169   -1491.7103    485.40141    392.78081   -94.371406     36976.26 
  330600    307.90204   -1448.3139    485.61521    426.84671   -137.00926     36976.26 
  330700    301.13792   -1482.7749    502.39353    378.63788   -602.15702     36976.26 
  330800    309.22529    -1466.368    487.53602    416.68521    66.809424     36976.26 
  330900    301.22141   -1469.0567     508.5448    398.88419   -696.50389     36976.26 
  331000    269.09274      -1493.1    525.06373    246.36485    -113.9504     36976.26 
  331100    301.21411   -1483.1763    504.73047    380.91732    676.83979     36976.26 
  331200    306.37121   -1461.6292    503.73415    424.74182    165.63791     36976.26 
  331300     300.8628   -1486.3843    507.21831    378.61176   -59.990267     36976.26 
  331400    294.00447   -1467.9131    505.77985    364.69315    233.20047     36976.26 
  331500    294.07451   -1479.1392    483.00218     331.0055    509.79555     36976.26 
  331600    296.54779   -1477.4156    493.88325    354.77197    845.88119     36976.26 
  331700    300.68433   -1484.8751    533.79326    405.89042    1084.7824     36976.26 
  331800    295.00368   -1502.9532    500.33169    328.71424    713.99793     36976.26 
  331900    286.47551   -1443.0407    534.30684    384.11475    787.02624     36976.26 
  332000    307.26999   -1463.7436    530.51293    453.46236    819.47929     36976.26 
  332100    295.90978   -1449.6542    484.84998    370.62078    328.42771     36976.26 
  332200    298.78559   -1471.5884    507.27622    384.09112    78.284656     36976.26 
  332300    297.98212    -1488.587    501.40333    357.59368    32.275587     36976.26 
  332400    303.83274   -1462.4684    497.42011    406.13255    208.41204     36976.26 
  332500    297.55703   -1500.2663    510.38207    352.97465    660.72348     36976.26 
  332600     310.2397   -1479.1753    513.69734    434.61716    684.60142     36976.26 
  332700    307.36573   -1486.9599    500.40443    400.56956    416.47108     36976.26 
  332800    299.44955   -1502.1754    495.01017    344.23457   -454.00754     36976.26 
  332900    284.41349   -1506.5253     487.7999    264.81748   -392.32278     36976.26 
  333000    307.93418   -1509.9926    503.25041    382.94828   -361.10972     36976.26 
  333100    306.79277   -1489.3747    479.98686    375.15154    -342.7439     36976.26 
  333200     308.5939   -1526.6748    514.25562    380.24851    270.61315     36976.26 
  333300    307.79177   -1515.5774    513.20185    386.67226    498.03749     36976.26 
  333400    294.29447   -1585.4291    492.41297    235.11908    190.18239     36976.26 
  333500    301.38001   -1546.7323    493.16096    306.54049   -11.284447     36976.26 
  333600    298.65581   -1559.8286     496.4234    284.41243    97.945796     36976.26 
  333700    297.93399   -1546.5536    492.00813    290.01472    -128.5057     36976.26 
  333800    300.92864   -1521.8009    515.68987    351.96375   -273.97561     36976.26 
  333900    294.46162   -1562.5337    501.00744    267.36327    66.296589     36976.26 
  334000    307.30819   -1510.0286    504.92809     381.7649    223.03513     36976.26 
  334100    309.67145   -1516.6286    497.16046    378.06252    118.44722     36976.26 
  334200    312.02508    -1538.985    501.45707    370.62457    -134.1222     36976.26 
  334300    295.30937   -1549.6692    503.55461    286.60073    173.95852     36976.26 
  334400     301.2168   -1508.5992    486.98386    337.75995   -76.895053     36976.26 
  334500    290.75649   -1514.2296    496.29463    294.23346   -934.89558     36976.26 
  334600    293.96334   -1519.7965    497.35868    304.20297   -673.10203     36976.26 
  334700    302.98675   -1506.2464    509.73127    370.84785   -393.37911     36976.26 
  334800    308.08438   -1529.2514    508.85781    369.97472    99.276253     36976.26 
  334900    302.48018   -1530.3823    496.34965     331.0442     161.1807     36976.26 
  335000     306.2228   -1509.1707    489.44207    362.23844    193.52997     36976.26 
  335100    292.82576   -1487.1044    532.00956    366.41219    278.72101     36976.26 
  335200    298.24221   -1507.5708    512.22885    350.60913    336.03682     36976.26 
  335300    295.27676   -1483.2376    474.98554    324.31615    362.48386     36976.26 
  335400      304.876    -1522.075    510.45848    364.27254   -79.446788     36976.26 
  335500    304.15143   -1499.4455    511.45116    384.62474    -158.1421     36976.26 
  335600     297.5462   -1537.5398    510.97198    316.24224     375.7523     36976.26 
  335700     306.9095   -1528.0586    484.52207    341.52956    538.00208     36976.26 
  335800     307.2623   -1501.9662    513.78282    398.47491    219.02688     36976.26 
  335900    302.54915   -1502.2396    498.54779    361.69629    108.73933     36976.26 
  336000    297.55735   -1542.2083    498.50315    299.15522   -392.40477     36976.26 
  336100     300.8536   -1535.7085    475.84518    297.87283    40.827601     36976.26 
  336200    300.27522   -1531.9884    504.40185    327.53936    445.52692     36976.26 
  336300    301.97008   -1559.7888    512.93401    315.91999    359.18406     36976.26 
  336400    303.39122   -1539.4164    510.71593     340.4878    249.80499     36976.26 
  336500    311.98281   -1537.3328     507.2709    377.89976    169.99812     36976.26 
  336600    303.10614   -1563.3447    502.62043    307.17745   -235.89708     36976.26 
  336700    303.01644   -1513.7186    489.92602    343.70442   -422.74264     36976.26 
  336800    302.27521   -1517.7416    502.35646    348.76669   -3.3398711     36976.26 
  336900     301.5803   -1561.1402    501.17935    301.05491   -108.81234     36976.26 
  337000    299.84987   -1519.0903    533.63282    367.74897   -516.48334     36976.26 
  337100     313.3409   -1531.3384    495.56559    378.31791   -648.30702     36976.26 
  337200    300.82057   -1531.8698    479.70736    305.42471   -262.12418     36976.26 
  337300    306.00393   -1549.2411    482.08518     313.8234   -454.25321     36976.26 
  337400    298.71157   -1558.6169    513.73043    303.18291   -256.62041     36976.26 
  337500    299.81463   -1554.7148    517.25003    315.58257    346.30929     36976.26 
  337600    308.03666    -1518.038    499.80972    371.92467    246.34291     36976.26 
  337700    313.66215   -1525.6947    485.30229    375.14809    14.427753     36976.26 
  337800    299.05162   -1478.7912    500.55325    371.36601    73.267571     36976.26 
  337900    301.45428   -1483.0435    503.04879     380.4523   -301.73808     36976.26 
  338000     299.9264   -1513.3486    510.50533    350.70847   -153.98841     36976.26 
  338100    306.07775    -1553.467    513.27058    341.11603   -219.24768     36976.26 
  338200    285.64318    -1538.303    518.37697    269.16636     224.9443     36976.26 
  338300    291.18302   -1556.8476    489.63885    246.88458    398.57663     36976.26 
  338400    303.08666   -1556.0459    504.33851    316.10651    652.69309     36976.26 
  338500    303.56977   -1542.2484    501.56633    329.31201   -31.556778     36976.26 
  338600    293.31125   -1525.1043    530.99578    329.58946    867.07914     36976.26 
  338700    308.69864   -1497.6057    490.20259    385.73734    636.84609     36976.26 
  338800     299.4515    -1511.124    502.25511    342.53967   -133.49639     36976.26 
  338900    291.64865   -1550.9336    503.84419     269.1053    298.10104     36976.26 
  339000    304.27841   -1558.0612    490.36052    305.49147     93.95329     36976.26 
  339100    313.32584   -1555.3605    504.82495    363.48723   -379.43683     36976.26 
  339200    295.27902   -1565.6203    513.74986    280.70794   -394.07056     36976.26 
  339300    300.47599   -1558.6526    505.70458    303.08405    287.00284     36976.26 
  339400    302.14757   -1602.3853    503.77094    264.96149    382.93343     36976.26 
  339500    291.74392   -1579.1808    527.77433    265.21822    504.36685     36976.26 
  339600    290.63663   -1546.7501    516.71769    281.59511    76.266703     36976.26 
  339700    304.61391   -1554.4054    486.49498    306.79582   -197.57486     36976.26 
  339800    297.71702   -1515.0293    502.15754    330.70923   -80.121301     36976.26 
  339900    290.92149   -1556.4847    503.19433    259.62276   -297.18642     36976.26 
  340000    304.30321   -1531.4694     505.9969    347.83153   -270.43496     36976.26 
  340100    290.47241   -1539.3555    495.16318    266.69412    -27.14651     36976.26 
  340200    306.81506   -1496.9176    496.48528    384.20762   -102.18405     36976.26 
  340300    299.22753   -1565.0028    494.00024    279.39528    536.57631     36976.26 
  340400    309.11311   -1525.9982    497.30587    366.31858    149.86456     36976.26 
  340500    292.26905   -1494.1068     527.4324     352.3202    416.83941     36976.26 
  340600    296.10792   -1503.1801      514.909    348.04801   -45.525328     36976.26 
  340700    309.44008   -1541.2465    492.52597    347.76595   -374.26393     36976.26 
  340800    298.40596   -1522.0019    506.50423    331.19242   -219.74609     36976.26 
  340900    288.34652   -1515.6497    528.46325    314.10591   -45.425091     36976.26 
  341000    298.01772   -1505.3164     476.2966    315.91815    16.705956     36976.26 
  341100    305.12595   -1524.4051    509.54365    362.15556    814.42101     36976.26 
  341200    303.02375   -1507.6171    498.10829    358.02118    605.97706     36976.26 
  341300    306.85124   -1540.7643    521.92968    365.96855    347.75501     36976.26 
  341400    298.37202   -1506.3255    525.51241    365.72391    150.17513     36976.26 
  341500    298.71585   -1562.5078    505.90258    291.48345    9.6157066     36976.26 
  341600    303.82749   -1550.2498    517.87473    338.78207    387.57014     36976.26 
  341700    290.99723   -1539.1621    506.35719    280.45002   -382.67276     36976.26 
  341800    294.29896   -1531.0802    485.56468    282.63994   -185.26141     36976.26 
  341900    309.01496   -1552.9693    488.86852    330.46718   -601.21873     36976.26 
  342000    295.00391   -1533.1246    497.78518    295.99745   -73.329779     36976.26 
  342100    301.35135   -1516.9494    493.39042    336.42352    268.10037     36976.26 
  342200    294.43016   -1501.3527    525.67898    353.07377    224.13671     36976.26 
  342300    310.46504   -1504.2969    496.39628    393.21143    215.35359     36976.26 
  342400      295.257   -1489.0736    495.23672    338.64217   -184.98935     36976.26 
  342500    302.84157   -1500.8512    502.04043    367.89695   -779.52645     36976.26 
  342600    308.64774   -1451.6095    512.68456    453.98575   -416.10291     36976.26 
  342700    292.31171   -1490.2474    491.53357    320.47322   -329.16246     36976.26 
  342800    294.89962   -1465.5355    500.61542    365.94608    178.98487     36976.26 
  342900    288.87606   -1502.5749    483.11038    284.21767    973.20897     36976.26 
  343000    303.03894   -1476.8983    539.32511    430.02532    1181.2605     36976.26 
  343100     309.4095   -1483.7069    519.96618    432.60776    877.45515     36976.26 
  343200    306.80789    -1488.853    515.47932    411.23394    604.81838     36976.26 
  343300    295.97469   -1469.8752    501.13647    366.97921    515.65283     36976.26 
  343400     297.2786   -1514.7136    471.76991    298.65868    136.16211     36976.26 
  343500    303.74796   -1528.2076    506.14075    348.73141    285.40394     36976.26 
  343600    300.63865   -1501.3257    476.12357    331.56396    104.33448     36976.26 
  343700    293.76993   -1550.4289     497.2841    272.62316    731.68861     36976.26 
  343800    301.54005   -1532.6473    514.54649    342.73328     830.2257     36976.26 
  343900    296.44316   -1537.0037    468.49244    269.32081    605.05545     36976.26 
  344000    307.40307   -1525.0257     513.7764    376.04434    516.02143     36976.26 
  344100     302.9234   -1492.5816    477.38406    351.87957     854.2312     36976.26 
  344200    295.03219   -1527.5832    497.09752    300.97873    507.42333     36976.26 
  344300    295.95273   -1511.7637    535.47009    359.32523   -276.16556     36976.26 
  344400    296.94462   -1519.9247    493.89132    314.06178    110.07023     36976.26 
  344500    306.09767   -1530.1817    495.54331    346.76394     -504.171     36976.26 
  344600    307.43114   -1517.4343    494.96364    364.94957    274.68298     36976.26 
  344700    298.16392   -1501.1454    471.13119    315.58359   -577.90856     36976.26 
  344800    298.85869   -1529.5536    495.50832    314.68795   -27.881464     36976.26 
  344900     291.2848   -1534.0859    499.56589    280.03265   -8.1736366     36976.26 
  345000    289.03489   -1500.6708    518.08314    321.81132    362.75579     36976.26 
  345100    294.60878    -1542.635    493.27994     280.1986   -234.80334     36976.26 
  345200    297.35298   -1483.8171    492.51845    350.63943    269.64945     36976.26 
  345300    304.66626   -1518.4845    494.26225    350.72025    203.62909     36976.26 
  345400    307.66945   -1522.9545    498.03736    363.57864    410.67653     36976.26 
  345500    307.45222   -1547.2672     497.1434    337.39157    451.11559     36976.26 
  345600    306.37099   -1508.5987    483.26333    357.30051    578.96302     36976.26 
  345700    297.81232   -1488.6424    485.67037    341.03902   -54.168881     36976.26 
  345800    294.31288   -1476.4609    495.95341    347.71081   -371.14663     36976.26 
  345900    295.30618   -1525.3817    463.49946    270.81868   -300.72005     36976.26 
  346000    297.85768   -1488.0924    506.08839    362.21171   -421.06081     36976.26 
  346100    299.42667   -1468.6027    484.81022    367.50406   -384.71203     36976.26 
  346200    298.48902    -1462.333    503.50428    388.23619    39.862265     36976.26 
  346300     301.0864   -1476.6948    476.33997    358.43194   -9.6185243     36976.26 
  346400    300.34007   -1470.2517     501.6449     386.8119    314.83756     36976.26 
  346500    291.31678   -1506.3045    496.65978    305.05224    284.70814     36976.26 
  346600    308.74067   -1511.9463    464.90451    346.28831    553.60417     36976.26 
  346700     299.3519   -1501.1294    479.81926    329.64895     766.6826     36976.26 
  346800    307.33077    -1502.361    520.79555    405.40179    691.85146     36976.26 
  346900    299.80291   -1477.9847    476.05738    351.06711    510.93157     36976.26 
  347000    302.48676   -1501.2365    469.84586    333.71592    591.89134     36976.26 
  347100    299.65066    -1517.851    504.84678     339.3031     146.3053     36976.26 
  347200    307.45876   -1516.0662    495.23563    366.71427    72.634326     36976.26 
  347300    297.00981   -1483.0861    487.92338    345.22658     273.6927     36976.26 
  347400    296.70771   -1509.4941    490.98138    320.51322    241.96082     36976.26 
  347500    305.11975   -1476.3853    479.11582    379.71963     331.7497     36976.26 
  347600    299.55018   -1482.8038    508.62208    377.67219    109.88528     36976.26 
  347700    290.71015   -1484.2716    488.51407    316.20181    8.7686791     36976.26 
  347800    284.24284   -1506.2768    491.78433    268.28026   -393.25889     36976.26 
  347900    287.84817   -1467.8039    488.00111    319.24059   -158.04549     36976.26 
  348000    307.18163    -1513.581    496.66099    369.37426     512.4795     36976.26 
  348100    292.84326   -1514.5604    490.76569     297.7912    1283.5606     36976.26 
  348200    289.94004   -1526.0838    487.59949    269.99955    1183.0032     36976.26 
  348300    305.44158   -1539.3932    525.99676    365.04502    670.03401     36976.26 
  348400    287.79572   -1524.3153    499.68335    274.17474    499.12819     36976.26 
  348500    292.46097   -1521.3442    503.16068    301.67714    1113.2073     36976.26 
  348600    312.72652   -1512.3946    522.98839    421.91185    904.16194     36976.26 
  348700    308.38962   -1506.5513    501.10475    386.29931    789.43582     36976.26 
  348800        306.7   -1521.9265    494.28475    356.47889    983.78668     36976.26 
  348900    307.11403   -1510.9563    499.09667    374.12948     546.6594     36976.26 
  349000    298.35183   -1504.2057    525.38187    367.62195   -76.263676     36976.26 
  349100    299.78527   -1514.1923    503.23465    341.95726    50.716131     36976.26 
  349200    299.63003   -1492.4845    520.61792    380.34764   -102.64941     36976.26 
  349300     291.0982   -1499.1867    503.60806    318.13195   -66.428906     36976.26 
  349400    292.52198   -1537.8898    483.68901    265.93526     -417.578     36976.26 
  349500    300.64695   -1513.0824    518.63015    362.35136   -52.933262     36976.26 
  349600    306.46679   -1512.0849    512.99145    383.97478    183.35981     36976.26 
  349700    296.11722   -1505.7717    519.76284    350.35223    249.32824     36976.26 
  349800     305.6447   -1538.5982    487.28547    328.04546    76.526323     36976.26 
  349900    305.02096   -1513.2105    499.46484     362.7976   -263.74488     36976.26 
  350000    303.31142   -1466.7286    510.11353    412.21318    256.84449     36976.26 
  350100    315.98395   -1515.3955    520.09409    430.71724    316.47762     36976.26 
  350200    296.27141   -1550.4782    504.27853    290.85731    445.35076     36976.26 
  350300      305.952   -1514.0747    520.43126     387.1015    265.61776     36976.26 
  350400    298.41512   -1472.6138    492.69323    366.81084    506.29649     36976.26 
  350500     294.3204   -1483.0607    523.18927    368.38075    218.20026     36976.26 
  350600    306.32066   -1531.1948    480.50826    331.72214     69.58408     36976.26 
  350700    301.72731   -1522.9298    522.46588    361.21523   -126.29377     36976.26 
  350800    308.73723   -1523.0747    484.13671    354.37657    336.94879     36976.26 
  350900     290.0427   -1548.9184    474.10907    234.13787    106.73575     36976.26 
  351000    291.03738   -1494.2589    514.17913    333.35637    44.349358     36976.26 
  351100    301.09581   -1469.5566    496.34414    385.61683    76.649748     36976.26 
  351200    288.90662   -1476.1789    530.37817    358.01937    981.51885     36976.26 
  351300    298.69691   -1498.3806    517.45161    367.07419    1584.9617     36976.26 
  351400    290.32098   -1506.8418    521.16703    324.52828     1057.876     36976.26 
  351500    303.50277    -1564.173    498.81431    304.33307    497.74056     36976.26 
  351600    297.48753   -1512.3242    502.64927    332.87033     158.3328     36976.26 
  351700    295.08036   -1503.6231    489.18197    317.24074    -179.7989     36976.26 
  351800    304.86197   -1473.8207    470.97585    372.98091   -70.593072     36976.26 
  351900    308.29992   -1495.5779    530.58095    426.34403   -520.05094     36976.26 
  352000    294.90055   -1562.1573    483.71394    252.42699    211.45141     36976.26 
  352100     293.8926   -1491.3491    498.57182    333.54424   -183.47139     36976.26 
  352200    305.75405   -1467.4371    484.16309    396.57757   -501.38794     36976.26 
  352300    301.23858   -1500.1595    500.06769    359.38177   -469.28789     36976.26 
  352400    287.51615    -1468.357    510.66106    339.84898   -546.35624     36976.26 
  352500    295.04658   -1474.3671    499.56148    356.72378   -211.83944     36976.26 
  352600     302.6475   -1507.4993    531.73525    390.06787   -96.691992     36976.26 
  352700    299.23704   -1553.9288    516.04018    312.55204    33.931722     36976.26 
  352800    297.69322   -1503.1193    504.90884    345.26309    81.928519     36976.26 
  352900     300.7091   -1507.2406    516.80746    366.65092    249.44285     36976.26 
  353000    304.19477    -1486.057    525.69326    412.45102    784.28639     36976.26 
  353100    302.13996   -1469.2676    498.24791    392.52181    773.50427     36976.26 
  353200    288.85785   -1457.0599    469.00447    315.54455    646.59339     36976.26 
  353300    307.77287   -1477.3019    523.10537    434.76597    461.37142     36976.26 
  353400    294.13888   -1501.0206    496.89083    323.30325   -233.27344     36976.26 
  353500    308.92986   -1509.7451    517.06481    401.50365   -346.31975     36976.26 
  353600    297.28548   -1533.5027    503.58647    311.71727   -136.55386     36976.26 
  353700    299.90893    -1513.903    491.77188    331.34184   -258.94558     36976.26 
  353800    285.94878   -1499.5559    493.24147    284.15712    632.23916     36976.26 
  353900     303.2522   -1542.8739    500.03325    325.72023    456.98844     36976.26 
  354000    301.22755   -1526.7463    486.12006    318.79752    533.72726     36976.26 
  354100    303.80955   -1545.7219    508.09896    333.45322    607.94256     36976.26 
  354200    311.14173   -1562.7879    483.74884    325.12689    346.00925     36976.26 
  354300    296.98673   -1545.8214    464.75813    259.22188    308.88296     36976.26 
  354400    295.25156   -1574.1983    523.85431    282.11049   -934.63814     36976.26 
  354500    289.17916    -1580.694    473.14101    197.49702   -888.02954     36976.26 
  354600    308.50459   -1555.0213    497.40402    334.64746    283.22725     36976.26 
  354700    294.07376   -1599.9025    496.90578    224.14241   -243.63654     36976.26 
  354800    303.56018    -1597.233     476.7949    249.51277    534.20865     36976.26 
  354900    301.98034   -1618.9108     500.1098    244.02014    779.19665     36976.26 
  355000    295.08729   -1578.0082    466.84965    220.55459    690.84515     36976.26 
  355100    302.80233    -1596.722    497.90714    267.71583    1052.0503     36976.26 
  355200    306.94532   -1565.3766     516.2308    336.08204    429.65749     36976.26 
  355300    310.12754   -1579.5633    513.88208    333.90769    648.08628     36976.26 
  355400    305.80924   -1552.2444     503.4682    331.32457    122.87694     36976.26 
  355500    297.18444   -1578.6894    511.11281    273.60082    212.84742     36976.26 
  355600     300.0553   -1567.2082    474.83786    261.76315   -156.58217     36976.26 
  355700     302.0801   -1556.0158    499.27384    306.52936    -178.4611     36976.26 
  355800    300.67621   -1551.7706    483.31453    288.47955    575.84856     36976.26 
  355900    304.15609   -1580.9562    507.02687    298.71079    892.91095     36976.26 
  356000    293.95948   -1579.3094    518.83787    266.15184    1327.8906     36976.26 
  356100    299.61202   -1522.0789    484.99865    315.05278    630.60655     36976.26 
  356200    295.31015    -1502.916    514.40904    344.21195    184.33682     36976.26 
  356300    294.55081   -1505.6367    528.56342    352.21878    136.67163     36976.26 
  356400    305.42322   -1483.2057    507.53466     402.6876   -200.08753     36976.26 
  356500    297.66467    -1494.129    518.18329    367.39896   -664.10428     36976.26 
  356600    307.70358   -1507.5156    483.64828    364.78241   -211.81817     36976.26 
  356700    311.52517   -1468.0902    488.17005    425.97624    -271.1925     36976.26 
  356800       302.47   -1496.5166    511.35903    379.87333   -489.84244     36976.26 
  356900    309.72437   -1517.3988    497.98819    378.35886    166.69223     36976.26 
  357000    298.98973   -1516.2048    525.95448     359.0743    326.36492     36976.26 
  357100    300.75748   -1543.1924    485.67554    299.78552    37.576026     36976.26 
  357200    298.34217   -1558.4707    506.78727    294.71884    173.24523     36976.26 
  357300    299.61361   -1550.0128    479.90427    282.03163    333.24369     36976.26 
  357400    302.26186   -1572.9478    480.30463    271.44843   -9.5281146     36976.26 
  357500     306.7393    -1592.749     487.6078    279.15677    603.93582     36976.26 
  357600    296.27083   -1589.7367    470.88703    218.20468     397.6769     36976.26 
  357700    308.26665   -1588.1511     507.3903    310.43009    50.692681     36976.26 
  357800    298.22459   -1604.6952    489.16679    230.34322     209.4691     36976.26 
  357900    302.28039   -1597.1687    486.54626    253.55276     229.0248     36976.26 
  358000    306.05714    -1588.742    495.25277    287.73028      70.1387     36976.26 
  358100    307.59167   -1591.1882     464.2241    261.18066   -438.42692     36976.26 
  358200    291.94755   -1549.2211    502.34658    270.66911   -482.35147     36976.26 
  358300    294.46521   -1543.8351    503.10716    288.17779   -312.36307     36976.26 
  358400    295.70531   -1499.3388    503.89351    339.05692   -213.37383     36976.26 
  358500    305.57826   -1547.6676    505.62629    337.01698   -383.91848     36976.26 
  358600    300.49377   -1514.1177    519.41761    361.41219    162.25371     36976.26 
  358700    303.09249   -1545.9877    490.77247    312.62493   -307.03185     36976.26 
  358800    306.92343   -1503.4013    509.90483    391.63247   -892.60385     36976.26 
  358900    303.60162   -1514.0742     500.8681    356.93177   -1123.3226     36976.26 
  359000    299.35939   -1520.1505    463.47554    294.31796    -1139.822     36976.26 
  359100    305.38671   -1529.0752    528.87579    377.99443   -475.13589     36976.26 
  359200    313.46836   -1547.2915     470.7699     338.1443   -346.01354     36976.26 
  359300    306.71116   -1543.5892    487.33787    327.91967    66.328099     36976.26 
  359400    300.02454   -1545.1107    491.53908    300.42302   -250.08462     36976.26 
  359500     295.8978   -1551.6716    480.94254    264.64186   -666.74112     36976.26 
  359600    302.04555   -1502.9745    508.96539    369.10632   -395.33662     36976.26 
  359700    299.83021   -1543.5313    514.42959      324.016    360.12702     36976.26 
  359800    301.59027   -1541.1827    503.52486    323.40288    359.64492     36976.26 
  359900    302.22231   -1507.0809     514.1319    370.96408    6.1065647     36976.26 
  360000    299.69756    -1520.221    481.00976    313.30774   -67.945379     36976.26 
  360100     300.0373   -1553.3501    481.85824    282.56043   -273.70504     36976.26 
  360200    299.26263   -1514.5291    507.27576    343.30288   -327.65022     36976.26 
  360300    307.88137   -1546.4444    508.24678    351.25453    97.988989     36976.26 
  360400    292.61675   -1556.7948    471.69433    235.46324   -353.92853     36976.26 
  360500    298.25441   -1554.2585    493.87191    285.61957    97.750495     36976.26 
  360600     309.0676   -1520.0954    487.76496    362.47506    81.173934     36976.26 
  360700    309.54683   -1512.5448    506.72361    391.14701    306.65886     36976.26 
  360800     288.3774    -1532.867    491.11853    259.68329    552.16277     36976.26 
  360900     304.8907   -1514.7868    487.21436    348.38291    116.09179     36976.26 
  361000    303.93441   -1510.2813    524.29655    385.65497    657.09172     36976.26 
  361100    292.86666   -1535.1053    493.73769    280.32388    390.26551     36976.26 
  361200    292.45958    -1511.043    471.86402    280.67547    496.41267     36976.26 
  361300    297.32877   -1466.8519    479.95972    354.93665   -143.07469     36976.26 
  361400    306.95353   -1502.3296    508.44667    391.38196   -443.61872     36976.26 
  361500    310.45224   -1449.5606    514.79746    466.29121    252.91009     36976.26 
  361600    304.63799   -1491.9319    490.02194    372.90494   -64.635739     36976.26 
  361700     298.9826   -1546.3695    497.23199    300.15492    -113.2771     36976.26 
  361800    292.72031   -1532.3773    477.61259     266.2663   -811.63118     36976.26 
  361900    294.04873   -1517.3848    500.97837    310.61971   -534.83213     36976.26 
  362000    303.43519    -1512.816    493.92763    350.49838   -247.10506     36976.26 
  362100    292.86434    -1484.962    511.12427    347.84336    -376.8804     36976.26 
  362200    291.05273    -1479.456    479.36061    313.41004    319.76726     36976.26 
  362300    305.84367   -1476.2253    486.73884     390.7696   -232.88755     36976.26 
  362400    304.32377   -1514.4193    541.26734    400.24489    374.28462     36976.26 
  362500    296.89322   -1524.1298      487.053    302.78637    347.44197     36976.26 
  362600    304.00418   -1524.8736    482.73258    329.81355    512.26908     36976.26 
  362700    293.29355   -1562.5773    474.09269    235.13352    119.46839     36976.26 
  362800    299.43383   -1471.4851    518.13718     397.9809    219.93309     36976.26 
  362900     299.3471   -1452.8978    498.50178    396.54142     18.99294     36976.26 
  363000    307.54584   -1441.5447    503.71997    450.11322   -182.78852     36976.26 
  363100    301.18984   -1520.7202    474.94155    313.47498   -549.77207     36976.26 
  363200    308.12717   -1540.4247    479.40265    329.53939   -456.38176     36976.26 
  363300    308.62611   -1515.8084     505.1069     382.1116    -807.6698     36976.26 
  363400    302.19055   -1489.4644    475.05716    349.36258   -330.94409     36976.26 
  363500    295.12374   -1512.0172    492.58339     312.4438   -129.16344     36976.26 
  363600    304.18391   -1550.0855    480.12166    302.80183   -320.08623     36976.26 
  363700     299.6081   -1530.5623    478.77674    300.32972   -238.67156     36976.26 
  363800    301.08538   -1548.4568    482.30429    292.62968   -273.09902     36976.26 
  363900    296.05687   -1505.7339    497.22376    327.57865   -155.31134     36976.26 
  364000    291.21077   -1497.0345    482.24973    299.43381    -280.9674     36976.26 
  364100    300.33985   -1511.6529    529.65023    373.41494   -182.98194     36976.26 
  364200    301.42594   -1523.0928    476.90619    314.13253   -80.747128     36976.26 
  364300    299.35236   -1534.5845    499.67435    316.05099    180.38936     36976.26 
  364400    295.61622   -1541.1103    513.88606    306.87593    -130.2749     36976.26 
  364500    311.11437   -1536.9621    492.42135    359.50171    166.99063     36976.26 
  364600    310.96729    -1535.097    512.49048    380.77215    129.07557     36976.26 
  364700    303.28912   -1525.4346     496.2007    339.49371   -294.48549     36976.26 
  364800    295.58516    -1546.897    487.21273    274.27578   -354.19163     36976.26 
  364900    305.06984   -1501.7985    490.45525    365.42057   -64.087024     36976.26 
  365000    293.91535   -1504.2616    477.94262    300.10528   -308.48672     36976.26 
  365100    299.62217   -1497.2525    466.28911     321.2154   -293.86324     36976.26 
  365200    295.11663   -1508.0887    507.10841    330.86525   -704.64355     36976.26 
  365300    298.69553   -1478.1848    504.70527    374.51744   -571.78618     36976.26 
  365400    306.15473   -1489.3398    498.08312    390.40319    426.68959     36976.26 
  365500    293.56224   -1528.2268    458.28186     254.8857   -127.02239     36976.26 
  365600    303.38739   -1491.7243    506.44331    383.89009    2.0453204     36976.26 
  365700    296.32494   -1492.3587    467.43616    312.37607    66.666371     36976.26 
  365800    298.56868   -1476.2866    500.69833    371.83614   -820.28362     36976.26 
  365900     295.9535   -1462.0339    491.56859    365.15695   -727.70056     36976.26 
  366000    310.30444   -1458.3737    514.31815    456.33179    145.19751     36976.26 
  366100    294.46352   -1477.1518    487.10269    338.84898   -217.75871     36976.26 
  366200    309.79909   -1504.2922     484.3322     378.1467    384.35859     36976.26 
  366300    294.38626   -1472.7464    479.75387    335.55694    162.95615     36976.26 
  366400    302.56876   -1513.7565    490.96658    342.68669    240.56961     36976.26 
  366500    310.15502   -1486.0311    497.24179    410.92373    124.20253     36976.26 
  366600    301.56508   -1470.3176    506.12495    396.75442    403.09611     36976.26 
  366700    290.66705   -1512.3379    539.44263     338.8696    169.82392     36976.26 
  366800    295.35191    -1506.273    489.41628    316.05059    571.89856     36976.26 
  366900    297.31175   -1497.9374    513.04034    356.85491    703.03329     36976.26 
  367000    294.89412   -1493.1775    475.80815    313.47204    52.967871     36976.26 
  367100    292.00245   -1469.1663    493.35167     341.9768   -509.48795     36976.26 
  367200    295.52111   -1468.3315    513.48043    378.81986   -213.44935     36976.26 
  367300    289.63259   -1508.0618    492.05527    291.08984    -19.81027     36976.26 
  367400    302.93321   -1468.0659    502.73024    401.78566   -253.44717     36976.26 
  367500     305.3275    -1479.439    511.69699    410.18463   -477.43699     36976.26 
  367600    306.59748   -1501.4506    483.62236    365.82978   -277.59258     36976.26 
  367700    297.86726   -1491.5355     509.4244    362.14788   -791.78225     36976.26 
  367800    308.62696   -1471.1823    500.69951    422.33415   -179.45246     36976.26 
  367900    302.52557    -1516.083    500.98337    350.18205   -378.04421     36976.26 
  368000    294.62667   -1493.2843     472.0851    308.43513   -891.43172     36976.26 
  368100    308.49501   -1498.8624    507.33818    400.69724   -178.92776     36976.26 
  368200    301.72216   -1524.5136    473.15139    310.29369     541.7652     36976.26 
  368300    299.16531   -1497.6536    494.99898    347.46244     414.0727     36976.26 
  368400    291.54838   -1507.0421    491.48166     300.1818    65.942105     36976.26 
  368500    297.56678    -1481.932    486.75581    347.72673    44.049197     36976.26 
  368600    290.48627   -1504.7033    495.81805    302.06374    -268.6893     36976.26 
  368700     299.4831   -1482.7648    476.02698    344.81334    54.495339     36976.26 
  368800     301.9501   -1501.4542    514.32528    375.55574     103.2716     36976.26 
  368900     290.1925   -1484.3776    494.53252    319.77812    218.19441     36976.26 
  369000    306.42531   -1488.8315    495.08769    389.13718    379.08061     36976.26 
  369100    299.93731   -1509.5859    485.96605    329.98117    127.06559     36976.26 
  369200    300.44108   -1498.7883     490.9782    348.06442    354.60205     36976.26 
  369300    302.30678   -1513.1481    495.12022    346.26644    881.66123     36976.26 
  369400    298.19429   -1481.0258    508.44451    373.15358    663.61002     36976.26 
  369500    304.88366   -1459.4515    477.71986    394.19195    88.361855     36976.26 
  369600    304.15775   -1468.2504    508.86001    413.25726    501.04156     36976.26 
  369700    299.44225   -1472.5272    489.81051    368.65017   -301.01188     36976.26 
  369800    301.87421   -1471.6794    490.34715    381.00982   -607.86219     36976.26 
  369900    296.16026   -1519.2955    456.67268    273.93257     2.967548     36976.26 
  370000    300.40239   -1500.6189    495.75072    350.83168    16.253406     36976.26 
  370100    300.25457    -1544.777    462.19356    272.44937    102.22822     36976.26 
  370200    301.55785   -1497.7847    473.11519    336.24487    94.263608     36976.26 
  370300    306.38585   -1509.7526    498.85754    371.80786    142.53931     36976.26 
  370400    304.10806   -1519.0005     496.3654    349.78827    653.68022     36976.26 
  370500    293.50248   -1478.9853    491.10456    336.68018     291.2981     36976.26 
  370600     301.2684   -1450.2173    473.42579    382.81665    167.14682     36976.26 
  370700    298.85553      -1451.5    491.07586    388.29479   -167.49588     36976.26 
  370800    303.54499   -1496.0106     477.5911    351.46279    60.088942     36976.26 
  370900    296.78332   -1533.4643     497.1918    303.09473   -336.49557     36976.26 
  371000    301.62507   -1521.7649    474.46326    313.91617    -32.45521     36976.26 
  371100    308.69083   -1559.5869    473.51375    307.03207    321.27727     36976.26 
  371200    304.08941   -1471.4748    498.02553    398.88995   -341.31487     36976.26 
  371300    287.82146   -1524.1581    469.21735    243.98206   -603.25698     36976.26 
  371400    305.75212    -1496.776    454.20195    337.26893   -417.89198     36976.26 
  371500    303.77009   -1502.9242    477.11668    345.09057    -459.2959     36976.26 
  371600    296.15905   -1486.7817    497.63425    347.40241   -545.08427     36976.26 
  371700    301.96697   -1527.9675     470.3704     305.1637   -67.374349     36976.26 
  371800    297.83475   -1487.7192    466.16254    322.55559   -505.37084     36976.26 
  371900     304.7548   -1466.9128    494.76448    403.19377   -374.95856     36976.26 
  372000    296.03057   -1498.6977    470.44932    307.72171   -249.14169     36976.26 
  372100    303.26715   -1475.2451    486.95692    380.34024    169.03646     36976.26 
  372200    303.29739   -1476.0884    496.57486    389.25138    662.15052     36976.26 
  372300    290.57526   -1514.4241    500.76037    297.68689    564.27375     36976.26 
  372400     300.6596   -1461.3216    507.68815    403.22725   -363.24696     36976.26 
  372500    310.63432   -1468.2686    498.09854    431.70599   -39.499919     36976.26 
  372600    306.52095   -1426.4234    484.62215    441.51141   -650.32157     36976.26 
  372700    288.54837    -1447.697    483.84179    338.34817   -550.45298     36976.26 
  372800    300.73674    -1468.971    485.25664    373.49447   -633.29713     36976.26 
  372900    303.85236   -1503.8942    478.44187     345.8171   -216.61922     36976.26 
  373000    296.00644   -1499.1303     494.8559    331.58678   -628.34327     36976.26 
  373100    289.93063   -1530.2743    491.35299    269.52007    -193.1541     36976.26 
  373200    309.05608   -1493.9566    489.97886    390.77577    311.65589     36976.26 
  373300    308.55283   -1532.3466    483.68305    343.81884   -185.12613     36976.26 
  373400    300.80058   -1501.5552    476.94419    332.88588   -303.84373     36976.26 
  373500    303.57415   -1485.4355     503.2622    387.84059   -552.63741     36976.26 
  373600     298.9435   -1476.7867    483.36459    355.69384   -470.86926     36976.26 
  373700    300.26192   -1490.3214    456.56754    321.31215   -689.57452     36976.26 
  373800    304.91264    -1525.513     475.5824    326.12376   -302.94698     36976.26 
  373900    303.82461   -1537.4836    478.37963    312.04025   -143.43147     36976.26 
  374000    296.52106   -1490.9469    472.99469    320.23148    5.0339043     36976.26 
  374100    288.08793   -1462.9738    476.81054    313.96218    -914.5662     36976.26 
  374200    311.66743   -1498.5148    471.28186    379.30543   -338.14359     36976.26 
  374300     300.3939   -1487.2642     466.3588    334.75617    -478.2506     36976.26 
  374400    296.36305   -1483.4584    490.85876    344.87091   -342.89664     36976.26 
  374500    304.88671   -1507.4245     490.0967    358.60957    121.18153     36976.26 
  374600    303.14146   -1521.5451    483.09276    329.60883    437.51347     36976.26 
  374700    301.74086   -1502.0681    464.44184    324.11402    477.78808     36976.26 
  374800    293.39147   -1479.7057    498.01994    342.37426    641.09254     36976.26 
  374900      307.174   -1487.3553    501.24463    400.14907    1232.0972     36976.26 
  375000     304.8347   -1469.3532    516.22728    422.57678    450.69782     36976.26 
  375100    303.93299   -1492.7959    493.39067    372.22809    581.67952     36976.26 
  375200    295.99856   -1508.2406    507.07538    334.66048    468.32225     36976.26 
  375300    298.48798   -1529.2747    495.89462    313.68019    271.93455     36976.26 
  375400    291.57954   -1498.1936    483.70149    301.39072   -290.96859     36976.26 
  375500    299.23593   -1470.3388    482.31155    362.40853   -399.43273     36976.26 
  375600    302.85254   -1488.3734    476.63688    355.02078   -747.04953     36976.26 
  375700    293.15377    -1533.617    459.90354    249.27381   -919.05663     36976.26 
  375800     310.9613   -1560.5799    459.84741    302.61917   -555.54684     36976.26 
  375900    302.27844   -1519.8599    507.46619    351.77269   -385.52363     36976.26 
  376000    304.43946   -1549.1787    456.08345    280.82369   -347.23159     36976.26 
  376100    297.31429   -1514.5853    475.30293    302.48111   -196.69374     36976.26 
  376200    291.05647   -1522.5425    488.44444    279.42419    -269.7961     36976.26 
  376300    302.89184   -1540.8515    466.37376    292.45694     99.73433     36976.26 
  376400    311.33535    -1540.816     493.6151    357.83891   -564.74621     36976.26 
  376500    300.98082    -1516.368    456.28822     298.2305   -408.07684     36976.26 
  376600    305.25568   -1522.6839    485.40426    340.32283    357.53885     36976.26 
  376700    294.03796   -1552.6546    476.66946    250.99243    132.44777     36976.26 
  376800    300.83535   -1539.5665    472.79565    290.88295   -292.88743     36976.26 
  376900    291.16158   -1544.4211    470.63743    240.21296   -592.36295     36976.26 
  377000    311.71258   -1508.4814    477.63434    375.89511    143.34423     36976.26 
  377100    297.43414   -1554.6316    475.56482    263.23755    360.67586     36976.26 
  377200    293.34559   -1526.1037    474.93222    272.68141    411.46701     36976.26 
  377300    297.43079   -1541.9893    464.01472    264.31463    32.610552     36976.26 
  377400     309.0374   -1498.4115    494.48795    390.74567    67.136616     36976.26 
  377500    293.79055   -1509.4894    466.55198    282.92357    311.02137     36976.26 
  377600    299.96353   -1494.4984    513.92682    373.14775    450.14538     36976.26 
  377700    308.59269   -1476.5351    479.30844    395.43565    170.77068     36976.26 
  377800    301.57046   -1454.0021    475.15747    382.12677    505.96177     36976.26 
  377900    296.58826   -1499.3373    483.53274    322.68233    200.41874     36976.26 
  378000    291.11685   -1488.2121    471.78578    297.36846   -673.97014     36976.26 
  378100    290.70916   -1480.4695    465.29786    296.78329   -591.25996     36976.26 
  378200    293.91584   -1510.1119    495.14625    311.46073   -471.21503     36976.26 
  378300    300.18545   -1476.6091    484.18736    362.29912   -205.10932     36976.26 
  378400    301.14434   -1515.3641    484.12528    327.80948    315.40298     36976.26 
  378500    300.19155    -1497.752    469.50898    326.50533    67.411674     36976.26 
  378600     301.1026   -1472.4109    497.81028    384.25931    280.32267     36976.26 
  378700    294.45505   -1536.6301    473.76663    265.99637    194.87058     36976.26 
  378800    304.74873   -1548.3682    488.05335    314.99983    798.84376     36976.26 
  378900     308.9911   -1521.7194    490.69445    363.43528    1041.7985     36976.26 
  379000    309.65368   -1463.4094    484.46754     418.5086    927.05863     36976.26 
  379100    294.42972    -1514.363    508.31316    322.69572    926.67318     36976.26 
  379200    303.37435   -1543.2345    501.84597     327.7236    242.09256     36976.26 
  379300    297.22386   -1504.0992    472.03523    309.29138   -105.54346     36976.26 
  379400     303.7643   -1485.4003    492.10916    377.58091   -85.541128     36976.26 
  379500    300.62695   -1475.3568    477.21424    358.57081    435.99836     36976.26 
  379600    309.64484   -1500.4024    497.17079    394.17899   -30.521091     36976.26 
  379700    298.48116   -1457.3433    515.76869    405.45486   -329.56063     36976.26 
  379800    299.07438   -1484.7755    490.18918    355.12033   -922.28107     36976.26 
  379900     293.9057    -1419.044    501.50729    408.84399   -457.28983     36976.26 
  380000    302.16249   -1472.2653    500.38834    391.76611   -719.40665     36976.26 
  380100    302.76349   -1467.4114    515.28406    414.22811   -848.96928     36976.26 
  380200    296.00043   -1467.8312    489.98514    357.98806   -417.58775     36976.26 
  380300    297.39624   -1446.8879    496.08212    391.32753   -685.22459     36976.26 
  380400    304.01429   -1454.6422     498.2836     415.6416   -218.91928     36976.26 
  380500    289.78618    -1507.253    496.81427    297.35081    -440.1755     36976.26 
  380600    300.82075   -1496.3835    494.13448     355.3389    13.312277     36976.26 
  380700    300.93468   -1524.9749    530.16034    363.28752    244.78738     36976.26 
  380800    300.55392   -1477.0286    466.42128    345.77639    821.80862     36976.26 
  380900    297.74723   -1519.9289    487.80695    311.59533    835.23539     36976.26 
  381000    297.19161   -1478.9888    464.89029    327.11134    661.27769     36976.26 
  381100    286.23978   -1503.2993     475.4497    263.93523    376.72216     36976.26 
  381200    291.84693   -1480.0064    489.61122    326.69442    165.06269     36976.26 
  381300    290.91872   -1453.8899    500.33169    359.34237    38.880993     36976.26 
  381400    294.41378   -1455.3865    488.70128    361.98836    441.66577     36976.26 
  381500    296.33693   -1516.6252    493.75275    314.48022   -443.22958     36976.26 
  381600    298.98246   -1496.6198    480.15516    332.82717   -518.48316     36976.26 
  381700    294.78954   -1476.5893    480.93577    334.71589   -739.76375     36976.26 
  381800    290.83523   -1480.1223    495.63467    328.03619   -134.37666     36976.26 
  381900    298.65694   -1477.0525    495.77065    366.54094   -596.24448     36976.26 
  382000    293.23559   -1466.2025    502.78374    359.93772   -562.83304     36976.26 
  382100    310.21356     -1422.02    485.74587    463.70304    77.081406     36976.26 
  382200    303.46823   -1509.3564    464.46465    324.64414    -584.6137     36976.26 
  382300    309.47863   -1496.4377    481.01738    381.24017    -181.9067     36976.26 
  382400    299.74121   -1446.9126    486.10889    391.91234   -476.88055     36976.26 
  382500    309.93514    -1498.756    466.14717    366.11186   -159.81419     36976.26 
  382600    297.56141   -1494.8944    474.69332    322.67766    323.59256     36976.26 
  382700    291.75643   -1483.2184    506.93739    340.40009    414.07438     36976.26 
  382800    305.78794   -1454.3677    498.66945    424.30629   -281.74873     36976.26 
  382900    294.11778   -1455.9524     472.0125    343.39786   -456.92004     36976.26 
  383000    312.36147   -1423.0804    493.35889    479.94909   -709.89256     36976.26 
  383100    298.94903   -1458.8653    499.93728    390.21295   -396.53657     36976.26 
  383200    290.09586   -1478.8426    476.86876    307.21328    214.73789     36976.26 
  383300    302.45438   -1501.1176    510.30721    374.15005   -252.40584     36976.26 
  383400    300.78932   -1506.8043    489.64683    340.28858    23.885365     36976.26 
  383500    322.44407   -1490.7546    488.31888    452.73705   -182.54011     36976.26 
  383600    296.06142    -1470.385    488.76745    354.49183   -119.01257     36976.26 
  383700    295.65765   -1482.3852    485.39638    337.29827    491.94348     36976.26 
  383800    307.50274   -1466.3851    502.81199    424.17031   -117.97823     36976.26 
  383900    291.21321   -1476.0801    470.72546    308.87501    134.34699     36976.26 
  384000     288.6154   -1449.4871    494.50886    347.52765   -341.95706     36976.26 
  384100    291.10188   -1458.8629    497.70685     352.5711   -116.75541     36976.26 
  384200    290.29704   -1411.0473     488.3443    387.39199    72.637907     36976.26 
  384300    309.21859   -1427.8414     486.5387    454.18425   -96.249043     36976.26 
  384400    303.02726   -1475.9314    495.41482    387.02923   -602.84801     36976.26 
  384500    291.74635   -1436.8205    483.49697    363.31214   -312.95287     36976.26 
  384600    303.86616   -1470.4394    469.89137    370.78364   -433.70414     36976.26 
  384700    300.93015   -1458.6451    472.61638    372.05295   -147.65243     36976.26 
  384800    300.16107   -1482.0101    484.69993     357.3007   -80.411846     36976.26 
  384900    301.22437   -1497.1915    503.71768    365.93558   -182.26138     36976.26 
  385000    290.26192   -1460.8731    499.27639    348.33974    277.14187     36976.26 
  385100    308.87568   -1498.6607    508.39618    403.67491      644.569     36976.26 
  385200    288.94524   -1494.8178    485.94947    295.12605    684.90008     36976.26 
  385300    307.01974   -1493.6819    504.23481    396.11652    109.56584     36976.26 
  385400    303.30867   -1496.8736    484.47192    356.41406    362.47789     36976.26 
  385500    284.37285     -1527.52    480.18663    236.02606   -734.07715     36976.26 
  385600    297.26653   -1509.0907     493.9989    326.45611    -157.2279     36976.26 
  385700    303.33573   -1508.3146    489.90599     350.5293     -123.211     36976.26 
  385800     291.6192   -1486.0531    500.40324    330.41201   -190.23396     36976.26 
  385900    303.45713    -1471.478    478.51399    376.52174    445.86988     36976.26 
  386000    301.42905    -1473.629    520.94188    407.64597    23.225888     36976.26 
  386100    303.19814   -1494.0546    503.53543    377.79781    236.44319     36976.26 
  386200    288.26313   -1476.0962    470.97898    295.79879   -435.76995     36976.26 
  386300    306.96331   -1487.1382    485.07678    383.24758   -389.86285     36976.26 
  386400    305.91886   -1521.6476    482.92523    341.87305   -234.16133     36976.26 
  386500    300.63642   -1493.8339    494.44697    357.36911   -186.14738     36976.26 
  386600    295.86606    -1514.539    463.87245    284.56117   -482.97038     36976.26 
  386700    297.99625   -1482.0359    495.73335     358.5386   -928.74201     36976.26 
  386800    302.92954   -1519.2826    502.89359     350.7158   -496.04786     36976.26 
  386900    301.74125    -1490.629    506.75372    377.86685   -438.39529     36976.26 
  387000    305.41442   -1465.7531    493.80733    406.37312   -416.84393     36976.26 
  387100    303.80506   -1488.3825    479.81452    362.48794    5.0680734     36976.26 
  387200    296.84241   -1477.5013    497.46158    359.59415    173.93047     36976.26 
  387300    295.63181   -1533.3846    470.30935    271.09532   -100.90397     36976.26 
  387400     301.4743   -1542.6137    474.32005    292.24368   -97.430457     36976.26 
  387500    300.07152   -1517.9324    487.94141    324.21568   -64.758691     36976.26 
  387600    299.79825   -1525.6874    478.78652    306.07258   -51.324542     36976.26 
  387700     295.3914   -1531.6225    479.89738    281.36045   -289.35719     36976.26 
  387800     305.2472   -1590.8382    487.60394       274.33     28.33619     36976.26 
  387900    286.92514   -1495.0467    456.92683     256.7579   -400.65189     36976.26 
  388000    292.76462   -1495.0477    475.15641    301.33973    153.34426     36976.26 
  388100    293.65941   -1529.9881    484.65385    279.93491    28.765292     36976.26 
  388200    300.46267   -1528.4257    496.14644     323.6927    301.30101     36976.26 
  388300    292.34654   -1505.5738     471.2406    285.01109   -70.763049     36976.26 
  388400    298.86331   -1519.6789     465.1683    294.24352   -389.38248     36976.26 
  388500    295.00068   -1505.8629    486.84671    312.30606   -236.71815     36976.26 
  388600    296.27682   -1507.2322    482.09128    311.94054   -504.09817     36976.26 
  388700    305.65376   -1499.1807    489.58955    369.80792    -136.2976     36976.26 
  388800    296.27002   -1516.3738    501.78548    322.46243    131.99137     36976.26 
  388900    302.29306   -1498.9889    469.24903    334.49251   -592.11689     36976.26 
  389000    298.13037   -1501.9947    475.24831    318.69996   -447.76249     36976.26 
  389100     302.7576   -1512.3401    476.09637    330.08514   -206.82708     36976.26 
  389200     299.5932   -1516.5617    524.15283    359.63923   -517.06737     36976.26 
  389300    295.58272   -1481.7402    472.65827    324.86703   -65.224299     36976.26 
  389400    296.43685    -1502.686    494.36907    329.48674    437.41829     36976.26 
  389500    311.37782   -1542.2739    479.34853    342.30605    240.47972     36976.26 
  389600    300.46832   -1516.1621    474.77002    314.60532   -309.44616     36976.26 
  389700    304.46804   -1562.1248    461.87929    273.80245   -31.119671     36976.26 
  389800    300.23539   -1590.6985    477.24651     241.4943    261.41624     36976.26 
  389900    289.69502   -1555.3097    481.05344    233.12185    244.71198     36976.26 
  390000    294.29433   -1533.9941    472.01074    266.15118   -523.40483     36976.26 
  390100    294.66526    -1579.956    489.67355     239.5261   -255.57854     36976.26 
  390200     291.8564   -1559.7569    474.97183    232.34721   -145.50344     36976.26 
  390300    306.10463   -1558.7084    482.92301     305.6484   -256.95299     36976.26 
  390400    296.68618   -1588.2365    484.96649     235.6588    234.55926     36976.26 
  390500    295.10785   -1543.4406     470.2561     258.6214    473.27976     36976.26 
  390600    304.94725   -1550.7376    480.81513     306.2881    463.41027     36976.26 
  390700    302.76532   -1562.7411    478.87766    282.50025    647.53952     36976.26 
  390800    308.06635   -1559.2799     473.3027    304.30975    486.04019     36976.26 
  390900    303.45518   -1535.8476    504.67584     338.3052    321.80926     36976.26 
  391000    293.87092   -1532.0706    464.25503    258.40816    493.30426     36976.26 
  391100    307.69465     -1505.67    514.44105    397.38045    144.94531     36976.26 
  391200    295.25985   -1522.5218    499.62981    309.59986    -56.14505     36976.26 
  391300    296.55315   -1491.7898    474.76973    321.30837    295.09488     36976.26 
  391400    291.40775   -1509.9239    484.75281    289.93652    206.96991     36976.26 
  391500    296.08041   -1510.7527    502.57821    328.02057    -476.7973     36976.26 
  391600    294.66839   -1517.1571    488.36749    301.03302   -80.215215     36976.26 
  391700     297.3342   -1503.9863    513.02569    350.89275    481.67073     36976.26 
  391800    306.28164   -1557.2801    467.21441    292.16692    63.678129     36976.26 
  391900    298.59421   -1542.2329    472.29027    277.59706    -112.1261     36976.26 
  392000    291.86809   -1542.7297    474.06194    248.51727   -111.43321     36976.26 
  392100    301.99274   -1532.3204    476.39968    306.95633    84.117647     36976.26 
  392200    291.00678   -1511.9636    497.50946    298.84389   -756.92407     36976.26 
  392300    291.45063   -1498.0584    475.18762    292.43027   -761.31323     36976.26 
  392400    293.90851   -1541.2731    465.36304    250.48334   -1167.6165     36976.26 
  392500    303.64677   -1501.2958    485.13155    354.17734   -360.58387     36976.26 
  392600    308.24476   -1483.4667    498.20094    405.82632    216.39278     36976.26 
  392700     300.2373   -1503.3273    478.69708     330.3246   -167.94192     36976.26 
  392800    306.81068   -1508.6511    477.41615    353.38526   -281.67243     36976.26 
  392900    303.94434   -1524.2314    472.57731    320.03046   -265.59324     36976.26 
  393000    310.86968   -1473.8798    477.87978    406.93821   -351.49484     36976.26 
  393100    299.28657   -1495.0725    456.77175    312.36349   -244.07989     36976.26 
  393200     292.4274    -1467.093    504.85556    357.47175   -75.616889     36976.26 
  393300    302.87808   -1495.3908    504.03508    375.51684    596.87755     36976.26 
  393400    294.12848   -1491.9437    501.45502    336.89735    327.27308     36976.26 
  393500     298.5792   -1453.9838    504.18619    397.67435    569.85798     36976.26 
  393600    303.52295   -1439.9451    526.82256    456.66023    252.14184     36976.26 
  393700    297.54734   -1466.5152    497.61393    373.91394   -100.82753     36976.26 
  393800    315.66773   -1447.4133    462.44965    439.62794    29.831315     36976.26 
  393900    294.52298   -1460.7083    556.55516     425.0133    -348.9629     36976.26 
  394000    293.04456    -1489.265    451.01524    284.24457   -404.36308     36976.26 
  394100    300.82056   -1472.6275    514.92014     399.8797   -123.55373     36976.26 
  394200    307.90364   -1470.7923    493.48969    412.25003   -399.34716     36976.26 
  394300    306.38861    -1482.773    499.88812    399.83048   -240.74509     36976.26 
  394400    294.91692   -1500.3002    483.41005     314.0541   -744.05628     36976.26 
  394500    305.07389   -1505.0483    490.55606    362.28994   -761.82242     36976.26 
  394600    309.12052   -1531.8068    500.66014    363.89764    60.868118     36976.26 
  394700    306.28374   -1511.9477    476.95721    347.25158   -253.05867     36976.26 
  394800    307.63778   -1500.9636    499.30112    386.69032    223.95759     36976.26 
  394900    293.94573   -1501.7795    488.52594    313.30775    235.33482     36976.26 
  395000    291.47587   -1505.0538    500.80774    311.16891   -458.90489     36976.26 
  395100    308.52462   -1509.6256    494.23102    376.96045   -144.76266     36976.26 
  395200    305.61266   -1529.5356    492.69218     342.3702   -367.51622     36976.26 
  395300    303.17491   -1519.6639    484.60018    333.14836   -144.74226     36976.26 
  395400     297.6646   -1480.5723    494.37755    357.14964   -98.314955     36976.26 
  395500    309.94614    -1489.081    486.83012    396.51944   -454.59017     36976.26 
  395600    295.37059   -1473.1749    509.55126    369.36798   -523.44138     36976.26 
  395700    309.36538   -1505.0107    487.77213    378.91084   -222.71918     36976.26 
  395800    300.95604   -1508.8812    495.68949    345.00677   -295.09254     36976.26 
  395900    302.61977   -1564.1903    503.84331    305.35986    72.867892     36976.26 
  396000    300.08384   -1563.5394    459.41777     250.1407     2.220417     36976.26 
  396100    296.95478   -1531.5008    483.36737    292.00765   -148.25557     36976.26 
  396200    297.30043   -1543.5392    498.31678    296.47848   -524.45922     36976.26 
  396300    299.74935   -1516.4877    499.18718    335.45225   -178.51447     36976.26 
  396400    300.86187   -1545.0851    473.96822    286.65657   -393.33972     36976.26 
  396500    300.31921   -1489.5278    489.95592    355.75268   -364.80444     36976.26 
  396600    305.47885   -1462.0337    488.63323    405.20919    -225.7622     36976.26 
  396700    300.42967   -1526.1029    485.96007    315.68016    50.951302     36976.26 
  396800    305.55108   -1485.3759    484.34599    377.90577   -15.484177     36976.26 
  396900    293.24709   -1484.7128    511.37585    350.07143   -140.09259     36976.26 
  397000    284.09206   -1449.8056     512.9372    345.22384   -154.89137     36976.26 
  397100    303.65848   -1493.1592    496.77673    374.01204   -206.78596     36976.26 
  397200     291.9348    -1486.554     481.7355    312.66763   -33.266652     36976.26 
  397300    299.75048   -1474.8276    503.72165    381.65191    10.070615     36976.26 
  397400     304.8138   -1542.8332     478.4273     311.2024    744.06379     36976.26 
  397500    306.45827   -1529.5203    506.73584    360.24532    512.20164     36976.26 
  397600    303.26464   -1519.5485    498.04355    347.11209   -17.104746     36976.26 
  397700      289.948   -1509.1873    503.65525     302.9877    1375.9613     36976.26 
  397800    298.70236   -1551.4566    481.66541    278.23657    584.14914     36976.26 
  397900    305.29562    -1545.521    502.85583    335.11764    730.82067     36976.26 
  398000    301.03813   -1522.9015    477.84058    313.50804    214.12007     36976.26 
  398100    297.99606    -1516.961    486.64283     314.5221   -65.876326     36976.26 
  398200    296.07963   -1494.7424    482.82731    324.27642   -722.88588     36976.26 
  398300    315.45115   -1527.1929    472.72772    369.14897   -252.03479     36976.26 
  398400    298.48137   -1519.0649    484.85972    312.82524   -226.76972     36976.26 
  398500    297.88481   -1527.2391     508.1899    325.28897    259.55169     36976.26 
  398600    292.73228   -1479.6667    504.89144    346.30986   -72.490547     36976.26 
  398700    303.76253   -1515.9379     496.4108    351.33689     51.95697     36976.26 
  398800    306.60865   -1479.1039    496.69986    401.30437    961.92205     36976.26 
  398900    305.60007   -1501.5624    494.75567    372.34996     557.1222     36976.26 
  399000    294.42175   -1537.9231    512.50156    303.28803   -55.729963     36976.26 
  399100    308.99621   -1473.0078    498.05535    419.53085   -15.346683     36976.26 
  399200    300.89492   -1499.7934    495.42282    353.55201   -822.89125     36976.26 
  399300    301.18086   -1506.0305    492.16467    345.34726    -777.4078     36976.26 
  399400    307.70169   -1501.1608    514.13394    401.61438   -861.78997     36976.26 
  399500    301.57583   -1461.6494    501.36515    400.71129   -744.70582     36976.26 
  399600    312.22713   -1507.0107     501.9153    403.96887   -676.46403     36976.26 
  399700    309.27109   -1506.3987    500.23794    389.56309    -308.3613     36976.26 
  399800    300.98339    -1502.203     506.3347    362.45363   -390.57906     36976.26 
  399900    297.60681   -1486.6148    480.98239    337.45118    5.4113741     36976.26 
  400000    296.55624   -1496.1458    498.69365    340.89027    118.71868     36976.26 
  400100     305.4619   -1486.9931    530.54013    422.08019    654.50601     36976.26 
  400200    291.38809    -1486.673    492.21166     320.5575    499.06308     36976.26 
  400300    292.30274    -1474.912    497.65646    341.89106    6.1197117     36976.26 
  400400    299.48767   -1502.2709    469.71528    319.01615    615.60154     36976.26 
  400500    294.78932   -1468.8871    502.63977    364.12111    9.1111479     36976.26 
  400600    300.47223   -1462.9806     536.7353    429.76977      188.518     36976.26 
  400700     299.6004   -1462.0627       488.29    378.30787    573.24475     36976.26 
  400800    294.77692   -1499.5286    488.86632    319.65021     700.1459     36976.26 
  400900    298.55931    -1481.143    493.52117    359.76034   -341.99537     36976.26 
  401000    308.71383   -1498.9605    508.21022    402.45871   -702.05449     36976.26 
  401100    306.59225   -1471.0406    489.50144    402.09526   -435.90494     36976.26 
  401200    301.27126   -1481.2418    499.95306    378.33234   -45.524363     36976.26 
  401300    299.23923   -1477.1398    494.16324    367.47406   -133.00592     36976.26 
  401400     280.8784   -1441.8743    512.14786    337.86273    527.88169     36976.26 
  401500    293.82313   -1447.2299    505.99632    384.77444    68.026523     36976.26 
  401600    297.41755   -1459.7574     504.0943    386.56637   -344.06275     36976.26 
  401700    306.99529   -1419.8628    504.24267    469.83322   -90.540026     36976.26 
  401800    294.53771   -1427.8054    501.94905     403.3765    567.54031     36976.26 
  401900    300.12926   -1373.5543    502.12255    483.03548    371.41646     36976.26 
  402000    304.58819    -1393.244     508.3328    489.67897    472.80022     36976.26 
  402100     295.9417   -1381.1327    495.21596     449.6523    48.308936     36976.26 
  402200    304.17664   -1409.1216    528.00443     491.6157    322.62101     36976.26 
  402300    293.86908   -1484.2503      479.759    321.72409    506.27298     36976.26 
  402400    313.56863   -1442.9022     485.0575    457.27368    331.46004     36976.26 
  402500     301.0401    -1414.835    513.52107    457.26391   -515.63704     36976.26 
  402600    295.34612   -1449.9707    485.25038    368.16089   -684.49671     36976.26 
  402700    303.99449   -1460.7348    505.33866    416.51474    -309.8328     36976.26 
  402800    292.47033   -1439.9499    501.62979    381.58282    391.71699     36976.26 
  402900    300.64547    -1464.415    493.19987    385.58171    549.60931     36976.26 
  403000    297.95783   -1481.6403    520.44051    383.46795    178.25058     36976.26 
  403100    297.01968   -1500.1789    467.70712    307.96209   -164.07132     36976.26 
  403200     298.6716   -1426.5649    484.99643     406.3205   -334.90853     36976.26 
  403300    301.69387    -1427.059    506.79089    441.26017    -276.9182     36976.26 
  403400    301.12559   -1425.4541    498.73624    432.24574   -956.00088     36976.26 
  403500    309.88503   -1444.3069    479.37945    433.56705   -897.82691     36976.26 
  403600    304.19804   -1416.7595    517.21347    473.28344   -837.62282     36976.26 
  403700    294.40846   -1457.2307    488.73681    360.15574   -544.85466     36976.26 
  403800    308.37965   -1467.7048    525.94483     449.9409   -412.00183     36976.26 
  403900    299.47504   -1456.9424    486.97749    381.54984   -78.473098     36976.26 
  404000    299.28676   -1443.4642    508.44938    415.65029   -61.131941     36976.26 
  404100    296.63382   -1442.0242    494.40465    391.07302   -77.425273     36976.26 
  404200    297.77427   -1489.0603    502.79001    357.56902    449.65625     36976.26 
  404300    282.33218   -1455.3986     513.1724    331.92384     309.6319     36976.26 
  404400    303.35391    -1438.126    478.56863    409.46253   -88.157495     36976.26 
  404500    301.40579   -1418.7123    473.27205    414.78797    711.32661     36976.26 
  404600    301.23912   -1445.6309    509.09487    422.93998    424.74741     36976.26 
  404700    301.29955   -1440.0706    508.26675     427.9449    340.00448     36976.26 
  404800     296.1312   -1413.1407    496.25893     419.5425    215.24285     36976.26 
  404900    302.16114   -1457.2004    477.84751    384.28412    554.53073     36976.26 
  405000     290.2883   -1482.1893    504.19537    332.06163    204.37388     36976.26 
  405100    313.61138   -1466.7989    486.18401    434.69649   -39.397295     36976.26 
  405200    298.80696   -1498.8887    485.60111    335.21226   -359.82142     36976.26 
  405300    289.20131   -1491.0631    478.76121    292.84806    738.52993     36976.26 
  405400    289.85305    -1511.043    484.41101    281.45927     767.1075     36976.26 
  405500    304.02043   -1508.0225    508.79202    372.79749   -170.73286     36976.26 
  405600    292.35844   -1499.9654    495.33714    314.76971    299.71965     36976.26 
  405700    303.61214   -1488.4325    487.65462    369.40747    -194.4102     36976.26 
  405800    304.49823   -1479.6366    506.15376    400.70132    51.366027     36976.26 
  405900    307.36668   -1508.2713    490.78445    369.64253    427.75958     36976.26 
  406000    296.45063    -1493.736    496.38743     340.5173   -27.854808     36976.26 
  406100    306.04468   -1481.1419    488.38031    388.40168    74.718289     36976.26 
  406200    298.61096   -1488.6769    499.92794    358.86626    127.48897     36976.26 
  406300    296.75678   -1435.4708     490.7353    394.51193   -381.36479     36976.26 
  406400    291.04687   -1459.3031     511.7702    365.94604   -143.09803     36976.26 
  406500    300.63594   -1450.1829    487.46791    394.03894   -21.923882     36976.26 
  406600    290.37432   -1440.7637    538.71781    408.39784    172.83539     36976.26 
  406700    305.12213   -1477.6939    495.44103    394.74699    118.44478     36976.26 
  406800    308.92003    -1451.172    508.04954    451.01709    78.985026     36976.26 
  406900    303.30281   -1438.1658    519.60663    450.23019    294.35874     36976.26 
  407000    303.86649   -1493.0838    498.22246    376.47185   -753.72543     36976.26 
  407100    299.30228   -1512.3557    518.98253    357.36194   -221.86908     36976.26 
  407200    288.78948   -1468.9193    518.39945    352.77159   -254.10277     36976.26 
  407300    299.39282   -1505.1684    492.89508    338.87046    21.297574     36976.26 
  407400    298.61328   -1489.1464     494.0865    352.56578   -24.901292     36976.26 
  407500    297.39027    -1485.172    495.57982    352.51419    74.192877     36976.26 
  407600    308.27285    -1510.447    479.28591    360.05775     307.5654     36976.26 
  407700    305.96102   -1503.3759    506.72918    384.13896    89.472815     36976.26 
  407800    302.69421   -1489.9716    491.35551    367.42672    -122.1756     36976.26 
  407900    303.87726   -1536.0476    497.14702    332.48122    390.69061     36976.26 
  408000    296.47682   -1485.0417    509.30523    362.24752    332.51051     36976.26 
  408100    304.85986   -1482.2518    500.30133    393.86571    326.05572     36976.26 
  408200    302.46119   -1452.8114     513.5766    425.75637    419.20175     36976.26 
  408300    294.41052   -1464.7188    489.24776     353.1879    110.86205     36976.26 
  408400    304.01673   -1461.6942    549.66995    459.98694    125.69307     36976.26 
  408500    296.87544   -1462.9624    481.46431    358.28483    262.16283     36976.26 
  408600    301.32959   -1417.4545    556.66573    499.09551   -43.305266     36976.26 
  408700    298.60222   -1439.3735    509.94252    418.14481    28.187355     36976.26 
  408800    301.28054   -1449.6393     526.6892    436.71279   -238.86574     36976.26 
  408900    298.84499   -1465.9072    493.61695    376.38122    -576.8393     36976.26 
  409000    295.66672   -1503.7706    532.36453    362.92197   -371.70115     36976.26 
  409100    291.44092   -1513.3283    484.14436    286.07325    346.21627     36976.26 
  409200    308.01681   -1475.0909    518.80494    433.77739    628.03148     36976.26 
  409300    304.50858   -1427.5339    501.95328     448.6503    364.21888     36976.26 
  409400    305.65201   -1501.8697    514.53381    392.05529    -131.5203     36976.26 
  409500    295.85328   -1501.3559    500.82271    334.63683   -599.93565     36976.26 
  409600    291.82742    -1524.788     512.5998     304.8133   -634.46108     36976.26 
  409700    294.05646   -1486.3477    489.80465    330.51804   -671.01001     36976.26 
  409800    302.00207   -1479.3676    500.90766    384.45923   -171.77782     36976.26 
  409900    299.68335   -1481.5501    522.48346    393.38824   -12.535161     36976.26 
  410000    295.29245   -1510.4602    500.96017    323.13897   -72.195868     36976.26 
  410100    283.76355   -1474.1148    507.08919    313.58406   -29.890264     36976.26 
  410200    297.43618   -1506.1014    490.86586    327.07797   -182.28289     36976.26 
  410300    308.80435   -1514.1212    503.64493    383.14126    351.51361     36976.26 
  410400    298.97491   -1499.8605    508.88466    358.28194   -230.29024     36976.26 
  410500    311.12511   -1489.3116    510.69378    425.47311   -77.875658     36976.26 
  410600    309.85301   -1486.6512    492.53986    404.23866   -168.85851     36976.26 
  410700    306.24614   -1466.4255    500.00475    415.65165     289.1244     36976.26 
  410800    295.74439   -1514.7629    520.01843    339.93415    318.85275     36976.26 
  410900    300.24352   -1526.1486     483.0709    311.90524    61.037672     36976.26 
  411000    306.55294   -1516.9971    518.52398    384.98388   -192.48546     36976.26 
  411100    295.82473   -1488.6719    498.61988    344.98913     185.2652     36976.26 
  411200    302.47841   -1515.3232    491.19515    340.94078    58.048668     36976.26 
  411300    317.25789   -1454.5841     520.5618    497.74559    440.05546     36976.26 
  411400    296.16146   -1487.3651    516.74239    365.93811   -13.759486     36976.26 
  411500    291.71119   -1489.6512    512.18046    339.00621    209.73504     36976.26 
  411600    295.68778   -1497.1408    463.34216    300.62449   -8.0427302     36976.26 
  411700    308.29598   -1480.9337    497.90848    408.29808   -194.81982     36976.26 
  411800    303.64564   -1478.4891    516.63104     408.4784   -258.98918     36976.26 
  411900    301.79302   -1496.2816    472.72407    338.41818    212.68592     36976.26 
  412000      302.335   -1479.5398    506.31033    391.19218    232.24861     36976.26 
  412100    297.24205   -1504.2086    496.28689    333.51577    258.52325     36976.26 
  412200    304.24212   -1482.1861    489.97759    380.81984    559.35013     36976.26 
  412300    291.20595    -1511.821    508.74361    311.11945    693.14122     36976.26 
  412400    298.79856   -1515.5467    501.01327    333.92843    167.26562     36976.26 
  412500    296.93768   -1515.4914    506.90368    331.47611    144.59331     36976.26 
  412600    306.42474   -1521.8597    516.20206    377.22074    12.284586     36976.26 
  412700    301.19481   -1509.6994    494.67099    344.24757   -305.74807     36976.26 
  412800    289.93357   -1472.5936    510.42083    346.28192   -427.46491     36976.26 
  412900    292.85382   -1493.7725    487.28685    315.14795   -437.35821     36976.26 
  413000    304.34037   -1468.6564    499.31297    404.12835    173.17821     36976.26 
  413100    299.57122   -1410.1377    490.04748    431.85869    -538.0669     36976.26 
  413200    298.11912   -1450.2406    494.28941     389.4444   -355.02876     36976.26 
  413300    297.77047    -1438.438    535.29768    440.68185   -189.14303     36976.26 
  413400    297.70434   -1441.5843    505.05493    406.99432   -70.397912     36976.26 
  413500    305.38064   -1444.8289    511.10401    444.44156   -39.087033     36976.26 
  413600    310.79053   -1490.0073    514.27945    426.85317    41.008673     36976.26 
  413700    300.36496   -1476.0803    498.90531    378.35598    218.05712     36976.26 
  413800    292.71197   -1446.6166    516.45896    390.83579    434.34553     36976.26 
  413900    293.29876    -1487.989    494.49723    330.14982    435.22903     36976.26 
  414000    303.53168   -1488.7656    519.42957    400.48621     280.4933     36976.26 
  414100    296.04117   -1459.9302      488.864    364.95174    193.11864     36976.26 
  414200    302.59266   -1521.1195    521.93835    366.40333   -189.88775     36976.26 
  414300    303.18374   -1479.9058    506.91622     395.2624   -325.39669     36976.26 
  414400    303.39324   -1451.0344    499.59075    417.75378   -36.746309     36976.26 
  414500    313.78114   -1459.1207    498.25827    455.21504   -36.683222     36976.26 
  414600     303.8177    -1502.166    489.00746    357.95442    64.984266     36976.26 
  414700    299.62583   -1496.8647    498.74181    354.07248   -197.84694     36976.26 
  414800    292.53007   -1524.9966     485.7998    280.97578   -454.31332     36976.26 
  414900     303.6066   -1539.4744    497.03193    327.71784    5.4303129     36976.26 
  415000    307.07324   -1522.0277    500.64131    364.41862   -67.512296     36976.26 
  415100     308.4496   -1452.2055    530.06335    469.87437    310.57255     36976.26 
  415200     302.2012   -1484.8196    506.95849    385.95673    602.57703     36976.26 
  415300    308.13604   -1502.0243    528.02259    416.59975    408.47836     36976.26 
  415400    290.40909    -1482.072    523.06515    351.59378   -243.81282     36976.26 
  415500    297.78357   -1474.1835     483.8694    353.56722    217.65854     36976.26 
  415600    304.36596   -1465.4173    508.94409     417.1141   -15.561745     36976.26 
  415700    300.40328   -1502.6373    517.54605    370.61262    240.36849     36976.26 
  415800    294.33851   -1530.4751    485.28003    283.13886    394.62805     36976.26 
  415900    301.36498   -1522.2936    509.16934     346.9197     185.9251     36976.26 
  416000    292.78056   -1487.8854    496.23587    329.65349   -15.020846     36976.26 
  416100     291.0968   -1496.2233    502.15933    319.64031   -141.04911     36976.26 
  416200    303.92991   -1470.6197    498.79972    399.79941    599.56464     36976.26 
  416300    302.85038   -1494.1599    485.61201    358.19967    625.60608     36976.26 
  416400    292.06588   -1455.0574    516.28518    379.30543    274.38747     36976.26 
  416500    293.83719   -1474.5944    481.88864    333.36574    390.81057     36976.26 
  416600    304.97137   -1445.9744    532.39158    462.73664    161.44999     36976.26 
  416700    296.49906   -1473.7696    511.32095    375.63575   -323.80712     36976.26 
  416800    308.82872   -1470.0132    498.43012     422.1444   -210.57654     36976.26 
  416900    295.25525   -1469.9677    490.02983    352.53329   -588.88464     36976.26 
  417000    301.42756   -1494.4578    525.63873    391.50739   -307.39686     36976.26 
  417100    298.28131    -1454.989    493.82538    384.96395   -163.08998     36976.26 
  417200     298.7885   -1435.0702    491.12795    404.47427   -416.66844     36976.26 
  417300    307.83969   -1435.2778    504.14619    458.13248   -367.69044     36976.26 
  417400    304.14281   -1465.4277    508.92498    416.07749   -687.80558     36976.26 
  417500    285.03379   -1453.7145    503.36265    335.99038   -1181.8167     36976.26 
  417600    298.88196   -1510.7544    496.74161    334.82546   -370.18936     36976.26 
  417700    298.97968   -1510.7506    491.50804    330.03672    426.79945     36976.26 
  417800    293.29802   -1490.3248    529.00325    362.31665     731.1477     36976.26 
  417900    299.18071   -1480.2477    487.07103    357.00979    566.47817     36976.26 
  418000    293.95132   -1512.8446    506.74922     320.4912   -145.17848     36976.26 
  418100     299.4864   -1501.7712    500.18366    349.97855   -126.91353     36976.26 
  418200    301.26619   -1457.3722    490.93474    393.16068   -146.77669     36976.26 
  418300     297.1491   -1482.5814    501.80057    360.23719   -132.43917     36976.26 
  418400    302.42635   -1479.6482    506.57694    391.76265    50.933748     36976.26 
  418500    309.03208   -1462.6333    466.81194     398.8239    6.6303542     36976.26 
  418600    314.53242   -1473.3716    526.97343    473.06975    180.49052     36976.26 
  418700    305.74548    -1448.859    496.39398    427.34801    536.74788     36976.26 
  418800    302.51205   -1479.0993    515.14156    401.26295    335.15702     36976.26 
  418900    294.73305   -1484.5569     499.7713    345.32888   -9.3673705     36976.26 
  419000    303.59114    -1490.779    514.57529    393.88682    110.14242     36976.26 
  419100    294.11214   -1452.8474    511.91871    386.38365   -404.16159     36976.26 
  419200    298.39653    -1476.441    490.20076    360.40734   -868.90038     36976.26 
  419300    297.25437   -1476.7559    492.35463    357.09171   -196.05894     36976.26 
  419400    305.43571   -1511.8485    498.76394     365.3304   -248.01097     36976.26 
  419500    311.54615   -1454.9315    502.55476    453.61434   -86.593109     36976.26 
  419600    300.73795   -1462.7976    473.75226    368.16898   -115.24742     36976.26 
  419700    301.20867   -1502.4916    498.79809    355.64507    20.920613     36976.26 
  419800    309.12593   -1488.9716     502.9334    409.03059   -346.55716     36976.26 
  419900    288.63977   -1449.4809    507.89714    361.03205   -98.709392     36976.26 
  420000    303.76551   -1469.2639    510.50276    412.11627    377.38949     36976.26 
  420100    303.59764   -1449.5946    495.23132     415.7566    237.91506     36976.26 
  420200    294.83495   -1468.2572    513.51701    375.83418    167.05066     36976.26 
  420300    304.21795   -1493.2938    503.16164     382.7871    162.39464     36976.26 
  420400    284.92511   -1476.2915    524.96069    334.52097    166.63336     36976.26 
  420500    306.94727   -1441.3685    500.40921    444.27727    368.19205     36976.26 
  420600    299.40784   -1519.1295    503.85492    335.93694    -452.9718     36976.26 
  420700    305.58861   -1540.9399    511.62987      349.795   -558.23531     36976.26 
  420800    294.26335   -1582.5578    459.06369    204.50067    93.887269     36976.26 
  420900    309.61249   -1520.4928    519.21276     395.9845   -121.28743     36976.26 
  421000    307.82587   -1521.7372    485.45906    352.92347    442.92091     36976.26 
  421100    308.80353   -1532.6322     492.8254    353.80696   -83.336346     36976.26 
  421200    296.68507   -1557.1356    509.23797     291.0262    300.50971     36976.26 
  421300    294.34201   -1546.2231    484.66759     266.7942   -82.392057     36976.26 
  421400    299.74194   -1565.9827    471.47661    258.21319   -145.04406     36976.26 
  421500    293.35956   -1560.7778    500.39596     263.5342   -161.15233     36976.26 
  421600    293.66188   -1558.7174    480.03219    246.59515   -109.66721     36976.26 
  421700    294.18139   -1553.3962    484.54488    258.77355   -907.72613     36976.26 
  421800    294.57615   -1554.5841    489.46045    264.28275   -414.63317     36976.26 
  421900    294.54148   -1542.4833    498.19722    284.96385   -174.66827     36976.26 
  422000    300.78141   -1558.9261    525.16936    323.65368   -435.23137     36976.26 
  422100     306.1907   -1542.8448    489.92618    328.90357   -139.72756     36976.26 
  422200    292.17515    -1551.111    498.98712    266.44692   -590.50212     36976.26 
  422300    314.58538   -1570.8283    515.23619    364.11489    7.6280641     36976.26 
  422400    299.54523   -1574.1368    503.70494    281.39976   -267.01808     36976.26 
  422500    295.54924   -1540.2989     471.2106    264.70957   -244.29146     36976.26 
  422600    303.45914   -1547.9119    501.12813    322.71106   -154.24159     36976.26 
  422700    299.87318   -1555.6563    520.68165    318.33693   -356.83799     36976.26 
  422800    299.22312   -1516.3948    488.42979    322.41289    88.122801     36976.26 
  422900     299.1871   -1531.4733    492.79067    311.53269     277.1633     36976.26 
  423000    304.73013   -1542.5235    509.56127    342.26851    130.22648     36976.26 
  423100    302.15732   -1531.5087    498.91754    331.02869     215.5142     36976.26 
  423200    305.29703   -1530.5345    522.00557    369.26016    276.46346     36976.26 
  423300    294.29816   -1535.8558    509.80713    302.10321     794.8557     36976.26 
  423400    300.62109   -1546.6622    530.52802    340.55273    47.912751     36976.26 
  423500     303.1555   -1504.2235    508.45439    372.35537   -70.723687     36976.26 
  423600    309.02939   -1515.9993    494.29142    372.92523   -32.404881     36976.26 
  423700    306.81826   -1520.5881    538.16048    402.22675    504.90694     36976.26 
  423800    291.75073   -1530.9935    493.14872    278.81064    319.85092     36976.26 
  423900     298.3839   -1526.6264    502.84245    322.80662   -416.55552     36976.26 
  424000    305.16334   -1560.0612    494.98572    312.11029   -425.69829     36976.26 
  424100    299.31546    -1506.888    524.52112    368.42782   -256.95695     36976.26 
  424200    289.58681   -1501.8143    485.64048    290.71598   -320.84891     36976.26 
  424300    300.32255   -1574.6339    498.85503    279.56067   -313.53648     36976.26 
  424400    298.36473   -1548.2573    528.32489    326.57164    2.1604774     36976.26 
  424500    290.91921   -1511.0967    504.94096    306.74713   -162.34508     36976.26 
  424600    295.28446   -1556.7993    487.23324    263.03685   -544.30925     36976.26 
  424700    308.45653   -1554.7922    520.90608    358.16174   -665.84459     36976.26 
  424800    291.35822   -1570.0399    487.91385      232.758    180.52192     36976.26 
  424900    306.80866   -1546.7942     509.0493    346.86612   -487.69973     36976.26 
  425000     299.3833    -1554.785    505.12622    301.44203   -757.86693     36976.26 
  425100    296.13948   -1537.9627    480.26436     278.7633   -781.84823     36976.26 
  425200    300.94857   -1553.9243     519.1028    323.34325   -705.38255     36976.26 
  425300     295.2955   -1540.4373     497.1918    289.40724   -174.57855     36976.26 
  425400    317.46349   -1515.9117    514.73772    431.52168    319.01703     36976.26 
  425500    292.28977   -1506.2447    485.72966    298.57302   -218.45559     36976.26 
  425600    290.75562   -1536.5906    491.91775    267.49166     -150.907     36976.26 
  425700    298.31965   -1577.8726    496.09965    264.52767     52.96078     36976.26 
  425800      306.933   -1555.5179    496.28639    325.94065     432.7386     36976.26 
  425900    304.21979   -1565.5665    495.18243    302.54353    869.54885     36976.26 
  426000    305.14706   -1516.8397    543.63582    403.90848    510.62115     36976.26 
  426100    294.36654   -1536.4031    510.42717    302.48446    257.07372     36976.26 
  426200    302.29625   -1536.2495    523.14518    351.14247    1131.3676     36976.26 
  426300    293.25079   -1586.1572    503.23221    240.50011    939.64695     36976.26 
  426400    302.66241   -1530.7234    496.35785    331.53366    567.31356     36976.26 
  426500    300.73196    -1544.678    495.46491    307.97414     746.2512     36976.26 
  426600    307.76577   -1523.6464    514.13905    379.42311    559.97184     36976.26 
  426700    294.99695   -1518.6728    499.07197    311.70461    558.32871     36976.26 
  426800    299.53415   -1530.7894    473.57079    294.56297   -55.213339     36976.26 
  426900    295.25987   -1491.5099    511.96328    352.94538   -598.56525     36976.26 
  427000    299.25974   -1531.0492    484.67169    304.16563   -475.45128     36976.26 
  427100    292.40867    -1516.165    493.04228    296.50193    75.076531     36976.26 
  427200     298.7499    -1548.855     477.0449    276.43218   -222.66164     36976.26 
  427300    303.78387    -1506.329    519.07423    383.70559    -296.9784     36976.26 
  427400     305.5123   -1508.4128    497.01877    367.36659   -154.06625     36976.26 
  427500    310.66601   -1477.9716    490.77223     414.8197   -228.09977     36976.26 
  427600    298.07957   -1531.7922    526.81103    340.23597    -169.6095     36976.26 
  427700    294.71488   -1496.6974    518.82245    352.15752   -406.33977     36976.26 
  427800    297.09594   -1480.7234    519.96592    380.02061    2.2060879     36976.26 
  427900    304.52798   -1498.2286    491.17424    367.26412    263.06835     36976.26 
  428000    301.05858   -1501.1756    523.25824    380.74384    610.73634     36976.26 
  428100    301.46225   -1499.5952     483.9649    344.85262   -178.81028     36976.26 
  428200    307.80959   -1494.8402     498.9217    393.20965    -234.7277     36976.26 
  428300     293.5244   -1533.4859     511.5877    302.76174   -117.28957     36976.26 
  428400    295.35835   -1529.4613    497.45681     300.9319    179.73955     36976.26 
  428500    295.48124   -1500.4008    498.93619    332.02642    202.32152     36976.26 
  428600    301.63952   -1482.5379    527.26176    406.00683    270.23061     36976.26 
  428700    294.31716   -1482.9033    503.90252    349.23674   -186.86081     36976.26 
  428800    300.99241   -1464.6695    553.27484     446.9679   -741.91823     36976.26 
  428900    297.94539   -1501.3541    492.58011    335.83757   -183.19261     36976.26 
  429000    302.82037   -1504.5247    508.35396    370.44132   -517.94481     36976.26 
  429100     291.2678   -1551.0916    532.91918    296.30357   -741.63138     36976.26 
  429200    288.89446   -1512.7153    520.18672    311.23664   -340.82872     36976.26 
  429300    302.51227   -1517.9706    501.75759    349.00865     152.8203     36976.26 
  429400    292.63018   -1506.5723    485.98832    300.04032    94.827483     36976.26 
  429500    305.36788   -1499.6807    528.22422    406.65235    183.66781     36976.26 
  429600    297.04701   -1499.4076    500.21929    341.36888    642.92487     36976.26 
  429700    302.07451   -1521.7181     499.3259     340.8539    619.15864     36976.26 
  429800    312.57675   -1520.8453    507.16941    396.96623   -66.357601     36976.26 
  429900    298.73892   -1502.7092    524.75394    370.23746   -66.258991     36976.26 
  430000    307.37084   -1512.3185     517.4553    392.28487    30.491938     36976.26 
  430100    300.29762    -1542.855    518.55392    330.92605   -66.262839     36976.26 
  430200    283.59073   -1570.4457    520.78508    230.16914   -213.58246     36976.26 
  430300    302.02546   -1515.1801    513.67421    361.51878   -482.12677     36976.26 
  430400     308.7949   -1560.8567    488.93003    321.64812   -306.32337     36976.26 
  430500    302.96335   -1587.4724    506.46713    286.25215    282.56804     36976.26 
  430600    298.92454   -1508.5246    497.84812    338.35393    401.04308     36976.26 
  430700    298.91011   -1497.5369    530.37222     381.8006    497.69127     36976.26 
  430800      301.462   -1501.1985    494.79632    354.07962    542.18606     36976.26 
  430900    304.28292   -1561.4791    500.49188    312.22531    86.788108     36976.26 
  431000    293.70312    -1526.681    508.44843    307.23382   -166.20543     36976.26 
  431100     298.8561   -1525.8516    510.68724    333.55719    277.80644     36976.26 
  431200    298.04346   -1529.9375    502.32793    317.44457     299.0653     36976.26 
  431300    302.69811   -1498.7123     515.0677    382.41569    640.70746     36976.26 
  431400    294.79612   -1515.0602    501.49516    316.83408     209.8594     36976.26 
  431500    298.94601   -1464.9368    516.26287    400.45343    94.542684     36976.26 
  431600    307.34839    -1506.237    512.16895    392.97881    377.98777     36976.26 
  431700    292.71347    -1515.593    493.01939    298.42663   -54.389617     36976.26 
  431800    303.85752   -1532.2477    514.75373    353.79881    551.21128     36976.26 
  431900    297.21468   -1581.3284    484.01018    243.99566    227.28041     36976.26 
  432000    303.15008   -1532.8978    499.15762    334.35987   -487.81176     36976.26 
  432100    299.92097   -1500.0359    515.29913    368.79053   -317.37258     36976.26 
  432200    305.79885   -1537.4757    507.74638    350.32454   -369.48627     36976.26 
  432300    298.18501   -1558.0161    530.33727    318.01418   -587.03467     36976.26 
  432400    293.79982    -1510.461    502.33612    317.77801   -828.27025     36976.26 
  432500    310.00135   -1523.4722    508.61155    384.15881   -636.69661     36976.26 
  432600    307.98763   -1506.0547    522.16917    406.04614   -372.94271     36976.26 
  432700    296.06387   -1490.4409    533.68024     379.3597   -805.37315     36976.26 
  432800    296.34421   -1535.4935    532.53425    334.42631   -929.21963     36976.26 
  432900    297.43573   -1475.3223    537.45449    404.44371   -36.043011     36976.26 
  433000    302.96894   -1511.9243    507.14305    362.50136   -28.011023     36976.26 
  433100    305.30112   -1518.6994    506.91536    366.02357   -163.11831     36976.26 
  433200    318.51444   -1516.4549    488.15083    409.13454    589.91068     36976.26 
  433300    307.47758    -1492.821    504.12188    398.93073    29.254871     36976.26 
  433400    308.52674    -1486.396    533.92647    439.89511    183.26169     36976.26 
  433500    300.66407   -1477.0759    482.91972    362.72471   -419.15726     36976.26 
  433600    306.52317   -1503.4996    520.46949    400.29251   -639.05811     36976.26 
  433700    306.92848   -1477.7386    524.20282    431.61603   -540.91091     36976.26 
  433800    310.97162   -1492.3664     478.3704    389.40231    -473.8281     36976.26 
  433900    292.95857   -1473.1976     526.9234    375.83211    -130.8713     36976.26 
  434000    305.64152   -1487.1393    513.26795    405.47242   -544.50973     36976.26 
  434100    304.47422   -1480.9146    505.89124     399.0525   -357.90649     36976.26 
  434200    300.73906   -1492.2784    502.00447    366.94536   -330.00029     36976.26 
  434300    304.53032   -1477.0994    510.55041    407.78004   -22.296361     36976.26 
  434400    301.59803   -1490.2961    489.56655    360.36619   -334.46819     36976.26 
  434500    302.47828    -1513.681    523.95974    375.34699   -324.24675     36976.26 
  434600     307.6407   -1498.1458    492.45195    382.67211   -882.95506     36976.26 
  434700    297.42087   -1482.2454      493.516    353.51508   -383.97836     36976.26 
  434800    299.59715   -1505.8836    504.17956    350.36183   -245.24843     36976.26 
  434900    302.32902   -1473.9257    517.68788    408.15688   -266.80928     36976.26 
  435000    296.23781   -1478.5103    511.96028    370.35537   -276.78042     36976.26 
  435100    303.49656    -1495.601     522.4174    396.48005    -266.2591     36976.26 
  435200     302.7667   -1497.5108    478.37593    347.23498   -181.26929     36976.26 
  435300    302.45404   -1520.9035    506.15849    350.21389   -137.75904     36976.26 
  435400    288.41741   -1505.5984    511.66973    307.68367   -125.92598     36976.26 
  435500    291.50145   -1538.5772     490.6099    267.56318   -430.86625     36976.26 
  435600     295.9776   -1511.9117    488.95911    312.77845   -733.52193     36976.26 
  435700    305.90736   -1517.1715     492.9236    356.29563   -272.38781     36976.26 
  435800    302.02194   -1509.7445    505.31057    358.57484    361.16549     36976.26 
  435900    292.39788    -1518.304    493.51463     294.7866    84.780879     36976.26 
  436000    310.63803   -1527.3361    526.52015    401.07686     826.4325     36976.26 
  436100    298.65933   -1540.1609     492.0664    299.73902    44.185625     36976.26 
  436200    297.77833   -1524.8891    502.74412    321.71273    401.19834     36976.26 
  436300    302.48561   -1558.9844    496.66407      302.781      18.8282     36976.26 
  436400    303.80481   -1524.4395    471.86908    318.48438    546.90951     36976.26 
  436500    294.95286   -1550.2005    491.57363    272.47961    498.04509     36976.26 
  436600     305.1996   -1529.7002    494.98893    342.63819   -18.848595     36976.26 
  436700    304.40813   -1532.9378    491.83792     332.6777   -35.408214     36976.26 
  436800    294.77188    -1528.653    506.49921    308.13588   -42.925159     36976.26 
  436900    292.45992   -1526.6729    485.47974    278.66275   -83.127339     36976.26 
  437000    308.67026   -1530.4721    512.29819    374.83837     95.21454     36976.26 
  437100    302.28048   -1525.6473      490.948    329.47635     174.3638     36976.26 
  437200    302.18557   -1565.5892     508.0675    306.22555    122.62249     36976.26 
  437300     304.6849   -1561.5544    513.14594    326.61819    1059.2151     36976.26 
  437400    301.61905   -1535.9445     487.4767    312.72287    763.62769     36976.26 
  437500    306.63117    -1517.919    530.38613    396.27715    812.57247     36976.26 
  437600    306.06994   -1522.7933    519.85009    378.33401    301.97256     36976.26 
  437700    305.93422   -1513.6006    482.80791    349.87201    213.65392     36976.26 
  437800    300.49787   -1559.8773    492.68742    288.94091    236.87641     36976.26 
  437900    297.37998   -1524.6588     490.7718    308.17292     161.6699     36976.26 
  438000    306.21528   -1513.3372    499.56653    368.16245    250.43665     36976.26 
  438100    304.13568   -1511.8193    477.88805    338.61678     385.7205     36976.26 
  438200    306.20442    -1524.972    503.53937    360.45151    380.07973     36976.26 
  438300    298.34008   -1518.9411    498.90804    326.35973    896.16181     36976.26 
  438400     294.9739   -1480.0222    486.43105    337.61025    299.26938     36976.26 
  438500    294.64159   -1448.9093    526.65049    407.44291    1.0314154     36976.26 
  438600    299.43987    -1508.765     511.2456    353.83669    191.57147     36976.26 
  438700    300.64443   -1502.9148    494.96281    348.84017   -424.22813     36976.26 
  438800     300.3201   -1505.3798    497.21463    347.16335   -679.99155     36976.26 
  438900    300.37191   -1488.4883     485.0945    352.16853   -759.45888     36976.26 
  439000    296.61097   -1502.9299    504.71049    340.37002   -198.29309     36976.26 
  439100     292.4852    -1502.944    496.39122    313.41724   -306.11699     36976.26 
  439200    296.50092   -1474.8173    500.30838    363.58383   -91.527835     36976.26 
  439300    296.76221   -1451.7745    496.66241    384.15986   -599.94749     36976.26 
  439400    305.07631   -1497.0585    489.83101    369.56557   -189.80628     36976.26 
  439500    297.24597    -1514.924    473.66589    300.19703    103.57937     36976.26 
  439600    290.66609   -1541.7923     497.1822     267.1504   -419.17473     36976.26 
  439700    302.96687    -1546.948      461.737    282.06228   -312.55323     36976.26 
  439800    317.47686   -1552.7587    478.19914     358.1965    74.569011     36976.26 
  439900     309.1925   -1543.3554    467.75723    319.77105   -315.99369     36976.26 
  440000    293.73989   -1529.3505    497.78379    294.06566   -261.61356     36976.26 
  440100    292.37916   -1514.4715    478.46696    283.48694   -297.83675     36976.26 
  440200    302.97597   -1545.4053    476.54138    298.45038   -204.17077     36976.26 
  440300    298.34834   -1569.2012    453.69687    230.92574    -517.1124     36976.26 
  440400    294.31419   -1520.2195    482.94234    290.94697   -500.96976     36976.26 
  440500     309.1644   -1546.7505    515.60041    364.09225   -392.41232     36976.26 
  440600     304.3419   -1509.8586    477.68811    341.30817   -61.915942     36976.26 
  440700    298.56756   -1506.6147    495.88959    336.69432   -358.87679     36976.26 
  440800    302.42655   -1502.2397    511.76406    374.35922    391.27222     36976.26 
  440900    299.15859   -1500.2499    482.00183    331.83865   -23.147278     36976.26 
  441000    297.70682   -1502.3459    499.33278    340.52185   -624.66451     36976.26 
  441100    309.49848   -1506.5739    492.32721    382.50338   -404.63493     36976.26 
  441200    312.45503   -1503.1244    492.47949     399.4479   -98.481743     36976.26 
  441300    299.69616   -1560.9182    489.13484    280.72934   -346.54158     36976.26 
  441400    295.74935   -1474.4209    501.35474     361.6348   -256.37373     36976.26 
  441500    296.99557   -1500.7731    503.31521    342.86723   -311.51152     36976.26 
  441600    291.82885   -1553.3358    482.54209     246.2142   -464.85345     36976.26 
  441700    294.45902   -1565.3332    500.15843    263.70303   -933.33927     36976.26 
  441800    290.81093   -1544.6774    475.29658    243.03334   -601.14745     36976.26 
  441900    314.49578   -1550.7647    467.43789    335.97583   -183.39926     36976.26 
  442000    314.73361   -1519.8662    492.14717    392.65686   -504.85287     36976.26 
  442100    296.00367   -1521.0187    477.35767    292.18769   -567.77789     36976.26 
  442200    302.90309   -1520.7963    477.42784    323.61696   -163.40306     36976.26 
  442300    300.98133   -1544.0368    490.39603    304.67186   -506.57776     36976.26 
  442400    301.92466   -1572.2092    505.16575    295.52639    22.679601     36976.26 
  442500    296.24311    -1537.441    475.70663    275.19491     160.2248     36976.26 
  442600    290.42421   -1552.3078    518.45372    276.81488   -332.62463     36976.26 
  442700    291.52569    -1524.315    450.57666    241.90151    108.36453     36976.26 
  442800    299.83389   -1531.3693    507.24196    329.00701   -94.315717     36976.26 
  442900    293.67971   -1541.2467    473.76302    257.87708    51.990151     36976.26 
  443000    299.84002   -1512.5974    504.18076     344.7453   -645.53671     36976.26 
  443100    295.29793   -1550.9767     489.8816    271.56858    -430.7334     36976.26 
  443200    291.39842   -1552.3028    472.78012    235.54279   -157.39583     36976.26 
  443300      305.111   -1570.3733     499.0735    305.64977   -105.69422     36976.26 
  443400    302.96368   -1549.1027     482.6381    300.79431   -142.91063     36976.26 
  443500    293.33068   -1565.5778    486.22837     244.4362    289.55133     36976.26 
  443600    301.31019   -1495.9889    485.61431    349.42215   -94.522718     36976.26 
  443700    304.22888   -1488.3115    490.36175    375.01888   -750.14989     36976.26 
  443800     303.9732   -1503.1553     480.4708    349.13029   -417.04459     36976.26 
  443900    307.72362   -1543.9337    515.57995    360.38646   -254.60191     36976.26 
  444000    294.32821   -1485.2289    490.91205    333.97054    410.52326     36976.26 
  444100    290.58185   -1529.7452    484.22987    265.86495   -62.269001     36976.26 
  444200    298.74323   -1540.4342     467.6732    275.45125    465.82432     36976.26 
  444300    308.15565   -1586.9241    494.91261    298.67845   -414.59715     36976.26 
  444400    299.53223   -1552.2278    489.34943    288.89449   -1.7976452     36976.26 
  444500    307.45517   -1526.7551    487.13196    347.90553   -12.744741     36976.26 
  444600    293.29464   -1532.6521    475.91384    266.88476    276.08278     36976.26 
  444700    308.59832   -1559.6802    466.15533    299.16283   -247.52072     36976.26 
  444800    295.04601   -1516.1203    473.62433     289.0309   -882.22002     36976.26 
  444900    293.52412   -1573.3556     468.4998    219.80282   -852.96801     36976.26 
  445000     304.3778   -1561.3414    507.48702    319.78632   -828.43056     36976.26 
  445100    311.91912   -1517.4048    494.17614    384.44556   -340.90911     36976.26 
  445200    298.82951   -1454.7089    503.99395    397.88661    -1033.065     36976.26 
  445300     305.3045   -1510.3206    500.05218    367.55445   -702.28226     36976.26 
  445400    305.41648   -1499.9173    458.90052    337.31147    235.30004     36976.26 
  445500    300.16995   -1521.1229    499.82635    333.35433   -447.06512     36976.26 
  445600    299.86349   -1520.1967     496.4074    329.47854   -413.66578     36976.26 
  445700    290.50154   -1479.2524    483.97467    315.74013   -159.27746     36976.26 
  445800    298.81246   -1478.6805    498.65293    368.49709   -363.28584     36976.26 
  445900    296.78011     -1520.18    498.47529    317.64802   -262.95769     36976.26 
  446000    306.99437    -1516.087     484.3341    353.69622   -320.03331     36976.26 
  446100    291.43355   -1562.1955    485.12665    238.15511    -505.1614     36976.26 
  446200    300.62722   -1526.5482    494.64106    324.80738    18.788882     36976.26 
  446300    309.04053   -1550.6769    460.72952    304.73593    169.85978     36976.26 
  446400    305.88367   -1580.8228    463.88209    263.49586    2.0740866     36976.26 
  446500    307.29739   -1536.3615    504.90774    355.36289     44.07319     36976.26 
  446600    294.10237   -1497.8377    505.54271    334.97323    79.435236     36976.26 
  446700    298.31838   -1536.3466    497.03341    306.98165    166.44354     36976.26 
  446800    295.05669   -1548.6784     496.7435    279.64008    25.730606     36976.26 
  446900    293.12764   -1519.1399    524.88427    328.61374   -103.11374     36976.26 
  447000    307.66047   -1524.0738    483.55647     347.9379    222.40754     36976.26 
  447100    295.87623   -1476.5781     479.2455    337.94101    14.421662     36976.26 
  447200    304.36099   -1506.7513    513.07189    379.88545   -190.19213     36976.26 
  447300    308.32314   -1539.8869    520.56105    372.11989   -10.938771     36976.26 
  447400    313.62237   -1501.7603    487.86575    401.46636    497.71133     36976.26 
  447500      310.244    -1485.387    501.00449    415.73207    83.665761     36976.26 
  447600    298.08124   -1512.3435    499.50838    332.38949   -47.806078     36976.26 
  447700    304.26867   -1507.4076    513.38363    379.12422   -200.08814     36976.26 
  447800    308.84526     -1485.87    503.82094    411.75303     243.8983     36976.26 
  447900     295.7082   -1453.5096    521.76018    402.76587    130.57241     36976.26 
  448000    301.66117   -1517.6896    506.21997    349.91104   -76.703124     36976.26 
  448100    307.36862   -1527.4183    514.15663    373.87646     425.1902     36976.26 
  448200    301.67199   -1550.2602     482.9021    294.07144    546.53801     36976.26 
  448300    306.32262   -1502.0809    520.57341    400.91006    43.248657     36976.26 
  448400    294.23219   -1505.7112    489.59574    311.73866    -44.43469     36976.26 
  448500    299.29346   -1528.4648    490.18038    312.41097   -417.13238     36976.26 
  448600    306.18963    -1506.644    508.22288    383.39621   -235.50495     36976.26 
  448700    302.25591   -1486.0934    506.28781    384.25913   -302.64682     36976.26 
  448800    307.01909   -1484.9745    492.51841     393.1046    64.441908     36976.26 
  448900    303.68904   -1502.9712    484.92637    352.48754    79.761684     36976.26 
  449000    297.22337   -1488.1191    519.44466    372.67874   -391.00345     36976.26 
  449100     295.9198   -1484.4756    513.33817    364.33275   -552.66992     36976.26 
  449200    298.73502   -1507.0574    498.75589    339.87361   -455.32526     36976.26 
  449300    293.12541   -1511.0304    507.60296    319.43185   -450.46048     36976.26 
  449400    299.28743   -1516.4071    495.87857    330.13959   -228.25877     36976.26 
  449500    294.98383   -1483.8797    514.58689    361.95337   -358.68315     36976.26 
  449600    297.07598   -1489.4513    506.03208    357.26877   -32.523264     36976.26 
  449700    303.51145   -1459.5629    520.26752    430.43549   -282.97915     36976.26 
  449800    298.66811   -1453.2744     490.2271    384.82589     456.7592     36976.26 
  449900    294.17361   -1518.4842    496.65765    305.76324   -448.14669     36976.26 
  450000    304.98759   -1486.3479    505.08769    395.13239    37.691056     36976.26 
  450100    303.96127   -1487.0218    488.00648    372.74557    564.00412     36976.26 
  450200    308.43155   -1505.7724    492.41789    378.58053     522.5869     36976.26 
  450300    305.10623   -1565.2665    476.10271    287.76425    274.45713     36976.26 
  450400    307.63223   -1487.6806    486.14278    386.78998   -155.32402     36976.26 
  450500    302.32557   -1487.4361    510.80317    387.74618    138.90936     36976.26 
  450600    295.61668   -1509.1365    509.42023    334.38594    200.55521     36976.26 
  450700    296.49752   -1486.1415     491.6413    343.57718    36.447183     36976.26 
  450800    293.78819    -1499.798    479.61903    305.67142   -84.180473     36976.26 
  450900    304.11845   -1486.7304    506.92217    392.66203   -398.58742     36976.26 
  451000    294.11783   -1490.4437    487.23949    324.13386    4.0772988     36976.26 
  451100    294.68151   -1512.4951    494.55308    311.93987    392.52081     36976.26 
  451200    299.98662   -1478.1199    515.35674    391.06034    729.15658     36976.26 
  451300    290.98119   -1498.3386    510.34237     325.1863    757.63688     36976.26 
  451400    310.87395   -1462.4054    503.79911     444.3512    913.37071     36976.26 
  451500    309.42595   -1444.5273    530.47791    482.37336    1044.7861     36976.26 
  451600    298.15785   -1515.8353    472.04765     301.7828    310.97646     36976.26 
  451700    287.00741     -1528.78    498.56017    265.02925   -213.42761     36976.26 
  451800    296.03297   -1474.2372    477.81751    339.56121    455.93726     36976.26 
  451900    286.36189   -1512.9257    495.56658    274.97671   -39.278198     36976.26 
  452000    294.79512   -1536.2369     499.1168     293.2745    473.24027     36976.26 
  452100    298.80464    -1513.864    513.67144    348.29679    909.77699     36976.26 
  452200    298.06292   -1499.7284    506.02783    351.44146    121.89101     36976.26 
  452300    303.26976   -1479.6805    525.50527    414.46495    190.09145     36976.26 
  452400    311.32284   -1485.1378    487.35183    407.19737      300.604     36976.26 
  452500    295.71746   -1488.1167    516.61893    363.05924   -419.84932     36976.26 
  452600    310.55386   -1482.5196    480.12437    399.11772   -78.103137     36976.26 
  452700    301.56135   -1492.0851    496.21996    365.06501   -182.83256     36976.26 
  452800    293.20975   -1491.4463    501.20098    332.99454   -342.52006     36976.26 
  452900    296.95004   -1512.3245     505.4859    333.28098   -221.61831     36976.26 
  453000    297.93552   -1498.3247    502.08563      348.328   -481.41411     36976.26 
  453100     295.6247   -1509.8188    485.58014     309.8998    -542.5329     36976.26 
  453200    301.72289    -1492.284    476.50459     345.8798     -568.236     36976.26 
  453300     302.3329   -1483.6165    470.98296    351.77858   -857.18082     36976.26 
  453400    296.26368   -1501.5515    493.13534    328.60595   -434.37872     36976.26 
  453500    294.08389   -1465.6467    465.52788      327.066   -281.12957     36976.26 
  453600    300.15628   -1497.6971    475.14338    332.03544   -948.16828     36976.26 
  453700    295.82144    -1488.366     458.8522    305.51245   -578.64427     36976.26 
  453800    305.42637   -1497.0147    469.39575    350.75388   -645.95948     36976.26 
  453900     298.0487   -1491.8749    481.92012    335.12309   -584.99963     36976.26 
  454000    316.33506   -1501.5807    479.69035    405.71281   -587.03671     36976.26 
  454100    290.84984   -1484.1686    514.13639    342.55747    -671.6109     36976.26 
  454200      297.532   -1533.7427    468.13204    277.13534   -696.93218     36976.26 
  454300     307.0643   -1523.1153    489.96366    352.61306   -609.72713     36976.26 
  454400    295.25898   -1478.3201    507.86878     362.0366    441.12042     36976.26 
  454500    305.97929   -1470.1468    503.43574    414.15707    607.93015     36976.26 
  454600    297.64116    -1456.217    526.75785    413.77944     7.684382     36976.26 
  454700    299.48507   -1501.8998    485.50677    335.16703    570.28209     36976.26 
  454800    301.19815   -1513.3152    482.29414    328.27009    605.48286     36976.26 
  454900    288.65327    -1469.704    493.32034    326.29304    248.11981     36976.26 
  455000    296.03112    -1514.429    493.97489    315.51848   -421.09983     36976.26 
  455100    297.59259   -1506.6481    461.17513    297.54644     546.7656     36976.26 
  455200      306.538   -1508.3608    502.60747    377.63627   -53.157102     36976.26 
  455300    308.56455   -1496.7192    463.29085    359.10689   -151.93575     36976.26 
  455400    298.38632   -1482.9278    470.53471    334.20845   -303.42295     36976.26 
  455500     297.3017   -1455.5729    528.65157    414.78533   -317.87684     36976.26 
  455600    296.96003   -1435.8291     484.1802    388.51579   -208.38104     36976.26 
  455700      297.701   -1464.1049    512.08184    391.48556    64.069556     36976.26 
  455800    304.18098    -1453.902    501.36925    420.21966    57.815756     36976.26 
  455900    300.43423   -1467.8519    484.52459    372.51627     111.0419     36976.26 
  456000    303.68241   -1509.9129    516.32964    376.91919   -204.27182     36976.26 
  456100    290.89735   -1480.4634    503.87368     336.2144    10.322579     36976.26 
  456200    300.57478   -1525.2886    493.33386     324.5231    415.55991     36976.26 
  456300    302.28239   -1512.1631    493.05042    345.07153     752.9198     36976.26 
  456400    300.11547   -1560.9715    519.57519    313.00869    60.896048     36976.26 
  456500    305.99629   -1511.3305    494.58245    364.19678     178.5643     36976.26 
  456600    289.14886   -1490.3631     448.8696    263.41988   -365.49085     36976.26 
  456700    310.66789   -1487.4401    511.61456      426.202   -342.41281     36976.26 
  456800     291.9645   -1522.1014    476.07013    271.58883   -28.739387     36976.26 
  456900    306.52822    -1519.495    478.48017    342.33064   -406.50347     36976.26 
  457000    296.98838   -1512.9638    495.76328    323.09214    -59.83583     36976.26 
  457100    297.35316   -1505.7116    474.92005    311.14734   -73.780936     36976.26 
  457200    305.58647   -1481.5845    466.12216    363.63303   -59.477616     36976.26 
  457300    294.02856   -1469.3382    483.11124    340.70817   -290.27153     36976.26 
  457400    308.62788    -1535.799    491.87328    348.89534    49.263838     36976.26 
  457500    292.58666   -1511.7492    461.99196    270.67068   -96.319482     36976.26 
  457600    300.50487   -1507.9515    507.44571    355.65657    153.24618     36976.26 
  457700    298.01603   -1521.2452    489.44724    313.13242    -434.4854     36976.26 
  457800     305.1191   -1535.5814     479.8485    321.25321   -397.93391     36976.26 
  457900    298.02862   -1493.3624    518.41554    370.04036    27.060277     36976.26 
  458000    310.17352   -1475.4052    471.58672      395.978   -371.01785     36976.26 
  458100    305.83848   -1465.4054    530.22383    445.05113   -339.36757     36976.26 
  458200    297.53976   -1483.1734    468.94486    328.55245   -1201.4218     36976.26 
  458300    304.68251   -1491.2955    506.81949     390.5398    -742.1916     36976.26 
  458400    297.94413   -1514.4184     474.0996    304.28712   -483.02961     36976.26 
  458500    304.10078   -1530.0135    473.78621    316.16323   -720.94969     36976.26 
  458600    296.08031   -1535.1676    472.89859    273.92556   -594.21251     36976.26 
  458700    296.76016   -1489.4548    462.31947    312.12734   -299.10038     36976.26 
  458800    303.21921   -1537.3869    466.91468    297.93977    -606.9054     36976.26 
  458900    303.11967   -1485.6038    473.33789     355.6969   -623.70262     36976.26 
  459000    304.11725   -1468.6387    485.27482    389.10092   -719.85527     36976.26 
  459100    294.12925   -1471.2168    471.43676    327.60951   -263.66591     36976.26 
  459200    299.69216   -1512.6272    493.52767    333.39511   -265.43062     36976.26 
  459300    288.98154   -1476.4001    480.29132    308.04941   -110.91135     36976.26 
  459400    296.78166    -1482.179    467.89622    325.07697   -40.406515     36976.26 
  459500    296.98298   -1492.2071    472.05873    320.11988   -83.840515     36976.26 
  459600    297.85746   -1479.5735    492.88183    357.52304    176.12974     36976.26 
  459700    301.54841   -1478.3226     485.4359    367.98516   -304.77326     36976.26 
  459800    294.56318   -1509.6076    463.99173    283.73196   -171.10557     36976.26 
  459900     304.8887     -1484.61    472.73242    364.06882    222.43044     36976.26 
  460000    287.30438   -1492.4758    485.26228    289.37578    59.878918     36976.26 
  460100    294.57639   -1470.3023    495.68263    354.78775    95.899339     36976.26 
  460200    298.73918   -1515.0089    502.40345    335.58841    405.57109     36976.26 
  460300    312.24717   -1528.1845    505.36761    386.33786     48.38987     36976.26 
  460400    293.92862   -1501.6516    500.12226    324.95473    137.12008     36976.26 
  460500    302.45143   -1491.6549    475.83415    349.12633   -154.53421     36976.26 
  460600    301.58357   -1484.9054    488.82421    364.94924    101.71092     36976.26 
  460700    295.40741   -1453.3085    494.19852    374.04782    20.929594     36976.26 
  460800    313.94766   -1491.9361     459.3225    384.21537    116.20751     36976.26 
  460900    302.74367   -1425.8903    479.04949    419.42512   -86.289422     36976.26 
  461000    287.18474   -1431.4037    481.79866    346.44426   -399.86294     36976.26 
  461100    294.33158   -1423.0471    487.94371    393.19925     536.6061     36976.26 
  461200    296.60646   -1419.1057    515.20323    434.66658    269.24048     36976.26 
  461300    301.74442   -1438.7199    500.08452    423.12098    97.265826     36976.26 
  461400    307.87592    -1499.254    498.80834    388.98189   -129.60968     36976.26 
  461500    304.14861   -1475.4985    509.69096    406.79884   -222.92161     36976.26 
  461600    308.14599   -1452.9339    484.22348    421.93597   -918.14429     36976.26 
  461700    287.80729    -1452.675    460.80818    306.99203   -958.36363     36976.26 
  461800    306.25506    -1440.951    493.07997    434.24164   -398.32966     36976.26 
  461900     294.3741   -1488.2749    484.39299    324.61262    337.11417     36976.26 
  462000    296.21425   -1495.5448    466.10189    307.35609    161.07234     36976.26 
  462100    299.97389   -1504.8004    481.74227    330.70792    687.62611     36976.26 
  462200    307.66535   -1499.6791    478.12214    366.92029     778.0171     36976.26 
  462300    301.95632   -1501.1992    467.70098    329.21448    419.82055     36976.26 
  462400     306.3886   -1489.5135      499.926    393.12784     135.1383     36976.26 
  462500    296.23025   -1502.7108     480.0392    314.19968    186.24297     36976.26 
  462600    299.56788   -1472.2916     491.5686    371.21084   -216.84207     36976.26 
  462700    294.71804   -1465.5761    493.18764    357.65827   -10.048037     36976.26 
  462800      309.559   -1467.1488    483.13808    413.01247   -738.32742     36976.26 
  462900    298.72083   -1455.3601    492.87931    385.63032   -458.94749     36976.26 
  463000    302.17313   -1480.7226    454.52632    337.49486   -393.70855     36976.26 
  463100    302.38763    -1478.944    492.99735    378.71253   -34.041491     36976.26 
  463200    299.17349   -1523.9465    500.87577    327.08323    194.37079     36976.26 
  463300     295.6038   -1503.4519    465.46011    296.05226    464.75619     36976.26 
  463400    293.83757   -1526.7852    488.61447    287.90247    361.29274     36976.26 
  463500    295.17285   -1503.3645    475.47192    304.20672    353.09033     36976.26 
  463600    307.34772   -1484.4621    493.14765    395.72937    702.44228     36976.26 
  463700    301.49318   -1479.6442     483.7433    364.72166    722.19467     36976.26 
  463800    294.27563   -1467.3279    485.14229    345.86458    150.84826     36976.26 
  463900    297.72216   -1439.7567    478.28775    382.13522   -124.12009     36976.26 
  464000    299.52033   -1462.8587    488.12109    376.98155    49.032464     36976.26 
  464100    312.27523   -1468.7884     487.9339    428.42691    263.43764     36976.26 
  464200    302.24879   -1487.9572    473.32834    349.40376   -144.85293     36976.26 
  464300    298.48673   -1470.6706    510.22812    386.61211   -12.802997     36976.26 
  464400    302.30053   -1470.6739    499.00686     392.5991    956.35669     36976.26 
  464500    299.76948   -1449.5999    478.34462    381.58837    161.53706     36976.26 
  464600    305.85719   -1490.8504     459.1539    348.62061     605.8627     36976.26 
  464700    301.91148    -1516.529    500.75413    346.73545    362.03672     36976.26 
  464800    288.43458   -1496.9954    477.19129    281.88568    321.23329     36976.26 
  464900    298.97136    -1465.439    524.78815    408.59092    303.10042     36976.26 
  465000    310.35276   -1498.5061    467.94392    370.04316    253.27051     36976.26 
  465100    298.92133   -1482.1579    493.58738    360.44544    15.778791     36976.26 
  465200    301.34118   -1457.5907    475.53228    377.87821   -188.22745     36976.26 
  465300    298.43521   -1437.7037    491.76158    400.88003     142.3451     36976.26 
  465400    303.08171   -1454.9041    502.78865    415.67605   -86.844838     36976.26 
  465500    302.32674   -1455.5824    465.06283    373.86479    400.38289     36976.26 
  465600    302.21303   -1477.3096    488.03842    374.60005    158.40728     36976.26 
  465700    303.00055   -1447.5987    499.77264    419.59921    425.61216     36976.26 
  465800    291.06814    -1458.671    468.99967    323.90357    104.16577     36976.26 
  465900    294.40026    -1493.884    485.24523    319.97383    426.67376     36976.26 
  466000    307.52323   -1539.7316    467.63611    315.74036    286.44343     36976.26 
  466100    310.96952   -1509.5294    492.98043    386.83977    162.83996     36976.26 
  466200     312.4035   -1502.3696    485.67765    393.16829    446.15734     36976.26 
  466300    294.32337   -1493.0137    474.71367    309.96564   -27.846955     36976.26 
  466400    306.08181   -1476.2381    493.13713    398.22988    355.42378     36976.26 
  466500    294.95796   -1467.8344    499.95103    363.24614    181.03838     36976.26 
  466600    312.09323   -1504.8757    461.62879    365.21315    221.28056     36976.26 
  466700    299.74657   -1502.1924    494.39939    344.94721   -268.78938     36976.26 
  466800     305.7564   -1483.3191    480.14657    376.68971   -398.67924     36976.26 
  466900    300.39468   -1464.5397    487.08123    378.20659   -889.35468     36976.26 
  467000    295.46725   -1470.6794    492.12849    354.87701   -1292.5865     36976.26 
  467100    295.96423    -1458.228    503.08788    380.53061   -854.42629     36976.26 
  467200    301.44338   -1493.1502    482.34621    349.59388   -525.94663     36976.26 
  467300    297.21849   -1440.2767    476.00576    377.06017   -1201.2763     36976.26 
  467400    309.02442   -1477.3615    479.74519    396.99437   -295.91792     36976.26 
  467500    297.12728   -1495.5631    502.33861    347.69503   -543.31965     36976.26 
  467600    295.65879   -1510.5178     479.4106    303.18514   -143.14064     36976.26 
  467700    296.44844   -1512.3138    477.29316    302.83533   -292.20801     36976.26 
  467800    303.09692   -1511.7681    479.85705    335.94909   -206.28613     36976.26 
  467900    302.12102   -1480.3133      452.094    335.23664   -66.363642     36976.26 
  468000    308.79545   -1493.8425    471.43162    371.16645   -41.814176     36976.26 
  468100    300.64175   -1498.9799    495.27962    353.07986   -249.07749     36976.26 
  468200    301.36635    -1478.636    469.71161    351.12578   -226.85104     36976.26 
  468300    301.42913   -1484.3889    491.26032    367.20497   -501.46184     36976.26 
  468400    303.11035   -1438.5013    508.42116    437.84061   -326.54018     36976.26 
  468500    306.59856   -1444.5494    471.86512     410.9786   -793.72567     36976.26 
  468600    304.33384   -1473.9182    488.50321    388.02736    392.14853     36976.26 
  468700    308.43859   -1492.2284    492.34553      392.084   -428.90114     36976.26 
  468800    307.01629   -1451.7287    495.35191    429.17132    104.08949     36976.26 
  468900    299.48636   -1477.5969    491.83531    365.80435    145.35137     36976.26 
  469000     297.7923   -1463.0715    472.74166    353.59088   -241.76779     36976.26 
  469100    305.95868   -1430.1554    486.44148    437.06123   -516.55389     36976.26 
  469200    301.91127   -1427.4607    475.43515     410.4839    367.37901     36976.26 
  469300    300.25433   -1468.7399    470.71633    357.00818    465.02513     36976.26 
  469400    286.72019   -1487.4746    490.86332    297.34158     250.9893     36976.26 
  469500     300.4154   -1444.6356    460.28807    371.41107    164.02023     36976.26 
  469600    302.96385   -1448.6873    505.76544    424.33774    121.45137     36976.26 
  469700    298.04437   -1495.8479     445.9763    295.18664   -250.78946     36976.26 
  469800    307.25874   -1467.2464    485.49533    404.89117    67.973038     36976.26 
  469900    297.84794   -1480.3266     492.7423     356.5875    332.12183     36976.26 
  470000    300.62257   -1500.3433    479.19485    335.54514    394.32997     36976.26 
  470100    296.35968   -1512.0854    480.48106    305.85105    212.08388     36976.26 
  470200    302.35073   -1469.0845    475.59327    371.00142    933.78474     36976.26 
  470300    296.62859   -1447.5841    498.26806    389.35288    1008.6604     36976.26 
  470400    308.29527   -1417.1514    486.55613    460.72474    554.00353     36976.26 
  470500    292.36056   -1486.8338    480.86816    313.44189    37.182958     36976.26 
  470600    307.74332   -1487.0879    500.79541    402.53658   -322.05845     36976.26 
  470700    300.40292   -1497.2492     474.9575     333.4106   -47.067689     36976.26 
  470800    298.49645   -1479.6897    481.02255    348.43138   -448.62296     36976.26 
  470900    289.88621   -1499.3318    481.14907    290.05818   -552.73917     36976.26 
  471000    290.46608   -1452.9946    497.35883    355.22206   -350.68063     36976.26 
  471100    296.13218   -1462.9864     491.5011    364.94335   -339.91769     36976.26 
  471200    294.88493   -1445.8896    481.05831     365.9686    285.16665     36976.26 
  471300    298.24321   -1485.9613    497.06287    357.05717   -280.68969     36976.26 
  471400    298.83107   -1475.9684    493.84932    366.48956    12.736279     36976.26 
  471500    294.73129   -1526.9257    493.91938    297.10015   -113.51948     36976.26 
  471600    304.07605   -1510.6383    460.75059    322.39121   -231.64893     36976.26 
  471700    304.95378    -1465.196    493.23486    404.27898   -193.46045     36976.26 
  471800    301.11596   -1468.3292    485.02536    375.61637   -429.55858     36976.26 
  471900    301.21974   -1453.1161    487.38549    393.65791   -189.11219     36976.26 
  472000    303.86729   -1470.3124    504.96632    405.99074    553.24573     36976.26 
  472100    298.12404   -1496.9119    492.99424     341.5002   -19.717145     36976.26 
  472200    335.23837   -1493.7179    480.98586    500.18075   -546.65576     36976.26 
  472300    243.99758   -1455.8717    482.37651    127.65281   -770.53721     36976.26 
  472400    283.61278   -1475.4551    498.41975    302.89393   -875.62407     36976.26 
  472500    301.56821   -1459.1931    488.43386    390.20193   -548.44921     36976.26 
  472600    291.32723   -1463.2239    491.40837    342.92862   -43.631113     36976.26 
  472700    302.37671   -1495.3238    469.02996    338.31608    -81.55704     36976.26 
  472800    295.85294   -1470.3239    492.40774    357.25236    812.99266     36976.26 
  472900    302.64965   -1512.8645    464.93565    317.91279    337.95547     36976.26 
  473000    295.29401   -1487.3894    489.29474    334.55137    841.57854     36976.26 
  473100    307.40234   -1482.7185    487.24199     391.8138    106.92901     36976.26 
  473200    298.62421   -1475.4139    469.24423    341.50541   -22.321702     36976.26 
  473300    303.32596    -1504.137    482.98359    347.74038    305.93189     36976.26 
  473400    302.02729   -1506.3403    485.53523    342.22793    185.75038     36976.26 
  473500    291.25442   -1517.3731    501.76253    298.80504    71.123141     36976.26 
  473600    298.82637   -1488.0856    494.21822    354.71997   -84.584812     36976.26 
  473700    303.63289   -1498.2025    477.20319    349.27962   -26.053638     36976.26 
  473800    312.87865   -1452.7001    473.05406    432.35859   -243.77451     36976.26 
  473900     302.5071   -1439.3807     515.6238    441.44149    122.42492     36976.26 
  474000    291.50992    -1489.153    486.95378    313.36938   -774.56501     36976.26 
  474100     296.2956   -1438.3531    487.68631    386.49939   -592.30502     36976.26 
  474200    304.35635   -1480.2778    490.66334    383.92943   -227.90865     36976.26 
  474300     302.5761   -1462.7378    486.73726    389.50921   -79.507913     36976.26 
  474400    293.39687   -1469.2984    475.84903    330.63495    464.41876     36976.26 
  474500    286.47411   -1481.6915     485.4621    296.61292   -216.98163     36976.26 
  474600    300.97761   -1486.9757    497.30904    368.62913    225.18606     36976.26 
  474700    294.50147   -1529.0168    464.72048    264.77301   -220.78427     36976.26 
  474800    286.28421   -1529.4493     473.3695    235.90549   -47.417945     36976.26 
  474900    300.62851   -1511.0145    489.46409       335.17   -41.120988     36976.26 
  475000    303.38862   -1500.7358    468.80947    337.25029    183.38132     36976.26 
  475100    296.70021   -1460.5571    494.62658    373.06159    52.954861     36976.26 
  475200    313.72036   -1467.7013    513.25008    461.35201    445.75299     36976.26 
  475300    307.06383   -1468.2663    492.37652     409.8728     533.8477     36976.26 
  475400     299.8794   -1447.1639    499.81344    405.98923    657.29323     36976.26 
  475500    306.52675   -1443.2926    493.69257    433.73874    50.829379     36976.26 
  475600    299.17081   -1447.7365    470.14094    372.54629   -138.28642     36976.26 
  475700    298.89822   -1457.4937    466.82504    358.24297    37.054496     36976.26 
  475800    286.54446   -1440.8091    485.56732    337.91804    934.29782     36976.26 
  475900    308.73871   -1468.6332    495.32894    420.01696    731.12321     36976.26 
  476000    289.79098   -1461.4771    485.75649    332.09053    227.52076     36976.26 
  476100    298.65768    -1450.129    476.23811    373.93525     603.9698     36976.26 
  476200    298.47072   -1417.6823    509.34627     438.6464    1019.9286     36976.26 
  476300    300.02193   -1484.8388    498.46747    367.61159    485.01441     36976.26 
  476400    300.01278   -1443.3096    491.26792    401.89994    359.03293     36976.26 
  476500    302.08294   -1474.5915    466.62416    355.31679    626.52306     36976.26 
  476600     297.1118   -1454.7877    514.48183    400.54372    875.18572     36976.26 
  476700    305.07911   -1474.1013    492.56802    395.27233    814.75421     36976.26 
  476800    299.71505    -1485.396    495.88335    363.08533    367.08101     36976.26 
  476900    298.80477   -1462.8905    491.45112    377.05053    408.78355     36976.26 
  477000    302.59876   -1462.2959    454.05769     357.3738    -740.6031     36976.26 
  477100    307.14575    -1455.855    496.81233    427.08967   -53.128133     36976.26 
  477200    299.11906   -1463.2031     499.6481    386.35326    -805.0671     36976.26 
  477300     295.3591   -1475.8954    459.40885    316.45331   -541.28337     36976.26 
  477400    288.01099   -1468.1442    473.17382    304.80778   -344.61589     36976.26 
  477500    291.17778   -1474.8255    477.50931    316.75359   -481.94276     36976.26 
  477600    289.52098   -1465.7167    465.04617    305.92219   -405.18383     36976.26 
  477700    303.07193   -1445.0129    472.40913    395.14364   -474.24064     36976.26 
  477800    298.05894   -1458.1276    491.18275    378.17918   -499.60683     36976.26 
  477900    295.48093   -1475.2522    501.41232    359.64971    187.68995     36976.26 
  478000     294.6646    -1525.948    462.22741    266.08502     108.9024     36976.26 
  478100    302.10631   -1494.2731    468.34192    337.45839    31.968587     36976.26 
  478200    297.83857   -1564.3659    436.58235    216.34595    306.32685     36976.26 
  478300    305.84254   -1525.8083    515.52006    369.96273    51.592876     36976.26 
  478400    304.16626   -1546.8319    495.14089    320.99504    313.77567     36976.26 
  478500     311.1793   -1530.2074    489.18419     363.3123    1084.6333     36976.26 
  478600    308.27021   -1539.0078    457.42275    309.62186     452.8259     36976.26 
  478700    306.37696   -1505.2235    459.03666    336.47599    766.26665     36976.26 
  478800     313.0643    -1483.796    471.14522    400.19158    504.42504     36976.26 
  478900    296.23131   -1527.9176    489.06869    298.02707    389.41492     36976.26 
  479000    302.05049   -1482.7654    477.13667     357.5089    838.36013     36976.26 
  479100    308.28204   -1450.3836    486.93351    427.81023    1069.3987     36976.26 
  479200    298.19024   -1487.8937    502.69871    360.52165     1038.861     36976.26 
  479300    297.69331   -1444.6177    476.05202    374.90828    834.02795     36976.26 
  479400    302.12027    -1464.051    487.37481    386.77637    243.55266     36976.26 
  479500     297.5091   -1475.4423    478.47662    345.67692   -219.01556     36976.26 
  479600    302.40161   -1520.4416    468.49127     312.7719    170.69034     36976.26 
  479700    295.18095    -1495.256      466.081    302.96077   -94.742139     36976.26 
  479800    297.86939   -1502.3057    469.60171    311.56455    43.615978     36976.26 
  479900    299.83073   -1487.8342    491.62986    356.91573   -425.73219     36976.26 
  480000    306.07011    -1498.079    468.37901    351.57804   -249.84891     36976.26 
  480100    301.06014   -1444.4177    480.38665    394.63721   -335.78151     36976.26 
  480200    292.85913   -1471.2325    489.80728    340.23231   -49.156469     36976.26 
  480300    304.80014   -1489.1312    505.55298     391.9685   -375.96958     36976.26 
  480400    305.90125   -1446.1197    457.04862    391.44489    138.91168     36976.26 
  480500     303.0265   -1461.4567    505.17942    411.26509    494.21749     36976.26 
  480600    304.38788   -1498.2631    481.37405    356.79712    -74.86661     36976.26 
  480700    289.75243   -1528.4479    499.70786    278.89712    74.452993     36976.26 
  480800    307.78446   -1476.2061    475.15592    387.96462    1.8373102     36976.26 
  480900    297.42044   -1495.3885    483.44908    330.30312     132.5073     36976.26 
  481000    303.53515   -1517.5598    479.88681    332.16493    -37.01339     36976.26 
  481100    308.57643   -1517.8769    493.56453    368.27648   -126.58005     36976.26 
  481200    303.68247    -1522.897    486.85967    334.46536   -130.27887     36976.26 
  481300    305.38774   -1493.3616    493.40873    378.24566    467.84844     36976.26 
  481400    307.52195    -1513.326    480.96431    355.46842    137.27728     36976.26 
  481500    289.54015    -1506.182    478.72072    279.21792   -569.32114     36976.26 
  481600    299.94104   -1513.8644    484.97363    324.72708   -423.48552     36976.26 
  481700    289.71583   -1485.7584    502.24671    323.96036   -331.77049     36976.26 
  481800    286.10198   -1488.2165    507.72433    310.67075    260.45939     36976.26 
  481900    293.01056   -1429.6086    507.99442    400.72675    435.27555     36976.26 
  482000    306.08458   -1454.6997    495.58502    422.22858    492.65885     36976.26 
  482100    297.96035   -1444.4654    487.01951    387.23321   -463.79765     36976.26 
  482200    302.65409   -1466.5802     489.9588    389.24025   -344.52175     36976.26 
  482300    298.17249   -1446.9015    496.62652    395.36146    -225.0369     36976.26 
  482400    295.23041   -1462.7249    477.75218    347.38629     -356.782     36976.26 
  482500    310.01983   -1494.9526    493.92307    398.07336   -22.938495     36976.26 
  482600    305.76575   -1472.4174    504.42314    411.91017   -301.36879     36976.26 
  482700    305.79207   -1503.0999    489.21611    366.13945   -283.30518     36976.26 
  482800    302.28488   -1493.5241    458.64593    329.31733   -148.91195     36976.26 
  482900     299.3623     -1472.46    487.91759    366.46363   -300.17328     36976.26 
  483000    299.02043   -1464.7485    505.39078    390.10548    83.978311     36976.26 
  483100    302.19657   -1453.1642    493.44748    404.08027    128.43289     36976.26 
  483200    299.32502   -1466.3267    475.82702    360.33807   -474.83855     36976.26 
  483300    292.52207   -1470.3321    512.82362    362.62796   -248.93275     36976.26 
  483400    288.19476    -1461.219    473.15432    312.54283   -939.18991     36976.26 
  483500    300.20245   -1521.0093    487.26732    321.05565   -252.49981     36976.26 
  483600    296.23812   -1500.3752    486.61732    323.14892    -364.5491     36976.26 
  483700    299.01352   -1461.9697    500.80229    388.26459   -1067.7297     36976.26 
  483800    305.17059   -1430.1078    497.66988    444.78059   -603.61538     36976.26 
  483900    297.32667   -1427.5787    518.63689    432.87751   -574.87805     36976.26 
  484000    301.12332   -1420.3361    486.10996    424.72728   -832.14187     36976.26 
  484100    304.02499   -1434.4584    506.96845    444.55856   -249.10518     36976.26 
  484200    303.45614    -1441.557    483.56179    411.48614   -75.850838     36976.26 
  484300    297.09108    -1425.072    489.98099    405.66516    15.503113     36976.26 
  484400    300.80854   -1510.0325    461.35982    308.86018   -60.605248     36976.26 
  484500    307.34814   -1485.1651    485.23879    387.11938    112.94386     36976.26 
  484600    302.50127    -1442.254    495.31726    418.23533    -674.5622     36976.26 
  484700    291.90456   -1438.7289     496.7177    375.33839    16.147205     36976.26 
  484800    296.42966     -1451.25    495.04777    381.56899   -147.50491     36976.26 
  484900    295.04554   -1462.7379    491.73439    360.52119   -280.19108     36976.26 
  485000     294.2471   -1504.3406    471.51519    295.09603   -501.14803     36976.26 
  485100    302.72057   -1480.0847    477.16045    363.23747    497.22083     36976.26 
  485200    288.86229   -1473.4243    487.22248    317.41821    -102.0258     36976.26 
  485300    292.03857   -1491.5779     489.2852     315.6617     393.9036     36976.26 
  485400    299.06976   -1438.3097    514.42959     425.8057    24.153834     36976.26 
  485500    305.65027   -1451.8088    499.01967    426.59415    582.97177     36976.26 
  485600    301.99142   -1449.8196    503.82068    416.87213   -2.3375449     36976.26 
  485700    309.17911   -1475.6531    501.73911    421.39474    301.96948     36976.26 
  485800    309.29474   -1512.2003    487.32643    370.95673    544.16285     36976.26 
  485900    286.19998   -1483.3317    497.07545    305.34893    396.16038     36976.26 
  486000    295.33242   -1517.4605    514.43126     329.7901    257.92323     36976.26 
  486100    310.20081   -1441.4715     520.8087     479.2568    878.48639     36976.26 
  486200    302.14533   -1442.3284    514.28838    435.52563     535.3755     36976.26 
  486300    306.26874   -1464.7608    489.64192    407.05551    318.99696     36976.26 
  486400    307.46702   -1478.3018     500.6754    409.95576    602.56671     36976.26 
  486500    295.77072   -1472.7884    496.67204    358.68107    871.97699     36976.26 
  486600    298.49324    -1454.401    528.31393     420.9969     388.0711     36976.26 
  486700    305.62264   -1475.7182    504.76248    408.30284    905.35163     36976.26 
  486800    311.51822    -1447.708    503.51117    461.66816    282.07991     36976.26 
  486900    290.42707    -1456.435    516.75425    371.00103    53.539185     36976.26 
  487000    300.38389   -1452.5215    509.81153     412.9064   -90.176078     36976.26 
  487100    298.85561   -1469.6347    498.39791    377.48259    397.55406     36976.26 
  487200    305.01593   -1476.2296    521.21044    421.50134    541.31667     36976.26 
  487300     291.0018   -1451.1557    492.63248    354.75234    287.58692     36976.26 
  487400    299.67377   -1457.6398    513.40103    408.17294     163.7764     36976.26 
  487500    292.52908   -1459.0514    510.40644     371.5231    252.36788     36976.26 
  487600    301.46859   -1450.8911    512.07464    421.69518    19.972064     36976.26 
  487700    289.63832   -1518.6249    483.38286    271.88019    41.317977     36976.26 
  487800    298.57505    -1462.208    480.59748    365.84271   -146.49094     36976.26 
  487900     304.6614   -1417.1522    511.50547    469.27386    253.99212     36976.26 
  488000    303.71111   -1455.2621    484.22547    399.59537    110.18734     36976.26 
  488100    302.26337    -1468.258      499.352     395.1924    562.81069     36976.26 
  488200     291.2814      -1483.5    513.42505    344.46238     400.4251     36976.26 
  488300    300.10473   -1494.3116    481.74928    341.79422    717.75946     36976.26 
  488400    307.37237   -1482.4503     477.1304    381.83514    619.09406     36976.26 
  488500    306.61567   -1457.0815    514.15555    440.81409    212.15252     36976.26 
  488600    295.55648   -1487.9702    499.05479    344.91516    284.85924     36976.26 
  488700    296.91049   -1484.2226    476.44781    332.16631    210.91073     36976.26 
  488800    293.18691   -1496.7817    481.09777     307.4529    91.413847     36976.26 
  488900    303.64288   -1529.6415    502.17302     342.8556   -79.121875     36976.26 
  489000    291.59221   -1501.4107    473.44499    287.97435    40.421381     36976.26 
  489100    304.68985   -1426.1321    528.00037    476.91727   -74.462827     36976.26 
  489200    302.47242    -1503.616    499.77601    361.20181   -281.26578     36976.26 
  489300      308.729   -1482.5898    515.55345    426.24108   -348.85601     36976.26 
  489400     300.1706   -1526.0019     491.9926    320.64459   -463.77711     36976.26 
  489500    292.44319   -1518.3523    489.75345    291.18156   -32.784843     36976.26 
  489600    304.35652   -1477.2731    496.87055    393.14214   -240.20359     36976.26 
  489700    301.85045   -1500.0734    495.92103    358.08255   -230.47806     36976.26 
  489800    296.98963   -1456.0359    502.60756    386.86998   -187.04241     36976.26 
  489900    301.78673   -1493.3424    489.95312    358.55807   -24.892589     36976.26 
  490000    292.34682   -1465.0363    481.86003    336.16926   -478.98206     36976.26 
  490100    313.54399   -1433.9192    485.50532    466.59335   -335.32559     36976.26 
  490200    313.80988   -1432.6105      478.434     462.0307   -209.01968     36976.26 
  490300    303.87986   -1445.1747     503.7715    429.99031   -94.985144     36976.26 
  490400    305.74958   -1465.7069    487.13603    401.26063    436.21465     36976.26 
  490500    307.37143   -1453.0882     510.3004    444.36294    540.45774     36976.26 
  490600    293.98397    -1458.794    501.31702    369.25694   -133.39678     36976.26 
  490700     298.8202    -1430.409    502.00467    420.15524    636.83623     36976.26 
  490800    296.75382   -1466.2713    511.04598    384.00878    886.47825     36976.26 
  490900    295.67205   -1493.9753    491.50792    331.88471    1010.6137     36976.26 
  491000    304.50033   -1494.1615    509.86217     389.8944    1065.5456     36976.26 
  491100    299.99464   -1465.0261    513.42057    402.25425    1063.3272     36976.26 
  491200    304.21805   -1466.6639    498.27888    404.53474    316.22645     36976.26 
  491300    292.62986   -1473.9228    494.00517    340.70528   -152.87955     36976.26 
  491400    299.03357     -1440.16    500.73931    410.10181    188.88437     36976.26 
  491500    291.43064   -1461.0908    508.04213    362.16219   -295.83912     36976.26 
  491600    307.03979   -1490.1863    513.67629    409.14408   -1.4590806     36976.26 
  491700    308.79426   -1459.8186    496.32474    430.07806      62.9122     36976.26 
  491800    308.10646   -1438.6359    510.31739    462.14944   -185.83611     36976.26 
  491900    304.57404   -1453.4957    507.41673    428.44737   -588.31728     36976.26 
  492000    299.19969   -1463.7764     491.1311    377.62685    409.92038     36976.26 
  492100    308.82859   -1472.9619    513.72968    434.49467   -96.744424     36976.26 
  492200    289.83136   -1465.0592    474.66963    317.60381   -143.78489     36976.26 
  492300    310.13154   -1485.8469    520.57313     434.3333   -44.148375     36976.26 
  492400    304.03226   -1501.1044    456.90573    327.88263   -691.07383     36976.26 
  492500    295.62184   -1522.5823    498.57091    310.11411   -723.45378     36976.26 
  492600    288.58638   -1483.9682    499.45105     317.8577    -247.9862     36976.26 
  492700    299.12617   -1497.6261    490.63036    342.94466   -476.95188     36976.26 
  492800    304.01917   -1496.2491    488.82464    364.59773   -369.48946     36976.26 
  492900    298.83762   -1507.2404    489.11376    330.51157   -2.9111755     36976.26 
  493000    291.29689   -1514.2769    486.66616    286.99645    43.634998     36976.26 
  493100    301.86919   -1487.3427      499.634     374.6108    533.75427     36976.26 
  493200    307.19212   -1487.3542    479.24929    378.23671    504.41936     36976.26 
  493300    314.64134   -1502.7509    490.42895    407.63758    911.08526     36976.26 
  493400    295.98154   -1498.4496    512.52225    349.82146    281.24258     36976.26 
  493500    306.59747   -1499.8336    485.86576    369.69017    234.92061     36976.26 
  493600    301.74591    -1476.403    488.04791    373.40806   -39.301519     36976.26 
  493700     307.8812   -1452.4072     499.8954    436.93954    -343.9309     36976.26 
  493800    304.17345    -1513.198    480.53907    340.05956    394.80136     36976.26 
  493900     294.1613    -1485.469    506.32063    348.38578    237.12363     36976.26 
  494000     311.3514   -1520.7825    489.73564    374.06536   -435.99702     36976.26 
  494100    304.87014   -1505.9244    495.61259    365.55084   -538.82573     36976.26 
  494200    290.24524   -1529.8608    487.32781    267.32819   -65.289683     36976.26 
  494300    292.49417   -1549.3568    502.61102     273.2647    129.59244     36976.26 
  494400     294.3757   -1521.7419    467.93179    274.69164     -140.461     36976.26 
  494500    297.91783   -1485.0838    469.65316    329.05655   -15.155598     36976.26 
  494600     301.7467   -1468.3805    514.02268    407.40882   -544.00751     36976.26 
  494700    292.04167    -1513.705      495.882    300.14542   -439.20617     36976.26 
  494800    300.69213   -1470.7506    488.49203    374.74887   -122.56694     36976.26 
  494900    301.30562   -1525.7659      499.646    333.65628   -301.40206     36976.26 
  495000    301.35583   -1488.9464    493.46427    364.52057   -415.83703     36976.26 
  495100    289.73226    -1494.384    495.99893    309.16107    15.397787     36976.26 
  495200     306.5141   -1531.8315      467.607    319.05721   -50.040565     36976.26 
  495300    302.81835   -1550.3197    491.38342    307.66672    889.54876     36976.26 
  495400    302.52039   -1528.3684    503.76073    340.65059    157.23967     36976.26 
  495500    293.61735   -1500.7283    476.55104     300.9021   -184.61732     36976.26 
  495600    293.56749   -1482.5482    483.11273    325.41886   -304.06567     36976.26 
  495700    295.88705   -1503.5579    483.83107    315.59562   -104.80705     36976.26 
  495800    307.47562   -1548.5794    504.24957    343.29119    34.001861     36976.26 
  495900      300.023   -1543.0614    472.61864    283.54495    93.232305     36976.26 
  496000    299.65669   -1507.1349    496.39609    341.59581   -581.08045     36976.26 
  496100    293.81842   -1534.0509    485.46457    277.40042   -941.51087     36976.26 
  496200    291.96527   -1536.2131    480.17709    261.58764   -1366.9457     36976.26 
  496300    306.32909   -1567.1464    510.15354    325.45387   -664.46667     36976.26 
  496400    296.82467    -1527.981     491.6909    303.26377   -788.91206     36976.26 
  496500    304.08414   -1528.5919    497.23445    340.95797   -409.46891     36976.26 
  496600    306.10942   -1500.1926    488.74769    370.01051   -290.58911     36976.26 
  496700    300.47797   -1489.7856     495.8376    362.09293   -675.30839     36976.26 
  496800    301.41077    -1496.788    481.47209    344.93476   -81.146166     36976.26 
  496900    307.74058   -1494.3032     517.3661    411.87968    21.641278     36976.26 
  497000    304.16788    -1495.855    502.69837    379.53668   -208.03307     36976.26 
  497100    300.38467   -1502.3978    473.62505    326.84711    429.89685     36976.26 
  497200    304.84134   -1527.1169    487.06651    335.68228    94.924972     36976.26 
  497300    309.01399   -1468.5182    501.29933    427.34465    786.09561     36976.26 
  497400    299.70944   -1457.1775    510.14823    405.54338    654.38903     36976.26 
  497500    300.67576   -1442.3013    499.13689    413.76922    339.55979     36976.26 
  497600    297.46202   -1488.7035    517.53736    371.26399   -106.39486     36976.26 
  497700    296.27397   -1489.8396    486.65418     333.8831   -188.25264     36976.26 
  497800    304.63547   -1485.0189    467.79048    357.57515   -110.75882     36976.26 
  497900    305.79306   -1488.8868    495.18158    386.32245   -65.621924     36976.26 
  498000    297.47493   -1497.4435    503.58138    348.62635    694.33932     36976.26 
  498100    294.62663   -1532.2299     487.2811     284.6854    712.11501     36976.26 
  498200    305.89852   -1530.9419    523.23649    372.79816    567.42968     36976.26 
  498300    291.33828   -1494.2569    484.20426    304.74142    427.96199     36976.26 
  498400    300.25838   -1448.4424    534.42377    441.03131   -60.723416     36976.26 
  498500    288.67342   -1444.0942    508.66455    367.33803    157.48711     36976.26 
  498600    297.88142    -1450.381    511.88402    405.82586    169.65966     36976.26 
  498700    303.49779   -1504.9964    523.05245    387.72532    554.23846     36976.26 
  498800    289.81244   -1489.2668    490.99255    309.63378    228.39886     36976.26 
  498900    300.01576   -1502.1603    491.28477    343.07951   -3.9688757     36976.26 
  499000    298.12758   -1460.8262    504.85669    389.46426   -161.37775     36976.26 
  499100    297.45324   -1463.2856    493.31388    372.41879   -373.39684     36976.26 
  499200    296.11678   -1509.7232    496.95061    323.58654   -418.65739     36976.26 
  499300    301.34974   -1488.5284    479.35861    350.80544    169.91265     36976.26 
  499400    307.31639   -1493.8505     504.8589    397.91081    376.96023     36976.26 
  499500    298.85067   -1492.0954    503.77005    360.37177    56.469751     36976.26 
  499600    292.88226   -1538.9246     470.9839    253.82122   -7.5058919     36976.26 
  499700    295.64316   -1521.4809    507.66521    320.40606   -526.19986     36976.26 
  499800    295.27685   -1507.0974    506.66616     332.1374   -703.96214     36976.26 
  499900    312.72852    -1523.313    512.51137    400.52546   -755.93095     36976.26 
  500000    296.91038   -1527.4852    468.69157    281.14703   -565.35229     36976.26 
  500100    300.37775   -1517.4212    530.99774    369.16521   -787.53388     36976.26 
  500200    303.34418   -1504.7018    488.45034    352.72456    35.617951     36976.26 
  500300    309.68986   -1513.6502    517.07919    401.04278   -83.274546     36976.26 
  500400    305.58169   -1510.5442    498.78404    367.31363    483.68227     36976.26 
  500500    307.65058   -1559.3353    480.89806    309.97333    164.66277     36976.26 
  500600    292.49064   -1536.0876    498.63435    282.54133    -444.7686     36976.26 
  500700    291.10815   -1534.0085    487.96405      267.711   -283.53876     36976.26 
  500800    304.73893   -1531.5862     471.8035    315.48776    279.30122     36976.26 
  500900    310.03568   -1580.8657    489.89589     308.2046    481.03451     36976.26 
  501000    297.41928   -1556.1058    455.73007    241.86155     870.8643     36976.26 
  501100     309.2794   -1514.5669     480.0098    361.20421    841.16575     36976.26 
  501200    292.46719   -1514.8146    495.96523    301.03938    328.44065     36976.26 
  501300    296.68474   -1484.6527    518.00947    372.27909   -172.74586     36976.26 
  501400    304.63786   -1480.1521    509.78633    404.44858     109.1327     36976.26 
  501500    301.38414   -1458.7667     520.8247    422.18853    86.801862     36976.26 
  501600    304.67805   -1473.5248    487.22252    388.69337    281.20865     36976.26 
  501700    303.65661   -1511.0534    483.14417    342.47676    110.06904     36976.26 
  501800    308.38601   -1491.7915    488.36436    388.30241   -20.856204     36976.26 
  501900    302.83197   -1531.2496    507.68575    343.10063    58.952037     36976.26 
  502000    309.31892   -1511.0175    514.16663    399.08886    480.87932     36976.26 
  502100    296.70473   -1545.1298    513.67751    307.56027    438.85353     36976.26 
  502200    312.99543   -1498.7429    490.14524    403.93392    220.22267     36976.26 
  502300    297.45921   -1461.6416    528.15584    408.93168   -288.47795     36976.26 
  502400    292.40583     -1472.41    488.95821    336.15999   -425.93002     36976.26 
  502500    287.51536   -1473.6771    496.42353    320.28784   -521.00359     36976.26 
  502600    308.76866   -1477.6577    491.42525    407.22391    42.409385     36976.26 
  502700      297.754   -1477.6653    498.75052    364.83307    322.22792     36976.26 
  502800    303.84159   -1446.9216    535.85994    460.15913    547.58229     36976.26 
  502900    299.20484   -1448.6025     494.1574    395.85035     30.09304     36976.26 
  503000    300.71009   -1484.2281    495.92658    368.78698   -144.30602     36976.26 
  503100       303.78   -1503.5167    489.61998    357.04614    39.298566     36976.26 
  503200    294.44137   -1462.7974    485.87632    351.87705  -0.49980809     36976.26 
  503300    293.11364   -1502.3052    505.92544    326.42636    59.796164     36976.26 
  503400    290.45219   -1504.0263    490.04685    296.81573    181.51087     36976.26 
  503500    301.26758   -1511.8493    506.42634    354.18147    527.83362     36976.26 
  503600    290.98721   -1508.3605    494.57145    299.42065     607.0861     36976.26 
  503700    297.31459   -1517.2577    511.63365    336.14071    836.49434     36976.26 
  503800    300.65607   -1470.5292    499.45553    385.77102    264.65712     36976.26 
  503900    307.95618   -1498.9695    500.06523    390.88542    12.900064     36976.26 
  504000    296.68716   -1475.6967    495.22568    358.46226    96.516262     36976.26 
  504100    300.32039   -1464.3241    499.36359    390.36935    368.14838     36976.26 
  504200    299.10212   -1502.3036    483.37286    330.90108    941.13727     36976.26 
  504300    301.58639   -1509.6411    513.38137    364.78343    430.34697     36976.26 
  504400    306.51691   -1541.5256    509.43153    351.20028    493.78265     36976.26 
  504500    297.95968   -1495.3425    494.80145      344.135    931.50705     36976.26 
  504600    300.35132   -1529.4183    486.40291    312.45405    122.07087     36976.26 
  504700    302.59035   -1543.4591    477.35785    299.47282    809.92071     36976.26 
  504800    312.32446   -1526.4322     532.0972    415.16852    843.31057     36976.26 
  504900    300.46402   -1476.2159    471.90534    351.66744    282.41941     36976.26 
  505000    308.60553   -1492.2634    516.82428    417.28109   -80.976483     36976.26 
  505100    296.03323   -1456.7236    483.54284    362.80132    90.498061     36976.26 
  505200    294.18548   -1460.2008    530.19675    397.63927   -36.596291     36976.26 
  505300     298.6943   -1490.5976    503.35009    360.74391    392.60111     36976.26 
  505400    304.90652   -1499.1244    493.26865    370.17103    191.48514     36976.26 
  505500     303.2653   -1452.3588    518.79444    435.05564     455.6251     36976.26 
  505600    286.87007   -1466.2725    488.11067    316.46744   -415.59055     36976.26 
  505700    300.95361   -1447.4583     507.3511    418.08032   -800.53855     36976.26 
  505800     294.9554    -1425.549    498.12468    403.69359   -394.40293     36976.26 
  505900    291.40533   -1488.0244    455.38863    282.46087   -54.361181     36976.26 
  506000    295.91062   -1523.6523    513.41294    325.18941    623.56318     36976.26 
  506100    306.18358    -1493.041    486.53049    375.27955    428.91712     36976.26 
  506200     298.0035   -1508.1769    472.80608    309.50304    1083.3465     36976.26 
  506300    308.79516   -1547.1331    475.51625    321.95916    397.77816     36976.26 
  506400    294.99533     -1551.15    505.13691    285.28508    250.64104     36976.26 
  506500    304.43262   -1512.3095    511.74995    373.32857    420.14311     36976.26 
  506600    293.15401    -1499.886    490.21069    313.31306    313.53291     36976.26 
  506700    301.60429   -1498.7958    526.18484    388.51306    353.81562     36976.26 
  506800    297.99205   -1479.1051    493.92598    359.64308    -275.6548     36976.26 
  506900     305.6607   -1501.5535    478.82987    356.70676   -536.25154     36976.26 
  507000    299.83217   -1496.1287     493.9417    350.93949   -189.34582     36976.26 
  507100    297.99129   -1492.2231    500.78495    353.38057   -110.46769     36976.26 
  507200    301.91816   -1456.5315    511.97189    417.98091    175.95675     36976.26 
  507300    296.38629   -1457.0045    499.79887    380.36981     129.7583     36976.26 
  507400    303.24059   -1472.4207    518.21287    414.30074   -352.92322     36976.26 
  507500     297.6052   -1448.2686    476.42267    371.23037   -171.61486     36976.26 
  507600    293.52188   -1490.8393    477.08424    310.89346    109.37551     36976.26 
  507700    299.57516   -1473.9135    508.84185    386.89506   -370.02666     36976.26 
  507800    304.18905   -1506.8913    492.75684     358.6544    15.678842     36976.26 
  507900    293.44759   -1503.8375    498.17528    318.65106    365.33899     36976.26 
  508000    289.22692    -1479.366    524.84653    350.74618    173.64862     36976.26 
  508100     296.7957   -1523.3975    494.86241    310.88802    -92.78593     36976.26 
  508200    303.21104   -1516.7233    473.62753    325.27935    5.8386369     36976.26 
  508300    298.11657   -1512.9274    488.18379    320.64045    173.52479     36976.26 
  508400    301.40809   -1516.7211    491.17598    334.69342   -82.746167     36976.26 
  508500    297.48151   -1504.3546    468.89999    307.06344   -381.40944     36976.26 
  508600    295.47477   -1488.4372     508.8867    353.91128   -372.43861     36976.26 
  508700    304.80092   -1500.5707    498.82627    373.80581    12.350281     36976.26 
  508800    305.13191   -1501.2833    511.45159    387.21229   -229.61805     36976.26 
  508900    295.61542    -1481.558    490.70946    343.24803   -335.43702     36976.26 
  509000    301.76465   -1498.6891    503.10284    366.26143    347.36095     36976.26 
  509100    294.78165   -1516.1691    496.20187    310.36659    663.65841     36976.26 
  509200    314.36503    -1512.534    524.59057    430.76914    451.76242     36976.26 
  509300    294.29815   -1523.5601     502.8195    307.41114    353.09523     36976.26 
  509400      292.163   -1476.1654     508.5477    350.89828    350.30303     36976.26 
  509500    304.73281   -1494.0306    481.02118    362.23338    315.40343     36976.26 
  509600    305.12853   -1494.4421    506.30709     388.8937   -475.54988     36976.26 
  509700    305.18931   -1482.9434    499.12835    393.48799   -567.57786     36976.26 
  509800    287.81774    -1487.489     480.3267    291.74378   -593.02077     36976.26 
  509900    305.78546   -1477.5729    524.18741    426.60787    264.26834     36976.26 
  510000    296.85387   -1486.3477    488.70507    342.04297    134.96719     36976.26 
  510100    304.26341   -1501.7075    523.96897    395.38595    350.23779     36976.26 
  510200    291.41484   -1488.4445    513.15475    339.84983    636.31133     36976.26 
  510300    301.31231   -1511.8057    471.08059    319.08122    183.41907     36976.26 
  510400    302.93602   -1505.7407    486.22145    347.61475    3.9750967     36976.26 
  510500    297.87063   -1479.1177    500.59852    365.75503    -556.9602     36976.26 
  510600    301.09775   -1473.8734    510.74675    395.71141   -55.291038     36976.26 
  510700    310.20757   -1484.4593    503.59955    419.09041    711.78777     36976.26 
  510800    301.36254   -1518.9395    498.14365     339.2372    541.06444     36976.26 
  510900    300.16479   -1549.5745      485.638    290.69111    413.83141     36976.26 
  511000    303.83561   -1532.6555    499.98406    338.52243    790.66622     36976.26 
  511100    308.43431   -1489.0902    486.37147    389.22876    187.48409     36976.26 
  511200    295.68545   -1534.1934    496.74277    296.96191    123.57093     36976.26 
  511300    285.15086   -1551.1453    506.99975    242.72499   -29.260416     36976.26 
  511400    289.66626   -1507.8653     506.8745    306.25757    80.556073     36976.26 
  511500    310.87412   -1524.2711    480.11617     358.8033    251.30062     36976.26 
  511600    301.64203   -1486.1458    478.78967    353.93825    164.42207     36976.26 
  511700    292.58457    -1442.927    490.18055    367.67207    444.04651     36976.26 
  511800    310.41493   -1472.4376    518.31101    446.75935    190.24397     36976.26 
  511900    307.46102   -1465.7621    522.19123    443.98421   -239.14026     36976.26 
  512000    298.21539   -1469.1384    495.40876    372.10048   -242.13055     36976.26 
  512100    299.00683   -1471.5181    520.80512    398.68877    23.887397     36976.26 
  512200    296.79662   -1467.2933    502.61955    374.75351     -796.268     36976.26 
  512300    292.79216   -1465.5701    505.13769    360.92296    -292.6818     36976.26 
  512400    297.73985   -1512.9035    475.97987    306.76037   -37.156089     36976.26 
  512500    290.30303   -1484.9654    506.83579    331.99239   -345.81278     36976.26 
  512600    298.15823   -1516.5167    485.67469    314.73007    227.42768     36976.26 
  512700    297.92586   -1500.2561    516.08036    360.34765    59.716548     36976.26 
  512800    291.82685   -1475.7877    501.20678    342.41803   -5.4261061     36976.26 
  512900    302.43301   -1474.7694    493.24358    383.33813   -527.93789     36976.26 
  513000    295.23462   -1430.2297    515.53777    417.68607   -236.85837     36976.26 
  513100    298.22369      -1506.6    491.40686    330.67438   -367.40584     36976.26 
  513200    296.95569   -1504.8329    471.38328    306.69551    164.62694     36976.26 
  513300    297.68518   -1513.7479    496.78007    326.46942    165.86453     36976.26 
  513400    296.51117   -1458.3558    510.06226    389.84547    491.06942     36976.26 
  513500    299.52972    -1513.056    495.33822    334.04382    117.22308     36976.26 
  513600    300.44591    -1515.947    506.24108     346.1904    77.918088     36976.26 
  513700    298.37945    -1520.271    486.93652    313.23598       597.88     36976.26 
  513800    297.72712   -1516.2752    502.12761    329.47897    214.50318     36976.26 
  513900    295.66916   -1521.1791     492.5113    305.67127    453.10258     36976.26 
  514000    298.06069   -1547.3415    503.52131    301.31168   -200.09878     36976.26 
  514100    293.90372   -1488.9608    509.79124    347.20218    409.90422     36976.26 
  514200    294.13898    -1522.841    501.52524    306.11766    378.54245     36976.26 
  514300    306.56808   -1521.9693    480.24208    341.79808    514.63428     36976.26 
  514400    297.02903   -1488.0741    512.37519    364.77718   -209.40962     36976.26 
  514500    298.67066   -1472.2418    480.21918    355.86209   -583.15657     36976.26 
  514600    305.62197   -1535.8966    504.01319    347.37217    -248.5194     36976.26 
  514700    307.34994   -1512.6069    468.38575    342.83267   -201.61884     36976.26 
  514800    296.70568   -1569.7209    491.46804    260.76395   -345.21516     36976.26 
  514900    298.44738   -1550.4487    476.00426    272.43259   -385.91369     36976.26 
  515000    303.71118   -1521.5923    476.19994    325.23987   -238.73494     36976.26 
  515100    297.69003   -1532.5359    494.84601    305.76925    31.959369     36976.26 
  515200    282.34897   -1551.7404      504.645    227.13031    779.15428     36976.26 
  515300    302.58757   -1556.9288     467.8942    276.52686    962.22038     36976.26 
  515400    307.65652   -1540.5679    512.48241    360.35192    1195.4111     36976.26 
  515500    294.50838   -1530.2706    483.46051    282.29049    842.37677     36976.26 
  515600     298.9488   -1557.9692    496.31939    287.49014    666.22414     36976.26 
  515700      293.112   -1554.5213    477.55303    245.83051    554.74757     36976.26 
  515800    303.08337   -1531.2724    492.56304    329.08962    784.36781     36976.26 
  515900    311.11117   -1523.4343    485.28287    365.87657    717.99378     36976.26 
  516000    303.89935   -1514.0126    492.69104    350.15995    32.585736     36976.26 
  516100    294.47204   -1551.8588    497.44034    274.51811    647.89683     36976.26 
  516200    301.67328   -1541.6701    495.75751    315.52279    339.59589     36976.26 
  516300    305.17665   -1572.8161    498.57892    303.00873    53.946695     36976.26 
  516400    296.75896   -1537.9057     480.8834    282.23503    84.303884     36976.26 
  516500    303.78024   -1572.2184    497.07983    295.80537   -124.86594     36976.26 
  516600     287.0648   -1529.7331    494.03694     259.8119   -702.79802     36976.26 
  516700    307.02784   -1513.4994    493.03508    365.13588   -157.04981     36976.26 
  516800    301.02755   -1482.8236    496.27131    371.96894    76.077847     36976.26 
  516900    294.91833   -1514.3771    502.49193    319.06542    243.10697     36976.26 
  517000    296.09329   -1516.2991    512.31557    332.26968    126.73781     36976.26 
  517100    293.48526   -1501.5301    460.98012    283.93333    1125.3582     36976.26 
  517200    301.76476   -1505.0697    525.26419     382.0427    413.56925     36976.26 
  517300    311.17714   -1524.1105    508.06657    388.28181    526.18662     36976.26 
  517400       299.61   -1499.7604    482.40947     334.7729    540.30995     36976.26 
  517500    302.07276   -1483.3144    525.35182    405.27554     1023.703     36976.26 
  517600    298.59384   -1534.0534    502.38207    315.86666     695.3616     36976.26 
  517700     297.9596   -1563.0526    462.24619    243.86926    643.55708     36976.26 
  517800    297.03523   -1552.4022    499.97249    288.07435    1010.0356     36976.26 
  517900    295.94627   -1519.6037    516.10604    332.09196    101.12387     36976.26 
  518000    295.78206   -1477.0718    490.60698    348.38375    725.40592     36976.26 
  518100    297.57839    -1502.799    509.40645    349.56283   -15.285904     36976.26 
  518200    301.66148   -1519.2217    489.27973    331.44011    110.57472     36976.26 
  518300    292.90624   -1539.7065    476.19508    258.35874   -732.32972     36976.26 
  518400    293.59027   -1513.7505    464.83265    276.03934   -535.09893     36976.26 
  518500    302.56837   -1507.4944    508.24625    366.22666   -627.33187     36976.26 
  518600     292.9935    -1511.693    492.70806    303.27897   -389.93827     36976.26 
  518700    286.75068    -1509.451    506.07181    290.71132   -617.43378     36976.26 
  518800    303.56326   -1494.2488    511.11138    386.82732    212.65875     36976.26 
  518900    300.82774    -1504.036    483.32776    336.91128   -238.63067     36976.26 
  519000    300.63095   -1467.1672    504.79617    394.36031   -323.87606     36976.26 
  519100    296.15169   -1504.9174    478.13321    309.73249   -279.70908     36976.26 
  519200    310.01443   -1483.0508    482.03611    398.06384    1.7515927     36976.26 
  519300     305.9415    -1451.044    523.79696    453.45054    12.636424     36976.26 
  519400      302.515   -1448.2863    514.71995    431.66762    552.05868     36976.26 
  519500    291.28213   -1475.0392    498.71107     338.2125    227.92758     36976.26 
  519600    296.64137   -1460.6926    500.75811    378.79218    263.87919     36976.26 
  519700    297.54008   -1440.3098    482.26179    384.73442    379.05648     36976.26 
  519800    306.33077   -1499.0907    485.72578    369.08938    270.95515     36976.26 
  519900    296.55435   -1482.7692    471.73849    327.30321    120.23415     36976.26 
  520000    306.83564    -1474.888     502.4828    412.32759    183.86204     36976.26 
  520100    304.17003   -1479.4004     501.9613      395.264    508.92783     36976.26 
  520200    305.74274   -1482.4794    509.40561    406.72678    513.23726     36976.26 
  520300    296.71946   -1505.0478    494.72047    328.75166   -174.55139     36976.26 
  520400    293.78645   -1497.3182    500.67418    329.19852    97.067011     36976.26 
  520500     297.8581   -1481.0105    480.18811     343.3953   -316.20028     36976.26 
  520600    305.21207    -1434.143    503.28357    446.54632    70.222827     36976.26 
  520700    295.34087   -1418.0684    465.47143    380.26053   -152.10003     36976.26 
  520800    296.68975   -1445.6943    501.33216    394.58278   -680.36337     36976.26 
  520900    298.51789    -1460.527    505.47509    392.14335   -1326.2003     36976.26 
  521000    298.92514   -1446.0602    498.41091    401.38384   -1119.1434     36976.26 
  521100    302.42984   -1484.9718    469.30423     349.1821    -799.3137     36976.26 
  521200    300.48719   -1459.9652    498.27864    394.39599   -465.17999     36976.26 
  521300    307.78683   -1457.0323    483.17507     415.1683   -234.50638     36976.26 
  521400    296.60481   -1511.9419    483.13016    309.74989    103.91491     36976.26 
  521500    300.53102   -1532.2131    497.21987    321.28719   -100.06234     36976.26 
  521600    301.08355   -1505.4744    498.43175    351.73127   -1.1943234     36976.26 
  521700    295.68581   -1520.8133    476.51079    290.11171   -96.756352     36976.26 
  521800    295.47337   -1582.6389      509.414    260.23064    461.09342     36976.26 
  521900    301.83289   -1559.6589    473.65631    276.15305    340.90758     36976.26 
  522000    301.09681   -1525.7882    488.50898     321.5546    321.86134     36976.26 
  522100    307.47501   -1474.3267    501.14213    414.43362    83.578117     36976.26 
  522200    302.83121   -1507.8696    494.46143    353.25283    129.78309     36976.26 
  522300    301.66893   -1550.5353    501.49077    312.37121    47.103431     36976.26 
  522400    304.45892   -1545.8713    485.43957    313.57501    285.26039     36976.26 
  522500    294.27066   -1519.4545    484.73669    293.30989   -175.26937     36976.26 
  522600    304.54407   -1489.2335    463.18299    348.34059    156.36724     36976.26 
  522700    308.14215   -1510.7123    479.72401    359.64068    99.889715     36976.26 
  522800    297.03857   -1473.9636    496.75249    363.30799    275.76597     36976.26 
  522900    294.57526   -1489.9447    515.71116    355.16879   -151.21668     36976.26 
  523000    309.02072   -1490.3299     487.6982    391.96225    359.83655     36976.26 
  523100    304.98133   -1490.9384    483.84754    369.27355   -26.832936     36976.26 
  523200    303.40032   -1479.5027    492.50927    382.23594    -15.91402     36976.26 
  523300    300.14623   -1493.3353    485.47138    346.67988    354.74763     36976.26 
  523400    304.26147   -1476.8048    477.00214     373.3131    366.56419     36976.26 
  523500    297.35104   -1514.0166    462.54961    290.46231   -158.08766     36976.26 
  523600    289.48566   -1496.0574     501.6737    312.04955   -520.30913     36976.26 
  523700    292.08157   -1468.5004    495.05138    344.69942   -633.71912     36976.26 
  523800     302.2524   -1485.9272    485.58435    363.70603   -429.04119     36976.26 
  523900    294.39253   -1475.2532    502.63218    355.95667    364.23513     36976.26 
  524000    287.37804   -1492.0884     506.9073    311.74057   -61.868073     36976.26 
  524100    299.07305   -1516.9778     520.6125    353.33532    373.90129     36976.26 
  524200    291.59731   -1475.5743    498.15573    338.54443    308.96742     36976.26 
  524300    306.97995   -1493.0912    496.08208    388.37493   -172.81629     36976.26 
  524400    291.01584    -1454.543    496.47267    355.26858   -263.27283     36976.26 
  524500    311.40503   -1460.9124    506.99737    451.43915    364.58998     36976.26 
  524600    302.30613   -1463.9013     508.0213    408.41133   -274.78718     36976.26 
  524700    304.54672   -1503.3631    470.89193    341.93192   -466.98643     36976.26 
  524800    303.34378   -1481.5384     530.2823    417.71811    308.45344     36976.26 
  524900    297.17418   -1442.2932    492.45874    391.29667    -9.975679     36976.26 
  525000    289.79165   -1463.2625    480.18173    324.73342    788.43324     36976.26 
  525100    309.20456   -1493.2934    512.27613    414.40637    308.54066     36976.26 
  525200    308.76231   -1510.2356    472.29354    355.48573    507.79283     36976.26 
  525300    285.82249   -1493.9872    488.05661    283.97097   -96.432344     36976.26 
  525400    299.60684    -1489.366    516.32245    379.06611    2.1388402     36976.26 
  525500    302.07901    -1482.239     501.0769    382.10422   -44.162015     36976.26 
  525600    289.57863   -1495.9325    502.95054    313.87089    84.710817     36976.26 
  525700    310.25601    -1500.859     483.2668    382.57649    309.56696     36976.26 
  525800    292.36481   -1472.8328    493.85642    340.45032   -140.11669     36976.26 
  525900    305.74754   -1467.7956    499.45957    411.48625   -64.620249     36976.26 
  526000    300.54514   -1467.0946    505.69686    394.94633    -206.9584     36976.26 
  526100    301.90508    -1527.847    506.21614    340.85062    363.23784     36976.26 
  526200    308.18217   -1471.7227    485.16093    404.24789    528.41302     36976.26 
  526300     307.9072   -1481.2924     519.1498    427.42609     103.8875     36976.26 
  526400    297.88835   -1509.4199    493.06292    327.99722    272.79479     36976.26 
  526500    301.81505   -1515.8475     483.9187    330.14638    193.15389     36976.26 
  526600    296.24524   -1485.4837    498.98452    350.43969    279.30658     36976.26 
  526700    293.01503   -1474.5237    480.03019    327.86766   -38.964051     36976.26 
  526800    292.25483   -1461.9813    498.62636    355.57547     193.5776     36976.26 
  526900    303.07718   -1491.9462    491.78212    367.60699    434.55735     36976.26 
  527000    292.23693   -1475.7991    515.99712    359.04768    429.30389     36976.26 
  527100    301.64038   -1482.8731    493.98749    372.40125    622.85823     36976.26 
  527200    302.32172   -1478.2612    486.04009    372.14055    417.76542     36976.26 
  527300    301.35455   -1468.2203    491.31669     383.0933    665.90801     36976.26 
  527400    301.33287   -1506.7588    485.55349    338.69373    572.20927     36976.26 
  527500    307.04067   -1522.6246    502.63286    365.66632    39.498536     36976.26 
  527600    293.43208   -1504.8479    520.77224    340.16762     259.9252     36976.26 
  527700    312.79626   -1523.0822    485.35183    373.90238    169.40624     36976.26 
  527800    300.08918   -1499.8137    487.29048    341.76319    36.365397     36976.26 
  527900    293.83628   -1508.1881    476.07326    293.95253    528.51566     36976.26 
  528000    307.84858   -1498.0028    507.80454    399.10585    759.43612     36976.26 
  528100    297.62306   -1491.1739    505.92153    357.90458    490.14637     36976.26 
  528200    296.31435   -1489.6445    503.86472    351.47099    483.37085     36976.26 
  528300    296.96716   -1543.9211    481.16145    277.43724     38.35814     36976.26 
  528400    303.68907   -1539.7685    503.84074     334.6047    38.035539     36976.26 
  528500    305.87067   -1528.9213    497.38487    348.84147    290.34331     36976.26 
  528600    293.80017   -1505.1754    466.36011    287.08915   -468.29924     36976.26 
  528700    299.73704   -1511.8522    519.40781    360.25279   -325.37782     36976.26 
  528800    297.06786   -1529.5976    465.89232    276.94604   -368.53574     36976.26 
  528900    304.36086   -1463.8401    518.58124    428.30535    -40.08282     36976.26 
  529000    299.33656   -1477.9199    503.38685    376.35676   -492.92075     36976.26 
  529100    301.78052    -1460.218    512.28431    413.98566   -731.35134     36976.26 
  529200    301.46154   -1478.6172    509.44689    391.30951   -129.19309     36976.26 
  529300    303.36516   -1438.1871    493.41493    424.29851   -793.19402     36976.26 
  529400    301.44014   -1493.5432    505.34685    372.18681   -204.64742     36976.26 
  529500    301.93792   -1487.7779    510.32361    385.17533   -165.49149     36976.26 
  529600    308.13305   -1480.1695     523.2871    433.70555   -178.24988     36976.26 
  529700    300.14762   -1497.8787    522.93656    379.60798     150.7363     36976.26 
  529800    310.71685   -1492.0011    482.46741    392.71487    384.36478     36976.26 
  529900    307.07249   -1503.8115    489.95195    371.94212   -131.69603     36976.26 
  530000    304.08668   -1498.2824    488.79596    362.84042   0.23732958     36976.26 
  530100    289.25814   -1481.3535    511.97859    336.03156   -92.979197     36976.26 
  530200    307.36837   -1524.8889     481.1317    343.37983   -65.000031     36976.26 
  530300    299.95561   -1525.3327    479.46011      307.811    31.668612     36976.26 
  530400    303.64081   -1535.6705    494.54094    329.18513   -33.939589     36976.26 
  530500    303.37307   -1507.2712    507.54636    369.38155      325.335     36976.26 
  530600    294.05097   -1495.9253    524.36004    355.47099    312.76645     36976.26 
  530700     288.5813    -1514.888    527.27945    314.74345    358.78214     36976.26 
  530800     295.6944     -1508.42    525.56603    351.59902    34.538225     36976.26 
  530900    304.49259   -1506.7143    476.27323    343.71766    198.09185     36976.26 
  531000     296.7747   -1512.1398    488.25525    315.44375    42.417615     36976.26 
  531100    306.02516   -1510.7325     502.2513    372.59397   -53.078591     36976.26 
  531200     293.2567   -1503.3872    532.71793    352.78252    86.746553     36976.26 
  531300    300.58418   -1489.0001     482.8768    350.39701   -499.62431     36976.26 
  531400    299.46656   -1490.4508    509.52487    370.55059   -312.26896     36976.26 
  531500    293.37097   -1477.5621    519.74359    366.14899    154.78159     36976.26 
  531600    293.83889   -1526.8365    514.90398    314.14663    127.26901     36976.26 
  531700    292.52918   -1516.6408    513.32833    316.85612   -220.31102     36976.26 
  531800    309.37117   -1518.8454     493.8605    371.19064   -155.06104     36976.26 
  531900     311.7072   -1519.1046    509.87015    397.48342   -297.33305     36976.26 
  532000    314.07132    -1482.146    507.37503    442.61603    424.98936     36976.26 
  532100    279.50273   -1486.3827    474.96362    249.96172   -99.873803     36976.26 
  532200    301.33656   -1453.3136    521.05935    427.66147   -539.37202     36976.26 
  532300    290.37967   -1444.0596    522.55074    388.95899   -976.30909     36976.26 
  532400    310.19831   -1454.6983    514.95918    460.16927    -926.7902     36976.26 
  532500    305.64314   -1518.9939    494.36173    354.71898   -530.31037     36976.26 
  532600    299.44653   -1529.2117    491.88458    314.05904    -1112.378     36976.26 
  532700     304.2707    -1523.318    502.52624    352.36563   -460.83012     36976.26 
  532800    295.05285   -1523.9396     483.5821    291.20015   -105.40532     36976.26 
  532900    292.87181   -1534.5081    505.45613    292.66287   -33.824645     36976.26 
  533000    299.51665   -1524.8507    513.32663    340.17847   -86.768492     36976.26 
  533100    301.45638   -1504.1618    499.27568    355.57041    485.69424     36976.26 
  533200    302.15551   -1461.0799    523.80655    426.33831   -241.72212     36976.26 
  533300    311.54624   -1444.9462    525.93229    486.97761    -204.5346     36976.26 
  533400    295.88149   -1472.9419    518.63635    380.99178   -142.23528     36976.26 
  533500    309.58274   -1550.8729     486.6583    332.91573   -772.94681     36976.26 
  533600    302.25631   -1530.5165    494.57906    328.12907   -256.77793     36976.26 
  533700    300.04451   -1484.4468    486.49747    356.13547   -410.77667     36976.26 
  533800    291.11459   -1507.4166    495.87635    302.24429   -111.11323     36976.26 
  533900    294.91393   -1520.7841     503.3558    313.50251    150.78488     36976.26 
  534000    289.62259   -1515.3894    507.05394    298.71575    642.48872     36976.26 
  534100    304.48705   -1496.3515    484.59917    362.38144    491.84276     36976.26 
  534200    293.76103   -1471.4809    509.56102    363.80797     529.3537     36976.26 
  534300    297.94469   -1538.5294    502.53203     308.6111    357.46661     36976.26 
  534400    296.57982   -1497.6382    494.31484    335.12548    8.3935866     36976.26 
  534500    302.98968   -1460.5682    511.27666    418.08469   -197.16046     36976.26 
  534600    317.23226   -1507.3302    488.62346     412.9454   -196.63754     36976.26 
  534700    304.41726    -1502.739     510.4882    381.56799   -504.17113     36976.26 
  534800    299.97275    -1501.346    496.41899    348.83393   -230.90983     36976.26 
  534900    307.41598   -1514.7623     513.3938    385.98337   -658.13853     36976.26 
  535000    311.00261   -1522.5793    507.26131    388.22012     291.1578     36976.26 
  535100    305.66023    -1585.614     476.5524    270.36669    259.31487     36976.26 
  535200    318.00511   -1546.2429    514.81573    403.71282    211.27562     36976.26 
  535300    297.98809   -1539.3775    494.67887    300.10567    140.11134     36976.26 
  535400    303.92402   -1516.9327    505.24937    359.90953    -523.9405     36976.26 
  535500    296.06058   -1523.2014    506.07624    318.98039   -665.83643     36976.26 
  535600    293.66155   -1508.8095    487.59937    304.06869    -488.1409     36976.26 
  535700    305.87471   -1523.4304    503.57582     360.5416   -464.35044     36976.26 
  535800    311.10734   -1564.4147    497.64935    337.24537    194.18853     36976.26 
  535900    298.47771   -1543.4484    492.06603    295.63157    468.26847     36976.26 
  536000    307.68517   -1518.9836    500.59456    370.17762   -101.59408     36976.26 
  536100    299.99844   -1566.9153    504.53257     291.4942   -3.0613559     36976.26 
  536200    302.39864   -1542.9269    489.29712    311.07909   -101.89436     36976.26 
  536300    300.69117    -1521.861    499.19409    334.33618     137.4284     36976.26 
  536400    305.39439   -1569.1326    525.14429    334.24026   -379.64535     36976.26 
  536500    295.43415   -1543.4513    521.00866    310.83587    404.19788     36976.26 
  536600     290.1797   -1558.6597     508.2495    259.15527    327.13122     36976.26 
  536700    295.57733   -1554.0133    476.72443    256.63581   -20.491582     36976.26 
  536800    296.30696   -1527.1799    482.95189    292.98946   -259.06234     36976.26 
  536900     303.4411   -1548.2391    493.33374    314.50804   -255.75815     36976.26 
  537000    297.16108   -1541.6942    505.83838    305.21622    145.20062     36976.26 
  537100    302.15965   -1534.2539    501.26064    330.63709   -17.113862     36976.26 
  537200    301.65615   -1546.4164    502.25227    317.19389    18.664799     36976.26 
  537300    298.03462   -1533.0765    526.58303    338.52087    78.696406     36976.26 
  537400    305.21579   -1547.0099    515.35456    345.76716    321.84623     36976.26 
  537500    292.94447    -1513.252     517.2572    326.04787    81.474124     36976.26 
  537600    305.89904   -1539.9799    506.06201    346.58812    377.93371     36976.26 
  537700    302.84891   -1535.9306    465.57911    296.38935    10.605944     36976.26 
  537800    294.78712   -1528.2285    481.20508    283.33509    -450.0679     36976.26 
  537900    296.89704    -1503.963    535.87977    371.79724   -59.120846     36976.26 
  538000    287.35315   -1517.5819    489.93197    269.15942    560.23065     36976.26 
  538100    304.16458   -1566.2524    478.92756    285.35364     15.26733     36976.26 
  538200    289.05943   -1551.1111    493.79334    247.19194    189.63677     36976.26 
  538300    301.94166   -1554.4924    515.86347     324.0176    609.38591     36976.26 
  538400    290.71031   -1542.2213    501.47458    271.21329    394.46814     36976.26 
  538500    300.09165   -1485.8396    493.57472    362.03264    322.82564     36976.26 
  538600     293.8973   -1524.6433    499.45594    301.15545    5.9988595     36976.26 
  538700    307.80479   -1535.2914    512.02497    365.84012   -202.10072     36976.26 
  538800    298.29411   -1529.4931    512.62237    329.31458   -148.19113     36976.26 
  538900    298.32044   -1514.3474    505.34062    337.29741   -701.96012     36976.26 
  539000      301.786   -1496.3896    492.08555    357.64001   -619.03859     36976.26 
  539100    293.77568   -1575.1675    495.92687    246.55329   -751.69782     36976.26 
  539200    302.21662   -1557.2334    521.15086    327.80492   -682.03238     36976.26 
  539300    296.63123   -1516.2901    498.68566    321.07643   -843.51213     36976.26 
  539400    306.81787   -1531.1289    497.10003    350.62377   -470.64154     36976.26 
  539500    290.69616    -1496.047    544.99153    360.84076    -530.1258     36976.26 
  539600    301.37292   -1499.4807    517.61251    378.21164   -362.66037     36976.26 
  539700    312.42608   -1521.8193    494.30682    382.44967   -361.65873     36976.26 
  539800    294.30446   -1512.0048    506.65697    322.83246   -147.87542     36976.26 
  539900    305.65136   -1543.2158    515.00146    351.17389   -571.27819     36976.26 
  540000    303.98439   -1489.4803    526.39319    408.77817    238.21616     36976.26 
  540100    300.32381   -1459.1919    509.11189     405.2653   -174.34355     36976.26 
  540200    298.87303    -1523.279    514.31756    339.83655    66.022515     36976.26 
  540300    305.32827    -1561.534    497.66546    314.06159   -650.51058     36976.26 
  540400    297.10371    -1515.906    502.15904    327.06618    181.39157     36976.26 
  540500    299.65595   -1588.3337    514.40747    278.40505   -239.67272     36976.26 
  540600    306.01075   -1573.2348     486.6087      294.384   -103.45747     36976.26 
  540700    312.26084    -1541.968    483.57499    350.82342    195.23613     36976.26 
  540800    299.20169   -1522.6435    493.50005    321.13774   -170.36234     36976.26 
  540900     306.0927   -1530.8116    498.69197    349.26033   -225.19608     36976.26 
  541000    302.37077   -1515.8525    486.97963    335.71024   -133.64762     36976.26 
  541100    291.05507   -1510.4309    502.26834    305.35337   -274.56658     36976.26 
  541200    302.27307   -1571.3175    495.17592    288.00062   -305.17373     36976.26 
  541300    305.36189   -1572.8488    501.34313    306.57623    73.955736     36976.26 
  541400    295.28798   -1538.8842    508.48893    302.22361    245.99949     36976.26 
  541500    292.66165   -1543.5019    505.74159    283.00606   -179.20358     36976.26 
  541600    299.38429   -1541.5951    495.13716    304.64737    98.478678     36976.26 
  541700    291.10374   -1526.4878    498.14106    285.38882   -42.585291     36976.26 
  541800    292.68644   -1566.6608    504.93372     259.1511    464.40312     36976.26 
  541900    306.27653    -1559.976    512.43617     334.6697     603.1998     36976.26 
  542000    296.38883   -1565.1606    515.61808    288.04435    251.50435     36976.26 
  542100    303.36941   -1550.8316    509.01015    327.26845    115.95212     36976.26 
  542200    303.30298    -1523.241    506.41006    351.95922   -302.19907     36976.26 
  542300    300.55571   -1500.9299    493.60755    349.06944   -63.197491     36976.26 
  542400    289.77501   -1489.1647    523.35746     341.9319    958.66214     36976.26 
  542500    305.53454   -1476.8007    511.22843    413.28868     170.7909     36976.26 
  542600     305.6698   -1510.2995    544.71637    413.88835    333.98475     36976.26 
  542700    305.32977   -1518.4473    530.94667    390.43623    528.73512     36976.26 
  542800     309.0463    -1501.994    489.60313    382.31856    115.97475     36976.26 
  542900     299.0603    -1522.483    499.76609    326.92623   -432.58119     36976.26 
  543000    300.86344   -1510.6424    491.05606    338.19425    -543.8296     36976.26 
  543100    302.56661   -1478.9887    485.27985    371.75805   -583.09542     36976.26 
  543200    289.76547   -1465.0084    516.95511    359.64273   -413.43754     36976.26 
  543300    290.67874   -1504.3453    471.11518     278.5875   -624.81255     36976.26 
  543400    301.09902    -1555.124    506.04329    309.76301   -457.20419     36976.26 
  543500    297.63204   -1529.2927    495.86576    309.77047    240.59321     36976.26 
  543600    299.94235   -1534.0844    494.80032     314.3397   -147.29103     36976.26 
  543700    300.31564   -1524.6067    506.08682    336.78846   -368.67881     36976.26 
  543800    302.58821   -1516.0998    492.51604    341.98056   -504.25628     36976.26 
  543900    301.39682    -1536.371    473.70026     297.5169   -168.87096     36976.26 
  544000    309.83525   -1542.8219    499.73498    355.18294     588.0998     36976.26 
  544100    293.65973   -1525.3806    488.14161    288.03167    29.821784     36976.26 
  544200    303.29751   -1553.1866    495.45005    311.02884    441.61199     36976.26 
  544300    303.42354   -1520.5639    492.35492    341.12524     382.6123     36976.26 
  544400    302.42139   -1500.4061    490.83573    355.24119   -8.4895703     36976.26 
  544500    296.91399   -1531.1852    502.22634    310.99811   -421.23826     36976.26 
  544600    304.96004   -1511.8316    511.60598    376.04276   -323.28309     36976.26 
  544700    305.55429   -1519.3291    517.81931    377.44036    -497.3835     36976.26 
  544800    307.82916   -1511.3119    527.89968    405.80425   -345.30432     36976.26 
  544900    297.73426   -1574.2585    510.60877    280.00902   -129.80493     36976.26 
  545000    296.47585   -1561.9752    507.42596    283.43038    65.169645     36976.26 
  545100    288.12184   -1540.2637    493.00014    253.01491   -92.598542     36976.26 
  545200    309.93295   -1554.3466    492.59653    336.96076    74.143682     36976.26 
  545300    292.65998   -1563.2711     504.3007    261.78835     302.7317     36976.26 
  545400    310.51315   -1580.0179    487.97504    309.28638    63.874979     36976.26 
  545500    300.28754   -1558.0627    468.56086    265.67978   -172.28548     36976.26 
  545600    291.41954    -1553.041    513.71035    275.83009     281.1325     36976.26 
  545700     296.6515   -1504.3772    514.94767    349.34279       220.13     36976.26 
  545800    299.00995   -1533.6241     461.9083     277.7001    486.70301     36976.26 
  545900    294.47308   -1520.8008    535.94214    344.08263    640.09322     36976.26 
  546000    284.69373   -1526.9894    457.37921     215.1973   -46.281174     36976.26 
  546100    309.38198   -1509.6206    497.47654    384.08023   -64.618139     36976.26 
  546200     297.3907   -1496.5725     522.6996    368.23543    393.05292     36976.26 
  546300    295.61578   -1504.5296     478.1145     307.6831    386.08037     36976.26 
  546400    303.11032   -1537.8857    486.59525    316.63022     354.4357     36976.26 
  546500    305.00483   -1506.8303    494.66803     364.3082   -36.891047     36976.26 
  546600    298.92863   -1523.6448    498.65565    324.05979    83.278908     36976.26 
  546700    299.46203   -1513.8221     497.0392    334.67319   -104.28584     36976.26 
  546800    302.07129   -1530.6753    478.82027    311.37653    147.63516     36976.26 
  546900    303.88778   -1523.6958    525.83436    373.56784   -305.83011     36976.26 
  547000    301.10575   -1533.0914     500.8058     326.5885   -349.17352     36976.26 
  547100    298.90671    -1533.192    492.97037    308.72838    764.50413     36976.26 
  547200    304.14194   -1552.7146    490.13892    310.00058   -190.99366     36976.26 
  547300    310.79336   -1527.6185    508.20621    383.18155    120.65744     36976.26 
  547400    297.95725   -1509.6369    529.99562     365.0238    -546.5034     36976.26 
  547500    292.86756   -1495.5403    533.27162    359.42695   -420.57646     36976.26 
  547600    303.93063   -1500.5995     517.6531    388.67626   -988.76199     36976.26 
  547700    296.08442   -1480.3177    499.63471    355.53014   -787.24438     36976.26 
  547800    305.35221   -1521.7303    502.89947    359.20729   -666.26615     36976.26 
  547900     303.1015   -1561.0872    514.38235      321.176   -829.60229     36976.26 
  548000    310.99311   -1548.7191    471.67336    326.44945   -403.15044     36976.26 
  548100     296.2408   -1516.4442    506.53825    327.01296    -191.9513     36976.26 
  548200    305.09756   -1528.4653    511.15136    359.57503    1.0960472     36976.26 
  548300    295.57851    -1500.973    503.31864    336.27564   -419.74515     36976.26 
  548400    295.38206   -1485.6363    517.12395     364.5311   -214.49996     36976.26 
  548500    301.03704   -1478.2415    522.42786    402.75035    -289.0802     36976.26 
  548600    295.93483   -1487.9486    508.19648    355.78594   -313.32678     36976.26 
  548700    305.74959   -1531.2337    490.39516    338.99293    156.15174     36976.26 
  548800    308.90546   -1563.6332    499.83556     330.2761   -215.25628     36976.26 
  548900    297.22842   -1522.3378    490.49211    309.53023   -849.74757     36976.26 
  549000    309.01745   -1549.5298    499.79134    344.84073   -846.32411     36976.26 
  549100     304.4334   -1487.3956    505.95067    392.44674   -539.28318     36976.26 
  549200    289.35596   -1485.2511    502.44435    323.04116   -1066.7454     36976.26 
  549300    301.66633   -1474.7959    503.96912    390.57719   -577.09917     36976.26 
  549400    307.66379   -1468.1813     515.1248    435.41368   -397.08596     36976.26 
  549500    305.90548   -1454.2394    489.35278    415.64843   -315.59352     36976.26 
  549600      303.762   -1458.7263    515.72782    427.86319   -652.39658     36976.26 
  549700    301.52402   -1497.2792    497.48273    360.96532   -772.02037     36976.26 
  549800    292.71643   -1488.4497    503.42195     335.9858   -966.26998     36976.26 
  549900    295.64262   -1519.7077     490.7611    305.27271   -460.49816     36976.26 
  550000    305.11865   -1537.5397    462.81005    302.25444    248.96958     36976.26 
  550100    297.33414   -1523.3707    504.48573    322.96805   -209.70756     36976.26 
  550200    291.32113   -1510.8865    504.82003    308.65023     172.8753     36976.26 
  550300    300.05056    -1455.577    500.01489    398.54995    146.59845     36976.26 
  550400    292.04501   -1505.8313    513.39306    325.54526    111.36886     36976.26 
  550500    296.76742   -1540.3655    496.06601    294.99595    445.55613     36976.26 
  550600    290.56138   -1462.5517    516.23183    364.96803   -130.53268     36976.26 
  550700    301.32195   -1496.8566    503.38886    366.38206   -1006.3842     36976.26 
  550800     288.9784   -1550.4739    508.79641    262.46655   -771.40103     36976.26 
  550900    302.58695   -1521.3362     460.8294    305.05192   -30.887614     36976.26 
  551000    293.01986   -1512.8815    494.03537    303.53676   -396.55073     36976.26 
  551100    296.82048    -1515.142     498.9279    323.32081    153.08043     36976.26 
  551200    300.11245   -1521.7317    500.47293    333.13261   -114.07384     36976.26 
  551300    289.19263   -1519.0538    483.74556    269.80263    306.47507     36976.26 
  551400    301.91356   -1520.9888    521.89667     363.4276    250.97163     36976.26 
  551500    301.79053   -1549.7335    474.92168    287.15264   -338.87618     36976.26 
  551600    298.23653    -1531.631    493.29393     307.5884   -278.70509     36976.26 
  551700    299.67508   -1495.0311    490.08805    347.47451   -798.42141     36976.26 
  551800    295.52361   -1503.3719     487.0551    317.36536   -318.13811     36976.26 
  551900    300.19271   -1494.6864    513.14902    373.21629   -351.37309     36976.26 
  552000    306.98172   -1472.9961    505.19597    417.59198   -69.931911     36976.26 
  552100    296.30463   -1489.9905    499.27155    346.48792    229.02569     36976.26 
  552200    306.51967   -1510.3874     516.3458    389.26523    276.22884     36976.26 
  552300    304.51625   -1502.4589    503.66208     375.4687    412.14463     36976.26 
  552400     288.2757   -1503.9173    513.30502    310.36052    336.44788     36976.26 
  552500    295.65204   -1527.8204    508.62681    315.06821    669.22064     36976.26 
  552600    299.32104   -1543.1637    495.18642    302.84259    47.890703     36976.26 
  552700    298.03551   -1544.2908    502.70476    303.43228    396.14675     36976.26 
  552800    308.25362   -1523.5394     505.4994    373.09204    282.60711     36976.26 
  552900    290.33104   -1509.4707    507.42292    308.20062   -273.97216     36976.26 
  553000    300.58462   -1505.4748     498.4358    349.48326    359.08587     36976.26 
  553100    308.81253   -1530.1482    511.44239    374.94856    135.52998     36976.26 
  553200    307.01001   -1544.1973    481.59631     322.9187   -95.453812     36976.26 
  553300    294.54456   -1487.4451    502.54983    344.36853   -366.48479     36976.26 
  553400    309.56576   -1499.6024    490.75744    388.20879   -948.50155     36976.26 
  553500     293.5312   -1490.0893    503.25248     337.8538   -1021.0706     36976.26 
  553600    296.88159   -1513.4933    480.18139    306.49883    -1195.598     36976.26 
  553700    295.95788   -1534.0655    510.37448    311.95108   -952.42019     36976.26 
  553800    301.21891   -1491.5432    478.08976    345.93139   -163.80054     36976.26 
  553900    302.25868   -1543.5414    500.66786    321.20369   -90.945615     36976.26 
  554000    287.21495   -1545.4135    492.91566    243.68788    -36.27269     36976.26 
  554100    298.45258   -1563.3378    478.28473    261.84747    232.47014     36976.26 
  554200    295.95123   -1585.4913    470.34293    220.46365    538.12998     36976.26 
  554300    298.37716   -1587.8176    457.52732    216.26989     133.2557     36976.26 
  554400     299.1413    -1563.983    510.21078    296.23642    67.453351     36976.26 
  554500    297.14503    -1569.826    483.05986    254.23343    261.62775     36976.26 
  554600    290.80948   -1569.1098     472.9498    216.24763    272.09953     36976.26 
  554700    297.40698   -1595.2578     480.2056    227.12953    256.86526     36976.26 
  554800    290.15588   -1573.0329     475.7959    212.22091    672.92962     36976.26 
  554900    303.12715   -1543.5372    473.34073    297.80013    448.86476     36976.26 
  555000      296.704   -1560.8894    502.60671    280.72657    715.30903     36976.26 
  555100    293.61398   -1557.2638     474.9024    242.70276    104.20048     36976.26 
  555200    298.41031   -1520.7834    483.25461    309.18094    340.48383     36976.26 
  555300    302.11599   -1582.1425    481.53087    262.82167   -20.243554     36976.26 
  555400    295.32723   -1527.8201    494.86013    299.83596     227.8164     36976.26 
  555500    307.10971   -1538.1396    519.08796    366.91802   -198.43534     36976.26 
  555600    289.50946   -1535.5969    500.25965    271.20341   -469.45709     36976.26 
  555700     300.3477   -1546.4834    482.06294    291.03263    152.08395     36976.26 
  555800    305.74127   -1608.7087     494.1342    265.21941    481.55815     36976.26 
  555900    292.06138     -1544.83    467.60268    240.83008    464.23588     36976.26 
  556000    293.05156   -1497.8047    493.53862    318.25994    539.80873     36976.26 
  556100    293.36383   -1516.3454    530.47858    338.06845   -125.70864     36976.26 
  556200    302.89181   -1543.4462    507.47489    330.96318    397.17081     36976.26 
  556300    295.74917   -1483.4336    513.91108    365.17766    676.03866     36976.26 
  556400    291.88346   -1531.9025    498.37761    283.72955    744.64339     36976.26 
  556500    304.69006   -1518.4076    525.32358    381.96592    711.27385     36976.26 
  556600    307.33124   -1567.7594    514.25892    333.46888    232.55736     36976.26 
  556700    298.91887   -1558.4841    472.52759    263.04836    75.116772     36976.26 
  556800    294.79479   -1539.6887    492.36169    283.06609   -42.401632     36976.26 
  556900     306.4128   -1543.9679    509.24172    348.09838   -226.75115     36976.26 
  557000    288.28243   -1506.9826     494.0464      288.067   -201.91443     36976.26 
  557100    302.37929   -1527.8204    510.26585    347.06701   -235.13392     36976.26 
  557200    294.24655   -1513.8846    481.84038    295.87473   -819.29959     36976.26 
  557300    301.77765   -1549.0837    526.05639    338.87903   -478.18903     36976.26 
  557400    296.49065   -1562.8377    477.48738    252.69611   -364.48262     36976.26 
  557500    304.27286   -1572.2909    452.73756    253.61376   -420.24159     36976.26 
  557600    288.12965   -1552.8289    515.93106    263.41583   -708.89936     36976.26 
  557700    307.34849   -1581.9106    489.46169    294.59837    59.284363     36976.26 
  557800    303.40842   -1525.6392     496.7286    340.35534    164.31263     36976.26 
  557900    288.25858   -1559.9276     500.0788    241.04677    372.05972     36976.26 
  558000     305.4764   -1546.0968    488.61387    321.11569    -194.1025     36976.26 
  558100     298.7729   -1528.8013    484.17619    303.72092    145.84845     36976.26 
  558200    304.18895   -1544.6859    508.17907    336.28161     97.24679     36976.26 
  558300    301.96494   -1582.0968    496.74941    277.40424   -285.24298     36976.26 
  558400    295.35799   -1574.8721    508.20028    266.26295   -65.011991     36976.26 
  558500    290.20536   -1556.5669    506.24379    259.35809    479.76034     36976.26 
  558600    290.82992   -1515.4174    527.36662    324.44903   -23.994777     36976.26 
  558700     280.5856   -1534.1016    514.28493    246.45113    137.61124     36976.26 
  558800    291.83089   -1607.7011    505.53237    214.84848    46.525699     36976.26 
  558900    310.92165   -1583.1842    498.37022    318.35874   -375.13327     36976.26 
  559000    290.93942   -1579.1074    509.66255     243.5492    32.386233     36976.26 
  559100    301.97465   -1515.0075    496.59952    344.38744    77.358909     36976.26 
  559200    305.20597   -1549.0181     516.9884    345.34849   -379.92595     36976.26 
  559300    298.53683   -1516.2943    512.73455    343.72101   -139.22227     36976.26 
  559400    307.39534   -1506.3696    530.48732    411.37646    274.03169     36976.26 
  559500    297.54513   -1514.0459    520.86264    349.62195   -644.59844     36976.26 
  559600    295.31991   -1565.0417    479.52763    247.24882   -398.40735     36976.26 
  559700    285.55459   -1508.7418    520.54398    300.49471   -285.99706     36976.26 
  559800     305.9126   -1537.7901    510.94629    353.72339    36.562218     36976.26 
  559900    297.96164   -1514.2733    511.24788    341.65948     106.7542     36976.26 
  560000    298.97637   -1485.4717    484.27155    348.06419   -149.43756     36976.26 
  560100    306.93746   -1540.0404    500.87303    346.02492   -405.21719     36976.26 
  560200    307.65661     -1549.37    496.42999    335.49772    -321.6421     36976.26 
  560300    293.54239   -1555.8168    475.05606    243.98039    -552.2229     36976.26 
  560400    293.08529   -1530.6375    521.73582    313.77653     -279.039     36976.26 
  560500    304.04611   -1550.2588    500.53969    322.42475   -226.09135     36976.26 
  560600    296.33824   -1546.4107    496.79253    287.74038   -127.51226     36976.26 
  560700     308.9467   -1582.2512    507.12734    319.13606    1.1087204     36976.26 
  560800    288.37869   -1544.7714    501.26622    257.93244   -171.06038     36976.26 
  560900    304.32332   -1546.2572    517.74472    344.88236    319.17531     36976.26 
  561000    287.90038   -1517.9297     527.5971    308.94635   -341.58211     36976.26 
  561100    303.21921   -1545.4939    522.95865    345.87677   -4.6077226     36976.26 
  561200    301.24595   -1527.6753    509.04166    340.87323   -38.245452     36976.26 
  561300    294.03833   -1558.8083    497.21814    265.38906   -216.58379     36976.26 
  561400     301.4862    -1541.017    485.33628    304.91039     -344.409     36976.26 
  561500    306.82082   -1524.4403    495.03709    355.26272   -317.53915     36976.26 
  561600    303.71424   -1529.3536    481.68703    322.97952    9.5166799     36976.26 
  561700    296.02377    -1515.233    511.92324    332.62964   -702.61526     36976.26 
  561800    298.66771   -1506.6663    493.84861    335.05364   -624.34199     36976.26 
  561900    290.08008    -1524.123    527.43302    312.42583   -532.08223     36976.26 
  562000    307.88802    -1506.107    502.15204    385.52714    101.18916     36976.26 
  562100    297.12334    -1475.787    541.75132    406.86605   -737.31706     36976.26 
  562200    297.36007   -1522.1515    501.18718    321.00575    229.38449     36976.26 
  562300     307.9726     -1568.07    518.91521    340.70899    -183.3417     36976.26 
  562400     298.3214   -1520.8284    493.04067    318.52078    775.63933     36976.26 
  562500    290.53573   -1506.5161    544.58692    349.24297    677.88955     36976.26 
  562600    292.16863   -1511.2673    511.73064    319.00474    347.12331     36976.26 
  562700    306.90654   -1526.8264    534.58042    392.80675     986.2202     36976.26 
  562800    297.94424   -1493.4517    507.48261    358.63727    235.70545     36976.26 
  562900    308.45035   -1488.9794    513.94057    416.98104     81.07367     36976.26 
  563000    298.98113   -1531.7445    514.69815    332.23947   -412.22071     36976.26 
  563100    305.61533   -1506.2692    495.50132    368.45772   -151.77882     36976.26 
  563200    287.18395   -1537.7196    511.68984    270.01603   -512.19572     36976.26 
  563300    314.79522   -1555.2335    535.12991    400.55037    340.60545     36976.26 
  563400    294.94626   -1537.3982     490.4541    284.13259    53.534982     36976.26 
  563500     291.4455   -1552.3923    502.66034    265.54599    404.39904     36976.26 
  563600    295.06358   -1530.1318    509.74255    311.21692    624.93725     36976.26 
  563700     296.6579   -1464.2331    520.07604    394.64417    258.83875     36976.26 
  563800    308.23889   -1473.9992    505.45895    422.52538    142.81337     36976.26 
  563900    292.74562   -1473.4819    540.55937    388.22275    487.43558     36976.26 
  564000    297.77412   -1464.1061    484.67721    364.40974   -132.11508     36976.26 
  564100    292.34813   -1485.4055    491.93081    325.87681      -224.78     36976.26 
  564200    289.10638   -1491.3539    514.55792    327.92567    -1005.416     36976.26 
  564300     303.1709   -1526.3738    485.49229    327.31248   -490.93781     36976.26 
  564400    296.42961   -1497.7715    522.33443    362.33385   -71.499856     36976.26 
  564500    304.25193   -1489.4703    513.38248    396.98479    80.384114     36976.26 
  564600     296.0401   -1474.3196    500.76475    362.45822   -93.570043     36976.26 
  564700    299.72632   -1473.6779    514.83247    393.80342   -170.55686     36976.26 
  564800     288.9333   -1486.2135    488.39457    306.12153   -455.51631     36976.26 
  564900    304.56537   -1463.6036    535.99489    446.87848   -598.30296     36976.26 
  565000    307.23606   -1470.2761    508.04646    424.31021    387.75049     36976.26 
  565100    298.76056   -1504.4575    505.10773    348.94064    570.56347     36976.26 
  565200    295.12343   -1498.7971    491.67812    324.75725     55.98384     36976.26 
  565300    295.65456   -1542.8498    521.78167    313.20509    653.52457     36976.26 
  565400    301.61067   -1491.7958    520.18814    389.54509    799.66649     36976.26 
  565500    291.32049   -1474.1335    504.18668    344.76698    351.98322     36976.26 
  565600    288.09363   -1474.4035    520.58504    346.33261   -350.31408     36976.26 
  565700    304.81476   -1496.0775    512.63467    392.16979    181.89409     36976.26 
  565800    297.54936   -1464.9435    512.67321    390.55402   -121.86551     36976.26 
  565900     312.8764   -1490.5232    495.53911    417.01028    425.88368     36976.26 
  566000    288.11299   -1490.2921    534.81259    344.75897   -105.58253     36976.26 
  566100    292.29167   -1536.6953    523.25335    305.65474    199.81321     36976.26 
  566200    291.67605   -1518.0693    494.73933    292.98838    257.26407     36976.26 
  566300    307.71392   -1517.9223    526.79091    397.56503    248.20499     36976.26 
  566400    293.37669   -1502.7797      487.102    308.31556   -72.734161     36976.26 
  566500    305.37893   -1515.2848    510.36249    373.23638   -309.85735     36976.26 
  566600    294.20879   -1541.0101    494.92893     281.6673   -93.301224     36976.26 
  566700    299.70772    -1514.978    500.48618    338.07308   -290.50507     36976.26 
  566800    304.41357   -1534.7709     488.1762    327.20748    110.12338     36976.26 
  566900    291.39949   -1515.9856     512.1928    311.27745    69.230052     36976.26 
  567000    302.36614   -1521.7811     494.4449    337.22596    429.17851     36976.26 
  567100    300.80951   -1469.2607    515.18582    403.46237    42.538126     36976.26 
  567200    303.86412   -1517.0912    519.35413    373.58544    376.16511     36976.26 
  567300    298.45649   -1500.4208    519.36783    365.86515    368.76254     36976.26 
  567400    305.27753   -1500.6642    506.03643    383.07333    387.25021     36976.26 
  567500    289.21163   -1516.0995    511.37466    300.47175   -415.33396     36976.26 
  567600    309.66004   -1527.3957    497.18982    367.27329    513.36481     36976.26 
  567700    295.61942   -1508.4051     476.4163    302.12578    333.59392     36976.26 
  567800    287.98155   -1534.4891    495.83628    260.99246   -224.77846     36976.26 
  567900    303.60649   -1577.6606    492.90183    285.40105    272.51633     36976.26 
  568000    311.71274   -1519.5272    482.70062    369.91632    75.660763     36976.26 
  568100    298.30708   -1513.3362    487.21108    320.11874    23.349799     36976.26 
  568200    292.15627     -1548.86    501.20382    270.82939   -109.87327     36976.26 
  568300    302.79456   -1546.6345    494.70064    314.56179   -581.00219     36976.26 
  568400    301.66214   -1549.0579    490.56643    302.89357    278.74909     36976.26 
  568500    305.57432   -1510.8659    501.89293    370.06755    442.51394     36976.26 
  568600    298.93001   -1524.8119    471.90027    296.14353     31.51132     36976.26 
  568700    305.63368   -1543.4747    506.72337    342.55711    643.67145     36976.26 
  568800    293.53639   -1554.7262    492.98198    262.96981    552.63468     36976.26 
  568900    310.27631   -1540.9201    518.05981    377.40002     135.4978     36976.26 
  569000    294.07115   -1563.5673    482.61526    246.17531   -520.48401     36976.26 
  569100     297.2682   -1503.2089    521.60587    359.95247    32.198013     36976.26 
  569200    309.69961   -1542.2378    486.85399    342.27398   -23.398344     36976.26 
  569300    298.99474   -1563.6614    499.79214    285.47798   -21.365692     36976.26 
  569400    308.56904    -1532.282    498.51318    358.78671   -190.37094     36976.26 
  569500    289.57551   -1494.2991    494.99342    307.53303   -243.11195     36976.26 
  569600    293.17507   -1520.2386    497.80494    300.64969     52.17499     36976.26 
  569700    306.33894   -1550.4517    479.56765    311.60713    260.13727     36976.26 
  569800    293.63966   -1589.7727    491.33867    226.74607    80.192399     36976.26 
  569900    296.90734   -1575.0433    503.69085    268.57449   -84.590787     36976.26 
  570000    290.56553   -1567.0648    488.83022     233.0721   -333.79482     36976.26 
  570100    299.88069   -1544.7881     514.4008    322.95822   -352.91809     36976.26 
  570200    299.56791   -1544.6912    494.44955    301.69221   -79.003649     36976.26 
  570300    287.63393   -1595.0828    487.73734    190.73108    159.64308     36976.26 
  570400    295.92009   -1542.6092    494.49827    287.36062     148.1506     36976.26 
  570500    288.95521   -1504.9015    530.69167    329.82959    71.333939     36976.26 
  570600    304.73368   -1525.1354    515.17281    365.28418   -31.882681     36976.26 
  570700    295.09861    -1516.273    515.84047    331.33172    -183.3833     36976.26 
  570800    294.94353   -1563.9013    486.27989    253.44299   -390.25229     36976.26 
  570900    297.28864   -1547.0572    491.52616    286.11672   -502.52503     36976.26 
  571000    298.92276   -1539.5338    512.59125    322.07986    -398.6881     36976.26 
  571100    303.89586   -1483.7686    486.70514     374.4023   -877.76304     36976.26 
  571200    290.85652   -1508.5424    503.80686    307.88441   -798.80523     36976.26 
  571300    304.96198   -1490.8404    534.86276    420.29946   -678.24308     36976.26 
  571400    296.49812   -1516.0433    498.33898    320.37582   -900.35185     36976.26 
  571500     299.5748   -1487.5399    476.46807    340.89315     -242.311     36976.26 
  571600    300.97479   -1482.1328    519.01209    395.16237     26.81321     36976.26 
  571700    293.09986   -1469.2373    503.94034    357.44704   -165.10297     36976.26 
  571800    308.57643   -1481.9478    540.63512    451.27624    178.59251     36976.26 
  571900     303.2035   -1475.1509    501.16928    394.35955    608.17987     36976.26 
  572000     290.5812   -1521.3438     510.0643    300.09786     217.3229     36976.26 
  572100    305.00698   -1550.1814    482.75018    309.04897   -144.15611     36976.26 
  572200    309.92294    -1514.106    495.34464    379.90432    380.00678     36976.26 
  572300    291.80481   -1495.5805     512.7736    334.09259    21.778907     36976.26 
  572400     297.8824   -1518.9143     517.8038    343.21678    490.27685     36976.26 
  572500    302.49443   -1507.9015    506.14226    363.38192    151.26165     36976.26 
  572600     299.9206   -1514.4564    493.53061    332.59987    524.88674     36976.26 
  572700    307.57208   -1530.3307    496.94176    354.66743   -163.76891     36976.26 
  572800    306.81536   -1520.9121    488.69253    352.42172   -241.44369     36976.26 
  572900    307.82234   -1502.2266    521.44108    408.40025   -223.62556     36976.26 
  573000    290.26656   -1532.0095    497.63009    275.57806   -706.20843     36976.26 
  573100    294.52774   -1513.8324    517.64391    332.99936   -230.87681     36976.26 
  573200    297.28418   -1469.6114    518.87878    390.89491    61.120286     36976.26 
  573300     294.0164   -1508.3624    514.64002    333.15783    258.92347     36976.26 
  573400     293.5447   -1532.1816    526.31261    318.88251    21.315243     36976.26 
  573500    303.92607   -1539.4388    514.10607    346.26928    49.923704     36976.26 
  573600    302.96992   -1554.7107    492.52685    305.10316   -511.55734     36976.26 
  573700    302.37274   -1530.1273    490.93302    325.39763    283.35066     36976.26 
  573800    315.40819   -1511.0488     471.3179    383.68934   -98.722195     36976.26 
  573900    299.70341   -1493.2869    492.52017    351.77866   -246.32971     36976.26 
  574000    294.06662   -1523.6279    502.57495    306.05392   -35.923189     36976.26 
  574100    289.53173   -1505.8653    493.88356    294.65947    181.09259     36976.26 
  574200    309.75027   -1533.3043    504.54404    369.12616    520.74074     36976.26 
  574300    293.50765   -1547.2544    489.69505    267.02497   -253.99632     36976.26 
  574400    293.80726    -1506.394     519.5444    339.08681   -182.40522     36976.26 
  574500     289.7726   -1509.5788    497.76329    295.91269   -663.00364     36976.26 
  574600    306.31834   -1536.3558    506.27669    352.31915    74.900851     36976.26 
  574700    297.13502    -1547.162    509.26187    303.05428   -88.212306     36976.26 
  574800    303.56154   -1587.7074    493.57566    275.82526    271.84897     36976.26 
  574900    310.60479   -1590.2968    501.85431    313.30035    622.40361     36976.26 
  575000    299.85814   -1577.1136    493.99285      270.123    741.44634     36976.26 
  575100    312.70475   -1553.9528    485.42867    342.69567    118.02503     36976.26 
  575200      296.504   -1549.3969    527.25181    315.96156    62.861302     36976.26 
  575300     296.9268   -1558.6261    476.59223    257.98088    563.67948     36976.26 
  575400    294.47014   -1543.2826     495.2676    280.91297    461.30931     36976.26 
  575500     295.9664   -1530.0696    496.70168    302.31258    133.13547     36976.26 
  575600    299.54014   -1517.4548    491.28835    325.64211    466.69834     36976.26 
  575700    303.21837   -1521.5951    504.73078    351.54393    18.674687     36976.26 
  575800    304.17884   -1520.0233    502.92073     355.6402    598.16785     36976.26 
  575900    296.33474   -1516.6729    489.71006    310.37999   -8.7390655     36976.26 
  576000    307.43822   -1527.4609    475.39627    335.38762   -22.654277     36976.26 
  576100    295.32352   -1526.7553    502.27141    308.29538    103.85806     36976.26 
  576200    304.70646   -1518.8276    473.05355    329.34987    328.51787     36976.26 
  576300    301.34028   -1483.2253    504.81147    381.51867    38.648543     36976.26 
  576400    293.61936   -1485.9194    488.17744    327.34646   -265.56473     36976.26 
  576500    305.79382   -1511.0033    501.85546    370.88326    28.092605     36976.26 
  576600    300.05796   -1494.3583    503.58825    363.37543    990.70446     36976.26 
  576700    295.81839   -1517.8341    529.22155    346.39995    331.08958     36976.26 
  576800    298.44108   -1488.3875    510.22296    368.68406   -74.867514     36976.26 
  576900    304.91554   -1471.9079     517.0594    421.21901   -716.17827     36976.26 
  577000    290.64158   -1486.6543    467.44111    292.43672   -1407.6861     36976.26 
  577100    303.65277   -1498.5022    521.82343    393.68985   -689.05956     36976.26 
  577200    284.94733   -1506.1998    505.44091    285.19309   -944.40698     36976.26 
  577300    295.05759    -1468.976    487.24969     349.8528   -172.91245     36976.26 
  577400    304.87529   -1504.7517    489.45424    360.58836   -118.47775     36976.26 
  577500    297.57374   -1500.9473    480.13533    322.12236    14.266715     36976.26 
  577600    299.38961   -1510.9734    508.49558    348.65142    149.15148     36976.26 
  577700    303.65868    -1529.377    496.79442    337.81278    238.14388     36976.26 
  577800    312.33072   -1496.4069    498.86449    411.98939    29.904202     36976.26 
  577900    291.33846   -1471.8809    510.16223    353.07622    440.37828     36976.26 
  578000    293.80774   -1518.3147    522.21815    329.84206    578.20884     36976.26 
  578100    288.89236   -1531.8855    515.41706    287.28728    99.365344     36976.26 
  578200    294.72347   -1517.1902    523.80167    336.68264    178.51583     36976.26 
  578300    298.00082   -1479.3576    509.82105    375.32516    208.93823     36976.26 
  578400    306.63579   -1504.4263    527.39437    406.79892    477.27078     36976.26 
  578500    297.16739   -1524.0827    499.79313    316.81092     761.4397     36976.26 
  578600    299.82465   -1558.0742    511.08829     306.1067    276.29163     36976.26 
  578700    294.62936   -1527.5436    508.50267    310.60562    561.91499     36976.26 
  578800     291.9184   -1504.8267    516.93095    329.51632    372.15165     36976.26 
  578900    299.66796   -1518.9567    549.20803     382.6368    126.92533     36976.26 
  579000    297.80708    -1524.853    508.12202    327.25644    480.25967     36976.26 
  579100    300.28193    -1549.447    521.97224    327.68146   -97.961355     36976.26 
  579200    297.35189   -1504.6653    519.20951    356.47742   -94.099437     36976.26 
  579300    291.20409   -1546.2623    486.97149    254.89765   -344.73341     36976.26 
  579400    292.50202   -1459.1945      513.203    374.05449   -635.03388     36976.26 
  579500    303.11313   -1465.6474    524.40802    426.69391   -607.46235     36976.26 
  579600    303.72758   -1476.7302    479.28182    373.25788    48.308604     36976.26 
  579700    293.01403   -1476.4316    517.01958     362.9446   -256.02048     36976.26 
  579800    296.10931    -1488.471    507.86596    355.72036    103.75815     36976.26 
  579900     301.3254    -1444.823    500.65301    415.69534    221.08033     36976.26 
  580000    301.87933   -1489.4068    512.59181    385.55023   -203.66165     36976.26 
  580100    297.45723    -1469.062    510.08991    383.43648    32.426951     36976.26 
  580200    295.47724   -1495.3242    511.59611    349.74482    165.16558     36976.26 
  580300    302.10975   -1478.0008    500.66092     386.0653     229.9064     36976.26 
  580400    304.32763   -1525.9609    524.39994     371.8533     399.7407     36976.26 
  580500     296.0276   -1517.9951    510.33552    328.29713   -139.95698     36976.26 
  580600    305.57077   -1525.8949    502.27061    355.40022   -161.74272     36976.26 
  580700     290.6344   -1497.6788    524.17095    338.10961   -113.19325     36976.26 
  580800    312.52225   -1489.9358    497.26061    417.72101    -391.4804     36976.26 
  580900    300.32877   -1495.1381    502.67106    362.90057   -368.39243     36976.26 
  581000    300.99689   -1496.2899    492.82617    354.91911   -250.25262     36976.26 
  581100    283.33801   -1526.4435     512.9434    265.18917    -1.009467     36976.26 
  581200    300.93166   -1523.2686    522.28429    357.10412    111.34024     36976.26 
  581300    296.99974   -1503.3508    503.19743    340.19053    6.7438136     36976.26 
  581400    298.42745   -1498.4826    498.34053    346.64496    208.30853     36976.26 
  581500    310.30447   -1504.3546    512.86733    408.90012   -108.08238     36976.26 
  581600    291.35672   -1495.2275    508.95232    328.60209   -423.98302     36976.26 
  581700    300.74371    -1527.586    482.48962    312.14391   -414.34278     36976.26 
  581800     312.3051   -1535.2678    509.46234     383.6107   -181.64316     36976.26 
  581900    300.38782   -1511.4701    520.72836     364.8924    84.732829     36976.26 
  582000     310.1896    -1520.053    501.16645    380.98252    207.43953     36976.26 
  582100    293.50862   -1538.6557    499.71119    285.64413    205.52939     36976.26 
  582200    303.00933   -1532.2417    530.03469    365.25785    53.322411     36976.26 
  582300    297.94405   -1538.0999     508.8148     315.3204    560.35306     36976.26 
  582400    299.91318   -1549.7672    509.25009    312.97503    533.53285     36976.26 
  582500    296.12477   -1559.8832    514.42573    290.93776    362.82605     36976.26 
  582600    305.28904   -1548.1644    497.93952     327.5282   -131.48771     36976.26 
  582700    306.75781   -1563.2607     488.5247    309.64558    257.54432     36976.26 
  582800    297.70877   -1550.8806    497.82695    290.49005    46.594648     36976.26 
  582900    303.42997   -1572.7879    500.43669    297.01202   -180.93926     36976.26 
  583000    297.24168   -1562.4622    495.15394     274.1275    114.73756     36976.26 
  583100    302.26534   -1571.9041     483.4018    275.60498   -107.93021     36976.26 
  583200    300.52125   -1560.1854    510.32702    306.37788    291.88277     36976.26 
  583300    307.46131   -1542.5725    500.97329    345.95717    498.57792     36976.26 
  583400     296.8549   -1567.5297    485.20024    257.36079    659.42801     36976.26 
  583500    301.56509   -1536.8426    517.07539    341.17988    780.06818     36976.26 
  583600    301.12978   -1537.0312    514.01998    335.97139    1042.4779     36976.26 
  583700    290.01806   -1547.9686    518.88867    279.75602    987.78187     36976.26 
  583800    294.98483   -1514.5031    506.33561    323.08319    392.42201     36976.26 
  583900     298.7785    -1554.483    477.13211    271.02043    103.15425     36976.26 
  584000    303.24576   -1548.0504    510.55173    331.03314   -330.14911     36976.26 
  584100    289.81166   -1500.1411    498.67788     306.4413   -412.06318     36976.26 
  584200    299.54629   -1478.8291    496.59205    369.59929   -908.57543     36976.26 
  584300    297.45345   -1538.6404    507.22357    310.97463   -577.38553     36976.26 
  584400    291.11325    -1491.554    505.44806    327.67255   -525.70926     36976.26 
  584500    292.52772   -1526.8123    509.64388    302.99348   -42.886629     36976.26 
  584600     298.2862   -1519.9543    503.94962    330.14496   -246.14152     36976.26 
  584700    291.45057    -1524.681    497.42399    288.04377   -307.61168     36976.26 
  584800     297.0314   -1485.8345    495.39877    350.05108   -658.28655     36976.26 
  584900    293.17953   -1496.1652    483.16648    310.10475   -170.14558     36976.26 
  585000    301.46903   -1536.5517    501.09962    325.06153    338.51756     36976.26 
  585100    301.66735   -1538.3934    498.47971    321.49491    617.57854     36976.26 
  585200    301.85731   -1585.2271    494.54738     271.5861    148.71435     36976.26 
  585300     309.9361    -1538.303    500.92894    361.35091    123.42635     36976.26 
  585400    297.34054   -1560.0221    496.73325    278.59304    62.773922     36976.26 
  585500    290.05581   -1523.9073    527.09088    312.18989    389.73945     36976.26 
  585600    305.42438   -1499.3178    529.36194    408.40795    323.03227     36976.26 
  585700    300.78497   -1479.1695    496.72716    374.98411     330.9377     36976.26 
  585800     302.2886   -1520.1209    504.43616     348.5275    348.96861     36976.26 
  585900     302.0656   -1532.6904    490.43034    320.94583    142.15655     36976.26 
  586000    294.01406   -1516.8765    510.21409    320.20732    -76.61776     36976.26 
  586100    299.40072   -1516.4794    504.94293     339.6429    252.42416     36976.26 
  586200    298.76276    -1557.635    506.78958    297.45489    -212.3984     36976.26 
  586300    300.03156   -1553.7047     511.7026    312.02428   -35.158635     36976.26 
  586400    302.06244   -1522.2254    494.19531    335.16148   -316.34856     36976.26 
  586500    304.08742   -1541.1319     524.0658    355.26409    -587.6807     36976.26 
  586600    307.45513   -1572.8058    499.39616    314.11889     53.15105     36976.26 
  586700    305.80019    -1573.679    494.68728    301.06814    172.22892     36976.26 
  586800    306.60374   -1572.1815    516.80937    328.31409   -375.29314     36976.26 
  586900    304.93384   -1526.8531    492.92232    342.21931     33.89889     36976.26 
  587000    300.06339   -1533.7345    484.52802    304.96353   -96.631594     36976.26 
  587100    302.78997    -1508.714    534.68169    392.44263    -491.1589     36976.26 
  587200    291.42115   -1538.6987    505.65593    282.12527   -255.95901     36976.26 
  587300    306.13469   -1509.7236    501.80644    373.65229   -57.494304     36976.26 
  587400    296.61202   -1532.3462    522.53491    328.78291   -524.45589     36976.26 
  587500    308.89345   -1545.7902    510.67359    358.90297   -884.63029     36976.26 
  587600      297.911   -1523.2584    512.24034    333.43828   -198.70931     36976.26 
  587700    304.23672   -1511.1515    516.52014    378.37262   -487.65417     36976.26 
  587800    290.42238   -1503.5081    540.64213    347.79464   -673.51265     36976.26 
  587900    300.23585   -1525.2926    523.63679    353.29253    182.19856     36976.26 
  588000    293.05875    -1529.826    514.80367    307.53613   -317.07931     36976.26 
  588100    302.36922   -1542.7988    514.38909    336.16642    303.45703     36976.26 
  588200    294.14965   -1566.6195    522.94424    283.80632    256.08567     36976.26 
  588300    301.88938   -1554.9142    512.76445    320.26083    629.62216     36976.26 
  588400    305.23294   -1552.0984    517.86543    343.26696    596.19851     36976.26 
  588500    300.46314   -1545.2434    496.84649     307.5771    537.20601     36976.26 
  588600    294.97945   -1560.4527    495.96683    266.74059    344.24618     36976.26 
  588700    292.16761    -1578.996     510.8151    250.35591     346.5283     36976.26 
  588800    301.46267   -1561.8749    515.38671    313.99669    273.67168     36976.26 
  588900    299.96816   -1555.8198     496.4832    294.40365    125.27269     36976.26 
  589000    289.98117   -1540.0935    502.94071    271.51672    57.605045     36976.26 
  589100    305.37502   -1541.0976    520.75839    357.80194    619.19073     36976.26 
  589200    297.54843   -1574.6377    502.70885    270.89131    341.26668     36976.26 
  589300     310.7639   -1524.0736     496.0678    374.45506    79.555996     36976.26 
  589400    305.20073   -1500.6113    480.78862    357.53191   -182.69483     36976.26 
  589500    303.40929   -1502.3376     503.0211     369.9534    555.79867     36976.26 
  589600    296.28299   -1486.0991    522.05461    373.06481   -250.45641     36976.26 
  589700    302.40717   -1478.5023    520.81514    407.06017    402.17748     36976.26 
  589800    289.48548   -1461.2982    506.01251    351.14679    630.95897     36976.26 
  589900     295.8559    -1517.418    530.80086    348.56464    408.69705     36976.26 
  590000    300.36666   -1503.0946    525.47829    377.92229   -215.44428     36976.26 
  590100    287.34204   -1472.5509    536.32455    360.53288   -550.06573     36976.26 
  590200    291.84688   -1492.7653    500.90329    325.22731   -290.09442     36976.26 
  590300    291.37118   -1496.8316     500.2742    318.38509   -6.8582172     36976.26 
  590400    293.84804    -1510.567     504.0249    319.57835   -626.05493     36976.26 
  590500    300.38619   -1518.0385    521.61317    359.20143   -448.78509     36976.26 
  590600    309.12886   -1460.0469    485.93217    420.96727   -351.14666     36976.26 
  590700    315.47423   -1532.2913    529.14295    420.56998   -170.28627     36976.26 
  590800    304.89173   -1530.8374    514.12394    359.24661    20.562405     36976.26 
  590900    303.41947   -1540.0305    483.94105    313.22639    186.81499     36976.26 
  591000    287.79087   -1526.9961    513.82405    285.61276   -301.14491     36976.26 
  591100    298.38383   -1513.5008    516.32932    349.41881   -28.582115     36976.26 
  591200    294.53839   -1498.8902    500.43578    330.78156    43.065677     36976.26 
  591300    295.86105   -1518.3103    491.98963    308.88445    382.97017     36976.26 
  591400    308.69585   -1539.6149    508.67853    362.19145   -72.382188     36976.26 
  591500     304.9591   -1551.7567     467.8908    292.39818    126.75301     36976.26 
  591600    296.38883   -1559.5306    455.44546    233.50174    690.20012     36976.26 
  591700    298.77382   -1532.7731    527.71392    343.29103    79.132779     36976.26 
  591800    300.53202   -1500.9657    491.66198    346.98122    66.487501     36976.26 
  591900    302.05016    -1554.531    480.21662    288.82181  -0.94230408     36976.26 
  592000    295.06836   -1492.1562    514.97041    354.44189   -338.53919     36976.26 
  592100    299.66216   -1495.7539    486.53911    343.14444   -85.803491     36976.26 
  592200    302.04571   -1516.4509    508.02184    354.68705   -511.62611     36976.26 
  592300    308.59045    -1537.803    459.28785    314.13707   -419.83699     36976.26 
  592400    288.74923   -1570.1353    491.74366    224.71821    19.633171     36976.26 
  592500    311.48638   -1526.3779    507.28811    386.63153    543.90585     36976.26 
  592600    307.67789   -1533.8744    510.14946    364.80893   -104.83434     36976.26 
  592700    303.03583   -1543.4369    523.59859     347.7462   -271.85274     36976.26 
  592800    302.42317   -1568.9606    476.11446    271.97343   -71.993487     36976.26 
  592900     288.1932   -1524.7374     513.0668    288.92987   -67.211769     36976.26 
  593000    299.03839   -1496.5969    501.92144    354.86879   -852.57841     36976.26 
  593100    295.46646   -1498.8764    495.27746    329.82538   -464.50281     36976.26 
  593200    296.85063   -1493.7499    504.44138     350.3624   0.94053455     36976.26 
  593300    294.87272   -1544.5353    489.85869    276.06817    119.24855     36976.26 
  593400    303.54324   -1535.0475    506.39365     341.2205    197.24894     36976.26 
  593500    292.73296   -1517.6084    492.22103     295.7008    407.42541     36976.26 
  593600    292.62622   -1534.3947    494.02525    280.23706     792.4027     36976.26 
  593700    307.87281   -1497.3696    486.78505    378.82888    499.03327     36976.26 
  593800    299.88861   -1519.6034    504.38354    338.16133    490.00726     36976.26 
  593900    300.19584   -1504.4529    505.52209    355.83691    497.23839     36976.26 
  594000    301.92737   -1516.2648    505.61525    351.93252    245.03463     36976.26 
  594100    304.30161   -1498.7302    522.43095    396.99764   -487.22206     36976.26 
  594200    299.76183    -1451.605    484.10429    385.30841   -444.12345     36976.26 
  594300    301.24018     -1464.55    502.95007    397.88088   -535.68461     36976.26 
  594400    304.23473    -1478.838    497.51062    391.66767   -335.63816     36976.26 
  594500    302.14266   -1462.2771    486.48465    387.76122   -534.77675     36976.26 
  594600    292.27592   -1471.1883    484.72813     332.5654    -153.2255     36976.26 
  594700    301.25919   -1497.0204    512.77311    375.31936   -20.398081     36976.26 
  594800    287.58582    -1486.455    510.20361    321.60794   -186.40902     36976.26 
  594900    302.99436   -1464.9787    510.25151    412.67011   -471.58592     36976.26 
  595000    305.15169   -1482.6053    498.78432    393.31229   -177.96538     36976.26 
  595100    292.23832   -1467.2571    510.41737    362.01616     -851.778     36976.26 
  595200    303.53029   -1470.6759    503.64902    402.78907   -1079.1234     36976.26 
  595300    315.41012   -1454.5676    534.46804    503.32946   -772.43499     36976.26 
  595400    305.84428   -1476.9249    510.70412     414.0381   -364.32295     36976.26 
  595500    307.48616   -1449.4714    515.96158    454.15871   -1112.1831     36976.26 
  595600    294.05643   -1449.7251    517.27161    394.60747   -447.90648     36976.26 
  595700    304.86857   -1453.4824    508.29581    430.66892   -404.83965     36976.26 
  595800    296.71819   -1464.6993    508.00368    382.37766   -259.53166     36976.26 
  595900    300.36358   -1477.7143     503.2998    381.11026   -392.44413     36976.26 
  596000    296.37483    -1481.014    489.42266    345.93241   -226.39824     36976.26 
  596100    299.11942   -1497.4535     519.7711    372.22755    139.19479     36976.26 
  596200    302.00321   -1469.6653     528.9647    422.22375     726.5963     36976.26 
  596300    301.79644   -1483.8269    499.10397     377.2682    340.86158     36976.26 
  596400    315.31691   -1474.1079     497.9804    446.88085    2.0291078     36976.26 
  596500    292.23467   -1493.9578     482.0002     306.8818    72.178787     36976.26 
  596600    286.29177    -1470.824    490.15051     311.3459    23.639838     36976.26 
  596700     308.0385   -1468.4521     488.6755    410.38468    362.92844     36976.26 
  596800    307.62409   -1515.9237    505.85705     378.2244    625.74106     36976.26 
  596900    292.71184   -1523.1019    486.18957    284.08051    342.31994     36976.26 
  597000    304.10269   -1515.1321    494.46261    351.72967    519.20141     36976.26 
  597100    298.12057   -1487.7087    495.91239    353.60582    44.572689     36976.26 
  597200     301.2217     -1455.61     508.5668    412.35425    152.32452     36976.26 
  597300    308.68368     -1473.28    485.47613    405.26908     121.4994     36976.26 
  597400    299.41313   -1554.2057    487.00063    284.03031   -372.34278     36976.26 
  597500    286.22955   -1473.5813    515.23921    333.39647   -622.41815     36976.26 
  597600    305.73748   -1412.4262    512.03133    479.38201   -129.18825     36976.26 
  597700    307.41188   -1427.7331    504.92875      464.529   -211.40261     36976.26 
  597800    300.42814   -1462.5515    523.78125    417.04586   -216.78397     36976.26 
  597900    309.56079   -1469.2805    497.84016    425.59088    1000.3563     36976.26 
  598000    295.08008   -1450.2696    500.64471    382.05567    773.17756     36976.26 
  598100    301.77668   -1488.5302    482.37448    355.74632    340.02123     36976.26 
  598200    296.81589   -1452.3976    496.49753     383.6142    517.81612     36976.26 
  598300     292.8176   -1460.3497     503.3436    364.46404    391.55869     36976.26 
  598400    299.95565   -1490.3911     490.4434    353.73609    33.163983     36976.26 
  598500    292.44283   -1524.9841    512.74637    307.54115   -186.02111     36976.26 
  598600    299.04966   -1475.5695    488.00382    362.02936   -36.094234     36976.26 
  598700    301.65119   -1474.3652    507.53017    394.50061   -370.40023     36976.26 
  598800    297.65153   -1502.6004    459.72476    300.40971   -70.086599     36976.26 
  598900    316.53043    -1499.779    501.98807    430.69393    143.60665     36976.26 
  599000    288.78698   -1502.9689    501.99202    302.30328      247.079     36976.26 
  599100     306.3964   -1504.3032    485.11561    363.56291    182.65802     36976.26 
  599200    307.69787    -1497.206    501.64953    393.06753    256.39026     36976.26 
  599300    302.45778   -1449.2101    529.57846    445.34409    -379.8359     36976.26 
  599400    308.88852   -1478.0774    485.44785    401.36778    95.027502     36976.26 
  599500    298.93986   -1484.2244    505.99959    370.87472    145.91435     36976.26 
  599600     297.7838   -1527.9278    499.80295    315.75746     385.1262     36976.26 
  599700    295.85552   -1510.8742    504.26672    328.57258   -112.84635     36976.26 
  599800    296.07553   -1491.2414    539.35399    384.28554   -168.50985     36976.26 
  599900    303.36196   -1513.3797    470.89606    326.57266    -69.41288     36976.26 
  600000    296.78577   -1490.4757    465.61752    314.52006    275.15963     36976.26 
  600100    286.38363   -1462.9258    514.40408    343.91223   -377.78746     36976.26 
  600200    300.74727   -1446.2785    486.89817    397.87595   -194.00011     36976.26 
  600300    301.12708   -1466.6278     500.3844    392.72702   -133.81412     36976.26 
  600400    292.65485   -1497.4358     498.7583    322.05817    -383.4552     36976.26 
  600500    291.94127   -1519.8885    496.87373    294.50051   -44.372628     36976.26 
  600600    309.10638   -1502.8262    472.66199    364.81631    304.13023     36976.26 
  600700    303.52439   -1496.1475    489.17501    362.81685   -45.069668     36976.26 
  600800    303.62512    -1468.797    484.45323    385.90011   -265.19014     36976.26 
  600900    303.62832   -1466.4839    475.58241    379.35681    -424.0329     36976.26 
  601000    305.39382   -1481.8209    484.52162    380.92668    -679.4492     36976.26 
  601100    295.45749   -1459.7364     496.5191    370.16656    64.363415     36976.26 
  601200    301.81392    -1487.999    483.79811    357.86917    208.25583     36976.26 
  601300    294.42463   -1511.6887     483.7184    300.75228    340.49564     36976.26 
  601400    298.78505   -1448.4726    505.27656    405.20493    516.71526     36976.26 
  601500    295.54969   -1426.2218    490.93082    398.50892   -153.16072     36976.26 
  601600    295.39769   -1470.2236    495.69818    358.58851    646.25033     36976.26 
  601700    307.46001   -1469.2175     512.3094    430.64242    255.72498     36976.26 
  601800     300.2962   -1495.3003      502.563    362.48336    398.68316     36976.26 
  601900    299.06849   -1478.9457    474.11428    344.84862     227.2992     36976.26 
  602000    307.99988   -1441.0284    511.71793     460.6765   -77.694393     36976.26 
  602100     300.8835   -1467.9751     485.0838    374.97983    235.37621     36976.26 
  602200    296.12568   -1474.4532    486.30024    348.24631     434.6941     36976.26 
  602300    299.18626   -1426.8443    490.05827    413.42559     520.8597     36976.26 
  602400    291.65343   -1469.4908    487.29903    334.02453   -40.718234     36976.26 
  602500    297.45008   -1469.5965    509.87604    382.65578    228.34637     36976.26 
  602600    295.17141   -1432.7217    460.68472    360.05581   -965.47752     36976.26 
  602700    287.21178   -1458.4973    483.86464    321.53871   -964.35628     36976.26 
  602800    293.36702    -1468.993    477.39304    332.34969   -575.29836     36976.26 
  602900    302.01188   -1484.8254    480.58147    358.71948    -2.270937     36976.26 
  603000    295.62881   -1498.2698    497.91813    333.80533    273.59535     36976.26 
  603100    312.89689   -1521.2384    472.64248    363.49098    145.63184     36976.26 
  603200    296.37215   -1478.1301    480.01284    339.39437   -236.64848     36976.26 
  603300    295.76977   -1459.8968    493.76522    368.66158   -393.62363     36976.26 
  603400    307.12037   -1463.6452    487.71817    410.09078   -13.806849     36976.26 
  603500    294.57537   -1478.4834    493.61479    344.53431    125.37524     36976.26 
  603600    295.88926   -1512.8192    487.62396    310.13717     161.0312     36976.26 
  603700    299.88759   -1505.9582    508.90581    356.32424    482.40763     36976.26 
  603800    301.47038   -1477.3451    482.14653    365.32115    319.00086     36976.26 
  603900    308.89308   -1485.8614    496.50678    404.66332    488.22923     36976.26 
  604000    283.77081   -1485.5249    495.53241    290.65001   -82.656527     36976.26 
  604100    294.11656   -1498.0533    459.57432    288.85329    97.020966     36976.26 
  604200    310.80934   -1498.2397    469.06241    373.48862   -580.75575     36976.26 
  604300    300.52143   -1465.2886    487.24975    378.19829   -397.70384     36976.26 
  604400    303.11276   -1442.7991    517.63744    442.76999   -131.03741     36976.26 
  604500    295.29735   -1469.4365    482.03542    345.26009    23.185244     36976.26 
  604600    298.24493   -1463.0426    485.31877    368.23959   -138.06471     36976.26 
  604700     296.4144   -1472.3806    488.06916    353.39089   -719.11716     36976.26 
  604800    307.99241   -1463.2927     484.4656    411.12617   -1.7123575     36976.26 
  604900    297.86131   -1452.2123    484.76537    376.78516    23.873618     36976.26 
  605000    300.78693   -1457.8195    503.01401    402.62978   -15.674304     36976.26 
  605100    294.78512    -1504.149    487.65595    313.85641    90.926993     36976.26 
  605200    298.30533   -1452.0597    475.26274    369.43897    344.29904     36976.26 
  605300    296.52785   -1500.0956     491.5607    329.67943    129.64004     36976.26 
  605400     304.2122   -1462.9293    498.15541    408.11949    740.25994     36976.26 
  605500    303.77117   -1476.5893    525.36242    419.67618    608.59322     36976.26 
  605600    294.99986   -1473.1481    470.54844    328.71891    72.432338     36976.26 
  605700    316.93687   -1484.0146    474.64675    420.95127    166.82531     36976.26 
  605800    297.36138   -1532.9108    492.23171    301.29689   -311.71366     36976.26 
  605900    296.49524   -1459.3625     483.1902    361.89482   -83.094052     36976.26 
  606000       297.72   -1475.7053    469.20305    337.09213     356.6556     36976.26 
  606100    295.44734   -1455.1018    495.31329    373.54947    592.28825     36976.26 
  606200    304.36731     -1458.62    470.41792    385.39126    14.322591     36976.26 
  606300    295.43888    -1467.015    469.64519    335.93008    33.056565     36976.26 
  606400    300.72477   -1474.2117      525.398    408.34103    200.32125     36976.26 
  606500     296.9473   -1495.6284    454.00674    298.48558     603.4899     36976.26 
  606600    306.12738   -1541.4987    496.58507    336.62279    892.33322     36976.26 
  606700      292.969   -1494.3834    488.48228    316.25226    762.84798     36976.26 
  606800    306.32515   -1453.7622    512.40559    441.07242    540.33764     36976.26 
  606900    286.51513   -1447.8926    483.38878    328.52365    531.35776     36976.26 
  607000    290.43447   -1460.9344    488.34819    338.12899   -253.99923     36976.26 
  607100    295.57315      -1462.8     494.8276    365.93338   -480.72788     36976.26 
  607200     310.4462   -1466.1822    498.67493    433.51975   -290.28412     36976.26 
  607300    309.69924   -1482.0958    492.45793    408.01822    206.22869     36976.26 
  607400    311.38779   -1491.5786    486.79988    400.49773    -93.59556     36976.26 
  607500    294.04667   -1485.4397    481.73013    323.30727   -445.67451     36976.26 
  607600    299.17379   -1526.9715    464.35703    287.54082   -437.11201     36976.26 
  607700    311.21156   -1492.4448    483.32571      395.362   -27.719792     36976.26 
  607800    294.87674   -1497.6851    486.11103    319.18883   -382.26092     36976.26 
  607900    301.65242   -1504.2424    499.32197    356.42079   -77.693617     36976.26 
  608000    296.52794   -1520.9662    502.75167    320.00013    424.28663     36976.26 
  608100    301.13759   -1505.6457    495.81221    349.18426    83.095044     36976.26 
  608200    289.83974   -1495.6276    488.90519    301.30878    238.76026     36976.26 
  608300    305.71319   -1483.4461    487.06552    383.28667    456.29427     36976.26 
  608400    307.37357   -1447.2002    487.57805    427.53833    525.72036     36976.26 
  608500    290.20746   -1501.8789    510.58193    318.39371    101.20574     36976.26 
  608600     301.6834   -1493.7923     490.1002    357.78885    143.57245     36976.26 
  608700    288.69391   -1454.8629     475.9129    323.91011    559.24392     36976.26 
  608800    312.32357   -1466.8752    480.10863    422.73298    352.21085     36976.26 
  608900     305.7886   -1486.7883    502.38662    395.60587    446.48574     36976.26 
  609000    301.36627   -1502.3851    502.88651    360.55126   -182.18702     36976.26 
  609100    289.28775   -1503.8096     488.1302    289.86072   -397.70878     36976.26 
  609200    304.67625   -1457.2743    493.26916    410.98242   -423.06094     36976.26 
  609300    306.40096   -1445.4512    499.86105    437.18101   -108.42583     36976.26 
  609400    303.53389   -1469.4141    482.25546    382.67352     42.47351     36976.26 
  609500    288.55723   -1464.3527    493.51063    331.40122    208.53912     36976.26 
  609600    298.51493    -1464.892    459.02067    341.31051    -457.1166     36976.26 
  609700    308.39073   -1483.6456    493.03693    401.14215   -1014.5883     36976.26 
  609800    305.51455   -1477.2938    491.87797      393.355     86.24609     36976.26 
  609900    294.88543   -1486.2116    474.69853    319.28903    337.37616     36976.26 
  610000    310.19107   -1480.5508    487.93052     407.2554    185.09849     36976.26 
  610100    291.54895   -1505.9481    473.99088    283.78762    259.00574     36976.26 
  610200     292.6773   -1505.2442    497.31875    312.91154    395.25219     36976.26 
  610300    298.52105   -1475.7994    495.31203    366.72213    582.79171     36976.26 
  610400     302.8623   -1465.3643    497.36112    398.79811    22.076116     36976.26 
  610500    301.11566   -1451.2407    497.85183    405.53001    56.815901     36976.26 
  610600    303.87032   -1471.7863    500.60751    400.17166   -1.1533088     36976.26 
  610700    297.29935   -1512.1678    491.72512     321.2534    327.81312     36976.26 
  610800    291.93763    -1451.855    499.48312    365.12696   -318.86662     36976.26 
  610900    301.67591    -1472.508    467.67556    356.61481    55.528416     36976.26 
  611000    296.94358   -1484.4601     513.2013    368.83166   -420.99455     36976.26 
  611100    294.65677   -1472.2466    504.77065    362.29422   -102.50058     36976.26 
  611200    304.51639   -1477.7141    484.85617    381.40824    -423.9841     36976.26 
  611300    302.35715   -1447.9002    507.15486    423.77622   -163.63703     36976.26 
  611400    302.98095    -1459.391    487.18954    395.13529   -118.61713     36976.26 
  611500    294.66578    -1432.849    490.34764    387.30955   -75.827122     36976.26 
  611600      289.397   -1436.9329    501.01348    370.11372   -189.34727     36976.26 
  611700    300.73412   -1438.2011    485.75561    404.75147    500.13324     36976.26 
  611800    299.12633    -1498.736    513.65823    364.86338    33.147726     36976.26 
  611900    301.05992    -1491.069    496.73957    364.33786    49.211252     36976.26 
  612000    303.64874   -1475.1949    475.48479     370.6404    132.12486     36976.26 
  612100    305.74975   -1462.6594    496.05527    413.22814   -296.98893     36976.26 
  612200    298.88264   -1468.1028    467.34048    348.07896   -294.96262     36976.26 
  612300     294.5375   -1485.5319    474.26182    317.96188    -509.1538     36976.26 
  612400     303.8974   -1467.0845    481.42337     385.8116   -412.38097     36976.26 
  612500      295.705   -1465.2112    471.60647    340.89612   -270.27176     36976.26 
  612600    300.47561    -1486.377    487.42796    357.08125   -321.31081     36976.26 
  612700    299.00532   -1491.3867     485.6289    343.63721   -510.08144     36976.26 
  612800    308.68382   -1525.1692    487.89779    355.80215   -679.67432     36976.26 
  612900    296.38946   -1474.9376    480.94709    343.59928    2.8735265     36976.26 
  613000    294.80366   -1496.1638    475.96466    310.23403    338.54247     36976.26 
  613100    309.02526   -1484.5546    506.28967    416.34945   -3.4339175     36976.26 
  613200    301.82069   -1516.5285    476.83511    322.40719    139.26404     36976.26 
  613300    301.31988   -1508.9805    503.06776    353.92778    733.18788     36976.26 
  613400     304.1862   -1478.4653    488.74552    383.05621    298.08685     36976.26 
  613500    299.49645   -1456.4053    491.15159    386.35772   -335.13944     36976.26 
  613600    302.22269   -1466.9531    485.09533    382.05709   -360.28204     36976.26 
  613700    297.82884   -1456.2006    474.46549    362.35046    -85.21139     36976.26 
  613800    297.83043   -1456.2559    515.22934    403.06625    1.5895353     36976.26 
  613900    302.28999   -1458.3404    483.85575    389.73387   -173.68081     36976.26 
  614000    293.42866   -1479.3173    479.99174     324.9023   -148.84193     36976.26 
  614100    297.04271     -1451.15    490.55932    379.94714    311.98138     36976.26 
  614200    292.66358   -1467.7756    485.29636     338.2958    553.43806     36976.26 
  614300    297.78016   -1467.4652     492.6634    369.06413    459.10452     36976.26 
  614400    292.96327   -1473.0916    481.18476    330.22073     310.3888     36976.26 
  614500     290.7055   -1514.3022    474.03792    271.67409    130.63257     36976.26 
  614600    295.13031   -1480.3162    496.00152    347.59261   -362.16939     36976.26 
  614700    303.28854   -1476.8537    475.42553    367.29678   -241.42939     36976.26 
  614800    293.54237   -1509.5304    477.84189     293.0525    145.98137     36976.26 
  614900     306.6723   -1484.2376    484.36734    384.12533    162.93426     36976.26 
  615000    289.55098   -1456.1306    492.06486    342.66228     49.93168     36976.26 
  615100    303.10111   -1446.6188    494.17203     415.4323   -77.031133     36976.26 
  615200    301.46603   -1440.4029    494.65639    414.75356    -46.99883     36976.26 
  615300    301.79226   -1453.9794    448.90038    356.89326   -245.13309     36976.26 
  615400     293.2158   -1452.3646    500.97257    371.87512   -124.51747     36976.26 
  615500    288.02182   -1473.6072     476.9773    303.19714   -279.17204     36976.26 
  615600    302.10081   -1428.6024    527.29117    462.05353    387.48342     36976.26 
  615700    297.27549   -1425.1001    470.56673    387.05504   -318.04199     36976.26 
  615800    300.09213   -1438.1545    498.31399    414.45921   -555.61263     36976.26 
  615900    292.58034   -1443.9251    502.31598    378.79031   -403.48571     36976.26 
  616000    297.66836    -1469.472    502.69327    376.58266   -197.33505     36976.26 
  616100    293.15462   -1484.9178    490.26768    328.34099   -713.62051     36976.26 
  616200    305.99819   -1512.5572    463.56737    331.96364   -92.478876     36976.26 
  616300    309.43093   -1461.8394    503.49232    438.09811    -73.05897     36976.26 
  616400     303.8721   -1449.9452    489.11974    410.53305    10.333666     36976.26 
  616500    301.08194   -1431.3776    504.04995    431.43905    433.94715     36976.26 
  616600    303.64341   -1423.1407    494.35686    441.54263    281.90644     36976.26 
  616700    289.89353   -1475.9065    531.82883    364.19629    849.27084     36976.26 
  616800    284.01179   -1474.9158    494.19825    301.01242    488.02305     36976.26 
  616900    309.59596   -1486.9344    480.68776    390.94337    234.09539     36976.26 
  617000    288.77641   -1503.2047     468.5922    268.61995   -158.24175     36976.26 
  617100    300.95856   -1515.8655    490.01246    332.35685   -266.18915     36976.26 
  617200    300.08353   -1512.4671    481.21128    323.00511   -487.95893     36976.26 
  617300    291.46552   -1464.2082    478.33046    329.49056    -690.7519     36976.26 
  617400    299.54785   -1469.0307    491.77827    374.59101   -367.53798     36976.26 
  617500    296.16428   -1516.5459    493.88988    313.91748   -673.58905     36976.26 
  617600    289.77093   -1578.8199    472.89518      201.796   -388.06217     36976.26 
  617700     301.2482   -1533.8089    487.41958    313.12766    120.75647     36976.26 
  617800    298.48854   -1552.2719    453.07406    247.86492    -17.23415     36976.26 
  617900    312.77667    -1510.829    501.04751    401.76284   -60.897732     36976.26 
  618000    291.72961   -1528.6503    492.51946    280.42923   -111.71878     36976.26 
  618100    298.33245   -1482.5794    482.02501    345.80398   -178.40228     36976.26 
  618200    303.43722   -1498.2283    485.05526    356.22283   -272.39401     36976.26 
  618300    299.48516   -1508.8404    496.95935    339.67945   -41.012488     36976.26 
  618400    313.46588   -1519.6186    468.38826    363.42437    29.675612     36976.26 
  618500    295.26386   -1551.9069    492.10378    272.70689   -8.3883972     36976.26 
  618600    303.80607   -1534.2405    486.88215    323.70214   -402.94248     36976.26 
  618700    307.81291   -1554.8485    470.48879    304.78347   -221.47224     36976.26 
  618800    303.18587   -1559.7279    481.50562     290.0393   -514.30371     36976.26 
  618900    295.56352   -1509.5756    490.19967    314.48641   -165.63699     36976.26 
  619000    297.91361   -1496.6019    488.48064    336.34689   -475.16769     36976.26 
  619100    314.52032   -1517.9467    477.28573    378.75241    -310.2455     36976.26 
  619200    312.92144   -1487.4054    488.21009    413.00243   -114.31425     36976.26 
  619300    303.75795   -1494.7207    479.28793    355.41059   -217.17611     36976.26 
  619400    307.84133   -1456.5665    485.96504    418.66994    641.44025     36976.26 
  619500    306.65711   -1485.5675    494.52518    392.88476    191.25575     36976.26 
  619600    296.05336   -1495.1446    509.21954    350.14785    126.72142     36976.26 
  619700    288.28011   -1492.5646    503.94241    312.37052    209.97299     36976.26 
  619800    302.75518   -1459.1814    483.39651    390.53298    94.877967     36976.26 
  619900    302.03913    -1457.954    473.98545    379.11788    201.11701     36976.26 
  620000    304.62585   -1425.7074     482.7745    431.82726   -234.70418     36976.26 
  620100    309.24014   -1447.1456    495.51938    443.95801    792.09214     36976.26 
  620200    308.94424   -1469.0824    454.89357    380.05996     38.66802     36976.26 
  620300    296.58084   -1490.4525    511.03719    359.03819    45.905474     36976.26 
  620400     295.1285   -1451.3996    503.65947    384.15895    479.16223     36976.26 
  620500    311.95659   -1431.7972    500.59708    476.64319    506.56183     36976.26 
  620600    315.12509   -1430.7835    485.09375    476.45287    578.54876     36976.26 
  620700    314.24258   -1432.1593    488.38465     474.3853    523.72044     36976.26 
  620800    310.17232   -1438.5383    499.28679    460.53951   -3.8387398     36976.26 
  620900    307.60481   -1444.1269    481.39786    425.47496     197.8783     36976.26 
  621000    298.70987   -1506.5345    469.05743    310.58453    92.732479     36976.26 
  621100    300.32618   -1480.2341    513.53549    388.65734    527.61017     36976.26 
  621200    297.07715   -1502.2276    513.01807    351.48371    221.42379     36976.26 
  621300    302.75218    -1460.888    505.44493    410.86127    574.48527     36976.26 
  621400    303.64976   -1473.9232     501.6549    398.08677    171.34227     36976.26 
  621500    306.64697   -1459.6886    480.71704    404.90981    71.643156     36976.26 
  621600    304.44258   -1492.9708    501.72781    382.69003   -122.69196     36976.26 
  621700    309.96995   -1463.1342    513.84768    449.59126    771.23137     36976.26 
  621800    303.01315   -1489.5471    503.42518    381.36022    213.54687     36976.26 
  621900    307.17187   -1491.3251    481.19247    376.11761    636.29333     36976.26 
  622000      303.148   -1508.8521    492.97226    352.21082    562.28699     36976.26 
  622100    309.01989   -1497.5321      503.795    400.85307   -275.83405     36976.26 
  622200    301.18334   -1496.3087    501.38184    364.29738    8.5233726     36976.26 
  622300    293.99772   -1460.3827    494.80308    361.21631   -152.55713     36976.26 
  622400    300.94531   -1485.6963    502.96045    375.41422   -434.00029     36976.26 
  622500    295.78827   -1510.3571    505.74203    330.26156    345.29444     36976.26 
  622600    302.99045   -1575.1646    493.35114    285.56616   -306.22486     36976.26 
  622700    308.86407   -1538.1638     496.5008    352.22395   -528.59544     36976.26 
  622800    300.93657   -1557.6194    503.29662    303.78784   -256.57929     36976.26 
  622900    302.26454   -1564.7968    491.18967    290.49651   -141.66344     36976.26 
  623000    308.50814   -1571.7085    463.65825     284.2305   -53.471585     36976.26 
  623100    298.77758   -1518.2227    485.13188     315.2764   -754.59585     36976.26 
  623200    310.43819   -1553.8074    481.64758    328.83109     -771.498     36976.26 
  623300    294.31707   -1542.0194    515.64063    301.85839     -222.155     36976.26 
  623400    293.78526   -1517.5001    485.44938    293.78638    62.831657     36976.26 
  623500    296.92447   -1581.2242    483.82551    242.60548   -337.85049     36976.26 
  623600    306.13667   -1563.4776    474.28084    292.38163   -797.02262     36976.26 
  623700    287.75377   -1574.2315    478.21149    202.59731   -632.28807     36976.26 
  623800      299.512   -1579.0393    485.26956    257.91186   -133.65752     36976.26 
  623900    294.92777   -1553.0024     501.7597    279.75058    78.421714     36976.26 
  624000     296.4779   -1529.4168    453.50385    262.07593     -285.622     36976.26 
  624100    296.33587   -1513.7883    521.31882    344.87848   -238.59312     36976.26 
  624200    297.62227   -1542.6653    469.94231    270.43038   -339.94934     36976.26 
  624300    297.84267   -1507.7855    516.00679    352.36927    123.65706     36976.26 
  624400    305.47176   -1517.4203    494.51539    355.67281   -58.271237     36976.26 
  624500    304.59322   -1474.5676     481.3127    381.35798    280.31014     36976.26 
  624600    303.30376   -1495.6597    507.78848    380.92244    881.04916     36976.26 
  624700    300.43171   -1514.7683    491.70751    332.77139     848.2554     36976.26 
  624800    296.37397   -1466.6012    511.95344    382.87204    136.66535     36976.26 
  624900    299.12275   -1506.0181    499.23945    343.14633    515.19966     36976.26 
  625000    313.58203   -1502.0259    489.78453    402.93751    75.455131     36976.26 
  625100    297.00212   -1503.6553    494.15815    330.85748   -337.55005     36976.26 
  625200    310.15684   -1524.4886    492.47164    367.70424   -224.27708     36976.26 
  625300     306.3638   -1552.3422    473.71964    303.98084   -506.18768     36976.26 
  625400    300.58953   -1511.1789    509.43647    354.80201   -247.81562     36976.26 
  625500    298.57562   -1478.7666    488.19897    356.88816   -202.78837     36976.26 
  625600    310.47888   -1496.7782    514.12393    418.52023   -242.35022     36976.26 
  625700    300.17772   -1506.2129    471.02645    319.49954   -505.28016     36976.26 
  625800    301.67325   -1542.0197    504.45971    323.87524   -521.91678     36976.26 
  625900     307.1008   -1538.4663    494.26752    341.73068   -633.24346     36976.26 
  626000    309.00638   -1500.4044     476.7879    370.91273   -449.94004     36976.26 
  626100    298.74603   -1512.4868    483.42196    319.16002   -327.52219     36976.26 
  626200    301.91705   -1490.5379    488.32412    360.32165   -737.21601     36976.26 
  626300    299.85849   -1503.0982    491.33003    341.47711    -1421.188     36976.26 
  626400    291.96956   -1490.2718    488.80775    316.17894    -1187.392     36976.26 
  626500    302.52057   -1494.0732    495.88512    367.07101   -536.20402     36976.26 
  626600     308.7924   -1511.9291    476.80518    358.43963   -362.79571     36976.26 
  626700     315.3814   -1497.2414    506.18876    432.24674   -120.77441     36976.26 
  626800    298.53993   -1464.2308    515.44258    398.50647    -156.6397     36976.26 
  626900    300.63342   -1491.9328    487.84197    352.65168   -430.91517     36976.26 
  627000    300.68179   -1439.9978    507.46711    424.43015   -80.146554     36976.26 
  627100    302.47021   -1485.3351    511.83584    391.53257   -270.30445     36976.26 
  627200    293.12844   -1485.8585    495.59897    332.61337   -246.49686     36976.26 
  627300    290.72822   -1450.5916     504.2648    365.71406    38.998125     36976.26 
  627400    297.81765   -1471.2936     482.8003    355.54183   -293.59353     36976.26 
  627500    300.44811   -1484.9769    504.48078    375.41014     -68.8348     36976.26 
  627600    303.36092   -1496.5537    500.29824     372.7961     3.441417     36976.26 
  627700    300.14561   -1493.0029    479.29374     340.8319    -301.5861     36976.26 
  627800    300.58837   -1514.4212    505.22356    347.34151    -296.2882     36976.26 
  627900    298.76525   -1472.6675    486.76526    362.40933     573.0814     36976.26 
  628000     292.9307   -1505.8821    488.68674    304.78518    519.98313     36976.26 
  628100    301.83404   -1479.5849    503.60757    386.18348    237.05385     36976.26 
  628200    300.07317   -1451.9215    503.39015    405.68283   -91.289847     36976.26 
  628300    298.81336   -1441.1114    497.46276    404.88011   -296.43084     36976.26 
  628400    300.27041   -1475.7015    476.69535    356.09812   -230.15784     36976.26 
  628500     297.1496   -1499.6663    500.50339    341.85731    63.735151     36976.26 
  628600    301.53833   -1521.2502    517.09677    356.67292    229.18811     36976.26 
  628700    303.59964   -1478.7175    474.55376    365.96519    203.66933     36976.26 
  628800    300.64677   -1525.6723    481.81749    312.94793    469.07046     36976.26 
  628900    300.63549   -1531.7455    491.44805    316.45438     359.4598     36976.26 
  629000    301.92906   -1499.3714    489.95441    353.17265   -168.06405     36976.26 
  629100    310.60436   -1484.7775    485.33152    402.29492    63.513131     36976.26 
  629200    295.84132   -1499.9712     492.5012    327.64604   -273.56164     36976.26 
  629300    300.73254   -1511.3465    495.29311    341.13644   -275.47089     36976.26 
  629400    281.80806   -1503.7093    492.69837    260.77373   -149.14244     36976.26 
  629500    295.72998   -1471.8441     517.9586    380.72805   -274.05567     36976.26 
  629600    297.01622   -1448.7544      473.032    364.69591   -616.66954     36976.26 
  629700    305.47344   -1461.7715    533.13372    449.94752   -874.93684     36976.26 
  629800    310.35724   -1431.3363    475.39869    444.68801   -484.06374     36976.26 
  629900    297.90481   -1457.3468    520.75697     407.8386   -577.48133     36976.26 
  630000    304.95504   -1509.9502    498.06398    364.35949   -743.30902     36976.26 
  630100    295.92841   -1461.0412    511.90251     386.3704   -410.30068     36976.26 
  630200    303.80794   -1474.2476    498.95904    395.78035   -791.69785     36976.26 
  630300    317.29621   -1440.3029    483.12067    474.75852   -824.50693     36976.26 
  630400    300.39747   -1502.2798    506.51493    359.91283   -719.34627     36976.26 
  630500    292.88033   -1449.0502    513.90372    386.60673   -65.350328     36976.26 
  630600    307.75779   -1509.1316    478.56462    358.32749   -18.044203     36976.26 
  630700    306.97351   -1454.5163    504.61804    435.45672    7.4576324     36976.26 
  630800     300.3826   -1469.8434    530.92164    416.68884   -102.70489     36976.26 
  630900    289.79444    -1457.287    479.87978    330.41953    88.774027     36976.26 
  631000    298.53657   -1452.7699    508.37782    402.88747    46.739379     36976.26 
  631100    298.72886   -1490.5456    477.72162    335.32332   -246.47174     36976.26 
  631200    294.78647   -1447.9477    507.95257    390.36037   -214.93864     36976.26 
  631300    299.24562   -1439.2439    517.86493    429.10046   -256.69943     36976.26 
  631400     298.0494   -1459.8292    499.95663    385.20839    242.36716     36976.26 
  631500    296.06222   -1422.3122    532.87294    446.67369    194.54906     36976.26 
  631600    309.05875   -1503.0793    488.63008    380.31638   -379.33743     36976.26 
  631700     298.2831   -1478.3535    499.86234    367.64442   -471.73419     36976.26 
  631800     304.6657   -1508.9268    479.59936    345.61258   -190.47362     36976.26 
  631900    295.80777    -1488.448    497.74758    344.26416   -478.21969     36976.26 
  632000    296.46401   -1480.0864    511.31735    369.15715   -133.98216     36976.26 
  632100      292.919   -1474.1235    491.92071     339.7249    -130.6853     36976.26 
  632200    296.72133   -1457.9775    509.15188     390.2618   -169.45921     36976.26 
  632300    285.27892   -1492.4132    510.34106    305.37638    350.19548     36976.26 
  632400    291.42737   -1522.7831    526.40611    318.81916    271.62355     36976.26 
  632500    304.34481    -1522.287    485.68092    336.88569    258.22503     36976.26 
  632600    287.42544   -1477.1421    510.67294    330.66644   -77.613405     36976.26 
  632700    297.47583    -1488.495    512.17432     366.1718   -161.93629     36976.26 
  632800    292.18387   -1498.7057     483.1046    303.00901   -296.35955     36976.26 
  632900    303.80272   -1480.4285    522.53293    413.14988   -242.17241     36976.26 
  633000    289.30768   -1469.9928    482.96794    318.60514   -249.14953     36976.26 
  633100    306.59695    -1473.716    495.38089    405.32048   -479.15129     36976.26 
  633200    289.92939   -1514.7266    484.32591    278.03512   -55.593242     36976.26 
  633300    301.03012   -1517.6511    486.40899    327.29069    85.541968     36976.26 
  633400    305.46339   -1520.3705    508.48231    366.65173    353.26279     36976.26 
  633500    292.63907    -1507.652    508.64612    321.65853    410.04375     36976.26 
  633600    298.41745   -1533.7353    485.33693    298.34358   -37.921737     36976.26 
  633700    301.07921   -1482.2092    494.48514    371.03032    133.45513     36976.26 
  633800    294.77734   -1540.8689     512.5003    301.94575   -831.62834     36976.26 
  633900    305.03107   -1486.1436    492.51199    382.95722   -457.84219     36976.26 
  634000    307.08713   -1456.3893    493.76942    423.24791   -203.06499     36976.26 
  634100    304.25457    -1507.664    500.84653    366.26712   -389.55658     36976.26 
  634200    297.09116   -1510.2224    483.36347     313.8975   -531.06601     36976.26 
  634300    308.06283   -1509.5914    500.45216    381.13176   -553.58309     36976.26 
  634400    304.83052   -1510.8406    521.19783    386.04104   -419.84433     36976.26 
  634500    304.92937   -1520.5871    516.73318    372.27601    -567.6871     36976.26 
  634600    293.49024   -1524.8196    485.30746    284.99353   -418.26604     36976.26 
  634700    297.60935   -1529.6697    523.29108    336.71645   -715.57957     36976.26 
  634800    304.60565   -1534.5905    486.67588    326.75434   -447.86779     36976.26 
  634900    305.94163   -1533.2664    513.10795    360.53975    203.47544     36976.26 
  635000    297.91016   -1575.4593    487.30035    256.29363    654.64284     36976.26 
  635100    291.61778   -1520.1186    493.18118    289.11803    350.89129     36976.26 
  635200    296.79975   -1478.7263    501.71997    362.43506    68.830848     36976.26 
  635300    297.24478   -1507.2092    514.55034    348.79086    215.55197     36976.26 
  635400    298.05595   -1499.5565    493.10049     338.6545    361.72396     36976.26 
  635500    301.30452   -1513.8167    506.07337    352.02779   -205.22982     36976.26 
  635600    301.23261   -1548.8032     473.6943    284.33776   -124.58157     36976.26 
  635700    305.10846    -1538.252    488.00839    326.69452   -93.137018     36976.26 
  635800    309.36717   -1522.6262    499.62045    373.15178   -133.61357     36976.26 
  635900    301.23093    -1550.057    495.56929    304.95137   -205.80227     36976.26 
  636000    285.14145   -1549.7052    512.38056    249.50345   -566.32169     36976.26 
  636100    292.79107   -1536.2232    481.02097    266.14821   -457.41167     36976.26 
  636200    305.07023   -1534.9064    511.19052    353.04969   -663.26701     36976.26 
  636300    290.72623   -1523.5868    503.76515    292.21024   -1.0133132     36976.26 
  636400    298.05751   -1491.8083    505.20215    358.51139   -223.83284     36976.26 
  636500      310.341   -1463.6776    522.87099    459.74566    110.32288     36976.26 
  636600    294.28425   -1505.1397    522.63849    345.58785   -640.86552     36976.26 
  636700    295.75227   -1507.5319    493.02759    320.20983   -524.46583     36976.26 
  636800    304.70238    -1528.216    538.14401    385.03355    71.741225     36976.26 
  636900    303.41319   -1499.2217    516.38183    386.44762    146.17448     36976.26 
  637000    294.57359   -1486.3877    504.73939    347.74655    60.921753     36976.26 
  637100    295.49375   -1538.5465    548.25436    343.25538     651.0308     36976.26 
  637200    302.32765   -1521.9318    517.08309    359.53974    206.39021     36976.26 
  637300    289.08831   -1510.2553    510.51138    304.89618   -90.366086     36976.26 
  637400    295.04475   -1534.1455    499.87278    297.24841   -464.27448     36976.26 
  637500    304.12938   -1537.5287      482.755    317.74589   -98.728349     36976.26 
  637600    293.31663   -1565.5596    491.24807    249.41067   -139.92903     36976.26 
  637700    293.27948   -1533.1968    513.63571     303.9935   -694.05883     36976.26 
  637800     306.4954   -1538.6697    498.21186    342.73943    212.84906     36976.26 
  637900    308.48764   -1518.4745    492.84477    366.55845    100.42498     36976.26 
  638000    283.11402   -1513.3946    507.75865    272.04246   -624.05708     36976.26 
  638100     293.1504   -1492.7423    514.38097    344.61072   -226.23737     36976.26 
  638200    301.85777   -1531.5339    502.48869    333.22274     292.0909     36976.26 
  638300    301.09879    -1507.607    508.10493    359.34063    99.104376     36976.26 
  638400      306.146   -1541.9276    497.88081    337.57368    158.84564     36976.26 
  638500    302.58003   -1522.9026    524.96494    367.58987   -309.56175     36976.26 
  638600    300.20598   -1487.9089    533.64527    400.54988   -93.997936     36976.26 
  638700    297.71642   -1467.6731    494.15856    370.06371    607.20901     36976.26 
  638800    297.68511   -1479.6805    543.95844    407.71493   -29.007851     36976.26 
  638900     306.0957   -1486.8248    510.92823    405.49695   -47.947528     36976.26 
  639000    299.22165   -1528.5125    498.78635    320.64513    607.36495     36976.26 
  639100     298.1879   -1530.0906    534.80679    350.42219   -242.31308     36976.26 
  639200    303.10919   -1500.7413    477.98199    345.15623    244.16641     36976.26 
  639300    299.12915   -1499.2044    544.39585    395.14526    42.824583     36976.26 
  639400    310.41893    -1543.138    480.49165     338.2576    262.48233     36976.26 
  639500    303.37873   -1527.9338    538.37227    379.57049    4.2052512     36976.26 
  639600    298.46662     -1564.59    504.95844    287.33232   -191.44018     36976.26 
  639700    292.66538   -1544.3721    506.41031    282.82134     -95.3894     36976.26 
  639800     291.4253   -1531.7212    498.85628    282.32184    367.54545     36976.26 
  639900    302.66423   -1530.7757    525.21102    360.34275    110.20021     36976.26 
  640000    284.85743   -1535.7242    511.06646    260.88854    213.54718     36976.26 
  640100     310.4862   -1530.4808    501.35456    372.08132   -182.73212     36976.26 
  640200    299.02604   -1516.2121     488.8768     322.1532   -312.12928     36976.26 
  640300    300.27817   -1510.7627    491.78423     336.1608   -95.193869     36976.26 
  640400    285.54629    -1513.223    494.06817    269.50024    46.711349     36976.26 
  640500    296.02926   -1554.3536    489.91503     271.5256   -167.40145     36976.26 
  640600    302.92978   -1532.7632    521.85755    356.20017    639.10571     36976.26 
  640700    292.72287   -1554.9489    521.80732    287.90109    442.84143     36976.26 
  640800     302.2441    -1522.116    500.12729    342.02268    975.99676     36976.26 
  640900    295.71108   -1514.3727    486.57774     306.7333    742.89534     36976.26 
  641000     291.6982   -1516.9459    493.97596     293.4484   -13.743771     36976.26 
  641100    300.81249   -1524.2772    513.94718     347.2206   -55.375449     36976.26 
  641200    286.89863   -1535.0718    510.44208    270.12839    176.92587     36976.26 
  641300    302.12214   -1510.0175    481.34573    334.78925   -452.37909     36976.26 
  641400     305.9518   -1509.6854    512.06746    383.12614   -488.44065     36976.26 
  641500    308.26436   -1544.4814    485.71578    332.41498   -361.75422     36976.26 
  641600    306.61505   -1517.0062    502.83996    369.57108   -453.67213     36976.26 
  641700     300.9426   -1517.5643    490.43131    331.00484   -577.13301     36976.26 
  641800    307.00481   -1520.5802    521.73444    386.65046   -557.53479     36976.26 
  641900    296.93851   -1495.8857    494.12986    338.31178    275.20501     36976.26 
  642000     297.2177   -1532.2449    508.04484     317.1275    276.24805     36976.26 
  642100    293.46974   -1555.3379    496.52065    265.59595   -267.84933     36976.26 
  642200    306.28607   -1526.9069    512.83061    368.17635    145.27204     36976.26 
  642300    303.81036   -1543.6749    498.78343    326.18845    119.77567     36976.26 
  642400    289.37521   -1498.8957    490.61335    297.65243   -30.396579     36976.26 
  642500    305.46084   -1598.2628    507.14633    287.41196    376.20594     36976.26 
  642600    302.92658   -1573.6213    500.02537     293.4955    593.69279     36976.26 
  642700    300.26095   -1537.4172    500.62605    318.27046   -236.73384     36976.26 
  642800     302.7808   -1510.8596    518.34795     373.9219    54.089471     36976.26 
  642900    295.15914   -1540.1767    500.43627    292.29695   -186.52841     36976.26 
  643000    299.85334   -1541.4885     479.8185    291.55207   -555.33387     36976.26 
  643100    303.53396   -1564.6894    515.87821    321.02126   -389.80435     36976.26 
  643200    303.58259   -1534.4612    505.87673    341.46748   -968.62416     36976.26 
  643300    308.59947   -1547.4528    518.54717     363.7872   -976.30043     36976.26 
  643400    305.93679   -1570.7485    482.00666    291.93445   -177.95184     36976.26 
  643500    283.00142   -1551.6985    493.18225      218.654    75.269557     36976.26 
  643600    301.07549   -1570.6926    502.37737    290.42234    992.46068     36976.26 
  643700    287.06072   -1565.0195    491.05653    221.52671    403.36558     36976.26 
  643800    297.85297   -1505.8751    499.88878    338.20814    210.81101     36976.26 
  643900    304.31608   -1555.7557    470.31012    287.91652   -112.95804     36976.26 
  644000     292.3603   -1550.9504    523.70331    292.15923   -168.56918     36976.26 
  644100    301.20931   -1529.8333    495.97022     325.4784   -57.782073     36976.26 
  644200    305.51729   -1513.5051     471.0822    336.36028   -53.762674     36976.26 
  644300    309.79396   -1509.5037    498.92125    387.50108    44.499022     36976.26 
  644400    304.81559   -1541.7215    481.51423    315.40915   -459.56967     36976.26 
  644500    288.07168   -1526.0689    504.93352    278.91667   -230.22549     36976.26 
  644600    284.72379   -1521.2076    518.27554    282.01113    196.89442     36976.26 
  644700    300.86993   -1505.7422    515.40916    367.47686   -31.757201     36976.26 
  644800    296.78622   -1492.5773    497.99705    344.80006   -462.84874     36976.26 
  644900    301.56688   -1481.3475    524.99971    404.60739   -468.99497     36976.26 
  645000    306.99249   -1512.3405    515.70661    388.80679   -405.81173     36976.26 
  645100    301.04124   -1540.5237    508.02253    326.08181    64.890412     36976.26 
  645200    300.05647    -1515.154    493.06778    332.05261    -407.0845     36976.26 
  645300     302.6996   -1461.0264    492.46812    397.50878   -240.71879     36976.26 
  645400    308.59763   -1490.0454    520.04938    422.68858   -371.78158     36976.26 
  645500    305.55998   -1531.2215    469.27245    317.02672   -297.67212     36976.26 
  645600    288.37172   -1548.7204    497.23363    249.91934   -364.39136     36976.26 
  645700    308.17355   -1554.6221    499.79966    335.94824   -351.85524     36976.26 
  645800    305.34473   -1564.6002    469.79882    283.20303    207.17833     36976.26 
  645900    292.71195   -1559.1192    497.46787    259.34206    -195.1561     36976.26 
  646000    285.55071   -1570.8835    493.89039    211.68191   -111.14552     36976.26 
  646100    300.45928    -1541.483    496.54853    311.02219   -12.684413     36976.26 
  646200    290.94415   -1477.2862    522.74152    358.47063    899.54971     36976.26 
  646300    290.49956   -1538.0036    505.45829    278.46367    834.48521     36976.26 
  646400    308.85283   -1494.0538    501.30965    401.09213    814.95779     36976.26 
  646500    308.61503   -1519.7129    493.20332    366.25357    196.68735     36976.26 
  646600    291.33738   -1503.4251    485.98587    297.35069    357.04903     36976.26 
  646700    304.82863   -1519.4169    502.68705    358.94543    125.39621     36976.26 
  646800    315.04966   -1516.7059    486.17604     391.2724    459.08099     36976.26 
  646900    299.08442   -1513.8397    508.59381    344.50608    534.40044     36976.26 
  647000    291.00441   -1527.8431    508.88216    294.32638    213.81098     36976.26 
  647100     296.2856    -1478.483    498.65628     357.2943   -307.83491     36976.26 
  647200    296.15102   -1506.5102    499.60946      329.613   -415.54676     36976.26 
  647300    290.09125   -1497.1447    493.60621    305.62777    -569.2119     36976.26 
  647400    305.26309   -1493.6469    492.04864    376.03774   -36.148192     36976.26 
  647500    298.52035   -1542.4644    521.12735    325.86923   -153.99229     36976.26 
  647600    295.87127   -1599.6926    480.23066    215.78926    399.46751     36976.26 
  647700    299.56953   -1549.2294    503.93161    306.64345    880.43722     36976.26 
  647800    299.13379   -1517.5372    510.24261    342.68013    672.67271     36976.26 
  647900    303.06641   -1517.6086    506.67055    356.78443     231.6791     36976.26 
  648000    308.05072   -1521.4687    498.50127    367.24892   -124.97615     36976.26 
  648100    301.40062   -1515.8104    510.95872    355.35318    4.1585995     36976.26 
  648200    298.14754   -1539.0015    499.05682     305.5792   -696.30792     36976.26 
  648300    305.59044   -1512.7848    462.88798    329.21647   -1151.9827     36976.26 
  648400    306.34623   -1510.5099     498.3903    370.40448   -952.98988     36976.26 
  648500    296.94663   -1565.4915    506.29263    280.90531    118.16859     36976.26 
  648600    296.66775     -1585.35    497.33356    250.82917    669.83062     36976.26 
  648700     295.7421   -1563.6866    487.58652     258.5682    364.78709     36976.26 
  648800    302.00255   -1588.7994    497.61782    271.73977    576.32584     36976.26 
  648900    292.93117   -1539.6216    502.02855    284.38962    639.11052     36976.26 
  649000    301.01718   -1496.3436    542.17232    404.30313    491.38252     36976.26 
  649100    293.12397   -1538.8292    464.38994    248.41348    726.74155     36976.26 
  649200    296.19373   -1541.7222    496.41802    291.40224     1030.238     36976.26 
  649300    297.50247   -1553.5472    492.68041    281.74596     203.5357     36976.26 
  649400    301.56122   -1566.0338    476.38029    271.27616    -596.4541     36976.26 
  649500    293.72955   -1588.9408     480.8173    217.46221   -292.89975     36976.26 
  649600    304.11668   -1535.3931    515.36701    352.43619    -200.1599     36976.26 
  649700       296.36   -1514.3979     502.6199    325.67877     679.2313     36976.26 
  649800    309.86273   -1516.4273    484.78274    366.74938    307.27381     36976.26 
  649900    309.18773   -1505.6747    508.80096    398.47386    235.32562     36976.26 
  650000     303.6105   -1542.3095    501.40141    329.26986    151.22756     36976.26 
  650100    305.15499   -1502.8446    506.40899    380.71253    148.96897     36976.26 
  650200    303.62312   -1515.6425    468.10746    322.69986   -509.11482     36976.26 
  650300    297.23993   -1510.4395    490.40324    321.39165    18.050597     36976.26 
  650400    306.18795   -1536.7588    529.67527    374.72631    295.01716     36976.26 
  650500     302.1427   -1536.3846     486.0944    313.26367   -372.05341     36976.26 
  650600    292.92787   -1537.3479    495.74409    280.36395    371.41981     36976.26 
  650700    303.48229   -1546.3309    503.65288    326.92135   -32.106003     36976.26 
  650800    296.47366   -1524.5235    511.03239    324.47859     373.2976     36976.26 
  650900    298.11985   -1561.7186    505.83845    289.51878    342.89165     36976.26 
  651000    316.40898   -1542.2548    487.77477    373.45675    12.787478     36976.26 
  651100    308.06856    -1518.905    489.83151    361.22334    268.74147     36976.26 
  651200    290.23626   -1560.3975    487.59737    237.02059    57.149073     36976.26 
  651300    308.83396   -1489.4461    528.22365     432.5287    260.71823     36976.26 
  651400    292.69002   -1514.4165    502.80244    309.28026   -87.601389     36976.26 
  651500    294.97957   -1475.9204    501.00182    356.30845    640.94652     36976.26 
  651600    295.75733   -1495.1837    471.00912    310.56234   -321.74425     36976.26 
  651700      305.268     -1486.72    472.50183    363.43989     286.4097     36976.26 
  651800    308.09251   -1508.7726    473.99399    355.62636    259.45061     36976.26 
  651900    294.23221    -1478.613    493.47981    342.72106    18.849558     36976.26 
  652000    318.28303   -1461.7676    508.97178    483.59843    211.49309     36976.26 
  652100    296.72746   -1454.9442    485.26977    369.44072  -0.22696096     36976.26 
  652200     300.7732   -1507.0339     503.0589    353.39831    136.23254     36976.26 
  652300    305.70949   -1495.0334    518.96528    403.58238    303.70787     36976.26 
  652400    306.08078   -1496.4025    503.05233    387.97598   -318.74568     36976.26 
  652500    301.25215   -1502.4596    480.41249     337.4877   -75.717981     36976.26 
  652600    310.10793   -1469.3499    510.23602    440.38666    101.13095     36976.26 
  652700     303.7115   -1516.9144    503.75542     357.4747   -385.06824     36976.26 
  652800    295.87629   -1528.0523    500.71963    307.94121    240.33069     36976.26 
  652900    307.92431   -1531.8611    508.16043    365.94523    564.63711     36976.26 
  653000    302.54439   -1502.3562    486.96466    349.97508    399.89819     36976.26 
  653100    297.00182   -1456.6179    521.07723    404.81262    1127.1417     36976.26 
  653200    294.43473   -1521.6361    500.71621     307.8483    832.23387     36976.26 
  653300    303.18309   -1521.7473    506.95011    353.45188    549.55106     36976.26 
  653400    306.69005   -1516.3061    482.94999    350.71961    329.07243     36976.26 
  653500    306.21037   -1470.6431    497.06097    408.32883    538.89569     36976.26 
  653600    305.31289   -1436.4369    522.48005    463.90385    270.86092     36976.26 
  653700    300.58921   -1510.3528    485.82687     332.0171    226.54346     36976.26 
  653800    294.68167   -1503.6972    506.09091    332.27624    880.39722     36976.26 
  653900    302.43982   -1486.4365    515.89413    394.35235    416.73397     36976.26 
  654000    295.32795   -1503.3004    487.44609    316.94492   -128.32607     36976.26 
  654100    308.73821   -1514.0282    492.02651    371.31726    34.721235     36976.26 
  654200    289.45229   -1525.0432    489.06818    270.30765   -213.47817     36976.26 
  654300    299.11285   -1494.5112    501.35803    356.72708   -238.13749     36976.26 
  654400     293.7884   -1481.1902    516.54682    361.20795   -267.81945     36976.26 
  654500      305.999   -1475.5976    497.27789    402.63735    -178.5541     36976.26 
  654600      296.104   -1514.0244    479.90656    302.18362   -123.14193     36976.26 
  654700    300.21118   -1555.1448     513.8397    313.53193   -283.66346     36976.26 
  654800     296.9989   -1532.4403    484.84659     292.7464    332.38132     36976.26 
  654900    295.79288   -1530.7228    485.52462    289.69926     87.50981     36976.26 
  655000    297.03379    -1556.072    491.98566    276.41122    560.49875     36976.26 
  655100    305.38507   -1525.0359      475.747    328.89762    205.41352     36976.26 
  655200    308.43675   -1484.7638    486.94414    394.13888   -136.75472     36976.26 
  655300    309.72739   -1486.9781    494.19573    405.00069   -673.85627     36976.26 
  655400    293.97002    -1483.822    490.52505    333.37407   -648.80532     36976.26 
  655500     293.6118   -1471.9673    483.46408    336.55111    115.65101     36976.26 
  655600    303.50142   -1528.7249    486.91944     327.8802    -590.0319     36976.26 
  655700    295.36418   -1518.1677    494.26953    309.06454   -525.06105     36976.26 
  655800    289.06801   -1502.2464    495.47885    297.78086   -225.97902     36976.26 
  655900    302.82937   -1514.5557    498.77781    350.87484    44.049385     36976.26 
  656000    294.80902   -1514.8562    507.72886    323.32993   -365.79462     36976.26 
  656100    314.67228   -1546.0123    490.86948    364.95637    688.09187     36976.26 
  656200    307.36489   -1547.2725    488.21897    328.06772   -149.09349     36976.26 
  656300     297.1252   -1519.9529    490.70763    311.66478   -6.7078632     36976.26 
  656400    291.93012   -1508.3226     492.7375    301.87986    131.31332     36976.26 
  656500    315.00908   -1533.6976     492.7122    380.63369    933.99869     36976.26 
  656600    309.49713   -1455.7937    485.49192    426.44222    392.90471     36976.26 
  656700    305.47936   -1483.3489     523.0402    418.30331    1092.3407     36976.26 
  656800     291.8566   -1485.3933    488.68402    320.42395   -43.962617     36976.26 
  656900    306.75471   -1479.5431    489.53187    394.35635    17.123023     36976.26 
  657000    297.72206    -1459.931    485.66119    369.33396   -726.86751     36976.26 
  657100    297.85799   -1477.4935    503.91803    370.64169   -233.13743     36976.26 
  657200     307.3842   -1499.5998    495.57158    383.18021   -429.65954     36976.26 
  657300    313.29156   -1502.5791    489.29383    400.58274   -392.03947     36976.26 
  657400    295.36263   -1504.6845    501.61767    329.88889   -97.338506     36976.26 
  657500    301.25161   -1546.6324    498.19737    311.09734   -454.80341     36976.26 
  657600    302.61403   -1473.1779    505.31806    397.82102   -117.46912     36976.26 
  657700    308.00107     -1539.22    465.07863    315.85101   -531.67694     36976.26 
  657800    294.70933    -1502.879    488.47788    315.60629    61.985517     36976.26 
  657900    297.31254   -1536.0445    495.97409    301.68517   -8.8214995     36976.26 
  658000    305.00902   -1532.4685     517.7001    361.72095     152.9724     36976.26 
  658100    305.66278   -1505.4361    477.07848    351.08216    395.66334     36976.26 
  658200    296.07721   -1548.8609    495.44281    282.76254    14.905347     36976.26 
  658300    305.48553   -1499.3622    486.77522    366.05285   -129.07435     36976.26 
  658400    291.59396   -1505.1417    482.12855     292.9348    107.18153     36976.26 
  658500    298.21573   -1509.4959    504.86691    341.20263    65.190447     36976.26 
  658600     288.2306   -1527.0363    489.47666    263.20965   -143.22823     36976.26 
  658700    307.58831   -1545.7468    490.62311    333.00591    -5.367814     36976.26 
  658800    305.64809   -1556.6624     493.2486    315.95964    383.70925     36976.26 
  658900    302.80863   -1538.0905    487.47065    315.93926    12.419249     36976.26 
  659000    313.82362   -1483.8319     476.1718    408.60908   -733.79878     36976.26 
  659100    293.49156   -1529.4854    458.15704    253.18335   -524.37003     36976.26 
  659200    286.46803   -1516.0016    487.12584    263.93911   -87.743529     36976.26 
  659300    288.95731     -1551.97    493.87815    245.95703   -438.96244     36976.26 
  659400    305.68112   -1577.9683    491.44169    292.99592   -144.20185     36976.26 
  659500    299.55656   -1547.4837    462.69955    267.09855    14.405328     36976.26 
  659600    309.60384   -1543.5223    476.01801    329.72119    313.18209     36976.26 
  659700    307.76431    -1526.507     499.1102    361.52705   -19.187638     36976.26 
  659800      305.941   -1514.8258    473.82954    339.69911    236.53831     36976.26 
  659900    308.13894     -1550.28    514.81665    355.15119    62.396895     36976.26 
  660000    293.93518   -1546.4101     509.9924    290.09604    163.48523     36976.26 
  660100    293.82986    -1577.757    461.52121    209.80265   -10.419884     36976.26 
  660200    299.86365   -1544.6536    499.06968    307.68471    396.64167     36976.26 
  660300    291.91816   -1491.7798    493.88584    319.51708    249.77759     36976.26 
  660400    297.32731   -1461.3853    493.83434     374.2713    192.31344     36976.26 
  660500    307.80335   -1484.2224    471.01939    375.89698    121.43734     36976.26 
  660600    293.04499   -1483.3221    498.38885    337.56311    527.16534     36976.26 
  660700    301.17787   -1499.9255     529.3369    388.61106    672.40507     36976.26 
  660800    301.17118   -1518.9644    480.05135    320.25637    378.67253     36976.26 
  660900    301.51411   -1476.0104    506.16064    390.86726    520.22314     36976.26 
  661000    298.52342   -1505.5282    497.32225    339.01421    114.68158     36976.26 
  661100    302.64424   -1523.7467    452.57772    294.64824    149.18825     36976.26 
  661200    286.65605   -1446.7013    531.94996    378.91207    -96.24506     36976.26 
  661300    292.91721   -1494.8372    494.08182    321.16431    -34.60247     36976.26 
  661400    294.72147   -1518.3454    469.79612    281.51295    495.01179     36976.26 
  661500    296.78534   -1475.0492     502.6404    366.96754    173.91516     36976.26 
  661600    294.61533   -1460.1945    491.66527      361.054    461.22763     36976.26 
  661700    299.39082   -1531.6214    479.58606    299.09942   -200.98854     36976.26 
  661800    298.33907   -1540.2954    496.21421    302.30706    494.36204     36976.26 
  661900      296.625   -1506.2136    471.33626    303.77542    523.93247     36976.26 
  662000    306.60997   -1404.4549    491.57662    470.83614    703.57603     36976.26 
  662100    311.43756   -1475.7597    494.38639    424.12766    936.86859     36976.26 
  662200    289.65024   -1487.3874    511.86081    331.64939    980.98291     36976.26 
  662300    304.88773      -1441.5    496.46844    430.91043    723.45331     36976.26 
  662400    302.06428   -1471.1077    504.48541    396.57762    346.22112     36976.26 
  662500    300.01219   -1482.5105     488.5369    359.96535     297.4928     36976.26 
  662600    290.47262   -1509.9921    480.10009    280.99535    74.849121     36976.26 
  662700    302.15344   -1447.2216    477.83804    394.21873   -312.25402     36976.26 
  662800    297.40753   -1461.4495    489.21913    369.95388    -626.1416     36976.26 
  662900    306.08403   -1484.2444    470.76218    367.85864   -1000.4103     36976.26 
  663000    293.41507   -1449.7315    477.01658    351.45158   -436.03473     36976.26 
  663100    299.21107    -1447.159    483.49906    386.66362   -129.08677     36976.26 
  663200    306.25922   -1485.2861     497.7402    394.58556   -461.08644     36976.26 
  663300    298.85115   -1502.4043    488.93716     335.2321   -82.858139     36976.26 
  663400    288.91914   -1451.3428    494.96717    347.50094    215.15684     36976.26 
  663500    300.59621   -1455.4702    479.37924    380.48368     383.1441     36976.26 
  663600    304.82127   -1461.0763    489.95017     404.5159    432.24093     36976.26 
  663700    304.89593   -1489.0813    475.39627      362.294     456.0178     36976.26 
  663800    302.04511   -1487.4727    487.68447    363.32519    126.79336     36976.26 
  663900    296.81058   -1471.1185    488.78159    357.15337   -161.75934     36976.26 
  664000    296.89534    -1443.032    490.04826    386.88898   -373.24125     36976.26 
  664100    299.42872   -1467.5513    482.98928    366.74377   -721.73732     36976.26 
  664200    291.40853   -1474.1221    504.05962    345.04859   -950.22478     36976.26 
  664300    294.29036   -1517.2646    454.39347    265.24547   -874.14294     36976.26 
  664400    300.14227   -1510.3662    487.04913    331.20894   -425.66162     36976.26 
  664500    301.71304   -1480.1586    482.07543    363.53162    66.211433     36976.26 
  664600    297.90013   -1515.6731    478.83068    307.56487   -339.70665     36976.26 
  664700    301.60787    -1492.879      485.915    354.17615   -85.175388     36976.26 
  664800    302.14958    -1487.195    489.34918    365.73902    32.951219     36976.26 
  664900    297.03135   -1492.6437     481.0127    328.85556   -107.97638     36976.26 
  665000    300.69902   -1492.2935    507.30489    372.04996   -58.746178     36976.26 
  665100    291.58709   -1496.6509     469.9343    289.20035    490.02047     36976.26 
  665200    303.96011   -1498.7593    500.55579    373.55212     410.9885     36976.26 
  665300    294.34783   -1496.9245    490.85434    322.30579    91.618229     36976.26 
  665400    292.13568   -1492.4643    493.04105    318.96943    397.55762     36976.26 
  665500    305.18825    -1481.507    477.64732    373.43858   -11.339895     36976.26 
  665600    294.40645   -1498.8806    499.06276    328.82265    256.21308     36976.26 
  665700    299.85727   -1516.6272    498.43456    335.04709   -71.013955     36976.26 
  665800     297.7538   -1510.1598    493.53988    327.12708   -90.134454     36976.26 
  665900    299.49817   -1492.1994    497.86756    357.28737   -234.04999     36976.26 
  666000    295.92158   -1488.6115    482.60641    329.47311    73.530554     36976.26 
  666100    300.07318   -1484.4644    480.93617    350.68593   -158.85923     36976.26 
  666200    291.99811   -1501.9699    491.99735    307.79922    210.66032     36976.26 
  666300    295.70842   -1499.0024    506.34895     341.8628    644.41593     36976.26 
  666400    290.60713   -1497.2389    507.12604    321.38157    882.93911     36976.26 
  666500    293.87503   -1471.4381    514.10542    368.90958    622.45617     36976.26 
  666600     295.7428   -1486.0276    500.51047     349.1543    161.13995     36976.26 
  666700    307.64529   -1469.1649    500.25543    419.47719    630.36604     36976.26 
  666800    306.63349   -1466.7476    475.10636    392.17922    267.07487     36976.26 
  666900    306.97674   -1516.5452    496.67472    365.49906    651.94837     36976.26 
  667000    291.74899   -1436.6101    500.30917    380.34666    570.32579     36976.26 
  667100    298.65497   -1469.1999    485.59602    364.21001    278.71411     36976.26 
  667200    295.11813   -1493.4228    485.53667    323.96616    -203.0326     36976.26 
  667300    297.01811   -1472.0523    475.99752    344.37201    474.41663     36976.26 
  667400    293.92032    -1458.521    483.92718    351.85282    -18.56717     36976.26 
  667500    295.33947    -1522.688    462.68666    272.84985   -15.428228     36976.26 
  667600    305.69655   -1517.2817    504.62636    366.93678   -563.10394     36976.26 
  667700    287.61456   -1491.3277    472.10632    278.76769   -424.48553     36976.26 
  667800    291.10233   -1486.7001    477.72153    304.75065    -521.6344     36976.26 
  667900    302.47985   -1522.7652     489.1665    331.47665    146.53093     36976.26 
  668000    295.10284   -1504.2948     475.7632    303.25167    146.74126     36976.26 
  668100    303.04986    -1512.725    487.26385    342.18669   -141.37233     36976.26 
  668200    295.01545   -1494.2732    471.94647     309.0622   -569.17358     36976.26 
  668300    303.67597    -1472.865    467.33193    364.94029   -35.280259     36976.26 
  668400     296.3121   -1476.6121    475.84412    336.47261    27.597733     36976.26 
  668500    294.29996   -1513.3114    476.68799    291.53653    -324.7973     36976.26 
  668600    305.63402   -1469.8702    502.97549    412.41525   -271.56962     36976.26 
  668700    292.04638   -1422.2252    479.72639    375.49083    301.12062     36976.26 
  668800    305.63167   -1459.2273    474.04099    394.11306   -151.76082     36976.26 
  668900    296.61953   -1432.3253    505.35614    411.65889    65.071399     36976.26 
  669000    301.55246   -1435.1185    502.43072    428.20228    151.97956     36976.26 
  669100    299.79594   -1446.3317    489.65926     396.2906    135.41667     36976.26 
  669200    300.62312   -1402.5987    475.18583    429.28313    119.71544     36976.26 
  669300    303.99702    -1443.795    509.12263    437.24987    233.06304     36976.26 
  669400    299.54659   -1470.3146     491.4531    372.97624    622.01437     36976.26 
  669500    298.88977   -1489.6472    494.28756    353.51385    935.55769     36976.26 
  669600    304.12019    -1478.166    480.36883    374.68089    567.31106     36976.26 
  669700    304.16177   -1467.4806     497.2569     402.4421    342.60454     36976.26 
  669800     309.8226   -1466.4975    486.22274    417.93806    409.33271     36976.26 
  669900    296.77428   -1469.6039    506.07033    375.79288    11.527551     36976.26 
  670000    301.80207   -1428.7974    497.63934    430.85847    18.939213     36976.26 
  670100    303.24294   -1477.1615    486.39321    377.75087    501.89144     36976.26 
  670200    298.87926   -1482.0385    507.39221    374.17982    9.0279973     36976.26 
  670300    298.36772   -1461.0324    513.52647    399.01155     472.4329     36976.26 
  670400    304.74555   -1497.1048    469.80036    347.99584    182.92217     36976.26 
  670500    290.34157   -1502.5652     476.3886    284.11938     284.7609     36976.26 
  670600    301.84751   -1470.4648    509.16558     400.9224    280.58286     36976.26 
  670700    298.39975   -1451.0988     502.7657    398.32901    590.61504     36976.26 
  670800    314.15211   -1424.9661    535.78456    528.57013     441.9715     36976.26 
  670900    309.01588   -1457.1103    477.55236    415.01414    410.97737     36976.26 
  671000    302.42836   -1486.3508    489.44083    367.93306    801.86588     36976.26 
  671100    304.44108   -1481.0941    503.31044    396.14268    559.98297     36976.26 
  671200    305.36858   -1475.1526    503.94235    406.90177    1010.4034     36976.26 
  671300    298.96131   -1453.3489    466.78926    362.63667    391.40333     36976.26 
  671400    307.88254   -1417.9519    524.84602     496.3515    77.878287     36976.26 
  671500     306.8579   -1477.6457    484.93659    392.12414   -71.743675     36976.26 
  671600    289.94662   -1452.9885    470.08007    325.60511    343.10303     36976.26 
  671700    302.15394   -1461.3495     477.2949    379.54994   -555.36118     36976.26 
  671800    298.41928   -1427.5811    481.08246    400.25155   -333.34854     36976.26 
  671900    303.15467   -1450.5274    474.64918    392.24254    -478.9403     36976.26 
  672000    300.76993    -1430.794    487.08759    413.65217   -889.89895     36976.26 
  672100    303.55283   -1474.5992    458.94317    354.26161   -264.89818     36976.26 
  672200    298.41201   -1468.8628    493.82896    371.68352     -208.136     36976.26 
  672300    306.10776   -1459.5109    469.69166    391.62866   -18.987665     36976.26 
  672400    290.88057   -1477.2956    501.58276    337.01559   -128.73985     36976.26 
  672500    300.24745   -1500.4965    484.11992    338.62408    110.68668     36976.26 
  672600     314.8554   -1513.5375    471.10465    378.49269   -1.5572424     36976.26 
  672700    290.90248   -1514.8495    473.27574    271.25359    181.35719     36976.26 
  672800    302.26607   -1509.1943    475.57862    330.49493      269.871     36976.26 
  672900    298.84856   -1504.6504    477.45204     321.4892    374.06481     36976.26 
  673000    300.71591    -1506.074    474.05951     325.1003    83.905211     36976.26 
  673100    297.41842   -1481.3192    486.35875    347.27297     681.9972     36976.26 
  673200    302.23212   -1484.4278    481.42373     360.9533    45.087653     36976.26 
  673300    293.13163   -1507.7833    478.50826    293.61228    194.72957     36976.26 
  673400    308.87192   -1480.2233    478.86897    392.56811     12.97673     36976.26 
  673500    305.37338   -1440.9772    494.69864    431.85514    1279.5819     36976.26 
  673600    293.71494   -1502.5298    491.24484    314.23483    503.19979     36976.26 
  673700    294.85124   -1522.8014     495.5323    303.37877    -34.00927     36976.26 
  673800    301.18449   -1516.1751    468.32341     311.3778    525.23695     36976.26 
  673900    309.58362   -1493.7938     483.5225    386.86295    67.064294     36976.26 
  674000    289.39808   -1475.5839    461.29666    291.75082   -330.78431     36976.26 
  674100    300.48332   -1463.2708    487.48826    380.28255   -171.28708     36976.26 
  674200    311.49658   -1488.0823    473.53122    391.21625   -329.60974     36976.26 
  674300    310.29312   -1478.9551    470.86512    392.24627   -321.64337     36976.26 
  674400    304.52146    -1463.067    483.03607    394.25805   -87.794621     36976.26 
  674500    296.41646   -1505.4727    462.67831    294.91723   -23.539397     36976.26 
  674600     299.3418   -1474.5319     482.4547    358.83636    373.32578     36976.26 
  674700    311.41096   -1511.2206    480.80241    374.96284   -53.209166     36976.26 
  674800    302.23264   -1501.1127    500.66312    363.51012   -101.68516     36976.26 
  674900     294.4669   -1478.0527    489.12344    339.98406   -96.364304     36976.26 
  675000    315.38157    -1508.433    491.54216    406.40931    978.35986     36976.26 
  675100    301.62313   -1463.1285    498.99399    397.07451    790.79355     36976.26 
  675200    299.78085    -1451.919    483.42084    384.39681     500.1264     36976.26 
  675300    294.64603   -1411.5695    523.44608    441.59837    683.22808     36976.26 
  675400    306.78609   -1478.9638    488.96006    394.50552    969.28212     36976.26 
  675500    293.27019   -1484.4146    478.51017    317.60818    286.75977     36976.26 
  675600    296.95428   -1465.4974    504.38558    379.02691   -133.22566     36976.26 
  675700    297.49854   -1451.9706     479.8559    370.48029   -289.48329     36976.26 
  675800    299.10614   -1435.4635    504.99239    419.37889   -2.7315892     36976.26 
  675900    302.01594   -1410.8258    528.20506    480.36105   -68.854358     36976.26 
  676000    295.19171   -1437.5484    511.73403    406.36995    76.004112     36976.26 
  676100    300.63803   -1424.6567    502.50728    434.61387   -47.561097     36976.26 
  676200    293.32268   -1429.0575    470.45215    365.14422   -154.47064     36976.26 
  676300    305.07067   -1408.9477    510.18734     478.0072   -200.73729     36976.26 
  676400    301.48121    -1435.419    495.38532    420.53487    53.424183     36976.26 
  676500    313.42734   -1394.5864    496.21662    516.11105    126.46817     36976.26 
  676600    310.43858   -1398.4062    473.19106     475.7775   -362.69978     36976.26 
  676700     308.5262   -1438.3136    494.83299    448.88157   -127.40453     36976.26 
  676800    293.86355   -1424.1164    500.05253    402.12654   -27.217715     36976.26 
  676900    299.04932   -1374.9233    485.24324    459.91348    4.5888789     36976.26 
  677000    302.86501   -1459.0243    502.90929    410.69854   -342.53761     36976.26 
  677100    296.86332   -1403.8889    512.10227    447.94161   -609.15759     36976.26 
  677200    298.22412   -1429.8166    473.31912    389.37199   -656.79822     36976.26 
  677300    305.07264    -1405.534    499.86186    471.10432      223.135     36976.26 
  677400    313.38696   -1447.2781    489.97479    456.99523   -305.22051     36976.26 
  677500    299.73478   -1473.1692    485.64233    365.16013   -24.186684     36976.26 
  677600    300.39455   -1464.6421    506.72516    397.74753    -570.6701     36976.26 
  677700    321.04666   -1507.6632    475.94098    417.14419   -520.15898     36976.26 
  677800    299.08058   -1465.4615     479.2405     363.5136    -406.1033     36976.26 
  677900    308.88516   -1477.4101    480.43297    397.00501     158.2383     36976.26 
  678000    297.84961   -1488.7273    484.70736    340.15942    416.20279     36976.26 
  678100    294.24125   -1522.0695    489.41868    295.24418     448.5887     36976.26 
  678200     313.5507   -1487.8406    491.65249    418.84945    115.72107     36976.26 
  678300    299.79736   -1468.9974    493.26116    377.23323   -726.97759     36976.26 
  678400    303.28231   -1480.0854    493.74355    382.35496    103.15235     36976.26 
  678500    296.52598    -1481.606    491.39732    347.99716   -441.40429     36976.26 
  678600    296.81743   -1462.9132    508.20818    384.81614    154.78955     36976.26 
  678700    294.93707   -1453.0316    484.67954    362.68313   -37.366867     36976.26 
  678800    295.56044   -1463.1755    496.47151    367.14439     112.8304     36976.26 
  678900    295.64926   -1506.3318    484.24477    312.16225    466.15203     36976.26 
  679000    311.91434   -1446.4437    488.01027    449.21929    307.57365     36976.26 
  679100    297.96243   -1468.8179    498.78391    374.65453    378.01314     36976.26 
  679200    307.57375   -1455.2577    503.67564     436.4818   -326.55245     36976.26 
  679300    296.31273    -1446.008    494.55181    385.78725    342.79376     36976.26 
  679400    307.83743   -1512.7107    455.78033    332.32346   -695.83141     36976.26 
  679500    309.26144   -1489.0112    495.82817    402.49727   -422.40341     36976.26 
  679600    288.43864   -1463.4012    506.93369    345.24066   -480.25454     36976.26 
  679700    299.01117   -1457.0072    485.91958    378.33377   -342.29769     36976.26 
  679800    290.13974   -1449.5311    492.63308    352.48706   -251.84491     36976.26 
  679900    294.23603   -1410.9653    503.06042    419.96655   -433.70986     36976.26 
  680000    298.74874   -1480.7336    479.53174    347.03518   -566.43533     36976.26 
  680100    314.57537   -1498.9113    475.81921    396.56975   -449.01372     36976.26 
  680200    306.36682   -1494.0119    487.56745     376.1726    330.54916     36976.26 
  680300     312.1976   -1464.4961    518.70646     463.1414   -135.93437     36976.26 
  680400    300.20275   -1422.1089    519.16887     451.8589    569.02054     36976.26 
  680500     296.1897   -1436.0655    502.81358    403.43632   -239.66781     36976.26 
  680600    312.96303   -1438.6978    503.82563     477.5132    337.88039     36976.26 
  680700     290.6778   -1479.7411    516.49192     348.5642    107.41615     36976.26 
  680800    301.46424   -1451.8127    507.89116    416.57042   -217.44134     36976.26 
  680900    296.08292   -1469.8812    487.48421    353.80935   -114.53702     36976.26 
  681000    311.45964   -1462.0212    481.72275    425.30225    306.64489     36976.26 
  681100    304.69805   -1464.6091    514.83992    425.31679   -83.987355     36976.26 
  681200    296.99346   -1480.7556    491.22081    350.78075   -52.585455     36976.26 
  681300    296.55308    -1490.893     496.6426    344.07778   -41.775355     36976.26 
  681400    304.81991   -1511.8715    503.25734    367.02177   -26.925749     36976.26 
  681500    302.50489    -1461.571    492.74252    396.35989   -390.76396     36976.26 
  681600    299.49027   -1437.9051     507.9376    421.61606     225.9341     36976.26 
  681700    292.23826   -1488.0348    503.94995    334.77078    3.3242918     36976.26 
  681800    299.85269   -1487.7142    483.97884    349.48381    693.60847     36976.26 
  681900    289.05266   -1538.5562    496.38871    262.31172    353.29899     36976.26 
  682000    295.31621   -1451.9652    511.06906    391.85008    412.07157     36976.26 
  682100    301.85651   -1484.2586    503.88609     381.8897    475.00384     36976.26 
  682200    307.01321   -1500.4034    495.28437    380.41514    592.15385     36976.26 
  682300    299.06634   -1474.4761    496.90281    372.09704    301.46803     36976.26 
  682400    301.75771   -1480.4784    511.16298    392.50093    702.98199     36976.26 
  682500    307.16678   -1464.0563    486.22244    408.39334    796.99257     36976.26 
  682600     299.8039   -1475.8982    504.70328    381.80398    366.04005     36976.26 
  682700    301.82051   -1481.4847    500.32906    380.94412    526.07855     36976.26 
  682800    290.75453   -1497.9506    497.19733     311.4063   -479.66622     36976.26 
  682900    295.67299   -1469.4411    510.95583    375.87108   -282.41931     36976.26 
  683000    297.74493   -1513.6057    481.87794    311.97917   -187.20571     36976.26 
  683100    300.89276   -1540.1514    492.13655    309.89807   -49.830764     36976.26 
  683200     302.4027   -1501.0813     496.5211    360.16694     -228.732     36976.26 
  683300    305.77731   -1511.2812    492.14924     360.8247     348.3275     36976.26 
  683400    298.17068   -1457.8024    509.47937    397.30524   -555.24942     36976.26 
  683500    300.75142   -1472.9186     499.7793    384.13577   -379.61019     36976.26 
  683600    305.44183   -1479.0159    474.24367    373.67034   -47.604111     36976.26 
  683700    304.18863   -1469.0072    476.06641    379.84615   -278.71759     36976.26 
  683800    304.77431   -1532.4109     490.6486    333.66784   -355.84927     36976.26 
  683900    303.20726   -1477.4798    469.55323    360.43152     57.24748     36976.26 
  684000    299.20651   -1482.4694     486.0699    353.90344   -8.7643517     36976.26 
  684100    302.66222   -1524.9512    485.14239    326.08954    -41.75556     36976.26 
  684200    304.16024   -1489.0177    486.94156    370.58268   -576.10618     36976.26 
  684300    297.96182   -1485.2682      509.239    368.65651    189.45093     36976.26 
  684400    290.87023   -1506.7617    474.52647    280.44651   -214.09485     36976.26 
  684500    297.64904   -1507.9898    466.52375    301.80811   -403.42765     36976.26 
  684600    297.57773   -1529.1133    469.54594    283.38497     283.1672     36976.26 
  684700    290.45537   -1490.0561    482.53859      303.292    -243.6441     36976.26 
  684800    296.43353   -1490.8091    520.02056    367.00014    357.78483     36976.26 
  684900    297.35116   -1492.1651    476.02952    325.79431    388.96545     36976.26 
  685000    291.17332    -1503.718    485.30155    295.63315   -133.54338     36976.26 
  685100    287.20174   -1510.0718    474.64146    260.69575   -121.52391     36976.26 
  685200    289.37061   -1500.3423    450.22437    255.79616   -306.75156     36976.26 
  685300     306.4463   -1463.8744    507.82031    426.92166   -245.97181     36976.26 
  685400    288.53445   -1472.5673    484.08077    313.65393    257.66173     36976.26 
  685500    305.31584   -1480.0305    488.66744    386.51097    177.76349     36976.26 
  685600    298.43768   -1477.9002     514.5471    383.48017    232.11262     36976.26 
  685700    300.20248   -1457.8352    447.33553    344.29804    491.32956     36976.26 
  685800    300.59644   -1521.1505    518.37198    353.79712    805.94747     36976.26 
  685900    289.58855   -1541.7305    454.86765    220.03477    1094.8627     36976.26 
  686000    300.81507   -1500.6324    504.83442    361.76427    1061.4808     36976.26 
  686100    294.69195   -1504.8833    485.01429    310.05994    1126.5328     36976.26 
  686200    303.33691    -1484.886    510.63725    394.69446    661.32648     36976.26 
  686300    298.62509   -1510.7949    480.26924    317.15339    930.95577     36976.26 
  686400     299.8884   -1534.0546    491.03778    310.36343   -98.458154     36976.26 
  686500    295.76935    -1460.315    504.61499    379.09119    445.35668     36976.26 
  686600    301.25501   -1529.3321    486.27545    316.49107  -0.16168513     36976.26 
  686700    295.97999   -1457.2423    495.49386    373.99341    149.51433     36976.26 
  686800    308.04622   -1505.6077    470.00888    354.59725   -237.37825     36976.26 
  686900    302.53966   -1485.5837    518.37344    398.13508    7.0584928     36976.26 
  687000    301.53427   -1459.4012    479.68261     381.0894    374.48711     36976.26 
  687100    297.22155   -1485.1716     476.9702    333.14353   -469.65444     36976.26 
  687200    289.26625    -1477.447    481.36627    309.36234   -361.81502     36976.26 
  687300    301.86628   -1458.8245    501.93754    405.41942   -267.74059     36976.26 
  687400     298.5108   -1468.4961    495.35155     374.0187   -525.24023     36976.26 
  687500    303.70373   -1520.0436    494.12653    344.68162   -194.03109     36976.26 
  687600    290.25436   -1466.8133    517.35081    360.43993     18.28717     36976.26 
  687700    297.49875   -1448.4221    508.63224    402.80603    94.891567     36976.26 
  687800    299.42243   -1492.9129    481.92547    340.28998   -415.91166     36976.26 
  687900    307.62008   -1499.0827    479.29109    368.48135   -15.432984     36976.26 
  688000    297.51741   -1492.5075    463.20098    313.37364   -499.38326     36976.26 
  688100    299.93487   -1511.5407    479.51887    321.56818   -525.13054     36976.26 
  688200      305.739   -1471.4734    480.40228    388.71259   -829.13672     36976.26 
  688300    295.40966   -1443.2413    523.94421     413.8709    164.03142     36976.26 
  688400    301.33511   -1465.1502    501.30257    396.06158    -125.9731     36976.26 
  688500    302.31719   -1429.9136    505.88072    440.30841   -234.56703     36976.26 
  688600    309.84516   -1436.7813     498.9052    460.43845     120.2366     36976.26 
  688700    305.13218   -1490.2278    490.65418    377.47151     122.0566     36976.26 
  688800    306.84453   -1482.9225    495.51272    397.36311    676.81244     36976.26 
  688900    302.72597   -1508.6237    505.67076    363.23318   -225.56735     36976.26 
  689000    301.66188   -1487.7885    474.81612    348.41153    592.13966     36976.26 
  689100    304.45013   -1513.6674    506.62104    366.92079    570.62794     36976.26 
  689200    286.38291   -1507.1953    484.43346    269.66888    767.26598     36976.26 
  689300    292.66542   -1520.8742    500.32411    300.23325    578.61464     36976.26 
  689400    300.65383   -1553.9351     488.3078     291.2073   -3.7494483     36976.26 
  689500    306.14751   -1501.7698    500.18238    380.03988    80.620132     36976.26 
  689600    308.61477   -1509.0545    486.91043     370.6179   -253.31569     36976.26 
  689700    308.73912   -1503.9787     500.3022    389.64655   -515.33266     36976.26 
  689800    301.73234   -1475.6632    481.32494    367.36362   -336.79088     36976.26 
  689900    300.03096   -1518.8082    496.91354    332.12897    12.087304     36976.26 
  690000    299.08658   -1502.4896    505.06953    352.34166   -176.22373     36976.26 
  690100      295.963   -1529.2228    501.02584    307.46821   -172.18604     36976.26 
  690200    291.64323   -1499.7703    501.83984    318.23982   -784.91384     36976.26 
  690300    306.74058   -1463.2297    505.55019    426.62425   -980.00352     36976.26 
  690400    297.49114   -1480.3015    491.42209    353.68219   -395.69284     36976.26 
  690500    305.07906   -1493.9639    487.63254    370.47414    82.558668     36976.26 
  690600    292.47292   -1488.9777    502.95328    333.89024     851.9397     36976.26 
  690700    302.50377   -1534.9504    503.07157    333.30447    106.60332     36976.26 
  690800    293.06596   -1489.0372    487.87142    321.42519    92.829167     36976.26 
  690900    291.87625   -1520.6564    493.08558    289.65106    416.57149     36976.26 
  691000    303.38657   -1503.9894    478.33069    343.50864    338.69253     36976.26 
  691100    298.38388   -1529.4402    481.50169    298.65195    223.90754     36976.26 
  691200    289.56291   -1520.9938    483.45243     269.2405    860.38877     36976.26 
  691300    297.94979   -1510.1084    518.64131    353.16432    743.64309     36976.26 
  691400    305.95404   -1493.9342    488.45765    375.27769      630.762     36976.26 
  691500    300.24417   -1495.3565    512.94028    372.56966     276.3354     36976.26 
  691600    302.35681   -1530.7736     495.2011    328.94759    87.017634     36976.26 
  691700    291.25837   -1537.3167    488.14067    265.25735    129.38849     36976.26 
  691800    288.02306     -1524.28    475.23846    250.79105   -74.656512     36976.26 
  691900     285.5369   -1493.0666    515.70249    311.24864   -61.899767     36976.26 
  692000    300.74993   -1462.4944    521.21058    415.98447   -45.588691     36976.26 
  692100    302.55395   -1526.9899    478.93348     317.3533    303.65806     36976.26 
  692200    302.27189   -1522.4375    524.50195    366.20131    324.29253     36976.26 
  692300    304.54917   -1508.3266    505.69585    371.78331      705.678     36976.26 
  692400     301.5389   -1556.3233    489.01913     293.5247     602.7224     36976.26 
  692500    305.65645   -1500.8126    479.34058    357.93918    452.69412     36976.26 
  692600     309.3451   -1540.1686    511.65459    367.54389   -84.475165     36976.26 
  692700    300.51103   -1538.8338    506.35159      323.708    21.230591     36976.26 
  692800    306.21624   -1526.1339    493.83867    349.64232    334.30918     36976.26 
  692900    303.63954   -1546.4444    492.94602     316.8106   -472.91038     36976.26 
  693000    294.71714   -1551.1062     483.2799    262.21639   -506.46595     36976.26 
  693100    295.34199   -1511.3852    491.86971    313.34706    38.987286     36976.26 
  693200    303.41093   -1512.7397    499.65156    356.18914   -133.22022     36976.26 
  693300    302.13105   -1545.8896    522.11171     339.7234   -93.678391     36976.26 
  693400    305.55248   -1563.0322    496.42445    312.33417    356.09797     36976.26 
  693500    297.07162   -1532.4238    494.94979    303.19431    531.70013     36976.26 
  693600    307.21374    -1541.807    512.29887      356.931   -149.96865     36976.26 
  693700    303.38533   -1576.4466    480.01661    272.73172      44.1768     36976.26 
  693800    306.57835   -1524.8934    482.67312    341.35141    345.04207     36976.26 
  693900    295.50977   -1537.2178     506.2027    302.60465    668.59012     36976.26 
  694000    301.61285    -1554.655    485.14652    291.65416    367.91177     36976.26 
  694100    307.43912   -1526.8004    492.33083    352.98674    672.18911     36976.26 
  694200    299.29304   -1538.8864    513.87923    325.68627    873.08722     36976.26 
  694300    301.97677   -1540.0299    491.63861    314.41363    335.04953     36976.26 
  694400    302.30983   -1534.6358    496.05003    325.72227    359.11177     36976.26 
  694500    304.86243   -1512.3018      491.938    355.46395    200.91766     36976.26 
  694600    302.80012    -1508.482    493.75489    351.79359   -271.75421     36976.26 
  694700    296.92539   -1530.6134    508.65537     318.0503   -338.05722     36976.26 
  694800    302.56207   -1536.8576    502.95896    331.54774    133.15238     36976.26 
  694900    295.28919   -1548.6965      473.526    257.45383   -231.94603     36976.26 
  695000    307.89833   -1541.0962    494.32282    342.75524   -241.94994     36976.26 
  695100    304.32735      -1574.1    471.96442    271.27743    53.283116     36976.26 
  695200    302.90969   -1532.2809    503.10361    337.83793   -121.73072     36976.26 
  695300    309.73629   -1576.1397    497.77647    319.46009    186.80586     36976.26 
  695400    300.50302   -1544.6606    496.28576    307.77916   -651.90019     36976.26 
  695500    297.32003   -1529.8807    465.98547    277.89408   -89.371603     36976.26 
  695600     306.3027   -1570.3194      496.716    308.72431   -633.70439     36976.26 
  695700    293.13979   -1526.5153     495.5687    291.97759   -121.79175     36976.26 
  695800    304.48535   -1507.7609    467.16143    333.52658    -30.12776     36976.26 
  695900    305.68184   -1506.1277    483.51268    356.91074   -74.642902     36976.26 
  696000    298.98488   -1503.5161    471.45829    317.24491   -557.83392     36976.26 
  696100    302.38782   -1495.1784    508.71538    378.19698   -194.93872     36976.26 
  696200    301.72381   -1467.1996    498.01391    392.47771   -117.20432     36976.26 
  696300    293.86377   -1474.1169    502.96608    355.04064   -213.37376     36976.26 
  696400    306.73566   -1486.5278    501.72996    399.48373   -170.74971     36976.26 
  696500    297.30825   -1499.0458    479.61542    322.30586    44.082775     36976.26 
  696600    301.54604        -1509    487.01047    338.87156    381.16297     36976.26 
  696700    302.41428   -1508.8825    477.68393    333.58084   -225.37408     36976.26 
  696800    302.99431   -1516.1729    492.08827    343.31244    362.00603     36976.26 
  696900    298.37928   -1520.3773    485.44614    311.63857    321.60371     36976.26 
  697000    315.97508   -1517.3473     539.0375    447.66883    267.80277     36976.26 
  697100    296.69166   -1520.5918    466.44994     284.8117   -87.992726     36976.26 
  697200     297.9482   -1527.1242    474.42811    291.92822    309.78686     36976.26 
  697300    298.42439   -1517.4905    496.87612    326.15885    77.410916     36976.26 
  697400    293.23994   -1559.0561    506.36174    270.68182    111.67781     36976.26 
  697500    300.28414   -1499.6075    508.17976    363.73849   -207.34311     36976.26 
  697600    299.33107   -1481.3214    493.76969    363.31341   -245.82745     36976.26 
  697700    310.94125   -1513.0287    474.84246    365.07493   -495.46639     36976.26 
  697800    313.88831   -1510.7676    483.15338    388.94693     242.5768     36976.26 
  697900    297.75692   -1500.6703    500.96412    344.05489    77.318651     36976.26 
  698000    296.07163   -1534.2854    510.13152    312.00152   -76.486922     36976.26 
  698100    295.10674   -1521.1504    488.99695    299.64747    -32.25813     36976.26 
  698200    308.45825   -1499.6324    503.25847    395.68162   -27.395327     36976.26 
  698300    295.72248   -1501.7931    488.99024    321.77683   -101.97163     36976.26 
  698400    298.18114   -1514.8266    491.20113    322.05007   -416.05048     36976.26 
  698500    302.27743   -1503.5363    480.27624    340.90173   -334.99372     36976.26 
  698600    311.44358   -1490.2098    517.79494    433.11329   -357.43586     36976.26 
  698700    301.96705   -1498.9194    482.40098    346.24272    58.953436     36976.26 
  698800    302.72086    -1499.077    492.66186    359.74788   -38.233329     36976.26 
  698900    291.28701   -1521.2973    479.03749    272.30283    112.31817     36976.26 
  699000    300.94317   -1524.1502    470.80584    304.79605   -152.94462     36976.26 
  699100    303.14536   -1524.0771    509.71222    353.71386     551.5691     36976.26 
  699200    301.62749   -1511.5487    493.18009    342.86012    157.57656     36976.26 
  699300     293.7635   -1516.3933     481.6205    290.96608    304.71886     36976.26 
  699400    303.40674   -1441.6879     498.7968    426.36731     107.7444     36976.26 
  699500    306.80834   -1476.7113    494.86315     402.7614   -111.94437     36976.26 
  699600     297.1284   -1503.1776    475.11689    312.86388    158.21777     36976.26 
  699700    298.82575   -1473.7434    496.76687    371.60804   -316.66759     36976.26 
  699800    292.43354   -1468.2878    488.28569    339.73475   -92.909416     36976.26 
  699900    296.39281   -1494.0933    494.81233     338.3239   -473.29815     36976.26 
  700000    304.52811    -1488.409    492.79574     378.7058    276.50496     36976.26 
  700100    302.80576   -1499.1134    531.33988    398.77271    537.93755     36976.26 
  700200    299.60057   -1483.1053    474.66502    343.64106    199.81098     36976.26 
  700300    291.59626    -1460.991    500.73822    355.70554   -395.92119     36976.26 
  700400    299.04317   -1501.8458    492.95305    340.67302   -354.38821     36976.26 
  700500    297.78421   -1523.7619    493.33538    313.45763   -261.24419     36976.26 
  700600    312.02822   -1511.1613    465.21599    362.22131    84.095121     36976.26 
  700700    299.01806   -1524.5753    475.23086    300.10808   -150.90246     36976.26 
  700800    293.86582   -1508.2423    482.10966    300.06803   -629.02635     36976.26 
  700900    304.26104   -1483.4903    478.23427    367.85777   -814.18898     36976.26 
  701000    296.64421    -1463.355    503.60976    378.99415   -855.56426     36976.26 
  701100    289.89081   -1489.2362    497.75597    316.78149   -409.47036     36976.26 
  701200     297.3957   -1480.3664    480.75731    342.52172   -442.52088     36976.26 
  701300    314.37701   -1524.4462    498.98219    393.30256   -287.32582     36976.26 
  701400    302.87971   -1524.5196    465.92586    308.28615    548.73548     36976.26 
  701500     293.9836   -1491.0146    508.03638    343.75398    473.62312     36976.26 
  701600    297.24764   -1517.7165    496.37645    320.12258   -68.997485     36976.26 
  701700    296.92206   -1530.3597    482.90812     292.5418    663.96926     36976.26 
  701800    305.33744   -1495.1606    465.93015    348.74107    568.14242     36976.26 
  701900    295.43932   -1451.6733    490.79792    372.42644    441.11498     36976.26 
  702000    307.03731   -1472.2925     506.2254     419.5758   -195.12177     36976.26 
  702100    297.44537   -1493.4543    499.74647    348.64713       297.78     36976.26 
  702200    298.88947   -1495.6589    478.65767    331.87096    126.27249     36976.26 
  702300    291.13331   -1508.3874    494.33207     299.8137   -88.078246     36976.26 
  702400    296.90448   -1510.0306    460.98683    290.87027   -251.16813     36976.26 
  702500     309.2651   -1550.9519    494.80115    339.54608   -183.71167     36976.26 
  702600    295.37392   -1549.7088     480.1798    263.47769   -804.15357     36976.26 
  702700    306.82274   -1546.9883    499.76263    337.44891    290.01958     36976.26 
  702800    311.05848    -1513.625    495.21651     385.3817   -102.22371     36976.26 
  702900    307.56045   -1520.6289    476.41102    343.78599    76.772773     36976.26 
  703000    291.68558    -1536.423    486.29062    266.22901   -202.25295     36976.26 
  703100    297.49142    -1499.579    492.86075    335.84456    459.02367     36976.26 
  703200    302.13597   -1475.1896    518.01932    406.35317     214.7159     36976.26 
  703300     309.8846   -1496.0081    486.86284     389.3474    562.85416     36976.26 
  703400    301.45404   -1506.0176    496.89777    351.32605     399.7503     36976.26 
  703500    294.83464   -1534.2613    505.59026    301.90192    365.16991     36976.26 
  703600    296.19361   -1518.9523    489.09179    306.84544    475.06329     36976.26 
  703700    305.76273    -1504.026    496.29563    372.16051    127.77848     36976.26 
  703800     293.7692   -1531.3326    481.39109    275.82317    213.26724     36976.26 
  703900    303.80567   -1535.4124    472.93308     308.5794   -264.97498     36976.26 
  704000    298.23204   -1526.0486    491.72932    311.58593   -348.58552     36976.26 
  704100    293.71451   -1555.0294    499.30294    269.79142   -508.64496     36976.26 
  704200    311.42716   -1505.7317     504.0049     403.7273   -213.56648     36976.26 
  704300    297.80078   -1518.3053    473.27552    298.92911   -365.38917     36976.26 
  704400    305.14644   -1500.6007    513.02608    389.53491   -364.88618     36976.26 
  704500    288.06078   -1466.4238    512.75515    346.33422   -358.10299     36976.26 
  704600    318.17346   -1507.9883    474.98451    402.89599    521.32389     36976.26 
  704700     301.2095   -1517.7146    487.56968    329.19748     240.7932     36976.26 
  704800    300.74161   -1500.0559    505.01816    362.19298   -87.959215     36976.26 
  704900    303.08022   -1527.3236    469.77398    310.23519   -369.79707     36976.26 
  705000    301.11597   -1474.5874    493.28154    377.61433    162.78314     36976.26 
  705100    303.79172   -1513.1565    477.32674    335.16601    106.96174     36976.26 
  705200    306.97848   -1483.6957    487.53799    389.21971   -204.33532     36976.26 
  705300    306.38739   -1483.8543     491.7847    390.64029   -531.76959     36976.26 
  705400    303.04952   -1482.5464    482.57735    367.67716   -412.20503     36976.26 
  705500    298.30218   -1479.4387    512.17729    378.96035    -529.1687     36976.26 
  705600    296.98817   -1489.4739    481.44526    332.26305   -612.50086     36976.26 
  705700    301.57323   -1505.8869    488.92022    344.01715   -440.93771     36976.26 
  705800    307.58709   -1476.7911    516.74934    428.08226   -2.7742416     36976.26 
  705900    305.74433   -1473.1686    514.07075    420.70992   -348.61162     36976.26 
  706000    290.45015   -1483.0669    516.70534    344.42441   -345.98597     36976.26 
  706100    305.37341   -1469.8641    482.81837    391.08805   -311.55316     36976.26 
  706200     300.4529   -1486.0831    499.32839    369.17314    130.76475     36976.26 
  706300    299.38965    -1485.212    503.17007    369.08751    767.03128     36976.26 
  706400    290.43686   -1522.2194    468.78029    257.28684    418.88938     36976.26 
  706500    309.47093   -1510.7026    521.28709    407.21022    341.83977     36976.26 
  706600    307.91942   -1498.6937     465.3418    356.27197    456.80743     36976.26 
  706700    301.00338   -1497.3216    506.08216    367.17263    356.46007     36976.26 
  706800    291.19328    -1535.105    490.12951    269.16415    65.173377     36976.26 
  706900    303.71112   -1512.0356    476.43131    335.02771   -270.98126     36976.26 
  707000    290.50907   -1519.5857    510.02873    301.49493   -629.23795     36976.26 
  707100    294.47202   -1482.2153    515.79822    362.51933   -571.53095     36976.26 
  707200    295.50718   -1467.4828    514.67042     380.7957   -589.90502     36976.26 
  707300    287.98335   -1486.8086    512.33996     325.1848    -16.94197     36976.26 
  707400    291.39387   -1456.6414    499.74473    358.14823    134.02267     36976.26 
  707500     300.6874   -1489.8052    507.26369    374.44459    356.22025     36976.26 
  707600    296.75464   -1493.4607    485.99544    331.77256   -298.00384     36976.26 
  707700    298.30279   -1469.1741    499.33925    376.38962   -133.23289     36976.26 
  707800    296.61896   -1440.1444    547.91762     446.3987   -267.12882     36976.26 
  707900    303.74078   -1486.0092     526.5151    411.27175    41.214069     36976.26 
  708000    290.13262   -1508.7394    506.03938    306.65294   -541.66855     36976.26 
  708100    309.84313   -1474.0882     503.9835    428.20068   -738.66126     36976.26 
  708200    287.73514   -1518.5937    484.13519     264.0747   -342.24657     36976.26 
  708300    292.33494   -1501.3114    508.88939    326.86992   -1021.5184     36976.26 
  708400    287.94625   -1470.8543    513.48265    342.11431   -818.53932     36976.26 
  708500    301.26782   -1529.6959    508.29932    338.20894   -300.68736     36976.26 
  708600    300.24826   -1521.4844    487.79509    321.31501    -428.5526     36976.26 
  708700    291.71745   -1498.7036    512.39314    330.19476   -746.89559     36976.26 
  708800    296.68994   -1463.9335    529.88939    404.90171   -450.82897     36976.26 
  708900    301.42426    -1519.815     527.3819    367.87847   -726.98154     36976.26 
  709000    288.90319   -1441.8354     515.9688    377.93804   -408.57079     36976.26 
  709100    304.67237     -1443.05    502.29993    434.22001    169.53583     36976.26 
  709200    310.20272    -1460.467    513.73801    453.19931    554.18147     36976.26 
  709300    308.17287   -1475.8256     497.8399    412.78197   -72.123344     36976.26 
  709400    315.56143    -1476.732    482.00177    429.38162   -278.42299     36976.26 
  709500    295.94955   -1490.4393    487.64404    332.80923    143.98346     36976.26 
  709600    299.03321   -1488.3667    512.68726    373.84139   -433.38408     36976.26 
  709700    304.61783   -1480.5488    536.85017    431.02525    329.17177     36976.26 
  709800    294.24652   -1436.0326    484.85379    376.74001    300.75401     36976.26 
  709900    304.17749   -1497.6618    514.71025    389.78521    298.17784     36976.26 
  710000    300.94238   -1468.3636    536.15418     425.9274    127.57872     36976.26 
  710100    292.28438   -1483.2897    484.27993    320.05398    468.91636     36976.26 
  710200    305.08312   -1486.6686    506.01534    396.17052     582.9762     36976.26 
  710300    286.32799   -1505.0159    503.91208    291.07911    453.07616     36976.26 
  710400    292.50135   -1474.3144    501.39322    347.12172    281.51469     36976.26 
  710500    295.28585   -1465.4173    500.41223    367.60413    267.91752     36976.26 
  710600    306.82437   -1495.9046    486.33774     375.1151    146.35802     36976.26 
  710700    301.11809   -1511.6686    489.98639    337.24756   -348.72198     36976.26 
  710800    290.99761   -1503.5795    471.09012     280.7673    -714.3849     36976.26 
  710900    304.26856   -1491.0442    503.70319    385.80674    452.07026     36976.26 
  711000    297.50505   -1527.7188    490.47445       305.38     -124.364     36976.26 
  711100     310.1643   -1497.9181    510.71936    412.55613    131.16891     36976.26 
  711200    302.27215   -1471.2688    526.75682    419.62608   -235.95716     36976.26 
  711300    302.43988   -1505.7527    489.48835    348.63064    27.801855     36976.26 
  711400    293.59163   -1509.7016    509.46406    324.72572    157.57086     36976.26 
  711500    303.57575   -1464.3093    526.66178    432.37354   -163.84509     36976.26 
  711600    301.09421   -1502.7794    491.43171    347.47436   -37.344747     36976.26 
  711700    301.95407   -1481.3442    501.57662    382.93496     92.21645     36976.26 
  711800    289.21793   -1480.0286    514.42553      339.622   -282.53067     36976.26 
  711900     306.6281   -1439.6502    477.43253    421.57851    235.82973     36976.26 
  712000    296.55442   -1457.7513    513.31451    393.89746   -363.13858     36976.26 
  712100    300.82852   -1453.0961    522.20536    426.73231    47.236369     36976.26 
  712200    298.99303   -1498.0146    484.19384    335.51877    179.60932     36976.26 
  712300    249.85743   -1476.5083    499.76508    150.84997   -380.64429     36976.26 
  712400    311.35276   -1444.3184    508.65109    469.45102    19.113384     36976.26 
  712500    304.94027   -1472.5638    495.70724    399.32248    44.775768     36976.26 
  712600    297.38952   -1456.3499    519.05224    404.80527    878.18808     36976.26 
  712700    294.42201    -1495.033    523.75702    357.43481   -93.315424     36976.26 
  712800    303.55896   -1468.4894    512.07871    413.53464    304.21977     36976.26 
  712900    292.55067   -1477.7687    499.69256    342.18934    -270.7338     36976.26 
  713000    309.10195   -1505.8337    496.72768    385.85448    236.08269     36976.26 
  713100     310.8022   -1465.2583    506.04514    443.42047     1124.272     36976.26 
  713200    307.77414   -1471.8365    512.75215    429.88386    732.38778     36976.26 
  713300    299.28626   -1473.4349    496.74385    373.97183    384.17629     36976.26 
  713400    302.92391   -1453.9092    499.72382    412.89398   -71.418981     36976.26 
  713500    310.42903   -1449.7242    505.25563    456.48103   -23.252166     36976.26 
  713600    310.61619   -1465.7064     514.6654    450.75319   -60.674296     36976.26 
  713700    301.07261    -1482.795    499.05377     374.9833    224.86516     36976.26 
  713800    289.04711   -1478.5785    529.12363    354.99926    309.01065     36976.26 
  713900    305.56451   -1447.0376    512.86702    444.82565    214.38618     36976.26 
  714000    303.55679   -1442.8796    506.57815    433.63406   -107.17744     36976.26 
  714100    293.51379   -1463.5481    521.61518    382.67909   -328.60265     36976.26 
  714200      301.471   -1494.0858    513.58005    380.01669   -545.52956     36976.26 
  714300    306.74865   -1508.9747    531.90775    407.27325    -776.5895     36976.26 
  714400    302.10798   -1491.5186    503.93733     375.8158   -609.85365     36976.26 
  714500    295.54318   -1471.1554    496.87801    359.49312    -462.9591     36976.26 
  714600    296.76764   -1470.9419     499.8046    368.15914   -445.78989     36976.26 
  714700    309.17829   -1488.1869    513.36782    420.48601    240.85312     36976.26 
  714800    294.65227   -1489.4106     504.3126    344.65191    252.60717     36976.26 
  714900    297.94027   -1499.2788     543.9589    389.26857   -356.29212     36976.26 
  715000    294.59317   -1461.4049    529.00526    397.08348   -401.96443     36976.26 
  715100    298.11239   -1456.7924    542.41904    430.99191    28.817627     36976.26 
  715200    302.48366   -1450.0898    510.34977    425.35252   -218.56172     36976.26 
  715300    296.58996   -1477.3044     522.3628      383.553    471.72044     36976.26 
  715400    292.68763   -1457.7541    529.00256    392.13207    3.2850599     36976.26 
  715500     308.8362   -1433.8508    527.04915    486.95953   -50.611674     36976.26 
  715600    293.26486   -1507.5502    511.47774    327.41616   -51.641855     36976.26 
  715700    293.34068   -1484.2657    502.61829     342.1834    377.85105     36976.26 
  715800    302.56741   -1474.6605    515.88044    406.69048    767.29331     36976.26 
  715900     304.4914   -1459.1946    519.59961    434.55843    558.95318     36976.26 
  716000     293.3922   -1471.8229    513.02983    365.27018    389.12344     36976.26 
  716100    295.08675   -1472.3297    508.84114    368.22215    207.16827     36976.26 
  716200    306.82365   -1477.4988     499.9082    407.08811    630.19744     36976.26 
  716300    292.83562   -1500.6376    496.93058    317.84444    125.23456     36976.26 
  716400    297.21085   -1505.5253    506.14455    341.91593     491.1824     36976.26 
  716500    299.84984   -1517.4819    496.87351    332.59784    120.47112     36976.26 
  716600    294.42349   -1517.0849    492.07853    303.71112    667.61911     36976.26 
  716700     303.8008   -1510.2613    520.94691    381.72235    153.35223     36976.26 
  716800    290.88711    -1526.382    498.87975    285.25574   -231.86737     36976.26 
  716900    297.01906   -1529.5056    494.30515    305.23066   -409.79009     36976.26 
  717000     301.4975   -1574.2026    490.19475    276.63423   -392.27232     36976.26 
  717100    286.87328   -1575.1236    482.84016    202.36032    33.363403     36976.26 
  717200    297.94816   -1584.8296     528.8841    288.67862    315.94264     36976.26 
  717300    302.79246   -1577.1935     482.2756    271.56827   -285.83925     36976.26 
  717400    304.94159   -1583.0923    491.58416    284.67691   -416.76587     36976.26 
  717500    299.94532   -1524.5195    495.94183     325.0595   -394.30005     36976.26 
  717600    308.74466   -1561.4106    501.87688    333.81439    52.212751     36976.26 
  717700    300.47126   -1580.0079    477.10218    253.10492   -194.75441     36976.26 
  717800    295.94147   -1556.9714    521.00397    299.60052   -617.87274     36976.26 
  717900    288.31374   -1564.0437    509.90773    247.00844    -133.3872     36976.26 
  718000    292.46551   -1566.4272    486.21578     239.6698   -853.82147     36976.26 
  718100    306.14165   -1583.7646    484.72332    282.55955   -550.64918     36976.26 
  718200    296.37235   -1551.8853    504.06385    289.69107   -659.98788     36976.26 
  718300    299.36608    -1518.094    487.02366    319.95275    104.49413     36976.26 
  718400    320.18359   -1501.6936    495.71992    438.99771    552.11155     36976.26 
  718500    310.44284   -1518.8113    480.23891    362.43952    607.56126     36976.26 
  718600     297.0294    -1520.458    495.12975    315.14948    891.16215     36976.26 
  718700    299.99653    -1578.037     504.7063    280.53754   -172.56139     36976.26 
  718800    283.90494   -1526.3137    493.29141    248.22549    307.19051     36976.26 
  718900    298.37515   -1509.1304    510.57237    347.99301    360.56133     36976.26 
  719000    291.50486   -1505.1568    487.57791    297.96688    31.740493     36976.26 
  719100    301.60211   -1521.7243    487.04744    326.43729    499.78729     36976.26 
  719200    303.66417   -1541.2896    503.11264    332.24318    420.96689     36976.26 
  719300    296.79895   -1500.3517    519.78893    358.87499    469.27653     36976.26 
  719400    298.46737   -1503.8908    517.65662    360.73308    703.01578     36976.26 
  719500    301.49009   -1524.3868    489.39793    325.61969     630.7466     36976.26 
  719600     305.6015   -1479.0821     525.2121    425.29315    401.47688     36976.26 
  719700    295.20556   -1546.0666    504.76391    290.94418    478.00346     36976.26 
  719800    310.60124   -1555.8377     476.7513    322.64033    507.68318     36976.26 
  719900    290.36429   -1545.3496    499.36337    264.41224   -47.011734     36976.26 
  720000    303.65473   -1506.5664    521.09746    384.90861    318.95845     36976.26 
  720100     292.9779   -1502.3115    490.70782    310.58989   -141.50452     36976.26 
  720200    310.48293   -1485.7149    507.24205    422.71993    7.6059429     36976.26 
  720300     298.6988   -1534.4808    500.01591    313.54677    94.483948     36976.26 
  720400    302.69618   -1557.1249    498.40833    307.33509    542.90503     36976.26 
  720500    296.82873   -1557.1927    498.37987    280.75935     544.9668     36976.26 
  720600    295.75799   -1523.1108    517.05571    328.68487    1234.7252     36976.26 
  720700    291.74158   -1504.5078    484.38516    296.49149    361.58709     36976.26 
  720800    306.53706   -1498.0682    495.05435    380.37148    354.08947     36976.26 
  720900    298.59502   -1513.6145    530.77851    364.70732    503.49832     36976.26 
  721000    308.67959   -1514.8499    502.86807    381.07258    193.89492     36976.26 
  721100    299.29669   -1493.5094    507.76521    364.96573    313.78059     36976.26 
  721200    293.34091   -1533.0003    492.96106    283.79258    428.40338     36976.26 
  721300    298.66573   -1594.8879    497.23981    250.21428     380.2828     36976.26 
  721400    311.51802   -1509.0309    498.55262    395.38584    -37.80602     36976.26 
  721500    292.85301   -1507.5722    490.58701    304.64473   -668.72766     36976.26 
  721600    309.81657   -1521.0102     488.3142    365.48953    -221.8312     36976.26 
  721700    302.71745   -1478.5966    522.90405    410.45506    487.24248     36976.26 
  721800    304.15884   -1517.4462    509.81991    365.02621    -122.3667     36976.26 
  721900    305.18386   -1495.6948    490.52166    372.10527    619.02151     36976.26 
  722000     301.1686   -1461.5723    526.14957    423.73506    923.98663     36976.26 
  722100    290.17577   -1518.6048    489.45793    280.40083    469.42079     36976.26 
  722200     301.5018   -1503.1438    506.65351    364.17117    263.25316     36976.26 
  722300    298.86826   -1483.1764    493.57153    359.17154   -56.390555     36976.26 
  722400     299.4486   -1462.3965    517.29254     406.2915   -231.18132     36976.26 
  722500    292.62605   -1522.5009    502.92397    301.02877    -138.5544     36976.26 
  722600    292.72898   -1498.1857    499.01662    321.90115    404.90843     36976.26 
  722700    303.85354   -1496.8942    505.76796     380.1485    543.30354     36976.26 
  722800    288.87645   -1529.6653    500.52929    274.54793    501.75075     36976.26 
  722900    307.15959   -1534.7472    539.60206    391.04957    438.96499     36976.26 
  723000    291.79996   -1516.2675    471.07223    271.68231   -169.61227     36976.26 
  723100    293.18214   -1503.9074    507.31799    326.52586    176.14931     36976.26 
  723200    293.95494   -1463.3616    529.06358    392.30485   -437.37391     36976.26 
  723300    296.86278   -1507.3052    496.74008    329.16067   -412.18088     36976.26 
  723400    287.03237   -1491.8074    494.81422    298.36849    -395.9143     36976.26 
  723500    297.01011   -1497.4245    503.36022    346.32644   -894.83667     36976.26 
  723600    297.04351   -1472.1212    475.96918    344.38938   -364.06438     36976.26 
  723700    296.13069   -1496.8838     504.9796    344.51774    -393.1657     36976.26 
  723800    291.26139   -1529.9251    511.22029    295.74228   -426.16854     36976.26 
  723900    295.30592   -1526.9106    495.39264    301.18184   -451.85165     36976.26 
  724000    292.96202   -1510.0093    538.81617    350.92873   -165.59477     36976.26 
  724100    292.85469   -1531.2616    486.74839    277.12435   -112.31921     36976.26 
  724200    293.89955   -1554.9999    489.51417     260.8672   -6.5031568     36976.26 
  724300    298.49598   -1517.5226    495.78417    325.35795    372.27785     36976.26 
  724400    292.97019   -1535.1921    506.01839    292.98505    326.86393     36976.26 
  724500     297.4531   -1497.4443    526.92646    371.87208    292.57706     36976.26 
  724600     297.1278   -1525.2511    529.50432    345.17502     166.6284     36976.26 
  724700    295.60384    -1523.164    511.75262    322.63289    711.32656     36976.26 
  724800    301.17751   -1536.2899    489.05422     311.9623    488.68173     36976.26 
  724900    304.28324   -1538.3009     468.2345    303.14753    726.39298     36976.26 
  725000    305.34099   -1522.9266    497.32146    352.38241    651.52698     36976.26 
  725100    300.12699   -1540.8049    523.76241    337.41447    196.78278     36976.26 
  725200    293.52746   -1541.4165    493.81097    277.06813    244.23901     36976.26 
  725300    310.00386   -1527.7348    540.38255    411.67856    884.23731     36976.26 
  725400    298.42876   -1496.6726    501.14288    351.26331    486.34018     36976.26 
  725500    312.48155   -1512.1188    505.87634    403.97004    187.25537     36976.26 
  725600    292.57996   -1515.6438     479.0081      283.762   -260.48287     36976.26 
  725700    308.25451   -1520.6451    480.22869    350.71971     -522.105     36976.26 
  725800     306.7136   -1559.4582    486.88772    311.61153   -453.81209     36976.26 
  725900    303.49439   -1490.7021    505.56371    384.51552   -710.16744     36976.26 
  726000    294.66759   -1498.9685    484.25752      315.108   -387.93069     36976.26 
  726100    308.62015   -1506.7741    476.34721    362.35929     84.61232     36976.26 
  726200    302.87696   -1493.1257    507.35398     381.0958    341.09289     36976.26 
  726300    298.35527   -1509.6145    492.78987    329.63676   -243.09355     36976.26 
  726400     303.6598   -1486.5474    500.78671    384.63969    411.42851     36976.26 
  726500    299.23889    -1520.243    487.71207    317.91811    436.00082     36976.26 
  726600    308.46819   -1500.1048    468.39931    360.39497    14.244095     36976.26 
  726700    297.23528   -1528.2114    493.21143    306.40697    120.05707     36976.26 
  726800    294.13277   -1527.9169    491.34867    290.83726    27.758903     36976.26 
  726900    296.65943   -1524.1958     479.7431    294.35543    441.30223     36976.26 
  727000     285.3635   -1474.4164    517.70902    331.12282    39.450302     36976.26 
  727100    303.72467   -1443.6016    514.96575    442.05731   -90.015672     36976.26 
  727200    300.16946   -1468.3757    489.93325    376.20622    260.26798     36976.26 
  727300    285.80601   -1533.3258    496.60572     253.1071    492.44624     36976.26 
  727400    304.96228   -1527.7283    519.03671    367.58682    1046.6597     36976.26 
  727500     298.5869   -1478.2568    515.05584    384.30576    1013.1505     36976.26 
  727600    302.33746   -1490.6695    468.42436    342.18761    708.42706     36976.26 
  727700    299.52341   -1409.9945    532.34567    474.08424    1027.6189     36976.26 
  727800    295.84096   -1484.3681     485.4276    336.17385    388.03321     36976.26 
  727900    284.42666   -1466.4987    513.01407    330.11764    420.28724     36976.26 
  728000    295.23748   -1456.3374    489.44151    365.49507   -23.723635     36976.26 
  728100    294.24055   -1423.2267    500.95793    405.62311   -780.48589     36976.26 
  728200    294.76089    -1500.712    498.54925     328.0773   -576.16744     36976.26 
  728300     303.2958   -1466.9179    539.29267    441.13249    29.941677     36976.26 
  728400    295.51588   -1504.0733    498.37881    327.95284   -437.99212     36976.26 
  728500     303.9207   -1492.9084    487.36487    366.03434   -289.87738     36976.26 
  728600    306.08891   -1497.4855    505.41492    389.29228    24.147989     36976.26 
  728700    296.76022   -1504.4917    521.09544    355.86669    14.945156     36976.26 
  728800    298.78987   -1485.4104    503.63797    366.65026    512.31781     36976.26 
  728900    301.83173   -1457.4989    506.47365    411.12521    1012.1846     36976.26 
  729000    303.25085   -1508.3163     489.4788    349.71734    721.79417     36976.26 
  729100    307.96647   -1489.5211    509.05972    409.37474     848.9429     36976.26 
  729200    291.19296   -1487.4026    484.56709    311.30274    282.77757     36976.26 
  729300    313.40414   -1479.9144    531.84016    466.30185    827.27329     36976.26 
  729400    295.40112   -1481.3726    487.09419    338.85109    521.54715     36976.26 
  729500    301.97498   -1443.7101    515.87026    434.95706    442.52385     36976.26 
  729600    297.79309   -1409.4551     486.5858    421.05492    361.59626     36976.26 
  729700    302.02774   -1417.0285    515.43079    461.43732   -11.776136     36976.26 
  729800     298.6609   -1474.2383    501.57917    375.18149    353.62573     36976.26 
  729900    303.01594   -1442.1177    510.90554    436.28255    612.80276     36976.26 
  730000    300.33269   -1437.7695    507.67041    425.28628     133.6833     36976.26 
  730100    289.01524   -1459.1966    516.01737    361.13101   0.11242943     36976.26 
  730200    307.55436   -1459.9398    526.02466    454.06114    836.57638     36976.26 
  730300    307.72928   -1507.6699    492.93974    374.03557    955.84628     36976.26 
  730400    305.72126   -1456.2574    510.24754    433.69379    533.55775     36976.26 
  730500    296.63186    -1438.057    512.19477    412.82148    275.29038     36976.26 
  730600    301.02825   -1485.0722    519.21569    392.66789    202.74295     36976.26 
  730700    301.20894   -1511.3758    507.19606    355.16007    502.67202     36976.26 
  730800    302.26845   -1458.2996    486.69343    392.51516    400.40725     36976.26 
  730900    299.78928   -1507.5646    498.36809    343.73641    268.68942     36976.26 
  731000    298.18631   -1484.5203    500.18186    361.36037     203.4682     36976.26 
  731100    305.85849   -1490.5527    502.90207    392.67234   -223.79514     36976.26 
  731200    300.25273   -1456.6256    486.86479     385.2637    -637.3953     36976.26 
  731300    299.57479   -1463.8186    479.83214    367.97849   -1120.1254     36976.26 
  731400    298.52388   -1502.7577    482.61034    327.07489   -693.70603     36976.26 
  731500    291.27135    -1497.083     480.6347    298.04372   -973.86824     36976.26 
  731600    292.58855    -1509.898    483.60657    294.14504   -828.39756     36976.26 
  731700     296.7431   -1459.9925    481.34815    360.54134   -762.37276     36976.26 
  731800    296.36206   -1506.9685    509.07212    339.56971    -228.0846     36976.26 
  731900    293.12736   -1494.8101    496.83574    324.89368    -598.1689     36976.26 
  732000    297.62516   -1490.1032    512.88907    365.95226   -289.97269     36976.26 
  732100    303.61699   -1481.9862    503.17719    391.39819    42.859286     36976.26 
  732200    306.23008   -1468.2269    522.03213    435.80518    198.92477     36976.26 
  732300    300.26611   -1438.4275    507.05948    423.71681    343.88903     36976.26 
  732400    315.17744   -1447.3171    511.61193    486.67373    150.45628     36976.26 
  732500    303.65689   -1423.6942    499.86971    446.56275    327.84485     36976.26 
  732600    298.26007   -1447.4228    490.57342    389.18228    470.44726     36976.26 
  732700    305.15684   -1435.3364    507.41833    449.23843    543.13468     36976.26 
  732800    298.75555   -1426.0541    497.25582    419.46949   -323.31934     36976.26 
  732900    298.79238   -1429.0877    504.56521    423.91149   -134.84677     36976.26 
  733000    298.59862   -1467.3584    479.60761    359.80883    258.31857     36976.26 
  733100    298.03616   -1480.7376    503.39311    367.67677    286.12338     36976.26 
  733200     290.1453   -1492.7166    502.12064    318.81421    200.18966     36976.26 
  733300    306.96764    -1490.394    482.76413    377.69869    715.72732     36976.26 
  733400    306.22997   -1546.3141     466.3123    301.99771    117.10753     36976.26 
  733500    305.96946   -1561.4444    510.44768    329.82702    612.20302     36976.26 
  733600     294.8591   -1547.4599    494.41864    277.64209    269.42467     36976.26 
  733700    302.49453    -1530.338    470.40995     305.2135    539.62486     36976.26 
  733800    296.54951   -1536.7309    483.30317    284.88433    284.59895     36976.26 
  733900    289.86522    -1487.368    460.11179    280.88996   -10.359544     36976.26 
  734000    303.40582   -1527.5537    515.44277    357.14332   -57.085656     36976.26 
  734100    302.55922   -1499.3574    488.66212     354.7383   -98.081009     36976.26 
  734200    297.47847    -1458.824    507.25338    390.93382   -242.23305     36976.26 
  734300    306.92848   -1514.1707    493.05115    364.03223     -49.4699     36976.26 
  734400    310.43341   -1489.7396    500.18243    411.41219   -29.534712     36976.26 
  734500    303.58822   -1465.7547    515.16425    419.48693    395.85659     36976.26 
  734600    316.84293   -1435.5811    520.03216    514.34618    517.73862     36976.26 
  734700    301.59244    -1449.821    503.33811     414.5876   -11.862728     36976.26 
  734800    298.99393   -1488.3194    490.40803    351.43218   -530.62765     36976.26 
  734900    296.72718   -1500.0837    476.72484    315.75499    -492.5425     36976.26 
  735000    306.17589   -1461.8242     488.1225    408.05374   -342.31437     36976.26 
  735100    298.12368   -1484.2639    476.31907     337.4714   -1169.8133     36976.26 
  735200    305.51422   -1458.8156    502.29979    422.25346   -790.99053     36976.26 
  735300    308.16602   -1430.0355    479.25736     439.9586    494.00122     36976.26 
  735400    307.39268   -1450.0183    526.87984    464.10821    59.279909     36976.26 
  735500    306.14429   -1474.1975    497.97277    405.38803   -581.46447     36976.26 
  735600    298.29564   -1452.9729    503.63467    396.85407   -726.13657     36976.26 
  735700    304.33402   -1483.2809    506.95774    397.11997   -968.66243     36976.26 
  735800    302.46059   -1469.7607    506.40916    401.63685   -481.34358     36976.26 
  735900    293.03974   -1480.5479    507.86012     349.7849   -824.06219     36976.26 
  736000    305.72107   -1509.5739    499.14969    369.27863   -750.32726     36976.26 
  736100    303.31493    -1507.336    495.43314    356.94122   -306.23709     36976.26 
  736200    300.51902   -1532.4153    492.66028    316.47122   -296.85949     36976.26 
  736300    298.15333   -1490.8657    500.96426    355.64852   -31.653142     36976.26 
  736400    299.53209   -1488.3536    515.54544    378.96414    30.902746     36976.26 
  736500    293.09007   -1475.4783    480.80188    328.02339    245.20518     36976.26 
  736600    299.12458   -1436.2441    503.31291    417.00199    147.70539     36976.26 
  736700    292.72971   -1448.3054    514.96153    387.72963   -336.52618     36976.26 
  736800    305.79533   -1465.2627    513.18304    427.95825   -151.98711     36976.26 
  736900    293.46851   -1427.8354    494.45596    391.02817    356.19333     36976.26 
  737000    305.08243   -1443.0826    533.47468    467.21269    55.776769     36976.26 
  737100    292.23009    -1520.537    490.71808    288.99979   -564.66782     36976.26 
  737200    303.47773   -1498.9967    512.50734    383.08938   -1.6410324     36976.26 
  737300    300.83247   -1478.0643    503.32781    382.90427   -177.11976     36976.26 
  737400     302.0237    -1474.833    497.00414    385.18795    -553.4425     36976.26 
  737500      303.068   -1512.3709    512.46106    367.81985    24.056567     36976.26 
  737600    296.69348   -1454.1286    542.15967    426.99281   -328.00116     36976.26 
  737700    300.56295    -1467.856    482.42959    370.99806    261.77218     36976.26 
  737800    302.78428   -1459.0496    540.44431     447.8439    42.924293     36976.26 
  737900    294.59157   -1488.4932    479.42859    320.41132    302.66782     36976.26 
  738000    305.54898   -1449.1526    509.63044    439.40396    585.13805     36976.26 
  738100     293.7926   -1448.6973    508.82187    385.99486   -264.88831     36976.26 
  738200     297.4205   -1456.6011    502.25118    387.89291   -254.91776     36976.26 
  738300    298.23834   -1478.5525    500.35273    367.73384    562.51775     36976.26 
  738400     301.2884   -1436.0434      505.236      428.891    116.27168     36976.26 
  738500    292.63514    -1453.511    526.20352    393.33919    418.52146     36976.26 
  738600    306.76836   -1436.7941    506.75089    454.38596    678.92919     36976.26 
  738700    300.60962   -1414.6944    505.07817    447.01891    182.80236     36976.26 
  738800    296.79051   -1450.2589    510.45336    399.59414    320.88143     36976.26 
  738900    299.03927   -1463.0749    501.74808    388.22142   -270.09335     36976.26 
  739000    299.05499   -1457.2464    528.03097     420.4037    751.41064     36976.26 
  739100     290.8353   -1490.2718    514.19946    336.45179    227.52199     36976.26 
  739200    312.09318    -1505.897     492.7763    395.33909    296.96003     36976.26 
  739300    302.08582   -1512.3308    500.39168    351.35802   -21.713148     36976.26 
  739400    301.02497   -1539.5597    498.19232    317.14221   -81.225476     36976.26 
  739500    298.40682   -1503.6298    492.80385    335.86808   -253.27669     36976.26 
  739600     299.5246   -1464.9598    518.94652    405.72519     99.99731     36976.26 
  739700     297.3827   -1499.3914    486.14222    328.82301   -148.37333     36976.26 
  739800    296.50492   -1509.5678    492.62987    321.17285   -695.92745     36976.26 
  739900    300.48263   -1473.3656    499.11269    381.80915   -581.14709     36976.26 
  740000    308.80111   -1437.9316    494.43668     450.1079    -410.3645     36976.26 
  740100    298.05594   -1466.8835    488.92095     367.1479   -347.16543     36976.26 
  740200    304.23872   -1492.5975    500.72305    381.13864   -695.86011     36976.26 
  740300    296.19049   -1514.2999    516.17978    338.57168    2.7871787     36976.26 
  740400    302.65801   -1509.3765     516.3079    372.81074    63.027158     36976.26 
  740500    307.14696   -1447.9237    502.24269    440.45675    105.20022     36976.26 
  740600    291.58951   -1506.3275    506.29139     315.8917    243.89949     36976.26 
  740700     302.8126   -1498.4302    500.83065    368.97745     281.9253     36976.26 
  740800    305.77894   -1461.1947    488.30867    407.07797   -177.01102     36976.26 
  740900    299.39285    -1496.346    496.70436    351.50226    282.81205     36976.26 
  741000    314.61648   -1473.4211    479.33641    425.76262    190.25546     36976.26 
  741100    308.38304   -1441.1745     491.5718     442.1135    13.544685     36976.26 
  741200    307.83205   -1474.3813    502.74264    417.59091   -416.84061     36976.26 
  741300    309.24873   -1448.9097    508.30255    455.01578    472.38741     36976.26 
  741400    306.80476   -1500.3939    510.50868    394.70822    761.12374     36976.26 
  741500    305.27688   -1496.3488    481.69728    363.04671     668.0669     36976.26 
  741600     298.9546   -1491.2736    500.58212    358.47463    127.10055     36976.26 
  741700     301.5138   -1502.9746    498.23417    355.97516    -38.71101     36976.26 
  741800    295.40374   -1466.4779     496.9035    363.56691   -371.98774     36976.26 
  741900    296.64721    -1466.679    476.88653    348.96044   -209.18241     36976.26 
  742000    293.52504   -1503.8644    486.35492    307.15332   -223.31632     36976.26 
  742100    307.22464   -1491.9696    504.34072    398.85942    198.12905     36976.26 
  742200    299.57348   -1512.3467    518.00121    357.61361    797.03565     36976.26 
  742300    301.34186   -1493.6631    506.63189    372.90852    537.07002     36976.26 
  742400    301.15747   -1517.7422    486.26775    327.63303    449.62413     36976.26 
  742500    299.13545   -1547.9567    480.03113    282.05669    806.10662     36976.26 
  742600    305.13163   -1507.0122    489.39891    359.42938   -79.321807     36976.26 
  742700      301.407   -1487.8913    486.35567    358.69804   -479.36473     36976.26 
  742800    291.15716   -1481.3687    488.96739     321.5754    -802.6976     36976.26 
  742900    302.06514    -1472.368    522.27799    413.11383   -344.62756     36976.26 
  743000    297.50745   -1468.0045    481.79789    356.42856    437.77644     36976.26 
  743100    295.59917   -1498.0889    482.82953    318.76383   -288.13302     36976.26 
  743200    313.73824   -1499.8047     505.8893    421.96851   -255.29314     36976.26 
  743300    309.08326   -1519.5678    507.87718    383.18552   -236.58455     36976.26 
  743400    293.64203   -1504.5827    497.48698    318.09498   -150.79357     36976.26 
  743500     293.0766   -1494.2009    472.91836     301.3564   -542.10893     36976.26 
  743600     294.1586   -1485.2206     502.6121    344.91356   -295.15909     36976.26 
  743700    298.44273   -1472.6698    544.70853    418.89477    29.937405     36976.26 
  743800     299.0464   -1466.8177    499.33824    382.10096   -459.44206     36976.26 
  743900    309.63061   -1482.4552    474.05086    388.94201   -146.54103     36976.26 
  744000     304.0068   -1448.1033    511.27346    435.13652   -81.677296     36976.26 
  744100    295.67019   -1496.8311    489.27791     326.7905    6.9464952     36976.26 
  744200    294.76309   -1486.3583    508.79053    352.68233    99.762236     36976.26 
  744300    300.76163   -1477.2687    497.12045     377.1729    -101.6091     36976.26 
  744400    298.25257   -1458.6978    506.25234    393.55241    206.90574     36976.26 
  744500    309.91536   -1494.4811    507.99638    412.14673   -12.814276     36976.26 
  744600    309.73358    -1448.354    498.74212    448.19921    252.74158     36976.26 
  744700    304.54099    -1476.444    509.64213    407.57527    4.3603324     36976.26 
  744800    295.08518   -1484.0422    494.53812    342.19959    234.21179     36976.26 
  744900    296.25104   -1467.1349    506.01901    375.84922    119.99293     36976.26 
  745000    302.39473   -1495.9085    500.48852    369.27125     584.1028     36976.26 
  745100    302.39884   -1467.6813    508.17444    405.20295    1164.0817     36976.26 
  745200    302.73294   -1497.2133    522.43037    391.43459    676.06082     36976.26 
  745300    297.82714   -1511.9858    489.65537    321.74748    516.67076     36976.26 
  745400     302.1437   -1499.6882    525.06781    388.93794    165.39303     36976.26 
  745500    304.04029   -1528.1433    510.67326    354.64748    686.23844     36976.26 
  745600    293.52877   -1490.7756    488.21835    322.12232    249.30546     36976.26 
  745700    308.38119   -1492.0914    501.60558    401.22194   -158.27984     36976.26 
  745800    303.46691   -1427.5629    483.11091    425.07789    35.076297     36976.26 
  745900    302.06254   -1427.4356    529.92264    465.67907    272.42494     36976.26 
  746000    309.32458   -1441.1079    507.24574    462.10313    717.78297     36976.26 
  746100    293.16576   -1510.9303    520.82946    332.94053    401.75308     36976.26 
  746200    298.34672   -1456.0818    520.24431     410.5852    426.05675     36976.26 
  746300    309.56214   -1486.9988    498.95492    408.99345    390.08179     36976.26 
  746400    294.29958    -1486.499    518.64653    360.30583    280.21501     36976.26 
  746500    293.91158   -1503.8777    502.73725    325.26681    141.85872     36976.26 
  746600     298.5282   -1495.0302    477.80459    330.01614    139.38264     36976.26 
  746700    285.20607   -1481.3728    490.06435    295.81131    -260.5828     36976.26 
  746800    295.69184   -1502.1364    515.32124     347.6263   -79.696196     36976.26 
  746900    301.47679   -1541.9831    502.05319    320.61874    35.701231     36976.26 
  747000    297.97841    -1506.606    502.92118    341.07573   -354.67032     36976.26 
  747100    299.10644   -1510.2815    497.51913    337.08899   -340.84191     36976.26 
  747200    303.01662   -1472.3811    536.43948    431.55612   -480.03618     36976.26 
  747300    296.65132   -1509.3463    505.38417    334.80936    -447.7165     36976.26 
  747400    302.73874   -1485.3127    499.10938    380.04038   -23.195256     36976.26 
  747500    301.84057   -1505.1554    504.45985    361.49472    317.67222     36976.26 
  747600    295.52301   -1488.5011    529.09337    374.27178    782.88875     36976.26 
  747700    302.76084    -1488.864    510.06314    387.54261    636.25964     36976.26 
  747800    291.49468   -1536.1083    494.28071    273.67224    929.91039     36976.26 
  747900    295.29128   -1568.0588    537.79788    302.37281    1000.4276     36976.26 
  748000    303.12951   -1556.7741    514.01935    325.25253    914.26164     36976.26 
  748100    286.94853   -1531.3682    499.18296    262.79806    132.76473     36976.26 
  748200    299.76172   -1584.9763    479.72702    247.55933   -464.36615     36976.26 
  748300    297.50412   -1563.9358    504.21252    282.89682   -477.99943     36976.26 
  748400     289.5536   -1539.7095    508.19469    275.22506    217.96046     36976.26 
  748500    306.17991   -1556.5169    503.40516    328.66174   -622.64722     36976.26 
  748600    293.95281   -1556.0527    479.44774    249.98829   -451.69514     36976.26 
  748700    306.40705   -1563.8314    469.08966    288.05682    119.11262     36976.26 
  748800    300.68674   -1570.4136      487.202    273.77157   -203.68443     36976.26 
  748900    309.43135   -1594.5893    521.39706    323.25484    813.38734     36976.26 
  749000    291.17358   -1559.1683    494.08972    248.97216    492.16637     36976.26 
  749100    307.36395   -1536.4883    500.24721      350.876    783.87098     36976.26 
  749200    293.61594   -1557.0803    516.74078    284.73353    594.02975     36976.26 
  749300     301.3287   -1564.6125    487.33371    282.60146    142.28419     36976.26 
  749400    312.52096   -1545.9813    494.11759    358.52666   -364.10987     36976.26 
  749500     297.0512   -1527.8146    500.65512     313.4167   -205.05991     36976.26 
  749600    291.02042   -1513.2989    488.84193    288.90256    -89.97927     36976.26 
  749700    293.16635   -1554.6101    493.17677    261.61068   -420.85122     36976.26 
  749800    303.68569   -1514.7175     508.1199    363.91962    93.548899     36976.26 
  749900    300.03672   -1510.2557    505.96287    349.75682    423.77583     36976.26 
  750000     295.3095   -1499.5027    525.79752    359.01071   -158.08564     36976.26 
  750100    297.60354   -1502.1987    499.06018    339.93035   -22.051928     36976.26 
  750200    302.80559   -1477.4096    507.79513     396.9309   -390.33003     36976.26 
  750300    291.86193   -1486.5333    493.23006    323.85395   -312.92148     36976.26 
  750400    296.27609   -1503.6417    510.00116     343.4376   -363.88601     36976.26 
  750500    301.48349   -1533.3429    494.90568    322.14155    134.98347     36976.26 
  750600    300.47801   -1542.7106    501.10842      314.439    91.032255     36976.26 
  750700    294.73176   -1547.0864    503.04008    286.06234    602.46171     36976.26 
  750800    297.63445   -1556.8786      495.062    281.39174    691.44849     36976.26 
  750900    298.60492   -1579.0901    481.53589    250.03383    446.35727     36976.26 
  751000     291.9947   -1570.0508    501.45068    249.15632    140.47041     36976.26 
  751100    308.87451   -1519.7601    488.10711    362.28114    224.76201     36976.26 
  751200    297.48255   -1525.8252     531.3964    348.09402    634.33498     36976.26 
  751300    296.49509   -1525.8637    520.40041    332.60313   -93.112308     36976.26 
  751400    296.32381   -1519.2108     493.2649    311.34754    265.51567     36976.26 
  751500    302.50769   -1545.0438    522.54475    342.70196   -247.87511     36976.26 
  751600    299.07893   -1512.7836    490.17447    327.11805   -715.80154     36976.26 
  751700    301.18343    -1534.533    511.78223    336.47388   -157.49158     36976.26 
  751800    291.71574    -1552.012    487.45061    251.93611   -278.02351     36976.26 
  751900    302.70063   -1560.8784    488.56289    293.75618    82.409079     36976.26 
  752000    310.83935   -1550.9174    497.39165    349.27563    617.51482     36976.26 
  752100    300.20676   -1542.3887    484.92837    297.35672    39.933703     36976.26 
  752200    303.04994   -1512.9181    491.52921    346.25931    213.90798     36976.26 
  752300    309.58959   -1495.3309    504.64811    406.47847    50.649429     36976.26 
  752400    308.90385   -1485.6026    497.41786    405.88182    138.85153     36976.26 
  752500    297.19223   -1499.7064    495.15229    336.65849    191.95696     36976.26 
  752600    309.21729   -1504.3382    482.88847    374.03129    287.68139     36976.26 
  752700    296.72853   -1548.3936     509.4022    300.12859   -221.01218     36976.26 
  752800    296.13416   -1538.6523    515.73571    313.52096   -128.51824     36976.26 
  752900    303.51751   -1541.8924    479.19015    307.05599   -55.506364     36976.26 
  753000    304.39718    -1540.093    508.56275    342.19787   -660.85383     36976.26 
  753100    290.50021   -1525.1551    492.52213     278.3789   -724.35807     36976.26 
  753200    301.35563   -1538.5687    527.05074    348.48389   -344.16867     36976.26 
  753300    296.27931   -1552.8263    493.72257    277.98895   -672.09421     36976.26 
  753400    298.79653   -1518.1506    499.51262    329.81475   -871.01354     36976.26 
  753500    301.18998   -1532.4195    498.14752    324.98233   -791.37822     36976.26 
  753600    306.21629    -1542.987    488.50849    327.45923   -684.73163     36976.26 
  753700     304.7299   -1538.3021    501.59369    338.52135   -481.93399     36976.26 
  753800    307.26751   -1511.6492    519.43399     394.4666   -575.89959     36976.26 
  753900    293.52719     -1529.48    502.36322    297.55573   -369.31205     36976.26 
  754000    295.37989    -1536.455    500.09429    296.67294    -938.7842     36976.26 
  754100    299.60078   -1560.1916    499.05866     290.9493   -735.97614     36976.26 
  754200    303.87776   -1549.1301    508.07126    330.32523   -33.958186     36976.26 
  754300    306.12684   -1522.0391    497.97616    357.47107   -706.54109     36976.26 
  754400    293.28493   -1534.0089    515.02307    304.59334   -638.76738     36976.26 
  754500    309.75306   -1487.6157    503.99276    414.27602    108.00813     36976.26 
  754600    302.47767   -1521.6316    499.49017    342.92405    164.74205     36976.26 
  754700    301.24769   -1537.8667    521.45911    343.10713   -201.82692     36976.26 
  754800    298.74384   -1500.5272    512.09653    359.78428    322.26464     36976.26 
  754900      309.511   -1502.6103    521.01404    415.21029   -66.238569     36976.26 
  755000    312.88069   -1490.6624    520.76722    442.11862   -414.75901     36976.26 
  755100    297.03052   -1540.8471    513.96341    313.59912   -480.84751     36976.26 
  755200    305.15293   -1511.9733    512.14136    377.30689    110.28561     36976.26 
  755300    308.87975   -1563.7462    507.23852    337.45006   -118.63108     36976.26 
  755400    292.96888   -1531.9577    491.79777    281.99289    131.00655     36976.26 
  755500     291.3955   -1558.1059    490.23883     247.1852    66.706364     36976.26 
  755600    312.72834   -1591.7899    501.81223     321.3486   -167.64074     36976.26 
  755700    304.83883   -1626.3113    501.09617     250.5062    411.36586     36976.26 
  755800    305.21406    -1596.636    477.31454    258.09327    714.08345     36976.26 
  755900    312.60124   -1586.9474    482.75218    306.55748    286.05698     36976.26 
  756000    309.71542   -1572.3832    498.83333    324.17926    365.74323     36976.26 
  756100    299.28743   -1563.9325    505.69563    292.43125    466.79749     36976.26 
  756200    298.89971   -1515.6274    484.97526    318.26628      250.678     36976.26 
  756300    294.82714   -1500.7887    496.44989    326.20023   -213.03379     36976.26 
  756400    304.23293    -1513.695    493.78149    353.07346      79.2077     36976.26 
  756500    298.58954   -1523.6177    477.02501    300.92587    38.256213     36976.26 
  756600    307.49249   -1521.0368    516.39472    383.05502   -216.55325     36976.26 
  756700    296.28703   -1557.0794    509.83948     289.8876    279.60907     36976.26 
  756800    305.55224   -1568.3239    509.28855    319.90558    175.59393     36976.26 
  756900     301.6603   -1536.6015    500.35829     325.1336    -122.0312     36976.26 
  757000    289.53315   -1550.1117    489.88567    246.42155   -623.26584     36976.26 
  757100    293.40338   -1584.0756    494.15854    234.19669   -540.71181     36976.26 
  757200    311.07347    -1576.768    511.27999    338.36992    89.662624     36976.26 
  757300    294.84261   -1574.2751    523.03812    279.37191    34.568367     36976.26 
  757400    298.03446   -1542.3219    505.91468    308.60632    663.56883     36976.26 
  757500    303.58655   -1546.4598    498.80424    322.41428    465.61507     36976.26 
  757600    293.85123   -1557.9876    507.45331    275.60061    46.924455     36976.26 
  757700    297.15347   -1592.1703     495.8981    244.76545   -74.321642     36976.26 
  757800    301.74916   -1549.4455     519.4905    331.82277    138.44038     36976.26 
  757900    295.46589   -1565.1574     480.6162    248.88052    16.694417     36976.26 
  758000    311.02106   -1560.0279    495.37286     338.9663    305.17367     36976.26 
  758100    296.89866   -1522.7521    514.93487    332.07049    518.71052     36976.26 
  758200    294.43383   -1549.7155    501.94797    280.99659    490.00092     36976.26 
  758300     299.5535   -1563.9643    498.89699    286.80157   -137.24936     36976.26 
  758400    302.52081   -1528.6355    486.02954    322.65423    428.92777     36976.26 
  758500    306.03268   -1557.6316    510.59924    334.07673     603.3783     36976.26 
  758600    312.22675   -1555.7112    519.58362    372.93503    662.61563     36976.26 
  758700    302.75846   -1495.0412    504.85645    376.14796     181.2351     36976.26 
  758800    303.01653   -1552.6157    483.68093     298.5626    88.388602     36976.26 
  758900    295.53046   -1513.2851    510.82712    331.25513   -756.58909     36976.26 
  759000    292.02874   -1529.5915    475.43391    263.75251   -368.46146     36976.26 
  759100    302.68661   -1546.1162    486.88788    306.78016   -241.23628     36976.26 
  759200    303.42022   -1516.4139    503.03809     355.9434    146.86067     36976.26 
  759300    293.24774   -1574.3092     493.5559    242.65804   -236.86157     36976.26 
  759400    299.23551    -1542.171    487.70309     295.9659    289.01103     36976.26 
  759500     314.7695   -1538.6286    495.47101    377.38029    74.191345     36976.26 
  759600    305.10861   -1540.3256    495.82168    332.43486    222.92175     36976.26 
  759700    296.40873   -1565.1293    485.66558    258.21303   -19.685152     36976.26 
  759800    300.84343   -1568.9651    490.80409    279.52926    542.53325     36976.26 
  759900    296.79023   -1531.9506    518.89374    326.34149    873.66808     36976.26 
  760000     293.3979   -1547.6679    506.79581    283.21691    126.87773     36976.26 
  760100    297.40717   -1526.3706     500.8683    316.68031    388.82828     36976.26 
  760200    298.29169   -1542.8424    504.92082    308.25279    753.00373     36976.26 
  760300     308.6562   -1572.7296    477.37668    297.59594    346.38661     36976.26 
  760400    302.69128   -1572.6954    470.18637    263.52046    301.26532     36976.26 
  760500    302.80358   -1605.7514    476.91805    237.70294    37.278838     36976.26 
  760600    300.11191   -1594.3582    491.82236    251.85307   -293.57995     36976.26 
  760700    300.31527   -1568.2304    488.36314    275.43943   -575.10258     36976.26 
  760800    311.19238   -1577.7341    483.39763    310.05803   -96.985364     36976.26 
  760900    302.70167   -1563.6559    517.28264    319.70321    235.20254     36976.26 
  761000    291.59405   -1546.6544    496.64569    265.93962    339.66264     36976.26 
  761100    303.24362   -1519.7802    495.83586    344.57786   -78.225338     36976.26 
  761200    302.23224   -1527.3214    505.56104    342.19758    -180.0588     36976.26 
  761300    299.08294   -1492.0963    508.75246    366.40146    127.99093     36976.26 
  761400    297.14732   -1517.5887    517.66318    341.08438    350.21441     36976.26 
  761500    289.26592   -1507.2554    508.16168    306.34792   -194.00095     36976.26 
  761600    303.81649   -1507.7451    521.76997    385.13241   -265.83309     36976.26 
  761700    301.50744   -1509.5057    496.58272    347.76394    324.92349     36976.26 
  761800    301.28568   -1497.6341    516.98801    379.03999    106.59522     36976.26 
  761900    301.74846   -1565.7217    502.61694    298.66991    150.75697     36976.26 
  762000    316.36141   -1538.1089    485.35353    374.96666    81.276998     36976.26 
  762100    306.97885   -1536.2474    516.93581    366.06748   -450.07241     36976.26 
  762200    300.15444   -1554.1523    466.16422    266.59278   -118.20428     36976.26 
  762300    297.29014   -1565.9166    499.68475    275.42261     -549.299     36976.26 
  762400    293.34736   -1547.3354    538.00704    314.53253   -575.18055     36976.26 
  762500    291.49974   -1547.5676    475.96065    243.91572   -614.09382     36976.26 
  762600    302.78866   -1505.3203    502.34957    363.49827    112.59277     36976.26 
  762700    295.19234   -1585.3273    505.67311    252.53299    252.11774     36976.26 
  762800     297.7557     -1578.89    511.60086     276.4664    471.87006     36976.26 
  762900    292.01139   -1506.9671    516.58445    327.44912   -393.40144     36976.26 
  763000    290.35135   -1568.8337    499.52691    241.03328    -362.1602     36976.26 
  763100    303.88407   -1566.7386    495.30927    299.98322   -33.026858     36976.26 
  763200    292.47612     -1589.23     487.7924    218.49143   -436.07238     36976.26 
  763300    296.50115    -1544.378    493.55341    287.26917   -54.318776     36976.26 
  763400    292.81707   -1572.0475    512.88213    262.30237    758.86399     36976.26 
  763500    305.80226   -1568.2764    493.77123    305.56412    736.69071     36976.26 
  763600    294.62818   -1601.7778    499.45019    227.31352   -161.60526     36976.26 
  763700    311.52945    -1542.067    484.55615    348.40488    190.12405     36976.26 
  763800    311.16696   -1513.0955    516.74936    407.93371    819.68588     36976.26 
  763900    295.00498   -1588.3861    519.56324    262.51881    152.60439     36976.26 
  764000    301.99403   -1576.1085    506.84013    293.61455    166.07803     36976.26 
  764100    299.31953    -1538.222    486.07471    298.66569   -536.24252     36976.26 
  764200    297.41922   -1536.7654    499.15667    304.62828   -551.75443     36976.26 
  764300    291.96024   -1557.3771    520.00559    280.22943   -551.09931     36976.26 
  764400    303.76333   -1547.6585    501.02384    324.23296   -163.45435     36976.26 
  764500    297.66628   -1571.1574    506.59595    278.79051    -62.54555     36976.26 
  764600    309.85102   -1555.2785    494.44621    337.50878    161.10892     36976.26 
  764700     295.8511   -1603.5689    471.80239     203.3937    242.63705     36976.26 
  764800    303.44703   -1617.7407    530.53656    282.23606    187.02676     36976.26 
  764900    301.62929   -1587.7816    497.71432    271.16952   -218.22813     36976.26 
  765000     300.8817   -1578.3953     508.6957    288.16336     75.05998     36976.26 
  765100    300.62686    -1580.813    481.58913    257.48902    25.532201     36976.26 
  765200    301.10504   -1565.9102    501.92482    294.88557   -328.55629     36976.26 
  765300    294.30853   -1564.3123    514.58096    278.46724   -11.148824     36976.26 
  765400    290.07326   -1554.1408    527.48614    282.43046   -10.160042     36976.26 
  765500    298.48188   -1570.1048    486.21594    263.14386    605.23429     36976.26 
  765600    296.42963     -1570.57    492.29476    259.49574    600.98314     36976.26 
  765700    300.73233   -1481.4707    488.41356    364.13181    154.11214     36976.26 
  765800    297.33855   -1496.5858    520.44246     365.7296   -614.12773     36976.26 
  765900    301.57412   -1483.3585    502.81099    380.44031   -4.4782776     36976.26 
  766000    293.73991    -1497.914    500.03664    327.75516   -486.23228     36976.26 
  766100    289.02051   -1488.7926    509.40485    324.94631   -684.21277     36976.26 
  766200    297.60387   -1509.7744    493.98634    327.28231   -548.39236     36976.26 
  766300    299.34542   -1532.5943    512.73792    331.07344   -504.47101     36976.26 
  766400    296.67141   -1526.8646    529.51268    341.51025   -245.43533     36976.26 
  766500    295.75992   -1545.0675    497.72199    287.40312     14.43023     36976.26 
  766600    314.15031     -1535.47    508.55011    390.82359     873.2687     36976.26 
  766700    299.22237   -1541.2879    494.86881    303.95544    535.13624     36976.26 
  766800     292.1278   -1550.0683    494.51902    262.80785    195.29809     36976.26 
  766900     305.4395   -1523.9174    509.27839    363.79312    258.37386     36976.26 
  767000    293.75858   -1518.2307    519.44522     326.9312    178.91142     36976.26 
  767100    310.68009   -1525.3116    516.30001    393.07106    46.328669     36976.26 
  767200    305.93643   -1506.8395    528.79318    402.62837   -100.95869     36976.26 
  767300     313.4153   -1523.1756    477.55105    368.80188   -393.63289     36976.26 
  767400    310.30462   -1523.7458     503.0636    379.70592   -605.41628     36976.26 
  767500    301.10289   -1545.6003    475.36675    288.62764   -638.16906     36976.26 
  767600    312.96208   -1497.1973    518.15478    433.33862    -399.5022     36976.26 
  767700    304.67097   -1513.1374    476.52484    338.35123   -704.12576     36976.26 
  767800    295.69901   -1537.5839    525.09844    321.98834    18.135959     36976.26 
  767900    284.27512   -1528.2911    493.95197    248.57924    29.114668     36976.26 
  768000    305.50294   -1554.0155    503.67399    328.37687    728.87127     36976.26 
  768100    305.68131   -1493.5241    516.38052    402.37977    1374.5307     36976.26 
  768200    297.22077    -1539.988    501.10326    302.45669    854.23904     36976.26 
  768300    292.95878   -1562.3127    511.48314    271.27768   -221.83319     36976.26 
  768400    299.89465   -1530.5909    479.55334    302.37091    503.17726     36976.26 
  768500    304.51724    -1547.158    496.56577    323.67778   -502.18801     36976.26 
  768600    302.14931   -1549.4103    483.84293    298.01624   -500.31814     36976.26 
  768700     295.1214   -1533.4378    496.11641    294.54565   -519.65491     36976.26 
  768800    307.54865   -1521.9164    487.98673    354.02088     35.16699     36976.26 
  768900    291.44462   -1533.0074    479.60558    261.87211   -150.11767     36976.26 
  769000      295.219   -1495.9078    493.36729    329.76699    58.421313     36976.26 
  769100    302.74973   -1545.7863    489.83514    310.34218    433.58875     36976.26 
  769200    296.84252   -1550.2736    483.05481    272.41565   -27.674635     36976.26 
  769300     303.0568   -1538.6814    509.12668     338.1244    93.680587     36976.26 
  769400    290.50535   -1481.7668    525.37963    354.64797    -65.83478     36976.26 
  769500    296.51477   -1480.5119    498.70506    356.34843    119.30149     36976.26 
  769600    306.26726    -1507.052    514.00612    389.12184    314.33771     36976.26 
  769700    307.13409   -1483.7772    515.22716    417.52966   -157.95445     36976.26 
  769800    298.15903   -1504.5632    486.04884    327.06137    287.64171     36976.26 
  769900    302.65259   -1505.4726    504.24022    364.62256    439.48137     36976.26 
  770000    300.22963    -1500.878    488.45165    342.49388   -335.31557     36976.26 
  770100    293.60981    -1509.219    511.47092    327.29725   -752.56849     36976.26 
  770200    293.83314   -1529.5705    512.78053    309.26325   -390.65707     36976.26 
  770300    296.57961   -1490.1859    490.30473     338.5667   -280.97815     36976.26 
  770400    307.50398   -1544.8609    495.23526    338.12335   -478.49042     36976.26 
  770500    297.77675   -1563.6336    504.99986    285.21674   -456.56446     36976.26 
  770600    300.82001   -1534.4059    518.57752     341.7562    258.82305     36976.26 
  770700    296.71671   -1546.7319    501.30368    293.63843    113.07518     36976.26 
  770800    305.74354   -1580.4157    502.85239    302.24088   -94.407924     36976.26 
  770900    299.66382   -1535.7104    505.23611    321.89244   -21.962364     36976.26 
  771000    303.96229   -1527.0383    506.28677    351.01393    206.93762     36976.26 
  771100     295.3597   -1528.1172    517.52058    322.34589    560.87828     36976.26 
  771200    303.25355   -1513.5568    517.82623    372.83649   -27.204862     36976.26 
  771300    308.22913   -1518.9638    487.11773    359.17544    299.42696     36976.26 
  771400    292.84565   -1521.8801    529.26884    328.98553    280.47237     36976.26 
  771500    316.54374   -1581.8958    517.65195    364.30103    531.69321     36976.26 
  771600    305.27569   -1526.1834    503.33579     354.8452    147.98475     36976.26 
  771700    302.35004   -1513.9881    507.65639    358.15785   -99.262844     36976.26 
  771800    297.01057    -1500.581    467.36369    307.17544    42.181821     36976.26 
  771900    301.41661   -1530.9072    498.45689    327.82667   -324.02884     36976.26 
  772000    298.12148    -1503.397    529.62725    371.63653   -566.11517     36976.26 
  772100    305.20263   -1519.8171    508.84904      366.395   -189.76747     36976.26 
  772200    300.66592   -1523.9334    499.62502    332.58078    457.45178     36976.26 
  772300    301.22793   -1517.2289    481.54801    323.74464   -178.90839     36976.26 
  772400    304.45966   -1542.6885    484.46519    315.78687    106.21038     36976.26 
  772500    305.39076   -1524.4018    487.28696    341.09731   -387.88617     36976.26 
  772600     300.9186   -1546.8211    489.87758    301.08598   -31.362457     36976.26 
  772700    287.69653   -1541.4154    517.74795    274.69161    320.97741     36976.26 
  772800    291.60094   -1560.8092    475.45844    230.62867      46.1538     36976.26 
  772900     295.1652    -1557.066    489.53058    264.52926   -244.49368     36976.26 
  773000    307.90674   -1516.6127    484.88679    357.84067    253.88945     36976.26 
  773100    300.46909   -1533.7716    494.32222    316.55158    99.491158     36976.26 
  773200    306.56943   -1490.1277     484.0979    377.50161    73.210549     36976.26 
  773300    295.36132    -1467.774    509.18366    374.35943    -361.2786     36976.26 
  773400    294.50072   -1500.3683    499.01112    327.70878    -731.0727     36976.26 
  773500    308.49305   -1491.8306    460.52899      360.911   -687.22235     36976.26 
  773600    301.83329   -1521.2176     469.8635    310.80335   -558.58269     36976.26 
  773700    309.78338   -1523.8799    491.69353    365.84942   -118.09081     36976.26 
  773800    298.20647   -1526.0112    492.22711    312.00567    14.281445     36976.26 
  773900    305.99399   -1530.4937     506.2339    356.67464    331.18326     36976.26 
  774000    297.21238   -1519.7229    512.01552    333.59619   -235.68918     36976.26 
  774100    309.47235   -1531.9769    495.67635    360.33158    151.18224     36976.26 
  774200    304.37894   -1566.5461    498.59273    305.69252    373.23999     36976.26 
  774300    292.71081   -1518.2204    512.60228    315.37009   -272.13733     36976.26 
  774400    308.00347   -1540.4438    512.52471    362.08409   -205.02888     36976.26 
  774500     290.8051   -1525.6542    472.42782    259.16148   -556.07696     36976.26 
  774600    304.14024   -1476.0165    517.51592    414.06805   -662.40036     36976.26 
  774700    299.27984   -1497.4625    514.31883    367.49022   -955.00372     36976.26 
  774800    304.90517   -1514.3596     484.2301    345.89116   -134.39067     36976.26 
  774900    298.18539   -1481.7766    503.03342    366.95147   -600.15482     36976.26 
  775000    300.77276   -1462.0119    514.74631    410.10575   -594.25594     36976.26 
  775100    297.47532   -1479.4801    498.09733    361.10739   -1201.5918     36976.26 
  775200    310.12147    -1484.128    494.78837    410.22189   -732.01147     36976.26 
  775300     297.8928   -1481.3558      507.701    370.71949   -666.81578     36976.26 
  775400    298.98116    -1520.036    508.43197    337.68197   -410.84546     36976.26 
  775500    301.91923   -1478.5616    513.59935    397.58303   -19.829843     36976.26 
  775600    298.47871   -1449.0253    522.64892      420.642   -263.95996     36976.26 
  775700    313.13241   -1504.4333    486.75245    395.46896    -235.9587     36976.26 
  775800    304.84195   -1539.7194     486.4951    322.51106     658.4679     36976.26 
  775900     303.5133   -1546.7265    520.12548     343.1382    310.44563     36976.26 
  776000    292.10727   -1562.1742     484.0447    240.13502    479.39227     36976.26 
  776100    299.91249    -1468.376    496.44831    381.56131    69.433122     36976.26 
  776200    310.53911   -1518.8476    497.54045    380.13923   -554.44742     36976.26 
  776300    301.78948   -1477.6842    498.57248    382.84804   -336.51745     36976.26 
  776400    313.14816   -1512.9389    511.57765    411.85964   -724.01071     36976.26 
  776500    302.72442   -1496.6342    496.06141    365.60634   -254.61605     36976.26 
  776600    287.05872   -1508.8666     485.4796     272.0936   -528.12105     36976.26 
  776700     293.3224   -1479.3957    523.54949    367.90207   -474.21649     36976.26 
  776800    292.46972   -1518.1085     499.9548    301.74653   -17.429062     36976.26 
  776900    299.46439   -1499.2177    503.95541     356.2045    297.21219     36976.26 
  777000    291.42988   -1482.5948    508.68056    341.29317   -419.89473     36976.26 
  777100    297.95672   -1537.3496     472.7989    280.11204    20.196759     36976.26 
  777200    308.04105    -1556.175    528.54438    362.54209    666.76006     36976.26 
  777300    294.17816   -1578.6236    493.86067    242.84732   -27.837721     36976.26 
  777400    299.25417   -1553.8099    492.65587    289.36403    437.97023     36976.26 
  777500    295.56736   -1544.6147    494.05899      283.324    218.64107     36976.26 
  777600    300.09056   -1529.3536    518.03092    342.96996   -219.02883     36976.26 
  777700    295.04721   -1519.7924     475.6722    287.41205   -135.61213     36976.26 
  777800    301.70293   -1492.5102    534.73991    403.79886   -180.20909     36976.26 
  777900     296.4734   -1548.5652    498.21901    287.62236    409.71762     36976.26 
  778000    296.23721   -1597.8675    510.73713    249.77233     667.1095     36976.26 
  778100    308.05493    -1525.914    504.32269    368.64408    448.41859     36976.26 
  778200    308.48166   -1521.9701    527.71451    397.90557    315.92859     36976.26 
  778300     308.1353   -1527.3975    511.64943    374.84998    165.50565     36976.26 
  778400    302.54166      -1533.7    516.17636    347.83064    49.207599     36976.26 
  778500    293.10152   -1496.8043    508.20591    334.15305   -371.17101     36976.26 
  778600    306.62549    -1530.025    490.78242    344.54186    367.44122     36976.26 
  778700    306.40902    -1538.686    514.79076    358.91221    284.65383     36976.26 
  778800    285.17462   -1514.5061     507.4588    279.93047   -119.64839     36976.26 
  778900    299.32757   -1494.5464    493.97517    350.27806   -257.03482     36976.26 
  779000    314.04742   -1499.1555    509.52873    427.65238   -167.97424     36976.26 
  779100    296.55471   -1498.2174     529.9542    370.07237   -200.63075     36976.26 
  779200    301.22951   -1519.3275    512.22456    352.32972    193.45221     36976.26 
  779300    292.61292   -1537.1766    499.43455    282.80435    184.83713     36976.26 
  779400    310.42545   -1535.5693    486.49148     351.8556   -187.71741     36976.26 
  779500    312.53342    -1513.768    508.47277    405.15137   -399.26667     36976.26 
  779600    299.26648   -1526.8287      483.584    307.32887   -240.68583     36976.26 
  779700    296.04598   -1559.0862    486.00907     262.9625   -141.09428     36976.26 
  779800    300.69481   -1524.3462    501.11527    333.78863   -93.095284     36976.26 
  779900    302.59307   -1531.4663    512.26743    346.38742    97.996869     36976.26 
  780000    301.40039   -1531.6606    512.57707    341.12025    -141.9324     36976.26 
  780100    302.70053   -1502.2993    491.14831    354.92034   -677.68524     36976.26 
  780200    304.75273   -1506.4639    528.93493    397.80383    237.64542     36976.26 
  780300    289.99821   -1517.1049    484.11641    275.75785    3.2865283     36976.26 
  780400    293.14159   -1556.4115    497.09747     263.6183   -231.86823     36976.26 
  780500    301.20175   -1512.1817    509.48729    356.61297   -541.82984     36976.26 
  780600      292.017   -1493.5547    503.04466    327.34701   -477.55254     36976.26 
  780700     303.7976   -1578.7398    473.10212    265.38464   -570.01188     36976.26 
  780800    303.29699   -1527.3732      513.001    354.39089   -87.589408     36976.26 
  780900    303.70715   -1548.0739    515.98529    338.52554     10.21855     36976.26 
  781000    291.48111   -1528.2724    500.42721    287.59344    334.58213     36976.26 
  781100    294.19795   -1524.5821    529.55643    332.67391   -97.346972     36976.26 
  781200    306.39753    -1535.055    498.58519    346.28582   -336.12106     36976.26 
  781300    303.23566    -1520.091    511.69786    360.09315   -67.378427     36976.26 
  781400    298.69069   -1521.0229    501.67959    328.63178   -582.37122     36976.26 
  781500    302.05261    -1522.901    501.23981    341.48605   -440.35807     36976.26 
  781600    299.17011   -1478.4566    485.76304    357.44506   -145.51965     36976.26 
  781700    299.83196   -1506.7539     526.4707    372.84238     11.78209     36976.26 
  781800    294.68435   -1469.6057    545.14728    405.43624   -699.16999     36976.26 
  781900    286.61281   -1448.8038    520.48796    365.15236   -381.20821     36976.26 
  782000    301.62401   -1474.6834     490.3298    376.85944     26.01108     36976.26 
  782100    299.78157   -1494.7998    507.40488    365.50327    68.151235     36976.26 
  782200    301.39409   -1511.0695     516.2514    365.35731    70.116201     36976.26 
  782300    299.31453   -1531.0166    502.44295    322.21679    228.01512     36976.26 
  782400     297.8446   -1532.8004    488.34509    299.70139    141.04265     36976.26 
  782500    298.41818   -1536.0547    509.46156    320.15215    45.430813     36976.26 
  782600    297.62188    -1537.149    486.81239    292.81498   -798.60891     36976.26 
  782700    293.90424   -1525.9381        509.5    309.93594   -792.07637     36976.26 
  782800    303.20694   -1535.9625    509.13759    341.53173    -78.92143     36976.26 
  782900    303.35582   -1550.5811    498.26794     316.7154    11.234925     36976.26 
  783000    306.17769   -1552.8436    503.50211    332.42205    230.10014     36976.26 
  783100    306.62344   -1528.2438    507.52918    363.06049   -32.341589     36976.26 
  783200    300.27837   -1544.2364    501.30629    312.21009   -549.73969     36976.26 
  783300    295.67536   -1543.2912    514.44135    305.51717   -183.92097     36976.26 
  783400    296.99188   -1535.6684    515.37188    320.01195    317.32891     36976.26 
  783500    293.26338   -1555.4513    485.96537    253.99595   -216.28452     36976.26 
  783600    304.69503   -1578.7063      478.044    274.41001      148.312     36976.26 
  783700    295.52882   -1585.9205    530.71893    278.50411    363.63884     36976.26 
  783800    302.32459   -1587.4377    530.79887    307.73582    690.33468     36976.26 
  783900    297.43542   -1601.4998    503.74164    244.55191     787.6586     36976.26 
  784000    296.64562   -1576.2372    510.72674    273.23532    349.50895     36976.26 
  784100    300.65279   -1568.9439    489.97416    277.86021     76.78926     36976.26 
  784200    292.24216   -1614.2124    497.45168    202.11253    -282.9229     36976.26 
  784300    290.60621   -1613.8169    475.36593    173.03927   -413.41013     36976.26 
  784400    304.46001   -1594.1197    491.93384    271.82582   -491.97388     36976.26 
  784500    291.80568   -1580.5771    499.77877    236.10506   -1008.4074     36976.26 
  784600     319.7065   -1589.1789    497.86592    351.50537   -638.06798     36976.26 
  784700    301.49782   -1534.3299    496.98732    323.30099   -698.51704     36976.26 
  784800    310.47125   -1553.7835    504.45465    351.81123   -679.45106     36976.26 
  784900    296.40536   -1547.5902    526.10132    316.17266   -438.66694     36976.26 
  785000    296.47387   -1501.5534    530.63574    367.05307   -46.697027     36976.26 
  785100    302.42652   -1529.6198    537.17205    372.38693    79.578236     36976.26 
  785200    299.74541   -1527.8453    520.93933    345.82902    367.25353     36976.26 
  785300    292.71067   -1563.4779    511.42645    268.93616    139.65743     36976.26 
  785400    307.83256   -1560.3771    521.15319    350.00797    464.35143     36976.26 
  785500    295.06323   -1527.5789    513.29322    317.31889      262.079     36976.26 
  785600    297.19197   -1577.8646    500.46546    263.81225    216.49087     36976.26 
  785700    301.64566   -1565.9326    538.68493    334.06305    311.86544     36976.26 
  785800    302.72172   -1582.7651     498.0796    281.48136    204.92247     36976.26 
  785900    307.00405   -1558.4159    512.41498    339.49187   -654.65331     36976.26 
  786000    297.39124   -1602.4477    497.92294    237.58593   -63.312353     36976.26 
  786100    288.90302    -1609.078    500.24175    194.96763   -661.50862     36976.26 
  786200    304.12752   -1575.7936      516.737    313.45455   -27.875107     36976.26 
  786300    298.74995   -1591.9066    486.69897     243.0349   -292.99809     36976.26 
  786400    291.04583   -1567.0665    487.53199    233.93971   -154.29921     36976.26 
  786500    303.86223   -1555.7642    563.95344    379.50319    349.92969     36976.26 
  786600    309.32082   -1590.0273    492.06307    297.98409    136.09492     36976.26 
  786700    297.44066   -1590.6814    509.31246    260.96482     360.6412     36976.26 
  786800    306.74227   -1568.3517    542.62305    358.58281    637.27389     36976.26 
  786900    306.87904   -1569.0914    508.66346    324.50068    553.49323     36976.26 
  787000    292.29063   -1565.7003    513.35431      266.746    752.12782     36976.26 
  787100    302.22145   -1573.5397    499.25617    289.62568    455.57323     36976.26 
  787200    311.15022   -1578.9098    506.32692    331.62141    899.17165     36976.26 
  787300     303.4663   -1596.0503    531.98247    305.45932    1165.2836     36976.26 
  787400    294.72948     -1546.51    517.41476    301.00311    880.32193     36976.26 
  787500    295.54236   -1535.6137    532.02622    330.17936    816.74202     36976.26 
  787600    305.65892   -1571.9642    537.63254    345.09063    145.27173     36976.26 
  787700    303.27877   -1554.1142    530.72552    345.29213    237.44675     36976.26 
  787800    303.85447   -1588.5763    508.67125    291.37391    401.68547     36976.26 
  787900    302.13496   -1551.5416    522.98006    334.95736     120.2287     36976.26 
  788000    305.35332     -1558.25    517.02506    336.81821    472.36204     36976.26 
  788100    304.37177   -1582.0615    530.64925    322.20118    167.93092     36976.26 
  788200    300.13639   -1560.6413    518.99547    312.85359   -255.97341     36976.26 
  788300    312.50886   -1559.0708    499.88854    351.15342     -95.1867     36976.26 
  788400    309.87968    -1545.404    523.19392    376.26028    -195.0128     36976.26 
  788500    302.69334   -1531.9547    504.28989    338.37403   -82.718427     36976.26 
  788600    301.58672   -1544.2497    512.88894    329.68389   -346.78164     36976.26 
  788700    306.07481   -1540.0723    514.67862    355.90555    172.53573     36976.26 
  788800    306.78486    -1562.075    516.96685    339.39544   -239.63442     36976.26 
  788900    294.00696   -1596.2952    522.53832    253.08079   -295.53259     36976.26 
  789000     310.2711   -1541.6596     551.5391    410.11635   -346.44755     36976.26 
  789100     299.3683   -1482.6227    520.87042    389.28078   -643.93628     36976.26 
  789200    299.89981   -1554.9693     529.6194    328.08191   -695.18383     36976.26 
  789300    296.79202   -1567.9263    509.80601    281.28616   -739.83803     36976.26 
  789400    301.39748   -1560.7822    509.20806    308.61659   -179.33311     36976.26 
  789500    298.88976   -1535.2746    528.14392    341.74285   -702.87208     36976.26 
  789600    306.62905    -1564.621    523.48685    342.66628   -482.83174     36976.26 
  789700    288.81105   -1522.3194    516.84923    297.91867    -566.0288     36976.26 
  789800    301.36055   -1482.4599     548.4577    426.02183   -109.84969     36976.26 
  789900    292.55073   -1516.2083    509.77122    313.82871   -709.93389     36976.26 
  790000    308.52347   -1533.2623    514.80144    373.88903    -774.3101     36976.26 
  790100    295.56679   -1517.1943    536.52222    353.20504   -154.91442     36976.26 
  790200    299.67705   -1533.4569     502.7239    321.69347   -300.66404     36976.26 
  790300    303.45085   -1623.0162    500.80945    247.25064     227.5274     36976.26 
  790400    308.82593   -1583.6629    512.55378    322.60576    810.29212     36976.26 
  790500    296.70496    -1560.045    534.36704    313.33566     286.0931     36976.26 
  790600    300.74916    -1563.517      509.101    302.84886   -6.9512002     36976.26 
  790700    300.00348   -1576.7825    537.16761    314.28477   -97.487049     36976.26 
  790800    294.16379   -1539.4099    534.80258    322.93812   -646.65361     36976.26 
  790900     299.4707   -1542.1217    498.12106     307.4946   -72.373289     36976.26 
  791000    313.47779   -1594.5445    516.18027    336.34426   -279.12823     36976.26 
  791100    311.65108   -1590.0887    502.67241    319.04832    16.431162     36976.26 
  791200    303.20122   -1592.4749     492.4959    268.35184   -107.14751     36976.26 
  791300       299.35   -1605.1897    510.99584    256.75666   -88.220865     36976.26 
  791400    300.09255   -1566.0256    518.62872    306.90469    42.085183     36976.26 
  791500    297.65926   -1522.5534    521.58663    342.35352    859.34967     36976.26 
  791600    298.28127   -1494.3564    533.15956    384.93051    36.004951     36976.26 
  791700    303.89428   -1517.4286    520.91677    374.94677   -989.62073     36976.26 
  791800    300.19905   -1514.0455    509.67177     350.4085   -576.03633     36976.26 
  791900    301.92312   -1545.3206     502.0757    319.31793   -915.87778     36976.26 
  792000    301.04578   -1525.4823    545.93557     379.0567   -1224.2518     36976.26 
  792100    293.16341   -1497.3877    508.69181     334.3349   -838.57155     36976.26 
  792200    305.54503   -1508.3882     541.3067    411.82685   -568.36262     36976.26 
  792300    307.15197   -1498.2382    537.35494     425.2771   -306.94004     36976.26 
  792400    290.15828    -1550.532    539.54522    298.48204    76.501564     36976.26 
  792500    302.20778   -1499.5742    511.72851    376.00182    362.10675     36976.26 
  792600    306.80083   -1466.6934    537.78584    455.66812    317.17433     36976.26 
  792700    298.06247   -1524.5365    526.22365    346.82708    584.48523     36976.26 
  792800    308.89825    -1504.501    528.14667    417.68693    915.84571     36976.26 
  792900    289.25763   -1544.1087    503.91589    265.21138    124.58151     36976.26 
  793000    312.09859   -1541.1981    536.11997    403.40609    41.144813     36976.26 
  793100    308.54664   -1508.5353    493.10053    377.01969    378.22246     36976.26 
  793200    310.90249   -1494.5953    515.17345    423.66439    48.209166     36976.26 
  793300    292.98044   -1544.4063    505.19976    282.99848    144.34757     36976.26 
  793400    297.70935   -1551.8789     526.4963    318.16374    269.87001     36976.26 
  793500    309.32098   -1546.7324    518.57707    367.79365    598.26145     36976.26 
  793600    293.10131   -1513.4856    533.91735    343.18221    517.40562     36976.26 
  793700    307.18577   -1520.6509    539.95483    405.61682    653.59951     36976.26 
  793800    299.05971   -1562.3863    529.99502    317.24914    91.016862     36976.26 
  793900    309.06082   -1499.3073    524.54431    420.01198    88.676092     36976.26 
  794000    310.47438   -1525.6378    550.32843    425.84491    79.055441     36976.26 
  794100    301.16035   -1567.0589    508.23984    300.30147    600.76652     36976.26 
  794200    305.52952   -1568.0755    512.12908    322.89194    -342.2006     36976.26 
  794300    301.93021   -1548.0704    513.90786    328.43228   -890.53532     36976.26 
  794400    319.45354   -1533.6811    532.36814     440.3638   -818.97339     36976.26 
  794500    291.90548   -1512.5741    519.00423    323.78396    -968.6265     36976.26 
  794600    305.50018   -1512.6555    532.11034    398.16078   -687.75478     36976.26 
  794700    302.37145   -1513.8334    515.17476     365.9275   -433.57888     36976.26 
  794800    294.81855   -1536.6013    526.70208    320.60107   -307.38071     36976.26 
  794900    294.12583   -1541.1286    516.88325    303.12875   -520.20055     36976.26 
  795000    289.88076   -1522.9331    534.41529    319.69851   -597.52907     36976.26 
  795100    300.04313    -1535.778    508.72349    327.02405   -80.114877     36976.26 
  795200    295.71027   -1525.5863    546.78522    355.72347   -314.55111     36976.26 
  795300    297.71192   -1535.1486    493.97426    302.38362    53.240696     36976.26 
  795400    305.53482   -1508.6672    522.90842    393.10351   -74.178265     36976.26 
  795500    300.42542   -1563.1772    512.37205    304.99866   -550.83871     36976.26 
  795600    294.00879   -1569.9237    510.30451    267.22675    134.46832     36976.26 
  795700    303.97736   -1538.6562    513.21225    346.38955    296.68861     36976.26 
  795800    299.60968   -1553.9336    511.33459    309.52348    140.38985     36976.26 
  795900    291.83093   -1571.9152    520.22253    265.32467   -194.64079     36976.26 
  796000    297.23147   -1527.8578    513.60617     327.1381   -333.00554     36976.26 
  796100    292.17812   -1535.2719    522.89244    306.20479   -546.71808     36976.26 
  796200    293.56624   -1527.7433    504.83805    301.94346   -1002.8614     36976.26 
  796300    299.59247   -1573.2207    504.44162    283.26565   -511.22614     36976.26 
  796400    302.43561   -1591.8498    511.21461    284.24049    -599.2103     36976.26 
  796500    297.69666   -1600.0373    507.95576    251.40754   -820.64824     36976.26 
  796600    291.62279   -1631.3402    499.14201    183.87987   -715.19685     36976.26 
  796700    303.33223   -1631.3543    485.43142    222.99921   -599.81628     36976.26 
  796800    292.39136   -1617.1896    484.07378    186.43069   -619.21276     36976.26 
  796900    301.31353    -1650.274     506.5669    216.10474   -328.40758     36976.26 
  797000    301.28281   -1648.0999    501.04581     212.6191   -189.74675     36976.26 
  797100    296.50031   -1592.1404    496.32482    242.27444   -787.05496     36976.26 
  797200    291.16563   -1595.9647    521.94882    239.99902   -805.78733     36976.26 
  797300    295.26552   -1563.6885    532.79118    301.62013   -334.73008     36976.26 
  797400    309.36373   -1588.6098    511.24787    318.77996    330.51702     36976.26 
  797500     289.0747    -1552.205    511.47492    263.84851   -33.738682     36976.26 
  797600    290.76421   -1551.3477    524.53421    285.38979    23.547564     36976.26 
  797700    290.92154    -1540.891    517.77674    289.79909    366.77028     36976.26 
  797800    281.27921   -1569.1064     526.4027    226.69428    212.97075     36976.26 
  797900     286.9025   -1525.8664    526.91537     295.8246   -42.066233     36976.26 
  798000    303.82832   -1599.2201    516.96411    288.90495   -372.42252     36976.26 
  798100    300.58561   -1603.7478     518.4693    271.24823    655.78799     36976.26 
  798200    298.71621   -1604.8125    526.27821    269.55596     75.93949     36976.26 
  798300    302.71574   -1567.2446    498.17476    297.07006   -202.96089     36976.26 
  798400    306.37833    -1570.199    510.46491     322.9349   -57.574312     36976.26 
  798500    294.77719   -1530.1494    526.63247    326.79671   -74.203699     36976.26 
  798600    295.93702   -1538.5649     516.7475    313.73054   -29.031998     36976.26 
  798700    298.32213   -1575.3463    518.82858    289.79411   -186.43189     36976.26 
  798800    288.23456   -1564.2396    492.91915    229.46666    281.30892     36976.26 
  798900    299.44432   -1579.3587    517.43562    289.45303    84.621541     36976.26 
  799000    312.31082   -1569.3299    506.26723    346.37936    151.74959     36976.26 
  799100    295.31281   -1578.9147     505.8881    259.70428    508.24457     36976.26 
  799200    307.15983   -1581.1265    528.40125    333.47059    806.77765     36976.26 
  799300    294.07064   -1560.4582    499.11248    265.77938    506.26045     36976.26 
  799400    309.17234   -1533.0512    559.45277    421.67977    536.00331     36976.26 
  799500    294.12931   -1533.3355     518.8671    312.92138    569.17409     36976.26 
  799600    307.33877   -1498.2138     501.9615     390.7511    59.087172     36976.26 
  799700    304.54567   -1511.2119    521.57319    384.75962   -361.50572     36976.26 
  799800    297.55681   -1560.8943    487.79652    269.76018   -468.36763     36976.26 
  799900    297.34206   -1567.2019    521.07176    295.75869   -1115.9783     36976.26 
  800000    302.15749   -1571.9439    491.91109    283.58778   -460.54475     36976.26 
  800100    291.52448   -1582.8692    509.23661    242.00174   -195.68205     36976.26 
  800200    298.65755   -1557.6652    534.07826     324.2386   -522.59847     36976.26 
  800300    285.57365    -1553.961    528.80257    263.62019   -579.88379     36976.26 
  800400     306.7333   -1492.8881    501.94379    393.32666     144.3909     36976.26 
  800500    294.86362   -1561.0137    519.40182    289.09181   -342.24643     36976.26 
  800600    305.24961   -1564.4148    512.57911     325.7394    64.524625     36976.26 
  800700    293.23083   -1523.6644     514.7065    314.37715    -42.12618     36976.26 
  800800    301.56828   -1562.6859     533.2792    331.55476    162.96025     36976.26 
  800900    295.61468   -1509.0468    524.64721    349.69361    194.76837     36976.26 
  801000    298.84213   -1538.7874    518.18213    328.05326   -289.03636     36976.26 
  801100    302.63515   -1554.3008    489.46533    300.94071   -136.50999     36976.26 
  801200    286.15398   -1523.4693     524.9594    292.88766   -347.15138     36976.26 
  801300    304.56184   -1561.8927    501.62339    314.20192   -1.9016435     36976.26 
  801400    290.67167    -1549.328    518.45418    280.91182    -207.5096     36976.26 
  801500    305.41188   -1537.5097    518.07616    358.87396   -253.97416     36976.26 
  801600    297.00798   -1537.2038    499.89549    303.07284   0.79493181     36976.26 
  801700    296.58538   -1542.9912    533.77527      329.258   -530.10174     36976.26 
  801800    290.78086   -1542.9528    505.96885    275.29447    133.68125     36976.26 
  801900    310.79058   -1533.1268    516.36258    385.81702    530.57129     36976.26 
  802000    302.67344   -1514.4693    516.03298     367.5127    112.92849     36976.26 
  802100    302.15525   -1570.0783     507.4101    300.94227    50.739111     36976.26 
  802200    303.25074    -1584.396    508.73052    292.88892    31.531157     36976.26 
  802300    308.16872   -1529.7017    529.54434     390.5916   -66.304719     36976.26 
  802400    300.14824   -1461.4687    493.50899    386.59322   -260.78301     36976.26 
  802500      310.004   -1508.4826    510.96417    401.51305   -1004.5934     36976.26 
  802600    293.07895   -1559.5317    502.53972     265.6576   -691.39396     36976.26 
  802700    297.28565   -1543.8877    507.38603    305.13256   -567.54108     36976.26 
  802800    303.95534   -1526.6117    545.05879    390.18131    -263.7537     36976.26 
  802900     299.5344   -1507.1238    514.71116    359.37011   -404.40198     36976.26 
  803000    299.87447   -1502.3755    507.79828    358.74018    -160.2199     36976.26 
  803100    306.14554   -1527.0822    530.13486    384.67111    127.45961     36976.26 
  803200    290.29953   -1509.2703    499.87538    300.71127   -389.11227     36976.26 
  803300    306.09664    -1536.385    519.79345    364.80617   -303.50872     36976.26 
  803400     295.8844   -1504.1989    511.08113    342.19267   -112.24028     36976.26 
  803500    298.64856   -1549.8495    515.10877    313.04421   -777.82568     36976.26 
  803600    292.53594   -1567.5172    494.48522    247.16705   -362.81188     36976.26 
  803700    299.04127   -1511.6833    521.52673    359.40066   -498.54153     36976.26 
  803800     292.3127   -1525.6831    551.24777    344.75623    44.629894     36976.26 
  803900    306.14911   -1523.2858    519.08116    377.42996    983.77944     36976.26 
  804000    303.92641     -1520.61    527.94151    378.93514    243.86849     36976.26 
  804100    306.15082   -1504.2291    524.29143    401.70452    541.32654     36976.26 
  804200    294.52286   -1518.9542    521.64506    331.85671    628.17616     36976.26 
  804300    292.30653   -1526.1738    496.28694    289.27684    323.75295     36976.26 
  804400    307.98634   -1555.5944    505.87411    340.20557    89.223006     36976.26 
  804500    294.58896   -1559.0733    503.18632    273.57721   -558.23031     36976.26 
  804600    290.39601   -1531.3388    507.83819    287.04105   -361.27534     36976.26 
  804700    299.51149   -1536.5858    502.73369    317.82717    97.053765     36976.26 
  804800    306.38086   -1550.1384    525.67716    358.21923    55.570895     36976.26 
  804900    295.50635   -1538.8831    498.79754    293.51875    18.622005     36976.26 
  805000    293.46657   -1510.3267    509.30264    323.37489     333.5521     36976.26 
  805100    298.89543   -1523.2243    524.35518    350.02994    1031.6786     36976.26 
  805200    304.71437   -1534.9398    510.16898     350.3888     631.5114     36976.26 
  805300    296.00771   -1550.1189    528.04789    313.79592   -184.61656     36976.26 
  805400    298.58543    -1533.458    503.26652    317.30858   -28.798326     36976.26 
  805500    297.18695   -1539.6402    507.39341    308.94195   -208.00514     36976.26 
  805600    297.87373   -1575.4567    508.30362    277.13514    -376.1418     36976.26 
  805700    308.68204   -1605.0516     493.5624    281.57633     43.59224     36976.26 
  805800    303.12773   -1554.7535    486.42109    299.66684   -238.83597     36976.26 
  805900    306.15313   -1570.4223    517.08092    328.31129     127.2699     36976.26 
  806000    289.04466   -1566.9155    516.47355    254.00114   -110.38302     36976.26 
  806100    292.56249   -1564.2564     500.9485    257.01095   -830.28083     36976.26 
  806200     325.0592   -1557.5696    478.18209    387.58726   -331.74775     36976.26 
  806300    299.94119   -1544.8452    529.26531    338.03862   -347.45389     36976.26 
  806400    299.56421   -1533.5985    503.64006    321.95878   -302.66562     36976.26 
  806500     297.1764   -1474.2567    518.96544    385.84993   -250.59212     36976.26 
  806600    300.74797   -1545.9628    537.54173    348.83841    129.80392     36976.26 
  806700    310.28939   -1547.1669    498.97215    352.12466    292.12078     36976.26 
  806800    292.92853   -1574.0372    548.29085    296.22441    460.30412     36976.26 
  806900    306.66389    -1542.134    524.86465    366.68842   -102.18837     36976.26 
  807000    303.71188   -1539.2649    495.84585    327.21643    79.730286     36976.26 
  807100    300.70828   -1547.5852    529.22846    338.72363   -137.69396     36976.26 
  807200    294.30214    -1541.932    508.44913    294.68692    90.381509     36976.26 
  807300     306.4265   -1552.3495    532.89554    363.43241    495.83061     36976.26 
  807400    303.06089   -1535.2206    558.83475    391.31173    715.41055     36976.26 
  807500    306.53028    -1560.589    521.04443    343.81018    643.62438     36976.26 
  807600    302.05407   -1595.6401    491.61497    259.12868     978.3194     36976.26 
  807700    299.52758   -1558.1759    536.23758    329.81355    1078.9409     36976.26 
  807800    293.08331   -1574.3243    523.53562    271.88063    803.15442     36976.26 
  807900    293.42964   -1572.9413    512.69338    263.98432    768.96409     36976.26 
  808000    309.28014   -1565.2257    552.93713    383.47607    273.48873     36976.26 
  808100     309.6282   -1585.0998    503.54571    315.78134    535.95431     36976.26 
  808200    294.33873    -1571.782    517.58638    274.13936     10.00196     36976.26 
  808300    303.68227   -1555.0624    522.23033    337.66972    12.547514     36976.26 
  808400    299.62622   -1566.7898    521.47451    306.88184    327.37896     36976.26 
  808500    295.61132   -1557.7986    515.40099    291.68049    174.28307     36976.26 
  808600    301.57582   -1589.6047    534.92334    306.31417    489.91028     36976.26 
  808700    306.97139   -1571.6832    516.33365    329.99584   -148.68844     36976.26 
  808800    292.72943   -1538.7918    522.87532    305.15577   -461.65688     36976.26 
  808900     292.2415   -1570.9655    525.89566    273.80038   -711.53974     36976.26 
  809000    302.46982   -1560.6799    490.44417    294.79434    66.150966     36976.26 
  809100    307.06702   -1559.7671    546.73058    372.74049    457.54979     36976.26 
  809200    293.39649   -1586.9792    534.09744    271.20087    28.866657     36976.26 
  809300    292.18945   -1587.7149    526.61053    257.53092    504.74192     36976.26 
  809400    294.58867   -1576.6865    495.38789    248.16424    79.015299     36976.26 
  809500    305.55009    -1545.377    530.17473    363.72891    302.17712     36976.26 
  809600    306.93881    -1542.757    534.71748    377.15892    362.00487     36976.26 
  809700    294.20923   -1537.9215    525.44688    315.27583    309.77811     36976.26 
  809800    302.33425   -1519.1219    514.93009    360.22648   -179.43758     36976.26 
  809900    295.62611   -1563.9201    498.77395    268.99859    -545.8807     36976.26 
  810000    314.82559   -1536.3311     523.2854    407.74536     -260.116     36976.26 
  810100    303.64396   -1539.3373    525.90851    356.90018   -4.4577281     36976.26 
  810200    305.92358   -1540.2694    521.48807    361.83537   -815.74221     36976.26 
  810300    303.73825   -1531.9533    506.67512    345.47632   -766.79971     36976.26 
  810400    293.28349   -1529.6007    525.33474    319.30675   -440.99101     36976.26 
  810500    301.01632   -1576.8579    529.43279    311.04541   -117.69171     36976.26 
  810600    298.31033   -1563.4905    519.37743    302.14542    46.037022     36976.26 
  810700    306.69053    -1485.606    497.04383    395.51575   -59.593306     36976.26 
  810800    300.75105   -1536.9644    531.39562    351.70464    188.56444     36976.26 
  810900    306.50664   -1501.0397    531.19174    413.40005   -180.94162     36976.26 
  811000    293.76594   -1527.5712    487.58913    285.76791   -345.71762     36976.26 
  811100    301.81974    -1514.703    529.25929    376.65256    -161.1477     36976.26 
  811200    291.48263   -1499.8861    494.24665    309.80606    25.236129     36976.26 
  811300    299.92938   -1522.9347    538.49567     369.1262    162.25233     36976.26 
  811400     302.5894   -1580.9695    528.24748    312.84771   -47.474761     36976.26 
  811500    297.21861   -1526.4953    529.52584     344.3622   -302.43448     36976.26 
  811600     289.6621   -1547.9837    500.09189     259.3377   -217.09295     36976.26 
  811700    304.47141   -1507.5848    528.25155    394.72991    62.695309     36976.26 
  811800    304.06003   -1549.5361    516.31042    338.98093   -142.79722     36976.26 
  811900    299.08898   -1522.1725    535.93034    363.53036   -56.145982     36976.26 
  812000    300.01104   -1501.7429    530.99728    383.18808   -668.22666     36976.26 
  812100    311.98951   -1503.5963    531.33329      435.729   -138.41858     36976.26 
  812200    309.69794   -1507.1504    538.99763     429.4975   -164.70254     36976.26 
  812300    291.66909   -1504.2187     518.9738    331.04211   -31.731676     36976.26 
  812400    305.18508    -1528.615    543.74278    392.41165   -86.464781     36976.26 
  812500    288.91319   -1547.0241    523.00099    279.82662     194.1771     36976.26 
  812600    296.04093   -1575.2566    506.08636    266.84658   -204.19054     36976.26 
  812700    297.22975   -1597.3482    524.79832    268.83202   -83.746162     36976.26 
  812800    295.36999   -1588.5477    503.22241    247.66363   -158.47717     36976.26 
  812900    301.87519   -1555.0611    523.90999    331.19546    770.20508     36976.26 
  813000    299.32592    -1591.569     499.2928    258.56557    285.70812     36976.26 
  813100    292.80833   -1561.6014    497.19448    257.02143    246.54293     36976.26 
  813200    307.32116   -1556.3097    514.36509    344.97935   -74.871219     36976.26 
  813300    297.74392   -1562.5023    518.48615    299.68616    557.88677     36976.26 
  813400    291.91102   -1531.0395    516.46156    302.80085    650.93602     36976.26 
  813500    307.08376   -1589.6032    542.74913    338.99851    221.15833     36976.26 
  813600    305.85509   -1569.4311    489.10005     299.9766   -178.39575     36976.26 
  813700    294.20343   -1581.1388    504.30819    250.89368   -351.15871     36976.26 
  813800    295.15156   -1576.1673    518.36728    274.20319   -170.16932     36976.26 
  813900    290.35697   -1595.8135    521.75894    236.31086   -121.54598     36976.26 
  814000    300.61835   -1568.6828    531.79869    319.79045     262.8615     36976.26 
  814100    298.54197   -1601.9255    482.99009    228.36851   -250.71788     36976.26 
  814200     305.0738   -1548.0625     502.1314    330.85063    69.204351     36976.26 
  814300    303.07131   -1525.7895    497.86798    339.82306   -32.609714     36976.26 
  814400    300.85535   -1560.4137    510.12026    307.45067    160.63948     36976.26 
  814500    300.05694   -1603.9786    499.42144    249.58378    582.95027     36976.26 
  814600     302.7678   -1567.4457    493.37848    292.30765     695.9687     36976.26 
  814700     307.4342   -1558.0327    492.03598    321.43731    134.32361     36976.26 
  814800    294.86312   -1583.9151     506.5708    253.35716    463.70455     36976.26 
  814900    299.35334   -1605.6253    528.29076      273.631    326.77902     36976.26 
  815000    299.58952   -1590.5053    501.00004    262.52624    701.36162     36976.26 
  815100    302.63654   -1599.0609    511.11567    277.83726    378.66263     36976.26 
  815200    296.43121   -1548.1351    529.91784    319.56094    132.62423     36976.26 
  815300    293.84624   -1596.9297    510.22661    239.40919    185.26782     36976.26 
  815400    308.63253   -1565.7424     512.7391    339.83875    442.63958     36976.26 
  815500    300.66691   -1557.9043    507.18674    306.17608    482.55694     36976.26 
  815600    296.09795   -1568.8907    511.66436    279.04778    277.21581     36976.26 
  815700    295.79299   -1583.8319    517.80267    268.86869   -218.89048     36976.26 
  815800    297.40659   -1581.1856    495.19164    256.18603   -544.98838     36976.26 
  815900    306.96617    -1536.181    499.70494    348.84585   -149.32099     36976.26 
  816000    305.96137   -1527.4871    520.54081    373.84097   -83.488549     36976.26 
  816100    304.68466   -1531.6672    520.02956    363.38789    129.78499     36976.26 
  816200    298.61398   -1568.5578    476.42656    255.49771    317.55984     36976.26 
  816300    289.51006   -1584.5716    478.82198     200.7938    249.50713     36976.26 
  816400    314.15888   -1595.7212    513.69116    335.75216    72.973043     36976.26 
  816500    295.79714   -1522.5245    522.62309    335.01522   -831.88237     36976.26 
  816600    297.09861   -1546.1613    521.88295    316.51174   -818.60905     36976.26 
  816700    300.92503   -1551.0784    505.85698    312.83704   -530.65697     36976.26 
  816800     295.7645   -1581.8505    505.08474    258.00358   -705.36156     36976.26 
  816900    297.35692   -1552.3013    527.88087    317.53541    -531.1309     36976.26 
  817000    285.86579    -1540.725    534.21616    283.58819    5.8794951     36976.26 
  817100    291.27757   -1549.6269    496.79613    261.68928   -390.64042     36976.26 
  817200    294.90434   -1586.5434    507.09192      251.436   -106.49457     36976.26 
  817300    291.24299    -1625.512    498.61397    187.46596   0.26300307     36976.26 
  817400     302.8667   -1572.9726    505.40683    299.25543    132.99983     36976.26 
  817500    308.31709   -1527.1204    508.38114     372.6792    635.61249     36976.26 
  817600    298.45074   -1611.5699    521.63531    256.95758    192.16036     36976.26 
  817700    292.89502   -1561.0306    508.04346    268.83234    361.13073     36976.26 
  817800      297.466   -1575.2401    504.39945    271.60746    220.86432     36976.26 
  817900    306.77925   -1594.4278    492.26385    282.31432    611.43016     36976.26 
  818000    312.99709   -1601.1547    529.33904    340.72343    624.77705     36976.26 
  818100     295.3343   -1565.7876    497.60044    264.64072     371.5415     36976.26 
  818200    308.29866   -1584.7401    506.09169    312.68693    384.14961     36976.26 
  818300     302.2464   -1609.0573    498.92119    253.88565    113.43872     36976.26 
  818400    305.07847   -1567.0397    507.02643    316.78951   -19.163124     36976.26 
  818500    307.07106   -1606.8383    513.34919    292.30609    432.96556     36976.26 
  818600    297.73365   -1608.1494    498.91657    234.42316    706.10847     36976.26 
  818700    299.29227   -1634.1862    496.98042    213.48424    194.10849     36976.26 
  818800    307.48111   -1576.8139    499.77408    310.60598    242.95792     36976.26 
  818900    306.47354   -1623.9192    507.80202    266.98146    279.37559     36976.26 
  819000    306.59602   -1611.2286    521.47677    293.89954     633.0578     36976.26 
  819100     294.3498   -1573.5994    523.47327    278.25876   -180.77749     36976.26 
  819200    301.77555   -1590.6003    527.26805    298.56462    45.937304     36976.26 
  819300    298.92373   -1595.7186    481.06794    234.37613   -464.80365     36976.26 
  819400    305.51118   -1579.0894    503.39412    303.06033   -307.53984     36976.26 
  819500    300.81585    -1577.862    518.51132    298.21511   -177.64034     36976.26 
  819600    291.81548   -1560.9982    524.60121    280.55064    71.437601     36976.26 
  819700    283.63098   -1556.3252    547.47725    271.16347    77.076021     36976.26 
  819800     290.7237   -1553.4001    513.75099     272.3713   -66.618915     36976.26 
  819900    303.23645   -1559.8365    508.00032    316.65366    465.63147     36976.26 
  820000    304.51806   -1568.7818    512.64851    318.14041    569.23806     36976.26 
  820100    308.51953   -1537.2597    567.22358    422.29597    329.19537     36976.26 
  820200    296.82695    -1498.857    506.86694    347.57409     45.74033     36976.26 
  820300    294.50469   -1554.5838    525.15379    299.65383    550.84178     36976.26 
  820400    308.18981   -1532.4316    528.45103    386.86347    936.79085     36976.26 
  820500    312.61939   -1584.5921    518.18787    344.43033    293.88217     36976.26 
  820600    299.98228   -1550.1019    519.08483    322.78694    378.01571     36976.26 
  820700    303.83182   -1530.1334    496.99549    338.03887    673.10017     36976.26 
  820800    292.29003   -1543.4717    527.25522    302.87275    740.22643     36976.26 
  820900    297.61788   -1575.2357    509.05902    276.95686    929.50269     36976.26 
  821000    304.04781   -1534.0121    512.03369    350.17303    489.61651     36976.26 
  821100    296.21027   -1505.1205    530.22481    361.88538    752.53333     36976.26 
  821200    297.71432   -1477.2095    536.37366    402.73292   -58.392279     36976.26 
  821300    298.37553   -1514.9639    513.31447    344.90337   -129.34544     36976.26 
  821400    286.68393   -1518.8223     535.6639    310.63077   -275.91477     36976.26 
  821500    297.46026   -1477.8542    487.09276    351.66078    210.12345     36976.26 
  821600    299.05781   -1510.8928    519.03621    357.77523    138.56217     36976.26 
  821700    301.81716   -1506.5451    520.19812    375.73773   -10.357022     36976.26 
  821800    295.49528   -1523.7509    520.61753    330.42094    335.49221     36976.26 
  821900    308.43291   -1531.6292    524.46071    384.77271    143.45657     36976.26 
  822000    300.04709   -1576.2512    509.04577    286.89098    236.45695     36976.26 
  822100    299.79203   -1558.7891     509.7391     303.8954   -145.85308     36976.26 
  822200    300.73633   -1534.5073    547.16772     369.8674   -250.52695     36976.26 
  822300     304.1708   -1547.4073    522.41105    347.71026    154.87106     36976.26 
  822400      296.109    -1524.315    547.39228    359.40133    28.065472     36976.26 
  822500    302.31522   -1510.3374    517.89877    371.89374   -351.08136     36976.26 
  822600    304.85261   -1551.8038    510.00122     333.9809   -333.45402     36976.26 
  822700    301.35741   -1538.9306    510.18061    331.25983    115.61326     36976.26 
  822800    307.40004   -1551.1647    514.33756    350.45279   -308.34434     36976.26 
  822900    292.29792   -1527.2182    536.11912    328.02577   -311.70363     36976.26 
  823000    302.97871    -1564.031    491.82206     295.1178    141.50507     36976.26 
  823100    304.89255   -1580.0462    531.89173    327.80931    175.92281     36976.26 
  823200    306.31952     -1547.35    524.75172    359.80526   -89.995551     36976.26 
  823300    298.96615   -1523.8609     521.0717    346.42899   -124.23253     36976.26 
  823400    298.09312   -1473.1583    525.26465    397.38463   -58.516152     36976.26 
  823500    302.33341   -1510.8879    543.08099    396.60757   -95.090953     36976.26 
  823600    293.93403   -1515.8171    516.14593    326.83737    423.00057     36976.26 
  823700    287.89656   -1520.0471    537.90511    317.11978     285.1166     36976.26 
  823800    294.37983   -1536.3554     515.3994     307.5644    84.060404     36976.26 
  823900    295.45968   -1527.4472    531.74774    337.69427   -563.44239     36976.26 
  824000    300.75724   -1531.8538    514.02794    339.47549   -263.40675     36976.26 
  824100     292.1654   -1549.7727    540.27908    309.03319   -838.90031     36976.26 
  824200    293.85581   -1529.1849    513.06348    310.03405   -407.89098     36976.26 
  824300    290.17326   -1554.7294    540.13645    294.94336   -947.87974     36976.26 
  824400    298.09867   -1565.5358    522.92168    302.68917   -276.39034     36976.26 
  824500    305.62018   -1577.5434    520.86401    322.56812   -678.91267     36976.26 
  824600    297.63538   -1549.0143    509.46319    303.66138   -1017.1774     36976.26 
  824700    298.96272   -1560.6613    514.56606    303.10746   -177.93433     36976.26 
  824800    303.64837   -1559.8664    542.56152    353.04399     174.8821     36976.26 
  824900    308.76802   -1549.9809    496.39541     339.8681   -224.82636     36976.26 
  825000    300.55914   -1532.7126    528.66071    352.35544   -549.57595     36976.26 
  825100     294.9899   -1551.6519    493.74132    273.36304   -198.91911     36976.26 
  825200    304.29539   -1609.1084    513.36627    277.52667     458.9511     36976.26 
  825300    299.84997   -1568.7076     539.2658    323.76506    745.83373     36976.26 
  825400    308.22555   -1575.9343    509.94192    325.01299    634.69623     36976.26 
  825500    296.35211   -1553.3853    515.19723    299.23315    620.68913     36976.26 
  825600     304.0164   -1562.6321    514.82298    324.20063   -392.35177     36976.26 
  825700    307.38625   -1569.0536    539.89371    358.05781   -354.34823     36976.26 
  825800    293.16489   -1539.4503    524.42255    308.00968   -91.509626     36976.26 
  825900    305.26588   -1547.8493     491.4482    321.24746   -10.550026     36976.26 
  826000    297.59881   -1604.5143    509.47346    248.00665   -423.16853     36976.26 
  826100    295.86504   -1547.7382    524.42106    311.90599   -290.98841     36976.26 
  826200    292.88701   -1566.2401    513.93115    269.47448    -643.7927     36976.26 
  826300     308.3047   -1544.1049    518.44968    365.70738   -651.88291     36976.26 
  826400    295.33804   -1566.3055     502.3483    268.88757   -449.54199     36976.26 
  826500    300.43282   -1597.3578    514.00928    272.48868   -109.01228     36976.26 
  826600    290.96964   -1582.8173    527.77875    258.09185    185.89599     36976.26 
  826700    294.46082   -1588.1306    509.84809     250.6034     704.2391     36976.26 
  826800    299.72907   -1593.0407    514.61758    274.23808   -232.40148     36976.26 
  826900    314.36567   -1611.8068    530.05376    336.96239    221.94989     36976.26 
  827000    297.67148   -1602.8884    518.21685    258.70387    594.70624     36976.26 
  827100    297.73158   -1576.8302    547.94441    314.76088    824.99283     36976.26 
  827200    305.49251    -1592.471    526.36436    312.56474    504.85945     36976.26 
  827300    295.57253   -1595.0037    496.35166    235.25099    552.85703     36976.26 
  827400    284.46178   -1610.7983    540.08243    213.04488    359.25375     36976.26 
  827500    299.35833   -1565.7043    513.71076    298.99456    435.76703     36976.26 
  827600      297.697   -1606.6235    498.25699    235.12407    483.70634     36976.26 
  827700    298.99661   -1585.6093    519.78843    283.53476    866.46804     36976.26 
  827800    292.70171    -1563.652     546.1011    303.39625    84.332394     36976.26 
  827900    300.95036   -1561.0246    517.29779    314.44605    759.69336     36976.26 
  828000    302.37482   -1608.9677    528.86184    284.49555    842.44487     36976.26 
  828100    292.85887   -1595.2124    544.60149    271.04549    543.60526     36976.26 
  828200    311.83873   -1586.9806    519.72956    340.06046    768.32775     36976.26 
  828300    304.54535   -1599.8557    511.20425    285.74536    1028.5133     36976.26 
  828400    305.62035   -1569.0304    516.32407    326.54195    416.95654     36976.26 
  828500    293.54119   -1609.6527    515.84804    230.93106   -436.87735     36976.26 
  828600     297.3259   -1608.7258    481.23862    214.32868    155.86661     36976.26 
  828700    301.23522   -1621.0584    530.76883    269.16883   -383.58501     36976.26 
  828800    291.46201   -1587.8935    550.85444    278.31339   -794.25615     36976.26 
  828900    290.66763   -1631.8797    479.04355    158.93132   -618.41363     36976.26 
  829000     302.7366   -1627.8243    529.36465    267.77441   -58.173814     36976.26 
  829100    292.08647    -1550.868     528.5924    295.89496   -223.34843     36976.26 
  829200      291.506   -1579.9849    525.82804    261.39405   -764.47508     36976.26 
  829300    301.41329   -1597.4128    506.16745    269.01668   -409.74533     36976.26 
  829400    288.12242   -1585.0158    487.32874    202.59394    -368.2907     36976.26 
  829500    302.54476   -1638.4598    533.57746    260.48593   -865.18694     36976.26 
  829600    300.12961   -1622.1278    499.30636     231.6474    58.531958     36976.26 
  829700    306.84937   -1599.3433     512.1319    297.58339   -153.53503     36976.26 
  829800    291.94536   -1637.5061    538.47936    218.50701   -94.346451     36976.26 
  829900    299.01562   -1595.1273    513.33651    267.65071    501.62105     36976.26 
  830000    298.48015   -1601.2418    516.93145    262.71461    237.30154     36976.26 
  830100    297.79259   -1606.8888    512.22279    249.25595    153.35505     36976.26 
  830200    306.62438   -1595.7079    511.57888    299.65037    443.11644     36976.26 
  830300     308.1631   -1596.6552    518.50728    312.57562    403.49501     36976.26 
  830400    296.28087   -1542.5149    529.37174     323.9566   -377.35738     36976.26 
  830500    301.25167   -1568.5927    524.20908    315.14903   -783.07177     36976.26 
  830600    290.94995   -1566.1169    513.68759     260.6122   -209.55082     36976.26 
  830700    290.58382   -1610.2186    511.16503    212.33564   -508.43539     36976.26 
  830800    305.89873   -1602.4498    512.49275    290.54749    138.39489     36976.26 
  830900    307.31451   -1562.0064    534.05265    358.94022     469.0385     36976.26 
  831000    292.84428    -1597.177     533.0772     257.4908    248.49124     36976.26 
  831100    307.96363    -1594.827    513.92742    308.92374    -31.61384     36976.26 
  831200    300.45398   -1585.6204    536.92004    307.23234    263.58518     36976.26 
  831300    307.16697   -1578.4853    517.90998    325.65278   -39.090418     36976.26 
  831400    280.64833   -1584.2709    525.56165    207.84167    -678.8756     36976.26 
  831500    292.60333   -1586.0262    499.25413    233.73108   -605.24512     36976.26 
  831600    301.39008   -1579.9972    512.22419    292.38424    -149.7373     36976.26 
  831700    300.96071   -1577.2441    513.38858    294.36402   -479.77009     36976.26 
  831800    298.95516   -1594.0368    508.47384    263.60569   -206.74446     36976.26 
  831900    292.08331    -1601.033     514.5744    231.69774   -223.86004     36976.26 
  832000    296.41927   -1576.7243    524.52015    285.52015    327.10655     36976.26 
  832100    301.66083    -1612.671    533.81275    282.52096    464.69703     36976.26 
  832200    310.29586   -1596.8981    529.15243    332.60294    310.95613     36976.26 
  832300    300.32491   -1562.7822    517.09703    309.66506    396.22068     36976.26 
  832400    289.30185   -1602.5142    512.37029    215.45983    195.39399     36976.26 
  832500    296.47175     -1547.39    548.22942    338.80051    336.63181     36976.26 
  832600    297.51412   -1571.2027    508.73306    280.19564    10.262144     36976.26 
  832700    293.26621   -1559.0301    524.48192    288.94646   -148.13685     36976.26 
  832800    303.89658   -1554.3431    515.38843    332.51431    44.026934     36976.26 
  832900    301.48194   -1560.2608    534.61015    334.92121    -311.5715     36976.26 
  833000     297.6683   -1569.3717    518.38613    292.37552    504.97173     36976.26 
  833100     288.3872   -1592.9034    528.45842      237.031    465.03808     36976.26 
  833200     297.7184   -1578.2752    518.77898     284.0909    74.414271     36976.26 
  833300     286.8775   -1574.4977    559.86248    280.02761    603.79397     36976.26 
  833400    290.95882   -1597.2813    519.00036    234.80062    79.733801     36976.26 
  833500    296.89646   -1538.9739    531.99081    332.89469   -112.43558     36976.26 
  833600    312.95146   -1601.8816    526.23021     336.6818    818.39979     36976.26 
  833700    301.01977   -1559.8874    538.34619    336.94488     761.2828     36976.26 
  833800    293.78978   -1578.8051    525.59382    272.64627    547.19393     36976.26 
  833900    297.28666   -1573.3944    514.74682    282.99122    226.87158     36976.26 
  834000     301.8581   -1580.3397    535.69792    317.62762   -559.57217     36976.26 
  834100    297.89164   -1537.0528    524.93836    332.25463    -511.3472     36976.26 
  834200    299.77167   -1538.8324    546.34249    360.36357   -55.040943     36976.26 
  834300     294.4685   -1585.7994    513.71426    256.83544   -104.31438     36976.26 
  834400    301.71721   -1565.9301    544.37021    340.07367    345.50639     36976.26 
  834500    290.70151   -1575.0529    538.89677    275.76421    475.40825     36976.26 
  834600     292.7696    -1576.202    532.99057     278.0421    26.422682     36976.26 
  834700    291.92741    -1578.357    512.83319    251.92898     142.5266     36976.26 
  834800    279.16518   -1570.1539    569.48884    259.19246   -20.896685     36976.26 
  834900    307.93464   -1599.1686    506.98028    297.50418   -140.60428     36976.26 
  835000    298.64024   -1569.3938    535.15942      313.513   -302.25184     36976.26 
  835100    306.67759    -1603.593    534.75595    315.18255   -216.71559     36976.26 
  835200    300.66783    -1585.825    529.11255     300.1854   -307.38758     36976.26 
  835300    308.75912   -1564.7298     524.6002    353.28374   -205.96313     36976.26 
  835400    298.14604   -1564.8604    531.05223     311.7089   -390.35347     36976.26 
  835500    291.66231   -1582.3665    507.45889    241.34874    218.34775     36976.26 
  835600    297.46703   -1587.1841    552.35381    307.62247   -91.264272     36976.26 
  835700    300.67074   -1572.4358    504.01809    288.49321    -146.2371     36976.26 
  835800    306.98931   -1579.3745    520.58001    326.63183   -372.11221     36976.26 
  835900    297.61616    -1558.047     502.3219    287.40072   -240.20497     36976.26 
  836000    312.74716    -1588.862    523.76862     346.3178   -146.41198     36976.26 
  836100    296.33255   -1576.4876    542.70914    303.55445    549.52185     36976.26 
  836200    299.30816   -1570.8981    522.55939    302.42295    679.40801     36976.26 
  836300    301.33402   -1529.9597    530.38582    360.33046    455.87106     36976.26 
  836400    294.52361   -1508.0378     504.0754    325.20689   -562.22604     36976.26 
  836500    306.24415   -1514.8191    539.98339    407.22775   -523.63404     36976.26 
  836600    297.82962   -1532.8424    522.37336     333.6201   -669.38992     36976.26 
  836700     296.9801   -1557.3268    530.85609    313.78461   -613.62827     36976.26 
  836800    302.37395    -1581.858    514.81089    297.55028   -465.13173     36976.26 
  836900    301.42157   -1567.2039    507.71483    300.81034   -324.32507     36976.26 
  837000    295.82929   -1538.8786    520.86334    317.04648   -964.80889     36976.26 
  837100    297.49348   -1524.1427    529.82149    348.25089   -420.73698     36976.26 
  837200     296.7137   -1531.9681    506.94391    314.02884   -290.95576     36976.26 
  837300     303.3049   -1576.0686    513.79719     306.5274   -405.21405     36976.26 
  837400    309.10505   -1536.4975    493.87005    352.34711   -117.84163     36976.26 
  837500     294.4695   -1582.7823    511.31296    257.45575   -178.27675     36976.26 
  837600    291.66131   -1546.3618    544.55351    314.44356    260.21623     36976.26 
  837700    295.46161   -1570.0007    530.04947    293.45114    35.261007     36976.26 
  837800    293.56026   -1530.8857    510.70903    304.64503    252.83187     36976.26 
  837900    292.94131   -1535.3175    516.65029    303.36121   -59.792252     36976.26 
  838000    308.54651   -1530.2477    522.44044    384.64665   -410.99544     36976.26 
  838100    295.75248   -1592.6391    517.82639    259.90238   -574.10528     36976.26 
  838200    293.37887   -1558.6427    509.39761    274.75808   -689.10635     36976.26 
  838300    304.54696   -1527.8834    543.54534    390.06603   -373.99116     36976.26 
  838400    293.24672   -1553.6766     483.5145     253.2446    169.02813     36976.26 
  838500     293.4141   -1613.2401    528.12911    239.05108     48.23628     36976.26 
  838600    296.61062   -1570.1645        511.8    280.22333    -110.9523     36976.26 
  838700    302.81747   -1581.0128    530.80534    316.39155    301.86112     36976.26 
  838800    294.28598    -1582.773    542.51053    287.83438   -89.274101     36976.26 
  838900    302.95948   -1538.0404    510.44115    339.64062   -68.407966     36976.26 
  839000    294.26228   -1567.6798      510.835    271.14506   -440.58458     36976.26 
  839100    301.00513   -1518.2077    533.93784    374.15014    141.24375     36976.26 
  839200    289.08746   -1538.2536    493.79004    260.17266   -95.129568     36976.26 
  839300    302.21416   -1554.0795    523.26321    333.06004    -800.3484     36976.26 
  839400    296.56724   -1538.9766    516.55296    315.96846   -842.95202     36976.26 
  839500    300.15243    -1557.887    511.91046    308.59532   -780.87197     36976.26 
  839600    309.59967   -1546.8462    506.35724    356.71774    -425.0265     36976.26 
  839700    289.98391   -1563.3002    530.50927    275.89093   -169.58208     36976.26 
  839800    304.05527   -1553.6479    500.08397    318.62126   -401.06862     36976.26 
  839900    302.96689   -1539.6149    526.88705    354.54543   -58.175727     36976.26 
  840000    297.19804   -1538.9471    501.56351    303.85527   -75.550161     36976.26 
  840100    302.20614   -1542.6043    551.10295    372.33874   -186.60906     36976.26 
  840200    301.89039   -1569.6284    506.42953    299.21623    522.55079     36976.26 
  840300    303.64122   -1591.9358    496.31944    274.70021    282.29289     36976.26 
  840400    295.23515   -1564.3034    539.02317    307.10014    144.47442     36976.26 
  840500    293.94423   -1563.1953    511.64687    275.00617    34.569166     36976.26 
  840600     310.1024   -1547.1331    532.30682    384.64923    126.84257     36976.26 
  840700     293.3467   -1591.5225    519.99737    252.33284    169.79691     36976.26 
  840800    302.24601   -1592.7008    500.31443    271.63368    408.27451     36976.26 
  840900    302.86467   -1593.6116    499.92596    273.12634    240.77425     36976.26 
  841000    309.52527    -1522.428    539.18095    413.62386    176.88571     36976.26 
  841100    294.24478   -1536.0756    489.13329    280.96862    398.98977     36976.26 
  841200    299.37933    -1567.267    503.29203    287.10792    4.1904236     36976.26 
  841300    302.25233   -1578.4267    533.87254    319.49446    165.46129     36976.26 
  841400    300.88069   -1527.2273    492.08522    322.71638    209.92077     36976.26 
  841500    312.34703   -1522.3989     514.6788    401.88529   -17.086712     36976.26 
  841600    297.20047   -1546.3693    505.21138    300.09194   -170.21122     36976.26 
  841700    297.97338   -1535.0902    555.90632    365.55404   -123.55888     36976.26 
  841800    302.31755   -1509.8682    485.39112     339.8658   -346.53262     36976.26 
  841900    304.41738   -1502.4684    525.94626    397.29723   -867.68099     36976.26 
  842000    299.63239   -1501.3496    507.43704     358.3124   -1069.9491     36976.26 
  842100    284.53513   -1542.9245     539.3736    280.54094   -659.06047     36976.26 
  842200    295.42549   -1548.6548    497.20195    281.78653   -382.92515     36976.26 
  842300     306.2459   -1554.8702    525.06837    352.26945   -182.75118     36976.26 
  842400     293.9505   -1556.9858    539.57641    309.17343   -143.31218     36976.26 
  842500    295.94478   -1560.2464    490.92844      266.265    50.801344     36976.26 
  842600    306.61095   -1591.0322    539.41473    332.10134    436.37107     36976.26 
  842700    296.76643   -1604.2093    514.21205    249.29373   -399.07869     36976.26 
  842800    299.77119   -1543.8737    521.37051    330.34818   -81.411192     36976.26 
  842900    294.44019   -1566.6916    524.13384    286.23504     177.9643     36976.26 
  843000    290.92763     -1542.79    526.09694    296.24774    703.93911     36976.26 
  843100    305.19731   -1576.9141    504.11792    304.54298     380.4352     36976.26 
  843200    301.64238    -1536.728      522.338    346.90587    208.66156     36976.26 
  843300    307.61063   -1543.7168    500.77119    345.28467   -320.36052     36976.26 
  843400    303.17572   -1532.5686     509.1006    344.74781     66.54667     36976.26 
  843500    301.21245   -1555.6416    496.53624    300.25032   -330.37014     36976.26 
  843600    308.03575   -1547.0371     534.6157    377.72737   -408.34121     36976.26 
  843700     306.0437   -1523.7381    495.75553    353.17625    100.88048     36976.26 
  843800    300.28214   -1516.7875    506.87825    345.24793   -242.88554     36976.26 
  843900    303.90109    -1490.252    537.33004    418.56739   -42.020592     36976.26 
  844000     299.7533   -1572.7225    514.70791    294.75602   -99.267163     36976.26 
  844100    305.91411   -1535.9722    510.77757    355.37931      167.147     36976.26 
  844200     305.6605   -1539.9873     482.6519    322.09409   -66.773047     36976.26 
  844300    301.44869   -1548.1039    527.13679    339.45472   -596.22169     36976.26 
  844400    308.37704   -1548.8358    552.82146    395.67476    117.14133     36976.26 
  844500    294.89908   -1580.9799    506.27025    256.15409    224.60721     36976.26 
  844600    305.49885   -1546.6877    520.26596    352.27819    600.70293     36976.26 
  844700    309.44804    -1541.526    495.24355       350.24    719.18122     36976.26 
  844800    303.01007   -1576.7109    543.54011    334.29743    591.09858     36976.26 
  844900    291.59866   -1609.2213    502.43298    209.18078    253.97019     36976.26 
  845000    312.56549   -1573.2175      536.501     373.8748    1059.3111     36976.26 
  845100    296.69064   -1593.6724    547.25601    292.53256    121.09212     36976.26 
  845200    313.47494   -1594.9556    498.04296    317.78291   -19.813315     36976.26 
  845300    293.41514   -1565.1274    511.20373    270.24315    1.4729893     36976.26 
  845400    292.61527    -1579.572    528.49396      269.479   -1254.4929     36976.26 
  845500    295.59644   -1587.0129    504.05859    251.05652   -827.12652     36976.26 
  845600      304.788   -1595.2959    505.69699    285.89302   -755.93585     36976.26 
  845700    296.77303   -1583.4367    540.60616    296.49022   -145.83115     36976.26 
  845800    312.55869   -1580.8704    532.79753    362.48777   -164.37589     36976.26 
  845900    284.71307   -1581.1607    507.11217    210.84624    -347.6697     36976.26 
  846000    291.02934   -1626.3892    507.14574    194.15633   -432.07579     36976.26 
  846100    290.76181   -1582.0099    498.75659     228.9391   -352.72064     36976.26 
  846200    297.75918   -1608.4515     489.7481    225.06783   -413.56899     36976.26 
  846300    295.20372   -1593.0038    538.37093    277.60566   -458.53365     36976.26 
  846400    306.38211   -1595.0421    494.85381    282.49778   -325.53694     36976.26 
  846500    299.30201   -1592.3663    505.91735    264.28505   -396.84739     36976.26 
  846600    296.03692   -1633.3437    507.43973    210.09481   -673.16861     36976.26 
  846700     296.7575   -1599.1258    500.60995    240.73486   -450.82134     36976.26 
  846800    304.34065    -1521.601    527.60034    379.47245   -466.79324     36976.26 
  846900    302.22402   -1559.3288    500.04253    304.63457    20.017353     36976.26 
  847000    297.86637   -1545.3711    514.64031    313.52419    2.1834644     36976.26 
  847100    302.20293   -1585.9187    496.10509    274.01207    412.26461     36976.26 
  847200    297.79103   -1596.6125    510.34482    257.64729    122.75036     36976.26 
  847300    299.38858   -1585.6024    535.40278    300.92495    359.87327     36976.26 
  847400    301.81816   -1568.3076    513.34215    307.12372    238.26116     36976.26 
  847500    290.97699   -1570.9538    504.27663    246.48644    47.093463     36976.26 
  847600    297.23618   -1528.3785    507.06042    320.09289   -249.48676     36976.26 
  847700    293.01432   -1535.9338    515.65684    302.08095    169.94938     36976.26 
  847800    300.66172   -1576.8132    518.01729    298.07435    140.53127     36976.26 
  847900    296.31362   -1538.4271    543.76467    342.58505   -302.33359     36976.26 
  848000    312.94617    -1563.067    481.69726    330.93955    240.21429     36976.26 
  848100    304.23347   -1568.2325    487.07402    291.83085   -42.360287     36976.26 
  848200    302.03739   -1600.4153    512.60663    275.26991    184.13942     36976.26 
  848300    299.28285   -1596.9594    513.20097    266.88905     196.0467     36976.26 
  848400    292.10584   -1617.6219    494.67787    195.31401   -83.381254     36976.26 
  848500    289.44815   -1619.5092    510.14456    196.89934   -285.29176     36976.26 
  848600    302.20917   -1615.7164    493.00379    241.14123   -770.20119     36976.26 
  848700    301.15744   -1601.3027    495.90291    253.70755   -601.28484     36976.26 
  848800    296.34112   -1591.4226    471.93623    217.88524   -933.18926     36976.26 
  848900    297.92658    -1609.207    503.11423    238.43394   -362.50621     36976.26 
  849000    299.58902   -1573.3543    503.66538    282.34032   -291.37202     36976.26 
  849100    291.10199   -1585.8404    492.75296     220.6402    46.951381     36976.26 
  849200    304.42937   -1594.1096    506.36129    286.12511   -13.771552     36976.26 
  849300    299.70476   -1632.6015    495.06414    215.01421   -238.34408     36976.26 
  849400    307.20533   -1554.4941    532.53278    364.43988    302.63074     36976.26 
  849500    301.05309   -1568.5305    505.26995    295.37592    502.27883     36976.26 
  849600    308.46548   -1613.2995    495.55358    274.34229    188.99709     36976.26 
  849700    300.77024   -1585.7355    518.88372    290.50818     180.9086     36976.26 
  849800    293.88724   -1546.4898    505.96261     285.7702    38.767391     36976.26 
  849900    303.68885   -1528.2204    516.36358    358.67467    8.0137716     36976.26 
  850000    297.39559   -1560.2514    524.57772    306.45666   -550.47896     36976.26 
  850100    311.82347   -1538.4455    501.07379    369.87088   -264.87762     36976.26 
  850200     300.2939   -1492.2019    492.82145    355.82987   -401.49624     36976.26 
  850300    303.03889   -1497.2551    539.79168    410.13491   -281.79785     36976.26 
  850400    300.96383   -1514.7516    466.74895    310.23096    372.73834     36976.26 
  850500    295.21247   -1557.1207    508.62308    283.78045     316.3838     36976.26 
  850600    295.01337   -1538.7621    519.88809    312.50556    -279.6091     36976.26 
  850700     302.2786   -1559.2489    504.99936    309.91759    131.19125     36976.26 
  850800    314.90175   -1529.3709    517.32342    409.08722   -630.40427     36976.26 
  850900    294.86479   -1504.0561    518.44739    345.10034   -665.70484     36976.26 
  851000    290.18724   -1531.4594    521.92308    300.06321   -116.41705     36976.26 
  851100    299.29934    -1526.085    531.22354    355.86049    246.85962     36976.26 
  851200    301.47613   -1476.3964    503.43048    387.57974    136.54042     36976.26 
  851300    298.74966   -1476.9891    519.86525    391.11735    809.27192     36976.26 
  851400    288.90245   -1494.2465    519.89198    329.44675    402.24863     36976.26 
  851500    298.93137   -1466.8344    528.10143    410.32826    191.85263     36976.26 
  851600    302.18958   -1507.9859    536.71033    392.48982    587.43177     36976.26 
  851700    301.62977   -1517.3795    508.21723    352.07672    21.268612     36976.26 
  851800    301.85969   -1527.7342    492.59878    327.14117     236.4527     36976.26 
  851900    292.35695   -1506.3172    524.60797    337.68203    1071.2365     36976.26 
  852000    290.43646   -1499.4984    548.09358     359.3193    321.50294     36976.26 
  852100    308.08747   -1503.5808    527.88522    414.68666    206.77159     36976.26 
  852200    296.86231   -1489.9587    514.44841    364.21346    334.10073     36976.26 
  852300    302.54821   -1488.3043    543.33319    420.41278   -228.92337     36976.26 
  852400    297.13938   -1480.2712    545.35214    406.05504   -149.13805     36976.26 
  852500    297.28547    -1495.445    506.09548    352.28386   -330.65835     36976.26 
  852600    298.37435    -1483.142    549.06494    412.47041   -85.190749     36976.26 
  852700    299.49941   -1519.3379    500.23109    332.51799    215.01718     36976.26 
  852800    304.09994   -1515.1774    528.87899    386.08829    23.613486     36976.26 
  852900    306.36976   -1523.1246    507.87766    367.38337    -394.1629     36976.26 
  853000    298.97527   -1505.6325    504.13187    347.75869   -323.52769     36976.26 
  853100    292.38395   -1503.6744    527.05528    342.89397   -973.76355     36976.26 
  853200    290.66755   -1530.0914    526.41978    308.09545   -269.52261     36976.26 
  853300    296.08813   -1553.6649     525.9541     308.5191   -427.77985     36976.26 
  853400    301.49277   -1546.3278    491.76286    306.05582    408.02389     36976.26 
  853500    303.75451     -1561.35    535.57021    345.04803   -184.17001     36976.26 
  853600    300.21912   -1544.8409    516.12241    326.15433    93.933086     36976.26 
  853700    292.72513   -1505.9026    531.14119    346.29146    -184.6882     36976.26 
  853800    298.20641   -1509.9527    515.22582    351.06268   -224.71592     36976.26 
  853900    292.12666   -1528.9087    522.06332    311.50656   -448.71849     36976.26 
  854000    290.41097   -1594.4155    503.32635    219.52002    562.89267     36976.26 
  854100    289.44045     -1565.81    510.56472    250.98395    1035.0473     36976.26 
  854200    296.44349   -1563.3825    494.06565    268.51674    225.83289     36976.26 
  854300    306.19732   -1612.1251    514.95292    284.67997   -9.2873838     36976.26 
  854400    294.29965   -1580.4279     510.5946    258.32525    292.06076     36976.26 
  854500    293.18833   -1593.4746    540.07022    269.73878     271.5446     36976.26 
  854600    297.20547   -1573.5913     491.4973    259.17838   -273.51222     36976.26 
  854700    304.96303   -1615.1239    519.11513    280.27305   -699.13738     36976.26 
  854800    304.08922   -1577.6006    488.38364    283.12143   -596.60338     36976.26 
  854900     300.0459   -1578.4198     511.2849    286.95615   -795.55846     36976.26 
  855000    289.63759   -1547.4243    518.24878    277.94343   -1081.5358     36976.26 
  855100    302.85774   -1511.8933    551.55664    406.44405   -1049.8188     36976.26 
  855200    298.49849   -1498.4582    543.23115    391.88066   -532.19656     36976.26 
  855300    285.69921   -1494.0098    513.10937    308.44482   -693.39944     36976.26 
  855400    299.76337   -1505.3009    541.04762     388.5627   -694.66395     36976.26 
  855500    303.02468   -1494.9906    544.03847    416.58197   -504.22298     36976.26 
  855600    302.50801   -1520.1242     516.4918    361.57003   -1106.1243     36976.26 
  855700    300.28636   -1517.8018    523.47879    360.85323   -811.30904     36976.26 
  855800    301.74916   -1543.7317    511.23631    329.28247   -579.72792     36976.26 
  855900    294.77939    -1539.755    494.02854    284.59707   -94.940074     36976.26 
  856000    311.02673    -1579.957    495.55429    319.24423    137.11276     36976.26 
  856100    307.13588   -1593.9677    513.19124     305.3113   -271.54262     36976.26 
  856200    317.94787   -1567.0302    496.50601    364.35749   -438.71181     36976.26 
  856300    304.61486    -1549.627     497.4333     322.5168   -191.24788     36976.26 
  856400    310.23329   -1551.6538    522.66959    371.08196   -494.89309     36976.26 
  856500    302.19043   -1559.4444    495.68115    300.00597   -84.136032     36976.26 
  856600    311.20318   -1528.3321    526.15388     402.2651    -428.8745     36976.26 
  856700    294.46972   -1552.4793    507.76533    284.21211   -218.04392     36976.26 
  856800    301.44339   -1515.6107    529.94874    374.73587    194.20397     36976.26 
  856900    296.67364   -1531.3567     516.7462    324.26172   -532.70241     36976.26 
  857000    296.16695   -1535.6937    525.11311    326.00501   -190.36417     36976.26 
  857100    297.76021   -1536.1637     509.1972    316.80942    -331.3165     36976.26 
  857200    297.81606   -1527.8473     515.6351    331.81578   -242.59646     36976.26 
  857300    301.31572   -1545.0956    507.68921    322.41527    50.261087     36976.26 
  857400    296.44585   -1540.3091    510.31882    307.85393   -185.21406     36976.26 
  857500    289.54569   -1524.5389    521.16395    303.32918     305.4418     36976.26 
  857600    302.03512   -1550.6815    504.75921    317.14597   -284.34434     36976.26 
  857700    295.12995   -1557.7633    513.85943    288.00173    54.559075     36976.26 
  857800    305.08837   -1552.5116    525.02844    349.36428    762.87387     36976.26 
  857900     292.7081   -1522.7925    529.53938    327.72282    715.30672     36976.26 
  858000    295.10542   -1527.0851    537.14274    341.85255    707.44083     36976.26 
  858100    298.49925    -1522.561     513.6586     338.2087    280.39224     36976.26 
  858200    305.96579    -1519.929    526.28131     387.1595    308.11326     36976.26 
  858300    288.10172    -1494.058    505.55661    311.68628   -64.518667     36976.26 
  858400    307.09658   -1554.2461    543.34301    375.00728   -362.16491     36976.26 
  858500    297.70461   -1504.7717    498.37804    337.13125    186.06267     36976.26 
  858600    304.73079   -1533.7375    517.09866    358.59491    250.47309     36976.26 
  858700    303.96198   -1531.0476    515.54676    356.26332    46.597136     36976.26 
  858800    296.25181   -1535.7349    506.65102    307.88462    -395.6836     36976.26 
  858900    307.52826   -1543.0978    521.88468    366.64547    -120.8961     36976.26 
  859000    298.77507   -1497.9682    519.59338    369.98112   -560.91951     36976.26 
  859100    308.26542   -1522.7179    510.98844    379.45588     -115.088     36976.26 
  859200    295.28145   -1535.4069    519.08161    316.26406   -559.54457     36976.26 
  859300    293.49546   -1580.6248    481.14813    225.05262   -725.32377     36976.26 
  859400    295.13008   -1545.5554    507.13522    293.48608   -611.27881     36976.26 
  859500    309.35454   -1536.7357    517.50153    376.86624   -182.37538     36976.26 
  859600    303.20532   -1563.6575    501.98447    306.67637   -61.887058     36976.26 
  859700     299.0995   -1560.8702    475.38079    264.33058   -130.37849     36976.26 
  859800    296.49295   -1571.2191    500.41679    267.25446   -468.40389     36976.26 
  859900    293.02555   -1583.3216     510.6442    249.73122    16.063503     36976.26 
  860000    304.11991   -1550.9222    515.00585    336.56051   -171.37244     36976.26 
  860100    304.57249   -1562.8356    506.90408     318.5878   -127.35554     36976.26 
  860200    305.96212   -1594.3364    490.78837    277.24262   -91.396734     36976.26 
  860300    298.23213   -1552.2114    498.85045    292.54466   -355.76887     36976.26 
  860400    309.73451   -1591.4321    514.32387    320.70696   -611.04499     36976.26 
  860500    300.64451   -1549.5941    535.43651    342.63498   -811.33362     36976.26 
  860600    302.26045   -1575.4005     477.5177     266.2024   -114.61926     36976.26 
  860700    290.88606   -1616.5016    479.07715    175.32874   -319.71698     36976.26 
  860800    299.45821   -1579.0761    537.69348    310.05629   -151.52264     36976.26 
  860900    291.42868   -1539.6412    534.06304    309.62389   -401.65811     36976.26 
  861000    286.55813   -1490.1893    534.88311    337.91529   -361.66135     36976.26 
  861100    296.88247   -1522.7485    501.99112    319.05733   -690.42676     36976.26 
  861200    303.28504   -1555.3386    513.66884    327.03932   -628.59783     36976.26 
  861300    299.06056   -1573.2555    502.75229    279.14103   -173.24593     36976.26 
  861400    298.53848   -1550.4528    524.38408    321.21943    794.21201     36976.26 
  861500    302.25662   -1543.7143    490.54123    310.89488    853.90717     36976.26 
  861600    305.49338   -1556.3161    530.22717    352.58628    554.13897     36976.26 
  861700    294.39641   -1609.9327    517.43763     236.1002    449.41557     36976.26 
  861800    301.08625   -1554.6232    528.70122    332.86412    81.935013     36976.26 
  861900    297.30803   -1562.9328    512.56741    291.36986   -936.44997     36976.26 
  862000    296.75052   -1527.0891    505.63157    317.76162   -595.58827     36976.26 
  862100    302.72237   -1554.9231    506.42845    317.67515      -510.47     36976.26 
  862200    312.27336   -1560.2039    509.04501    358.11409   -384.73198     36976.26 
  862300    291.25857   -1566.0585    515.83354    264.20939    113.41237     36976.26 
  862400    301.10062   -1610.6826    522.53229    270.70068     238.7875     36976.26 
  862500    300.00909   -1573.6624    498.94159    279.20415     867.1583     36976.26 
  862600    288.83083   -1532.9439    521.06044    291.59458    515.71953     36976.26 
  862700    310.81921   -1584.4493     540.6941    358.95527    576.10996     36976.26 
  862800    302.19619    -1558.766    509.31258    314.34179    416.03668     36976.26 
  862900    302.66323   -1587.0569     525.2213    304.06735    32.447908     36976.26 
  863000    288.25661   -1581.9164    538.09795    257.06822   -190.69725     36976.26 
  863100    305.94573   -1598.4351    513.86009    296.14169    18.391002     36976.26 
  863200    298.61167   -1604.4805    481.62049    224.75844   -513.43789     36976.26 
  863300    304.77726   -1593.8729    501.21483    282.78539   -601.35149     36976.26 
  863400    301.62975   -1581.4978    502.42855    282.16964   -393.82481     36976.26 
  863500    293.96815   -1582.8086     499.1813     243.0352   -370.29912     36976.26 
  863600    299.89999   -1626.4347    514.10269    241.10057    201.65277     36976.26 
  863700    295.54237   -1650.6292    501.45126     184.5889    38.495754     36976.26 
  863800    278.67277   -1640.1008    501.69634    119.23081    128.14435     36976.26 
  863900    297.47447   -1584.0328    518.53703    276.99059    76.063649     36976.26 
  864000    303.57028   -1599.4029    512.94822    283.54174   -326.73329     36976.26 
  864100    292.78483   -1593.1807    511.91923    240.06081   -236.08967     36976.26 
  864200    299.77352   -1559.4597    505.05149    298.45365    392.35422     36976.26 
  864300    301.07104   -1574.1212    534.42512    319.02138     433.2309     36976.26 
  864400    295.80524   -1648.1924    478.52544    165.28627   -250.71479     36976.26 
  864500    309.57648   -1612.0213    517.04119    302.12202    -3.168395     36976.26 
  864600    304.49468   -1575.2821    535.19463    334.08072   -147.44947     36976.26 
  864700    297.22515   -1573.8045    510.18289    277.73951   -171.80578     36976.26 
  864800    304.01671   -1556.1746    538.46018     354.2967   -363.16614     36976.26 
  864900    313.24267   -1582.0786    480.44054    312.00933   -921.87905     36976.26 
  865000    307.23287   -1570.9262    526.92074       342.52   -861.23183     36976.26 
  865100    302.52202   -1565.7773    523.32327    322.81165   -1080.5124     36976.26 
  865200    300.88482   -1543.8121     540.3322    354.39719   -388.73052     36976.26 
  865300    305.08518   -1591.9638    529.99243    314.86166    451.67987     36976.26 
  865400    300.65491   -1584.7769    518.20174    290.26435    236.24948     36976.26 
  865500    293.95908     -1580.21    517.13349    263.54509   -4.9728634     36976.26 
  865600    304.08458   -1559.4104    543.54572    356.45272    320.66112     36976.26 
  865700    289.11636   -1566.4045    510.93035    249.29243    20.353675     36976.26 
  865800    304.13714   -1567.3648    515.80554    320.99535    276.03223     36976.26 
  865900    285.99155   -1550.3768    531.49715     271.7849    210.81497     36976.26 
  866000    302.06827   -1581.8754    497.53387    278.87637   -187.28128     36976.26 
  866100    310.84991   -1545.4404    519.03224    376.44084    73.340311     36976.26 
  866200    294.90242   -1582.3829    512.52478    261.02068     179.2893     36976.26 
  866300    298.34305   -1556.2143    552.96199    343.15395    261.69848     36976.26 
  866400    309.29761   -1574.9907    518.01779    338.87061   -183.38881     36976.26 
  866500    302.39739   -1591.1416    500.70907    274.27072   -1176.8689     36976.26 
  866600    299.07168   -1571.5487    508.46188    286.60765   -545.83546     36976.26 
  866700    291.17825   -1576.9909    514.65778    251.73871   -608.38967     36976.26 
  866800    300.18941   -1507.9054     535.5939    382.42727   -340.18723     36976.26 
  866900    297.40818   -1545.3753    497.19977    294.01165   -51.585527     36976.26 
  867000    302.89587   -1561.9577    518.98921    323.98429    -93.70246     36976.26 
  867100    293.60879    -1554.785    491.77008    262.02585    15.289923     36976.26 
  867200    309.72593   -1550.1245    509.35028    357.00232    332.43979     36976.26 
  867300    289.14111   -1512.5732    558.33189    350.63698     591.0863     36976.26 
  867400    296.10079   -1520.4169    544.93417    360.80424    31.397248     36976.26 
  867500    301.76383   -1547.5447    533.38246     347.6817    860.27123     36976.26 
  867600    299.29623   -1562.8519    510.97379    298.82969    671.50986     36976.26 
  867700    297.53216   -1523.1832    539.84693    359.41047    648.64626     36976.26 
  867800    296.50596   -1566.8236     529.4775    300.76943     440.8975     36976.26 
  867900    291.79053   -1584.2159    519.40465    252.02382    553.68886     36976.26 
  868000    304.78265   -1613.8715    522.98194    284.57822     217.0444     36976.26 
  868100    301.11925   -1567.4647    504.42564      295.896   -248.49405     36976.26 
  868200    301.99291    -1525.383     529.0528    366.54763   -292.55516     36976.26 
  868300    304.74203   -1545.8122     539.9895    369.46175   -672.50313     36976.26 
  868400    301.50521   -1560.4383     485.8161    286.05467   -512.35432     36976.26 
  868500    304.01306   -1542.6014    523.76269    353.15594    106.75324     36976.26 
  868600    299.91957   -1553.0792    501.80518    302.24697   -432.50197     36976.26 
  868700    291.12159   -1549.9323      517.454    281.33781   -167.12998     36976.26 
  868800    309.37274   -1573.7058    488.44443    310.92125   -229.95523     36976.26 
  868900    308.64644   -1585.0796    534.84526    342.67055    499.62923     36976.26 
  869000     301.4959   -1587.0532    499.64829     273.2299    615.45419     36976.26 
  869100    304.31336   -1541.4692    532.33639    364.21709    349.84179     36976.26 
  869200    296.64407   -1542.9074    505.55316    301.38455    143.45416     36976.26 
  869300    307.03049   -1527.6449    546.11458    404.08185    296.98825     36976.26 
  869400    301.26619   -1546.6901    498.04328     310.9513    457.30188     36976.26 
  869500    310.27909   -1587.2076    556.48432    369.54961    287.33594     36976.26 
  869600    304.55244   -1573.6238    527.40735    328.21237    309.05434     36976.26 
  869700    297.13524   -1586.4784    513.22043    267.69745   -665.08787     36976.26 
  869800    302.72183    -1559.858    518.73943    325.04884   -1150.7507     36976.26 
  869900     296.0549   -1557.8761    528.53322      306.737    -808.2975     36976.26 
  870000    297.48488   -1537.3025    504.42568    309.65653   -176.48266     36976.26 
  870100    305.17507   -1538.9234    544.39348    382.70876   -26.298771     36976.26 
  870200    311.29445   -1565.3612    531.97063    371.46465    113.13951     36976.26 
  870300    293.09738   -1523.8487    553.02732    351.91139    142.02991     36976.26 
  870400    293.94941   -1537.5556    527.02357     316.0459    33.254943     36976.26 
  870500    298.58498   -1558.3194    513.67689    302.85548    182.92365     36976.26 
  870600    304.82464   -1579.7513    519.52967    315.43561    449.72656     36976.26 
  870700    308.55627    -1557.672     510.6098    345.43575     24.07718     36976.26 
  870800    299.07568   -1611.5105    519.17357    257.37558   -340.95046     36976.26 
  870900    303.34449   -1616.3355    528.95011    281.59207   -27.583635     36976.26 
  871000    306.20157   -1605.9961    501.01638    276.89152      106.392     36976.26 
  871100    303.93522   -1579.3667    496.81535    289.09203   -189.01289     36976.26 
  871200    308.54421   -1584.2333    534.69503    342.90525   -59.253933     36976.26 
  871300    300.51835   -1553.3874    506.06658    308.90242   -441.25852     36976.26 
  871400    302.50143   -1570.4784    531.63089    326.32522   -449.41668     36976.26 
  871500    296.84107   -1558.8004    508.58016    289.40755   -211.69128     36976.26 
  871600    303.77602   -1575.0739    544.45608     340.3071   -174.82546     36976.26 
  871700    295.08464   -1609.3694    517.01417      239.346    0.8494572     36976.26 
  871800    298.00934   -1583.5763     506.0503    267.37421    55.423841     36976.26 
  871900    300.58543   -1585.8761    535.73707    306.38694   -116.09051     36976.26 
  872000     298.9274   -1610.3677    539.49466    278.17029   -308.12884     36976.26 
  872100    324.18396   -1578.8304    502.55412    386.74852    51.891038     36976.26 
  872200    307.63195   -1540.3031    528.31033    376.33368   -765.07857     36976.26 
  872300    305.34664   -1584.0087    505.67224    299.67662   -805.55391     36976.26 
  872400    299.56087    -1563.547    501.37137    289.72656   -1067.1333     36976.26 
  872500    291.28587   -1567.0044     551.3338    298.88695   -572.75627     36976.26 
  872600    306.01303   -1567.5031    519.41329    332.93055   -490.90306     36976.26 
  872700    309.61356    -1552.834    489.77055    334.20597   -297.99617     36976.26 
  872800    301.84658   -1534.2041    516.16655    344.17986   -293.56302     36976.26 
  872900    298.82954   -1531.7407    530.10339    346.96443   -519.88953     36976.26 
  873000    300.25548   -1562.3106    500.20836    292.93464    207.44835     36976.26 
  873100    297.38088   -1571.2219    534.48975     305.3318   -598.71255     36976.26 
  873200    300.34306   -1609.2411    525.54234    271.73344   -653.39897     36976.26 
  873300    307.68539    -1621.799    510.85619    277.62486    -265.7695     36976.26 
  873400     306.4787   -1616.2178    524.33042     291.2346    -788.5435     36976.26 
  873500    302.54367    -1600.893     511.7158    276.18617   -563.89629     36976.26 
  873600    298.78162   -1574.6656    513.54905    287.26885   -631.37586     36976.26 
  873700    292.62805   -1547.6212    521.08676     294.0803   -236.13675     36976.26 
  873800    306.42024   -1565.7356    526.25167    343.37417   -713.92621     36976.26 
  873900    301.20837   -1563.3562    498.19208    294.17309   -426.89589     36976.26 
  874000    294.00348   -1595.5023    512.43511    243.75477   -1100.5341     36976.26 
  874100    304.71335    -1563.569     512.8892    324.47521   -1216.8856     36976.26 
  874200    295.79218   -1608.1441    500.96203    227.71221   -554.60107     36976.26 
  874300    297.02856   -1612.5054     514.5503    242.51888   -342.42251     36976.26 
  874400    287.78316   -1579.6661    543.66713    262.75099    -647.4253     36976.26 
  874500    293.46751   -1588.3786    529.87158    265.89619   -683.75163     36976.26 
  874600    308.73225   -1615.4073    518.54163    296.42641    333.34167     36976.26 
  874700    297.12062   -1601.2575    520.71154    260.34347    364.49501     36976.26 
  874800    305.20174   -1586.5876    550.68553    341.45706    225.90418     36976.26 
  874900    302.46786   -1569.3413    531.97794    327.65784    596.21677     36976.26 
  875000    296.15102   -1585.8112    524.38877    275.09129    145.19792     36976.26 
  875100    301.65948   -1562.0307    513.14488    312.48728    358.89204     36976.26 
  875200    303.74374   -1573.5417    510.75193     307.9894   -143.95433     36976.26 
  875300     299.6414   -1546.9116    512.57714    317.93113    427.35406     36976.26 
  875400    302.56582   -1548.7661    528.62439    345.32165    170.30595     36976.26 
  875500    305.24124   -1493.5318    557.35205    441.35762    290.99349     36976.26 
  875600    299.69399   -1525.5829     524.4807    351.40065    315.19983     36976.26 
  875700    303.08648   -1540.4785    535.56608    362.90058    366.12767     36976.26 
  875800    292.80689   -1546.8665    516.00158    290.55691   -163.68766     36976.26 
  875900    287.73803   -1490.0216    516.88415    325.40887    32.822513     36976.26 
  876000    299.91349   -1484.4889     548.5025    417.50708   -36.693901     36976.26 
  876100    304.67066   -1494.2667    536.81585    417.51151    -388.5926     36976.26 
  876200      295.526   -1503.5866    536.72759    366.83399    285.56186     36976.26 
  876300    296.80069   -1520.9985    526.02915    344.47628   -103.38838     36976.26 
  876400    291.42823   -1531.6432    523.50235    307.05916   -406.86953     36976.26 
  876500     299.6495   -1522.4572      527.571    357.41596     793.9058     36976.26 
  876600    292.67941   -1547.8167    530.31976    303.34957    241.74114     36976.26 
  876700    286.97125   -1525.4146    509.79448    279.46572    390.60386     36976.26 
  876800    302.46266   -1514.6621    574.87442    425.21012      -22.613     36976.26 
  876900    296.09726   -1504.7475    485.97256    317.49614   -556.67012     36976.26 
  877000    296.10364   -1492.6082    539.66849    383.36019   -218.65248     36976.26 
  877100    302.28373   -1492.0007    547.35934    419.54895   -161.96613     36976.26 
  877200    315.44579   -1519.7318     512.5462    416.40434   -146.83286     36976.26 
  877300    304.38798   -1500.8579    536.32468     409.1534   -68.746513     36976.26 
  877400    291.92655   -1513.4999    546.47167    350.42064    812.79986     36976.26 
  877500    298.03255   -1575.6325    517.21317    286.58561    567.73696     36976.26 
  877600    289.71929   -1561.5872    546.94479    292.84522     577.9058     36976.26 
  877700    307.15347   -1581.8732    545.51642    349.81035    189.17794     36976.26 
  877800    301.87411   -1542.6583    521.00303    340.68644   -149.60873     36976.26 
  877900    305.15709    -1497.491    527.62758    407.29422   -62.226298     36976.26 
  878000    302.58811   -1566.7391     502.3284    301.15319   -403.12201     36976.26 
  878100    296.86518   -1527.9241     531.4522    343.26477    197.71789     36976.26 
  878200    290.27495   -1553.5415    509.99903     266.4528   -346.06537     36976.26 
  878300    304.02291   -1601.9038    491.21385    261.34912    25.855041     36976.26 
  878400    295.28838   -1577.2491    488.85969    244.23121    751.13143     36976.26 
  878500    291.06136   -1558.2178    523.24624    278.57273    213.66134     36976.26 
  878600    303.74312   -1602.4578    525.17811    293.49669    304.65983     36976.26 
  878700    295.97419   -1600.2589     511.8786    247.33534   -6.7929216     36976.26 
  878800    296.31831   -1521.8313    508.02311    323.46051    248.76823     36976.26 
  878900    307.74578   -1535.9405    517.78027    370.68003   -185.70484     36976.26 
  879000    291.76862   -1541.8367    539.93833    314.83781   -381.90282     36976.26 
  879100    302.31444   -1490.1661    518.65339    392.81619   -386.08081     36976.26 
  879200    297.24833   -1480.7558    530.62514    391.33513   -977.18599     36976.26 
  879300    297.49043   -1487.0644    548.56549    404.05949   -923.31687     36976.26 
  879400     303.1987   -1506.2497    537.08128    399.15106   -467.07342     36976.26 
  879500    313.46592   -1465.9833    561.07902    509.75062   -620.37058     36976.26 
  879600     303.4959   -1522.2057    549.52193    396.97694   -191.85412     36976.26 
  879700    307.31875   -1520.7609    558.35896    424.51112    -25.23407     36976.26 
  879800     309.5711   -1511.1874    528.84529    414.73572   -470.42327     36976.26 
  879900    306.32501   -1526.2543    538.74974    394.92385   -789.32217     36976.26 
  880000    302.50406   -1499.2353    522.63541    388.58477   -584.80869     36976.26 
  880100    301.29506   -1540.3357    539.37203    358.76478   -540.99354     36976.26 
  880200    307.78011   -1542.3337    547.20817    393.86962    168.07557     36976.26 
  880300    304.25498   -1567.5595     508.3144    313.84131     784.4699     36976.26 
  880400    285.39183    -1571.683    532.71807    248.99316    434.95864     36976.26 
  880500    307.14761   -1552.4185    538.32638    372.04861    513.63841     36976.26 
  880600    304.51148   -1567.6964    528.01502     334.5626    1323.5685     36976.26 
  880700    301.85279   -1593.9598    527.39776    295.68339    1102.9042     36976.26 
  880800    306.02057   -1581.5527    552.02679    351.52848    544.00801     36976.26 
  880900    284.42831    -1562.757    512.61269    233.46537    673.67795     36976.26 
  881000    297.18598   -1554.9643     549.3828    335.60292    331.73382     36976.26 
  881100    304.75623   -1586.0476    547.39284    336.69381   -246.29251     36976.26 
  881200    302.73315   -1593.1838    542.18797    315.22263   -397.51755     36976.26 
  881300    304.37787   -1585.0036    504.90792    293.54531   -409.72483     36976.26 
  881400    307.60961   -1579.2866    523.07103    332.01017   -435.76918     36976.26 
  881500    311.53198   -1608.9307    525.92674    322.92315    303.30522     36976.26 
  881600    300.45918   -1585.3313    535.56212    306.18701   -246.98809     36976.26 
  881700    302.64955   -1596.3468    532.34988    301.84427   -420.95709     36976.26 
  881800    304.97925   -1597.7811    490.32822    268.90217   -390.81905     36976.26 
  881900    292.61959   -1547.7441    546.76579    319.59822   -231.22365     36976.26 
  882000    305.84382   -1550.2675    539.72613    369.71537   -761.45779     36976.26 
  882100    295.83977   -1580.8485    500.87256    255.13306   -385.59752     36976.26 
  882200    300.51329   -1566.5135    524.02652    313.71335   -593.70213     36976.26 
  882300    310.99165   -1551.2216     538.4319    390.69897   -505.15836     36976.26 
  882400     295.2054   -1537.8323    510.94961    305.36339   -599.30938     36976.26 
  882500    303.86328    -1527.114    540.59691    384.80163   -741.94625     36976.26 
  882600    306.35465   -1506.2247    533.77963    410.11704   -609.54837     36976.26 
  882700    298.58409   -1537.6125     543.0323    352.91383   -69.113259     36976.26 
  882800     291.9633   -1566.7881    532.53562    283.36226   -27.716806     36976.26 
  882900    294.19392   -1555.2378    520.91904    293.36268    17.027844     36976.26 
  883000    292.76847   -1555.0913    538.62664    304.78371   -408.01679     36976.26 
  883100    303.88194   -1516.5451     517.6302    372.48801     358.1764     36976.26 
  883200    298.69296   -1550.5362    517.11271    314.56179   -213.13476     36976.26 
  883300    310.54815   -1565.4697     525.8543    361.87174    387.67251     36976.26 
  883400    308.70278   -1568.5578    518.91615    343.51746    535.01095     36976.26 
  883500    292.93108   -1569.0333    494.21255    247.16151    9.3185654     36976.26 
  883600    310.25227   -1535.9204    548.34047    412.57194   -75.128717     36976.26 
  883700    304.78047   -1523.4994    490.48344    342.44191   -228.32558     36976.26 
  883800    299.81541   -1534.5852    517.90671     336.3724   -805.61057     36976.26 
  883900    310.40321   -1511.9547    535.60251    424.48085   -312.12061     36976.26 
  884000    303.05181   -1510.1696    526.24866    383.73565    513.01876     36976.26 
  884100     302.7463   -1514.6086      518.299    369.96829    224.62273     36976.26 
  884200    302.20685   -1513.5726    517.48679    367.75746   -293.55479     36976.26 
  884300     296.1387   -1518.8485    523.08278    340.69243     -827.244     36976.26 
  884400    303.53203   -1556.7796    516.11299    329.15717   -82.122273     36976.26 
  884500    297.37934    -1579.214     532.9271    295.77012   -531.97734     36976.26 
  884600     291.1304   -1621.2769    542.62495    235.20392    46.403131     36976.26 
  884700    291.03809    -1592.956    501.49691    221.98024    200.30267     36976.26 
  884800    300.81191   -1572.0608    526.16119    311.64838   -98.786723     36976.26 
  884900    299.97823    -1596.482    523.59507    280.89878   -639.17196     36976.26 
  885000    292.51638   -1557.6553    534.15559    296.61108   -279.54575     36976.26 
  885100     301.5455   -1584.3425    521.19761    297.71378   -442.57937     36976.26 
  885200    304.02061   -1549.0375     553.0525     376.0437   -121.66391     36976.26 
  885300    296.92261   -1507.8762     516.3474      348.467    286.83605     36976.26 
  885400    311.72649   -1533.3246    523.07989    396.56025    447.95281     36976.26 
  885500    293.64487   -1557.2122    517.58655    285.57792    237.05337     36976.26 
  885600    304.47727   -1586.1194    510.30653    298.27677    77.749907     36976.26 
  885700    311.11793   -1554.4779    533.42414    383.00476   -185.48832     36976.26 
  885800    302.60758   -1556.4818    510.21572     319.3857    32.828361     36976.26 
  885900    303.47655   -1584.2189    528.26319    313.61776   -153.53852     36976.26 
  886000    300.37983   -1600.0022    507.10916    262.70504    76.917708     36976.26 
  886100      294.124   -1588.0082    521.61588    260.97358   -427.24449     36976.26 
  886200     289.3754   -1584.1166    526.92034    248.73943    47.426309     36976.26 
  886300    309.10387   -1597.0669    518.72126    316.62353   -140.63338     36976.26 
  886400    298.30361   -1543.0588    522.33483    325.50422   -396.92058     36976.26 
  886500    309.22388   -1554.7144    520.50119    361.29761   -97.983386     36976.26 
  886600    295.83545   -1578.6852    514.61505    271.01939    483.87047     36976.26 
  886700    305.27958    -1570.443    547.10723    354.37459    365.87317     36976.26 
  886800    297.56071    -1559.939    544.39489    327.33138    463.32829     36976.26 
  886900    296.33029   -1539.4974    519.32782     317.1531    444.13246     36976.26 
  887000     296.4453   -1578.2539    541.62885    301.21669    289.92475     36976.26 
  887100    295.28425   -1551.2062    548.04447    329.44028     530.0926     36976.26 
  887200    304.34178   -1554.3766    525.96427    345.06582    477.29697     36976.26 
  887300    290.60928   -1579.0003     526.9863    259.49011    62.796355     36976.26 
  887400    300.15761   -1579.5545    524.46268    299.50336   -2.5541734     36976.26 
  887500    299.15819   -1560.0909    520.17994    310.17385    30.882842     36976.26 
  887600    295.96914   -1548.8183    503.01801    289.89259   -255.56447     36976.26 
  887700    297.24877   -1602.2326    526.54615    265.78135   -287.61565     36976.26 
  887800    298.61648   -1565.1232    524.72702    307.24402   -119.43613     36976.26 
  887900     299.1592    -1553.449     512.9574    309.59786   -310.37596     36976.26 
  888000    310.30128   -1574.8954    527.93685    353.41448     -134.792     36976.26 
  888100    298.21613   -1580.4629    485.61003    250.98059   -411.82927     36976.26 
  888200    302.61724   -1530.6231    537.53078    372.60307   -730.72101     36976.26 
  888300    291.32024    -1528.095    528.79942    315.41705   -856.76814     36976.26 
  888400    296.59524   -1517.3712    489.97763    311.12488   -356.87282     36976.26 
  888500    300.84983   -1544.4252    520.70413    333.99813   -515.72159     36976.26 
  888600    306.28065   -1520.4372    497.31367    359.10468     296.8623     36976.26 
  888700    303.41072   -1540.6476    529.11698    357.74572   -477.94865     36976.26 
  888800     294.8735   -1541.5305    502.53399    291.75177   -75.466837     36976.26 
  888900    308.47698   -1560.7524    520.68933    352.07705   -177.93138     36976.26 
  889000    289.43875   -1573.7256    514.81963    247.31567   -20.665903     36976.26 
  889100    296.10927   -1591.1019     515.4468    260.67022    418.26757     36976.26 
  889200    295.27706   -1574.3598    516.09492     274.3046   -310.17133     36976.26 
  889300    287.18261   -1567.2801    517.41039    246.17005   -89.107365     36976.26 
  889400    298.88272   -1570.6386    509.68578    287.88885    -624.6344     36976.26 
  889500    294.95321   -1565.2454    521.78674    287.64933   -202.67249     36976.26 
  889600    306.29814     -1584.78     510.4326    307.95969    176.29733     36976.26 
  889700     293.1252   -1563.0775    522.72392    282.50474    275.93116     36976.26 
  889800    298.76533    -1552.828    533.75657    329.24056     565.9042     36976.26 
  889900    297.89471   -1594.0789    477.42348    227.72743   -18.122965     36976.26 
  890000    301.28165   -1587.9654    515.29234    286.99489    8.3079156     36976.26 
  890100    303.99811   -1588.6876    518.65028    301.88986    267.63744     36976.26 
  890200    288.79467   -1553.5677    517.55358    267.30075    55.673552     36976.26 
  890300    314.85774   -1556.5865    540.84818    405.19778    514.78144     36976.26 
  890400    289.35708   -1584.0756     503.1589    224.93632   -393.05228     36976.26 
  890500    306.74554   -1520.2693    508.59843    372.65526   -216.40713     36976.26 
  890600    285.42374   -1523.5669    531.54557    296.08075   -590.86683     36976.26 
  890700    294.38951   -1552.5521    501.80752     277.8195   -566.30524     36976.26 
  890800      302.055   -1553.8807    501.90293    311.18027    -453.6723     36976.26 
  890900    299.82066   -1574.5485    520.31901    298.84507    115.51049     36976.26 
  891000    299.33156   -1559.3798    501.58472     293.0722   -412.65839     36976.26 
  891100    296.06782   -1538.6186    485.84494    283.36451    651.11677     36976.26 
  891200    290.91556   -1596.2059    510.21194    226.89243    235.99863     36976.26 
  891300    297.50665    -1551.704    491.63264    282.56018    538.19288     36976.26 
  891400    307.09767    -1553.094     494.8812    327.70248    -240.9757     36976.26 
  891500    304.58041   -1488.6808    505.72002    391.59422   -217.60178     36976.26 
  891600    292.70692   -1516.2967    530.43933    335.11324   -292.51855     36976.26 
  891700    294.52437   -1538.3017    501.94019    292.81114   -79.734498     36976.26 
  891800    298.38111   -1547.4909    515.04143     314.1285   -442.95088     36976.26 
  891900    308.59136   -1558.8886    516.14829    349.91596     -26.1058     36976.26 
  892000    295.36061   -1554.5941    527.23911    305.59166    -299.2716     36976.26 
  892100    305.45563   -1552.7221    499.72493    325.50771    352.46944     36976.26 
  892200     304.1967   -1565.6324    497.42999      304.621   -242.62239     36976.26 
  892300    298.55799   -1557.6546    531.19066    320.91232    50.278788     36976.26 
  892400    298.44912   -1553.0773    479.94679    273.75436   -152.22706     36976.26 
  892500    302.99235   -1575.6549     516.4448    308.17812   -304.34078     36976.26 
  892600    295.25522   -1571.4329    493.00374    254.04184   -86.036482     36976.26 
  892700    297.48542   -1517.1561    519.12374    344.50343   -199.30829     36976.26 
  892800    300.23996   -1549.1544    494.47315    300.28566     245.8872     36976.26 
  892900    309.33626   -1575.2597    516.06894    336.82723   -17.770468     36976.26 
  893000    304.63488   -1546.7711    504.04523    332.07501   -29.245788     36976.26 
  893100    309.73908   -1550.2684     517.7233    365.29078   -19.610165     36976.26 
  893200    296.25663   -1521.7959    504.03736    319.23175     22.74049     36976.26 
  893300    303.65402   -1578.5919    528.26352    320.04595    413.60755     36976.26 
  893400    301.49426   -1589.1497    502.53884    274.01659   -484.67377     36976.26 
  893500    296.12818    -1606.543     480.8955    210.76307     -545.052     36976.26 
  893600    301.82997    -1577.663    508.92651      293.406   -231.29608     36976.26 
  893700    299.53436   -1587.3142    509.05019    273.51845   -415.15776     36976.26 
  893800     291.5348    -1596.808    498.45916    217.33208   -163.71765     36976.26 
  893900    301.69712   -1609.7585    480.48752    232.27199    51.502908     36976.26 
  894000     303.3908   -1582.7189    487.03615    273.50368   -20.591829     36976.26 
  894100    310.18481   -1589.2281    496.18037    306.79966    382.54179     36976.26 
  894200     291.6025   -1559.7038    510.92203    267.20468    887.25085     36976.26 
  894300     302.9691   -1546.7813    531.87646    352.37848    890.74798     36976.26 
  894400    298.28848    -1577.486    502.04022    270.71416    248.20959     36976.26 
  894500    310.11863   -1543.8542    518.64911    374.34364    259.63155     36976.26 
  894600    285.48629   -1581.3668    507.76216    214.77975    149.63464     36976.26 
  894700    309.80724   -1556.5806    523.24577    364.80865   -106.16509     36976.26 
  894800    296.81752    -1529.628    489.97317    299.86674   -644.68188     36976.26 
  894900    303.84831    -1544.741    520.15826    346.66844   -131.25691     36976.26 
  895000    298.15482   -1551.8212    482.79226    276.52782   -454.16792     36976.26 
  895100    302.75093   -1585.2735    493.80433    274.82961    -436.4642     36976.26 
  895200    299.73875    -1533.604    525.25456    344.35551    94.031975     36976.26 
  895300    294.52018   -1562.6121    474.21511    240.75678    210.65226     36976.26 
  895400    298.40833   -1576.1244    510.57432    281.15071   -185.30322     36976.26 
  895500    299.73008   -1566.0871    497.81606    284.39474    341.88738     36976.26 
  895600    300.75449   -1536.4439    519.70898    340.55395   -403.62842     36976.26 
  895700    291.55255   -1522.3559    498.55725    291.96231   -3.3608969     36976.26 
  895800    304.49678   -1531.5188    504.65929     347.3181   -433.41434     36976.26 
  895900    306.85675   -1506.5419    509.33834    387.62449    220.64473     36976.26 
  896000    307.78772   -1531.3466    511.73032     369.4132    108.23034     36976.26 
  896100    304.15117   -1528.1432    514.38102    358.85577    490.27633     36976.26 
  896200    296.97125   -1494.6278    493.15134    338.73885    205.03411     36976.26 
  896300    308.22912   -1550.7349    511.83514    352.12175    185.52614     36976.26 
  896400    303.94958   -1549.2242    505.79176    328.27579    133.76812     36976.26 
  896500    296.64274   -1548.1987    515.36593        305.9    5.0851176     36976.26 
  896600    300.38303   -1595.4756    497.46082    257.59773    204.54638     36976.26 
  896700     303.4724   -1586.9971    494.87825    277.43584    327.43572     36976.26 
  896800    299.84695   -1613.9292    491.54728    230.81135    591.65462     36976.26 
  896900    297.66415   -1597.2877    512.43806    258.49267    514.34777     36976.26 
  897000    296.53448   -1602.5472    496.34767    232.04465    241.27234     36976.26 
  897100    300.33659   -1559.4544    499.70814    295.65673    248.69854     36976.26 
  897200    308.41037    -1562.541    531.20543    360.50392   -306.74928     36976.26 
  897300    292.72993   -1561.3244    511.19175    270.94187    73.819216     36976.26 
  897400    293.66017    -1569.714    506.08711    261.64573    321.77302     36976.26 
  897500    304.82894   -1523.4555    539.37984    391.60106    653.75534     36976.26 
  897600     297.2555   -1564.0121     511.7733    289.25932    37.471143     36976.26 
  897700    304.82483    -1585.743    515.37894    305.29412    462.79166     36976.26 
  897800    306.47136   -1563.6904    496.63474    316.03314   -27.623246     36976.26 
  897900    296.47587   -1581.3699    506.97649    263.58627    428.93163     36976.26 
  898000    305.71952   -1558.2166    514.04023     335.5195    316.45291     36976.26 
  898100    296.79973   -1573.3807    515.94357    282.00415    787.14963     36976.26 
  898200     298.6568   -1561.7603    508.57397    294.63582    1085.1488     36976.26 
  898300    311.23122   -1563.7708    536.12044     376.9195    1032.5176     36976.26 
  898400    300.78936   -1569.4371    491.39576    279.40486    841.74847     36976.26 
  898500    282.20936   -1565.2712     520.4108    228.73532    42.110128     36976.26 
  898600    293.89601   -1574.0417    518.87303    271.16827    419.20162     36976.26 
  898700    295.15356   -1590.5663    532.69558    274.14149    422.88578     36976.26 
  898800    288.40416   -1562.1297    512.87673    252.29953    406.69014     36976.26 
  898900    327.14435   -1560.8159    494.66784     410.2369     191.7631     36976.26 
  899000    303.41165   -1516.2549    502.15973    355.18533    277.62581     36976.26 
  899100    306.47374   -1543.3452     516.7867    356.54103    312.95802     36976.26 
  899200    303.39837   -1595.7909     497.7433      271.173    639.25501     36976.26 
  899300    296.59226   -1581.5763    509.96489    266.89352    208.13156     36976.26 
  899400    302.58264   -1521.3742    517.29963    361.46464    409.14196     36976.26 
  899500    303.60185   -1549.1769    503.00956    323.97155   -171.17793     36976.26 
  899600    302.57377   -1525.6945    519.96097    359.76568   -219.39491     36976.26 
  899700    299.25694   -1570.2349    524.82982    305.12543   -128.83055     36976.26 
  899800    306.35461   -1531.8667    506.46212    357.15742   -185.58584     36976.26 
  899900    291.65833   -1525.7876    500.36848    290.81926   -456.81842     36976.26 
  900000    293.05101   -1545.7679    532.22002    308.97564   -854.13797     36976.26 
  900100    299.93283   -1538.6889    502.59793    317.48977   -607.08493     36976.26 
  900200    297.22559    -1542.097     508.4781    307.74423    -752.5944     36976.26 
  900300    306.02046   -1554.0958    518.98409    345.94222   -402.16335     36976.26 
  900400    290.79474   -1545.4478    503.45549    270.34877   -176.88327     36976.26 
  900500    289.91841   -1531.1672    492.36354    269.58258   -497.62528     36976.26 
  900600    304.28986    -1524.554    515.72002    364.40985   -566.02411     36976.26 
  900700    305.12502   -1539.8218     492.2985    329.48958   -148.04576     36976.26 
  900800    293.11239   -1535.0683    515.83918    303.57141    -633.7029     36976.26 
  900900    299.04363   -1577.5002    527.33549    299.40313   -759.29002     36976.26 
  901000    297.82494   -1512.7875    515.93087    347.21133   -383.93208     36976.26 
  901100    305.36476   -1526.1997     518.8022    370.69726    121.26397     36976.26 
  901200    304.39867   -1562.4636    513.87297    325.14428    8.4538805     36976.26 
  901300    292.18509   -1498.4394    508.29828    328.47455   -690.33827     36976.26 
  901400    295.82541   -1526.3873    524.69477    333.35172    -346.3877     36976.26 
  901500    303.89354   -1542.5587    524.67558    353.57213   -373.11761     36976.26 
  901600    305.02087   -1537.0389    506.43743    345.94136   -748.87444     36976.26 
  901700    307.48806   -1544.7256    515.42395    358.37549   -391.75038     36976.26 
  901800    303.13483   -1514.4287    516.33051    369.93308   -312.69301     36976.26 
  901900    301.26125   -1534.5635    547.83525    372.84766   -975.18741     36976.26 
  902000    302.40277   -1533.3874    528.35227    359.69241   -564.55616     36976.26 
  902100    303.73465   -1530.0037    515.90046     356.6349   -62.176973     36976.26 
  902200    294.75899   -1587.5687    522.31906    264.98189    119.30727     36976.26 
  902300    298.05826    -1550.321    519.95035    314.75029    16.726213     36976.26 
  902400    300.73155   -1550.0962    509.12453     316.2137   -287.67253     36976.26 
  902500    298.78865   -1551.8584     507.4611    304.01981   -699.99007     36976.26 
  902600    298.61068   -1517.1355    541.65938     372.1379   -194.51957     36976.26 
  902700    296.46543   -1483.3865    514.32363    368.86968   -192.20216     36976.26 
  902800    301.23621    -1537.215    520.47239    342.72021   -536.90991     36976.26 
  902900    291.20696   -1524.2512     537.2248    327.17496   -326.33946     36976.26 
  903000    291.70589   -1599.7534      485.115    201.81462   -460.76171     36976.26 
  903100    321.93771   -1555.2129    519.92976     417.6045   -619.11457     36976.26 
  903200    306.69265   -1494.5208    497.55903    387.12575    9.6491405     36976.26 
  903300    291.35462   -1484.5495    529.61622     359.9345   -345.13056     36976.26 
  903400    289.40647    -1483.509    512.73612    335.30304   -163.73191     36976.26 
  903500    299.98125   -1545.4501    546.64872    354.99796   -958.61454     36976.26 
  903600    302.89216   -1524.3285    506.63234    349.23997    6.9372721     36976.26 
  903700    304.22428   -1501.9911    530.89703    401.85381   -602.34088     36976.26 
  903800    295.73491   -1531.8214    538.96294    341.77735   -205.25635     36976.26 
  903900    290.75791   -1537.0968    513.86055    288.93862    62.027693     36976.26 
  904000    297.84798   -1530.0897    525.44314    339.52542   -135.01156     36976.26 
  904100    313.45714    -1529.713    518.60992    403.51221   -485.08749     36976.26 
  904200    289.08881   -1548.1491    507.50141    263.99463     -60.8888     36976.26 
  904300      311.695   -1553.6881    512.82971    365.80439   -27.716568     36976.26 
  904400    306.46034   -1568.3296    493.15531    307.86483   -521.05546     36976.26 
  904500    292.76716   -1552.0636    540.43271    309.61162   -341.30764     36976.26 
  904600    303.50451   -1594.4156    494.66851    269.95246   -59.019731     36976.26 
  904700    307.99073   -1593.7759     510.9821    307.15184    680.14392     36976.26 
  904800    297.73178   -1556.1553    487.78527    275.27747    304.89638     36976.26 
  904900    302.15831   -1555.7805    524.69496    332.53876    513.44225     36976.26 
  905000     290.8107   -1542.8423    494.03058    263.60143    386.88073     36976.26 
  905100    299.36886   -1546.7442    544.94711    349.23852    -80.25979     36976.26 
  905200    298.34908    -1565.535    522.87265    303.77105   -320.35959     36976.26 
  905300    299.64916   -1584.1804    501.80581    269.92602    378.95404     36976.26 
  905400     302.7185   -1569.3276    526.58608    323.41085    47.141387     36976.26 
  905500    312.76464   -1596.6053     487.1211    302.00586    384.06304     36976.26 
  905600    291.06263   -1587.8605    512.70992    238.39953   -41.010175     36976.26 
  905700    297.80331   -1576.5511    517.36092     284.7802   -75.588408     36976.26 
  905800    305.84076   -1613.9249    512.72563    279.04372   -179.33876     36976.26 
  905900    295.99329   -1595.4566    494.66609    235.01133    48.825929     36976.26 
  906000    302.11821   -1574.0771    525.45109     314.8173    137.82984     36976.26 
  906100    295.59409   -1577.4489    502.31357    258.86498   -262.98962     36976.26 
  906200    299.30517   -1575.0199    505.54005    281.26834   -234.07209     36976.26 
  906300    294.01679    -1619.072    501.37789    209.18793   -11.951647     36976.26 
  906400    305.38302   -1598.2865    512.76725    292.65796    351.38177     36976.26 
  906500    298.62577   -1586.8302    497.91014    258.76208   -17.017419     36976.26 
  906600    297.25941   -1593.1285    525.62978    274.01705    664.86583     36976.26 
  906700    287.86039    -1568.878    499.57336    229.79389    180.98717     36976.26 
  906800    307.84713   -1587.3564    514.79723    316.73848   -25.535812     36976.26 
  906900    302.64357   -1555.5782    516.56323    326.79922    389.77422     36976.26 
  907000     305.4461   -1589.5352    519.74061    308.66729    66.254523     36976.26 
  907100    300.73848   -1643.6767     485.1471    198.68707   -184.49183     36976.26 
  907200    297.47394   -1651.2626    510.98795    202.20933   -351.03556     36976.26 
  907300    305.21017   -1610.4109    516.17535    283.16162    66.083912     36976.26 
  907400     294.7279   -1589.2072    495.40805     236.2921   -292.01094     36976.26 
  907500    292.68796   -1613.8233    525.50008     232.5618     10.98713     36976.26 
  907600    293.76347   -1610.5552     499.9504    215.13397   -360.10539     36976.26 
  907700    303.23948   -1642.2373    496.14666    222.41296    568.37178     36976.26 
  907800    317.23505   -1576.1797    536.80385    392.28891    290.08881     36976.26 
  907900    293.72286   -1597.3725    497.41126    225.59428    292.83681     36976.26 
  908000    294.95821   -1593.5823     512.6671    250.21543   -789.46434     36976.26 
  908100    298.38673   -1629.7369    499.39201    216.25844   -472.60178     36976.26 
  908200    307.10321   -1542.2651    519.78538     363.4606   -491.86336     36976.26 
  908300    300.07889   -1587.4398    526.12804    292.92824   -618.99339     36976.26 
  908400    300.29271   -1658.6099    486.48036    183.07534   -82.179979     36976.26 
  908500    300.03114   -1591.3643    508.01525    270.67542   -18.959301     36976.26 
  908600    300.60945   -1622.6325    502.13836    236.14014   -179.08106     36976.26 
  908700    291.45301   -1636.5847    494.31993    173.04698    21.114661     36976.26 
  908800    300.95786   -1588.9245    509.72715    279.00936   -196.40734     36976.26 
  908900    293.99059   -1615.9665    496.74507    207.54238   -398.95608     36976.26 
  909000     295.3875   -1627.7802    496.40643    201.69422   -272.83345     36976.26 
  909100    285.32733   -1607.9296    526.60608    206.34346   -208.15048     36976.26 
  909200     304.4966   -1603.4115     482.0554    252.82072   -176.61258     36976.26 
  909300    294.80384   -1590.4682    501.35364    241.31935    337.14645     36976.26 
  909400    307.76448   -1586.4955    532.87641     335.3055    925.85523     36976.26 
  909500    299.61534    -1547.575    502.74989    307.32285    552.05696     36976.26 
  909600    308.05285   -1569.5213    508.68825     329.3929   -296.46293     36976.26 
  909700    299.68577   -1578.5669    485.89968     259.7986     15.84879     36976.26 
  909800    293.85489   -1550.6688    495.04138    270.52393   -295.82741     36976.26 
  909900    287.33631   -1571.3839    505.20891    230.55835   -192.47276     36976.26 
  910000    299.80853    -1560.911    510.07395    302.18275   -8.7884371     36976.26 
  910100    292.13481   -1595.3198    519.20982    242.27878    169.26095     36976.26 
  910200    302.29188   -1583.4468    508.19933    288.97959   -14.465155     36976.26 
  910300    302.17881   -1591.1315    499.49374      272.079    206.96477     36976.26 
  910400    305.17112   -1606.6349    516.26901    286.85499    493.06928     36976.26 
  910500    294.95833     -1591.83    544.93782    284.23891    455.43004     36976.26 
  910600    300.14794   -1542.0164    501.73126    314.26647    536.77753     36976.26 
  910700    297.24523    -1548.268    511.68237    304.86619   0.39560438     36976.26 
  910800    294.01802   -1543.5768    500.64748    283.95829    -17.52698     36976.26 
  910900    296.35827   -1551.8131    500.30356    285.93947   -731.60358     36976.26 
  911000    292.91812   -1537.8153    511.96452    296.07301   -414.03415     36976.26 
  911100    307.06358   -1536.8327    501.19722    350.12602    50.790835     36976.26 
  911200    304.53701   -1564.2092    507.38313    317.53309     41.02404     36976.26 
  911300    288.53926   -1539.5653     492.8055    255.40242    165.06685     36976.26 
  911400    299.66798   -1539.3781    509.81328    322.82065    123.25918     36976.26 
  911500    308.22939   -1537.8891    496.70816    349.84182   -168.47359     36976.26 
  911600    293.79679    -1541.625    511.97459    296.23882   -76.253094     36976.26 
  911700    287.30602    -1513.528    496.11762    279.18632    -218.2072     36976.26 
  911800    294.63607   -1565.0437    487.91855    252.55167    -62.88354     36976.26 
  911900    303.32949   -1540.6774    529.97482    358.20713    211.40657     36976.26 
  912000    296.34136   -1535.8117    490.93754     292.4985    222.75633     36976.26 
  912100    293.53656   -1548.4091     547.5249    323.83064    541.33826     36976.26 
  912200    297.38421   -1534.5247    512.07495    319.62927    595.06877     36976.26 
  912300    303.72275   -1501.5932      498.951    368.04226     331.6304     36976.26 
  912400    297.70172   -1523.0896    495.98683    316.40912    32.565902     36976.26 
  912500    296.33931   -1526.6051    507.76687    318.52519    105.84121     36976.26 
  912600    291.23752   -1466.3677    488.38907    336.36072   -142.43326     36976.26 
  912700    297.56322   -1501.9781    512.87825      353.787    111.75742     36976.26 
  912800    306.71834   -1499.4368    527.50257    412.26918   -312.66663     36976.26 
  912900    302.08079   -1500.8345    494.71954    357.15944    389.63896     36976.26 
  913000    305.03586   -1481.2913    520.23232    415.55146   -391.16208     36976.26 
  913100    298.34465   -1476.4892    516.89957    386.82373    59.135259     36976.26 
  913200    298.54027   -1459.7229    530.11045     417.6838   -666.92258     36976.26 
  913300    302.65969   -1477.7352    528.80333    416.95513    -366.8128     36976.26 
  913400    297.69947   -1509.5639    497.58978    331.52768   -671.28058     36976.26 
  913500    296.72691   -1533.1948    512.42793    318.34575   -494.09147     36976.26 
  913600    301.07169   -1534.3083     508.4048    332.81688    214.35484     36976.26 
  913700    312.34425   -1530.0936    500.61507    380.11432    143.79571     36976.26 
  913800    290.67786   -1499.4235    511.28278    323.67292    -395.7707     36976.26 
  913900     288.8538   -1539.0594     508.7668    273.28915    2.4375759     36976.26 
  914000    303.92615   -1560.4188    515.29716    326.48078    347.12753     36976.26 
  914100    293.69963   -1560.5279    515.74029    280.66304    608.03111     36976.26 
  914200    300.49437    -1506.742    520.90444    370.27746    655.79066     36976.26 
  914300    297.14462   -1523.3838    500.51351    318.12749    395.32062     36976.26 
  914400    297.79477   -1560.8197    515.22393    298.33607    695.59985     36976.26 
  914500    304.42573   -1553.7392    512.18098    332.29877    629.99584     36976.26 
  914600    291.07997    -1515.723    493.42525    291.33059    168.53979     36976.26 
  914700    297.00262    -1511.881    495.71608    324.19198   -143.29394     36976.26 
  914800    312.56319   -1558.4311    493.77986    345.92969    189.40694     36976.26 
  914900    307.23916   -1504.7611    517.78527    399.57802    168.89137     36976.26 
  915000    298.66741   -1513.1104    530.39619    365.15579   -286.45447     36976.26 
  915100    292.82965   -1560.1352    486.69001    248.07932   -26.977909     36976.26 
  915200    307.40633   -1555.2022    515.18616    347.29227    38.102967     36976.26 
  915300    292.88349   -1523.7458    495.51637    293.53808    -100.8644     36976.26 
  915400    308.15077   -1495.7833    503.47262     398.3572   -297.88106     36976.26 
  915500    302.85802   -1516.9553    484.63117    334.45792   -1210.3055     36976.26 
  915600    307.29256   -1513.2882    510.18144    383.68812   -490.45518     36976.26 
  915700    297.92587   -1504.2951    514.12303     354.3514   -491.71096     36976.26 
  915800    302.74194   -1484.6014    481.63127    363.28797   -265.36871     36976.26 
  915900    304.02487   -1507.3758    517.01079    381.68299   -728.35534     36976.26 
  916000    289.29837    -1525.196    463.25521    243.64721   -440.85193     36976.26 
  916100    298.95388   -1505.9187      524.197    367.44115   -327.85611     36976.26 
  916200    294.20298   -1516.2828    529.22278    340.66225   -470.58478     36976.26 
  916300    293.81486   -1491.6187    513.50577    347.85773   -99.978739     36976.26 
  916400    297.12093   -1516.7394    484.66985     308.8213   -476.76876     36976.26 
  916500     299.2036   -1513.4505    497.57567    334.41502    65.089453     36976.26 
  916600    306.18736   -1531.7687     538.9101    388.94852   -21.176993     36976.26 
  916700    310.58595   -1461.0023    515.95984    456.61529    329.25272     36976.26 
  916800    294.23068   -1457.3693     530.9632    401.44113   -302.55984     36976.26 
  916900    288.30553   -1493.5322    545.46772     353.0429   -419.92951     36976.26 
  917000     290.0561   -1454.9337    520.81625    374.89022   -558.95643     36976.26 
  917100    297.94106    -1461.586    509.86033    392.86633   -331.14578     36976.26 
  917200    304.79577   -1453.3678    530.05391    452.21305   -303.06597     36976.26 
  917300    293.09394   -1532.0013    477.28923    268.00518    -275.6539     36976.26 
  917400    304.21741   -1508.0895    545.80024    410.62759   -119.37424     36976.26 
  917500    301.70211   -1560.2154    525.18857    326.53861   -70.604423     36976.26 
  917600    308.16003   -1564.7507    492.98148    318.94048    157.04751     36976.26 
  917700     309.8914   -1537.5883    532.88979    393.82478   -113.96938     36976.26 
  917800    308.64455    -1531.102    480.93706    342.73144    29.086395     36976.26 
  917900    297.26788   -1546.5292    505.34758    300.37241   -226.00075     36976.26 
  918000     303.3709   -1547.2495    525.45906     347.3062    -508.8001     36976.26 
  918100    292.95283   -1518.1861    498.97891    302.87319   -349.42999     36976.26 
  918200    296.88083   -1548.9894    518.73495    309.55283    -111.2468     36976.26 
  918300    312.29912   -1549.5876    514.50779    374.30937   -142.69685     36976.26 
  918400    297.46127    -1538.545     516.6532    320.53499   -366.23741     36976.26 
  918500    307.52477   -1509.9476    529.92196    407.81715     329.7636     36976.26 
  918600    299.99944   -1539.3332    499.39071    313.93888   -280.05923     36976.26 
  918700    298.07448   -1552.7683    537.05813    329.48404    385.95891     36976.26 
  918800    294.60352      -1547.7    508.13429    289.96418    63.577951     36976.26 
  918900    303.96448   -1537.1768    486.16553    320.76417   -703.84357     36976.26 
  919000    299.45115    -1516.082    515.30456    350.62956   -473.84172     36976.26 
  919100     302.4607   -1554.5833    475.94605    286.35173   -460.62132     36976.26 
  919200    310.62132   -1526.3553    500.60022    376.06234   -154.69762     36976.26 
  919300    288.21835    -1553.218    524.48188    271.97788   -6.2537316     36976.26 
  919400    291.32381   -1575.7336    492.72303    231.71815    54.309841     36976.26 
  919500    295.80472   -1581.6714    498.00055    251.28004    87.386549     36976.26 
  919600    299.84542   -1610.1657    520.61761    263.63822   -222.79235     36976.26 
  919700    307.03759   -1559.0144    494.12279     320.7526    168.52125     36976.26 
  919800    302.68198   -1528.1073    505.83427    343.71454    242.75857     36976.26 
  919900    310.35817   -1523.1756    513.77679    391.23097    568.58976     36976.26 
  920000    291.85425   -1520.4111    507.25654    303.96802    225.82251     36976.26 
  920100    291.85821   -1534.2478    518.04879    300.94148    500.30212     36976.26 
  920200    291.73955    -1508.405    493.33291    301.53283    238.86176     36976.26 
  920300    306.41873   -1492.2923    516.54433    407.10339   -209.09872     36976.26 
  920400    296.44872   -1459.6848    520.75037    398.92275    36.357788     36976.26 
  920500    305.98935   -1472.6994    521.32958    429.54371    303.11121     36976.26 
  920600    308.00524    -1505.304    502.96046    387.66755     481.6778     36976.26 
  920700    306.32862    -1483.532    517.25937      416.172    746.13345     36976.26 
  920800    300.32096   -1491.1745    514.01941    378.17728    48.077062     36976.26 
  920900    302.84242   -1484.3784    506.49305    388.82629    651.79283     36976.26 
  921000    304.79493   -1546.6264    510.15071    339.04748    306.63887     36976.26 
  921100    304.84102   -1532.1792    509.22214    352.77413    754.66638     36976.26 
  921200    299.38305   -1537.1532    490.49326    304.43968   -301.12445     36976.26 
  921300    295.34719   -1498.1429    517.53467    352.27781    288.26137     36976.26 
  921400    301.33087   -1556.2719    514.27824    317.89638    281.98731     36976.26 
  921500    305.58903   -1520.1343    521.27071    380.24331   -424.21738     36976.26 
  921600    294.10781   -1544.6588    526.34123    308.97522   -101.89226     36976.26 
  921700    305.45539    -1527.464    503.00511    354.04489    282.96528     36976.26 
  921800     302.2296   -1504.3465    494.92869     354.5282   -114.23868     36976.26 
  921900    296.80413   -1570.4255    474.50133    243.53693   -412.28304     36976.26 
  922000    305.54594   -1557.1374    513.78481     335.5599   -564.24454     36976.26 
  922100    304.30024   -1520.3591    507.39282    360.32441   -214.89413     36976.26 
  922200    302.91757   -1541.7456     509.8637    335.16888   -500.98843     36976.26 
  922300    309.53105   -1526.1941    496.92019    367.62315   -307.41658     36976.26 
  922400    309.21912   -1511.5343    529.95104    413.90607   -134.62055     36976.26 
  922500    305.42177   -1479.4297    523.28964    422.21201   -545.95463     36976.26 
  922600    306.91939    -1492.362     504.9764    397.72516   -352.02578     36976.26 
  922700    289.33135    -1490.035    515.03998    330.74184   -121.08549     36976.26 
  922800    298.30005   -1467.6101    534.08635    412.68836   -341.43235     36976.26 
  922900    297.33229   -1501.3642    499.61399    340.09446   -79.678147     36976.26 
  923000     303.0885   -1519.5292    504.43177     352.7247   -773.58963     36976.26 
  923100    294.51222   -1521.8056    504.31208    311.62432   -380.29905     36976.26 
  923200    300.53197   -1521.9164    507.78513    342.15333    -155.4441     36976.26 
  923300    296.33915   -1483.8175    542.18916    395.73437   -1.5096114     36976.26 
  923400    305.96545   -1484.8166    527.54039    423.52944   -124.22702     36976.26 
  923500    290.22747   -1486.4929    536.58986    359.87801    -55.06066     36976.26 
  923600    296.99379   -1516.3967     551.3681    375.28845      464.507     36976.26 
  923700    296.14177   -1585.0108    486.15506    237.61622   -2.0202801     36976.26 
  923800     305.2521   -1491.3204    529.85627    416.12226    -134.9468     36976.26 
  923900    307.12304   -1518.8598    498.60007    365.77009    -253.2556     36976.26 
  924000    290.52282   -1493.4531     529.1652      346.826    -237.7359     36976.26 
  924100     291.0692   -1489.8247    522.58477    346.33976    -449.5587     36976.26 
  924200    307.57526   -1496.1541    541.14322    433.05977      -513.99     36976.26 
  924300    303.53708   -1517.0622     505.3483    358.13263    598.48035     36976.26 
  924400    305.55571   -1512.3131    509.13318     375.7766    477.14142     36976.26 
  924500    293.48326   -1511.9809    499.78108    312.27438    478.56705     36976.26 
  924600    301.27357    -1531.831    498.23312    326.03364    102.21548     36976.26 
  924700    305.60476   -1550.5404    487.73824    316.37575   -172.46658     36976.26 
  924800    299.39147   -1561.9687     504.6192    293.78816    45.678337     36976.26 
  924900    296.38647   -1523.6926    511.65037    325.53404   -673.16204     36976.26 
  925000    294.06367   -1534.2476    503.95668    296.80269   -477.72341     36976.26 
  925100    290.08123   -1537.5347     520.7494    292.33572   -385.94262     36976.26 
  925200    300.39474   -1578.1371    490.88529    268.41358     24.19065     36976.26 
  925300    312.15857   -1544.0781    476.60321    341.28002     428.0951     36976.26 
  925400    296.15168   -1553.4608    499.02944    282.08526   -41.570882     36976.26 
  925500    298.57204    -1575.399    482.56928    254.60992    411.19284     36976.26 
  925600    297.70241   -1570.6959    489.07304    261.89212    727.70258     36976.26 
  925700    304.76413   -1544.9327    517.05475    347.50623    69.432295     36976.26 
  925800    298.52686   -1571.3765    496.80041    272.65962    403.90701     36976.26 
  925900    293.40501   -1546.1439      487.567    265.54421    236.20407     36976.26 
  926000    295.60629   -1598.7264    508.37768    243.70665    211.80545     36976.26 
  926100    302.04196   -1620.3763    515.56393    258.28683    153.59343     36976.26 
  926200    289.25585    -1599.586    493.02406    198.83418    349.02889     36976.26 
  926300    303.28131   -1586.3261    484.40953    266.77572    37.169054     36976.26 
  926400    301.33184   -1569.0049     510.5299     301.4194    715.84795     36976.26 
  926500    307.99609    -1603.356    482.34526    268.95907     496.3387     36976.26 
  926600    297.93082   -1558.6374    506.80968    292.71813   -67.613288     36976.26 
  926700    302.46966    -1575.085    464.51855    254.46297   -287.81204     36976.26 
  926800    291.84445   -1561.4567     490.2282    245.84984   -605.09729     36976.26 
  926900    305.25531   -1572.1279    487.53657    293.00957   -319.36473     36976.26 
  927000    295.45483   -1556.3275     516.2494    293.29366   -110.44387     36976.26 
  927100     308.1339   -1555.0022    488.97872    324.56825     368.4266     36976.26 
  927200    291.85587   -1541.8441    501.15774    276.44356    62.867672     36976.26 
  927300    302.11253    -1558.561    482.98325    287.83996    985.12952     36976.26 
  927400     306.5435   -1574.8983    496.19328     304.7094    186.53465     36976.26 
  927500    304.68128   -1559.0835    488.73501    304.66182    478.22324     36976.26 
  927600    293.93895   -1557.9686    491.95845    260.52058   -228.25057     36976.26 
  927700    299.42439   -1556.3942    487.91625    282.80828    229.72848     36976.26 
  927800    301.74268   -1543.3449    530.23292    348.63653    458.18031     36976.26 
  927900    311.10876   -1574.0944     482.8214    312.74416    541.43653     36976.26 
  928000    307.25668   -1502.0412    481.77758    366.36929    1018.0564     36976.26 
  928100     291.0607   -1542.1023    506.77361    278.21262     589.2328     36976.26 
  928200    300.86601   -1547.9575    504.72035    314.55508     769.0439     36976.26 
  928300    311.00845   -1596.0536    485.96708    293.47792    444.62569     36976.26 
  928400    301.41937   -1541.5067    506.26287    325.04559      379.524     36976.26 
  928500    293.23842   -1567.9558    491.02794     246.4414    563.31805     36976.26 
  928600    314.19532   -1549.9375    514.53622    382.54533    540.61873     36976.26 
  928700    290.05564   -1540.1263     500.3028    269.18205    176.72004     36976.26 
  928800    308.43318   -1549.3448    505.49991    348.09758    211.04995     36976.26 
  928900    305.11129   -1570.6463    512.69935    319.00399    837.77699     36976.26 
  929000    299.61021   -1561.9765    496.21788    286.36619    411.38923     36976.26 
  929100    308.59626   -1567.6481    522.53679    347.56713   -306.02872     36976.26 
  929200    295.83072   -1529.4518    485.14832     290.7647    24.758238     36976.26 
  929300    297.67107   -1503.3298    519.17292     359.2167   -860.66518     36976.26 
  929400     306.2668   -1537.8056    502.26205    346.62212   -612.23966     36976.26 
  929500    304.88564   -1562.7323    497.79977    310.99998    302.90399     36976.26 
  929600    300.19397   -1557.7227    506.49237    303.52899   -55.332211     36976.26 
  929700    289.75988   -1512.4521     516.2752    311.49385    -182.1773     36976.26 
  929800    290.45563    -1524.941    524.71212    310.58185   -772.10263     36976.26 
  929900    297.33372   -1545.8008    495.32814    291.37848   -935.63541     36976.26 
  930000    290.37452   -1527.9825    514.66117    297.12333   -1259.4927     36976.26 
  930100    306.63348    -1506.539    491.24911    368.53062   -816.68004     36976.26 
  930200    299.03218   -1533.5016    505.17671    321.19135   -496.78063     36976.26 
  930300    309.34295   -1557.7132    506.11219    344.44718   -51.940766     36976.26 
  930400    297.24579   -1537.0639    497.26841    301.65882    674.56227     36976.26 
  930500     297.9496   -1540.5436    507.37787    311.46483     86.39312     36976.26 
  930600    300.17686   -1589.3976    502.63823    267.92274    106.34112     36976.26 
  930700     295.1845   -1615.9273    500.75257    216.97705    16.636044     36976.26 
  930800    305.78361   -1581.8739     502.7025    300.81368   -276.28198     36976.26 
  930900    292.18355   -1551.9738    479.57263    246.20754    310.24839     36976.26 
  931000    296.05753   -1582.3324    492.52082    246.28023    120.07953     36976.26 
  931100    304.47239    -1542.744    511.16456    342.48811   -269.14154     36976.26 
  931200    299.86391    -1555.362    503.26379    301.17156   -306.53932     36976.26 
  931300    297.82214   -1557.2421    479.73226    266.54552   -185.30313     36976.26 
  931400     295.0729   -1553.1981    503.21076     281.6609   -431.80971     36976.26 
  931500    287.76253   -1542.8406    501.27081    257.08706     5.231995     36976.26 
  931600    298.57378   -1552.0535    504.11146    299.50544    23.122836     36976.26 
  931700    297.62501   -1549.4283    473.38552    267.12295    317.69488     36976.26 
  931800    303.16709   -1563.5676    503.37749    307.98677    160.55507     36976.26 
  931900    290.43078    -1575.001    505.60851    241.30603    -230.2632     36976.26 
  932000    309.38562   -1528.3911    523.63694    391.48659    53.933676     36976.26 
  932100    302.76477   -1559.1496    492.47872    299.69033   -140.26839     36976.26 
  932200    318.30361   -1520.6804    532.21453    448.02125    478.36076     36976.26 
  932300    309.95801   -1528.8917    500.64136    370.57357    -234.9745     36976.26 
  932400    298.33133   -1515.7131    511.66762    342.30787   -230.69713     36976.26 
  932500    287.29696   -1544.8411    513.66676    265.38142    134.05158     36976.26 
  932600     300.7548   -1540.4386     495.8562    312.70795   -352.30452     36976.26 
  932700    300.31937   -1546.9247    489.67723     298.0778   -55.507646     36976.26 
  932800     304.3303   -1545.4823    513.30624    341.25025   -301.78789     36976.26 
  932900    293.04398   -1512.9228    520.96408    330.53303   -528.06038     36976.26 
  933000    300.77985   -1487.3497     497.3173      367.371   -152.20682     36976.26 
  933100    300.07789   -1525.8651    496.78637    325.15671   -487.02279     36976.26 
  933200    300.52559   -1495.8212    519.40085    379.83556   -335.67047     36976.26 
  933300    315.36099   -1503.8725    526.00675    445.34154    88.000608     36976.26 
  933400    302.12063    -1522.112     497.8923    339.23453   -705.28572     36976.26 
  933500    299.11722    -1520.073    510.91823    340.74518   -585.62745     36976.26 
  933600    293.36081   -1534.8066    510.32537    299.44041   -672.25146     36976.26 
  933700    303.96764   -1498.8274    502.54838    375.51065   -186.44019     36976.26 
  933800    306.80674   -1543.4647    528.01131    369.14896   -407.86318     36976.26 
  933900    305.19265   -1543.9326    474.70315    308.08858    -155.8454     36976.26 
  934000    289.46932   -1566.0674    515.64877    255.94094   -793.76907     36976.26 
  934100    296.39964   -1560.0361    523.71727    301.31684   -140.92751     36976.26 
  934200    300.46786   -1550.8965    513.09581    318.19463    226.34626     36976.26 
  934300     300.1832   -1530.6393    523.59634    347.66777    551.70187     36976.26 
  934400    295.23608   -1535.8996    504.29975    300.78475    21.185702     36976.26 
  934500    289.66997   -1491.0272    513.45704    329.69493     50.19348     36976.26 
  934600    297.62058   -1520.3761    503.47864    326.24828    506.64972     36976.26 
  934700    296.93937   -1556.8615    493.89851    277.10847    808.66772     36976.26 
  934800    301.55018   -1537.9311    510.90387    333.85262    1048.0785     36976.26 
  934900     300.4017    -1496.733    536.69673    395.66053    519.60416     36976.26 
  935000    305.93845   -1543.6464    531.69733    368.73475   -211.52894     36976.26 
  935100    290.61381   -1531.1754    512.50953    292.85863    372.92874     36976.26 
  935200    296.68272    -1501.773     508.9741    346.11432    16.000206     36976.26 
  935300    305.35166   -1549.1876    525.66549    354.51357   -189.21448     36976.26 
  935400    293.81697   -1539.2209    510.60879    297.36811    -604.0277     36976.26 
  935500     296.3571   -1555.3964    487.26388    269.31117    -414.6139     36976.26 
  935600    302.21224   -1503.9308    523.66439     383.6012   -776.26101     36976.26 
  935700    295.45064   -1467.4974    515.10941     380.9649   -667.87185     36976.26 
  935800    296.02321    -1503.436    499.03437    331.53524   -179.05685     36976.26 
  935900    305.78077   -1484.2702    517.95152    413.65354   -717.07669     36976.26 
  936000    297.28843   -1465.5649    527.98009    404.06189   -658.60191     36976.26 
  936100    299.49747     -1492.84      490.327      349.103   -265.49411     36976.26 
  936200    302.04679   -1505.8918    533.22625    390.45545   -652.92904     36976.26 
  936300    306.64248    -1505.712    484.93335     363.0824   -153.33271     36976.26 
  936400    287.86575   -1491.9833    518.52048    325.65985   -317.98968     36976.26 
  936500    306.03801   -1526.8581    496.37556    350.65059    305.84382     36976.26 
  936600    294.34562   -1561.1261    503.88046    271.12037    586.38212     36976.26 
  936700    299.16784   -1559.8507    507.43834    297.71611    33.067964     36976.26 
  936800    290.69243   -1518.7885    514.75076    307.84167    418.33697     36976.26 
  936900    295.23708   -1575.7016    479.80585    236.49336    172.35776     36976.26 
  937000    300.97984   -1563.4805    527.00065    321.82601     594.1028     36976.26 
  937100    292.90193   -1545.8673    507.33497    283.31836    545.79535     36976.26 
  937200    291.58995   -1514.5161    527.95948    329.37318     771.0266     36976.26 
  937300    303.75107   -1553.2428    498.90583    316.47535   -18.395042     36976.26 
  937400    297.26366   -1524.8895    528.93413    345.57961    692.87733     36976.26 
  937500    299.72815   -1533.8294    503.04415    321.87187    335.66157     36976.26 
  937600    290.85694   -1538.4593    516.81691    290.97939    51.583139     36976.26 
  937700    306.83863   -1515.0033    499.20838    368.95143    580.20968     36976.26 
  937800    290.27015   -1488.9914    529.75811    350.74029    510.25068     36976.26 
  937900    294.40541    -1502.456    509.57069    335.75054    625.70055     36976.26 
  938000    291.70056   -1526.8898    492.10199    281.64118    614.35622     36976.26 
  938100    303.61718   -1531.6692    534.21811    372.75694    473.99877     36976.26 
  938200    296.49959   -1512.4445    466.54421    292.18642    567.89453     36976.26 
  938300    294.15629   -1487.6804    528.66801    368.49921    455.67049     36976.26 
  938400    298.98906   -1535.1588    503.98708    318.14987    662.25942     36976.26 
  938500    296.19573   -1458.8564     531.2378    409.09689   -14.690188     36976.26 
  938600    302.25022   -1509.2191    543.59306    398.41306    648.68475     36976.26 
  938700    298.77072   -1558.4774    500.06056     289.9194    248.71092     36976.26 
  938800    294.08975   -1485.4696    502.43225    344.17399    358.31197     36976.26 
  938900    309.12767   -1465.7238    499.20832    428.56108     465.2599     36976.26 
  939000    314.18419   -1492.2542    519.18559    444.82778    847.99232     36976.26 
  939100     300.3277   -1526.6079    471.57072    300.32569    242.71821     36976.26 
  939200     296.3445   -1533.9254    507.74682     311.2083    300.39415     36976.26 
  939300    292.70283   -1494.6926    501.55938    327.81892   -66.498395     36976.26 
  939400     309.5505   -1469.2526    476.69494    404.42717   -433.32157     36976.26 
  939500    297.91189   -1498.8169    507.36862    353.01208   -247.06927     36976.26 
  939600    298.65006    -1482.847    536.93895    401.88368   -487.31722     36976.26 
  939700    298.65007   -1506.7615    471.27368    312.30392   -62.885993     36976.26 
  939800    307.30527   -1523.2361    521.62611    385.24225   -233.19964     36976.26 
  939900    300.67625   -1520.1558    506.61446    343.39447    43.600597     36976.26 
  940000    297.46132   -1497.1939    515.10743    360.34049   -48.706434     36976.26 
  940100    298.18583   -1529.5173    473.93717    290.11654   -132.39316     36976.26 
  940200    297.26686   -1540.6245     492.1705    293.09544   -367.94924     36976.26 
  940300    283.77357   -1540.7432    490.16272    230.07443   -23.049604     36976.26 
  940400    297.83671   -1542.1453    491.82755    293.80337    53.201064     36976.26 
  940500    292.37545   -1547.9712    511.77346    283.27701   -13.955868     36976.26 
  940600    300.71653   -1544.2114    533.24548    346.15164   -175.14076     36976.26 
  940700    306.01376   -1522.3557    509.92355     368.5916   -311.64744     36976.26 
  940800    299.28097   -1517.4932     508.1074    341.25317    54.075809     36976.26 
  940900    298.91285    -1584.905    521.11372    285.18644   -782.83706     36976.26 
  941000    303.09441   -1567.8994    496.25843    296.20789   -23.755996     36976.26 
  941100    306.84585   -1601.0389    506.90066    290.64067   -312.42332     36976.26 
  941200    310.29137   -1553.5861    491.28115    338.02334   -879.72713     36976.26 
  941300    295.40503   -1532.0701    512.37754    313.45449   -304.35579     36976.26 
  941400    294.13737   -1540.3817    500.88784    287.93238    -1200.658     36976.26 
  941500    301.09478   -1529.1518    470.82963    300.50247   -708.22626     36976.26 
  941600     294.2629   -1553.9989    520.93793    294.93177   -543.81014     36976.26 
  941700    295.79727   -1588.6322    502.63968    248.92469    95.300608     36976.26 
  941800    307.53413   -1545.4875    492.21414    334.61167    974.89156     36976.26 
  941900    302.52571   -1562.1717    486.15246    289.26303    919.83332     36976.26 
  942000    292.58948   -1575.9429    503.22297    247.72075    544.22479     36976.26 
  942100    309.05792   -1572.6372    549.58011     371.7047    136.68212     36976.26 
  942200     301.6007    -1547.778    472.61909    285.94894   -67.825855     36976.26 
  942300    290.82658   -1604.3778    506.02453    214.13154   -278.68007     36976.26 
  942400    292.89717   -1595.5944    499.50229    225.73711   -154.73057     36976.26 
  942500    301.29728   -1552.0944    474.12907    281.77319   -552.71202     36976.26 
  942600    294.93464   -1555.3803     495.6895     271.3334   -693.78907     36976.26 
  942700    312.60705   -1558.4107    523.31482    375.68296   -339.47252     36976.26 
  942800     295.5428   -1568.0013    503.52793    269.29548   -273.24117     36976.26 
  942900    298.66481   -1579.3213    506.04142    274.57834    178.94652     36976.26 
  943000    297.06417   -1589.7331    510.77794    261.67955    327.99393     36976.26 
  943100    305.72734   -1562.7522    480.40274    297.38168    202.18381     36976.26 
  943200     297.3794   -1553.6978    516.08107    304.44052    205.06037     36976.26 
  943300     295.5765   -1551.9996     499.3038    281.22514   -17.736642     36976.26 
  943400    298.26507   -1567.7756    503.72027    281.99898     162.4752     36976.26 
  943500    298.95749   -1518.1349    513.71324    344.75743    698.88324     36976.26 
  943600    306.15345   -1564.3619    530.95082    348.24305    618.39444     36976.26 
  943700    300.49851   -1602.2626    498.42813    252.29918    443.20003     36976.26 
  943800     308.6773   -1582.8978    505.77513    315.92141    150.58915     36976.26 
  943900    300.43267   -1548.7239    507.05068    314.16339    88.581092     36976.26 
  944000    299.02245   -1512.3021    511.00678      348.177   -496.26958     36976.26 
  944100    295.41686   -1543.2499    496.95088    286.90149    -444.9826     36976.26 
  944200    305.00772   -1523.2768    508.99012    362.19687   -297.11843     36976.26 
  944300    298.57631   -1536.0636    519.04001     330.4353   -311.99928     36976.26 
  944400    297.09456   -1505.0288    515.57288    351.31586   -125.23312     36976.26 
  944500    299.85418   -1518.6456    499.04337    333.62361    -524.7792     36976.26 
  944600    304.98313   -1509.2619    520.51974    387.63033    3.7119092     36976.26 
  944700    314.13956   -1547.1294    507.48021    378.04579   -176.36652     36976.26 
  944800    308.82545   -1530.8018     502.1802    365.09114     10.58032     36976.26 
  944900    304.47244   -1505.9372    483.76738    351.89797   -108.08136     36976.26 
  945000    304.67897   -1556.7406    506.71799     324.9773   -328.68074     36976.26 
  945100     307.3239    -1550.101    501.03525    337.87058    350.50591     36976.26 
  945200    293.61943   -1543.6237    498.75675    280.22178   -141.16074     36976.26 
  945300    302.34837   -1547.5188    504.43594    321.39914   -248.67756     36976.26 
  945400    307.53337   -1528.3735    496.79834    356.30642   -421.06229     36976.26 
  945500    310.84269   -1503.6753    533.57589    432.71703    301.54131     36976.26 
  945600    290.01842   -1555.6125    494.22186    247.44694   -245.10276     36976.26 
  945700    314.48382   -1547.9867    524.17406      395.436    139.25654     36976.26 
  945800    309.44235   -1530.3352    497.39336    363.55484    149.95763     36976.26 
  945900    305.92089   -1517.6028    504.44099    367.44281     232.3554     36976.26 
  946000    305.62514   -1532.4557    497.68478    344.49897    152.77313     36976.26 
  946100    304.68365   -1533.9068    524.18297    365.29712     421.0608     36976.26 
  946200    295.29467   -1531.4913     479.6668    280.82453   -117.39573     36976.26 
  946300    304.59991   -1519.6783    515.28206    370.24686     234.5748     36976.26 
  946400    305.28892   -1497.6998    495.36147    375.41422   -555.13904     36976.26 
  946500    301.09231   -1589.5607    502.97336     272.2261   -674.66354     36976.26 
  946600    301.22928    -1517.554    468.18399     310.0616   -385.16005     36976.26 
  946700    305.84983   -1517.8408    513.72501    376.16812   -236.57179     36976.26 
  946800    302.07785   -1505.2098    483.41357    341.46488   -247.40769     36976.26 
  946900    307.04295   -1526.0349    510.19328    369.82681    131.61056     36976.26 
  947000    305.73922   -1534.8572    503.04171     347.9692    160.38054     36976.26 
  947100    305.91488   -1536.0865    476.47399      320.965   -36.287514     36976.26 
  947200    303.64834   -1524.6069    515.38724      361.129    -531.7337     36976.26 
  947300    299.99112   -1525.6718    498.94767    327.11967   -325.87075     36976.26 
  947400    305.54214   -1532.5787    501.49971     347.8163   -947.50848     36976.26 
  947500    293.98434   -1573.7471    519.08531    272.07375   -801.56191     36976.26 
  947600    293.28007   -1548.1759    499.45342     274.8347    25.853561     36976.26 
  947700    300.23066   -1527.6986    524.08008     351.3064   -349.47944     36976.26 
  947800    307.27022   -1527.0473    509.42995    369.07674   -241.31387     36976.26 
  947900    309.07265   -1510.6029    494.13255    378.35797   -31.132573     36976.26 
  948000    296.91775   -1478.3092    511.17103    372.83569   -240.04706     36976.26 
  948100    297.61008   -1499.7423    515.10258    358.45858    318.59561     36976.26 
  948200    288.82097   -1504.7076    525.61356    324.33949   -828.25127     36976.26 
  948300     287.9886   -1504.1262    516.06431    311.61527   -614.38016     36976.26 
  948400    289.95162   -1512.2995    485.20342    281.44004   -873.89207     36976.26 
  948500    300.45223   -1501.9934    512.05317    365.98454   -370.22037     36976.26 
  948600    292.50002   -1513.7636    516.88785    323.16123   -262.47369     36976.26 
  948700    299.70084   -1486.7185    520.57358    386.38893    309.39701     36976.26 
  948800      303.269   -1504.7797    510.00523    373.86226    142.88602     36976.26 
  948900    294.60547   -1504.4212    511.34009    336.45757    38.358615     36976.26 
  949000      300.931   -1497.7434    494.73013    355.07224   -279.32432     36976.26 
  949100     314.4808   -1494.8443    513.16658    437.55728    446.50887     36976.26 
  949200    300.98246   -1508.5929     498.6137     348.3385   -292.36533     36976.26 
  949300    294.63612   -1518.3387    499.54687    310.88523   -310.30696     36976.26 
  949400    304.48348   -1529.3222    488.90994    333.70537     364.8644     36976.26 
  949500    304.49651   -1505.3632    539.68924    408.50249    372.16603     36976.26 
  949600    305.70607   -1509.3061     507.0166    377.34565   -118.28726     36976.26 
  949700     298.0394   -1490.5847    525.35788    379.80906    23.226088     36976.26 
  949800    293.27823   -1485.1192      522.156    360.58575    13.445274     36976.26 
  949900    301.25903   -1488.3781    507.29828    378.48604   -199.85934     36976.26 
  950000    306.09222   -1503.5055     493.3267    371.19897   -108.26482     36976.26 
  950100     306.1154   -1483.8065    517.27852    414.95443    10.661165     36976.26 
  950200    296.49755   -1498.0981    502.00177    341.98119    101.63049     36976.26 
  950300    306.05003   -1482.2712    509.87838    408.79459    596.22567     36976.26 
  950400    311.16046   -1519.1072    492.07861    377.22193    171.67013     36976.26 
  950500    299.54946   -1566.3983    487.86564    273.31794    99.866477     36976.26 
  950600    283.15584   -1551.2508    506.49506    233.11142    22.066543     36976.26 
  950700    293.02064   -1529.7778    483.22061    275.82927    364.55225     36976.26 
  950800    303.14876   -1575.3401    514.12035    306.87441    548.57677     36976.26 
  950900    296.16809   -1534.1778    482.46626    284.87919     222.1931     36976.26 
  951000    286.82517   -1509.1615     529.4105    314.67563    290.23542     36976.26 
  951100    306.88899   -1513.7311    499.17699    370.41945   -25.265901     36976.26 
  951200    292.81275   -1505.5726    507.75862    323.63429   -622.53813     36976.26 
  951300    298.91057   -1488.5163    515.35192    375.80301   -62.216746     36976.26 
  951400    291.25874    -1535.533    503.03258     281.9347   -82.524986     36976.26 
  951500    304.27738    -1493.835    496.70378    376.05632    269.98471     36976.26 
  951600     300.3198    -1519.821    518.43484    353.94102    56.768885     36976.26 
  951700    309.06981   -1500.3516    482.88176    377.34565    84.694276     36976.26 
  951800    310.03607   -1547.7178    500.04648     351.5049   -427.79955     36976.26 
  951900    309.82678   -1513.5555    501.69977    386.37593   -1078.5757     36976.26 
  952000    292.47774   -1554.2025    485.07901     250.8129   -946.61427     36976.26 
  952100     298.8895   -1529.0879    485.54566    305.33007   -586.09774     36976.26 
  952200    302.77251   -1505.5225    491.84334    352.71689   -604.09562     36976.26 
  952300    311.54962   -1525.0033    476.88154    357.88499    -431.8656     36976.26 
  952400    288.94492   -1542.4769    519.30385    280.81987   -630.54564     36976.26 
  952500    300.77571   -1506.2922    496.22386    347.31629   -318.89586     36976.26 
  952600    314.56715    -1511.607    480.24664    388.26436    481.69695     36976.26 
  952700    288.85985   -1585.5339    518.65139    236.72649    376.41288     36976.26 
  952800    307.32005   -1593.6335     481.2935     274.5789    369.41852     36976.26 
  952900     311.4891   -1570.3841    506.66572    342.01525   -38.987428     36976.26 
  953000    302.85887   -1538.7849    496.47189    324.47283    365.26331     36976.26 
  953100    304.43209   -1540.0357    519.69583    353.54587   -339.54938     36976.26 
  953200     300.2085   -1537.3727    499.66898    317.12112   -245.35139     36976.26 
  953300    303.93965   -1536.1743    502.63589    338.12494   -191.47094     36976.26 
  953400    299.44498   -1528.6477    510.24157      332.973    523.08132     36976.26 
  953500    294.86519   -1555.6113    482.91774    258.01723    109.77656     36976.26 
  953600    300.07192   -1562.8808    495.83288    287.16055    194.99487     36976.26 
  953700    298.86749   -1566.2765    521.50536    304.00185    871.61514     36976.26 
  953800    296.81373   -1559.9583    485.51577    265.06194    361.17764     36976.26 
  953900    305.43743   -1530.7089    487.38233    335.09621    148.96436     36976.26 
  954000    290.55358   -1544.6028    503.15192    269.80186    238.01087     36976.26 
  954100    297.47568   -1585.9641     480.9795    237.50717   -733.91463     36976.26 
  954200    286.76751   -1595.2443    493.38547     192.3076   -542.12631     36976.26 
  954300    295.71404   -1568.1067    477.27154    243.70644   -74.802855     36976.26 
  954400    299.04964    -1559.208     485.5568    275.94374   -553.91334     36976.26 
  954500    294.59393   -1566.1232    507.13922    270.50264   -97.507637     36976.26 
  954600    300.16428   -1539.2838    519.07585    334.41733    234.93081     36976.26 
  954700    308.31331   -1549.8605    534.22201    375.76295    70.445871     36976.26 
  954800    291.69719   -1547.3254    490.67632    259.76469    84.048353     36976.26 
  954900    310.91072   -1561.6823    503.13013    344.57128    501.37357     36976.26 
  955000    303.39208   -1582.5702    524.60703      311.229    945.17739     36976.26 
  955100    295.67942   -1548.1629    473.07638    259.29888    115.82478     36976.26 
  955200    307.30325   -1519.3186    491.16459    358.68908    320.69442     36976.26 
  955300    297.61508   -1547.7952     504.0719    299.39766    574.09307     36976.26 
  955400    299.85021   -1619.0053    504.47142    238.67405    1128.8853     36976.26 
  955500    304.49698   -1581.7351    506.45489    298.89832    258.89353     36976.26 
  955600    300.95734   -1552.9043    519.34008    324.64015    88.798286     36976.26 
  955700    294.80185    -1532.805    502.84259    300.46251    18.780425     36976.26 
  955800    301.28876   -1587.2012    518.10036    290.59923    215.01166     36976.26 
  955900    323.05833   -1584.5069    470.92072    344.35875   -267.42977     36976.26 
  956000     298.6162   -1572.2559    488.01699    263.40002    105.47186     36976.26 
  956100    287.70624   -1536.7598    490.76537    252.40839    333.97922     36976.26 
  956200    299.71569   -1555.6291    492.34829    289.31999    389.54391     36976.26 
  956300    289.50375   -1578.5716    508.42081    236.36419    18.217594     36976.26 
  956400     300.0251   -1520.6384    517.96084    351.31963   -127.99718     36976.26 
  956500    296.88364   -1496.7561    487.83591    330.89975    189.59295     36976.26 
  956600    303.05235   -1532.5778    519.64162    354.72287    307.18759     36976.26 
  956700    296.72318   -1540.1013    506.47262    305.46716    376.66656     36976.26 
  956800    308.39666   -1528.0394    501.42607    365.16432    541.72205     36976.26 
  956900     301.4767   -1529.1275    504.98669    336.40739   -174.19629     36976.26 
  957000    311.60493   -1521.5851    511.02317     395.6944   -476.95776     36976.26 
  957100    301.86782   -1477.6435    492.87276    377.54254   -124.23309     36976.26 
  957200    300.34695   -1470.4317    530.09523    415.11325   -218.73239     36976.26 
  957300    301.73578   -1463.5361    497.09236    395.27367    358.23815     36976.26 
  957400    289.16839   -1485.0007    501.82454     321.8253   -74.141304     36976.26 
  957500    295.36493   -1510.1433    529.31208    352.13488     285.8756     36976.26 
  957600    295.26417   -1559.2182    490.22375    263.51689    48.022934     36976.26 
  957700    305.38293   -1516.2126     510.8014    372.76555   -373.01091     36976.26 
  957800    291.50502   -1481.0705    505.75472    340.23071    -807.0564     36976.26 
  957900    294.12476   -1458.0643    517.37716    386.68212   -189.88865     36976.26 
  958000    299.30816   -1480.8493    524.66744    394.57987   -12.534865     36976.26 
  958100    305.32552   -1491.4133    509.87043    396.37484   -21.247623     36976.26 
  958200    303.73422   -1508.8482    527.07035    388.95843    628.43495     36976.26 
  958300    302.55204   -1532.5502     480.9745    313.82541   -257.94001     36976.26 
  958400    296.85106   -1521.3769    488.46932    306.76532   -814.78398     36976.26 
  958500    305.53319    -1496.299    509.30897    391.86485    -648.8872     36976.26 
  958600    300.80925    -1528.897    504.25563    332.89459   -468.31857     36976.26 
  958700    306.24944   -1529.4123    507.18553    359.86059   -422.54188     36976.26 
  958800    310.42371    -1555.875    503.51138    348.56194    171.09166     36976.26 
  958900    285.90076   -1536.4471    501.06684    254.87456    140.01232     36976.26 
  959000    307.92915   -1562.9573    490.60105    317.31155    157.68094     36976.26 
  959100    301.81512   -1538.8043    523.62711    346.89826    711.58311     36976.26 
  959200    295.05119   -1532.7103    487.32166    286.16161    785.29669     36976.26 
  959300    308.10067   -1532.8591    517.74721    375.32988    314.92199     36976.26 
  959400    303.74863   -1528.2213    516.27787    358.85783    556.24879     36976.26 
  959500    295.94109    -1554.376    518.55802    299.74834     420.8599     36976.26 
  959600    294.98375   -1531.4312    493.06285    292.87752    31.970019     36976.26 
  959700    306.58285   -1520.6153    506.92669    369.90335   -220.01903     36976.26 
  959800     304.1725   -1525.1819    479.37129    326.90361   -953.80018     36976.26 
  959900    313.95644   -1539.9218    490.02331    366.97009   -333.07525     36976.26 
  960000     297.8283   -1538.9142    524.34646    329.51543   -487.59108     36976.26 
  960100    299.03096   -1533.3066    491.28901    307.49315   -414.33211     36976.26 
  960200    302.36127   -1517.6047    536.88368    383.81922   -272.09826     36976.26 
  960300    300.58343   -1533.6658    520.06033    342.91144    59.972629     36976.26 
  960400    317.36357   -1542.9385    520.79673      410.103   -139.84365     36976.26 
  960500    292.47249   -1542.5754    498.17376    275.51103   -216.88864     36976.26 
  960600     303.7333   -1546.5748    493.00625    317.16356    366.59716     36976.26 
  960700    306.84211   -1514.4534    517.29855    387.60714   -384.59155     36976.26 
  960800    291.83578   -1558.5415    520.30931    278.80709    -213.4577     36976.26 
  960900    305.08096   -1525.0888    482.97004    334.69524   -49.506827     36976.26 
  961000    292.92945   -1522.0709    503.75817    303.66221   -333.92588     36976.26 
  961100     293.5764   -1485.5345    518.81851    358.17855   -119.15759     36976.26 
  961200    299.26144   -1491.2091    500.34745    359.68924   -214.05636     36976.26 
  961300    308.49993   -1493.7033    504.52351    403.06382   -534.10572     36976.26 
  961400    294.37862   -1485.4959    483.98074    326.99978   -725.27958     36976.26 
  961500    294.83002   -1490.6654    507.80818     347.6948    -784.7565     36976.26 
  961600    304.77235   -1513.8176    478.79002    340.39371    -505.9752     36976.26 
  961700    295.20007   -1419.8819    515.27069    427.61091   -468.30902     36976.26 
  961800    308.59554   -1464.8081    489.75635     417.6234   -414.58142     36976.26 
  961900    303.73211   -1455.4105    510.44539    425.76167     75.12888     36976.26 
  962000    294.18111   -1467.4189    476.60462    336.80926   -268.60355     36976.26 
  962100    302.13155   -1501.7637    547.46541    409.20519    76.477581     36976.26 
  962200    311.23338   -1502.3525    505.58205    407.80907    207.90026     36976.26 
  962300    302.80755   -1533.4792    495.36951    328.44452    43.305995     36976.26 
  962400    295.57684   -1521.2783    501.19245    313.83661   -578.13139     36976.26 
  962500    292.69673    -1502.163    495.93413    314.69582   -791.20572     36976.26 
  962600    289.96457   -1490.5885     528.3412    346.34726   -863.03664     36976.26 
  962700    289.47923   -1492.7028    510.88959    324.59109   -632.62422     36976.26 
  962800    294.77834   -1467.3529    489.93734    352.90325    333.89179     36976.26 
  962900     311.6068    -1478.053    535.41243    463.62419   -333.59608     36976.26 
  963000    295.16534   -1536.5292    498.07058    293.60672    240.34133     36976.26 
  963100    306.41787   -1494.4201    519.65848    408.08585   -172.75005     36976.26 
  963200    292.04013   -1462.9408    505.19593    360.21657   -627.98826     36976.26 
  963300    308.44419   -1477.4998    493.21512    407.70741   -725.45745     36976.26 
  963400    300.38391   -1469.6407    508.20133    394.17709   -527.75527     36976.26 
  963500    294.67291   -1470.1385    489.11385    348.81844   -1010.1727     36976.26 
  963600    301.80124   -1493.9835    528.29521    396.32451   -240.86595     36976.26 
  963700    302.05062   -1490.5485    513.50229    386.09204   -140.21421     36976.26 
  963800    309.92766   -1499.5186    511.71872    410.88706   -377.77574     36976.26 
  963900    293.88207   -1544.8244    481.65827    263.10785   -644.44429     36976.26 
  964000    299.23906   -1502.1088     502.3381    350.67918    94.545225     36976.26 
  964100    303.90519   -1545.8323    490.77834     316.4539    101.36717     36976.26 
  964200    305.93797   -1500.8817    506.96822    386.76813   -3.6126449     36976.26 
  964300    301.97745   -1499.9762    503.54182     366.3737    434.54467     36976.26 
  964400    299.15561   -1492.8031    499.23852    356.50864    53.333386     36976.26 
  964500    298.73863   -1491.5406    519.83588    376.48673    216.44986     36976.26 
  964600    286.75621   -1506.4095    525.86192    313.56782   -306.92746     36976.26 
  964700    294.57353   -1455.6733    527.60724     401.3285    47.010724     36976.26 
  964800    296.75049   -1502.5734    496.68162     333.3273   -208.16501     36976.26 
  964900    298.00746   -1546.0781    496.20292     295.0165   -743.02438     36976.26 
  965000    294.12094   -1507.0605    515.50211    335.79359    43.308459     36976.26 
  965100     289.4729   -1551.4496     504.8733    259.79942    173.90581     36976.26 
  965200    304.32358    -1575.804    513.01084    310.60281    181.83628     36976.26 
  965300    305.25055   -1539.3402    513.22808    351.46724    484.65989     36976.26 
  965400    305.36898   -1535.1791    502.37556     345.3103    783.06136     36976.26 
  965500    301.88613   -1547.1064    508.70564    323.99515    483.82414     36976.26 
  965600    300.55736   -1564.2637     507.6446    299.78018   -11.033921     36976.26 
  965700    302.35299   -1557.6148    507.26138    314.14945   -115.33172     36976.26 
  965800    308.32208   -1530.3429    491.33936    352.43742    -307.2336     36976.26 
  965900     294.2031   -1558.0142     522.5892    292.29784   -341.30899     36976.26 
  966000    298.08338   -1532.7759    521.09193    333.55033   -201.49684     36976.26 
  966100    300.20073   -1525.1525    501.62766    331.26495    -408.9976     36976.26 
  966200    313.16151   -1518.4648    525.33396    420.15029    490.09263     36976.26 
  966300    294.54239   -1570.7339    515.10867     273.6288    322.06047     36976.26 
  966400    290.66729   -1597.1438    502.41042    217.03254    594.05355     36976.26 
  966500    293.53628   -1579.3551    558.05903    303.41742    425.77211     36976.26 
  966600    295.79489   -1571.5854    477.54006    240.86118    620.84498     36976.26 
  966700    300.02781   -1547.1012     507.9221    314.83029    421.36701     36976.26 
  966800    306.49042   -1559.7583     508.1319    331.54849    260.80519     36976.26 
  966900    300.95045   -1544.6262     495.2717    308.81877   -114.27108     36976.26 
  967000    295.44861   -1525.2776    516.92394    324.99007   -592.64976     36976.26 
  967100    305.87406   -1579.0777    518.74276    320.05832   -44.965243     36976.26 
  967200    306.28879    -1540.975    517.52842    358.81829    143.45354     36976.26 
  967300    300.41661   -1549.5265    521.27557    327.51315   -194.14465     36976.26 
  967400    305.28703   -1528.1111    486.59201    336.22489   -17.096514     36976.26 
  967500    295.58348   -1520.9321    483.89611    296.91644   -483.59689     36976.26 
  967600    306.58541   -1508.3865    491.50213     366.7192    215.83876     36976.26 
  967700    307.30284   -1505.5093    520.46414     401.7961   -375.05425     36976.26 
  967800    307.04856   -1485.8644    496.37489    396.20415    -286.8103     36976.26 
  967900     296.1407   -1490.2172    533.50612    379.75602   -119.14089     36976.26 
  968000    293.89855   -1490.3581    518.48835    354.47862   -690.31248     36976.26 
  968100    296.54328   -1490.5483    531.81291    379.54854   -876.47881     36976.26 
  968200    297.12847   -1530.4423    507.40851    317.89103   -438.10259     36976.26 
  968300    305.16063   -1506.3507    488.67348    359.49631   -520.49304     36976.26 
  968400    303.37574   -1492.5609    510.34028    386.89784   -977.16941     36976.26 
  968500    305.72816     -1513.01    498.88145    365.60621   -872.36875     36976.26 
  968600    309.64048   -1536.9884    476.27854    336.68106   -893.09338     36976.26 
  968700    293.78233   -1524.3011    484.38598     285.9088   -650.19106     36976.26 
  968800    293.48147   -1489.9698    509.21427    343.71062    -1106.942     36976.26 
  968900     302.4962   -1561.5296    483.63864     287.2582   -574.83917     36976.26 
  969000      294.806   -1552.4769    492.75553    270.72237   -8.0337911     36976.26 
  969100    297.64306   -1508.0343    530.86399    366.07692   -290.80952     36976.26 
  969200    300.10815   -1563.9987    496.64283    287.01617    59.561568     36976.26 
  969300    297.14053   -1570.2459    514.10513    284.83854   -108.98321     36976.26 
  969400     303.3605   -1536.4417    501.22428    333.83221    397.37834     36976.26 
  969500    294.41187   -1509.2239     478.8213    298.26238    5.5883061     36976.26 
  969600    310.99619   -1558.4016    507.83796     352.9455    19.615149     36976.26 
  969700    300.83761    -1530.246     514.9943    342.41233    149.68499     36976.26 
  969800    301.58312   -1492.0564    516.19925    385.17131   -75.730904     36976.26 
  969900     300.5311   -1493.6257    507.96932    370.62439   -438.07445     36976.26 
  970000    294.20324   -1498.7868    486.96596    315.90262    -627.9322     36976.26 
  970100    299.45735   -1497.7356    509.69508    363.39445   -338.56474     36976.26 
  970200    300.68504   -1488.7323    487.75448    355.99763   -174.28444     36976.26 
  970300    296.42282   -1477.3946    506.27669    366.62235   -156.73176     36976.26 
  970400     299.9968   -1504.6005    532.72953    381.99858   -84.075408     36976.26 
  970500    297.20001   -1542.0984    505.62467    304.77399    676.27657     36976.26 
  970600    300.64569   -1467.1072    526.38942    416.08009     575.7232     36976.26 
  970700    306.42515   -1442.2821    522.04207    462.64023    746.76402     36976.26 
  970800    305.83205   -1455.5008    521.63614    446.33893    459.78014     36976.26 
  970900    305.00755   -1460.3414    516.62879    432.77013    573.34349     36976.26 
  971000    288.43814    -1434.229    505.75694    373.23382    121.94686     36976.26 
  971100    306.05583   -1454.5999    505.65846    432.27213    267.48336     36976.26 
  971200      307.461   -1443.7796    493.19437    436.96981    736.76213     36976.26 
  971300    294.56811   -1453.1452    530.37053     406.5954    659.43624     36976.26 
  971400     305.8356   -1468.5748    515.83721     427.4821    484.47644     36976.26 
  971500    310.92001   -1438.7445    514.80225    479.22316    637.12072     36976.26 
  971600    301.20156   -1446.8669    502.45758     414.8972    -16.91755     36976.26 
  971700    293.95068   -1484.4082    501.46447    343.63998    194.01959     36976.26 
  971800    296.44932   -1486.9689     502.3229    353.21386    105.18366     36976.26 
  971900    304.02939   -1440.8985    488.83729    420.00714   -305.99635     36976.26 
  972000    312.14971    -1505.038    518.22113    421.89809   -448.14242     36976.26 
  972100    300.17517   -1494.0191    492.17854    352.83393   -383.97747     36976.26 
  972200    294.17749   -1534.1631    529.15232    322.59646   -358.72639     36976.26 
  972300    297.59683   -1550.8538    487.35797    279.54273    -187.2249     36976.26 
  972400    296.05483   -1515.3346    496.54629    317.29128   -153.89912     36976.26 
  972500    307.18243   -1507.7389    533.55596    412.11489   -602.54461     36976.26 
  972600    295.73136   -1508.4638    502.12428    328.28024   -1054.4201     36976.26 
  972700    320.36918   -1513.2253    496.87094    429.45455   -625.88947     36976.26 
  972800    298.68019   -1504.8997     477.7024    320.73036   -610.63999     36976.26 
  972900    300.08449   -1480.9502    500.91338     374.2284   -819.47597     36976.26 
  973000    299.04454   -1493.5174    512.68654    368.74113   -618.71631     36976.26 
  973100     303.3135   -1457.6444    481.93722    393.13035   -323.36015     36976.26 
  973200    307.15192   -1477.1128    505.01356    414.06093   -885.85112     36976.26 
  973300     302.2473   -1470.5208    522.36459    415.86968   -158.24923     36976.26 
  973400    292.83574   -1476.3351    533.84878    379.06568   -184.89724     36976.26 
  973500    298.84567   -1474.6081    500.76759    374.83396   -260.15139     36976.26 
  973600    295.30812   -1492.4649    517.53759     357.7824   -51.558807     36976.26 
  973700    299.18511    -1468.195    513.18128    395.19261    395.04665     36976.26 
  973800     294.7856   -1492.8685    493.12655    330.60963    585.90526     36976.26 
  973900    296.76153   -1473.9512    527.22458    392.54231    372.93581     36976.26 
  974000    303.94199   -1502.6619    508.41989    377.43189     166.1379     36976.26 
  974100    298.29388    -1529.725    511.13728    327.59661   -68.295573     36976.26 
  974200    299.08821   -1531.4037    503.75199    322.11736    568.34814     36976.26 
  974300    301.17448   -1505.8302    510.35756     363.7117    1130.6531     36976.26 
  974400    291.57644   -1515.8045    503.66899     303.7334    730.02174     36976.26 
  974500    292.24849   -1516.3204    519.16722    321.74858    204.52524     36976.26 
  974600    295.66357    -1489.148    488.25086    333.41668   -316.73884     36976.26 
  974700    302.79558   -1494.3483    511.81568    383.96762   -666.47287     36976.26 
  974800    313.56692   -1534.4563    523.64805    404.30247   -801.29902     36976.26 
  974900    297.68429   -1526.1823    497.39499    314.64592   -484.42023     36976.26 
  975000    312.26504    -1552.848    494.45617    350.84357   -46.596607     36976.26 
  975100    292.51879   -1488.7839    524.69379    356.03151      578.206     36976.26 
  975200    302.49097   -1544.5303    485.82996    306.42522    218.22871     36976.26 
  975300    308.20962   -1532.4874    497.87121    356.31736    11.209229     36976.26 
  975400    297.19629   -1497.4502    490.85082    334.63155   -422.48191     36976.26 
  975500    300.83677   -1518.9629    503.51707    342.21445    -378.1265     36976.26 
  975600    294.93561   -1517.4581    507.73633    321.30682   -222.19582     36976.26 
  975700    303.31057   -1509.5623    508.43567    367.69769     226.3232     36976.26 
  975800    296.10973   -1523.3957    535.61301    348.54469   -58.291274     36976.26 
  975900    300.99849   -1543.0892    480.92778    296.22862    82.810078     36976.26 
  976000    312.83945   -1535.9977    524.27666    400.10666    233.22169     36976.26 
  976100    297.79563   -1503.1442    501.49808    342.28961    212.60421     36976.26 
  976200    306.31536    -1514.023    488.34333    356.70512     391.8504     36976.26 
  976300    311.95995   -1493.9439    527.03386    440.94849   -429.14804     36976.26 
  976400    291.01269   -1516.8246     486.8613    283.36138   -590.52918     36976.26 
  976500    312.09055   -1480.6303    523.11584     450.9335   -290.95937     36976.26 
  976600    306.94613   -1532.0122    517.68869    370.90794   -304.51868     36976.26 
  976700    311.58927   -1559.3681    479.40018    326.21782     6.257229     36976.26 
  976800    299.74904   -1529.2691    495.82339    319.30566   -394.41939     36976.26 
  976900    300.26165   -1521.6616    533.60344    367.00655   -381.13476     36976.26 
  977000    285.59985   -1518.2378    489.27895    259.93797   -299.69373     36976.26 
  977100    310.04078   -1482.4997    517.90143    434.59915    401.84631     36976.26 
  977200    302.76167   -1493.8136    513.24331    385.77687     454.0467     36976.26 
  977300    300.31034   -1514.6305    547.34464    387.99856    442.49216     36976.26 
  977400    300.35084   -1512.5424    527.26529    370.19016   -331.76038     36976.26 
  977500    296.59827   -1530.6937    494.98291    302.82133   -297.45656     36976.26 
  977600     296.6015   -1517.6309    501.26684    322.18257   -310.96105     36976.26 
  977700    298.88738   -1546.3608    505.49949    308.00143   -498.23326     36976.26 
  977800     307.3302   -1546.2391    535.99258    376.71818   -116.65811     36976.26 
  977900    302.89544   -1522.7537    503.70844    347.90563   -187.28594     36976.26 
  978000    294.75364   -1521.4249    521.88605    330.66853   -120.35542     36976.26 
  978100    302.05916   -1516.1301    482.97227    330.01901   -220.00778     36976.26 
  978200    296.27711   -1526.9428    470.71185    280.85182   -365.91655     36976.26 
  978300    311.07097   -1532.5156    542.33222    413.66323   -640.90181     36976.26 
  978400    291.94372   -1538.5261    479.12673    258.12703   -800.75772     36976.26 
  978500     306.3869    -1528.612    482.11257    336.20827   -193.47834     36976.26 
  978600    299.73044    -1528.543    491.55431    315.67871    -313.9919     36976.26 
  978700    296.73832   -1463.8207    516.00627    391.34974   -457.20856     36976.26 
  978800    305.24857   -1503.0546    500.32209    374.83795    337.00585     36976.26 
  978900    295.87826   -1506.3477    501.14439    330.07946    110.23532     36976.26 
  979000    308.81717   -1510.4822    493.19694    376.39005   -123.15802     36976.26 
  979100    297.92205   -1510.9016    511.12358    344.72821   -448.30851     36976.26 
  979200    302.99976    -1517.319    491.76325    341.86593    227.04099     36976.26 
  979300    291.43149   -1485.3599    520.13932    349.99412   -399.49618     36976.26 
  979400    303.82356    -1480.246     524.2781    415.17153   -94.393251     36976.26 
  979500    297.81179   -1459.2539    501.87889    386.63367   -119.43391     36976.26 
  979600     294.0457   -1446.7292    511.81164    392.09497   -315.29473     36976.26 
  979700    307.16215   -1427.3496    540.52734    499.38405   -238.82542     36976.26 
  979800    308.51762   -1496.2691    483.35823    379.41264    68.732276     36976.26 
  979900    294.93691   -1490.5111    536.97002    377.49336    74.089326     36976.26 
  980000     297.7384   -1477.5013    537.42101    403.59712    864.00067     36976.26 
  980100    300.80276   -1488.5502     489.3934    358.34995    566.97795     36976.26 
  980200    302.60739   -1478.9724    555.10206    441.78062    599.37461     36976.26 
  980300    296.56594   -1456.1462    507.56242    389.80235   -15.005578     36976.26 
  980400    289.83454   -1465.1192    509.83224    352.72075    609.11771     36976.26 
  980500    318.30518   -1462.4575    492.21991    466.25665    126.48988     36976.26 
  980600    291.33849   -1483.9125    508.47185    339.35431    -122.8289     36976.26 
  980700    312.96245   -1486.4643    501.74405    427.66249    216.93651     36976.26 
  980800    305.74209   -1459.5388    493.75079    414.00966    236.60322     36976.26 
  980900    299.70081   -1470.5525    530.70445    412.68562   -403.70867     36976.26 
  981000    300.52854   -1527.6221     508.0819    336.72896   -529.56272     36976.26 
  981100    297.84295   -1526.9757    462.21754    279.39116   -572.47434     36976.26 
  981200    309.37772   -1518.3974    507.99487    385.80257   -585.08119     36976.26 
  981300    297.16987    -1496.885    464.33555    308.56228   -648.91959     36976.26 
  981400    302.66598   -1502.2358    513.48455    377.16405   -162.32956     36976.26 
  981500    297.78069   -1489.7389    507.45364    361.58301    399.04743     36976.26 
  981600    304.43508   -1536.4677    493.06776    330.49923    489.44152     36976.26 
  981700     303.1043   -1531.8738    515.50299     351.5226    80.419779     36976.26 
  981800    298.69012   -1514.2974    517.59307    351.26821   -166.94602     36976.26 
  981900     297.7592   -1484.6863    498.35438    357.43937   -42.341627     36976.26 
  982000    303.36992   -1528.3984    519.05462    359.74838    -324.7407     36976.26 
  982100     308.7633   -1492.0504    498.15806    399.53989    20.144852     36976.26 
  982200    295.10251   -1480.8161    519.13871    370.10438   -152.38836     36976.26 
  982300     300.0256   -1496.3144    504.39026    362.07533   -357.40885     36976.26 
  982400    295.97274   -1454.4943     505.9128    387.12763   -688.15915     36976.26 
  982500    304.70993   -1508.5186    514.10843    380.72937   -589.63068     36976.26 
  982600    306.89487   -1572.1166     499.9097    312.79317   -99.417769     36976.26 
  982700    307.46464   -1554.2737    476.72623    310.02401    127.72041     36976.26 
  982800    295.23186   -1527.5831    512.48177    317.26425   -117.76613     36976.26 
  982900      307.206   -1538.1986    520.63642    368.84199    479.14369     36976.26 
  983000    306.79875   -1500.2751    501.75246    386.04365    251.63562     36976.26 
  983100    298.91126    -1531.973    493.40374    310.40129    15.982096     36976.26 
  983200    295.79416   -1519.3686    484.60818    300.14275   -184.60269     36976.26 
  983300    290.00076   -1552.1228     496.4911    253.12622    153.90199     36976.26 
  983400    295.06651   -1536.2435    482.35821    277.73406    101.14447     36976.26 
  983500    307.86082   -1524.8575    518.14836    382.65024    244.97479     36976.26 
  983600    306.62469   -1537.0723    494.00634    340.71483    558.81377     36976.26 
  983700    290.50787   -1523.7831    496.06479    283.32816    247.39976     36976.26 
  983800    298.60186   -1534.8271    507.11423    319.86136    149.80416     36976.26 
  983900    300.25309   -1550.5058    505.04075    309.56103    45.525244     36976.26 
  984000     304.9311   -1525.1682    491.46207    342.43161   -280.09912     36976.26 
  984100    291.67612   -1535.2025    503.92985    285.04604   -460.08594     36976.26 
  984200     304.3562   -1514.6869    502.01584    360.87217   -136.36642     36976.26 
  984300     309.8137   -1505.4441    492.97436    385.70291   -375.26827     36976.26 
  984400    293.76478   -1505.8105    519.67795    339.61211    81.747492     36976.26 
  984500    300.44713   -1509.7429    505.95417    352.11307    312.39126     36976.26 
  984600    290.31791   -1496.5925    507.56277    321.15947    -360.5588     36976.26 
  984700    300.51903   -1514.6863    496.34891    337.88886   -277.60027     36976.26 
  984800    289.46217   -1502.1313    514.60106    318.79705    24.507845     36976.26 
  984900    305.12543   -1481.2316    491.37057    387.15366   -142.36769     36976.26 
  985000    298.52433   -1513.3503    473.91409    307.78809   -441.85965     36976.26 
  985100    299.96333   -1572.7526    475.04485    256.01072   -812.69532     36976.26 
  985200    301.11081   -1548.8146    465.29245    275.37482   -780.18963     36976.26 
  985300    306.17792   -1537.0725    496.48671    341.17875     18.96735     36976.26 
  985400     300.6997   -1554.0804    476.12702    279.08825   -438.26018     36976.26 
  985500    307.09137   -1565.2233    474.15028    294.81387   -264.75629     36976.26 
  985600     289.5125   -1528.1028    498.50466    276.95623    202.19089     36976.26 
  985700    300.98147   -1529.6367    479.57959    308.25608   -256.61011     36976.26 
  985800     301.5824   -1534.6733    493.47585    319.82781   -114.80318     36976.26 
  985900    301.39906   -1525.7407    490.99413    325.45119    73.347574     36976.26 
  986000    302.47237   -1534.7698    498.96894    329.24072       110.02     36976.26 
  986100    299.85622   -1565.0363    460.34981    248.54855    81.400685     36976.26 
  986200    298.30284    -1520.473    487.09552    312.84725    143.03001     36976.26 
  986300    302.91221   -1473.6039    530.12928    423.55197    97.754724     36976.26 
  986400    303.87429     -1510.43    498.36187    359.30023    224.96688     36976.26 
  986500    289.08448   -1522.6669    488.22651    270.18234    330.17179     36976.26 
  986600    292.99491   -1508.3446    493.97691    307.90259    465.37387     36976.26 
  986700    310.28519   -1499.5526    495.78735    396.53525   -110.75336     36976.26 
  986800    302.08427   -1470.2673    471.71739     364.7402   -18.295463     36976.26 
  986900    301.94662   -1480.3735    515.15787    397.45325    297.06098     36976.26 
  987000    301.81933   -1481.8027    493.48848    373.78022    251.84253     36976.26 
  987100    306.31747   -1501.6575    505.14749    385.88432   -85.616211     36976.26 
  987200     296.0428   -1514.4078    503.05104    324.66851   -453.61689     36976.26 
  987300     297.4607   -1499.5258    480.72474    323.62313   -97.161165     36976.26 
  987400    296.30095   -1501.4573    492.64748    328.38053   -256.70656     36976.26 
  987500    296.81773   -1475.2931    515.32031    379.54971   -414.36871     36976.26 
  987600    296.16264   -1502.2357    498.85669     333.1871   -68.019468     36976.26 
  987700    303.77602   -1526.7589    510.29093    354.45697   -116.91127     36976.26 
  987800    304.44647   -1549.8244    481.64486    305.77108    132.01861     36976.26 
  987900    302.01169    -1501.424    490.40963    351.94817    338.41876     36976.26 
  988000     303.5826   -1510.2394    516.10293    375.91551    309.36969     36976.26 
  988100    294.01373   -1490.8966    493.68497    329.65655    146.77567     36976.26 
  988200    305.54339   -1509.5529    472.49451    341.84255    103.02932     36976.26 
  988300    302.15501   -1556.9663    490.88141    297.52446     486.2105     36976.26 
  988400    298.14716   -1516.2755    501.04562    330.29225    305.88161     36976.26 
  988500    311.89389   -1485.7254    514.01726    435.85225    65.438523     36976.26 
  988600      302.321   -1444.6282    496.40657    416.13683    279.49702     36976.26 
  988700    296.55872   -1465.2989     518.8948    391.94952    66.954042     36976.26 
  988800    294.18231   -1477.3904    481.61257    331.85117   -123.45609     36976.26 
  988900    303.30092   -1473.4614    496.06428    391.38372   -228.88755     36976.26 
  989000    308.70294   -1453.8975    499.74344    439.00575   -253.18639     36976.26 
  989100    309.91446   -1470.7839    485.39488    413.23837   -453.37091     36976.26 
  989200    292.90452   -1485.3333    471.01683    307.54593   -504.29031     36976.26 
  989300    302.98868   -1497.5535    489.88758    359.70576   -611.53147     36976.26 
  989400    303.38581   -1499.2316    514.20695    384.13922   -603.50387     36976.26 
  989500    300.95983    -1514.576     506.1985    349.83807   -548.83744     36976.26 
  989600    295.05438   -1469.6211    502.26297    364.20649     186.1424     36976.26 
  989700    304.79609    -1475.269    502.83135    403.09076    139.49869     36976.26 
  989800    304.88799   -1504.5503    500.63092    372.02376   -42.071583     36976.26 
  989900    293.58817   -1529.4838    502.80036    298.26425   -161.14076     36976.26 
  990000    299.77846   -1548.1363    502.91971    307.66751   -806.31591     36976.26 
  990100    295.34301   -1521.1423    500.93797    312.66284   -800.68279     36976.26 
  990200    304.89327   -1472.4263    491.31815    394.85888   -647.93469     36976.26 
  990300    286.95027   -1485.2534    507.98446    317.72229   -505.60477     36976.26 
  990400    289.64913   -1513.9512    519.82464    313.04442     553.4094     36976.26 
  990500    295.69648   -1527.1184    505.08501    312.42894   -86.496188     36976.26 
  990600    306.85183   -1497.9221    492.97121    379.85495   -272.40296     36976.26 
  990700    306.53647   -1505.0088    499.94402    378.31789    417.90751     36976.26 
  990800    309.84743   -1515.5897    482.67253    365.40766     876.6386     36976.26 
  990900    293.42754   -1492.3099    502.03832    333.95122    323.15135     36976.26 
  991000    299.52803   -1543.8734    498.15544    306.03595     69.06915     36976.26 
  991100    308.17246   -1521.0277    490.20941    359.94751    36.185345     36976.26 
  991200    295.93377   -1551.3056    476.20426    260.43189   -89.981442     36976.26 
  991300    302.52579    -1549.293    495.48626    311.47596     78.06489     36976.26 
  991400    294.39264    -1549.168    490.90828    270.31847   -208.11085     36976.26 
  991500    305.45719   -1551.0653     503.5293    330.97589   -701.85761     36976.26 
  991600     310.7976   -1544.2074    488.34277    346.74833   -44.067655     36976.26 
  991700    300.97606    -1572.224    453.92141    239.98621   -77.519739     36976.26 
  991800    305.40355   -1564.8262    473.43317    286.87686     47.10212     36976.26 
  991900    291.98874   -1533.7851    479.09323    263.03763     60.28539     36976.26 
  992000    298.69774   -1521.4224    481.55409    308.13864    104.45005     36976.26 
  992100     306.9227   -1559.7414    493.88924    319.27357    106.82368     36976.26 
  992200    294.72139   -1494.7084    484.94479    320.29821   -181.94212     36976.26 
  992300    298.89902   -1508.5915    517.75058    358.07432   -274.13185     36976.26 
  992400    304.56616   -1502.7904    498.02774     369.7281   -470.47152     36976.26 
  992500      299.784   -1549.4063    491.46307    294.96586   -678.57911     36976.26 
  992600    294.21998     -1523.65    508.57576    312.72478   -458.90564     36976.26 
  992700    303.10528   -1483.7023    498.14818    382.34374   -299.82556     36976.26 
  992800    301.13358   -1470.2048    490.96199    379.75689   -486.13519     36976.26 
  992900    298.43377    -1477.252    539.38373    408.94732   -755.72524     36976.26 
  993000    298.92513   -1500.2106    482.60683     331.4293    -349.1907     36976.26 
  993100    292.16856    -1466.162    485.49096    337.86996   -195.83484     36976.26 
  993200    305.01062   -1451.4162    507.38517    432.46552    11.902517     36976.26 
  993300    300.06693   -1494.7876    518.61906    378.01744    -357.1477     36976.26 
  993400    297.69662    -1481.431    473.64657    335.70441    -833.5682     36976.26 
  993500    303.28116   -1470.3165    514.84304    413.21813   -922.95828     36976.26 
  993600    299.90505   -1493.6622    480.96516    340.75841   -606.81164     36976.26 
  993700    306.11452   -1450.9456    495.61143    426.14432    -510.5197     36976.26 
  993800    299.85273   -1458.2318    514.85606    409.84361   -250.04252     36976.26 
  993900    292.62776   -1517.1763     505.5015    308.93857    25.796814     36976.26 
  994000    300.38179   -1525.4386    509.29565    339.46397    729.76085     36976.26 
  994100    288.85905   -1491.1958    508.31104    320.72071    -43.94558     36976.26 
  994200    293.55075   -1441.7805    505.61764    388.61592   -119.84599     36976.26 
  994300    307.08856   -1490.0365     522.6491    418.48687    142.34961     36976.26 
  994400    290.69761   -1472.1772    511.10995    350.83543   -48.563863     36976.26 
  994500    298.57442   -1446.4841    518.60197    419.56822     344.9181     36976.26 
  994600    285.63303   -1467.4644    519.58158    341.16371    422.42424     36976.26 
  994700    309.20097   -1480.2718    509.17202    424.30763     475.4759     36976.26 
  994800    298.15889   -1476.3596    506.58168    375.79711    575.16803     36976.26 
  994900    302.94151   -1481.1538    481.72937    367.73438   -115.37587     36976.26 
  995000    306.37802   -1479.8169     502.1415    404.99215   -84.030402     36976.26 
  995100    310.75856     -1487.57    491.09463    405.96135   -149.80235     36976.26 
  995200     303.1591   -1447.2945    489.21728    410.06357    78.691777     36976.26 
  995300    300.04886   -1462.0881     526.6714    418.68774   -479.83128     36976.26 
  995400     318.0927    -1510.149    482.80097    408.18725   -23.870953     36976.26 
  995500     299.1097   -1470.2079    506.70621    386.36438   -108.49547     36976.26 
  995600    299.04812     -1457.76    496.19934    388.02748    61.831544     36976.26 
  995700    295.35977   -1487.1273    486.14915    331.96467    -76.03913     36976.26 
  995800    305.26993   -1499.4057    469.07568    347.33681   -706.54503     36976.26 
  995900     306.5007   -1480.2176    503.90534    406.90899   -243.91789     36976.26 
  996000    310.15594   -1504.1531    501.59302    397.15703   -110.29725     36976.26 
  996100    283.94603   -1494.0493    514.74133    302.12523    196.08533     36976.26 
  996200    305.74906   -1524.0105     488.6887    344.50732   -241.41171     36976.26 
  996300    291.03933   -1511.1304    504.82185    307.13638    88.192719     36976.26 
  996400    292.35176     -1502.73    514.49005    331.12793   -67.448774     36976.26 
  996500    304.51106   -1470.7833    509.61506    413.07381   -501.47318     36976.26 
  996600    292.73834   -1509.2909    494.01297    305.83456    29.492348     36976.26 
  996700    298.80881   -1497.4265     533.1724    384.25407    167.49158     36976.26 
  996800    292.67311   -1471.2218    504.48895    354.08519   -111.62357     36976.26 
  996900    292.85219   -1493.1628     519.2683    347.73176    220.75553     36976.26 
  997000    299.15763   -1509.6066    506.59021    347.06594      435.275     36976.26 
  997100    293.29663   -1541.8895    489.83944    271.58193    107.88106     36976.26 
  997200    300.80373   -1489.5054    535.35614    403.36187    808.12638     36976.26 
  997300    303.06353   -1466.1119    517.25946    418.85702    672.58457     36976.26 
  997400    302.90667    -1454.939    507.13723    419.19974     971.2281     36976.26 
  997500    303.36733   -1494.0018    494.18825    369.26692    519.11269     36976.26 
  997600    297.21446   -1476.6058    494.22079    358.92789    297.52949     36976.26 
  997700    306.26283    -1517.737    479.45685    343.86759    1.9852058     36976.26 
  997800    292.69598   -1523.1967    526.32205    324.04662    265.11669     36976.26 
  997900    315.29889   -1532.8564    488.31714    378.38775   -536.42044     36976.26 
  998000    298.30028   -1500.3712    484.00961    329.85158    15.902918     36976.26 
  998100    296.87072   -1504.2914    528.71319    364.18339   -25.382277     36976.26 
  998200    304.66227   -1530.3303    489.62495    334.21916    290.44338     36976.26 
  998300    303.73993   -1546.1134    507.34059    331.98925   -281.33016     36976.26 
  998400    301.04834   -1545.6204     510.4954    323.49009    498.65703     36976.26 
  998500    309.26266     -1549.39    474.85549    321.15126      474.577     36976.26 
  998600    299.26065   -1554.7223     502.6383    298.46323   -91.852003     36976.26 
  998700    292.99516   -1548.4325    510.86171    284.70064    -152.8812     36976.26 
  998800    295.08768   -1525.9816    495.55831    301.29157   -223.83884     36976.26 
  998900    297.37171   -1550.1822    517.01976    308.86014    451.99506     36976.26 
  999000    302.40511   -1533.5907    548.62298    379.77037    388.53613     36976.26 
  999100    303.78959   -1537.6281    481.35837    314.71636    834.08811     36976.26 
  999200    307.10736   -1538.5882     535.7486    383.11944    789.73298     36976.26 
  999300     294.0854   -1475.2723    503.74327    355.66266    596.96528     36976.26 
  999400    293.61339   -1444.9417    512.64977    392.76955    35.823864     36976.26 
  999500    307.65132   -1503.7029    493.95212    378.66313    250.85377     36976.26 
  999600    311.42548    -1469.237     511.2885      447.498    208.25039     36976.26 
  999700    299.76021   -1478.8755    515.29498    389.22126    21.290522     36976.26 
  999800    295.84234   -1455.7789    510.58866    389.93042   -424.97722     36976.26 
  999900    304.51269   -1508.4572    501.34222    367.13449   -723.02353     36976.26 
 1000000    293.66996   -1540.1112      510.056    295.26159   -539.43563     36976.26 
 1000100    308.56247    -1533.269    498.07386    357.33074   -700.70894     36976.26 
 1000200    307.65813   -1514.3376    513.44569    387.55276   -255.15295     36976.26 
 1000300    297.06323   -1505.4771    508.42879    343.58211   -47.669595     36976.26 
 1000400    306.17512   -1538.7371    494.46758    337.48242   -207.90718     36976.26 
 1000500    302.48981   -1510.3769    505.96742    360.71083    743.72065     36976.26 
 1000600    306.13028   -1526.3662    514.99462    370.17796    58.483889     36976.26 
 1000700    304.38247   -1530.5817    489.58576    332.66588    267.46905     36976.26 
 1000800    291.29048    -1535.036    477.71704    257.25934   -165.29773     36976.26 
 1000900     289.7494   -1502.9525    515.60272    320.27373   -160.58747     36976.26 
 1001000    297.64506   -1561.5134    505.77944    287.52227   -368.92386     36976.26 
 1001100     307.4157   -1499.5802    509.22485    396.99522   -309.69394     36976.26 
 1001200    297.15833   -1532.0483    513.45366      322.465   -53.672044     36976.26 
 1001300    293.56145   -1483.3744    491.70087    333.15351   -605.21012     36976.26 
 1001400    303.37984   -1509.5072    508.15959    367.78937   -294.86465     36976.26 
 1001500    294.87372   -1540.3926     511.7744    302.13109   -331.62289     36976.26 
 1001600    293.83112   -1538.7997     511.9591    299.20348    16.065312     36976.26 
 1001700    297.34367   -1577.4293     509.5586    274.02538    543.23491     36976.26 
 1001800    298.07261   -1566.5018    506.28378    284.96764    348.20348     36976.26 
 1001900    301.02341   -1536.2084     500.6612    322.95535    864.00442     36976.26 
 1002000    310.33544   -1548.0588    507.71659    360.18498     487.1716     36976.26 
 1002100    301.85335   -1532.5516    503.93283    333.62922     298.5097     36976.26 
 1002200    298.34401   -1516.3295    489.48663     319.5677    119.86835     36976.26 
 1002300    303.77308   -1530.2287    502.12315    342.80609   -40.020879     36976.26 
 1002400     308.6789    -1520.403    503.82936    376.47775   -743.77143     36976.26 
 1002500    294.39975   -1534.9845    495.86971    289.49555   -97.384406     36976.26 
 1002600     307.6255   -1544.5164    504.28252     348.0635   -106.93494     36976.26 
 1002700    302.14649   -1564.8577    475.08388    273.79705   -233.88406     36976.26 
 1002800    308.87919   -1514.6908    510.75164    390.01613   -242.09947     36976.26 
 1002900    313.48217   -1504.4527     501.6296    411.90514      114.436     36976.26 
 1003000    306.95043    -1561.966    503.17581    326.46068   -192.01778     36976.26 
 1003100    297.99463   -1557.3181    481.68574    269.20145   -119.98996     36976.26 
 1003200    294.02663   -1582.9633    500.08033    244.04343     279.9476     36976.26 
 1003300    294.78723   -1524.0829    488.19507    294.47112   -403.52034     36976.26 
 1003400    302.60872   -1531.4962    515.75525    349.91599   -109.14673     36976.26 
 1003500     308.0358   -1536.9887    487.72807    340.88839   -294.23908     36976.26 
 1003600    298.24796    -1528.797    499.20564    316.38569   -456.31386     36976.26 
 1003700    294.88608   -1490.8594    496.00192    335.94759   -371.49625     36976.26 
 1003800     302.6295   -1481.3104    521.63801    406.07833   -123.83012     36976.26 
 1003900    288.37619   -1505.3314    528.16238    324.25726    517.19479     36976.26 
 1004000    299.50034   -1532.2066    529.81411    349.23645    575.06187     36976.26 
 1004100    307.45273   -1533.0056    510.09869     364.6108    84.450229     36976.26 
 1004200    297.08924   -1492.3533    519.61311    368.00765    346.81909     36976.26 
 1004300    300.81756   -1543.1562    513.60233    328.01966   -363.96166     36976.26 
 1004400    301.00319   -1537.5647    517.77003    338.61664    191.75644     36976.26 
 1004500    294.58051   -1586.9783    476.37242    218.82022   -139.85237     36976.26 
 1004600    292.51034   -1526.1414    505.34941    299.29149   -292.28686     36976.26 
 1004700    304.03138   -1599.1709    495.44618    268.35266   -103.06478     36976.26 
 1004800    284.70314   -1541.7131    510.19743    253.33437    447.63624     36976.26 
 1004900    306.90081   -1553.1287    498.98111    330.87938    260.06707     36976.26 
 1005000    300.35485   -1547.5077    474.35348    282.33116   -316.14278     36976.26 
 1005100     304.1814   -1543.2309    515.65602    345.17944    489.14823     36976.26 
 1005181    306.10793   -1568.9378    508.31195    320.82288    305.99505     36976.26 
Loop time of 599.688 on 32 procs for 1000000 steps with 1515 atoms

Performance: 144.075 ns/day, 0.167 hours/ns, 1667.532 timesteps/s
100.0% CPU use with 32 MPI tasks x no OpenMP threads

MPI task timing breakdown:
Section |  min time  |  avg time  |  max time  |%varavg| %total
---------------------------------------------------------------
Pair    | 242.19     | 276.32     | 300.81     |  89.5 | 46.08
Bond    | 1.3955     | 1.5703     | 1.7045     |   5.2 |  0.26
Neigh   | 38.776     | 38.859     | 38.94      |   0.9 |  6.48
Comm    | 245.93     | 270.21     | 304.28     |  89.5 | 45.06
Output  | 0.39393    | 0.41147    | 0.89364    |  13.5 |  0.07
Modify  | 8.7293     | 9.13       | 9.4425     |   7.6 |  1.52
Other   |            | 3.186      |            |       |  0.53

Nlocal:        47.3438 ave          75 max          19 min
Histogram: 4 1 1 4 3 8 4 1 5 1
Nghost:        2009.09 ave        2036 max        1968 min
Histogram: 1 4 0 3 3 4 2 5 5 5
Neighs:        5344.16 ave        9585 max        1435 min
Histogram: 5 0 2 6 4 6 2 2 3 2

Total # of neighbors = 171013
Ave neighs/atom = 112.87987
Ave special neighs/atom = 2.0303630
Neighbor list builds = 49594
Dangerous builds = 0

# Output the system volume
variable v equal vol
print 'The system volume is $v'
The system volume is 36976.2597275424

# Outputs
variable A equal xhi-xlo
variable B equal yhi-ylo
variable C equal zhi-zlo
variable D equal xy
variable E equal xz
variable F equal yz
print 'Lattice vectors'
Lattice vectors
print '$A 0 0'
33.3150901579029 0 0
print '$D $B 0'
0 33.3150901579029 0
print '$E $F $C'
0 0 33.3150901579029
Total wall time: 0:10:04
