LAMMPS (29 Sep 2021 - Update 1)
# Test LAMMPS input file for single DeFDe

# Initialize simulation

clear

units real
atom_style full
boundary p p p
dielectric 1
special_bonds dreiding

bond_style harmonic
angle_style harmonic
dihedral_style harmonic
improper_style umbrella
pair_style hybrid/overlay hbond/dreiding/lj 4 9.0 11.0 90 lj/cut 8.50000

# Read data file
read_data frag5.dat
Reading data file ...
  triclinic box = (0.0000000 0.0000000 0.0000000) to (15.000000 15.000000 15.000000) with tilt (0.0000000 0.0000000 0.0000000)
  2 by 4 by 4 MPI processor grid
  reading atoms ...
  1502 atoms
  scanning bonds ...
  1 = max bonds/atom
  scanning angles ...
  1 = max angles/atom
  reading bonds ...
  1001 bonds
  reading angles ...
  500 angles
Finding 1-2 1-3 1-4 neighbors ...
  special bond factors lj:    0        0        1       
  special bond factors coul:  0        0        1       
     2 = max # of 1-2 neighbors
     1 = max # of 1-3 neighbors
     2 = max # of special neighbors
  special bonds CPU = 0.002 seconds
  read_data CPU = 0.017 seconds

# Dreiding potential information

bond_coeff 1 350 1.68
bond_coeff 2 350 0.98

angle_coeff 1 50 104.51


improper_coeff 1 40 0

pair_coeff 1 1 lj/cut 0.51 4.15
pair_coeff 1 2 lj/cut 0.0880454428122206 3.64132530818108
pair_coeff 1 3 lj/cut 0.00714142842854285 3.64018543483708
pair_coeff 1 4 lj/cut 0.220923063531176 3.7588681807161
pair_coeff 2 2 lj/cut 0.0152 3.195
pair_coeff 2 3 lj/cut 0.0012328828005938 3.19399984345648
pair_coeff 2 4 lj/cut 0.0381397430510485 3.29813538230316
pair_coeff 3 3 lj/cut 1e-04 3.193
pair_coeff 3 4 lj/cut 0.0030935416596516 3.29710294046152
pair_coeff 4 4 lj/cut 0.0957 3.4046
pair_coeff 4 4 hbond/dreiding/lj 3 j 9.50 2.75 4 9.0 11.0 90

neighbor 2 bin
neigh_modify every 2 one 10000

# Gemoetric relaxation
fix 1 all box/relax iso 1.0 vmax 0.001
minimize 1.0e-4 1.0e-6 10000 10000
WARNING: Using 'neigh_modify every 1 delay 0 check yes' setting during minimization (../min.cpp:188)
Neighbor list info ...
  update every 1 steps, delay 0 steps, check yes
  max neighbors/atom: 10000, page size: 100000
  master list distance cutoff = 13
  ghost atom cutoff = 13
  binsize = 6.5, bins = 3 3 3
  3 neighbor lists, perpetual/occasional/extra = 3 0 0
  (1) pair hbond/dreiding/lj, perpetual, skip from (3)
      attributes: full, newton on
      pair build: skip
      stencil: none
      bin: none
  (2) pair lj/cut, perpetual, half/full from (3)
      attributes: half, newton on
      pair build: halffull/newton
      stencil: none
      bin: none
  (3) neighbor class addition, perpetual
      attributes: full, newton on
      pair build: full/bin
      stencil: full/bin/3d
      bin: standard
Per MPI rank memory allocation (min/avg/max) = 9.211 | 9.507 | 9.893 Mbytes
Step Temp E_pair E_mol TotEng Press Volume 
       0            0 1.4245958e+18    185.47775 1.4245958e+18 1.1577159e+20         3375 
    5414            0   -983.40587    17.453637   -965.95223    98.328559    39062.633 
Loop time of 4.77353 on 32 procs for 5414 steps with 1502 atoms

100.0% CPU use with 32 MPI tasks x no OpenMP threads

Minimization stats:
  Stopping criterion = energy tolerance
  Energy initial, next-to-last, final = 
    1.42459580293419e+18  -965.344866785123  -965.431766275183
  Force two-norm initial, final = 3.3924730e+20 103.55619
  Force max component initial, final = 2.2566652e+20 73.536514
  Final line search alpha, max atom move = 1.4699922e-05 0.0010809811
  Iterations, force evaluations = 5414 5419

MPI task timing breakdown:
Section |  min time  |  avg time  |  max time  |%varavg| %total
---------------------------------------------------------------
Pair    | 1.1399     | 2.5052     | 3.9661     |  47.6 | 52.48
Bond    | 0.0064948  | 0.010759   | 0.015959   |   2.4 |  0.23
Neigh   | 0.1004     | 0.10073    | 0.10095    |   0.1 |  2.11
Comm    | 0.34993    | 1.8129     | 3.177      |  56.0 | 37.98
Output  | 0          | 0          | 0          |   0.0 |  0.00
Modify  | 0          | 0          | 0          |   0.0 |  0.00
Other   |            | 0.3439     |            |       |  7.20

Nlocal:        46.9375 ave          67 max          24 min
Histogram: 2 3 2 4 1 5 6 4 2 3
Nghost:        1899.84 ave        1935 max        1868 min
Histogram: 3 4 4 2 5 2 1 8 1 2
Neighs:        4777.81 ave        7200 max        1834 min
Histogram: 1 2 2 6 2 4 8 1 1 5

Total # of neighbors = 152890
Ave neighs/atom = 101.79095
Ave special neighs/atom = 1.9986684
Neighbor list builds = 100
Dangerous builds = 0

# MD simulation
velocity all create 300.0 12345 rot yes dist gaussian
timestep 1.0
fix 2 all nvt temp 300.0 300.0 1

# Compute interaction energy
group WAT molecule <> 2 501
1500 atoms in group WAT
group MOL molecule 1
2 atoms in group MOL

compute w WAT group/group MOL pair yes
fix 3 all ave/time 10 5 100 c_w file outa

# Outputs
thermo 100 # Output thermodynamic data every nth step
#dump mf1 all xyz 10000 mol_*.xyz

# Run
run 1000000
Neighbor list info ...
  update every 2 steps, delay 10 steps, check yes
  max neighbors/atom: 10000, page size: 100000
  master list distance cutoff = 13
  ghost atom cutoff = 13
  binsize = 6.5, bins = 6 6 6
  4 neighbor lists, perpetual/occasional/extra = 3 1 0
  (1) pair hbond/dreiding/lj, perpetual, skip from (4)
      attributes: full, newton on
      pair build: skip
      stencil: none
      bin: none
  (2) pair lj/cut, perpetual, half/full from (4)
      attributes: half, newton on
      pair build: halffull/newton
      stencil: none
      bin: none
  (3) compute group/group, occasional, copy from (2)
      attributes: half, newton on
      pair build: copy
      stencil: none
      bin: none
  (4) neighbor class addition, perpetual
      attributes: full, newton on
      pair build: full/bin
      stencil: full/bin/3d
      bin: standard
Per MPI rank memory allocation (min/avg/max) = 8.060 | 8.098 | 8.359 Mbytes
Step Temp E_pair E_mol TotEng Press Volume 
    5414          300   -983.40587    17.453637    376.30653    1669.0804    39062.633 
    5500    291.60763   -1082.0886    195.70568    418.32677   -266.73694    39062.633 
    5600     315.0243   -1102.0102    155.74547     463.2157    81.247105    39062.633 
    5700    296.13056   -1114.9423    174.30686    384.31064   -95.065762    39062.633 
    5800      298.341   -1087.3886    173.98015    421.42765   -417.78778    39062.633 
    5900    301.96084   -1077.4059    177.78516    451.41119   -464.73988    39062.633 
    6000    303.23031   -1071.2469    175.44104    460.90593   -45.305823    39062.633 
    6100    302.07576    -1074.805    172.22792     448.9691   -50.874308    39062.633 
    6200    296.08706   -1083.1508    172.75365    414.35439    69.685577    39062.633 
    6300    298.30003    -1130.501    193.35682    397.50863    490.68475    39062.633 
    6400    298.28219   -1096.7054    185.88295    423.75046    547.36533    39062.633 
    6500    299.49837    -1121.573    185.80105    404.24242    360.60567    39062.633 
    6600     295.1291   -1070.2924    199.79827    449.97129    489.73741    39062.633 
    6700    303.28461   -1107.2841    183.30204    432.97273   -48.852391    39062.633 
    6800    300.86486   -1086.9498     195.4774    454.65591    474.07485    39062.633 
    6900    294.99188   -1101.7617    183.70237    401.79213    525.55892    39062.633 
    7000    291.14669   -1085.2317    208.05261    425.46823    636.32855    39062.633 
    7100     310.5638   -1081.4392    207.68639    515.77049    709.26557    39062.633 
    7200    296.28295   -1070.8672    203.10575    457.86653    666.39437    39062.633 
    7300    312.49788   -1083.3735    208.23886     523.0421    1247.7036    39062.633 
    7400     281.9235   -1091.6643    208.15744    377.87412    761.56141    39062.633 
    7500    290.03343   -1073.5858    204.57203    428.65254    721.30085    39062.633 
    7600    292.22559    -1109.939    208.63466    406.17018    762.61229    39062.633 
    7700    308.96773   -1094.8472    196.41302      483.948    366.23905    39062.633 
    7800     296.6159   -1067.7295    207.01377    466.40187    389.14831    39062.633 
    7900    300.14609    -1054.046    225.10397    513.97031     535.6387    39062.633 
    8000    299.56224   -1078.4557    212.95354    474.79803    730.29341    39062.633 
    8100    305.27939   -1081.1646    208.30669    493.02192    503.92603    39062.633 
    8200    310.74512   -1151.5673     208.7466    447.51378    635.38034    39062.633 
    8300    293.80802   -1115.2988    218.53978    417.79566    686.18173    39062.633 
    8400    304.12458   -1141.3628    197.31921    416.66939    422.16044    39062.633 
    8500    295.07445   -1171.4683    218.95392    367.70649   -60.393605    39062.633 
    8600    293.20381   -1158.9391    215.09085    368.00298    131.42536    39062.633 
    8700    294.84586   -1155.6253    230.99245    394.56524    293.22261    39062.633 
    8800    299.16467   -1178.1379    194.72171    355.10511     645.9824    39062.633 
    8900    292.63208   -1159.0994    209.21307     359.4069    200.93152    39062.633 
    9000    301.72723   -1112.5472    221.95237     459.3919    44.764563    39062.633 
    9100    294.09815   -1158.1869    218.40226    376.06812    212.54229    39062.633 
    9200    303.73051   -1193.0027    218.53763    384.48475    126.78482    39062.633 
    9300    299.87612   -1208.8757    210.06318    342.89201     823.3557    39062.633 
    9400    301.61892   -1211.0158    219.64528    358.13163    383.91727    39062.633 
    9500    305.35966   -1157.9043    220.45654    428.79117    158.47828    39062.633 
    9600    295.37882   -1135.2994    203.49667    389.77997    214.41011    39062.633 
    9700    288.85472   -1173.1199    219.56973    338.84243    135.15904    39062.633 
    9800    306.62296   -1158.8956     231.4067    444.40231     367.7573    39062.633 
    9900    295.96803   -1157.7479    217.19182    383.66284    241.97232    39062.633 
   10000    299.91481   -1126.9024    232.61031    447.58549    286.91746    39062.633 
   10100    292.33437   -1099.7071    226.50813    434.76225   -202.24672    39062.633 
   10200    291.80961   -1113.4225    233.42076    425.61164   -6.6480723    39062.633 
   10300    296.62155   -1151.0762    217.40942    393.47615   -52.818321    39062.633 
   10400    309.20919   -1139.2527    223.88891    468.09875     137.7852    39062.633 
   10500    290.99996   -1137.7326    222.81586    387.07407   -6.3267814    39062.633 
   10600    304.42051   -1157.8265     228.6977    432.90821    161.06533    39062.633 
   10700    280.67032   -1188.0465    225.92156    293.64909    364.47196    39062.633 
   10800    304.16361   -1164.2315    239.77687    436.43293    615.74297    39062.633 
   10900     300.2672   -1145.4272    238.91465    436.94168    613.67281    39062.633 
   11000    308.03417   -1150.9578    235.68127    462.92868    610.29309    39062.633 
   11100    296.44584   -1129.7218    243.00811    439.64309    812.53509    39062.633 
   11200    292.28852   -1120.3963     237.4577    424.81749    59.787705    39062.633 
   11300    301.48562   -1160.1198    227.75833    416.54429    388.79684    39062.633 
   11400    294.98577   -1166.2801    233.55684    387.10085    238.77257    39062.633 
   11500    301.11436   -1155.2597    240.30563    432.29056    323.93532    39062.633 
   11600     289.6293   -1206.0935     219.8504    309.61512    337.72775    39062.633 
   11700    304.51155   -1137.1185    226.60479    451.93057    258.54313    39062.633 
   11800    300.41596   -1132.4194    243.05177    454.75226    275.32813    39062.633 
   11900    302.92524   -1136.1538    229.24925    448.44229    155.00305    39062.633 
   12000     289.2853   -1119.7196    244.00706    418.60651    151.19929    39062.633 
   12100    305.54909   -1151.6194    238.40692    453.87403    156.40181    39062.633 
   12200    306.65463   -1188.8636    243.69982    426.86909    168.41779    39062.633 
   12300    298.00812   -1171.2009    241.33801    403.48382    270.26624    39062.633 
   12400    309.16842   -1205.7856    232.22291     409.7174    430.16912    39062.633 
   12500    290.25846   -1159.5294    243.49267    382.63643   -130.53895    39062.633 
   12600    293.41663   -1168.7253    247.87338     391.9515    374.04441    39062.633 
   12700    285.91513    -1145.765    249.71658    383.19194      105.836    39062.633 
   12800    293.78576   -1165.8229    239.05524    387.68738    191.87708    39062.633 
   12900    287.24032   -1154.8024    242.51227    372.87936    532.53864    39062.633 
   13000    293.30687   -1137.2575    250.96482    426.01968    369.69882    39062.633 
   13100    307.27609   -1136.7993    252.16076    490.17493    390.02081    39062.633 
   13200    289.14331   -1149.3344    244.89282    389.24222    671.94338    39062.633 
   13300    291.25804   -1123.2737    250.93564    430.80747    209.20119    39062.633 
   13400    298.75597   -1172.3452    247.01272    411.36031    314.94603    39062.633 
   13500    307.14638   -1133.7466    248.62822    489.11467    473.24327    39062.633 
   13600    301.33087   -1129.0788    247.82961     466.9642    69.405466    39062.633 
   13700    297.96165   -1161.7047    267.04971    438.48377   -65.133133    39062.633 
   13800    292.68511   -1166.3777    254.84613    397.99892     440.3362    39062.633 
   13900    298.23812   -1121.6239    256.09243    468.84434    450.23614    39062.633 
   14000    289.42923   -1170.9712    242.79884    366.79067    263.52091    39062.633 
   14100    310.38102     -1180.78    245.00233    452.92781    17.478105    39062.633 
   14200    306.92921   -1123.0933    260.05079    510.21887    569.56619    39062.633 
   14300    296.59986    -1142.401    257.27191    441.91675      170.685    39062.633 
   14400    302.99007   -1120.6636    245.79832    480.77163    285.39269    39062.633 
   14500     297.5365   -1149.0086    261.76163    443.98964   -49.116672    39062.633 
   14600    310.18037   -1134.5144    253.82712    507.12045    689.49178    39062.633 
   14700    307.25369   -1146.1818    271.72308    500.25447    730.27111    39062.633 
   14800    301.19578   -1166.9997    259.31786    439.92708     598.3089    39062.633 
   14900     297.7731   -1102.1084    276.49661     506.6834    336.49366    39062.633 
   15000    292.26783   -1133.2595    280.47806    454.88211    53.722401    39062.633 
   15100     298.6986   -1114.2109    248.40076    470.62588    427.80182    39062.633 
   15200     288.2669   -1136.2145    267.94139    421.48942    562.20812    39062.633 
   15300    300.26292   -1095.9984    266.21637    513.65314    63.300736    39062.633 
   15400    292.75426   -1054.0935    252.79409     508.5405    160.48671    39062.633 
   15500    295.14826   -1063.1081    264.35407    521.79716    442.57211    39062.633 
   15600    286.83341   -1111.7067    270.27088    441.91306    223.70247    39062.633 
   15700    286.72459   -1144.6891    270.03806     408.2109    168.84116    39062.633 
   15800    295.07782   -1116.0775    267.21842    471.37691    190.21178    39062.633 
   15900    300.46486   -1145.9979    249.27109    447.61183    345.34083    39062.633 
   16000    306.57094   -1151.3885    272.43004    492.69994    354.47004    39062.633 
   16100    301.47076   -1176.4887     251.9663    424.31685    68.649636    39062.633 
   16200    302.89529   -1121.2986    274.03034    507.94463   -76.142323    39062.633 
   16300    299.87713   -1134.3446    261.89569    469.26012     117.7036    39062.633 
   16400     304.5579   -1157.0504    269.72572    475.32701    343.41737    39062.633 
   16500    303.68691   -1139.8269     259.4335    478.36129    463.30547    39062.633 
   16600    290.77106   -1126.2631    263.84698    438.55055    557.29213    39062.633 
   16700    298.96218    -1123.448    286.19406    500.36141    736.09962    39062.633 
   16800    297.29496   -1167.0181    258.39251    421.53028    211.50353    39062.633 
   16900    300.59554   -1158.1345    272.61123    459.40005     155.6906    39062.633 
   17000    294.94153   -1164.3474      275.829    431.10783    303.51262    39062.633 
   17100    299.46841   -1125.9302    258.77397    472.72405    608.15957    39062.633 
   17200    301.90422   -1179.1256    273.88005    445.53305    306.26529    39062.633 
   17300    293.86652   -1197.7812    262.51066    379.54582      98.3436    39062.633 
   17400    295.49493   -1176.2129    274.58636     420.4756    214.81873    39062.633 
   17500      303.167   -1165.1518    284.69888    475.97564     43.67562    39062.633 
   17600    299.86047   -1166.3713    260.64791    435.91108    111.68311    39062.633 
   17700    310.77644   -1198.5898     268.1301    460.01495    403.30438    39062.633 
   17800     298.1072   -1156.6368    282.28091    459.43411    28.988072    39062.633 
   17900    299.92255   -1230.0245    261.67843     373.5662      366.631    39062.633 
   18000    299.01984   -1205.3632     271.6069    404.11706    306.20685    39062.633 
   18100    305.62855   -1200.3125    277.64863    444.77814    9.0408475    39062.633 
   18200    307.58355    -1207.022    269.93076    439.09778    406.23991    39062.633 
   18300    291.21573   -1205.7139     273.4376    370.67996    295.86527    39062.633 
   18400    303.14004   -1215.1438    285.84038    427.00451    261.18075    39062.633 
   18500    298.53407   -1180.6567    277.60194    432.64518   -36.313271    39062.633 
   18600    298.39018   -1232.7898    268.40313    370.66948   -92.866319    39062.633 
   18700     301.7042   -1216.9987    273.14515    406.03016     332.7176    39062.633 
   18800    295.31182   -1214.7198    269.77202    376.33521    239.72961    39062.633 
   18900    304.11703   -1221.1535    266.26122    405.78693    165.59109    39062.633 
   19000     305.7603    -1205.465    272.36321     434.9297    346.09885    39062.633 
   19100    295.02169   -1184.0581    287.54156    423.46824    -58.31257    39062.633 
   19200    291.08336   -1174.6474      260.909    388.62562    130.63014    39062.633 
   19300    307.55213   -1225.9642    269.30995    419.39423    492.95995    39062.633 
   19400    291.76151   -1229.8263    274.73935    350.31119    714.26296    39062.633 
   19500    297.72262   -1171.4209    277.98437    438.63277    652.23216    39062.633 
   19600    299.45688     -1180.03    283.50627    443.30498    904.63418    39062.633 
   19700    295.36388    -1197.763      273.354    397.10681     695.0194    39062.633 
   19800     293.8194   -1180.1744    278.28007    412.71121    39.685141    39062.633 
   19900    293.53219   -1173.8965    285.90612    425.33015    538.14195    39062.633 
   20000    293.73317   -1213.9853    265.68926    365.92372   -107.96334    39062.633 
   20100    305.28745   -1190.9852    275.74422    450.67486    383.77139    39062.633 
   20200    303.58154   -1164.4088    276.05164    469.92617     579.0433    39062.633 
   20300    302.00055   -1193.7881    276.56425    433.98576    587.16672    39062.633 
   20400    297.60496   -1161.8132    289.48356    459.21325    219.88784    39062.633 
   20500    304.56121   -1186.0317    286.60026    463.23502    410.84602    39062.633 
   20600    285.28856    -1173.905     302.2181    404.75001    451.49906    39062.633 
   20700    305.51769     -1174.22    306.81171    499.53767    688.53713    39062.633 
   20800    302.54559   -1185.9051    293.10353    460.84662    545.27055    39062.633 
   20900     303.1267   -1176.1543     296.3397    476.43361    273.26643    39062.633 
   21000    303.75891   -1148.1941    289.90856    500.79134    718.00799    39062.633 
   21100    288.15078   -1212.8362    295.66767    372.07456    369.35762    39062.633 
   21200    301.31544   -1214.8864    283.24873    416.50666       89.466    39062.633 
   21300    299.01362    -1175.425    300.07036    462.49087    50.066466    39062.633 
   21400     284.9967   -1186.3168    300.40484    389.21914    194.29051    39062.633 
   21500    292.20513    -1173.729    284.20332    417.85731    146.23591    39062.633 
   21600    309.07679   -1198.4271    307.09585     491.5389    3.5811959    39062.633 
   21700    299.45424   -1184.7038    303.84535    458.95845    392.97346    39062.633 
   21800    296.77115   -1188.6362    301.28232    440.45836    504.61858    39062.633 
   21900    290.12115   -1228.1524    291.08259    360.98903    552.60704    39062.633 
   22000    289.81433   -1224.2441    292.34918    364.79114    389.77558    39062.633 
   22100    307.91306   -1216.7881    303.04408    463.91938    170.05959    39062.633 
   22200    299.57688   -1223.5649    303.88358    420.68436    297.93004    39062.633 
   22300    287.80765   -1222.1766    298.79707     364.3283      575.551    39062.633 
   22400    297.21196   -1207.0749    298.76744      421.477    77.913732    39062.633 
   22500    301.40442   -1200.1577    278.72489    427.10962   -530.20687    39062.633 
   22600    292.84091   -1195.4239    305.27714    420.08081    252.07164    39062.633 
   22700    304.23922   -1197.8524    288.97497    452.34846    191.76851    39062.633 
   22800     309.7782   -1225.8017    291.68725     451.8939     634.4104    39062.633 
   22900    311.00058   -1221.7576    302.09828    471.81818    521.29402    39062.633 
   23000    308.62866   -1210.4776    328.27706    498.66451    561.96361    39062.633 
   23100     300.1291   -1206.8481    326.79569    462.78399    354.87148    39062.633 
   23200    298.76981   -1204.7419    304.93507    436.94788    519.06255    39062.633 
   23300    305.23589   -1218.1767    302.76875    450.27725     851.9789    39062.633 
   23400    303.65622   -1270.4998    303.05589    391.17345    554.04166    39062.633 
   23500    294.53241   -1230.3559    300.32995    387.76972     245.4136    39062.633 
   23600    298.62377   -1212.8345    311.61038    434.87706    247.75799    39062.633 
   23700    289.06891   -1183.0758    316.89292    427.16802    161.00446    39062.633 
   23800    309.66788   -1197.1022     326.6381    515.05063   -117.85179    39062.633 
   23900    283.57105   -1231.0908    298.96751    336.62919   -357.57238    39062.633 
   24000     302.7925   -1231.2932    301.71748    425.17727   -91.110481    39062.633 
   24100    302.71411   -1211.2654    329.61652    472.75332   -38.633328    39062.633 
   24200    305.54438   -1232.7572    311.76283    446.07103    231.51506    39062.633 
   24300    306.73327   -1240.3695     309.6218    441.63702    426.91937    39062.633 
   24400    298.63985   -1200.8106    334.45156    469.81416    461.56126    39062.633 
   24500    307.56096   -1251.1003    294.80859    419.79627    419.42316    39062.633 
   24600    298.47776   -1219.3445    312.10602    428.20951   -93.775607    39062.633 
   24700    302.10697   -1213.1151    308.71752    447.28818    605.45586    39062.633 
   24800    289.10209   -1233.7147    307.21678    367.00144    760.87625    39062.633 
   24900    291.87612   -1235.4989    323.98359     394.3956    793.64752    39062.633 
   25000    302.35585   -1215.4991    306.15141    443.45164    427.89611    39062.633 
   25100    298.41591   -1179.8486    312.99059    468.31321    526.12403    39062.633 
   25200    303.69015   -1219.1185    303.50514    443.15583    111.57616    39062.633 
   25300    306.64853   -1190.6655    309.20434    490.54441    305.52889    39062.633 
   25400     306.1007   -1207.3471    301.36519     463.5726   -178.09692    39062.633 
   25500    296.39884   -1193.3806     313.2355    446.00135    193.23634    39062.633 
   25600    299.38922   -1167.5779    321.86056    493.80867    152.82673    39062.633 
   25700    292.15117   -1204.6492    304.00501    406.49735    115.45339    39062.633 
   25800    298.10506   -1231.3701    315.24021    417.65057    154.46652    39062.633 
   25900    303.81189   -1241.9116    302.78781    420.19011   -108.64788    39062.633 
   26000    319.93822   -1220.9178    310.78475    521.33319   -189.21083    39062.633 
   26100    300.77115   -1205.2188    317.57981    458.07002   -87.348391    39062.633 
   26200    310.39014   -1219.3947    309.18271     478.5343   -180.23152    39062.633 
   26300    295.10657   -1243.9946     302.7759    379.14588   -300.26185    39062.633 
   26400    295.00381   -1230.8496    325.49446    414.54971   -408.40218    39062.633 
   26500     308.9442    -1206.955    298.53369    473.85557    49.408914    39062.633 
   26600    298.10661   -1274.1959     305.7229    365.31441   -577.11756    39062.633 
   26700    302.52861   -1254.6066    322.85702     421.8227    417.35232    39062.633 
   26800    304.38725   -1267.6206     313.6737    407.94129   -248.90948    39062.633 
   26900    303.01434   -1225.9462    307.22657    437.02589    403.74433    39062.633 
   27000    310.53849   -1239.8182    299.30936     448.9012    185.51687    39062.633 
   27100     301.5924   -1246.8223    300.33627    402.89745    21.119316    39062.633 
   27200    301.34959   -1243.1061    304.65724    409.84819   -239.49044    39062.633 
   27300    292.52494   -1249.4193    318.18457    377.57916    317.87472    39062.633 
   27400    294.36791   -1238.2029    311.08946     389.9463   -113.41761    39062.633 
   27500    299.09276   -1272.3179    301.07587    366.95758    520.94309    39062.633 
   27600    301.16348   -1276.2637    321.99154    393.19224    168.56645    39062.633 
   27700    293.26994   -1247.0618     320.7773    385.86263    1067.6535    39062.633 
   27800    291.35861   -1228.9017    309.76402    384.45784    378.85003    39062.633 
   27900    296.56912   -1207.9648    336.51426    455.45777    989.23703    39062.633 
   28000    304.87094      -1272.2    310.67125    402.52353    343.45523    39062.633 
   28100    289.50487   -1267.2778    323.20788    351.23155    43.004629    39062.633 
   28200    301.96111   -1247.1109     305.4445    409.36678   -21.591373    39062.633 
   28300    311.36992   -1232.5759    346.89322    507.44737     312.9441    39062.633 
   28400    306.46743   -1304.1045    320.05519      387.146    171.27187    39062.633 
   28500    300.61898   -1251.1533    297.74612    391.62098    102.01991    39062.633 
   28600    292.99755   -1261.9332     335.4934    384.48863      598.639    39062.633 
   28700    292.33384    -1271.663    326.74818     363.0441    465.58708    39062.633 
   28800    298.05664   -1257.8909    337.41237    413.08525    627.38163    39062.633 
   28900    289.71697   -1278.0935    346.54848    364.70543    347.55575    39062.633 
   29000    300.85317   -1238.8616     306.6532    413.86763    209.58325    39062.633 
   29100    300.61562    -1205.637    325.90223     465.2784   -495.77575    39062.633 
   29200     302.8513    -1233.457    313.81574    435.37485   -466.17103    39062.633 
   29300    295.35015   -1223.2438    334.24428    432.45484   -136.40871    39062.633 
   29400    305.36856   -1232.6952    324.36471    457.94827   -156.99132    39062.633 
   29500    303.75582   -1224.7297    314.08821    448.42149    176.78607    39062.633 
   29600    303.93167   -1195.0187    321.09447    485.92561   -502.15645    39062.633 
   29700    292.30779   -1211.8368    315.92538    411.93089    -402.7119    39062.633 
   29800    300.55716   -1196.4014    332.53584      480.886     -164.692    39062.633 
   29900    305.25018   -1248.3753    348.81131    466.18509    329.36014    39062.633 
   30000    296.02723   -1264.0939    311.32497     371.7149    120.11821    39062.633 
   30100    303.69708    -1245.451    330.23639    443.58566    2.6633508    39062.633 
   30200     296.1671   -1246.2941    332.78747    411.60299    263.25114    39062.633 
   30300    297.78944   -1243.8147    326.26885    414.82242    217.33776    39062.633 
   30400    301.87887   -1208.2504    350.16078    492.57557    434.42787    39062.633 
   30500    293.95634   -1248.2672    350.17562     417.1267    147.73857    39062.633 
   30600    299.84591   -1273.7331    323.75856    391.59476    469.45663    39062.633 
   30700    295.23068   -1250.4236    348.81256    419.30883    349.07988    39062.633 
   30800    294.72714   -1238.8856    329.91645    409.69778    226.95444    39062.633 
   30900    300.00382   -1250.0963    328.85928    421.03887    172.64916    39062.633 
   31000    288.90059   -1228.5838    334.07075    398.08475    318.88985    39062.633 
   31100     296.9121   -1251.1812    318.18442    395.44607    254.76417    39062.633 
   31200    294.14857   -1249.4878    318.30346    384.89401   -340.85914    39062.633 
   31300    303.95387   -1245.5182    330.10087    444.53184   -595.64387    39062.633 
   31400    292.15895   -1240.5354    356.00008    422.64108   -823.86169    39062.633 
   31500    303.25447   -1228.8358    328.79952    456.78367   -538.10517    39062.633 
   31600    300.54451   -1214.8038    340.03716    469.92833    -203.3498    39062.633 
   31700     299.5712   -1216.6219    366.45377    490.17205   -450.37485    39062.633 
   31800    306.86017   -1203.6328    337.28514     506.6049   -120.79724    39062.633 
   31900     301.2305   -1256.3217    341.98544    433.42799   -35.580848    39062.633 
   32000    293.32586    -1215.292    343.04204    440.14737   -193.35273    39062.633 
   32100    301.36904    -1243.479    337.53825    442.44341     575.3629    39062.633 
   32200    302.60106   -1247.2251    369.36344     476.0348   -179.42654    39062.633 
   32300    307.73578   -1223.7215    356.50386    509.65246    328.73754    39062.633 
   32400    293.81234   -1243.7034    353.73195    424.60251     45.13748    39062.633 
   32500    302.91136   -1240.0978    354.97078    470.15773    215.37014    39062.633 
   32600    299.58999   -1248.9459    343.49663    434.97507   -143.52979    39062.633 
   32700    283.05662   -1247.5057     357.9726    376.91768   -185.42646    39062.633 
   32800     298.8566   -1215.6621    358.49743    479.97831   -277.89742    39062.633 
   32900    303.40675   -1253.1498    339.02791    443.37934   -143.31149    39062.633 
   33000    295.83617   -1222.7502    357.12042    457.99913   -79.000014    39062.633 
   33100    302.61975   -1219.4388    373.59028    508.13158    159.66774    39062.633 
   33200    299.73634   -1233.4991    354.25992    461.83988    175.66894    39062.633 
   33300     296.3597   -1236.1804    353.61554    443.40647    141.01045    39062.633 
   33400    292.81748   -1282.4873    348.89772    376.53317    98.532575    39062.633 
   33500      301.272   -1240.2731    372.92214    480.59897    209.39954    39062.633 
   33600    301.11338   -1258.4885    370.44435    459.19616   -59.865226    39062.633 
   33700    296.94331   -1273.0478    352.67447    408.20923    138.40833    39062.633 
   33800    304.84051    -1277.048    353.98597    440.85409    270.44549    39062.633 
   33900    303.01106   -1227.6972    370.74136      498.775   -141.76586    39062.633 
   34000    292.65055   -1275.1237     347.5656    381.81781   -517.52702    39062.633 
   34100    301.81494   -1258.9223    346.61877    438.07565   -268.45247    39062.633 
   34200     306.4233   -1285.5119    351.87525    437.36119    219.86782    39062.633 
   34300    301.32197   -1238.6835      366.536    476.02598    -24.82771    39062.633 
   34400    300.45041   -1298.9766    345.48647    390.78388    64.672615    39062.633 
   34500    300.14145   -1254.5464    364.65801    453.00322   0.58391283    39062.633 
   34600     289.9584   -1274.4792    362.38751    385.23904   -37.068367    39062.633 
   34700    292.23977   -1308.0357    364.83797    364.34026    365.52048    39062.633 
   34800    300.32127   -1262.4167    358.48134    439.76081    162.24249    39062.633 
   34900    295.45022   -1252.7405    354.94567    424.10731    604.65812    39062.633 
   35000    305.63408   -1288.0313    369.36857    448.80402    440.79284    39062.633 
   35100    295.59376   -1279.3992    348.77763    391.92282    620.42285    39062.633 
   35200    309.37993   -1257.2708    365.31751    492.27317    210.92189    39062.633 
   35300    306.48804   -1251.0173    379.23028    499.50051    428.65583    39062.633 
   35400    304.19353   -1265.7339    377.82778    473.11531    125.88941    39062.633 
   35500    293.28594   -1285.7411    382.64878    409.12643   -85.264484    39062.633 
   35600    305.72892   -1255.7359    377.61814    489.77332    189.40618    39062.633 
   35700    300.66656    -1261.917    357.52698    440.85108   -374.10308    39062.633 
   35800    302.26318   -1257.4881    358.13447    453.03102   -110.47948    39062.633 
   35900    296.31799   -1279.8532    359.42948    405.36105   -5.9445078    39062.633 
   36000    302.71619   -1245.5591     354.1044    462.95686    245.35653    39062.633 
   36100    300.74935   -1255.0216     373.6102    464.20012     421.8554    39062.633 
   36200    293.30718   -1238.4168    374.55173    448.44867    640.24468    39062.633 
   36300    302.03621   -1260.0601    366.87762    458.18665    390.00018    39062.633 
   36400     293.1253   -1237.2333    355.88473    430.15146    272.70854    39062.633 
   36500    300.99333   -1266.4572    366.76047     447.0064    593.90334    39062.633 
   36600    312.00351     -1276.19    404.24086    524.01567    431.97243    39062.633 
   36700    304.37521   -1278.7865    375.67929     458.7271    601.11208    39062.633 
   36800    304.55696   -1324.3518    367.44272    405.73842    273.83951    39062.633 
   36900    303.33143   -1312.9095    374.38783    418.64261   -58.115027    39062.633 
   37000    298.21481     -1245.02    409.84621    499.09767    293.96371    39062.633 
   37100    305.99317   -1264.5048     354.9613    459.52991    332.18795    39062.633 
   37200    299.67693   -1253.9669    380.74151    467.58794    33.316427    39062.633 
   37300    309.14155   -1225.0313    359.52473    517.65331   -193.08456    39062.633 
   37400    296.37996   -1283.1856    351.59767    394.47403   -198.87478    39062.633 
   37500    297.19451   -1323.4469    375.47843    381.73795   -257.08966    39062.633 
   37600    306.41584   -1273.9999    384.12877    481.09336   -206.93818    39062.633 
   37700    298.68919   -1249.5852    404.01657    490.82528   -344.08855    39062.633 
   37800    301.84545   -1249.0044    416.58531    518.09655    434.67092    39062.633 
   37900    307.64863   -1250.0894    378.16652    504.55732    156.01747    39062.633 
   38000    304.73092   -1255.4649    411.27825    519.23915   0.61234881    39062.633 
   38100    290.39108   -1299.5831    368.69683    368.38032    17.158052    39062.633 
   38200    308.05995   -1325.7169    357.88706    410.49068   -39.796791    39062.633 
   38300    295.08395   -1289.9427    368.56672    398.88747   -315.84812    39062.633 
   38400    290.61539   -1318.2774    344.88724    326.88003   -418.74517    39062.633 
   38500    306.95283   -1298.7164    359.09562    433.74633   -42.504743    39062.633 
   38600    302.21037   -1317.7716    382.15316     416.5299    89.325621    39062.633 
   38700     301.7832   -1337.2803    362.91255    375.86938    26.685219    39062.633 
   38800     295.1368   -1351.0787    380.97106    350.39225    442.06021    39062.633 
   38900    299.46529   -1367.9092    377.28957    349.24673    484.59081    39062.633 
   39000    307.68457   -1382.4329    375.55347    369.76157    429.18297    39062.633 
   39100    307.44632   -1338.5561    374.12821    411.14714    376.15986    39062.633 
   39200    307.20664   -1335.0517     389.5597    429.01064   -258.96404    39062.633 
   39300    295.03511   -1306.6332      369.482    382.89364   -37.830071    39062.633 
   39400    299.83403   -1329.8786    396.01137    407.64896   -139.16161    39062.633 
   39500    295.17154   -1335.0482    392.81545    378.42253   -571.17675    39062.633 
   39600    313.52781   -1353.1769    407.27638    456.88429   -83.156778    39062.633 
   39700    302.84284   -1334.0196     382.8251    403.78371    113.71894    39062.633 
   39800    307.28077   -1299.3077    392.93806    468.46473    571.83986    39062.633 
   39900    299.47993   -1272.6894    377.31853    444.56099   -141.19165    39062.633 
   40000    309.85121   -1295.4296    367.25649    458.16189   -180.41659    39062.633 
   40100    297.03339   -1304.6927      393.703    417.99585    -326.8331    39062.633 
   40200    287.11872   -1304.5274    396.92726    377.02526    156.11457    39062.633 
   40300    291.91633   -1314.8474    390.53341    381.77692   -235.42296    39062.633 
   40400    292.55124   -1263.6232    387.47225    432.78063    -14.42946    39062.633 
   40500    299.86113   -1251.2616    368.80225    459.17807   -74.224385    39062.633 
   40600    297.69575   -1271.5043    363.73897    424.18375   -322.21525    39062.633 
   40700    304.05826   -1302.8647    394.20162    451.75312    -72.25489    39062.633 
   40800    307.17273   -1276.4923    399.73398    497.59265    388.28758    39062.633 
   40900     298.1798   -1273.0497    405.96648    467.03158   -52.141279    39062.633 
   41000    308.42493    -1299.797    395.54703    475.70355   -304.11497    39062.633 
   41100    307.25438   -1316.0141     388.4549    447.15702   -131.35762    39062.633 
   41200    303.78988   -1317.4403     380.6364    422.41154    -119.3018    39062.633 
   41300     304.4524   -1306.8542    371.44408    426.76957   -90.035077    39062.633 
   41400    304.13584   -1319.9085    384.75954    425.61434    340.99494    39062.633 
   41500    297.14638   -1299.2014    367.95289    398.24261   -93.764427    39062.633 
   41600    306.54091   -1327.7352    361.44785    405.23672   -39.988483    39062.633 
   41700    301.28922   -1362.6593    366.91741    352.28505    522.05794    39062.633 
   41800    296.98027     -1354.91    376.26088    350.09878    923.62147    39062.633 
   41900    297.98504   -1287.8231    408.53183    453.95217     709.0865    39062.633 
   42000    297.03542   -1315.2748    370.15727    383.87712    430.88418    39062.633 
   42100    303.30605   -1343.5806    405.02424     418.4943    700.78965    39062.633 
   42200    301.33551   -1321.8749     387.1755    413.53472    709.05267    39062.633 
   42300    297.46403   -1300.3036    391.78329      422.392    729.25622    39062.633 
   42400    305.85514   -1311.4092    383.49083     440.5374     81.97656    39062.633 
   42500    308.55551   -1306.8623    384.07212    457.74758    68.980029    39062.633 
   42600    293.91348    -1303.103    380.01735     391.9408   -32.210874    39062.633 
   42700    300.80712   -1293.8114    385.92956    437.98816   -278.09379    39062.633 
   42800    291.74843   -1305.7878    398.27324    397.82506   -396.08938    39062.633 
   42900    292.80545   -1284.7988    389.37841    414.64851   -171.40771    39062.633 
   43000    301.67113   -1281.8371    389.01134    456.90997   -723.17658    39062.633 
   43100    300.78242   -1316.3123    372.26818    401.71534   -241.46672    39062.633 
   43200    298.29448   -1347.8168    376.31024    363.12136     -509.924    39062.633 
   43300    311.20842   -1355.7714    358.32615    394.96218    -743.4014    39062.633 
   43400    293.11837   -1353.2438     360.7688    318.99396   -109.50629    39062.633 
   43500    296.52289   -1363.6127    374.47475    337.56359   -57.140411    39062.633 
   43600    295.25307   -1349.9896    376.94105    347.97152    34.484981    39062.633 
   43700    301.31559   -1354.7898    378.15783    371.51301   -9.6982603    39062.633 
   43800    317.76385    -1341.149    393.88096    474.46965    830.49016    39062.633 
   43900    296.62242   -1333.0406    388.62132    382.72754    849.03087    39062.633 
   44000    298.13773   -1351.0512    382.07702    364.95238    413.57276    39062.633 
   44100    299.75377   -1346.8321    361.26308    355.58804    626.90268    39062.633 
   44200    299.97953   -1320.5944    378.14928    399.72206     427.8832    39062.633 
   44300    304.69286     -1368.77    378.99268    373.47818   -223.23105    39062.633 
   44400    299.73728   -1377.0202    389.06227    353.12533   -255.19887    39062.633 
   44500    290.45497   -1353.4799    406.53663    352.60921   -488.28715    39062.633 
   44600    301.71936   -1317.8451    378.40288    410.50929    -445.3848    39062.633 
   44700    315.06242    -1360.357     383.1172    432.41119    28.994476    39062.633 
   44800    299.86507   -1345.4894     366.3313    362.49697    348.14759    39062.633 
   44900    303.55377   -1361.5989    373.90282      370.463    208.83256    39062.633 
   45000    294.77196   -1344.7253    377.12242    351.26455    199.65366    39062.633 
   45100    299.11122   -1355.1642    345.49986    328.61782   -326.81525    39062.633 
   45200    300.57225   -1351.7659    371.00558    364.05886    116.68423    39062.633 
   45300    292.40119   -1351.7938    372.82809    329.29452    13.170992    39062.633 
   45400    290.97279   -1333.1589    387.86673     356.5771    22.029285    39062.633 
   45500    292.25615   -1305.4586    375.28933    377.44194   -134.74797    39062.633 
   45600    308.65656   -1345.2526    379.05071    414.78806     -112.778    39062.633 
   45700    311.10158   -1365.2412    400.23487    426.92303   -55.968624    39062.633 
   45800    307.91383   -1336.6822    382.45059    423.43518   -38.271986    39062.633 
   45900    303.86398   -1339.6735    388.91524    408.78875   -23.988256    39062.633 
   46000    310.03044   -1365.6635    405.28734    426.76072    609.86398    39062.633 
   46100    302.86399   -1369.6418    392.71851    378.14952    616.02524    39062.633 
   46200    299.77792   -1343.2957    374.67942    372.64887    631.64807    39062.633 
   46300    282.55001   -1351.0961    404.56818    317.65621       732.74    39062.633 
   46400    304.36915     -1329.11    386.27464    418.97186    948.27959    39062.633 
   46500    301.95561   -1358.6993    381.80673    374.11594    472.80201    39062.633 
   46600    303.93987   -1369.9541    390.24789    380.18031    167.12815    39062.633 
   46700     295.9697   -1404.0175    369.19347    289.40242   -224.50131    39062.633 
   46800    296.95588    -1355.282    376.49842    349.85517    64.331245    39062.633 
   46900    296.62049   -1324.4186    392.39763    395.11724   -205.29983    39062.633 
   47000    296.64231   -1348.9146    381.60905    359.93021   -226.53259    39062.633 
   47100    294.13299   -1360.6025    387.81862    343.22475   -455.68864    39062.633 
   47200    297.42643   -1301.5975    374.88163     404.0282   -220.05478    39062.633 
   47300    294.19429    -1307.279    371.04683    380.05071   -313.81887    39062.633 
   47400    298.40741   -1357.3247    373.00238    350.81087    -514.2027    39062.633 
   47500     295.7976    -1294.723    381.52241    410.25578   -333.71285    39062.633 
   47600    302.44893   -1269.2686    385.40455    469.35165   -467.86493    39062.633 
   47700     291.2656   -1314.0236    376.73386    365.88959   -115.34984    39062.633 
   47800    297.55588   -1364.3103    380.71305    347.72602    88.086224    39062.633 
   47900    303.98948   -1334.5745    416.33555    441.86952     720.9867    39062.633 
   48000    298.48199   -1338.2663    384.36997    381.57056    393.91494    39062.633 
   48100    298.50868   -1358.6963    405.25828    382.14829    196.30716    39062.633 
   48200     298.1907   -1362.9559    390.05246     361.2601   -112.65264    39062.633 
   48300    295.23869    -1355.776    390.40519     355.5849    177.75595    39062.633 
   48400    299.05695   -1365.8981    421.82851    393.96975    382.38656    39062.633 
   48500    291.63497   -1362.6756    417.23088    359.38725    452.10665    39062.633 
   48600     306.9221    -1399.124    396.72734      370.833   -29.631283    39062.633 
   48700    303.16129    -1370.079    418.95747    405.28152    237.04056    39062.633 
   48800     298.6968   -1376.2447    396.38622    356.56958    161.64665    39062.633 
   48900    302.36148   -1311.4931    405.54673    446.87811   -153.86462    39062.633 
   49000    311.79924   -1347.2596    410.92615    458.71742   -47.007668    39062.633 
   49100    294.35386   -1298.9468    406.86461    424.91464   -17.772906    39062.633 
   49200    291.46354   -1334.2174    387.06234    356.90987   -25.229867    39062.633 
   49300    301.86648   -1336.6822     386.6725    400.60004    263.20558    39062.633 
   49400    295.60099    -1322.033    405.54168    406.08538    698.63497    39062.633 
   49500    306.42362   -1343.4031    386.21057    413.80678    319.86935    39062.633 
   49600     297.2503   -1352.3313    407.52815    385.15296    78.690644    39062.633 
   49700    299.95492   -1344.0847    398.62308    396.59541    175.74265    39062.633 
   49800    298.00987   -1341.6544    394.71002    386.41015    40.114717    39062.633 
   49900    296.51509   -1320.7018    409.81427    415.77906     387.5543    39062.633 
   50000    305.74993   -1339.9587    415.12923    443.15563    341.74031    39062.633 
   50100    289.91979   -1334.4529    400.85855    363.56359    460.80474    39062.633 
   50200    288.52674   -1325.5738    412.43337    377.78475    448.54098    39062.633 
   50300    304.47268   -1371.3028    405.04677    396.01436     401.1947    39062.633 
   50400    297.22673   -1328.7963    392.83982    393.89415    212.06008    39062.633 
   50500    303.25711    -1418.631    402.37384    340.57456   -64.667685    39062.633 
   50600    298.76652   -1416.2456      391.385    311.87934   -176.46701    39062.633 
   50700    306.64397   -1367.8895      385.508    389.60366   -630.88681    39062.633 
   50800    290.58402   -1379.4019    391.80449    312.53239    -72.20878    39062.633 
   50900    302.34508   -1390.3082    399.14666    361.58958    395.53355    39062.633 
   51000    298.33791   -1366.0604    405.06213    373.82396    181.68111    39062.633 
   51100    296.84523   -1378.8828    387.63702    336.89788    741.26907    39062.633 
   51200    305.01244   -1356.1131    383.80037    392.37264    479.42903    39062.633 
   51300    299.13966   -1342.9992    442.21942    437.62966    -214.4916    39062.633 
   51400    301.53394   -1334.5006    394.96867    409.59001   -342.73258    39062.633 
   51500    290.13715   -1374.1598    430.82988    354.80051    126.99244    39062.633 
   51600    300.13012   -1388.2898    390.88709    345.43818   -119.26771    39062.633 
   51700    299.43666   -1376.1445    400.92369     364.5175   -73.262388    39062.633 
   51800    299.15386   -1397.8377    395.73612     336.3714    60.422784    39062.633 
   51900    306.02509    -1387.102    400.07005    382.18426    537.81728    39062.633 
   52000    306.23803   -1387.3479    388.48813    371.30914    191.46529    39062.633 
   52100    298.85511   -1413.0182    391.11637    315.23449    64.644615    39062.633 
   52200    313.66072   -1444.1605     389.0396    348.25861    529.54509    39062.633 
   52300    292.58882   -1413.1582     358.8611     254.8026    137.91965    39062.633 
   52400    296.68103   -1427.5205    381.66381    281.55239   -274.58996    39062.633 
   52500    295.37124   -1367.1221    367.27757    321.70422   -407.99898    39062.633 
   52600    299.29065   -1339.6248     387.7546    387.21486    339.70333    39062.633 
   52700    308.39371   -1325.5178    389.38336     443.6794    83.672142    39062.633 
   52800    304.71329   -1343.4737    408.74859    428.62187    458.47453    39062.633 
   52900    289.59971     -1359.41    409.86924    346.18508    341.52101    39062.633 
   53000    301.17418   -1322.2883    408.03898    433.26299    307.59295    39062.633 
   53100     293.3495   -1293.0461    401.34001    420.79701    385.25488    39062.633 
   53200    303.43463   -1364.1272    400.84255    394.34137   -99.880308    39062.633 
   53300    294.86057   -1344.2768    393.78507    368.77223    137.48481    39062.633 
   53400    314.77801   -1387.4945     413.7907     434.6747    329.83191    39062.633 
   53500    293.42641   -1365.7721    416.23423     363.3094   -23.840743    39062.633 
   53600    289.16167   -1372.4001    409.03426    330.40007   -590.30981    39062.633 
   53700    303.89519    -1338.092    397.50015    419.09475   -606.50498    39062.633 
   53800    314.66701   -1388.0484    402.00677    421.84021   -502.10442    39062.633 
   53900    297.76783   -1377.0442     397.3281    352.55547   -628.36127    39062.633 
   54000     295.6869   -1364.7814    388.26401    346.44375   -162.45709    39062.633 
   54100     300.6913   -1401.4351    411.72371    355.64037    14.822109    39062.633 
   54200    306.77592   -1392.3831    380.95522    361.14773    221.90975    39062.633 
   54300    300.36729   -1394.2233    412.34366    362.02245    457.63386    39062.633 
   54400    294.08434   -1370.1964    413.98302    359.57755    122.05446    39062.633 
   54500    307.60675   -1389.8419    381.61686    368.06783    605.52647    39062.633 
   54600    311.73881   -1377.7453    405.14268    422.17788      278.899    39062.633 
   54700    302.32101   -1395.1676    383.28879    340.76459     57.29801    39062.633 
   54800    299.76869   -1378.5973    410.13216    372.75867    517.35034    39062.633 
   54900    309.10063   -1403.9225    396.84639    375.90067    360.56667    39062.633 
   55000     301.0498   -1386.8339    412.95709    373.07896    198.41433    39062.633 
   55100     296.9916    -1392.328    417.58946    354.06004   -307.80226    39062.633 
   55200    295.67041    -1322.268    392.85818    393.47749    31.616551    39062.633 
   55300    298.56317   -1331.3472    384.08547    388.56833   -167.69611    39062.633 
   55400    309.10645   -1372.7528    419.66776    429.91781   -205.17074    39062.633 
   55500    300.00624   -1391.4091    424.97929    375.85691    384.52445    39062.633 
   55600    293.55098   -1402.4251    406.86613    317.84562   -143.38853    39062.633 
   55700    302.43223   -1377.7751    408.41012    383.77607   -33.131806    39062.633 
   55800    294.62778   -1377.8246    388.16193    328.55977   -121.67233    39062.633 
   55900    305.26281   -1375.3566    388.79232    379.24137   -237.02102    39062.633 
   56000    297.93259   -1362.7331    409.19037    379.46608    54.041309    39062.633 
   56100    300.81547   -1339.9741    424.95517    430.88837    14.448087    39062.633 
   56200    307.12651   -1362.2052    415.72997    427.66898   -595.93832    39062.633 
   56300    291.86581    -1377.945    397.77353     325.6934   -433.55306    39062.633 
   56400     300.8671   -1387.7259    406.28707    364.69949   -460.35239    39062.633 
   56500    309.61694    -1357.819    411.99668    439.46453    -88.16141    39062.633 
   56600    304.45055   -1385.5485     402.1404    378.76328    185.72792    39062.633 
   56700    298.88584   -1393.7144    411.60872    355.16805     257.5652    39062.633 
   56800    303.00525   -1374.1877    405.46539    386.98258   -119.27469    39062.633 
   56900    299.44464   -1407.4993    432.38664    364.66131   -169.00143    39062.633 
   57000    299.21243   -1374.1196    422.79069    387.40607   -446.38203    39062.633 
   57100    303.38419   -1397.5193    404.63471    364.51566   -483.36537    39062.633 
   57200    307.45258    -1340.397    402.56312    437.76916   -381.57393    39062.633 
   57300     311.6072   -1374.9384    438.03622    457.28948    216.20166    39062.633 
   57400    298.07092   -1391.0859    398.17399    340.71576   -169.34179    39062.633 
   57500    304.86041   -1384.9216    417.73459    396.81816    358.92299    39062.633 
   57600    303.83028    -1335.867    424.18208    447.71125    900.91325    39062.633 
   57700    307.60838   -1397.4106    419.58415    398.47365    496.50558    39062.633 
   57800    291.93299   -1369.9009    426.74289    363.00733    624.42616    39062.633 
   57900    296.66469   -1358.3325    425.20877    394.21218    929.31013    39062.633 
   58000    293.07009   -1376.7353    415.15138    349.66912     393.2943    39062.633 
   58100    295.23321   -1376.0564    398.95679    343.83155    81.281232    39062.633 
   58200    304.46739   -1360.5836    424.33071    425.99384    109.58396    39062.633 
   58300    294.34762   -1360.7085    437.90505    394.16547    81.406522    39062.633 
   58400    294.52202   -1381.7847    403.03487    338.99935    90.019605    39062.633 
   58500    304.61139   -1345.3376    407.61298    425.16635   -22.966161    39062.633 
   58600    300.00569   -1383.7354    413.02853    371.57739   -270.48875    39062.633 
   58700    293.57091   -1372.2401    435.54259    376.79622   -505.92178    39062.633 
   58800    306.49141   -1361.9941    403.55607    412.86455   -383.35767    39062.633 
   58900    290.93465   -1372.3761    407.58285    336.90532   -415.46131    39062.633 
   59000    301.11161   -1381.4106    389.11974    354.94144   -134.19263    39062.633 
   59100    294.33629   -1412.2826    413.99155     318.6271    248.28756    39062.633 
   59200    308.71668   -1401.8068    408.35336    387.80547    258.96388    39062.633 
   59300    301.81304   -1398.9684    406.06286    357.46508   -282.16395    39062.633 
   59400    314.00848   -1394.9252    419.20405    429.21433   -759.11949    39062.633 
   59500    288.93503   -1405.5332    409.13812    296.35683   -866.83413    39062.633 
   59600    297.88463   -1416.4238     416.0058    332.37619    -454.6028    39062.633 
   59700    304.51682   -1460.0552     404.5698    306.98253   -206.77263    39062.633 
   59800    310.34848   -1413.2467    416.84314    392.15633   -266.49585    39062.633 
   59900    303.45519   -1404.1953    410.48906    364.01171    139.57097    39062.633 
   60000    292.21616   -1428.3343    372.12866    251.22668    270.00762    39062.633 
   60100    303.13521   -1438.1456    434.32363     352.4643    618.53012    39062.633 
   60200    306.12596   -1448.1665    412.46529    333.96634    386.11333    39062.633 
   60300    298.57916   -1413.4412    423.51784    345.97831    799.99193    39062.633 
   60400    295.79098   -1455.9943    429.38456    296.81702    419.34337    39062.633 
   60500      300.843   -1445.6579    413.34586    313.71843    21.998141    39062.633 
   60600    301.03513   -1447.2666    407.15367    306.77723   -35.326395    39062.633 
   60700    296.71885   -1436.0641    431.87427    323.38842   -192.50176    39062.633 
   60800    291.36979   -1420.8323    414.44032    297.25352   -7.0703489    39062.633 
   60900    297.02372   -1429.8753    401.37783    300.44484   -222.00096    39062.633 
   61000    305.67242   -1390.1404    405.27741    382.77526      631.568    39062.633 
   61100    301.19175   -1430.2429    416.26378    333.61176    46.077969    39062.633 
   61200    301.31744   -1404.4318    403.25024    346.97169    682.88901    39062.633 
   61300    297.31774   -1415.8842    408.03573    322.40939     -240.701    39062.633 
   61400    302.74305   -1418.3441    418.90315    355.09076   -41.458001    39062.633 
   61500    289.98988   -1370.8075    416.97257    343.63662   -194.52648    39062.633 
   61600    301.52274   -1395.0431    417.17557    371.20427    517.34213    39062.633 
   61700    303.66626   -1409.8825    419.27092     368.0508    335.12773    39062.633 
   61800    305.37098   -1401.7973    432.59997     397.0922    175.35281    39062.633 
   61900    291.83466   -1429.1628    415.14512    291.70771    558.18114    39062.633 
   62000     302.9531   -1395.3248    411.09628    371.24295    560.60301    39062.633 
   62100    299.11578   -1433.0947    421.03009    326.23802     358.3613    39062.633 
   62200    306.57715   -1410.2897    407.76394    369.16046     614.6672    39062.633 
   62300    304.42366   -1418.1701    412.25972    356.14077    330.27239    39062.633 
   62400    300.57531   -1423.5277    416.40024    337.70538     144.6992    39062.633 
   62500    300.33877   -1417.3753    435.73436    362.13353    317.60332    39062.633 
   62600    299.53465     -1378.74    440.10276    401.53945    104.69285    39062.633 
   62700    296.45972   -1410.5485    422.34519    338.21561    175.50234    39062.633 
   62800     295.5983   -1409.7581    415.25632    328.06287   -275.80376    39062.633 
   62900    303.74449   -1396.5968     423.6939    386.10944    498.03796    39062.633 
   63000    295.16742   -1382.3404    424.76525    363.06175    382.40131    39062.633 
   63100    295.59975   -1431.9468    416.86123    307.48564    71.047459    39062.633 
   63200    309.42564     -1371.57    417.74246    430.60335    216.18671    39062.633 
   63300    297.25928   -1436.4595    419.23266    312.76937    195.25777    39062.633 
   63400    298.28223   -1385.0608    424.35276    373.86506    415.46884    39062.633 
   63500    299.08347   -1441.7695    419.73166    316.12018   -313.02808    39062.633 
   63600    296.91476   -1396.7842    388.02006    319.69069    21.569568    39062.633 
   63700    295.59351   -1390.2331    420.59962     352.9098   -150.29906    39062.633 
   63800    300.88326   -1371.2222     443.8618    418.85028    216.52936    39062.633 
   63900    298.62969   -1379.3238    411.72241    368.52635     -239.366    39062.633 
   64000     311.4715   -1403.3839    429.68193    419.88256      10.1698    39062.633 
   64100    297.31075   -1392.0698     431.1982    369.35492   -667.34331    39062.633 
   64200     288.6071   -1384.4859    422.10579     328.9046   -563.53219    39062.633 
   64300    312.75703    -1352.217    411.96141    459.08066   -310.16203    39062.633 
   64400    295.04234   -1371.4515    415.51958    364.14529   -270.98681    39062.633 
   64500     307.3157   -1408.2973    411.52428    378.21763   -101.53818    39062.633 
   64600    307.82557   -1402.0663    407.92949    383.13514   -572.79121    39062.633 
   64700    304.42848   -1439.6424    402.48909     324.9193   -490.57715    39062.633 
   64800    301.33807   -1409.3892     420.2683    359.12463   -45.757344    39062.633 
   64900    301.20923   -1431.5699    396.87862    312.97777    416.89177    39062.633 
   65000    310.57982   -1416.1871    396.43085    369.83875   -487.49716    39062.633 
   65100    296.21849   -1406.4612    426.35706    345.23547   -4.9400523    39062.633 
   65200    306.40571   -1405.2616    408.72413    374.38171   -67.333478    39062.633 
   65300    301.12372   -1424.4798     411.7348    334.54147   -242.28876    39062.633 
   65400    293.17928   -1415.2663    428.54506    325.02027   -66.790801    39062.633 
   65500    300.49259   -1385.6532    436.58502    395.39454    -34.66085    39062.633 
   65600    299.28281   -1406.4896    432.16118    364.72152   -121.06205    39062.633 
   65700    296.44531   -1450.7696    409.94658    285.53135   -27.349826    39062.633 
   65800    304.30077    -1421.454    402.63727    342.68449    -208.4372    39062.633 
   65900    289.30133   -1418.5079     432.6359    308.51883    82.847409    39062.633 
   66000    304.24758   -1451.0064    409.78207    320.03892    284.53879    39062.633 
   66100    295.94136   -1462.0742    420.24423    282.26964    586.13708    39062.633 
   66200    305.69251    -1451.803    412.49098    328.41618    847.17918    39062.633 
   66300    300.34982   -1419.9245     424.8663    348.76578    526.67297    39062.633 
   66400     301.5405   -1407.4379    412.92494    354.63833    819.87124    39062.633 
   66500    294.34687   -1402.8185    391.93306     306.0801    915.76332    39062.633 
   66600    297.31789   -1402.6326    408.95402    336.57991    658.97432    39062.633 
   66700    293.11628   -1402.7396    410.02115    318.74118    786.86798    39062.633 
   66800    311.67739   -1417.4216    399.15925    376.24337    374.64023    39062.633 
   66900    308.98309   -1429.2341    425.38908    378.60579    219.90258    39062.633 
   67000    300.19103   -1378.3543    428.14485    392.90402    53.679517    39062.633 
   67100    308.10849   -1403.2916    436.71281    411.95892   -270.86789    39062.633 
   67200    297.30795   -1452.3906    419.12747    296.95089    85.719742    39062.633 
   67300    302.43077   -1410.3557    415.79058     358.5694    -298.3702    39062.633 
   67400    297.85874    -1425.365    411.14195    318.45528   -73.341837    39062.633 
   67500    308.21958   -1425.9077    399.60121    352.72828   -117.89227    39062.633 
   67600    295.80614   -1392.2668    442.11255    373.34042    -15.68649    39062.633 
   67700    309.05323   -1436.8634     416.5472    362.44855   -95.389058    39062.633 
   67800    299.96906   -1366.6726    433.67276    409.12046      166.878    39062.633 
   67900     303.0981   -1399.0533    429.72562     386.7926   -105.67574    39062.633 
   68000    297.93259   -1362.6174    452.92305    423.31441   -124.00635    39062.633 
   68100    290.52069   -1380.0353    417.47397    337.28516   -423.60078    39062.633 
   68200    293.65588   -1400.7854     426.0841    339.17256    -5.207484    39062.633 
   68300    298.88831   -1407.4827    411.51143    341.31356    109.33622    39062.633 
   68400    290.10777   -1421.1874    446.42399    323.23563    178.97567    39062.633 
   68500    293.81702   -1404.6386    422.21728    332.17359   -35.238692    39062.633 
   68600     292.2672   -1392.3717    411.07103    326.36007   -171.92127    39062.633 
   68700    307.99523   -1342.6716    425.75063    461.11003   -570.23372    39062.633 
   68800    302.50975   -1361.0397    436.17667    428.62487   -11.578415    39062.633 
   68900    284.22979   -1372.1111    452.83944    352.42805   -424.25048    39062.633 
   69000    312.40176   -1364.2835    418.47927    451.94246    66.133353    39062.633 
   69100    306.94622   -1352.8159    421.27644    441.79803    311.27982    39062.633 
   69200     308.8999   -1357.2871    444.32851    469.12004    304.31014    39062.633 
   69300    298.11358   -1396.2251    446.19942    383.79285    9.3633496    39062.633 
   69400    295.61747   -1383.5646    432.52432    371.61016   -47.374144    39062.633 
   69500    307.26301   -1336.8357    428.99984    466.91906   -10.890364    39062.633 
   69600     296.1009   -1341.2599    427.10869     410.6622   -674.81861    39062.633 
   69700      302.561   -1385.0129     435.5848    404.28903   -533.70949    39062.633 
   69800    301.29976   -1360.4929    440.21621     427.7975   -308.88928    39062.633 
   69900    302.19564   -1391.1695    426.42786    387.34085   -620.11985    39062.633 
   70000    295.75256   -1338.5409    412.63213    397.34614   -867.97499    39062.633 
   70100    296.52973   -1349.3475    440.23392    417.61847    -667.1095    39062.633 
   70200    292.83347   -1354.8367    408.16214    363.51977   -550.08418    39062.633 
   70300    298.84339   -1371.5703    441.47291    406.98653   -559.32855    39062.633 
   70400    303.25774   -1401.5074    424.24949     379.5766   -19.469035    39062.633 
   70500    307.82558   -1384.4257    427.01954    419.86577   -385.28663    39062.633 
   70600    297.80993   -1334.9995    440.81905    438.27956   -130.03611    39062.633 
   70700      294.564   -1381.5138    409.82313    346.24636   -41.094436    39062.633 
   70800    297.65679   -1379.1072    416.04382    368.71135   -436.85551    39062.633 
   70900    296.32293   -1420.6037     409.9188    315.12198    -295.7562    39062.633 
   71000    300.80162   -1414.5424    404.79853    336.10145    395.03161    39062.633 
   71100    299.43142   -1388.7242    409.72498    360.71556    16.643667    39062.633 
   71200    295.56796   -1380.2634    410.56228    352.72778   -263.74886    39062.633 
   71300    302.33759   -1398.2699    412.39196     366.8397    283.54802    39062.633 
   71400    296.29612   -1406.0793    408.68329    328.29092   -13.630087    39062.633 
   71500    286.83472   -1386.5983    407.98574    304.74212    332.63988    39062.633 
   71600    303.71998   -1425.6339    437.44081    370.70958     1089.704    39062.633 
   71700    297.30338   -1363.2412    432.44445    399.39674    593.69941    39062.633 
   71800    300.81171   -1370.5996    440.19028    415.48124    275.58624    39062.633 
   71900    305.26867   -1376.4632    423.75073     413.1194     538.6799    39062.633 
   72000    301.29116   -1410.9568    427.20998    364.28889    273.63334    39062.633 
   72100    302.66435   -1414.5296    415.05047     354.7005     346.1515    39062.633 
   72200    299.33316   -1413.3267    418.52793    344.47647    223.84276    39062.633 
   72300    303.39611    -1431.105    426.01359    352.36218    432.21599    39062.633 
   72400    306.95668   -1392.1533    430.72157     411.9526    601.56817    39062.633 
   72500    303.39551   -1416.6705    412.40656    353.18703     743.8229    39062.633 
   72600    301.29495   -1404.4295    431.33117     374.9543    400.54239    39062.633 
   72700    300.05076   -1410.8403    431.02181    362.66739   -9.7723657    39062.633 
   72800    303.22277   -1365.3886    434.41191    425.70134   -594.14674    39062.633 
   72900    309.95246   -1387.3402    417.92954    417.37731   -198.79664    39062.633 
   73000    314.67812   -1411.7075    422.33321    418.55727    15.498002    39062.633 
   73100    303.00333   -1430.4854    449.55955    374.77044   -264.30476    39062.633 
   73200    288.78049   -1482.3462    406.41598    216.13025    114.90426    39062.633 
   73300    294.42944   -1467.2974    409.71262    259.75025    103.04743    39062.633 
   73400    308.95795   -1454.7665     420.7274    348.29933    44.737981    39062.633 
   73500    298.42934    -1437.729    421.52145    319.02373    96.624457    39062.633 
   73600    298.19512   -1417.6465    411.58956    328.12641    279.95798    39062.633 
   73700    295.73468   -1450.1862    426.14919    299.13785    487.29962    39062.633 
   73800    301.96013   -1430.4489    432.70866     353.2886    -95.51173    39062.633 
   73900    295.34541    -1462.476    418.78624    277.74349   -91.405407    39062.633 
   74000    313.32156   -1411.3649    409.65445    400.15166    153.45322    39062.633 
   74100    297.42577   -1441.2395    410.92551    300.42721    298.21745    39062.633 
   74200    308.13171   -1477.5279    392.09738    293.21106    456.76135    39062.633 
   74300    295.65796   -1411.7235    432.38931    343.49745   -8.0739374    39062.633 
   74400    297.51878   -1429.3394    423.89537    325.71328    270.66166    39062.633 
   74500    292.19437   -1430.4761    420.73413    297.59286    574.13006    39062.633 
   74600     308.7838   -1469.9014    416.03904    327.69686     332.0558    39062.633 
   74700    298.61561    -1451.573     423.7048    308.19652    229.90624    39062.633 
   74800     308.8013   -1458.0498    406.58374    330.17146    604.96787    39062.633 
   74900    305.87755   -1369.0649    408.22678     407.7179    438.26794    39062.633 
   75000    298.02065   -1362.2338    428.59766    399.76662    382.88621    39062.633 
   75100    293.05582   -1405.2523    397.49255    303.42939    518.73197    39062.633 
   75200    306.09936   -1439.0786    417.34581    347.81565    740.27889    39062.633 
   75300    287.22953   -1429.0855    419.84802    275.88367     344.3218    39062.633 
   75400     309.9839   -1410.5111    414.75884    391.17644    688.41344    39062.633 
   75500    309.70332   -1429.2131    407.78601    364.24627    119.54584    39062.633 
   75600     293.6733   -1430.6376     431.6037    314.91803    77.181108    39062.633 
   75700    303.16483   -1405.8723    425.74542    376.29193   -68.446114    39062.633 
   75800    301.82502   -1366.8397    432.26223    415.84675   -309.14194    39062.633 
   75900    308.50797   -1362.2573    437.39542    455.46324   -3.5526407    39062.633 
   76000    303.24683   -1397.6094    423.51932    382.69559    -457.2941    39062.633 
   76100    290.39673   -1411.1726    438.50283    326.62213    107.28204    39062.633 
   76200    300.52935   -1396.3025    418.26984    366.59457   -46.101051    39062.633 
   76300    298.97926   -1409.6295    399.92713    327.98935   -304.30896    39062.633 
   76400    302.29667   -1383.7899    417.98132    386.72592   -39.745548    39062.633 
   76500    302.50442   -1433.9738    411.98987    331.48007     381.1598    39062.633 
   76600    295.54107   -1428.2325    433.31679    327.39296   -164.73616    39062.633 
   76700     304.2524   -1398.6602    430.17112    392.79573     389.4448    39062.633 
   76800    303.94853   -1377.9112    408.65594    390.66997    416.37351    39062.633 
   76900    309.54401    -1372.285    430.83921    443.51471    288.87518    39062.633 
   77000    304.69174   -1365.7183    444.38229    441.91455    37.345608    39062.633 
   77100    296.29011   -1354.7223    412.00598    382.94365    305.88681    39062.633 
   77200    297.52957    -1369.065    444.89658    407.03711    278.86497    39062.633 
   77300    290.08619   -1388.0987    430.34198    340.14571    187.31292    39062.633 
   77400    304.87504   -1400.0213    420.33307    384.38238    171.74991    39062.633 
   77500    304.33176   -1403.9723     431.0529    388.72051    157.67295    39062.633 
   77600    308.12626   -1389.3251    438.18312    427.47525    355.87446    39062.633 
   77700     309.1213   -1429.7473    438.74127    392.06322    635.35212    39062.633 
   77800    301.44799   -1422.5121    421.54197    347.76717   -172.73959    39062.633 
   77900    299.14172   -1430.8296    425.83426    333.42337   -683.79012    39062.633 
   78000    287.35174   -1435.8486    462.46386    312.28319   -482.31849    39062.633 
   78100    293.75332   -1480.7099    429.31131    262.91134   -195.93489    39062.633 
   78200    306.39585   -1488.8803    433.66189    315.65664   -206.04211    39062.633 
   78300    294.68404   -1421.2901     414.7908    311.97484    178.68635    39062.633 
   78400    289.54198   -1423.1812    404.85054    277.13687   -168.66401    39062.633 
   78500    304.94001    -1439.261    417.09895    342.19932   -23.232822    39062.633 
   78600    299.61001   -1501.5936    405.75785    244.67811   -650.23529    39062.633 
   78700    303.43155   -1451.8968     406.4138    312.12915   -533.63906    39062.633 
   78800    306.50119    -1442.156    410.17478    339.36511   -176.26456    39062.633 
   78900    299.78838   -1415.1589    434.85436    361.00738    -82.24649    39062.633 
   79000    299.42044   -1415.5253    431.72722    355.86761    9.3664644    39062.633 
   79100    305.16307   -1416.6499    434.13906    382.84851     -428.499    39062.633 
   79200    285.49627   -1370.0006    411.56714    318.93275   -111.34671    39062.633 
   79300    305.43693   -1416.6562    437.76103    387.68948   -177.65727    39062.633 
   79400    309.34729   -1409.7624    415.40833     389.7263    147.96214    39062.633 
   79500    296.86527   -1472.4291    439.69293    295.49718   -86.829435    39062.633 
   79600    302.49686   -1501.1352    423.73812    276.03313   -86.479844    39062.633 
   79700    309.58836   -1423.8502    409.09384    370.40259    679.27137    39062.633 
   79800    295.74547   -1458.0193    432.88829    298.09221    554.86314    39062.633 
   79900    293.92283   -1450.3155    406.96825    271.72103    366.13236    39062.633 
   80000    295.56303   -1480.5645     425.1188    266.96119    497.86679    39062.633 
   80100    307.72348   -1489.5441    413.26496    300.53598    29.122631    39062.633 
   80200    295.16069   -1455.2053    404.20512     269.6066    252.06093    39062.633 
   80300    301.03627   -1468.7433    410.78244     288.9344    140.81153    39062.633 
   80400    303.55648    -1489.051    440.60299    309.72314    329.76242    39062.633 
   80500    291.41512   -1460.2545     429.5944    273.18825    424.09929    39062.633 
   80600     306.3029   -1412.8309    439.47087    397.09914    98.751913    39062.633 
   80700    305.88984   -1390.9241    437.85949    415.54649    316.08721    39062.633 
   80800    306.55656   -1451.4517    414.51993    334.66235   -224.40082    39062.633 
   80900    306.96374   -1464.3735    411.99204    321.03444   -473.79387    39062.633 
   81000    303.66548   -1457.7286    416.34884     317.2791   -609.12299    39062.633 
   81100    303.24801   -1468.7978    436.27993    324.27311    61.166884    39062.633 
   81200    309.95647   -1458.3727    437.53441    365.96769   -45.005577    39062.633 
   81300    287.41157   -1415.3355    429.08546    299.68568    128.02015    39062.633 
   81400    301.59782   -1402.9103    457.84576    404.34318    273.98912    39062.633 
   81500    296.55832   -1396.5485    411.38754     341.6991   -369.81903    39062.633 
   81600       289.83   -1443.1801    421.65187    275.22797   -82.179386    39062.633 
   81700    292.59383   -1423.0725    442.55407    328.60371   -172.20971    39062.633 
   81800    300.61145   -1377.6458    418.90166    386.25035   -393.05243    39062.633 
   81900    297.61023   -1389.2319     451.4549    393.78949    229.09992    39062.633 
   82000    300.41097   -1429.9812    424.95643    339.07273   -114.82706    39062.633 
   82100    283.93096   -1404.7678    428.30913    293.90407    -60.67322    39062.633 
   82200    299.27871    -1417.614    432.40393    353.82155    263.96178    39062.633 
   82300    296.94423    -1394.846    432.08138    365.82204    281.57234    39062.633 
   82400    304.06464   -1378.3962    441.41579    423.46432    401.35664    39062.633 
   82500    310.20639   -1414.9406    429.25917    402.24273    126.60879    39062.633 
   82600    297.95859   -1406.3849    432.78905    359.52927    429.80159    39062.633 
   82700    303.91234   -1380.1855    409.36664    388.94446   0.80642266    39062.633 
   82800    299.46248   -1406.1231    419.71028    353.44092   -193.21301    39062.633 
   82900      290.575   -1386.7331    426.36557    339.72197   -806.80294    39062.633 
   83000    293.39394    -1393.588    429.96226    349.07619   -162.46498    39062.633 
   83100    299.78233   -1403.5694    448.70666    386.42209   -260.14378    39062.633 
   83200    309.29626   -1419.7903    434.27679    398.33855   -85.625623    39062.633 
   83300     297.1472   -1401.4314    441.86534    369.92873   -116.49189    39062.633 
   83400    294.78418   -1414.7956    432.91367    337.04019   -117.80162    39062.633 
   83500    299.65743   -1413.6533    434.62537    361.69804   -233.82836    39062.633 
   83600    307.60414    -1393.879    429.57603    411.97819   -381.66921    39062.633 
   83700    305.51576   -1410.4621    432.45829    388.93348   -47.577632    39062.633 
   83800    297.92987   -1434.7428    428.96478     327.2186   -281.06192    39062.633 
   83900    290.22823   -1411.2547    410.17112    297.45441   -533.22643    39062.633 
   84000    308.02054   -1401.4758    437.58682    414.25521   -249.66543    39062.633 
   84100    294.46363   -1407.5432    427.71775    337.66247   -867.71055    39062.633 
   84200    292.75559   -1432.3825    436.18914    313.65254   -264.84101    39062.633 
   84300    288.31951   -1403.0038    451.55801    338.55216   -376.15015    39062.633 
   84400    313.92195    -1435.275    450.45321    419.72656   -305.62717    39062.633 
   84500    311.57025    -1412.556    429.37529    410.84559   -146.40304    39062.633 
   84600    298.48841   -1436.6147    407.86714    306.74801   -765.23337    39062.633 
   84700    302.34096   -1381.5909    418.43598    389.57777   -107.54683    39062.633 
   84800    296.20423   -1391.4545    422.63906    356.46034   -369.25884    39062.633 
   84900    306.30403   -1414.1547    434.87239    391.18195     332.7976    39062.633 
   85000    306.18313   -1405.9298    428.84627    392.83981  -0.68127662    39062.633 
   85100     300.3772   -1427.3469    423.61115    340.21067   -179.96949    39062.633 
   85200    307.83408   -1430.6792    427.51921    374.14997   -32.405386    39062.633 
   85300    303.89557   -1464.7925    405.23988    300.13564   -336.42605    39062.633 
   85400    302.09519   -1440.4476     433.0238     344.2093   -494.61429    39062.633 
   85500    312.68432   -1414.6709    429.85079    414.19074   -101.67763    39062.633 
   85600    294.26492   -1427.3006    436.34107    325.63939   -607.39968    39062.633 
   85700    296.08749   -1430.4803    410.90514    305.17827   -469.76577    39062.633 
   85800    303.89433   -1423.6092    417.61416    353.68773    23.611454    39062.633 
   85900    303.97682   -1422.6274    427.37408    364.79847   -100.14644    39062.633 
   86000    304.32404     -1410.67    441.22403    392.15936   -221.59908    39062.633 
   86100    291.55684   -1432.6435    430.14346    301.98242   -278.79346    39062.633 
   86200    298.51177   -1420.0042    456.41467    372.01061   -266.10808    39062.633 
   86300    306.50653   -1415.4562    434.78452    390.69851   -458.31107    39062.633 
   86400    294.38613   -1433.7168    431.71509    315.13954   -226.26723    39062.633 
   86500    307.03536   -1400.4522     445.2107    418.49478   -147.86484    39062.633 
   86600    296.94673    -1379.454    434.81067    383.95455    356.45667    39062.633 
   86700    301.06495   -1433.4223    445.86649    359.46777   -278.08647    39062.633 
   86800    296.38328   -1418.8152     462.4815     369.7432   -92.037862    39062.633 
   86900    301.31211   -1454.2619    450.00075    343.86822    -221.8581    39062.633 
   87000    300.24094   -1421.3689      440.888    362.85594   -192.87278    39062.633 
   87100    293.34895   -1435.9904    452.53683     329.0471   -329.33951    39062.633 
   87200     298.7986   -1444.6953    438.93642    331.12453   -112.20035    39062.633 
   87300    308.78313   -1418.0755    446.89171    410.37239    28.066086    39062.633 
   87400    286.75849   -1430.4126    469.16248    321.76356    224.56675    39062.633 
   87500    296.43429   -1417.6498    417.72093    326.37619    337.50037    39062.633 
   87600    296.41576   -1432.4774    429.55935    323.30414   -198.78172    39062.633 
   87700    282.89654   -1423.7332     423.0932    265.09448    83.153051    39062.633 
   87800    302.25968   -1410.5977    442.96251    384.73383    167.29951    39062.633 
   87900     306.1964   -1437.8056     438.7877    370.96474    622.54915    39062.633 
   88000    290.31083   -1409.1866    445.72406    335.44497    186.71567    39062.633 
   88100    306.32319   -1381.2806     442.9327    432.20203     -293.395    39062.633 
   88200    293.14514   -1398.1725    442.37495    355.79125    141.16949    39062.633 
   88300    302.70648   -1418.0078    444.55864     380.9189   -118.33593    39062.633 
   88400    284.66959   -1442.1327    424.84006    256.37485    -367.0028    39062.633 
   88500    300.24968   -1417.4815    445.75344    371.64785    104.31866    39062.633 
   88600    304.72663   -1456.9837    449.70419    356.12707    61.551411    39062.633 
   88700     299.4942   -1460.6543    432.94848    312.28994    364.95446    39062.633 
   88800    288.93248   -1411.4029    452.54997    333.88763   -471.82645    39062.633 
   88900    298.60661   -1432.6472    433.27874    336.65596    56.240089    39062.633 
   89000    303.34378   -1437.5603     430.8485    350.50769    185.81899    39062.633 
   89100    311.57768   -1424.9616    438.52747    407.62548   -351.87184    39062.633 
   89200    301.63689   -1440.9575    444.44422    353.06925    11.560615    39062.633 
   89300     295.6503   -1472.5555    428.70799    278.94988   -173.24615    39062.633 
   89400    292.39408   -1475.3992    425.75238    258.58153   -46.141377    39062.633 
   89500    312.12244   -1463.7551    439.47359    372.21544    750.39351    39062.633 
   89600    311.56218   -1398.7453    453.07361    448.31853    87.654843    39062.633 
   89700    299.46657     -1421.73    437.73524    355.87738    13.178159    39062.633 
   89800    294.07236    -1443.478    438.33631    310.59566     293.5196    39062.633 
   89900    311.46999   -1456.5643    446.64958    383.66309    314.48427    39062.633 
   90000    296.21165   -1450.5406    443.14711    317.91547    178.26469    39062.633 
   90100     292.3602   -1441.9861    421.58631    287.67702    106.06846    39062.633 
   90200    305.49627   -1426.5163    431.66238    371.99627   -374.48974    39062.633 
   90300    305.27857   -1449.3924    425.28811    341.77185   -296.15839    39062.633 
   90400     302.7237   -1449.5043    436.76613    341.70701   -990.79064    39062.633 
   90500    291.05431   -1409.1882     439.1412    332.18701   -474.17617    39062.633 
   90600    302.15304   -1409.2647    425.71457    368.34182    56.664028    39062.633 
   90700    296.98027   -1474.9346    436.68553    290.49887   -261.67346    39062.633 
   90800    297.80682   -1473.7433    453.38547    312.08821    566.60893    39062.633 
   90900    303.34598   -1471.9635    442.85176    328.11765     372.8519    39062.633 
   91000    304.74763   -1410.5943    472.07457    424.98087    98.637395    39062.633 
   91100    295.69055   -1470.8712    456.18001    308.28626    158.59568    39062.633 
   91200    309.61471   -1461.9919    442.75254    366.03749    365.50085    39062.633 
   91300    300.10049   -1471.9673    448.76605    319.50716    418.25977    39062.633 
   91400    296.23608   -1444.0971    456.94573    338.26691   -241.29116    39062.633 
   91500    304.12663    -1401.389    460.65277    419.98592     1002.829    39062.633 
   91600    308.87698   -1471.2516    456.74556    367.47002     566.4041    39062.633 
   91700    306.92145    -1421.785    443.36728    394.80891     660.6065    39062.633 
   91800    299.17586   -1405.1402     416.9193    350.35047   -140.57869    39062.633 
   91900    298.34312    -1423.162    452.08328    363.76679     323.9921    39062.633 
   92000    301.23555    -1437.897    450.22066    360.11049    131.05754    39062.633 
   92100    294.15349   -1461.1754    440.95784    295.88281   -271.27672    39062.633 
   92200    308.79328   -1476.2002    436.42707    341.82854   -307.22083    39062.633 
   92300    290.06946   -1437.5632    461.17753    321.44191   -223.58941    39062.633 
   92400     292.7633   -1464.4114    450.84994    296.31895    381.05669    39062.633 
   92500    302.15108   -1443.2512    444.00227    352.63425    50.218819    39062.633 
   92600    295.72367   -1420.8452    452.52963    354.81005    110.55292    39062.633 
   92700    300.26328   -1436.5604    436.15458    343.03089   -237.22417    39062.633 
   92800    292.65449   -1479.3449    458.31641    288.36502   -185.28158    39062.633 
   92900    289.19986   -1432.8375     457.3824    318.48172    334.82346    39062.633 
   93000     311.6779   -1474.3964    431.60852    351.72014   -41.050997    39062.633 
   93100    308.25145   -1456.4537    408.54463     331.2683    273.17222    39062.633 
   93200    307.28542    -1472.574    431.02431    333.30543    124.15075    39062.633 
   93300    308.47488   -1422.1507    425.39753     383.4239    216.42541    39062.633 
   93400    306.68787   -1395.6165    433.77503    410.34013    -60.89571    39062.633 
   93500    300.20827   -1434.1312    436.74913    345.80851   -160.58651    39062.633 
   93600    293.36269   -1443.3454    440.03519    309.25194    402.02554    39062.633 
   93700    298.68969   -1412.5441    473.31076    397.16288    176.92998    39062.633 
   93800    306.65095   -1389.2248    445.51063    428.30222    -609.4201    39062.633 
   93900    304.15564   -1422.4513    448.97986    387.38051    -447.2438    39062.633 
   94000    291.25208   -1432.3385     464.6591    335.43943   -100.87779    39062.633 
   94100    309.28236   -1382.2969    462.72021    464.21317    543.05115    39062.633 
   94200    307.05837    -1453.097    433.20308    353.94536     419.4315    39062.633 
   94300    300.32108   -1463.2336    435.52498     315.9867     948.9893    39062.633 
   94400    290.17917   -1429.1374    429.06295    298.24403    339.42963    39062.633 
   94500    309.83032   -1415.9028    432.88282    403.22162    81.455776    39062.633 
   94600    294.27564   -1441.2577    461.26429    336.65343     672.9499    39062.633 
   94700    305.66375   -1456.9539    449.51415    360.15976   -25.344439    39062.633 
   94800    293.54678   -1427.0497     454.5684    340.90447    343.64294    39062.633 
   94900    301.86807   -1442.4374     460.0972     368.2767    -445.0151    39062.633 
   95000    294.57623   -1403.4381    434.38639     348.9401   -526.16919    39062.633 
   95100    298.12522   -1397.3247    454.68648    391.23243   -780.37291    39062.633 
   95200    304.64939   -1396.5008    451.95254    418.51285    11.871867    39062.633 
   95300    297.97973   -1407.9221    439.86612    365.16369   -173.63326    39062.633 
   95400    298.06307   -1418.9197    470.19619      384.869    39.789999    39062.633 
   95500    294.94617   -1422.6975    442.59586    339.54531    106.75894    39062.633 
   95600     303.4713   -1460.9522    442.04613    338.88395   -104.97454    39062.633 
   95700    297.15924   -1445.6313    457.72803     341.6454   -62.098353    39062.633 
   95800    311.06678   -1453.1856    419.36468    357.95281    97.770018    39062.633 
   95900    294.16697   -1436.8632    445.12986    324.42732   -498.03424    39062.633 
   96000    291.67993   -1394.2104    450.41847    361.24121   -406.15326    39062.633 
   96100    294.42438   -1438.2527    448.73846    327.79813    -179.0591    39062.633 
   96200    307.47108   -1403.9281    451.97145    423.72916   -412.06652    39062.633 
   96300    295.35942    -1406.182    430.92494    346.23888   -420.42304    39062.633 
   96400    288.76429   -1461.6666    440.58347    270.90483    -613.0032    39062.633 
   96500    293.21315   -1412.7189    449.13754    348.31172   -54.270275    39062.633 
   96600    301.35018   -1405.9278    476.30565    418.67753    216.30815    39062.633 
   96700    295.34634   -1456.1991    421.46535    286.70365    51.258077    39062.633 
   96800    293.70662   -1463.2901    436.83995    287.65077   -154.66443    39062.633 
   96900    288.93553   -1463.0536    438.50805    268.20857   -577.09548    39062.633 
   97000     296.7114   -1428.5118    452.66228    351.69539   -103.06396    39062.633 
   97100    304.94681   -1413.0229    470.76396    422.13282    345.70149    39062.633 
   97200    288.69404   -1436.0511    452.56857    308.19116    150.76496    39062.633 
   97300    294.90895    -1380.925    456.63523    395.19059   -663.58149    39062.633 
   97400    292.01091   -1421.6423      456.795    341.66669    -165.6058    39062.633 
   97500    302.44753   -1420.0847    442.34773    375.47251    43.449329    39062.633 
   97600    295.33931   -1400.1954    460.18413    381.39464    353.63899    39062.633 
   97700    304.57304    -1432.213    432.85177    363.35822    -335.7421    39062.633 
   97800    303.65191   -1450.7427    455.07562      362.931   -515.36813    39062.633 
   97900    298.56539   -1443.9805    436.84519     328.7047   -213.14092    39062.633 
   98000    302.09396   -1398.9304    440.03427    392.73145    117.61383    39062.633 
   98100    291.91358   -1431.5556    443.95285     318.4758    -179.3527    39062.633 
   98200    303.42702   -1398.6946    439.82593    398.72321   -211.83114    39062.633 
   98300    284.66215   -1383.2711    449.42468     339.7878   -844.85984    39062.633 
   98400    303.08597   -1410.9797    431.72514    376.81146    -727.6231    39062.633 
   98500    300.70205   -1375.9834    472.86512    442.28158   -214.93873    39062.633 
   98600    293.02131   -1418.7504    422.81436    315.09868   -506.20071    39062.633 
   98700    287.97922   -1431.8518    467.34529    323.96895   -62.590905    39062.633 
   98800     299.4047   -1386.0329    460.48971    414.05212    538.95325    39062.633 
   98900    288.83096    -1373.028    458.45887    377.71718   -97.392219    39062.633 
   99000    300.66054   -1391.5753    428.32478    381.96362   -319.25139    39062.633 
   99100    292.77794   -1426.6897    463.20516    346.46135   -495.89957    39062.633 
   99200    305.45763   -1450.1514    466.95409    383.47994    191.48987    39062.633 
   99300    299.05421   -1453.3236     462.6284    347.33188   -158.46041    39062.633 
   99400     298.8129     -1437.24    435.08501    334.79247    167.04368    39062.633 
   99500    308.80265   -1380.9001    463.45316    464.19667    13.458474    39062.633 
   99600    295.10092   -1368.9424    471.96326    423.36022   -233.96888    39062.633 
   99700    308.96322    -1402.445    464.97772    444.89471    508.06517    39062.633 
   99800    295.00835   -1396.7604    465.42601    388.59073    397.96989    39062.633 
   99900    300.70666   -1385.5977    465.52499    425.34779    155.30667    39062.633 
  100000    308.40906    -1440.907    447.88924    386.86478    450.56976    39062.633 
  100100    291.92244   -1439.9649    465.46056    331.61381    195.97737    39062.633 
  100200    321.29781   -1427.0704    463.94036    474.41928    349.11493    39062.633 
  100300     295.7404   -1407.7334    462.66255    378.12961     472.1298    39062.633 
  100400    298.90298   -1435.1511     465.9787    368.17807    496.15342    39062.633 
  100500     298.9676   -1389.4182     490.4962    438.71758    160.84645    39062.633 
  100600    294.47128   -1402.1557    451.80527    367.17177     350.3962    39062.633 
  100700    300.43068    -1390.998    464.50553    417.69323    289.52086    39062.633 
  100800    295.75826   -1408.2158    484.31124    399.37578    219.32972    39062.633 
  100900    297.67086     -1439.03    456.56531      349.373    526.18328    39062.633 
  101000    294.24801   -1436.3869    438.36621    318.50254    397.72814    39062.633 
  101100    304.31519   -1454.1562    454.29276    361.70231    563.89813    39062.633 
  101200    308.92145   -1451.5209     442.9867    373.64087    423.39169    39062.633 
  101300    305.79392   -1446.8716    455.10126    376.41162    725.13128    39062.633 
  101400    299.48065   -1485.2247    444.03109    298.74144    343.90051    39062.633 
  101500    291.27165   -1501.5671    440.07329    241.71259    -201.9836    39062.633 
  101600    303.48398   -1491.8433    431.22305     297.2265    -204.8713    39062.633 
  101700    303.20984   -1519.1485    450.43244     287.9042    396.17932    39062.633 
  101800     301.5735   -1507.8928    422.75203    264.15808     716.4934    39062.633 
  101900    307.82384   -1496.7682     475.3998    355.89581    1131.4632    39062.633 
  102000    297.46341   -1461.0361    415.18615    285.05961   -405.84363    39062.633 
  102100    300.55938    -1433.966    485.96716    396.76275     97.82054    39062.633 
  102200    298.05405   -1475.6134    425.44868    283.38747   -213.89196    39062.633 
  102300     309.0524   -1504.0784    461.84568    340.52827   -472.07992    39062.633 
  102400     300.8932   -1494.0242    459.66565    311.89659    194.49296    39062.633 
  102500    304.19303   -1462.3744    453.07256    351.71735   -82.069799    39062.633 
  102600    301.59087   -1417.4221    453.17044    385.12492   -91.330672    39062.633 
  102700    297.76743   -1408.8591     464.5654    387.97613   -228.05883    39062.633 
  102800    302.96369   -1452.5305    452.63129    355.61966   -190.60558    39062.633 
  102900    300.24757    -1445.394    464.52101    362.49345    -291.8516    39062.633 
  103000    294.63197   -1448.5162    467.26256    336.98753   -341.80875    39062.633 
  103100    305.13384   -1437.4875    466.91848    394.65954   -731.99483    39062.633 
  103200    292.18903   -1419.5458     424.9858    312.75093    197.98259    39062.633 
  103300    303.84185   -1443.6987    465.36936    381.11861   -303.37752    39062.633 
  103400    301.96535    -1443.861    439.15675    346.34784   -234.11212    39062.633 
  103500    297.88881   -1412.1583    442.47693    363.13153    340.07982    39062.633 
  103600    305.64452   -1425.1403    457.33748    399.71063    561.24961    39062.633 
  103700    298.10547   -1446.5148    449.30514    336.57259    536.90167    39062.633 
  103800    290.30295   -1448.9123    456.13005    306.09002    320.55241    39062.633 
  103900     301.6704   -1407.9893    466.95305     408.6962    64.053581    39062.633 
  104000    289.98444   -1427.7612    422.24963    291.93566    54.488573    39062.633 
  104100    294.00696   -1452.6578    437.59303    300.37999   -250.56936    39062.633 
  104200    298.83014   -1477.7863    458.77825    318.01651    137.16539    39062.633 
  104300     306.9946   -1486.4264    449.81229    336.93984     478.1626    39062.633 
  104400    303.41806   -1505.7168    461.61491    313.44991    176.14833    39062.633 
  104500    306.43117   -1450.6503    447.22945    367.61221   -351.27647    39062.633 
  104600    293.69663   -1452.5934    429.39467    290.85752   -30.865074    39062.633 
  104700    296.98567   -1466.3942    443.63229    306.01018   -492.40809    39062.633 
  104800    295.99199   -1438.7467    456.04109    341.62057    -172.7575    39062.633 
  104900    303.51362   -1436.2928    443.65689    365.34346    175.70692    39062.633 
  105000    295.78488    -1455.813     413.7217    281.30816   -122.98016    39062.633 
  105100    297.64287   -1403.6647    459.86554    387.91341   -259.35541    39062.633 
  105200    296.78557   -1413.6501    453.39163    367.61828    83.935578    39062.633 
  105300    296.42985   -1418.3416    470.05005    377.99364   -30.424774    39062.633 
  105400    308.72547   -1429.5446    464.65925    416.41289    353.69211    39062.633 
  105500    308.43738   -1444.1628    443.20742    379.05386    948.56457    39062.633 
  105600     297.5283   -1422.8422    450.66508     359.0228    140.36595    39062.633 
  105700    295.74565   -1438.1559    446.56147    331.62957   -95.196081    39062.633 
  105800    300.53686    -1440.813    447.03054    350.87837    428.25461    39062.633 
  105900    306.57955   -1446.0624    440.87008    366.50468    523.98418    39062.633 
  106000    299.26276   -1428.7248    454.50499    364.74043    361.84316    39062.633 
  106100    296.98167   -1435.1614     445.2612    338.85394    242.88704    39062.633 
  106200      294.412   -1418.7435    452.68935    351.20279    132.38115    39062.633 
  106300     304.2273   -1457.3694    456.55791    360.36099    57.407474    39062.633 
  106400    290.32991   -1447.7482    456.21945    307.46418    467.73374    39062.633 
  106500    303.03784   -1449.4154    473.84862    380.28383    602.56759    39062.633 
  106600    298.91252    -1435.383    462.74259     364.7527    1047.1527    39062.633 
  106700    286.21545   -1478.5251    442.31698    244.37589   -244.85539    39062.633 
  106800    303.81524   -1496.9458    447.16297    309.54608   -120.07161    39062.633 
  106900    298.21487   -1471.2157    424.60662    287.66264     169.0848    39062.633 
  107000    296.21993   -1460.3543    428.55773    293.54945   -54.534093    39062.633 
  107100    298.39119   -1473.0765    439.86571    301.84982    353.13597    39062.633 
  107200    293.61358   -1469.8001     447.9027    291.78727   -401.07698    39062.633 
  107300    298.10566   -1430.6667    449.74944    352.86591   -930.10469    39062.633 
  107400    309.15957    -1431.023    427.16187    379.37937   -287.71006    39062.633 
  107500     292.4559    -1425.704    483.36273    366.16372   -469.89198    39062.633 
  107600    288.72229   -1466.5945    425.08777    250.29341   -1052.4237    39062.633 
  107700    308.67997   -1445.7494    463.87589    399.22115   -366.56416    39062.633 
  107800    300.48923   -1423.9264    471.07101    391.59229    78.579138    39062.633 
  107900    292.36696   -1432.2255    441.75984    317.64141   -113.26256    39062.633 
  108000    299.54743   -1425.6264    476.94632    391.55377   -388.76541    39062.633 
  108100    296.84778    -1437.571    442.95781    333.54197    281.44851    39062.633 
  108200    302.06425   -1410.3611    442.89362    384.02709    369.56687    39062.633 
  108300    309.29125   -1419.6228    462.43629    426.64315    188.28291    39062.633 
  108400    289.11683   -1392.9505    464.86789    365.48272   -119.68746    39062.633 
  108500    305.71702    -1415.051    442.08608     394.8729   -46.327286    39062.633 
  108600    291.36077   -1464.8459    453.61735    292.37659     20.92083    39062.633 
  108700     303.0546    -1458.894    443.41724    340.44886    332.66291    39062.633 
  108800    293.72598   -1480.0597    442.81053    276.93844    308.38052    39062.633 
  108900    311.87055   -1420.5255    465.61701    440.46142     81.55477    39062.633 
  109000    303.84769   -1416.8556    452.01896    394.63744    298.69886    39062.633 
  109100    304.82778   -1482.0691    464.19163     345.9817   -25.696942    39062.633 
  109200    299.02938   -1466.1385    464.57692    336.35448    193.26542    39062.633 
  109300    308.98932   -1471.6076    452.88966    363.76082   -225.56677    39062.633 
  109400    295.15599   -1441.3423    449.83169    329.07511   -367.36505    39062.633 
  109500    298.36329    -1446.501    443.19893    331.63373    85.159767    39062.633 
  109600    304.45311   -1439.3104    473.91572    396.78819   -184.79818    39062.633 
  109700    295.26223   -1470.7809    455.86793    306.14805   -285.51287    39062.633 
  109800    298.91528   -1482.6373    452.25769    307.02595   -109.16798    39062.633 
  109900    296.22223   -1460.3107    459.94958    324.99514   -153.27103    39062.633 
  110000    297.45049   -1450.2991    446.37774    326.93037   -125.52314    39062.633 
  110100    304.71598   -1386.2418    459.98847    437.10568   -414.44319    39062.633 
  110200    312.25913   -1487.7505    441.10275    350.46079   -317.11855    39062.633 
  110300    300.14785   -1458.9416    462.76958    346.74826    -423.7535    39062.633 
  110400    296.21883   -1450.4094    444.47077    319.40242    102.80105    39062.633 
  110500    307.00696   -1465.1081    453.17144    361.67266   -367.43328    39062.633 
  110600    302.71933   -1414.0301    462.92937    403.32486   -54.840812    39062.633 
  110700    304.05041   -1446.2512    433.63707    347.76698     457.9482    39062.633 
  110800    298.51503   -1442.1257     471.2126     364.7016     344.4546    39062.633 
  110900    290.89095   -1468.3632    469.28879    302.42871   -56.369613    39062.633 
  111000     302.5191   -1459.1327    450.16226    344.55924    269.93661    39062.633 
  111100    291.55541   -1452.5589    451.68762    303.60472   -159.37592    39062.633 
  111200    298.97549   -1442.6185    458.23196    353.28833   -485.33495    39062.633 
  111300    297.30923   -1435.5874    449.55352    344.18585   -263.80063    39062.633 
  111400    303.68293   -1445.1714    450.11775    363.68323   -553.29628    39062.633 
  111500    294.72625   -1421.9394    454.04705     350.7706   -421.14594    39062.633 
  111600    293.05236   -1424.5195     442.5853    329.23944   -663.90642    39062.633 
  111700     300.0099   -1468.9199    436.98297    310.36615   -38.802052    39062.633 
  111800    302.44187   -1446.3345    455.92019    362.76985    159.97045    39062.633 
  111900    300.41772   -1426.6377    477.91136    395.40139     883.9284    39062.633 
  112000    295.35958   -1455.9323    445.31089    310.87521    564.14303    39062.633 
  112100    301.87395   -1470.5887    461.09472    341.14924    353.30619    39062.633 
  112200    309.27334    -1466.877    454.73945    371.61196    54.413336    39062.633 
  112300    296.15746   -1481.9754    457.69531    300.78645    115.99718    39062.633 
  112400    298.55125   -1503.5128    458.03512    290.29914    157.65319    39062.633 
  112500    292.63742   -1477.0652    435.23896    267.49094   -39.066099    39062.633 
  112600    302.83878   -1477.2227    439.18873    316.92602    280.96127    39062.633 
  112700    299.16799   -1461.8015    452.14166    328.87634    112.36034    39062.633 
  112800    295.08119   -1459.4056    442.80556    303.65104    -29.05828    39062.633 
  112900    306.40062   -1497.6236    439.28775    312.56053    71.836576    39062.633 
  113000    295.76144    -1495.571    435.74217    263.46573    169.14277    39062.633 
  113100    299.61159   -1470.1568    460.99821    331.36234    36.429683    39062.633 
  113200    314.15412   -1450.5071    417.07415    372.15412   -712.68745    39062.633 
  113300     302.0605    -1487.745    432.86536    296.59825   -371.67189    39062.633 
  113400    297.42909   -1487.8094    439.61531    282.56186   -462.96687    39062.633 
  113500    299.29863   -1479.9074    459.58578    318.79909  0.083313293    39062.633 
  113600    280.53744   -1503.6245    433.35589    184.91088   -167.17707    39062.633 
  113700    302.01642   -1452.7083    469.55514    368.12743    105.63736    39062.633 
  113800    295.86319   -1459.4413    427.77511    292.08369    183.85814    39062.633 
  113900    298.00406   -1415.1471     446.7771    364.95857   -309.26461    39062.633 
  114000    311.44294   -1418.3408    475.50746    450.62334   -224.62544    39062.633 
  114100    297.79094   -1456.7961    452.47905    328.05789   -257.14444    39062.633 
  114200    306.79529   -1472.9274    451.14352    350.87831    134.60399    39062.633 
  114300    300.73451   -1446.6722    467.66373    366.53666   -172.29548    39062.633 
  114400    297.15327   -1450.5299    468.02018    347.01217   -77.436038    39062.633 
  114500    300.71196   -1384.2119    471.45568    432.68801    371.19851    39062.633 
  114600    298.94657   -1422.1861    464.71287    380.07231   -20.254033    39062.633 
  114700    303.94608   -1413.9108    463.50314    409.50665    -42.49876    39062.633 
  114800     297.4612   -1418.8695    462.81569    374.84585     3.605645    39062.633 
  114900    301.89243   -1446.7094     431.0825    335.09893    73.891653    39062.633 
  115000    300.27927   -1436.7717    489.21579    395.95236   -262.15154    39062.633 
  115100    295.26815   -1464.1526    452.02551    308.96045    220.38777    39062.633 
  115200    303.89694   -1452.9962    452.05582    358.75406    194.37459    39062.633 
  115300     302.1516   -1445.6346    452.91601    359.16684    134.86401    39062.633 
  115400    299.98733   -1454.4677    454.05204    341.78642   -144.60507    39062.633 
  115500    293.49613   -1421.6253    447.31431    338.84817   -44.834568    39062.633 
  115600    295.89667   -1427.0219     437.7053     334.5831   -244.17341    39062.633 
  115700    301.26315   -1418.9446    444.20264    373.16836   -498.27651    39062.633 
  115800    297.18302   -1425.6019    440.96794    345.02113   -627.78161    39062.633 
  115900    297.45084     -1424.85    458.78703    364.79035   -395.77155    39062.633 
  116000    301.35119   -1421.3916    449.70745    376.62014   -251.04951    39062.633 
  116100    298.91296   -1439.2124    445.67642    343.85912    85.996146    39062.633 
  116200    299.00504   -1448.0017    466.31381    356.11924    466.02877    39062.633 
  116300    307.06944   -1454.8355    477.55486    396.60824     264.6138    39062.633 
  116400    299.07609   -1416.6068    470.14933    391.66756    468.70848    39062.633 
  116500    301.63382   -1431.0112     476.6881    395.24576    122.88095    39062.633 
  116600    300.22946   -1397.0991    433.05714    379.24342    188.34478    39062.633 
  116700    305.92063    -1456.817    431.45661    343.38844    111.37902    39062.633 
  116800    309.01816    -1471.472    448.04123    359.17699   -1.6534336    39062.633 
  116900    289.81821   -1452.7042     466.4098    310.40902    153.06469    39062.633 
  117000    299.05712   -1450.0981      441.401      329.343    966.71047    39062.633 
  117100    303.77339   -1493.7289    455.86107    321.27385    618.88289    39062.633 
  117200    300.47378   -1484.4497    446.44815    306.37697    463.58446    39062.633 
  117300    288.68126   -1480.3496    473.24979    284.51663    284.23556    39062.633 
  117400    301.26869   -1453.7496    456.36665    350.55214    78.435569    39062.633 
  117500    297.53751   -1449.9243     429.4621    310.77891   -242.90898    39062.633 
  117600    297.20973   -1457.9564    443.41974    315.23791   -76.083652    39062.633 
  117700     298.6812   -1487.5751    445.13386    293.91701   -216.67671    39062.633 
  117800    296.85788   -1463.3377    448.56224    313.42485    253.43497    39062.633 
  117900    295.90377   -1500.9657    456.39537    279.36106    15.397873    39062.633 
  118000    294.92771   -1462.4207    452.04514    309.18877   -112.96014    39062.633 
  118100    287.43545   -1452.0099    474.40224    308.43487   -380.13459    39062.633 
  118200    298.80241   -1433.1047     444.9522    348.74801   -436.79493    39062.633 
  118300    307.01827   -1479.4422    454.76643    348.98415    235.92797    39062.633 
  118400    301.56006   -1469.7774    457.42623    336.88763    205.03844    39062.633 
  118500    297.34312   -1485.0668    448.64122    293.94582   -8.6052682    39062.633 
  118600    296.85436   -1460.8869    440.14134    307.43896   -131.34017    39062.633 
  118700    297.08284   -1442.0003    461.76831    348.97487    -258.6594    39062.633 
  118800    290.55434    -1480.634    445.28321    264.64621   -309.67034    39062.633 
  118900    291.29417   -1475.8088    469.44114    296.93957   -761.55929    39062.633 
  119000      300.485   -1505.0426    435.99243    275.37857   -348.85392    39062.633 
  119100    294.50452   -1480.9631    431.73502     268.4428     451.7469    39062.633 
  119200    308.66591   -1485.0938    481.92256    377.86046   -157.26153    39062.633 
  119300    306.39801   -1505.4514    463.84269    329.27596    81.834252    39062.633 
  119400    296.64695   -1482.0889    436.27907    281.44669    123.56277    39062.633 
  119500    294.10236   -1491.0226    438.77687    263.62587    123.12064    39062.633 
  119600    305.55407   -1480.0419     418.6802    305.74706    123.92837    39062.633 
  119700    300.13763   -1481.5287    466.41027    327.75615    332.88951    39062.633 
  119800    292.29286   -1468.5593    429.77926    268.99546    541.69196    39062.633 
  119900    300.19938   -1446.9655    447.01387    343.19925    896.34192    39062.633 
  120000    287.31457   -1522.1031    440.70958    204.10813    253.09836    39062.633 
  120100     300.9467   -1493.7048    428.24077    281.03048    56.568967    39062.633 
  120200    310.58824   -1481.2049    431.43637    339.86409   -489.85723    39062.633 
  120300    290.02023   -1472.8222    421.19011    245.97523   -397.39691    39062.633 
  120400    303.45983   -1457.0872     432.3193    332.97083   -492.66226    39062.633 
  120500     299.0482    -1472.352     439.8493    305.49753   -486.90536    39062.633 
  120600    305.39201   -1410.2826    454.23371    410.33473   -10.912813    39062.633 
  120700    293.82971   -1389.7195    457.35332    382.28552    1.6308749    39062.633 
  120800    308.79269   -1405.5981    443.10673    419.10761    258.82046    39062.633 
  120900    298.09654    -1448.189    468.33706    353.89033    202.91052    39062.633 
  121000    297.14797   -1485.6633    449.59115    293.42606   -269.59219    39062.633 
  121100     296.1738   -1436.1881    468.24335    357.19483    173.83259    39062.633 
  121200    295.96198   -1476.7747    440.58464    288.00184    28.802635    39062.633 
  121300    305.76829   -1406.9205    486.93394    448.08063     277.5957    39062.633 
  121400    294.06239   -1456.9174     421.5189     280.2943   -397.03747    39062.633 
  121500    294.85873   -1441.3614    457.57773    335.47207   -148.10483    39062.633 
  121600    292.92697   -1432.2693    460.25526    338.59859   -109.33948    39062.633 
  121700    303.28254   -1402.9178    472.54252    426.57023   -167.85489    39062.633 
  121800    300.38617   -1434.1345    460.85829    370.71041   -759.53402    39062.633 
  121900    294.05171   -1430.9551    459.13246    343.82234   -342.50284    39062.633 
  122000    303.84739   -1396.1383    479.22367    442.55809   -108.63994    39062.633 
  122100    302.15404   -1459.0658    432.86123    325.69176   -184.53959    39062.633 
  122200    303.37031   -1431.1503    488.17784    414.36577   -111.25337    39062.633 
  122300    293.81652    -1402.794    440.85868    352.65741    91.828422    39062.633 
  122400    298.99616   -1403.3543    469.44456    403.85766    84.989074    39062.633 
  122500    307.69759   -1393.0176    455.65763    439.33931    228.13245    39062.633 
  122600    291.80891    -1428.691    448.02971    324.94895   -557.97356    39062.633 
  122700    296.50753   -1420.9304    415.06056     320.7629   -587.86339    39062.633 
  122800    298.69966   -1430.8485     474.6642    380.25653   -676.34352    39062.633 
  122900    289.07142   -1423.8914    429.76056    299.23134    -1043.302    39062.633 
  123000    303.17243    -1427.585    459.13555    388.00335   -875.46841    39062.633 
  123100    302.81816   -1451.7697    472.71075    375.80879   -906.18336    39062.633 
  123200    306.95115   -1444.4877    424.53204    353.40391   -254.84311    39062.633 
  123300    297.83603   -1444.3455     432.8904    321.12164   -694.38059    39062.633 
  123400    304.86618   -1451.4462    430.22063    342.80545   -1159.2763    39062.633 
  123500    302.87183   -1426.6954    467.88629    396.29882   -485.73416    39062.633 
  123600    294.52092   -1422.8929    436.30801    331.15942   -126.90493    39062.633 
  123700    292.08967   -1437.8154     432.8334    301.88435   -473.87976    39062.633 
  123800    289.63137   -1420.9005    452.60215    327.56908   -660.48393    39062.633 
  123900     306.8137   -1419.6729    437.95737    391.02902   -428.80905    39062.633 
  124000    287.58285   -1460.5904    441.27184     267.3834   -343.39535    39062.633 
  124100    304.49498   -1437.1025    461.01606    386.28371   -183.60664    39062.633 
  124200      301.229   -1482.2645    448.11663    313.60974    236.48121    39062.633 
  124300     298.9861   -1441.2693    442.69419    339.14722    171.38593    39062.633 
  124400    294.72112   -1449.8284    458.91984    327.73146    221.27176    39062.633 
  124500    308.90127   -1446.4476    442.68996    378.32711    508.63007    39062.633 
  124600    308.11293   -1508.6156    450.85704    320.79898    348.94997    39062.633 
  124700    297.33428   -1482.6329    442.85029    290.54916    154.95292    39062.633 
  124800    296.26207   -1500.6489    453.29881    278.18448    360.79142    39062.633 
  124900    300.90775   -1436.4454    446.02515        355.9    100.92128    39062.633 
  125000    299.08494   -1406.9991    459.89898    391.06452    267.28846    39062.633 
  125100    295.33165   -1453.9393    451.10648    318.53881   -71.835573    39062.633 
  125200    303.85025    -1434.068    476.57136    401.98887   -288.13615    39062.633 
  125300    305.09216   -1457.5093    442.59347     350.1263   -16.475296    39062.633 
  125400    292.84742   -1478.3236    441.83174    273.76484   -48.319749    39062.633 
  125500    308.76714    -1502.564    438.82072    317.74138    60.957052    39062.633 
  125600    294.07997   -1451.6436      444.696    308.82384    538.66764    39062.633 
  125700    306.11087   -1436.8091    437.42098    370.21194    130.66461    39062.633 
  125800    296.51561   -1443.0865     445.6211    329.20349    36.519393    39062.633 
  125900    294.77061   -1514.2486    434.74782    239.36062   -207.74006    39062.633 
  126000    294.31309   -1489.5866     433.1658    260.39364   -99.743208    39062.633 
  126100    300.41009   -1500.8613    436.65463    279.88688   -50.059353    39062.633 
  126200    300.88882   -1470.0993    468.37926    344.51549   -367.73204    39062.633 
  126300    299.29143   -1442.6777    457.02398    353.43481   -152.47047    39062.633 
  126400    306.58799   -1506.0625    425.82124    291.49342   -15.356417    39062.633 
  126500    296.19894   -1524.9086    438.49753      238.841   -382.87304    39062.633 
  126600    307.22795   -1499.8262    465.78165    340.55347   -7.8621401    39062.633 
  126700     294.5955   -1507.7409    435.71143    246.04848   -196.62954    39062.633 
  126800     303.8825   -1450.7872    457.43892     366.2816    174.47583    39062.633 
  126900    292.81646   -1536.8693    433.05736    206.30625    133.81943    39062.633 
  127000    299.57913   -1492.9916    438.90019    286.28427    377.86833    39062.633 
  127100    305.70758   -1472.9515    441.60432    336.44842    101.26737    39062.633 
  127200     292.0202   -1474.0526    433.41576    265.91875    -345.3272    39062.633 
  127300    304.49963     -1458.25    443.30312    347.44411    25.981146    39062.633 
  127400    313.09871   -1434.7713    454.67012     420.7638    185.10329    39062.633 
  127500    291.85344   -1493.9009    464.12682    276.03537     -214.351    39062.633 
  127600    308.65893   -1469.5972    435.40319    346.80652    217.12891    39062.633 
  127700    286.88513   -1479.2146    447.21998    251.58563    147.50472    39062.633 
  127800     294.4022   -1486.0124    436.13148    267.33222   -145.01935    39062.633 
  127900    308.19339   -1482.0582    447.56521    344.42461   -276.70306    39062.633 
  128000    296.31396   -1536.5933    433.39524    222.56861    39.421963    39062.633 
  128100    301.50982   -1482.5224    448.40431    314.89591    718.96989    39062.633 
  128200    306.23673   -1511.3368    472.03905    330.86535    479.67683    39062.633 
  128300    311.85822   -1464.5975    428.93701    359.65427   -67.347817    39062.633 
  128400    296.10417   -1425.4205    443.62946    343.03699    316.13624    39062.633 
  128500    300.94835   -1509.8379    449.28525    285.94925    93.910187    39062.633 
  128600    306.71065    -1454.908    463.61019    380.98572   -97.655338    39062.633 
  128700    300.48326   -1530.7532    452.89794    266.56566    738.27459    39062.633 
  128800    294.52182    -1515.435     447.1731    249.48642    185.48847    39062.633 
  128900    305.96959   -1505.3487    442.24769    305.86691   -609.59955    39062.633 
  129000    307.17811   -1439.6541    444.27457    378.99553   -530.34115    39062.633 
  129100    305.86031   -1461.1391    416.66081    324.00065   -776.44975    39062.633 
  129200    286.45944   -1470.1565    459.34347    270.86261   -754.27988    39062.633 
  129300    302.94381   -1451.5101     456.7134    360.63327   -109.14013    39062.633 
  129400    297.31773   -1462.6726    458.36755    325.95267    -465.0555    39062.633 
  129500     307.8782    -1429.846    455.17017    402.83159   -61.613206    39062.633 
  129600    302.16454   -1459.4876    471.17387    363.62962    19.525525    39062.633 
  129700    302.30271   -1472.9167    451.63119    331.27609      130.331    39062.633 
  129800    294.83982   -1451.4064    461.06685    328.83151   -266.50826    39062.633 
  129900    307.64589   -1469.9176    457.44656    363.99691    135.31116    39062.633 
  130000    305.39004   -1466.5384     455.8198    355.65627    173.54354    39062.633 
  130100    297.78245   -1418.8267     458.1947    371.70496    268.59324    39062.633 
  130200    296.85891   -1439.9173    464.10644    352.39407   -7.3594175    39062.633 
  130300    301.49245   -1408.6235    466.05371    406.36651   -240.37608    39062.633 
  130400    296.45105   -1463.2999    455.61147    318.69161   -624.48849    39062.633 
  130500     301.4071   -1437.8646    458.05236    368.74218    -191.7451    39062.633 
  130600    291.86356   -1458.9799    442.34836    289.22321   -477.28861    39062.633 
  130700    292.14113   -1439.0078    479.40675    347.49561    -128.2178    39062.633 
  130800    306.00895     -1445.41     465.1101    388.84414   -370.45628    39062.633 
  130900    303.22833   -1455.6035    478.43944     379.5389   -87.098193    39062.633 
  131000    296.63029   -1499.3039    446.56103    274.43909   -337.26889    39062.633 
  131100    296.98948   -1441.2461    486.28721    373.83025   -65.848723    39062.633 
  131200     309.4158   -1493.9557    454.08552    344.51671    89.910366    39062.633 
  131300    304.34993   -1435.7336    459.01753    385.00511    242.90923    39062.633 
  131400     298.7585   -1436.6968    464.84712    364.85439    789.59833    39062.633 
  131500    290.65419   -1443.0278    450.00875    307.42478    204.22831    39062.633 
  131600    297.31035   -1441.6128    462.04089    350.65283    55.505269    39062.633 
  131700    303.14166   -1441.1555    484.68472    399.84437    673.28575    39062.633 
  131800    291.66535   -1417.0711    448.66503    336.56183    -149.5873    39062.633 
  131900    299.70826   -1434.3572    483.20182     389.7981    407.29592    39062.633 
  132000    295.52597   -1430.0933    478.16928    370.31702    424.57449    39062.633 
  132100    320.99154   -1446.5556    456.76377    446.38716     729.1208    39062.633 
  132200    285.05812   -1463.8883    471.93581    283.45342    521.08506    39062.633 
  132300     303.2084   -1459.8617    469.01052    365.76257    533.25774    39062.633 
  132400    306.33195   -1443.2155    464.92472    392.29839    509.87498    39062.633 
  132500    290.82119   -1475.3811    459.56314      285.373    551.78773    39062.633 
  132600    304.19584   -1491.4603    474.27983    343.85133    650.30073    39062.633 
  132700    317.31369   -1486.9205    470.06749    402.87055    611.54925    39062.633 
  132800    310.25173   -1443.9819    467.64311    411.78819    777.44988    39062.633 
  132900    298.28009   -1456.1639    476.94024    355.33994    805.18902    39062.633 
  133000    299.43595   -1472.8935    471.00798    337.84963    567.00633    39062.633 
  133100    292.72354    -1455.418    458.06603    312.35048    315.46375    39062.633 
  133200    307.07179   -1485.0645    457.04818    345.88299    602.14571    39062.633 
  133300    298.54686   -1463.7889    491.36609    363.33434    332.94156    39062.633 
  133400    297.96278   -1458.0107     449.9779    325.11103    639.16104    39062.633 
  133500    300.67166   -1489.9429    443.43298    298.75397      485.575    39062.633 
  133600    297.94074   -1465.6588    472.71444    340.10087   -112.51173    39062.633 
  133700    296.99184   -1448.7109    465.49296    345.58172    175.05536    39062.633 
  133800    308.40663   -1476.4841    453.82747    357.21508   -342.20162    39062.633 
  133900    289.50438   -1456.2268    466.03866     305.1112   -400.00059    39062.633 
  134000    291.40177   -1494.1414    461.42944    271.07665   -350.41263    39062.633 
  134100    308.25453   -1503.5912     440.1349    315.73488    21.860515    39062.633 
  134200    302.26788   -1464.9136    455.92744     343.4195    491.72445    39062.633 
  134300    294.92035   -1476.8247    465.23086     307.9376    -103.2268    39062.633 
  134400     292.8959   -1460.3783    458.87641    308.97178   -297.85286    39062.633 
  134500    298.24215   -1473.1686    470.43465    331.65989    419.49052    39062.633 
  134600    307.77073   -1500.0298    440.36564    317.36235   -253.68871    39062.633 
  134700    298.72533   -1470.4715    452.56125    318.64544   -189.18261    39062.633 
  134800     300.2908   -1493.9355    472.91757    322.54189    478.64479    39062.633 
  134900     296.3073   -1524.0224    441.20923    242.92376    147.42081    39062.633 
  135000    306.39055   -1466.3003    466.71634    371.26738   -325.38719    39062.633 
  135100    297.66987   -1462.9889    466.54043    335.38483    -319.9585    39062.633 
  135200    296.53597   -1456.4983    484.26603    354.52774    192.27372    39062.633 
  135300    300.91277    -1428.361    455.90631    373.88796    425.97072    39062.633 
  135400    303.10361   -1466.2094     469.4104    359.34592    215.05475    39062.633 
  135500    292.74775   -1498.5567    462.81391    274.06797    87.116032    39062.633 
  135600    303.59334   -1494.6533    459.04881    322.73159    336.90276    39062.633 
  135700    307.96351   -1483.6795    492.63066    386.84017    580.83336    39062.633 
  135800    301.03227   -1490.3901    465.32094    321.80813    965.59007    39062.633 
  135900    306.87154   -1485.1125    463.73429    351.62515    1166.6566    39062.633 
  136000    305.63197   -1448.6209    475.07739    393.91375      727.734    39062.633 
  136100    301.48546   -1451.5671    438.93349    336.27144    314.01149    39062.633 
  136200    306.86925   -1451.0825    458.94847    380.85911   -75.198402    39062.633 
  136300    296.84926   -1464.2002     461.1874    325.14898   -209.53359    39062.633 
  136400    300.19095   -1517.0988    459.21646    285.23082    197.08251    39062.633 
  136500    296.17885   -1501.6033    471.10071    294.65959   -402.43788    39062.633 
  136600    295.62848   -1474.1301    464.75225    313.32191   -559.61062    39062.633 
  136700    307.76794   -1416.4156     446.8572    407.45563   -362.92581    39062.633 
  136800    306.58098   -1452.6801    485.82592    404.84913   -645.10392    39062.633 
  136900    298.83629   -1442.6826    484.97441    379.34396   -494.14544    39062.633 
  137000    290.34466   -1433.2852    470.44925    336.22296   -164.71503    39062.633 
  137100    295.45196   -1462.0545    485.81007    345.66555    -130.6453    39062.633 
  137200    293.87286   -1447.4849    459.96437     327.3242   -416.96634    39062.633 
  137300    299.62033   -1477.5175    473.46484    336.50742   -302.57544    39062.633 
  137400    294.14267   -1462.8046    468.13616    321.38352   -18.479775    39062.633 
  137500    294.51795   -1464.6449     464.5559    317.64204   -379.61893    39062.633 
  137600    308.43675   -1469.9957    475.34045    385.35123    -178.0711    39062.633 
  137700    291.99377   -1463.3293    478.67381    321.78187   -453.13979    39062.633 
  137800    294.15928   -1477.7638    465.24258    303.60498    -50.67222    39062.633 
  137900    302.72525   -1500.2979    471.78416    325.93827    248.16634    39062.633 
  138000    307.40615   -1495.5338    448.46397    328.32547    70.683497    39062.633 
  138100    301.18536   -1476.2494    484.71534    356.02818    736.45965    39062.633 
  138200    305.10858   -1510.3497    478.41313    333.17897    677.35812    39062.633 
  138300    283.73412   -1476.3336     450.3781    243.52655    1037.6337    39062.633 
  138400    303.20051   -1502.8038    447.98624    301.76094    271.57322    39062.633 
  138500    293.57383   -1457.4088     462.2841    318.38213    706.06257    39062.633 
  138600    303.70247   -1459.5531    465.20732    364.47853    319.72638    39062.633 
  138700    305.25678   -1443.5718    467.57359    389.78048      255.098    39062.633 
  138800     295.1226    -1482.161    473.80868    312.08401    468.63531    39062.633 
  138900    308.01978   -1435.7133    489.76236     432.1899   -132.38812    39062.633 
  139000    305.48586    -1432.636    470.55932    404.72687   -263.33171    39062.633 
  139100    308.14517   -1442.0112    451.68299    388.37361   -131.56948    39062.633 
  139200    303.49241    -1422.175    480.42865    416.13813    -53.01091    39062.633 
  139300    301.32614   -1401.3975    471.15477    417.94945   -149.18058    39062.633 
  139400    298.63866   -1430.3299    475.50269     381.3407    213.50833    39062.633 
  139500    299.48882   -1405.6605    463.82577    398.13695    43.226117    39062.633 
  139600    290.53498   -1401.9331    489.23864    387.21591    108.62607    39062.633 
  139700    295.03592   -1409.1713    482.33704    393.21429    199.56794    39062.633 
  139800    298.07707   -1416.8338    469.82785    386.64926    -514.3288    39062.633 
  139900    300.29436   -1454.7608    434.90092    323.71591   -199.19619    39062.633 
  140000    301.90006   -1432.9225    457.49757    375.33504    73.764913    39062.633 
  140100    295.81968   -1470.0194    467.53463    321.07044   -195.88347    39062.633 
  140200    296.74724   -1428.8047    466.12034     365.0209   -549.81155    39062.633 
  140300    303.85592   -1479.0788    464.47987    344.91196   -238.69144    39062.633 
  140400    310.35947   -1456.8087    442.61441    374.41476   -343.26483    39062.633 
  140500    282.02005   -1470.1125      440.754    232.45445   -336.89439    39062.633 
  140600    306.80369   -1481.5148    487.21666    378.40164    630.19538    39062.633 
  140700    298.76551   -1478.8189    465.21889    323.13536    188.54679    39062.633 
  140800    302.60324   -1479.0298    468.92563    343.80194    751.95104    39062.633 
  140900    307.14456   -1443.3036    455.16539    386.08672   -169.48709    39062.633 
  141000    308.91764   -1448.4377     472.2282    405.94848   -117.16111    39062.633 
  141100    297.38811   -1442.2483    471.94477    360.26911   -503.84481    39062.633 
  141200    296.70651   -1415.9534    464.19125    375.76089   -736.80121    39062.633 
  141300    297.01853   -1464.4848    486.02307    350.45739   -696.19149    39062.633 
  141400    291.67813   -1514.9789    447.16211    237.20835   -725.93944    39062.633 
  141500    295.87789   -1505.2514    464.65293    283.21711   -619.16768    39062.633 
  141600    296.48378   -1438.6243    444.59464    332.49679   -720.67105    39062.633 
  141700     305.7918   -1479.9297    443.68047    331.92315   -511.45834    39062.633 
  141800    311.76559   -1479.0632     449.5561    365.39329   -398.35206    39062.633 
  141900    301.33968   -1490.6244     450.9534    308.58173   -767.94489    39062.633 
  142000    308.05886   -1430.3216    496.59421    444.58828   -191.42909    39062.633 
  142100    293.65939   -1443.8054    470.75988    340.84409   -79.527067    39062.633 
  142200     299.9792   -1428.5923    463.58009    377.15351     612.5885    39062.633 
  142300    299.08952   -1392.0038     462.3381    408.51937    337.02133    39062.633 
  142400    299.53891   -1457.7923    449.61262     332.0161    11.081357    39062.633 
  142500    309.14365   -1474.1943    476.89085    385.86577    481.16565    39062.633 
  142600    295.81381   -1495.2267    448.51017    276.81235    572.12082    39062.633 
  142700    304.21954   -1479.7152    473.26237    354.68503    196.37932    39062.633 
  142800    314.69859   -1472.7709    464.20038    399.45261    599.78556    39062.633 
  142900    301.33791   -1494.3361    477.08236    330.99115    486.34632    39062.633 
  143000    291.51584   -1488.4537    456.96211    272.80741    467.57883    39062.633 
  143100    296.41931   -1478.0753    469.56642    317.72914    901.13235    39062.633 
  143200    313.20989   -1450.0931    495.78478    447.05408    522.90595    39062.633 
  143300    299.36064   -1486.0886     451.2398    304.54931    311.67249    39062.633 
  143400     289.6069    -1510.229    459.76263    245.29157   -212.11109    39062.633 
  143500    294.41506   -1487.9846    449.55831    278.84433   -117.81266    39062.633 
  143600    288.45101   -1466.5732    454.98405    278.99718   -319.74235    39062.633 
  143700    297.22987   -1481.4464    465.92981    314.34808    172.67228    39062.633 
  143800    304.76123   -1509.9323    457.08716    310.71627    590.71714    39062.633 
  143900    296.23205   -1506.8096    464.17177    282.76244    668.20179    39062.633 
  144000    303.93096   -1450.4221    456.96562    366.39018     661.0302    39062.633 
  144100    304.60764   -1511.3883    438.69102    290.17693    404.23181    39062.633 
  144200    297.72458   -1484.2023    449.14074    297.01651    312.11457    39062.633 
  144300    307.61802   -1468.7832    451.73425     359.2943    632.86662    39062.633 
  144400     299.8411   -1462.1974    455.42638    334.77675    46.317381    39062.633 
  144500    298.19364   -1429.8874    463.80746    368.09682    270.41013    39062.633 
  144600    304.32007   -1435.8943    477.10931     402.8026    490.88615    39062.633 
  144700    303.39555   -1455.7087     461.3216      363.064    53.796605    39062.633 
  144800    299.03832   -1465.7008    450.40993    322.66514    41.406852    39062.633 
  144900    302.61167   -1438.9012    485.75007    400.79279    233.44273    39062.633 
  145000    300.56287   -1433.2752    430.91663     342.4186    9.3046142    39062.633 
  145100    308.75378    -1437.083    490.21003    434.55195    99.520726    39062.633 
  145200    291.56979   -1466.6724    489.15068    327.01864    162.14747    39062.633 
  145300    292.82657   -1465.3593    451.36821     296.1724    103.86513    39062.633 
  145400    295.82884   -1451.4822    458.03751    330.15153    380.43036    39062.633 
  145500    298.86378   -1435.7716    469.65599    371.05953    232.50436    39062.633 
  145600    307.67703   -1455.6754    456.00496    376.93692    74.090431    39062.633 
  145700    304.05419   -1446.8631    486.15481    399.68976    -52.38574    39062.633 
  145800    298.01349   -1480.3216     454.8549    307.90401   -89.454405    39062.633 
  145900    299.93255   -1439.4724    464.22053    366.70512    137.56346    39062.633 
  146000    301.16353   -1451.5057    484.71084    380.66972    81.491247    39062.633 
  146100    300.17626   -1439.8039    475.32564    378.56914   -283.53533    39062.633 
  146200    302.30705   -1441.4472    461.12749    372.26127   -443.63817    39062.633 
  146300    301.22046   -1476.6223    481.21866    352.31571   -173.99005    39062.633 
  146400    289.44953   -1433.1658    463.77336    325.66148    510.39817    39062.633 
  146500    298.04145   -1435.7881    501.02083    398.72853    464.80835    39062.633 
  146600    305.69308   -1496.9735    451.92793     322.6851    685.60107    39062.633 
  146700    297.48563   -1476.0027    449.00134    304.00764    379.49277    39062.633 
  146800    306.14728   -1465.4767    466.03358    370.31982   -65.689135    39062.633 
  146900    298.27067   -1422.3836    482.98939    395.12724    539.50423    39062.633 
  147000    298.16888   -1463.2619    487.07932    357.88337   -94.282496    39062.633 
  147100    299.30362   -1405.4494    461.62704    395.32068   -474.52751    39062.633 
  147200    313.71658   -1450.0113    436.24096    389.85913   -489.75345    39062.633 
  147300    299.91593   -1407.9901    471.10802    405.00057    40.148603    39062.633 
  147400    299.25503   -1475.4687    433.60088    297.05785    318.75345    39062.633 
  147500    304.09595   -1476.7794     444.6437    328.44918    405.59836    39062.633 
  147600    292.76634   -1490.7412    460.05328    279.20606    643.91429    39062.633 
  147700    301.39009   -1463.6688     457.4522    342.26166   -2.7213759    39062.633 
  147800    291.45806   -1443.4886    465.90867    326.46058   -329.32115    39062.633 
  147900    317.26363    -1460.608    461.59501    420.48661   -41.006434    39062.633 
  148000    294.31221   -1480.9767    454.44628    290.28012    50.978886    39062.633 
  148100    294.41726   -1466.7599    466.85101     317.3716   -104.98163    39062.633 
  148200    301.65656   -1472.5572    468.73293    345.84624   -5.7379738    39062.633 
  148300    300.38227   -1437.0622    470.81057    377.71752   -333.73792    39062.633 
  148400    296.98557   -1453.5272    461.37857    336.62296   -503.67561    39062.633 
  148500    299.68686   -1431.3741    468.04982    377.53344   -502.19409    39062.633 
  148600     296.9618   -1460.4451    479.42594    347.64605   -98.031264    39062.633 
  148700    313.78016   -1447.7886    477.24686    433.37216   -89.215041    39062.633 
  148800    288.68671   -1454.7939    466.12826    302.97521    95.984293    39062.633 
  148900    295.86044   -1439.7018    461.00414    345.03984   -365.59466    39062.633 
  149000    303.41965   -1430.0788    487.22569    414.70583   -20.355455    39062.633 
  149100    296.55432   -1422.8187    458.62424    362.64766   -10.830566    39062.633 
  149200    309.34504   -1487.6419    459.50958      355.938   -88.360882    39062.633 
  149300    312.14886   -1477.8231    456.17371    374.96574     359.2629    39062.633 
  149400    296.19427   -1445.7186    454.88047    334.39309   -307.89129    39062.633 
  149500    296.82908   -1433.8178    468.40214    362.65577   -402.22654    39062.633 
  149600    305.66108   -1435.2028    461.12813    393.51285   -515.10504    39062.633 
  149700    298.38943   -1436.8446    502.98309    401.19124   -721.38336    39062.633 
  149800    297.10331    -1475.264    452.24091    306.27526   -727.37231    39062.633 
  149900    291.79098   -1489.5414    471.92476    287.91334   -514.40003    39062.633 
  150000    309.70591   -1437.6653    469.21608    417.23565   -97.818048    39062.633 
  150100    307.87882   -1429.8084     461.8656    409.56734    34.187372    39062.633 
  150200    306.04576   -1441.8823    467.97178    395.39814   -83.392445    39062.633 
  150300    299.72676   -1453.8555    463.97589    351.15662   -422.14516    39062.633 
  150400     302.7578   -1439.3881    475.50967    390.71929    481.48021    39062.633 
  150500    306.76099   -1454.1089     476.2887    394.68856    270.97002    39062.633 
  150600    298.43475   -1506.8384    472.60557     301.0227    324.82495    39062.633 
  150700    304.40336   -1452.1314    464.58835    374.41722   -394.10531    39062.633 
  150800    294.23916   -1425.2841    461.66048    352.86002   -296.77647    39062.633 
  150900    306.40819   -1415.2678    472.27315    427.93564    56.372147    39062.633 
  151000    297.63867   -1453.6387    485.40119     363.4562    68.740424    39062.633 
  151100    293.66335   -1464.4852    456.99632    306.41851   -294.13045    39062.633 
  151200    293.82805   -1452.1008    448.82297    311.36638   -332.30485    39062.633 
  151300    289.80839   -1459.3204    490.68281    328.02194    -435.9722    39062.633 
  151400    295.63831   -1413.4361    473.70634    383.01398    -4.538105    39062.633 
  151500    298.94202    -1432.059    466.46039    371.92659     286.7566    39062.633 
  151600    295.96326   -1446.7602     484.8026    362.24003    106.92595    39062.633 
  151700    308.55116   -1500.7883    458.88126    338.61126    585.05087    39062.633 
  151800    305.91671   -1514.0377     493.6653    348.35887    474.07776    39062.633 
  151900    303.69697   -1473.7729     461.8699    346.89673    458.74235    39062.633 
  152000    307.71883   -1443.5076    433.09737     366.3841    427.32462    39062.633 
  152100    308.55199   -1448.8659    444.85027    376.50641    -182.1265    39062.633 
  152200    290.77452   -1431.3914    473.41714    343.00792   -56.458606    39062.633 
  152300    300.33491   -1444.6113    459.20939    358.35535   -88.418822    39062.633 
  152400     287.5565   -1449.4248    473.54388     310.7032   -504.65636    39062.633 
  152500    293.81853   -1438.0892    445.14421    321.65662   -895.79872    39062.633 
  152600    300.66633    -1443.417    466.75176    368.57481   -492.59065    39062.633 
  152700    302.78831    -1457.475    457.65153    354.91075   -320.60374    39062.633 
  152800    300.69319   -1468.2128    469.93127    347.07872    543.91209    39062.633 
  152900    295.52678   -1468.3352    477.63714    331.54665    179.17579    39062.633 
  153000    304.58606   -1432.6538    460.78739    390.91124    369.84053    39062.633 
  153100    289.13711     -1449.25    465.44833    309.85437    92.042212    39062.633 
  153200    291.18873   -1473.4554    461.74665    291.12663    95.524406    39062.633 
  153300    301.56178   -1472.5755    464.33101    341.00204    101.13512    39062.633 
  153400    311.22779     -1469.47    469.38767    392.41175    42.173978    39062.633 
  153500    296.95459   -1474.5565    462.93535    317.01189    73.165145    39062.633 
  153600    302.96823   -1454.2583    466.82654    368.10744    146.84706    39062.633 
  153700    298.47352   -1495.1118    448.66481      288.982    216.75195    39062.633 
  153800    302.85102   -1461.5739    459.88881    353.32963   -266.11561    39062.633 
  153900    295.60524    -1482.248    460.32645    300.67423   -75.232522    39062.633 
  154000    298.99485   -1483.8987    469.94092    323.80378    -11.12384    39062.633 
  154100    302.45235   -1469.0459    491.42185    375.60706    460.98012    39062.633 
  154200    302.89635   -1441.7039    457.30213    370.81586    213.71494    39062.633 
  154300    307.63406   -1482.3067    452.46419    346.57251   -178.23619    39062.633 
  154400    303.93546   -1466.4804    462.46926    355.85568   -137.54165    39062.633 
  154500    299.96562   -1456.5492    478.79143    364.34713   -116.03564    39062.633 
  154600    301.09547   -1470.6614    442.63065    319.12932   -153.04569    39062.633 
  154700    297.30463   -1472.0184    444.76192    302.94264    59.849399    39062.633 
  154800    307.92426   -1466.6683    488.98667    400.03183   -116.60055    39062.633 
  154900     293.0688    -1457.229    481.41926    335.43751   -299.54315    39062.633 
  155000    298.37197   -1467.0346     448.3429    316.28298   -592.91923    39062.633 
  155100    288.47192   -1486.3591    446.18588    250.50664   -281.21798    39062.633 
  155200     300.1147   -1456.0065    479.52908    366.29451   -327.66767    39062.633 
  155300    293.51462   -1477.2412    473.93681    309.93751      456.217    39062.633 
  155400    294.60748   -1466.9577    455.59906    306.77289    255.23091    39062.633 
  155500    304.15808   -1470.2202    480.23107    370.87371    178.44871    39062.633 
  155600    310.64904   -1485.8392    458.89864    362.96409    21.467152    39062.633 
  155700    306.63207   -1468.6028    460.28744    363.61663     -181.353    39062.633 
  155800    297.70829   -1471.0746    479.45737    340.38799   -454.38983    39062.633 
  155900    302.41129   -1464.3937    476.54068    365.19437    479.11959    39062.633 
  156000     302.4464   -1456.2016    475.98518    372.98799   -468.78297    39062.633 
  156100    302.86822   -1458.6028    451.05978    347.54872   -323.91412    39062.633 
  156200    296.12538   -1457.4359    479.10954    346.59663   -316.42312    39062.633 
  156300     297.5388   -1481.6031    469.12427    318.76805   -133.35772    39062.633 
  156400    295.45403   -1510.3593    454.79702    266.35697   -92.245403    39062.633 
  156500    305.16526   -1467.3164    447.59219    345.64489   -257.56704    39062.633 
  156600    296.79343    -1456.175     461.4954    333.23237   -244.60211    39062.633 
  156700    301.21578   -1432.5639    474.93578    390.07024    -417.0057    39062.633 
  156800    304.44929   -1471.4898    448.61103    339.28695    -245.1073    39062.633 
  156900    294.88719   -1493.0816     468.0282    294.32961    134.14196    39062.633 
  157000    307.11699     -1498.22    462.11215    337.99375    364.88067    39062.633 
  157100    298.53654   -1489.9279    471.83718    317.62019    357.19799    39062.633 
  157200    296.87204   -1519.7801    438.45679    246.94037    407.79145    39062.633 
  157300    299.88278   -1550.9838     462.9856    253.73603     343.6046    39062.633 
  157400    299.28532   -1504.0233    445.82698    280.86483    277.57683    39062.633 
  157500    303.97411   -1514.1399    452.29191    298.19173    468.03581    39062.633 
  157600    293.68055   -1531.0756    471.17633    254.08506    506.29347    39062.633 
  157700    292.63585    -1487.918    476.00318    297.39536    325.17334    39062.633 
  157800    303.85739   -1511.2893    452.51523    300.74338    918.90117    39062.633 
  157900    299.08186   -1501.0358    460.13822    297.25324    366.34896    39062.633 
  158000    303.45809    -1488.695    474.65278    343.68869     665.5463    39062.633 
  158100     297.7759   -1469.7812    473.62109    336.14759     283.7721    39062.633 
  158200    297.90381   -1488.2135    459.97196    304.63843    54.939582    39062.633 
  158300    302.40915   -1487.1335    464.50729    330.41154    501.51405    39062.633 
  158400    307.63106   -1445.8599    481.53372     412.0754     259.6313    39062.633 
  158500    308.06338   -1464.8262    467.71224    381.22191    8.3545863    39062.633 
  158600    290.70801   -1463.8432    454.63499    291.47642    158.49694    39062.633 
  158700    306.53943   -1495.0298    444.17245     320.6601    62.453785    39062.633 
  158800    306.80151   -1514.2987    466.32379    324.71514    155.83951    39062.633 
  158900    305.72711   -1488.9558    471.81107    350.73825    -27.51923    39062.633 
  159000    294.54624   -1490.3323    459.34219    286.86743    276.55622    39062.633 
  159100    303.82926   -1471.5784    493.91272    381.72594    90.917043    39062.633 
  159200    292.94616   -1480.3639    461.17289    291.50751   -461.10475    39062.633 
  159300    298.94915   -1467.8934    436.11191    305.77563   -454.64792    39062.633 
  159400     311.1265   -1456.7114     513.3379    448.66737    171.64565    39062.633 
  159500    290.78214   -1484.0162     466.3204    283.32043    434.04913    39062.633 
  159600    292.58815   -1482.6025    474.58257    301.07675    251.87595    39062.633 
  159700    296.35042   -1462.7155    481.94958    345.16392   -33.343628    39062.633 
  159800    307.28658   -1445.3635    495.26991    424.76673    186.88711    39062.633 
  159900    293.07659   -1478.0988    474.90469    308.08792    297.12178    39062.633 
  160000    300.55801   -1490.6963    470.96309     325.0222   -49.190058    39062.633 
  160100    294.64919   -1485.7154    466.45198    299.05477   -209.31723    39062.633 
  160200    306.86851     -1453.41    464.40828    383.98809   -412.74856    39062.633 
  160300    295.48181   -1496.1818     469.6319    295.49356   -494.92965    39062.633 
  160400    291.23496   -1502.3434    479.30604    280.00496   -274.44128    39062.633 
  160500    290.53305    -1548.863    477.79477     228.8335    230.91021    39062.633 
  160600    301.48076   -1502.5211    442.19513    288.55796    554.47908    39062.633 
  160700    307.51757   -1505.2338    462.61715    333.27716    708.08622    39062.633 
  160800    306.06919   -1527.4742    468.99347    310.93276    381.03108    39062.633 
  160900    288.83806   -1530.9214    482.24849    243.64515    305.24052    39062.633 
  161000     292.3038   -1531.0219    473.52352    250.32611     50.85271    39062.633 
  161100    301.81545   -1491.6849    464.75193    323.44843    16.008974    39062.633 
  161200    293.03779   -1492.0704    462.78491    281.82294   -386.67523    39062.633 
  161300    302.58545   -1485.7838    472.07088    340.11371   -300.32336    39062.633 
  161400    293.07614   -1500.5481    482.84935    293.58127   -848.79711    39062.633 
  161500    291.82198   -1482.5647    476.52767    299.63166   -543.45151    39062.633 
  161600    301.55608   -1512.0241    484.50319    321.70005   -546.63299    39062.633 
  161700     296.1396   -1531.0994    476.74397    270.63115   -248.42298    39062.633 
  161800    303.28374   -1534.9253    475.54646    297.57199   -360.70198    39062.633 
  161900     303.0841   -1503.1162    497.09624    350.03772    81.336316    39062.633 
  162000     295.1066   -1546.4469    469.77966    243.69752    51.180176    39062.633 
  162100    299.45141   -1521.2551     469.6065    288.15566    42.758688    39062.633 
  162200    300.39127   -1491.7348    477.92053    330.19513    309.95704    39062.633 
  162300    301.72276   -1477.6096    455.98461    328.34173    239.74165    39062.633 
  162400    293.37278   -1475.2899    484.03705    321.35441    614.40734    39062.633 
  162500    296.48063   -1474.9901    473.97405    325.49635    433.27799    39062.633 
  162600    296.71578   -1507.3547    438.90953    259.11934    156.44325    39062.633 
  162700    298.84254   -1459.7495    460.88576     338.2163    46.708177    39062.633 
  162800    295.78327    -1497.899    481.79536    307.28864   -92.644757    39062.633 
  162900    298.47375    -1504.736    484.20025    314.89426   -572.65656    39062.633 
  163000    295.61025   -1464.6344    475.14754     333.1313   -755.92656    39062.633 
  163100    295.56529   -1449.4211    484.62052    357.61638    9.1612082    39062.633 
  163200    307.56642   -1497.5433     487.7178    366.28686   -130.33144    39062.633 
  163300    297.13051   -1485.5753    488.79983    332.64461   -411.06114    39062.633 
  163400    288.39814   -1511.3091    479.95274    258.99345    15.058359    39062.633 
  163500    303.22634    -1485.034     484.4803    356.14033    311.31608    39062.633 
  163600    297.32588   -1490.5213    457.01545    296.78842   -113.75351    39062.633 
  163700     295.3516   -1531.4164    476.35183    266.39635   -76.539955    39062.633 
  163800    297.93539    -1525.797    452.15335    259.37762    215.19213    39062.633 
  163900    310.32529   -1487.5404    497.96272    398.87845   -293.33321    39062.633 
  164000    292.26703   -1491.7943    458.70185    274.56753   -610.78644    39062.633 
  164100     299.0055   -1529.6846    461.95164    270.07626   -749.90968    39062.633 
  164200     303.8967   -1497.8184    483.27012    345.14509   -40.264531    39062.633 
  164300    294.82564   -1526.5135    461.06519    253.65931   -157.97008    39062.633 
  164400    302.63437   -1480.7299    464.66677    337.98234     -337.786    39062.633 
  164500    302.66276   -1473.6109    450.79293    331.35449   -434.90072    39062.633 
  164600    301.64222   -1490.5364     464.3156    323.38556   -528.60101    39062.633 
  164700    305.80983   -1506.2827    469.57392    331.54428   -425.55067    39062.633 
  164800    300.79522   -1476.3151    439.65053    309.15218    15.937606    39062.633 
  164900    303.73503   -1488.0024    472.86546    343.83308     251.1569    39062.633 
  165000    289.06163   -1511.2003    472.70222    254.82025    6.0611223    39062.633 
  165100    305.53059   -1470.0821    457.19743    354.11907   -42.296839    39062.633 
  165200    298.88127   -1482.1531    475.51639    330.61668   -21.117861    39062.633 
  165300    300.32546   -1490.5998    454.56967    307.68478   -100.49579    39062.633 
  165400    295.40473   -1466.6764    460.75071     315.7729    245.03484    39062.633 
  165500    297.42958   -1468.4692    475.92638    338.21535    533.27251    39062.633 
  165600    311.54638     -1491.55    463.46468    365.83425    248.60183    39062.633 
  165700    307.37391   -1487.9123    471.45729    358.79612   -100.17773    39062.633 
  165800    304.24077   -1461.7911    448.38645    347.82812    345.66654    39062.633 
  165900    295.67856    -1500.573    458.38862    280.73938   -253.07254    39062.633 
  166000    295.25153   -1497.5058    477.28929    300.79669    575.17523    39062.633 
  166100    303.06496   -1516.5099    472.46271    311.92484    46.576815    39062.633 
  166200    289.27704   -1457.0368    468.63072     305.8761    257.36184    39062.633 
  166300    305.04915     -1472.31    472.55019     365.0899   -97.516666    39062.633 
  166400    300.56753   -1463.5007    474.59427    355.89161    311.45652    39062.633 
  166500    290.90605   -1458.0715    459.41316    302.91226   -128.76249    39062.633 
  166600    301.91822   -1461.5089      479.823    369.15538   -300.99222    39062.633 
  166700     298.8512   -1430.3644     447.8974    354.65183   -528.37355    39062.633 
  166800    286.69077   -1445.0395    494.75412    332.42532   -311.13621    39062.633 
  166900    293.19049    -1441.414    467.84753    338.22518   -227.39848    39062.633 
  167000    293.22776    -1423.983    473.78122    361.75664    310.52775    39062.633 
  167100    297.05296   -1435.3495    457.16092    350.88459   -187.08074    39062.633 
  167200     308.8521   -1475.3117    444.65253    351.20561   -427.92832    39062.633 
  167300    301.19565   -1477.8408    454.07009    323.83762   -465.89321    39062.633 
  167400    297.91183   -1458.6575    456.67626    330.93461   -448.97746    39062.633 
  167500    304.49896   -1482.2107    486.19765    366.37498   -411.17091    39062.633 
  167600     306.9393   -1457.2654     443.0975    359.13864   -219.35117    39062.633 
  167700    302.12138   -1485.6513    478.98099     345.0799   -517.54588    39062.633 
  167800    302.82857   -1481.2242    457.47546    331.16564   -409.35521    39062.633 
  167900    292.01665    -1472.127    450.77578     285.1885   -702.18632    39062.633 
  168000    294.35435   -1458.2761    464.14166    322.86452   -374.60708    39062.633 
  168100    292.32761   -1457.3124    468.75626     319.3748   -36.439109    39062.633 
  168200    300.82698   -1440.1105    468.08466    373.93294   -288.64827    39062.633 
  168300    287.61001   -1497.7285    454.36925    243.46425    80.296812    39062.633 
  168400    297.50098   -1444.5933    456.52907    343.01349    348.64154    39062.633 
  168500    297.99099   -1469.5788    496.83863    360.52988    489.48593    39062.633 
  168600    292.95927   -1449.8045    446.07754    307.03021    94.269779    39062.633 
  168700    297.75704    -1441.139    485.33541    376.41971    321.95528    39062.633 
  168800    305.31921   -1462.3475    468.46315    372.17364     539.5303    39062.633 
  168900    294.04707   -1452.2781    469.23962    332.58573   -447.94823    39062.633 
  169000    308.24788   -1480.4999    461.03906    359.70061    -178.6707    39062.633 
  169100    297.96468   -1456.7463      477.342    353.74808   -377.38254    39062.633 
  169200    303.17619   -1455.8802     467.5655    368.15492    363.85292    39062.633 
  169300    300.37736   -1502.3195    460.06783    301.69553    140.01366    39062.633 
  169400    306.25434   -1496.5321    460.69278    334.40263   -327.88671    39062.633 
  169500    291.44128   -1471.4099    451.31419    283.86968   -207.15778    39062.633 
  169600    303.94583   -1511.8559    468.09119    316.14843   -165.11926    39062.633 
  169700     289.1418   -1519.5248    471.90743    246.05972   -193.02617    39062.633 
  169800    291.68464   -1523.6378     449.5876      231.004   -81.341402    39062.633 
  169900    309.69777   -1497.7062    459.26262    347.20495   -140.88605    39062.633 
  170000    307.98687   -1522.7425     447.8605    303.11158   -243.32605    39062.633 
  170100    316.98112   -1511.0867    445.66119    352.81016    119.12075    39062.633 
  170200    303.34056   -1521.0396    447.32733    283.49284    -131.4704    39062.633 
  170300    295.45563   -1533.5511    465.16767    253.54299   -88.116891    39062.633 
  170400    302.41918    -1535.213     438.1474    256.01702   -454.22687    39062.633 
  170500    308.88724   -1512.1082    449.28673     319.2005    234.43392    39062.633 
  170600    294.00375   -1512.4891    447.38454    250.32582    -126.9109    39062.633 
  170700    301.71683   -1522.7488     429.1956    256.38705    113.11748    39062.633 
  170800    302.41999   -1512.1843    463.13896    304.04094    327.46343    39062.633 
  170900    308.36126   -1546.9568    465.78547    298.49736    101.12087    39062.633 
  171000    299.71502   -1489.7048    445.47585    296.75477   -191.76694    39062.633 
  171100    293.28473   -1516.5414     463.0793    258.75124   -661.02914    39062.633 
  171200    294.85094   -1510.5677    420.78083    229.43405    -722.1333    39062.633 
  171300    297.11237   -1526.3939    447.81923    250.76424   -418.10687    39062.633 
  171400      300.386   -1514.7354    465.08254    294.33294   -76.239356    39062.633 
  171500    299.13532   -1503.7612    457.72831    292.35716    40.381982    39062.633 
  171600     301.7943   -1504.7724    451.03569     296.5501   -112.15627    39062.633 
  171700    296.15672   -1492.9122    460.89034    293.04129    -273.8432    39062.633 
  171800    295.83238   -1478.9585    450.38168    295.03518    134.92198    39062.633 
  171900    295.69417   -1463.7502    477.08585    336.32932   -23.041624    39062.633 
  172000    297.47264   -1426.9691    472.07175    376.05357   -200.76109    39062.633 
  172100    299.36004   -1440.5318    469.04961    367.91332   -110.75818    39062.633 
  172200    305.39874   -1463.4855    452.28739    355.21567    175.67103    39062.633 
  172300    304.29682   -1449.7148    473.17086    384.93964    62.954966    39062.633 
  172400    301.82653   -1444.2502    467.88925    374.07011    164.51733    39062.633 
  172500    297.36075   -1450.6096    467.94003    347.78065    61.325321    39062.633 
  172600    306.85919   -1450.5493    470.93615    393.33496    313.76173    39062.633 
  172700    299.75925   -1425.5531    474.39492    390.02338    38.876854    39062.633 
  172800    305.88663   -1448.3444     466.2478    386.50011     371.3896    39062.633 
  172900    302.79784   -1492.6476    453.27339     315.4026     334.2269    39062.633 
  173000    311.66787   -1433.1003    491.14924    452.51204    10.879638    39062.633 
  173100    292.97593   -1483.8835    486.09246    313.04069    177.24386    39062.633 
  173200    306.49106   -1484.1634     463.5346    350.67228    509.19335    39062.633 
  173300    295.79881   -1475.4209    484.83111      332.872    721.39104    39062.633 
  173400    310.74808   -1457.7214    481.98156     414.6079    705.46611    39062.633 
  173500    306.82844   -1495.0404    464.56844    342.33858    834.26963    39062.633 
  173600    292.79303   -1506.1283    467.00357    270.88863    355.26061    39062.633 
  173700    299.04561   -1483.3142    464.12711    318.80155    46.052893    39062.633 
  173800    296.29548   -1476.8669    473.81443    322.63158   -818.15123    39062.633 
  173900    291.77896   -1468.5205    465.73374    302.68943   -625.00169    39062.633 
  174000    294.54782   -1463.8166    442.96556    297.01359   -243.50018    39062.633 
  174100    299.84268   -1491.7226    469.39612    319.22845   -31.744293    39062.633 
  174200    298.33371   -1525.6937    460.37048    269.48021    469.53478    39062.633 
  174300     295.6124   -1556.0502    469.32069    235.89827    722.23852    39062.633 
  174400     293.3006   -1555.4387    475.88873    232.73433    565.33989    39062.633 
  174500    311.39145   -1545.3727    458.54964    306.40326    135.32102    39062.633 
  174600    298.39943    -1483.567    455.77425    307.30471   -500.44087    39062.633 
  174700    312.76798   -1487.7502    456.28484    367.91982    -571.8565    39062.633 
  174800    303.92732   -1473.6529    471.33963    357.51709    -456.0078    39062.633 
  174900    307.10381   -1507.5068    488.42472    354.96053   -323.22383    39062.633 
  175000     290.6914    -1533.994    479.74639    246.36267    93.997875    39062.633 
  175100     300.5807   -1513.8751    460.90689    291.88872    199.51147    39062.633 
  175200     298.5945   -1481.4443    455.63343    310.15935    209.55329    39062.633 
  175300    298.05615   -1481.4889    474.79754    326.87024   -179.75671    39062.633 
  175400    298.86156    -1446.675     470.2085    360.69867   -144.92224    39062.633 
  175500    299.00289   -1472.0498    471.15503     336.9027   -738.51306    39062.633 
  175600    303.86953   -1462.9259    456.64215    353.28806   -822.19087    39062.633 
  175700    293.54892   -1448.0598    489.42065    354.75617   -452.90638    39062.633 
  175800    297.30677   -1423.9354    495.40274    401.67605    117.70231    39062.633 
  175900    295.33966    -1480.121       470.82    312.10652   -138.79293    39062.633 
  176000    298.93776   -1489.6872    444.79789    292.61683   -399.84211    39062.633 
  176100    305.48853   -1468.9289    471.19771    369.08431   -35.934267    39062.633 
  176200    308.77083   -1473.9991    472.32936    379.83144   -297.54871    39062.633 
  176300    295.71997   -1476.2179    467.84282    314.73393   -119.01048    39062.633 
  176400    300.99792   -1470.5083    508.30611    384.52143   -434.12788    39062.633 
  176500    309.74468     -1461.59    476.27464    400.54303   -296.65957    39062.633 
  176600    300.15458   -1458.0199    445.72357    330.65411   -302.75303    39062.633 
  176700    298.60479   -1467.9288    488.74905    356.83653    41.322747    39062.633 
  176800    305.12425   -1478.7143    466.46381    352.93513     546.3868    39062.633 
  176900    292.78284   -1479.4408    483.86998    314.39691   -141.31245    39062.633 
  177000    293.80599   -1472.6897    453.22275    295.07857     110.4085    39062.633 
  177100    289.36367   -1405.4134    494.70203    383.95841    518.10529    39062.633 
  177200    301.72535    -1465.041     446.1046    331.04192    94.946947    39062.633 
  177300    308.83794   -1410.2468    475.64539    447.20004   -210.99619    39062.633 
  177400    306.23709   -1458.2733    480.87148    392.76291   -399.22647    39062.633 
  177500    299.04548    -1480.577    466.18259    323.59364   -550.48059    39062.633 
  177600    305.11145   -1454.5748    469.90583    380.45949   -180.10905    39062.633 
  177700    293.66149   -1415.1702    497.76049    396.48927   -49.762326    39062.633 
  177800    304.79006   -1434.7022     492.6932    421.68142   -180.39998    39062.633 
  177900    292.08351   -1472.7832    454.50391    288.55956   -101.03788    39062.633 
  178000    300.81835   -1524.8861    453.09893    274.13301    149.39592    39062.633 
  178100    305.51963   -1494.4362    469.34037    341.85887    176.86076    39062.633 
  178200    300.99951   -1515.5887    462.50775    293.64981     179.7446    39062.633 
  178300    308.78305   -1517.8562      484.192    347.89166    609.27369    39062.633 
  178400    309.54313   -1505.0754    488.08949    367.97069    492.77426    39062.633 
  178500    306.73629   -1485.8693    479.63374     366.1627    632.71687    39062.633 
  178600    295.70289   -1464.7133    467.90599    326.22533    258.53741    39062.633 
  178700    302.93921   -1486.1338    461.08432    330.35986    626.43135    39062.633 
  178800    306.48894   -1500.9555    470.64121    340.97724    413.40631    39062.633 
  178900    298.43358    -1444.351    465.79575      356.695   -62.406591    39062.633 
  179000    311.14119   -1447.4162    496.23561    440.92599      58.1176    39062.633 
  179100    305.25749    -1446.724    477.70072    396.75846     173.9074    39062.633 
  179200    293.65734   -1487.1618     492.7444    319.46304    533.89056    39062.633 
  179300    287.39434   -1492.9663    475.74719    268.63941   -92.728637    39062.633 
  179400    308.93702   -1462.5845    477.07618    396.73646    997.27058    39062.633 
  179500    299.94413   -1488.3575    467.38879    321.04003    341.71619    39062.633 
  179600    303.56712   -1465.9269    473.16006    365.45191   -99.821038    39062.633 
  179700    300.52291   -1441.6222    479.77929    382.75543    258.44689    39062.633 
  179800    293.73098   -1471.3007     468.0467    310.95597    154.08808    39062.633 
  179900    304.80311    -1454.025    473.15615    382.87994    442.94597    39062.633 
  180000    291.57872   -1475.8262    484.97347    313.72754     366.1994    39062.633 
  180100    310.38913   -1490.1283    466.49923    365.11272    437.81663    39062.633 
  180200    294.09827   -1500.1172    455.56753    271.30365    195.92045    39062.633 
  180300    303.76655    -1482.814    488.72628    365.02331    89.906681    39062.633 
  180400    309.13524   -1477.8082    434.13421    339.45762    759.85898    39062.633 
  180500    295.61979   -1500.2308    467.86556    290.29561   -31.697483    39062.633 
  180600    292.23308   -1460.0424    449.94325     297.4089   -263.02882    39062.633 
  180700    301.17465   -1478.2693    473.05599    342.30105   -345.91974    39062.633 
  180800    297.77287   -1520.4161    429.99948    241.87751   -55.161789    39062.633 
  180900    303.25982   -1478.9152    459.19096    337.11955   -25.563646    39062.633 
  181000    300.65486   -1469.3831    456.73032    332.53596    456.40527    39062.633 
  181100    301.65173   -1482.0026    474.93474    342.58109    396.18277    39062.633 
  181200    301.89053   -1495.0153    463.63099    319.33302    237.79563    39062.633 
  181300     308.1316   -1517.7115    451.84059    312.77019    215.20716    39062.633 
  181400    290.61279   -1475.8757    474.89876     299.2816   -318.81745    39062.633 
  181500    312.93006   -1494.9047      462.824    368.02973    323.58229    39062.633 
  181600    295.86958   -1511.7847    473.77883     285.7726    324.35878    39062.633 
  181700    298.84949   -1447.1858    450.26632    340.19163    577.34229    39062.633 
  181800    298.28349    -1455.019     491.7708    371.33059    389.22989    39062.633 
  181900    299.88678   -1467.5542    448.50992    322.70789    121.19098    39062.633 
  182000    303.89052   -1452.3299    503.29697    410.63282   -264.93558    39062.633 
  182100    305.18946   -1464.0055    478.22385    379.69577    514.00155    39062.633 
  182200     296.9027   -1500.4847    450.38598    278.30207   -118.29141    39062.633 
  182300    307.72812   -1455.3495    437.27914    358.76556   -135.70824    39062.633 
  182400    289.61546   -1468.7515    482.47254    309.51737   -180.31098    39062.633 
  182500    298.08249   -1472.4477    438.71174    299.94354    121.47382    39062.633 
  182600    303.66989   -1484.4524    482.27805    356.50424   -329.17704    39062.633 
  182700    313.51439   -1498.5421    460.64213    364.82484   -340.21017    39062.633 
  182800    303.80547   -1530.8133    479.79984    308.27175    118.24293    39062.633 
  182900    308.20738     -1487.95    452.52797    343.55818    -294.9203    39062.633 
  183000    301.40722   -1558.3592    451.57865    241.77438   -224.13017    39062.633 
  183100    297.63329   -1512.5238    464.84914    283.99504    88.351544    39062.633 
  183200    286.68864    -1506.381    459.83589      236.156   -327.92513    39062.633 
  183300    298.15524   -1513.5078    460.86364    281.36081    43.779613    39062.633 
  183400    299.24058    -1514.729    447.08832    271.22027   -144.58683    39062.633 
  183500    305.53554    -1488.268    454.91434     333.6722   -165.55661    39062.633 
  183600    293.64529   -1499.1853    443.66427    258.30552    201.53596    39062.633 
  183700    304.94113   -1489.8287    465.01402    339.55167   -130.35922    39062.633 
  183800    293.53358   -1487.7106    461.48538    287.10152   -107.43458    39062.633 
  183900     291.6646   -1499.9785    448.22665    253.21268   -156.83595    39062.633 
  184000    297.55277   -1492.0435    453.98929    293.25519   -164.54935    39062.633 
  184100    303.30295   -1486.9534    436.63706    306.72044   -51.070933    39062.633 
  184200    292.83953   -1493.4887    475.48494     292.2177   -123.07071    39062.633 
  184300    304.46795   -1478.6938    480.40327    363.95875    350.43529    39062.633 
  184400    302.76833   -1504.0606    473.24676    323.83096    547.69852    39062.633 
  184500    303.59504   -1498.4762    487.50851    347.37594    848.68274    39062.633 
  184600     292.8125   -1493.5735    487.95184    304.47877    784.40199    39062.633 
  184700    296.93124   -1518.3863    452.85745    262.99966    496.55308    39062.633 
  184800    298.24621   -1495.8301    475.42924    314.01111    258.36986    39062.633 
  184900     303.2347   -1481.4348    469.92421    345.22082    108.69728    39062.633 
  185000    292.07402   -1490.4161    460.08805     276.4683   -438.03393    39062.633 
  185100     303.5673   -1486.7428     460.1557    331.63251    688.97713    39062.633 
  185200     297.0941   -1485.1399    511.95601    356.07329    831.91649    39062.633 
  185300    296.96169   -1456.2075    458.92271    331.37997    420.99194    39062.633 
  185400     297.9291   -1513.1043    465.27283    285.16166    576.02333    39062.633 
  185500    297.77028   -1461.2106    488.69458    359.76656    63.800953    39062.633 
  185600    305.71337   -1503.0293    446.50753    311.29975    181.47696    39062.633 
  185700     297.3348   -1507.9744    482.72666    305.08644    -15.07016    39062.633 
  185800    293.02334   -1488.5341    463.73696    286.24663   -45.532741    39062.633 
  185900    293.76646   -1517.1986    446.47291    243.64301   -390.65043    39062.633 
  186000    291.34583   -1545.0276    457.47056    215.98127   -143.03283    39062.633 
  186100    297.45328   -1483.4435    469.25092    316.67163    5.6911471    39062.633 
  186200    290.66436   -1504.4913    449.56741    245.56536    223.43577    39062.633 
  186300    295.32527   -1484.5403    469.64406    306.44687   -101.45794    39062.633 
  186400    295.47176   -1512.3817    462.62613    272.24296    382.58402    39062.633 
  186500    315.44899   -1505.1803     477.8114    384.01163    482.37542    39062.633 
  186600    293.21986   -1499.3295    441.97867    254.57228   -52.406378    39062.633 
  186700    306.03479   -1483.7542    458.55723     344.0626   -139.55399    39062.633 
  186800    306.91852   -1465.7034    472.05943    379.56958    206.62275    39062.633 
  186900    307.30006   -1461.6251    450.69427    363.98983    306.87779    39062.633 
  187000    308.19613   -1480.2636    464.36151    363.02773    455.94747    39062.633 
  187100    286.31879   -1471.9358    477.04222    286.15275    260.44313    39062.633 
  187200    299.03048   -1438.6186    485.80793    385.11026    501.43571    39062.633 
  187300    297.17424   -1488.5685    472.98906    314.03628    586.23548    39062.633 
  187400    300.14442   -1500.4918    472.56731    314.98043    735.99575    39062.633 
  187500    306.61388   -1433.1342    487.11232    425.82866    700.37091    39062.633 
  187600    303.49377   -1474.7432    451.87061    335.01799    498.64174    39062.633 
  187700    298.87337   -1446.2536    481.80374    372.76815    27.642429    39062.633 
  187800    289.31793   -1471.1015    483.18382    306.54743    222.62802    39062.633 
  187900    300.58616   -1464.1142     493.8146    374.58181    1028.1056    39062.633 
  188000    307.75827    -1476.267     459.1558    359.85959    323.98357    39062.633 
  188100    302.71458   -1438.1753    454.85996    371.08898     946.7524    39062.633 
  188200    299.28382   -1489.6149    459.81122    309.25081    99.766488    39062.633 
  188300    301.70317   -1484.2147    475.47434    341.13872   -65.148337    39062.633 
  188400    299.56402   -1433.9966    454.97553    361.28699    344.40706    39062.633 
  188500    306.64621    -1433.765    480.50004    418.73026   -21.203373    39062.633 
  188600    295.83435   -1433.9406    497.45569    387.13585    36.152056    39062.633 
  188700    304.68984    -1471.978    458.83637    350.10046    174.89093    39062.633 
  188800    299.96501   -1470.1367    464.33197     336.2975    148.95315    39062.633 
  188900    293.13666   -1474.4852    450.28988    287.35549    54.036078    39062.633 
  189000    294.76622    -1457.581    489.89037    351.15115    562.01458    39062.633 
  189100    296.02528   -1486.1696    465.59788     303.9034    628.35552    39062.633 
  189200    304.29478   -1442.2038    444.70788    363.97851    593.68592    39062.633 
  189300     307.6331   -1474.9789    456.22969    357.66157    647.29492    39062.633 
  189400    306.15074   -1459.4619    457.85415    368.17064    320.97561    39062.633 
  189500    291.51896   -1481.7994    475.42387    297.93739     373.9788    39062.633 
  189600    301.20703   -1469.5306    456.79931    334.92799    330.57519    39062.633 
  189700      294.021   -1433.4326     469.7397    351.81461   -10.505603    39062.633 
  189800    296.84531   -1444.4131    463.92023    347.65123   -72.542045    39062.633 
  189900    299.24711   -1453.2388    476.56104    362.21243    133.53973    39062.633 
  190000    289.83901   -1496.2027    480.39853    280.99231   -10.405587    39062.633 
  190100    301.27917   -1511.9529    459.59607    295.62519   -81.570712    39062.633 
  190200    308.12333   -1459.7026    458.38673    377.28824     23.73067    39062.633 
  190300    297.61559   -1505.9549    461.71975    287.35534    503.33595    39062.633 
  190400     298.7298   -1510.3209    472.29414    298.54889    582.52235    39062.633 
  190500    302.15782   -1481.9091    485.66933    355.67352    564.69824    39062.633 
  190600    298.24664   -1463.7268    459.44534    330.13246     404.4606    39062.633 
  190700    303.02078   -1502.5386    471.93618    325.17187    370.23073    39062.633 
  190800    294.85022   -1485.0132     467.9899    302.19436    49.665201    39062.633 
  190900    303.79714   -1505.7294    486.26178    339.78028    265.26704    39062.633 
  191000    296.35936   -1531.7708    465.70878    259.90782    142.00341    39062.633 
  191100    311.98664   -1499.2193    468.93654    365.60654    523.48484    39062.633 
  191200    302.50602   -1502.2999    464.62778    315.79912   -189.76135    39062.633 
  191300    298.63817   -1487.1659    436.77438    285.77413   -60.231434    39062.633 
  191400    302.68997   -1476.4269    475.78168      353.649   -318.60378    39062.633 
  191500     299.4742    -1459.078    499.17313    380.00138    126.08786    39062.633 
  191600    303.76636   -1472.9172    462.19905     348.3921    157.42627    39062.633 
  191700    301.13068   -1454.7441    470.97561    363.54912   -57.215322    39062.633 
  191800    303.87799   -1463.8786    479.86115    375.59217   -452.20324    39062.633 
  191900    294.42017   -1425.5414    468.21862     359.9708   -271.38989    39062.633 
  192000    306.99863   -1463.5813        472.7    382.69071    65.864988    39062.633 
  192100    299.50933   -1494.2637    480.29981    326.09951   -33.495817    39062.633 
  192200    295.84272   -1537.0501    468.63292    255.24113     93.11811    39062.633 
  192300    292.16512    -1475.715    474.83844    306.32745    167.46577    39062.633 
  192400     307.1991   -1450.0694    492.11865    416.51823    299.86589    39062.633 
  192500    308.47008   -1434.7894    485.50068    430.86681    132.26269    39062.633 
  192600     308.5278   -1446.3697    480.61118    414.65532   -158.64065    39062.633 
  192700    302.22706   -1478.2685    470.61702    344.57159   -226.33316    39062.633 
  192800    307.81075   -1478.2434    465.91685    364.87909   -351.17601    39062.633 
  192900    290.23455   -1492.5905     461.5211    267.49687   -359.31978    39062.633 
  193000    297.95504    -1530.655    466.20919    268.66338    308.29293    39062.633 
  193100     294.8779   -1521.5629    459.36263    257.14118    285.92914    39062.633 
  193200    315.53778   -1486.8121     492.9486    417.91433   -81.274384    39062.633 
  193300    307.28961   -1478.0119    477.81047    374.67247    250.00885    39062.633 
  193400    311.10389   -1521.8063    463.60125    333.73471   -319.39288    39062.633 
  193500    308.94327   -1494.8154    467.11023    354.56754   -444.29133    39062.633 
  193600    293.44237   -1514.4994    469.21398    267.63327    -286.2751    39062.633 
  193700    300.10299   -1544.0605    457.63993    256.29905    128.05325    39062.633 
  193800    290.57207   -1554.2652    437.16219     182.9733    564.89458    39062.633 
  193900    295.89831   -1517.2242    477.05514    283.73789     402.0363    39062.633 
  194000    295.84887   -1485.7025    488.27461     326.2579    508.62127    39062.633 
  194100    295.09238   -1484.8323      486.478    321.94679    4.5996208    39062.633 
  194200    305.67023   -1492.8288    477.28939    352.08912    218.12073    39062.633 
  194300    296.04781   -1508.7194    459.92267     275.7792    25.136394    39062.633 
  194400    298.16719   -1505.4933    479.13142     307.6965   -244.00722    39062.633 
  194500    301.48227   -1480.2453    463.60261    332.24809   -27.368996    39062.633 
  194600    320.22613   -1477.1223    479.39686    435.02903   -394.71054    39062.633 
  194700    293.75009   -1487.8241    509.42159    335.89294   -114.51508    39062.633 
  194800     300.5285   -1488.1766    485.87235    342.31908    592.93411    39062.633 
  194900    311.51876   -1516.4802    483.94128    361.25703    662.65791    39062.633 
  195000    286.95312   -1514.0365     473.8971    243.74509    413.43155    39062.633 
  195100       309.43   -1463.1131    494.97788    416.31519    347.45967    39062.633 
  195200    305.36785   -1491.5758    476.81908    351.51882   -24.459214    39062.633 
  195300    316.28195   -1505.6688    451.34667    360.78523   -233.64628    39062.633 
  195400    292.75102   -1502.2638    474.35701    281.91858   -388.09725    39062.633 
  195500    301.93258   -1520.2651    465.01749    295.65789   -232.08981    39062.633 
  195600    308.90425   -1519.9886    473.25074    335.36024    -676.3846    39062.633 
  195700    300.81893   -1488.5373    468.75685     326.1424   -358.12044    39062.633 
  195800    305.73813   -1488.4747    472.14334    351.60097    -256.9239    39062.633 
  195900     296.1763   -1510.3188    480.12517    294.95718   -902.96706    39062.633 
  196000    302.04413   -1519.7214    481.60493    313.28813   -236.69497    39062.633 
  196100    294.28935   -1538.9695    470.36482    248.10353    -285.8373    39062.633 
  196200    292.35503   -1551.4083    437.98627    194.63166   -330.24181    39062.633 
  196300    305.35909    -1526.464    461.00013    300.77255   -518.37186    39062.633 
  196400    304.74763   -1519.2049    468.29869    312.59441      -895.89    39062.633 
  196500    289.01957   -1506.2273    462.09028    248.99315   -308.36292    39062.633 
  196600    297.31465   -1464.2442    480.46493    346.46476    84.136924    39062.633 
  196700      295.526    -1499.262    479.90054     302.8798     201.7163    39062.633 
  196800    299.37137   -1515.0648    482.80291    307.18431    129.77947    39062.633 
  196900    296.98587   -1487.5996     495.1694    336.34276   -387.17447    39062.633 
  197000    298.95241   -1522.8455    467.19454    281.92066   -147.37616    39062.633 
  197100    296.34547   -1493.2976    466.09843    298.70847    -297.3764    39062.633 
  197200     292.6708   -1471.7742    494.27064    331.96298   -622.18672    39062.633 
  197300    299.43632    -1499.211    482.65227    323.17806   -153.77696    39062.633 
  197400    305.04218   -1505.2997    474.82768    334.34648    7.0973065    39062.633 
  197500    299.56515    -1482.493     472.0168    329.83691    17.231406    39062.633 
  197600    302.08607   -1495.8417    456.36805    312.11857    189.13932    39062.633 
  197700    301.33621   -1484.2836    474.29193    338.24553    128.57218    39062.633 
  197800    303.55636   -1506.9443    478.98512    330.21143    554.68451    39062.633 
  197900    295.20396   -1491.2336    490.62106    320.18781    293.34492    39062.633 
  198000    298.97257   -1561.4095    471.09683     247.3492    147.69765    39062.633 
  198100    295.77473   -1534.7685     445.7723    234.35787    342.06891    39062.633 
  198200    295.07306   -1535.9456    487.90093    272.16996      96.6184    39062.633 
  198300    306.81085   -1534.3212    463.24181    301.65246    510.72928    39062.633 
  198400    295.48544   -1533.0366    454.50925    243.53239    252.29857    39062.633 
  198500    306.18653   -1489.8288    452.06596    332.17569    451.20952    39062.633 
  198600    299.74655   -1486.4874    488.49626     343.1336    796.16343    39062.633 
  198700    288.60212    -1520.755    477.13405    247.64144    173.80991    39062.633 
  198800    292.66436   -1523.0291    456.69442    243.10296    62.780783    39062.633 
  198900    292.21245   -1496.4135    484.06814    295.07037    650.53474    39062.633 
  199000    295.04127   -1508.5064    478.88918    290.45521    644.41397    39062.633 
  199100     296.5992     -1533.89    463.43177    256.58468    523.34547    39062.633 
  199200     301.6045   -1536.3679    473.32475     286.3945     77.31052    39062.633 
  199300    287.71317   -1508.5329    477.99255    256.74472    146.87999    39062.633 
  199400    293.98118   -1541.1741    472.72095    246.87628   -88.550793    39062.633 
  199500    289.62362   -1510.7358    478.74781    263.84481    177.97933    39062.633 
  199600    281.44726   -1569.0498    464.27631    154.47671    143.43336    39062.633 
  199700    308.64577   -1569.2169    481.79747    293.52219    652.80297    39062.633 
  199800    304.95983   -1558.5013    445.59368    251.54242    217.18408    39062.633 
  199900    294.72724   -1553.7617     450.0567    214.96236   -48.229195    39062.633 
  200000    305.74199   -1503.9466    487.61483    351.61778   -445.78091    39062.633 
  200100    298.59238   -1512.8347    433.28548    256.41165   -419.14658    39062.633 
  200200    289.19776   -1518.5455    466.84508    242.22703   -595.12757    39062.633 
  200300    288.93428   -1525.0044    445.81434     213.5585   -380.83017    39062.633 
  200400    297.81048   -1505.1831    472.84741    300.12673   -86.253972    39062.633 
  200500    295.51146   -1522.0343    470.45873    270.60053   -689.25057    39062.633 
  200600    293.33705   -1534.6315    463.37039    241.18628   -157.93815    39062.633 
  200700    293.65303   -1517.9113    468.49834    264.44824   -148.81251    39062.633 
  200800    306.26217   -1526.4433    470.16095    313.99456    405.84679    39062.633 
  200900    309.10672   -1547.3471    456.83725    292.49419    147.61898    39062.633 
  201000    304.03699   -1535.3804    463.74344     288.6841    238.20292    39062.633 
  201100    301.87384   -1518.1991     464.8921    297.33573   -146.61223    39062.633 
  201200    295.90189   -1493.9838    472.64578    302.58499    43.351713    39062.633 
  201300    306.50254   -1475.5338    464.44622    360.26485    496.37672    39062.633 
  201400    302.65277   -1505.1831    469.71361    318.65826    234.17811    39062.633 
  201500    303.47346   -1514.9492    447.99398    290.84445   -171.40175    39062.633 
  201600    297.41684   -1493.9609    467.33538    304.07568   -426.74554    39062.633 
  201700    304.68045   -1446.9322    485.01509    401.28287    196.31691    39062.633 
  201800    300.38696    -1486.267    482.76961    340.49276   -246.34749    39062.633 
  201900     299.9325   -1492.0526    455.17505    305.07923    357.53791    39062.633 
  202000    304.46552   -1533.5861    467.03179    295.68409    600.58864    39062.633 
  202100    296.43736   -1540.1997    443.22252    229.34162    245.08883    39062.633 
  202200    292.56393   -1529.4768     485.8586    265.37011    427.43071    39062.633 
  202300    301.58052   -1546.4743    466.91946    269.77549    737.08927    39062.633 
  202400    306.71367   -1522.0986    450.32895    300.52746    341.44696    39062.633 
  202500    297.30334   -1514.8605    455.13158    270.46453    479.86608    39062.633 
  202600    307.47275   -1517.6768    474.28126     332.2978   -147.61004    39062.633 
  202700    293.52438   -1486.3861    454.70509     281.6046   -18.492828    39062.633 
  202800    309.99985   -1539.7032    468.86223    316.15905    306.15048    39062.633 
  202900    299.93066   -1481.9638    468.18857    328.17332    153.00281    39062.633 
  203000    301.12796   -1491.0462    475.74529    332.00452    54.020653    39062.633 
  203100    305.96322   -1492.7521    476.50266       352.69    151.43364    39062.633 
  203200    306.43343   -1484.8198    484.04095    370.26434   -734.18505    39062.633 
  203300    312.62115    -1481.413    478.23382    395.54908   -335.51291    39062.633 
  203400    309.32263    -1450.855    480.69828    413.81333   -953.36457    39062.633 
  203500    294.76705   -1461.8829    471.93903    328.90171   -137.88257    39062.633 
  203600    297.45793   -1488.6214    477.58845    319.85203   -456.78476    39062.633 
  203700    293.03058   -1459.6781      470.665    322.06311   -390.11981    39062.633 
  203800    295.16559   -1449.3617    466.20907    337.47602    -275.6887    39062.633 
  203900    300.05484   -1472.0469    471.89693    342.35411   -88.931323    39062.633 
  204000    301.75787   -1474.0531    480.53732      356.608   -183.93491    39062.633 
  204100    293.76444   -1541.6388    455.81467    228.53555    315.87361    39062.633 
  204200    303.28916   -1486.0628    438.68323    309.59556    104.92984    39062.633 
  204300     298.9545   -1492.3826    471.77151    316.96988   -36.423187    39062.633 
  204400    308.01514   -1500.5372    467.83837    345.42123    406.16542    39062.633 
  204500    302.16171   -1523.6419     473.3142    301.60296    282.31459    39062.633 
  204600    298.06181   -1503.1916    457.95858    288.35387    91.841823    39062.633 
  204700    299.32529   -1494.9592    497.55566    341.83639    116.14311    39062.633 
  204800    308.00096   -1520.7901    465.56487    322.83141    494.81547    39062.633 
  204900    299.35128   -1497.0087    489.25124    331.59878   -347.50801    39062.633 
  205000    296.79851   -1495.1626    467.84552    300.61761   -149.09071    39062.633 
  205100    293.91176   -1513.5159    468.41793    269.92076   -27.861286    39062.633 
  205200    292.92091   -1456.4352    479.38228    333.53258    -304.7293    39062.633 
  205300    308.13903    -1445.891    472.15471    404.93805   -450.57918    39062.633 
  205400    292.89911   -1421.8254    498.16288    386.82543    49.655149    39062.633 
  205500    285.05188   -1472.3491    490.88061    293.90944    -126.5419    39062.633 
  205600    292.88918   -1459.1469    478.11598    329.41268    742.18231    39062.633 
  205700    301.24811   -1520.6698    475.84358    303.01681    133.43476    39062.633 
  205800    299.18827   -1501.1584    469.08379    306.55229   -281.41949    39062.633 
  205900    295.22143   -1486.7936    469.87436    303.95928   -201.66065    39062.633 
  206000    313.51706   -1469.2982    477.23946    410.67798    366.23568    39062.633 
  206100    298.95681   -1502.7571    460.70307    295.53729    19.326634    39062.633 
  206200    308.09463   -1463.5373    485.67672    400.61518    164.98092    39062.633 
  206300    311.08857   -1459.5678    474.73743    407.04083   -411.82283    39062.633 
  206400    314.03409   -1515.0944    451.83316    341.78878   -307.45732    39062.633 
  206500    304.42492   -1533.3129    465.11674    293.86061   -524.67875    39062.633 
  206600    295.36402   -1498.1342    476.19892    299.58123    312.53565    39062.633 
  206700    311.61006   -1447.3151    462.02063    408.90999    72.407613    39062.633 
  206800    295.70497   -1503.5091    471.95873    291.49158     110.0901    39062.633 
  206900    304.77312   -1475.9822    483.62213    371.25455    56.968803    39062.633 
  207000    299.01373   -1480.8008    484.75581    341.80102    176.15325    39062.633 
  207100    300.49605   -1465.4322    480.37828    359.42431    -105.2095    39062.633 
  207200    297.28572   -1543.8638    440.85985    227.11055   -402.30981    39062.633 
  207300    309.07536   -1524.5307    443.44119    301.77418   -160.39791    39062.633 
  207400    296.97143   -1532.2451    451.81802    248.28131   -710.68136    39062.633 
  207500    299.59858   -1494.9859    454.44259    299.91947   -295.24309    39062.633 
  207600    299.63063   -1527.8313    437.20973    249.98453    91.944876    39062.633 
  207700    315.72933   -1500.3296    495.45356    407.75878   -216.15225    39062.633 
  207800    301.55533   -1480.6958     458.1868    326.70864   -623.01972    39062.633 
  207900    304.48077   -1482.1746    455.45763    335.58964   -1098.7307    39062.633 
  208000    299.05721   -1524.1421    456.94769    270.84612   -599.15294    39062.633 
  208100     307.9257   -1491.8184    454.85289    340.75445   -525.91927    39062.633 
  208200    297.03399   -1516.1973    450.73173    263.52267   -406.63744    39062.633 
  208300    294.46642    -1502.114     461.1667    276.55309    12.419793    39062.633 
  208400    297.28538   -1493.9364    468.13648    304.31311    129.68356    39062.633 
  208500     310.1134   -1475.3742    473.76921    385.90314   -648.78329    39062.633 
  208600    299.71445   -1453.8723    456.17628    343.28515   -775.70452    39062.633 
  208700     300.8095   -1480.3417    452.32149    317.86039   -599.16511    39062.633 
  208800    304.55507   -1506.3946    454.32114    310.56562   -110.35166    39062.633 
  208900     294.0159   -1513.2649    453.40254     255.6224   -8.2341994    39062.633 
  209000     309.4805   -1468.5833    494.65736    410.75041    202.17782    39062.633 
  209100    309.84824   -1502.1879    459.85989    343.99368   -159.89932    39062.633 
  209200    303.24434   -1477.5633    449.33395    328.54521   -2.3041532    39062.633 
  209300    302.13251   -1516.2967    464.63782     300.1411   -89.731095    39062.633 
  209400    294.49721   -1502.9521     452.6275    267.31357    75.711015    39062.633 
  209500    300.73869   -1513.2753    459.91201    292.20051    17.068263    39062.633 
  209600    292.16407   -1487.5316     454.7764    274.44411    287.30554    39062.633 
  209700    310.23759   -1523.5349    449.83649    314.36538    137.42066    39062.633 
  209800    304.87415   -1541.5288    455.83398    278.37185    418.73876    39062.633 
  209900    289.66361   -1536.5874    459.01891     218.4433   -43.126045    39062.633 
  210000    290.70442    -1511.398     482.3971    271.66766   -421.68218    39062.633 
  210100    303.92047   -1537.3651    457.12501    279.55964   -195.66778    39062.633 
  210200    303.20645   -1527.4299    458.20915    287.38427    285.61487    39062.633 
  210300     300.0432   -1477.5167    465.02165    329.95706    -22.95583    39062.633 
  210400    308.61224   -1485.0672     450.3903    346.11474   -129.06686    39062.633 
  210500    296.67865   -1467.8457    450.16395    309.71666   -639.48344    39062.633 
  210600     296.5535   -1463.3955    476.57757    340.02051   -245.24661    39062.633 
  210700    294.40919   -1488.8252    448.63082    277.05006   -41.662187    39062.633 
  210800    303.00651   -1541.4341    453.65741     267.9338    378.64832    39062.633 
  210900    306.00054   -1528.5402    448.39796     288.9641   -55.423737    39062.633 
  211000    308.29103   -1511.2078    460.00012    328.14682   -158.48191    39062.633 
  211100    291.05352   -1468.2447    456.15426    290.14001   -455.85948    39062.633 
  211200    306.16496   -1443.2794    468.23126    394.79385   -192.05541    39062.633 
  211300     298.0609   -1468.6892    482.24987    347.14355    137.67738    39062.633 
  211400    300.83663   -1482.5076     449.5993    313.09371   -547.38632    39062.633 
  211500    294.82562   -1506.2893    468.01511    280.83338   -555.48199    39062.633 
  211600    292.44255   -1514.2081    450.90325    245.14042   -497.29401    39062.633 
  211700     289.6792   -1498.0307    441.97695    240.02774   -872.57914    39062.633 
  211800    305.61235   -1482.9372    458.84619    343.27852   -318.70126    39062.633 
  211900    300.29254    -1474.384    443.45569    312.63937   -324.87919    39062.633 
  212000    300.03624   -1483.7899    453.95267    312.58365   -356.86506    39062.633 
  212100     295.7163   -1467.4301    464.23902     319.9016   -22.913833    39062.633 
  212200    298.47974   -1474.4112    434.77513     295.8208    -173.8634    39062.633 
  212300    299.21899   -1504.6884     458.3427    292.41866   -575.82239    39062.633 
  212400    301.44926   -1503.7621    438.40186    283.38284    -359.2862    39062.633 
  212500    289.67396   -1525.7301     437.9924     208.3203   -703.57716    39062.633 
  212600    300.10518   -1467.1788    465.07682    340.62742   -488.20014    39062.633 
  212700    290.13415   -1538.6502    443.55505    203.02184   -792.96461    39062.633 
  212800    300.06094   -1493.0011    461.02453    310.55482   -400.82766    39062.633 
  212900    295.96871   -1508.5476    456.10161    271.77604    263.80704    39062.633 
  213000    305.84409    -1532.737    444.93084    280.60018    119.88848    39062.633 
  213100    295.16565   -1540.4325    457.38403    237.58046    474.80246    39062.633 
  213200    302.36581   -1515.3286    459.28671    296.80203    55.655342    39062.633 
  213300    305.04496   -1533.0697    490.49448     322.2557    79.814133    39062.633 
  213400    284.10074   -1485.6389    458.17514    243.65865     284.2489    39062.633 
  213500    297.39299   -1505.8671    463.10637    287.83378    300.94019    39062.633 
  213600    307.15375   -1463.7249    487.61747    398.15859    216.99858    39062.633 
  213700     298.3035   -1515.0864    440.79991    260.38181    257.53145    39062.633 
  213800    292.17355   -1528.7064    469.79584     248.3311    172.38529    39062.633 
  213900    301.70318    -1476.013    490.18888      364.055    263.30145    39062.633 
  214000    303.95363   -1443.5794    484.59932    400.96802    93.893442    39062.633 
  214100    288.58312      -1450.2    475.59255    316.56998    -3.912343    39062.633 
  214200    299.26311   -1475.8816    491.49984    354.57996    9.5896244    39062.633 
  214300    298.61388   -1447.9564    475.06023    363.16079     458.9518    39062.633 
  214400    288.66054   -1430.3751    465.78116    326.92983    254.87599    39062.633 
  214500    304.02588   -1491.6837    475.04095    343.62862    547.73765    39062.633 
  214600    291.36833   -1486.4274    439.60392    256.81545    664.13065    39062.633 
  214700    295.88444   -1496.6096    483.57363    310.80902    374.65456    39062.633 
  214800    299.79572   -1505.4476    471.87267    307.76983    565.75803    39062.633 
  214900    287.18256   -1470.3909    496.60615    311.12625    366.03148    39062.633 
  215000    294.24522    -1482.194    469.07781     303.3946    68.149923    39062.633 
  215100    291.80728   -1478.1428    448.86072    276.32085    14.276536    39062.633 
  215200    293.00572   -1482.2977    473.14046    301.80773   -282.28964    39062.633 
  215300    303.82706   -1499.9654    460.83082    320.24723    387.30964    39062.633 
  215400    296.82798   -1498.6482    463.54209    292.96041    299.80588    39062.633 
  215500    305.96202   -1487.4635    478.80155    360.27204    137.54065    39062.633 
  215600    303.49975   -1472.2582    495.59604    381.25522    114.75432    39062.633 
  215700    301.88294   -1449.1371    468.13538     369.6817    43.112087    39062.633 
  215800    290.42598   -1483.3182    441.82273    257.92728   -269.53736    39062.633 
  215900    308.19394    -1469.358    472.59345    382.15545   -406.15858    39062.633 
  216000    294.70675   -1470.0325    466.41668    314.95992   -446.20683    39062.633 
  216100    303.67831   -1447.5554    502.02695    413.18781    36.161067    39062.633 
  216200     294.1917    -1475.668    473.92435    314.52769    176.09833    39062.633 
  216300    303.15738   -1448.6257     474.7353    382.49514    166.59266    39062.633 
  216400    288.78416   -1455.5791    469.16121    305.65897    348.12032    39062.633 
  216500     297.6873   -1484.4691    484.19187    331.63404    358.26229    39062.633 
  216600    308.30683   -1443.4634    478.54985    414.51163     207.4536    39062.633 
  216700     307.5678   -1439.3672    454.90759    391.65895    210.18736    39062.633 
  216800    302.57742   -1487.1032    490.11953    356.80699   -432.53194    39062.633 
  216900    305.03615   -1477.7214     459.3302    346.40031   -298.82068    39062.633 
  217000    303.99532   -1443.5742    451.51882    368.07925    231.52238    39062.633 
  217100    288.08175   -1423.5475    500.20273    365.58944     64.31295    39062.633 
  217200    295.88319   -1443.3451    442.33141    322.82564   -321.54147    39062.633 
  217300    304.69684   -1468.1977    472.82713    367.90279    112.89453    39062.633 
  217400    305.75389   -1463.8745    474.66639    378.79465   -298.89764    39062.633 
  217500     308.5379   -1448.3531    443.19064    375.29652   -155.19927    39062.633 
  217600    293.46469   -1462.6478     456.0668    306.43755    -258.0359    39062.633 
  217700    298.61148   -1470.0995    482.47432    348.42111   -891.36013    39062.633 
  217800    300.14738   -1437.8886    473.62077    378.65031   -842.89402    39062.633 
  217900    298.44305   -1459.0513    471.92788    348.16926   -430.57071    39062.633 
  218000    300.29403    -1471.195    465.68728    338.06662   -333.44645    39062.633 
  218100     303.9858   -1481.2719     472.3443     351.1644   -462.73669    39062.633 
  218200    310.37321   -1453.4411    481.74579    416.97524    -638.7146    39062.633 
  218300    294.76718   -1483.4957    452.29833    287.64875   -534.68066    39062.633 
  218400    293.54601   -1531.2328    458.34461    240.49414   -414.57646    39062.633 
  218500    302.76056   -1507.1429    462.10829     309.5754   -198.59586    39062.633 
  218600    292.09629   -1512.4718    465.18563    259.60979   -97.641733    39062.633 
  218700    296.01389   -1502.8514    471.10617    292.67894   -154.52011    39062.633 
  218800    295.53325   -1511.5035     464.3427    275.11287    596.72831    39062.633 
  218900    311.65207   -1496.6724    492.22952     389.9495    461.18132    39062.633 
  219000    291.18007   -1482.7396     488.5142    308.57126    233.27802    39062.633 
  219100    291.55177   -1511.9858    471.74715     264.2211    161.24428    39062.633 
  219200    291.20215   -1532.7813    480.56588     250.6801    197.41528    39062.633 
  219300     308.7232   -1553.5151     467.6791    295.45208    283.21248    39062.633 
  219400    295.75924   -1495.9156    470.91434    298.28349      185.773    39062.633 
  219500    291.92737    -1521.565    468.58825     253.1635   -91.602235    39062.633 
  219600    305.00113   -1544.1829    456.50702    276.95889   -138.01502    39062.633 
  219700    300.02593   -1511.3553     465.1119    296.13138   -401.04857    39062.633 
  219800    296.70502   -1507.3555    452.68324     272.8441   -128.36657    39062.633 
  219900    303.78259   -1495.8054    481.67657    345.05394   -144.66356    39062.633 
  220000    286.14516   -1515.1501    485.87704    250.99647    70.929444    39062.633 
  220100    295.39117   -1559.4254    457.30821    219.52078   -436.66695    39062.633 
  220200    293.01472    -1516.711    445.59509    239.88929   -238.12588    39062.633 
  220300    295.89929   -1526.5106    463.53845    260.93921     67.79552    39062.633 
  220400    296.84553   -1490.1794    467.20803    305.17361   -387.24569    39062.633 
  220500    296.06942   -1497.4336    483.70611    310.94513    150.77404    39062.633 
  220600     300.3785   -1517.3806    472.84161    299.41327    720.17792    39062.633 
  220700    297.59297   -1539.3151    471.50148    263.67559    892.89784    39062.633 
  220800    311.46591    -1549.635    449.20773    293.13224    1307.6523    39062.633 
  220900    305.64714   -1547.7913    491.59614    311.33006    551.17312    39062.633 
  221000    301.58277   -1554.9471    476.14412    270.53745    534.19271    39062.633 
  221100     294.2318   -1533.0693    443.32837    226.70978    249.92152    39062.633 
  221200     300.1615   -1540.2102    482.12812    284.89922    602.88448    39062.633 
  221300    307.15252   -1549.8613    491.48292    315.88215    -87.55259    39062.633 
  221400    307.82595   -1543.9181    481.94763     315.3031    434.58632    39062.633 
  221500    297.65653   -1546.1421    465.57613    251.20761   -187.00318    39062.633 
  221600     298.2675   -1551.9227    473.35783    255.94231   -76.381918    39062.633 
  221700    305.22262   -1527.0973    485.94398    324.47247    93.182297    39062.633 
  221800    297.99079   -1498.9339    431.74581    266.08107    -334.1099    39062.633 
  221900    306.56839   -1522.2023    463.00379     312.4485     529.5473    39062.633 
  222000    300.43908   -1512.6865    464.94348    296.48032    -71.59964    39062.633 
  222100    293.41773   -1482.5464    483.10185    313.36389    373.11317    39062.633 
  222200    296.25994   -1534.2324    497.57998    288.87261     717.8795    39062.633 
  222300    303.06926   -1531.4305    466.27058    290.83135    424.15394    39062.633 
  222400    296.74007   -1515.5608     477.2114    289.32381    324.06904    39062.633 
  222500    298.35621   -1540.4383    459.38919    253.85497   -80.933424    39062.633 
  222600    293.47102   -1548.2513    471.44509     236.2406   -184.17804    39062.633 
  222700    294.82645   -1545.4753    453.97701    227.61294   -93.791301    39062.633 
  222800    309.99344    -1518.367    479.58818    348.19259    -195.5142    39062.633 
  222900    298.79349   -1479.4611     489.2017    346.60121    241.78903    39062.633 
  223000    295.53164   -1466.8602    474.80066    330.20696     513.8478    39062.633 
  223100    309.02614   -1455.3052    498.04364    425.38192    421.36511    39062.633 
  223200    293.07416   -1515.2622    465.81867    261.82768    316.14953    39062.633 
  223300    293.15158   -1492.8072    476.85528    295.66566    423.85536    39062.633 
  223400    285.07506   -1471.0618    479.44856     283.8684    101.62321    39062.633 
  223500     302.1923   -1511.4691    495.00684    335.60533    416.10296    39062.633 
  223600     295.0815   -1527.2126    475.64348    268.68336    531.81048    39062.633 
  223700    308.82908     -1500.52    489.53573    370.77758    833.87927    39062.633 
  223800      289.298   -1492.0162    482.87116    285.23091    724.77059    39062.633 
  223900    297.05412    -1472.988    468.03002    324.12031    598.30656    39062.633 
  224000    299.00128   -1474.6179     467.1737    330.34604     58.13491    39062.633 
  224100    293.04798   -1483.1552    473.67996    301.67879    427.13258    39062.633 
  224200    308.69317   -1513.1817    455.15457    323.12653    369.81412    39062.633 
  224300    290.35798   -1508.9605    504.41957    294.57752     5.551381    39062.633 
  224400    305.03898   -1492.1781    483.64029    356.26628    310.45369    39062.633 
  224500    307.13811   -1488.7541    470.90041    356.34235   -94.421789    39062.633 
  224600    304.69908   -1522.7939    436.03833    276.52781   -424.67891    39062.633 
  224700    301.89498   -1545.8512    488.58641    293.47251   -294.68626    39062.633 
  224800    306.80325   -1506.0556    465.40349    332.04573   -365.38792    39062.633 
  224900    293.17806    -1456.942    471.71333    326.50737   -966.12523    39062.633 
  225000    296.92334   -1496.4247    456.58173    288.65017    -824.4406    39062.633 
  225100    293.81059   -1522.5015    453.87433    245.93897   -810.54601    39062.633 
  225200    298.78355   -1535.2407    488.51549    290.09096   -864.31176    39062.633 
  225300    298.17726   -1485.8788    449.15279    297.37747   -556.11506    39062.633 
  225400    307.36447   -1470.8123    486.38653     390.7831   -311.51565    39062.633 
  225500    302.80934   -1475.4008     476.6912    356.11874    -566.0917    39062.633 
  225600    293.34155   -1456.6631    478.02941    333.83383   -63.984587    39062.633 
  225700    296.82397   -1493.1779    483.04416    317.91482    51.758443    39062.633 
  225800    293.99741   -1498.4957    479.99288    296.89915   -281.52429    39062.633 
  225900    304.90401   -1518.9038    472.67038    317.96684   -152.12751    39062.633 
  226000    301.73325   -1489.5386    456.28774    316.76286    226.37682    39062.633 
  226100    294.66107   -1536.2899     470.0471    252.12861    26.035892    39062.633 
  226200    301.13557   -1492.1038    468.82228    324.05803   -487.43694    39062.633 
  226300    304.78707   -1505.0024    474.37148    333.04619   -334.06745    39062.633 
  226400    303.97671   -1492.7303    480.40619    347.72727   -502.34945    39062.633 
  226500     304.8638   -1511.8168    483.35204     335.5556   -331.00621    39062.633 
  226600    293.99764   -1516.3491    457.12205    256.17593   -255.01584    39062.633 
  226700    292.57405   -1511.7065    479.04038    276.36752   -404.72221    39062.633 
  226800    291.83209   -1473.3451    471.63128    304.00006   -962.89002    39062.633 
  226900    300.59828    -1510.469    475.55958    310.02618     -511.963    39062.633 
  227000    304.53061   -1526.8308    467.85914    303.55789    -715.6347    39062.633 
  227100    308.66969   -1487.6106     491.7832    385.22123   -107.28768    39062.633 
  227200    295.14876   -1510.0022     471.1747    281.72588    66.446789    39062.633 
  227300    305.58918   -1538.9553    497.74711    326.05765   -126.49206    39062.633 
  227400    301.08217   -1563.4813     468.0753    251.69463   -159.30618    39062.633 
  227500    305.52925   -1509.1101    472.95891    330.84652     194.3913    39062.633 
  227600    312.96741   -1478.1003    466.27904    388.45624   -96.422671    39062.633 
  227700    293.88858   -1564.6852    484.54113    234.77106     527.7411    39062.633 
  227800    298.94595   -1517.2418    481.44616    301.74713    609.32326    39062.633 
  227900    295.93156   -1564.9931    486.03882    245.10151    281.86386    39062.633 
  228000    297.00907   -1531.1528    459.82463    257.54859   -104.25744    39062.633 
  228100    298.81437   -1548.0853    492.70482    281.57353    339.41354    39062.633 
  228200    295.59485    -1575.783    476.21229    222.97853    269.24234    39062.633 
  228300    301.17062   -1563.5526     477.5888    261.53251    174.79636    39062.633 
  228400    296.51731    -1515.238    476.78864    288.22719   -254.37498    39062.633 
  228500    298.43373   -1537.2802    467.38263    265.35339   -184.13439    39062.633 
  228600    303.75405   -1546.0388    482.30575    295.32209    452.66291    39062.633 
  228700    297.47375   -1541.2207    479.33318     269.0683   -142.56886    39062.633 
  228800    303.71596   -1566.7093     460.5057    252.68107    135.33897    39062.633 
  228900    302.32096   -1508.4633     496.4434     340.6233     245.8382    39062.633 
  229000    289.37506   -1544.7008    486.29866    236.31855    326.26747    39062.633 
  229100    301.53318   -1514.4959     474.9352    309.55779    56.437308    39062.633 
  229200    300.82823   -1568.3298    474.77838    252.41295    526.18138    39062.633 
  229300    303.40693   -1572.5202    474.07488    259.05673   -355.21223    39062.633 
  229400    305.09542   -1521.3194    504.05738    347.79463    108.66503    39062.633 
  229500    271.96601   -1530.8798    505.29988    191.24932   -451.04129    39062.633 
  229600    302.40607   -1512.1004    468.41973    309.34329   -367.88603    39062.633 
  229700    304.48552   -1544.4081    479.60667    297.52644   -176.62505    39062.633 
  229800    298.56251   -1523.7242    453.93657    266.03955   -308.73981    39062.633 
  229900    294.59551   -1497.9651    472.69166    292.80459   -220.39647    39062.633 
  230000     303.8003   -1529.1548    480.04099    310.14829   -571.31375    39062.633 
  230100    310.96363   -1496.2823    496.47778    391.50767    117.86707    39062.633 
  230200    297.91299   -1511.2593    455.78687    277.44858   -45.051528    39062.633 
  230300    292.32854   -1509.0323     496.8728    295.77564   -354.75854    39062.633 
  230400    293.11966   -1545.0585     456.9394     223.3557   -60.800486    39062.633 
  230500    307.30499   -1519.2889    479.80686     335.4607    19.787593    39062.633 
  230600    306.16914   -1504.3052    513.00876    378.56422    270.44293    39062.633 
  230700    305.85695   -1540.2161    483.90455    312.15237    513.83388    39062.633 
  230800     302.8366   -1555.1653    460.35626    260.14122    300.37262    39062.633 
  230900    304.58713    -1511.937    483.62599    334.47149   -135.33646    39062.633 
  231000    300.22169   -1570.3636    479.16443    252.05145    134.46112    39062.633 
  231100    300.14684   -1567.8379    493.04732    268.12523   -45.493751    39062.633 
  231200    310.10108   -1633.2551    471.13831    225.33624    576.45204    39062.633 
  231300    305.16807   -1570.7417    493.08806     287.7281     207.0772    39062.633 
  231400    301.13125   -1533.3488    456.81664    270.78806   -234.54722    39062.633 
  231500    302.78705   -1545.1126    480.19593    289.81189   -500.49761    39062.633 
  231600    295.65061   -1517.5753    473.69799    278.92147   -469.01674    39062.633 
  231700    304.15999   -1513.1826     463.9371    311.62586   -485.83684    39062.633 
  231800    295.13078    -1511.322    508.57593    317.72692    -138.7932    39062.633 
  231900    294.13166   -1544.7427     456.5425     227.8025   -106.39603    39062.633 
  232000    293.14007   -1529.5159    472.90779      254.958    68.837593    39062.633 
  232100    298.88016   -1532.7954    511.50716     315.9601   -243.72315    39062.633 
  232200    302.09517   -1594.0947    454.76554    212.30379   -68.460917    39062.633 
  232300    306.43421   -1572.2064    492.66526    291.50554   -152.81284    39062.633 
  232400      307.985   -1583.9384    508.72027    302.76706    247.10606    39062.633 
  232500    302.10401   -1565.0887    458.17367    244.75746     -162.648    39062.633 
  232600    301.31192   -1578.0989     507.4743    277.50394   -274.24465    39062.633 
  232700    295.65674   -1566.4346    506.59985    262.99141   -133.68531    39062.633 
  232800    305.46284   -1522.0486    457.36033    302.01232   -347.83512    39062.633 
  232900    304.64741   -1546.0854    523.07889     340.0457   -442.96903    39062.633 
  233000    295.43944    -1516.668    500.11184    305.29782   -252.94546    39062.633 
  233100    293.14964   -1525.0764    511.59206    298.12461   -246.67509    39062.633 
  233200    292.19226   -1546.7803     467.5487    228.09378    59.039919    39062.633 
  233300    300.61728   -1509.6887     504.0935    339.42541    474.05783    39062.633 
  233400    311.43828      -1545.3     473.5813    321.71719     341.7155    39062.633 
  233500    295.25022   -1499.5756     482.8161    304.24784     238.2567    39062.633 
  233600    309.02114   -1518.3139    469.24817    333.55536    429.82217    39062.633 
  233700    306.58169   -1513.8981    484.43553    342.24398   -209.81121    39062.633 
  233800    298.40905   -1495.1893    477.38447    317.33571    -141.4689    39062.633 
  233900    292.88966   -1529.8858    496.98306    277.54294   -109.07636    39062.633 
  234000    306.80774   -1540.7153    477.07268    309.07527   -447.67415    39062.633 
  234100    300.16761   -1484.5063    485.21439    343.71682    -695.7546    39062.633 
  234200    303.83119   -1498.7014    491.33313    352.03203   -755.06803    39062.633 
  234300    293.37519   -1507.2516    475.25575    280.62225   -486.13112    39062.633 
  234400     300.8891   -1533.2756    473.26579    286.22697   -617.48789    39062.633 
  234500    310.48092   -1542.4049    470.32209    317.06958   -413.60424    39062.633 
  234600    296.53912   -1540.9779    464.22194    250.01817    323.76855    39062.633 
  234700    293.64319   -1526.3649    501.18844    288.64068   -31.082664    39062.633 
  234800    299.86032   -1492.9003    506.32631    355.05981    57.485308    39062.633 
  234900    299.26607   -1496.7777    469.77192    311.96922    260.78452    39062.633 
  235000    299.26378   -1491.0085    497.42719    345.38345    -248.7474    39062.633 
  235100     308.8992   -1504.7092    463.26362    340.62995    76.492349    39062.633 
  235200    308.60062   -1478.7924    512.73805    414.68528    148.16201    39062.633 
  235300    300.55895   -1503.4509    480.69784    322.00652     37.36175    39062.633 
  235400    297.24854   -1507.3279    499.94858    322.56882   -97.153228    39062.633 
  235500    301.22611   -1504.8527    438.94812    281.84005   -424.13729    39062.633 
  235600    301.47119   -1504.4247    512.06717    356.48361    108.54678    39062.633 
  235700     295.2207   -1507.4485    474.55229    287.97901    59.851803    39062.633 
  235800    294.64289   -1479.6554    478.55064    317.18524     174.6363    39062.633 
  235900    303.88124   -1535.0793    463.49167    288.03653    5.7450897    39062.633 
  236000     300.0274   -1506.1941    483.76003    319.94728    248.17896    39062.633 
  236100    304.46399   -1481.7116    488.08745    368.60739    129.42975    39062.633 
  236200    300.79955   -1480.2986    491.00835    356.54583    46.474268    39062.633 
  236300    297.98911   -1480.6026    493.66576    346.32481    -69.74835    39062.633 
  236400    296.93459   -1523.1501    483.52118    288.91462   -275.37824    39062.633 
  236500    294.45033   -1501.5231    461.87471    277.78009   -612.77778    39062.633 
  236600    305.51076   -1478.0459    482.00393    370.87303   -370.10162    39062.633 
  236700    296.42512   -1495.0835    489.99911     321.1797   -574.55588    39062.633 
  236800    292.30581   -1543.7834    482.82517    246.87519   -340.56231    39062.633 
  236900    298.76918   -1551.9283     452.5449    237.36845   -354.04884    39062.633 
  237000    307.23042   -1524.2511    468.12481    318.48275   -591.39079    39062.633 
  237100    303.19007   -1563.5108    454.50585    247.52682   -402.62016    39062.633 
  237200     300.5985   -1548.6121    468.30387    264.62831    -176.1857    39062.633 
  237300    298.44866   -1559.9281    466.52628    241.91594    179.43504    39062.633 
  237400    304.00403   -1565.8918    467.88395     262.1657    613.43791    39062.633 
  237500    301.76869   -1535.5433    463.57109    278.20001    458.36095    39062.633 
  237600    299.60775   -1578.4611    459.83185    221.87447    611.76675    39062.633 
  237700    306.15612   -1556.5824    468.02785    281.24788     615.3978    39062.633 
  237800    297.64555   -1517.2506    482.68643    297.16031    575.09254    39062.633 
  237900    296.38664   -1578.8155    480.53455    227.81093   -142.96525    39062.633 
  238000    290.40241   -1564.6071    447.42941    182.13959    267.69757    39062.633 
  238100    304.09249   -1644.0518    435.79513    152.31272    589.65206    39062.633 
  238200    298.95331   -1581.2321    474.20858    230.55212    543.95785    39062.633 
  238300    307.46254    -1582.918    470.89704    263.62672    602.40564    39062.633 
  238400    299.26986   -1528.4981     483.5259    294.01981   -112.18298    39062.633 
  238500    289.54743    -1550.764    488.27425    233.00213   -116.91599    39062.633 
  238600    311.28043   -1526.8232    472.09137     337.9978   -47.683194    39062.633 
  238700    292.96795   -1582.8251    429.44288    157.41371   -313.05322    39062.633 
  238800    294.00888   -1571.1449    485.32541     229.6338   -809.59076    39062.633 
  238900    297.09876   -1542.8366    440.03076    226.47218   -166.22586    39062.633 
  239000    300.42049   -1500.6714    457.64245    301.11116   -132.92403    39062.633 
  239100    308.13796   -1529.1136    478.31827     327.8743   -342.08215    39062.633 
  239200    293.95177   -1548.3686    448.03265    214.86186    -616.2942    39062.633 
  239300     298.1327   -1545.0584    435.91531    224.76099   -199.86309    39062.633 
  239400      308.356   -1515.8811    458.44904    322.21309    519.78998    39062.633 
  239500      295.815   -1517.9032    494.26272    299.89376    211.85067    39062.633 
  239600    292.77562   -1530.9392    458.49297    237.48928    -78.24708    39062.633 
  239700    303.55286   -1560.4118    459.63415    257.37727   -328.91326    39062.633 
  239800    304.20073   -1524.7922    442.21426    278.47574    42.740262    39062.633 
  239900    296.62064    -1555.144    465.93072     237.9256   -237.86254    39062.633 
  240000    291.12681    -1587.307    449.24398    164.49537    147.99525    39062.633 
  240100    308.21044   -1584.0729    452.79109    247.71207   -346.26604    39062.633 
  240200    294.03341   -1552.6976    449.97697    212.84246    126.63722    39062.633 
  240300    294.68085   -1546.5831     461.0656    232.94233    12.793189    39062.633 
  240400    293.77786   -1553.1799    447.42079    208.66054    230.43215    39062.633 
  240500    300.02709   -1534.4452     458.9737    266.90846     44.70972    39062.633 
  240600    308.40204   -1561.3319    464.71381    283.23302    250.12655    39062.633 
  240700    303.20364   -1524.9197    451.72344    283.39626   -116.95005    39062.633 
  240800    294.82449   -1544.8231    474.62287    248.90223    415.42223    39062.633 
  240900    298.77529   -1532.8258    456.72401    260.67736    220.39706    39062.633 
  241000    308.11193   -1549.8632    450.30179    278.99169   -295.56684    39062.633 
  241100    308.50959   -1561.0705    444.86209    264.12393   -359.21002    39062.633 
  241200    300.86914    -1548.678    437.28041    234.74985   -27.262744    39062.633 
  241300    304.21869   -1523.1363    460.21663    298.21433   -34.564993    39062.633 
  241400    308.47896   -1525.6445    459.06279    313.61359    260.93109    39062.633 
  241500    291.57532   -1515.9771    467.52493     256.1129    98.715065    39062.633 
  241600    290.28726   -1495.7769    448.56529    251.59044   -56.557874    39062.633 
  241700    288.23381    -1474.583    498.53801    313.56951   -197.50754    39062.633 
  241800    294.35853   -1486.0497    473.81321    304.78128    16.969977    39062.633 
  241900    302.07466   -1504.1602    465.05962    312.44063    201.93748    39062.633 
  242000    293.75713   -1489.6621     475.4081    300.07289    167.14902    39062.633 
  242100     289.0715   -1492.7973    462.56526    263.13047    273.71993    39062.633 
  242200    301.11855   -1492.2778    472.31778    327.30335    68.737717    39062.633 
  242300     296.1916   -1473.2915    466.42101    318.34875   -384.96473    39062.633 
  242400      302.773   -1470.8116     492.6121    376.46619   -154.63885    39062.633 
  242500    306.95061   -1432.2202    455.05057    396.18753   -356.66877    39062.633 
  242600    296.10737   -1436.6555    470.49065    358.67756   -441.65204    39062.633 
  242700    298.51274   -1461.8213    479.67764    353.46083    90.542306    39062.633 
  242800    302.01933   -1490.6468    456.12592    316.77274   -27.543355    39062.633 
  242900      301.023   -1490.5649    456.25725    312.52822   -188.11354    39062.633 
  243000     302.1465   -1456.9718    466.53455    361.42532   -408.85759    39062.633 
  243100    301.69811   -1457.7326     459.9514     352.0752   -169.14396    39062.633 
  243200    311.66879   -1473.3638    476.66684    397.77029    140.74962    39062.633 
  243300    301.57235   -1480.7752     475.2774    343.79602     25.68927    39062.633 
  243400    318.71658   -1507.3684    467.50833    386.14033   -347.11013    39062.633 
  243500    293.32426   -1498.8987    457.11219     270.6037   -546.13813    39062.633 
  243600    304.74739   -1485.7074    487.96191    365.75403   -516.68835    39062.633 
  243700     308.0427   -1509.2646     473.4014    342.38012   -41.866095    39062.633 
  243800    293.40267   -1510.2495    478.29071    280.78225    421.08062    39062.633 
  243900    293.22922   -1500.6444    474.10773    285.42828   -565.41438    39062.633 
  244000    302.46841   -1477.2469    485.15784    361.21392   -149.70492    39062.633 
  244100    295.44124   -1531.8405    442.83034    232.85176   -647.93652    39062.633 
  244200    302.10306   -1508.5804    453.25586    296.34375   -133.67807    39062.633 
  244300    296.65028   -1513.2332     472.6097    286.64797   -221.70451    39062.633 
  244400    298.25944   -1490.6057    491.80247    335.66797   -3.0477702    39062.633 
  244500    298.75321   -1536.4873    477.04187    277.23498    176.14599    39062.633 
  244600    292.61864   -1525.9529    486.41899    269.69916    90.711395    39062.633 
  244700    293.09085   -1471.4106     460.5427    300.47796   -739.15781    39062.633 
  244800    301.22781   -1478.2681    491.91787    361.40199   -872.76541    39062.633 
  244900    297.31388   -1484.4849    461.02229    306.77789   -827.32731    39062.633 
  245000    299.41209   -1454.1906    494.86746    380.30522   -613.75082    39062.633 
  245100    286.00307   -1431.4874    486.33407    334.48039    -549.9199    39062.633 
  245200    306.04484   -1472.0845    480.13333    377.35338   -80.801702    39062.633 
  245300    298.52559   -1508.1419    460.92564    288.44571    65.123989    39062.633 
  245400    300.29504    -1460.632    488.58736    371.53418   -213.31925    39062.633 
  245500    297.39682   -1511.7854    479.01195    297.83821    68.294956    39062.633 
  245600    297.65845   -1504.4602    506.54177    333.86376    604.77061    39062.633 
  245700    300.63066   -1545.0627    475.55027    275.56799    744.55804    39062.633 
  245800    295.32521   -1522.5791    483.88438    282.64816    771.72688    39062.633 
  245900     296.2285   -1505.4604    476.51365    296.43761    221.39653    39062.633 
  246000    292.77674   -1541.2493    460.93759     229.6288   -28.567695    39062.633 
  246100    288.59472   -1524.4539    480.15982     246.9352   -396.29038    39062.633 
  246200    303.33853   -1511.1414    471.29034      317.345    136.13878    39062.633 
  246300    294.49395   -1495.9942    464.90115    286.53055    19.458435    39062.633 
  246400    308.94937   -1476.9354    478.90935    384.27397     177.0148    39062.633 
  246500    294.37593   -1469.5667    482.30427    329.83312   -310.30328    39062.633 
  246600    300.43907   -1518.4349    479.79271     305.5811   -215.10815    39062.633 
  246700    294.35111   -1518.8853    452.22226    250.32155   -404.53398    39062.633 
  246800    309.39437   -1484.2157    471.50882    371.58412    267.83891    39062.633 
  246900    295.32368   -1497.0703    477.79472    302.06043   -404.19316    39062.633 
  247000    298.19179   -1482.9814    482.83307    334.02018   -247.68505    39062.633 
  247100    292.67451   -1491.0645    482.92806    301.34664   -324.83672    39062.633 
  247200    294.91919   -1520.6657    487.78334     286.6439    -163.4764    39062.633 
  247300    308.25551   -1502.5722    483.67022    360.29359   -210.52678    39062.633 
  247400    294.48574   -1518.5107     471.5632    270.63945   -117.49526    39062.633 
  247500    309.79413    -1496.814     483.8589    373.12454    -539.4388    39062.633 
  247600    291.68945    -1504.476    477.48276    278.08242     -911.968    39062.633 
  247700    292.00533   -1535.6905    456.96307    227.76167    -267.6239    39062.633 
  247800    303.23936   -1521.7507    458.19738    293.19897   -406.34968    39062.633 
  247900    308.40093   -1536.0781     480.2074    323.97552   -774.81552    39062.633 
  248000    306.74288   -1535.8112    472.25017     308.8667   -8.6249239    39062.633 
  248100     291.9603   -1535.9591    474.15937    244.48782    -70.59751    39062.633 
  248200      312.767   -1501.0563    481.88595    380.21048   -422.22133    39062.633 
  248300     294.5935   -1451.3614    494.25168    360.95932   -574.66831    39062.633 
  248400    312.44419   -1518.9244    449.84268    328.85484   -915.51231    39062.633 
  248500    295.99555   -1489.8969    483.73954    318.18475   -474.99419    39062.633 
  248600    299.98564   -1503.3243    472.60717    311.47738   -373.95306    39062.633 
  248700    288.50129   -1509.7561    482.12901    263.18417   -495.76846    39062.633 
  248800    310.06253   -1525.4924    455.96303    317.75115   -834.98126    39062.633 
  248900     297.8792   -1551.6166     467.1084    248.26165   -653.65072    39062.633 
  249000    299.88679   -1493.1213    497.14239    345.77331   -619.50319    39062.633 
  249100    296.52049   -1461.1783    500.17733    365.68974   -476.74948    39062.633 
  249200    313.28489   -1508.3299    491.26961    384.63768   -46.028142    39062.633 
  249300    293.73102   -1485.8602     457.1623    285.51221    435.18004    39062.633 
  249400    304.21788   -1520.0983    472.47023    313.50236    99.181924    39062.633 
  249500    309.20472   -1434.7997    491.12916    439.77196    364.83949    39062.633 
  249600    285.94876   -1512.5825    484.31845    251.12673   -75.404726    39062.633 
  249700    306.12237   -1444.5368    496.81998    421.93462    145.72687    39062.633 
  249800    302.33397   -1504.2001    500.48802    348.98931   -61.318547    39062.633 
  249900    311.84958   -1494.9061    478.35703    378.72704    601.91914    39062.633 
  250000    309.57205   -1482.9565    477.62735    379.75686    384.84428    39062.633 
  250100    301.50865   -1502.2385    482.44055    329.21076   -104.82207    39062.633 
  250200    293.09847   -1493.2125    473.59748    291.76494    93.543919    39062.633 
  250300    292.98792   -1484.4618    507.58135     334.0049   -278.48792    39062.633 
  250400    294.67662   -1462.7358    501.15345    356.85854      128.419    39062.633 
  250500    304.35262   -1512.3073    508.13081    357.55677   -234.26164    39062.633 
  250600    304.52791   -1505.8839    454.05514    310.68882     -396.288    39062.633 
  250700    301.60369   -1461.8985    495.34008    382.87558   -448.98429    39062.633 
  250800    300.34923   -1474.4418     471.9777    341.35715   -454.01564    39062.633 
  250900     295.5734    -1501.877    457.48583    278.06209   -399.31798    39062.633 
  251000     303.5372   -1524.6291    461.43947    294.89528   -401.20145    39062.633 
  251100    295.93693   -1540.0075    479.36007    263.43239   -149.30499    39062.633 
  251200    302.98145   -1512.3481    461.47811    304.72841   -466.55995    39062.633 
  251300     304.6695   -1458.1138    490.51422    395.55144    408.55764    39062.633 
  251400    303.64694   -1462.1159    487.21068     383.6707    28.070133    39062.633 
  251500    292.04233    -1470.178    472.98702    309.46359   -280.56841    39062.633 
  251600    297.70182   -1473.4284    493.82083    352.36869    -287.9542    39062.633 
  251700    291.08211   -1506.5882    489.34759    285.11774   -738.93227    39062.633 
  251800    295.03845   -1501.9893    490.99831    309.06888    -899.8735    39062.633 
  251900    302.87257   -1464.6029    471.62106    362.12939   -789.61432    39062.633 
  252000    297.84157   -1473.7286     471.5963    330.46925   -1000.1543    39062.633 
  252100    299.61465   -1503.5304    465.90079    302.90508   -421.37413    39062.633 
  252200    293.15899   -1547.0246    501.16044    265.78654   -474.69085    39062.633 
  252300     287.2356   -1491.5769    481.46568    275.03709   -507.57057    39062.633 
  252400     292.5098   -1532.3049    455.01044    231.45162    -359.5575    39062.633 
  252500    309.80028   -1541.7612    463.26023    307.60616   -484.80269    39062.633 
  252600    308.82043   -1535.3985    464.67227     310.9969    -267.2365    39062.633 
  252700     300.7534   -1520.8173     477.5751    302.38742   -6.2182197    39062.633 
  252800    295.69379   -1528.1787    448.65975    243.47304   -162.71748    39062.633 
  252900     292.8398   -1490.8201    500.24157    319.64405   -175.92152    39062.633 
  253000    293.96035   -1506.0295    457.37085    266.57753   -599.34717    39062.633 
  253100    302.18731   -1487.1694    446.32672    311.20255   -303.63671    39062.633 
  253200    297.01511   -1519.2285    475.46236    285.13766    -244.8656    39062.633 
  253300    296.71559   -1508.0582     476.5212    296.02667   -224.98935    39062.633 
  253400    292.89899   -1521.1131    480.68328     270.0576   -65.473679    39062.633 
  253500    294.86611   -1470.2179    482.78343     331.8543   -314.02747    39062.633 
  253600    301.99163   -1483.0824    498.49446     366.5817    67.374645    39062.633 
  253700    295.11254   -1528.0816    483.82145    276.13116    309.62979    39062.633 
  253800    290.46421    -1548.908    470.33789    221.02366   -302.73769    39062.633 
  253900    309.67739   -1525.6408    462.21973    322.13627   -329.37137    39062.633 
  254000    299.46218   -1516.4943    466.49095    289.84915   -432.42057    39062.633 
  254100    305.72951   -1502.2385    480.64359    346.29884   -119.35394    39062.633 
  254200    288.96694   -1530.8664    477.53589    239.56419   -241.06046    39062.633 
  254300    302.70384   -1500.8809    487.97246    341.44787   -554.65358    39062.633 
  254400    306.89836   -1463.8873    475.77696    385.01301    -156.7623    39062.633 
  254500    300.85933    -1470.568     472.0338    347.56935   -186.49476    39062.633 
  254600     296.9757   -1492.3906    473.64227    309.97911   -25.817276    39062.633 
  254700    293.16576   -1518.2926    458.12088     251.5093    118.60328    39062.633 
  254800    302.38119   -1489.2364    473.66221    337.33853    79.251192    39062.633 
  254900    303.26539    -1477.324     499.4991     379.0439    129.43712    39062.633 
  255000    309.62591   -1518.3196    460.89388    327.90128     490.3155    39062.633 
  255100    301.18412   -1490.5268    483.85588    340.88587    545.10281    39062.633 
  255200    298.27027   -1476.6988    467.58986    325.41064    1053.6988    39062.633 
  255300    298.41973   -1519.3778    487.33235     303.1429     112.6042    39062.633 
  255400    295.87618   -1498.8696    486.67603    311.61438    408.59714    39062.633 
  255500    297.04362   -1503.0941    474.96075    300.89803    449.36445    39062.633 
  255600    300.68344   -1461.9273    485.38007    368.76943    127.30966    39062.633 
  255700    295.81485   -1465.8028    473.49664    331.22746   -82.872414    39062.633 
  255800    307.02122   -1464.0657    492.96588    402.57324    106.64498    39062.633 
  255900    296.57004   -1476.1405    497.63324    348.40517   -291.35326    39062.633 
  256000    299.52113   -1480.9456    469.14729    328.31792   -25.366629    39062.633 
  256100    303.05898    -1470.097    500.95349    386.80169   -334.08321    39062.633 
  256200    294.94276   -1485.6874    472.98295    306.92721     473.6892    39062.633 
  256300    297.76279   -1505.1004    495.18873    322.33744    171.96406    39062.633 
  256400    307.21445   -1474.1927    481.24259    381.58752    461.77787    39062.633 
  256500    301.48288   -1473.8913     454.0062    329.00836    44.723462    39062.633 
  256600    308.27975   -1473.3099    478.70075    384.69481    81.309387    39062.633 
  256700    309.42168    -1457.112    473.86906    401.17028   -65.167467    39062.633 
  256800      298.495   -1480.1019    472.06613    327.48933    97.872063    39062.633 
  256900    293.54548   -1504.7754    467.16522    275.76976   -495.29435    39062.633 
  257000    305.63604   -1517.3436    471.01649    321.14842   -242.29075    39062.633 
  257100    301.25462   -1496.3188    490.16783    341.72125    122.74214    39062.633 
  257200    294.22847   -1501.3643    459.89742    274.96893   -555.14715    39062.633 
  257300    295.56137   -1479.0086    473.31161    316.70242   -426.56077    39062.633 
  257400    289.94216   -1525.5742    466.55958    238.24337   -752.31795    39062.633 
  257500    290.44657   -1519.8854    449.26976     228.8992     -335.456    39062.633 
  257600    295.23708   -1478.7137    499.77605    342.01085    88.836636    39062.633 
  257700    292.97358    -1475.224    490.06046    325.65766   -199.98659    39062.633 
  257800    309.70023   -1504.9633    482.76984    363.46603   -331.97825    39062.633 
  257900    302.72081   -1470.4209    488.65815    372.66947   -322.96429    39062.633 
  258000    299.15971   -1426.0341    492.55281    405.01784   -3.3099157    39062.633 
  258100    296.89782   -1490.4963    461.17396    299.05673    280.02637    39062.633 
  258200    297.56402   -1501.4953    488.76705    318.63142    80.515824    39062.633 
  258300     298.8006   -1450.2859    513.43562    400.04217    780.45395    39062.633 
  258400    298.72662   -1478.5929    467.94176    325.91028    373.75417    39062.633 
  258500    310.38014   -1494.4816    467.48257     361.7025     94.09407    39062.633 
  258600     299.6886    -1505.714    525.11469    360.26617    348.35518    39062.633 
  258700    296.35505   -1536.1505    465.56714    255.36715    44.394643    39062.633 
  258800    302.90117   -1501.3169    485.58253    339.50483    34.616751    39062.633 
  258900    303.31144    -1440.866    497.48636    413.69511     -78.5183    39062.633 
  259000    290.48197   -1484.6593    493.90178     308.9157   -192.32151    39062.633 
  259100    302.93551    -1480.326    498.01286    373.07963    302.14725    39062.633 
  259200    301.43431    -1533.082    459.09051    274.68463   -66.366317    39062.633 
  259300     290.1981   -1483.9915    457.52739     271.9391   -598.00455    39062.633 
  259400    306.11179   -1509.2619    502.39211    362.73427    13.008712    39062.633 
  259500    295.87742    -1497.042    454.32216    281.09368   -372.48854    39062.633 
  259600    301.99198   -1506.2448    477.13695     322.0634   -276.73317    39062.633 
  259700    309.38061   -1473.4311    470.21401    381.01239   -211.12961    39062.633 
  259800    292.81053   -1494.5492    477.25204    292.79453    337.15237    39062.633 
  259900    293.09587   -1511.0842     509.6969    309.98102    564.32148    39062.633 
  260000    294.98636   -1507.8286    485.90054    297.89868    999.16659    39062.633 
  260100    291.91217   -1464.6415    481.80946    323.24014    615.85914    39062.633 
  260200    295.23832   -1445.1464    487.72444    363.53216    618.39515    39062.633 
  260300    294.16885   -1432.7378    496.96673    380.39796    620.49191    39062.633 
  260400    306.28664   -1477.2657    485.27304    378.39376    286.93195    39062.633 
  260500    296.38025   -1484.6348    488.51149       329.94    244.52596    39062.633 
  260600    305.25216   -1511.5277    487.51907    341.74937    173.31523    39062.633 
  260700    299.68621   -1518.6309    494.12728    316.35114     201.7936    39062.633 
  260800    285.33983    -1479.224    466.01656    263.45889   -554.61722    39062.633 
  260900    291.92717   -1529.5475    481.70538     258.2972   -520.22927    39062.633 
  261000    299.71506    -1534.576    485.08303    291.49093    35.971365    39062.633 
  261100     297.0583   -1552.1678    494.26556    271.19482    259.58959    39062.633 
  261200    298.22229   -1568.3445    454.38134    220.34176    2.9200653    39062.633 
  261300    296.40341   -1501.2842    497.33396    322.21664    134.97467    39062.633 
  261400    305.39302   -1534.5715    483.14631      314.963   -68.130344    39062.633 
  261500    293.72266    -1516.759    488.34109    285.75477   -427.55328    39062.633 
  261600    309.69452    -1469.449    471.69735    387.88227   -237.80868    39062.633 
  261700    302.09709   -1485.5278    450.92844    317.04221   -198.41659    39062.633 
  261800     300.8148   -1493.8291    479.29549     331.3707   -135.37689    39062.633 
  261900     305.3356   -1471.7321    502.99363    397.39278   -123.41424    39062.633 
  262000    292.82146   -1485.6347    492.29912    316.80497    131.46476    39062.633 
  262100    292.22967   -1515.9915    488.13661    279.63797   -104.06469    39062.633 
  262200    297.79177   -1524.8229    501.27254     308.8283    244.21087    39062.633 
  262300    306.95604   -1520.6395    467.02087    319.76283    256.25376    39062.633 
  262400    300.74816   -1474.5264    460.70595    331.78572   -315.13653    39062.633 
  262500    307.83529   -1470.1859    519.27639    426.40586   -383.10701    39062.633 
  262600    293.06069   -1454.1974    464.59174    321.60525    -5.179347    39062.633 
  262700    303.88465   -1460.4998    514.11821    413.25786   -258.20902    39062.633 
  262800    290.28908    -1441.066     475.7628    333.50696    1.4415823    39062.633 
  262900    307.58521   -1459.5531    469.61138    386.25475   -240.07232    39062.633 
  263000    290.57055   -1482.8759    476.22707    293.42073   -156.64346    39062.633 
  263100    310.35085    -1513.789    464.28782    339.06935   -58.148395    39062.633 
  263200    301.28382   -1514.7514    470.59047    303.84194    81.800741    39062.633 
  263300    298.68255   -1533.1371    482.18406    285.41126    2.7080397    39062.633 
  263400    304.98067   -1537.6063    466.63557    293.57254    745.66283    39062.633 
  263500    311.41024   -1513.6228    489.66068    369.34825    813.72757    39062.633 
  263600    303.26171     -1507.17     498.5239    348.20617    439.15698    39062.633 
  263700    295.77236   -1452.8535    489.04082    359.53077    309.73228    39062.633 
  263800    292.92182   -1516.1558    494.71338    289.14715    155.13294    39062.633 
  263900     291.6727   -1519.0727    490.85931    276.78739   -493.36396    39062.633 
  264000     295.8022   -1505.7615    473.56827    291.28374    97.720041    39062.633 
  264100    296.30881   -1476.5628    504.76069    353.94152    304.22247    39062.633 
  264200    299.51778   -1524.5247    484.67775    300.25432    37.997218    39062.633 
  264300    307.61709   -1539.1847    461.67684     298.8313     499.8889    39062.633 
  264400     301.2102   -1530.7325    471.02183    287.96278     272.2482    39062.633 
  264500    286.62704   -1536.6692    462.72428    208.48057    310.57272    39062.633 
  264600    302.04306   -1511.6834    470.33852    310.05493    316.12894    39062.633 
  264700    293.78511   -1504.6965    475.59523    285.35087    656.30707    39062.633 
  264800    302.78798   -1511.6909    468.47567    311.51748    409.68053    39062.633 
  264900    301.18886   -1454.3654     486.7415    379.95403    244.04356    39062.633 
  265000    287.27267   -1441.5442    470.16664    313.93664   -148.87402    39062.633 
  265100    303.42757   -1506.0292    483.40863    334.97378    152.19507    39062.633 
  265200    294.97945   -1469.3034    498.22011    348.71258   -115.46185    39062.633 
  265300    304.33024   -1510.7687    482.83132     333.6957    264.99723    39062.633 
  265400    295.28492   -1453.0497    478.37606    346.48896   -293.26647    39062.633 
  265500    303.73013   -1436.8789    497.28671    419.35587   -1032.4572    39062.633 
  265600    310.15405   -1484.6236    464.63182    367.69822   -363.30528    39062.633 
  265700    298.92767   -1508.2034    470.63912    299.89669   -928.75706    39062.633 
  265800    308.18433   -1517.9604    465.78954    326.70619   -428.20939    39062.633 
  265900    302.33938   -1477.8445    489.94178    364.82294    -695.9357    39062.633 
  266000    292.11531   -1487.5735    477.78105    297.18862   -654.96556    39062.633 
  266100    288.38619   -1532.8274     475.8685    233.33738   -764.02461    39062.633 
  266200    295.41513   -1516.5872    489.56833    294.72627    -920.9256    39062.633 
  266300    291.35881   -1493.9495    483.84814    293.49505   -436.52972    39062.633 
  266400    303.14384   -1475.7455    472.21125    352.79064   -407.76537    39062.633 
  266500     298.5995   -1517.7026    475.47214    293.76215    172.44924    39062.633 
  266600    300.54976   -1496.8543    481.68531    329.54949    53.239386    39062.633 
  266700    293.31562   -1519.9912    486.45243    278.81273   -181.55378    39062.633 
  266800    295.85852   -1471.7747    486.31964    338.27392    76.019377    39062.633 
  266900    302.73963   -1474.9309    493.59228    373.17781    153.52938    39062.633 
  267000    310.95888    -1447.385    473.85288    417.75878    469.22514    39062.633 
  267100      299.002   -1514.9074    492.78945    315.67559   -139.36715    39062.633 
  267200    303.56555   -1517.2905    441.10361    282.02486    98.879162    39062.633 
  267300    294.02171   -1465.5814     471.6515    321.58083   -25.555056    39062.633 
  267400     306.7488   -1512.3525    456.61103    316.71273    101.23254    39062.633 
  267500    296.81923   -1525.7265    470.05867    272.35954    197.44016    39062.633 
  267600    307.08651   -1522.0822    490.56345    342.44646    127.88262    39062.633 
  267700    301.25046   -1545.7718    475.08875    277.17045    -162.5702    39062.633 
  267800    295.16514   -1514.6272    465.94362    271.94306   -12.862434    39062.633 
  267900    296.94155    -1508.223    475.57128    295.92295    780.54056    39062.633 
  268000    303.68531   -1478.2782    499.18959    379.65894    776.43023    39062.633 
  268100    306.20804   -1513.7343    494.07488    350.37531    869.09114    39062.633 
  268200    313.96411   -1477.9563    481.43488     408.2155    387.75691    39062.633 
  268300    292.29536   -1478.2081    475.95543    305.53404   -617.42515    39062.633 
  268400    300.74816   -1517.6263    447.64374    275.62366   -881.81066    39062.633 
  268500    304.97534   -1487.1041     497.5874    375.00273     321.0382    39062.633 
  268600    298.46952   -1492.1545     462.7203    305.97692   -401.00943    39062.633 
  268700    310.76631   -1477.7335    494.70122    407.39712    346.52015    39062.633 
  268800    292.75025   -1463.0016    478.96677    325.78717   -73.887184    39062.633 
  268900    293.38255   -1452.5044    512.82801    372.97462    212.84727    39062.633 
  269000    299.49519   -1475.6501    480.12873    344.47881    91.995662    39062.633 
  269100     298.8165   -1500.7357    487.39361    323.62149     288.6665    39062.633 
  269200    303.98472   -1528.9514    447.67414    278.80992    63.538711    39062.633 
  269300    297.71947   -1497.2303    464.27242    299.09736   -84.826848    39062.633 
  269400    296.42344   -1484.2968    488.42462    330.38435   -289.82617    39062.633 
  269500    302.99782   -1476.3624    467.71419    347.02336   -334.17611    39062.633 
  269600    296.44774   -1452.8142    478.32763    351.87867   -196.15724    39062.633 
  269700    299.44169   -1470.8731    485.00835    353.89602   -40.588995    39062.633 
  269800    300.71915   -1514.2778    465.44085    296.63943    608.27882    39062.633 
  269900    300.07927   -1527.1892    492.30752    307.73175    149.68829    39062.633 
  270000     307.3816   -1502.4376    474.94486     347.7928    262.23545    39062.633 
  270100    303.48172   -1539.9171    481.78058     299.7001     408.0565    39062.633 
  270200    302.79484    -1511.313    462.01425    305.46464    421.68026    39062.633 
  270300    302.60206   -1496.3919    455.61509    313.12406    178.89028    39062.633 
  270400    291.02401   -1509.7759    483.95288    276.27542    417.38178    39062.633 
  270500    295.95272   -1536.4618    447.15786    234.84653    546.41531    39062.633 
  270600    302.33925   -1496.3888    469.21713    325.55338    191.14615    39062.633 
  270700    307.20886   -1532.3343    481.83512     324.0134    322.06222    39062.633 
  270800    300.50701   -1508.4459    477.07633    313.15762     513.9232    39062.633 
  270900     304.7026   -1487.2261     459.8827    335.95574     419.4574    39062.633 
  271000    298.39965   -1466.8277    473.06038    341.33121    120.51118    39062.633 
  271100    303.49442   -1499.4498    472.51371    330.95738    154.33816    39062.633 
  271200    294.36523   -1428.3772    485.47644    374.14698   -244.44779    39062.633 
  271300    294.95045   -1454.2746    482.41886    347.81033    211.30945    39062.633 
  271400    296.86659   -1475.3771    482.42401    335.28621    647.90376    39062.633 
  271500    300.45394   -1468.7327    452.47567    328.03274    386.17039    39062.633 
  271600    304.32457   -1475.5618     483.2483    369.29423    487.89466    39062.633 
  271700    290.01097   -1457.2822    484.96726      325.251     429.2062    39062.633 
  271800    310.36916   -1481.3144    447.67364    355.01166    346.99174    39062.633 
  271900    303.59414   -1504.6263    495.40966    349.12304    241.63281    39062.633 
  272000    301.51023   -1469.1634    472.83744    352.68992   -182.12007    39062.633 
  272100    296.07815   -1488.3647    468.31392    304.66092    114.00545    39062.633 
  272200    291.02244   -1478.2499    487.67348    311.51504   -221.16401    39062.633 
  272300     287.2697   -1485.2913    462.22223    262.23179    178.09225    39062.633 
  272400    305.73377   -1521.3547    487.75911    334.31723    578.70889    39062.633 
  272500    293.09087   -1524.1405    475.66477    262.87019    590.06113    39062.633 
  272600    303.14174   -1497.2405    503.40199    362.47697    634.21829    39062.633 
  272700    291.12073   -1527.0028    452.10859    227.63692     430.4936    39062.633 
  272800    298.78266   -1483.2132    497.38187    350.98084    314.43213    39062.633 
  272900    306.61079   -1487.5947    462.14853    346.39053    286.20499    39062.633 
  273000    289.05306   -1490.0474    484.24334    287.47599    716.72062    39062.633 
  273100    301.40927   -1504.7141    479.84648    323.69647     119.2681    39062.633 
  273200    292.26605   -1516.0508    479.20594    270.81068    460.94011    39062.633 
  273300    304.14185   -1531.7555    457.20168    286.23639   -538.84042    39062.633 
  273400    295.19368   -1490.1296    501.93364     332.5584   -54.359328    39062.633 
  273500    294.67169   -1502.8201    481.76468    297.36339   -84.974624    39062.633 
  273600    302.41334   -1482.5212    465.35066    335.88597   -72.267696    39062.633 
  273700    290.62781   -1497.5203    475.65591    278.46135    300.88405    39062.633 
  273800    296.67584   -1482.1705    505.12909    350.34442    398.01368    39062.633 
  273900    303.91061   -1491.4182    471.24387    339.58129     468.1771    39062.633 
  274000    297.06508   -1522.8593     454.6087    260.87678    871.71744    39062.633 
  274100    294.38039   -1474.6168    473.62297    316.12167    611.50417    39062.633 
  274200    301.49176   -1485.4719    488.97627    352.43754    266.39736    39062.633 
  274300    303.96235   -1541.8189    438.06519    256.23339     281.8908    39062.633 
  274400    296.72898    -1517.347     483.7334    294.00996    622.64377    39062.633 
  274500    289.43672   -1489.0404    457.66417    263.62037   -163.71894    39062.633 
  274600     310.1218   -1475.7236    471.76395    383.58596    83.534613    39062.633 
  274700    301.56914   -1475.4069    477.06845    350.94097   -94.348693    39062.633 
  274800    306.45946   -1466.4517    470.61216    375.32014   -615.11625    39062.633 
  274900    294.86403   -1474.3453    483.02442    327.95858   -665.02153    39062.633 
  275000    301.76837   -1445.9445    466.16888    370.39516   -842.46133    39062.633 
  275100    294.78557   -1496.1431    460.06247    282.84773     -1167.92    39062.633 
  275200    296.80977   -1501.6936    503.41434    329.70576    -664.7912    39062.633 
  275300    293.07081   -1509.2129    513.01645    315.05979   -218.79157    39062.633 
  275400    307.52305   -1434.2868    482.07829     423.7099    -603.2115    39062.633 
  275500    296.45173   -1482.4843    476.25273    320.15151   -203.05052    39062.633 
  275600    308.99067   -1525.9651    473.08097    329.60066   -34.723311    39062.633 
  275700    305.45253   -1486.2355    467.69685    348.11577    100.21308    39062.633 
  275800    291.13703   -1468.2288    463.42761    297.80288    373.32182    39062.633 
  275900    307.06965   -1477.5301     491.3093    387.66901   -137.58381    39062.633 
  276000    301.67377   -1451.4803    477.75289    376.02012    406.18646    39062.633 
  276100    291.92252    -1464.138    497.09105    339.07158    238.96706    39062.633 
  276200    307.65454   -1483.8379    483.39178    376.06055    455.30575    39062.633 
  276300    306.19455   -1497.5167    486.17124    358.62896    747.72723    39062.633 
  276400    309.32047    -1464.483    488.18447    407.66187    207.28976    39062.633 
  276500    305.71343   -1443.5021    491.35356    415.67323   -396.85967    39062.633 
  276600    300.91204   -1447.6703    461.87292      360.542    -356.8344    39062.633 
  276700    309.64602    -1482.908    500.18308      402.692   -200.74545    39062.633 
  276800    295.80918   -1508.7398    466.79586    281.56424   -422.96995    39062.633 
  276900    314.61531   -1483.4554    457.57865     381.7738   -148.40191    39062.633 
  277000    303.99593   -1510.9217    491.09968    340.31528    522.71048    39062.633 
  277100    283.73061   -1481.1683    490.85231    279.15037     128.5237    39062.633 
  277200    295.89085   -1486.9452    472.92605    309.85445   -231.00977    39062.633 
  277300    312.25097   -1493.6301    459.87775    363.31964   -54.922502    39062.633 
  277400    303.39942   -1493.9197    488.71302    352.26178   -334.57473    39062.633 
  277500    302.73936   -1497.9257    475.83721    332.42673    271.73937    39062.633 
  277600    296.13415   -1496.4265    491.08309    319.61878    329.66375    39062.633 
  277700    307.25674   -1477.3953    511.63141    408.96291    570.45864    39062.633 
  277800    307.38565   -1486.0432    453.91301    343.17339    447.45307    39062.633 
  277900    289.13223   -1488.0547     488.0199    293.59944    396.63496    39062.633 
  278000    296.81844   -1469.6954    478.22716    336.55556    244.22063    39062.633 
  278100    293.56873   -1481.4009    473.76323     305.8463    600.14862    39062.633 
  278200    294.68673   -1485.5962    461.46894    294.35893    15.242698    39062.633 
  278300    298.56867   -1484.6812    475.81398    326.98753    73.396939    39062.633 
  278400    296.27405   -1525.1125    490.07149    290.54707   -42.159194    39062.633 
  278500    291.94445   -1545.1294    446.20736    207.29465    29.919932    39062.633 
  278600    304.23707   -1502.5526    486.64766    345.31131    58.557794    39062.633 
  278700    292.14544   -1516.0571    455.34277     246.4016    7.8209137    39062.633 
  278800    311.78829   -1491.3481    459.73569     363.3895    274.63145    39062.633 
  278900    301.31012    -1518.379    481.37322    311.11472    147.59662    39062.633 
  279000    301.36621   -1497.1857    471.44409    322.62984     302.0463    39062.633 
  279100     301.2793   -1523.0653    465.98262    290.89993    343.74872    39062.633 
  279200     298.2758    -1532.111    474.14248    276.57578   -263.55979    39062.633 
  279300    297.91273   -1462.4603    521.37096    391.83054    366.06883    39062.633 
  279400    304.31725   -1463.3509    463.63545    361.85952    20.833934    39062.633 
  279500    289.01365   -1467.6628    479.03712    304.47799   -224.96814    39062.633 
  279600    303.80767   -1508.0207    484.07482    335.34914   -571.79565    39062.633 
  279700    301.21813   -1463.8732    465.05758    348.89335    390.77067    39062.633 
  279800    306.15068   -1510.2854    465.78079    325.27351    427.33013    39062.633 
  279900    295.86871   -1531.0092    464.12098    256.88634    57.811842    39062.633 
  280000    292.46198   -1516.4542    456.14605    248.22406   -213.64605    39062.633 
  280100    309.91317   -1520.0365     458.0707    324.64645    56.310933    39062.633 
  280200    302.88674   -1552.3407    490.66843    293.50237       456.17    39062.633 
  280300    308.80057   -1504.0571    483.16321    360.74034     590.4803    39062.633 
  280400     299.1084   -1532.1349     485.6826    291.81731    42.881609    39062.633 
  280500     305.7225   -1573.8431    442.28746    236.30667    6.7121245    39062.633 
  280600    308.34763    -1589.266    456.98542    247.32715    38.552692    39062.633 
  280700    312.42522   -1590.3505    455.98795    263.48908   -357.51545    39062.633 
  280800    301.86402   -1546.2287    482.83622    287.20631   -369.28954    39062.633 
  280900    296.90369   -1522.4987    466.86428    272.77087    296.92724    39062.633 
  281000    304.29045   -1495.7017    475.54047     341.2938     238.1134    39062.633 
  281100    304.29654   -1496.3299    476.50144    341.65389    383.54124    39062.633 
  281200    290.66412   -1531.6377    475.05359    243.90404   -373.15249    39062.633 
  281300    298.18984   -1551.7876    483.24392    265.61608   -173.78247    39062.633 
  281400    302.93795   -1574.9902    453.69743    234.11097   -123.37174    39062.633 
  281500    298.87592   -1534.8935    467.54903    269.88497    -254.6944    39062.633 
  281600    298.54477   -1541.8612    461.01297    254.89952    18.844914    39062.633 
  281700    289.47439   -1526.5787    458.76852      227.355    -497.7593    39062.633 
  281800     303.8742   -1531.8661     478.0888    305.81541    307.37127    39062.633 
  281900    286.43478    -1527.154    501.10173    255.51307   -250.91441    39062.633 
  282000    299.46669    -1539.122     472.0303    272.78096   -608.71598    39062.633 
  282100    298.61779   -1538.3164    443.69322    241.45131   -856.45975    39062.633 
  282200    290.37703   -1543.0035    481.80222    238.00241   -892.45727    39062.633 
  282300    311.64853    -1553.448    450.41482    291.34343   -457.31017    39062.633 
  282400    301.56978   -1569.0348    439.62517    219.87266   -427.23299    39062.633 
  282500    291.81051   -1578.4807    482.10153    209.23822   -424.22846    39062.633 
  282600    306.28043   -1591.9023    432.75866    211.21499    211.44525    39062.633 
  282700    300.22965   -1542.0066    435.59294    236.87259   -236.30509    39062.633 
  282800    296.10594   -1547.3388    471.99291    249.49006    65.735144    39062.633 
  282900    308.23693    -1550.192    477.72675    306.64713    685.90401    39062.633 
  283000    291.71463   -1571.0399    463.22216    197.37068     514.5396    39062.633 
  283100    308.19469   -1513.4333    480.24081    345.73095    331.90033    39062.633 
  283200    299.86695   -1501.2028    485.55402    326.01466   -320.71197    39062.633 
  283300    286.32476   -1573.3732    451.67224    159.37215   -141.41348    39062.633 
  283400    298.10587   -1546.0196    491.09311    278.85756    213.61531    39062.633 
  283500    292.37886   -1552.9445    464.13171     219.3475    -490.4457    39062.633 
  283600    303.93118   -1527.9384    459.64521    291.55447   -496.81124    39062.633 
  283700    299.71706   -1517.4713    484.39679    307.91836   -379.48906    39062.633 
  283800    294.87809   -1510.8389    466.38937    274.89276   -334.18275    39062.633 
  283900    296.53425   -1497.3261    473.40494     302.8312   -400.75084    39062.633 
  284000    299.16272   -1486.1892    461.92171    314.24511   -106.89718    39062.633 
  284100    301.50959   -1489.2364    455.72139    315.49802   -25.306777    39062.633 
  284200    309.05452   -1507.1978    474.94878    350.52139    156.16737    39062.633 
  284300    306.01575   -1508.8307    507.72993    368.07368    358.18314    39062.633 
  284400     291.0453   -1519.5582    480.07163    262.70709   -152.75863    39062.633 
  284500    302.56123   -1502.5881    463.36495    314.49506    147.87833    39062.633 
  284600    295.19408   -1455.7399    499.17829    364.19458    95.490552    39062.633 
  284700    295.02053   -1503.0298     517.9948    334.94458    739.01029    39062.633 
  284800    296.57971   -1482.9676    485.65586    329.64402    293.16127    39062.633 
  284900    306.43862   -1506.0489    513.93438    378.95194    644.23327    39062.633 
  285000    314.21511   -1487.7967    478.57389    396.63709   -122.23241    39062.633 
  285100    292.30756   -1416.8269    477.83067    368.84508   -259.13335    39062.633 
  285200    303.06173   -1458.3902    500.16122    397.72857   -136.55502    39062.633 
  285300    302.50537   -1495.7883     473.4618    331.14176    438.71612    39062.633 
  285400    300.81782   -1489.8268    500.63282    356.72387    489.65152    39062.633 
  285500    301.51829   -1465.9512    460.98505    344.08578    25.848382    39062.633 
  285600    298.73242   -1481.9213    488.73263    343.39867   -370.61607    39062.633 
  285700     317.3304   -1520.0871    497.84448    397.55571    121.35957    39062.633 
  285800    310.88353   -1484.6872    489.14543    395.41201    249.80943    39062.633 
  285900    296.46352   -1499.4728    476.33783     303.3009    213.75444    39062.633 
  286000    304.93139     -1543.64    512.55967    333.24246    308.96192    39062.633 
  286100    301.25915   -1529.9665    470.73366    288.65957    221.10169    39062.633 
  286200    307.21141   -1504.6695    466.78991    336.64441   -92.428528    39062.633 
  286300    305.44678   -1496.6529    487.62291    357.59871     119.0123    39062.633 
  286400    293.29489   -1487.9843    494.48064    318.75515     503.8564    39062.633 
  286500    299.08829   -1536.4127    501.40022    303.16713    814.63315    39062.633 
  286600     295.5275   -1554.8679    484.60585    251.98585    940.08745    39062.633 
  286700    297.43022   -1504.0178    515.89809    342.64134    1036.4611    39062.633 
  286800    284.45705   -1470.0967    475.40864    278.02855    775.03771    39062.633 
  286900    301.95025   -1510.1015    512.34505    353.22818     706.3461    39062.633 
  287000    298.47308   -1522.5188    491.23393    304.14213    277.09246    39062.633 
  287100    289.69061   -1519.1571    508.46862    285.44406    134.60439    39062.633 
  287200     296.0768   -1485.9555    479.58909    318.33916    152.63569    39062.633 
  287300    303.51037   -1507.5244    492.07926    342.51972    372.25764    39062.633 
  287400    299.47725   -1500.2864    488.95473    328.58821   -363.89972    39062.633 
  287500    292.94532     -1493.49    457.60937     274.8141   -190.62526    39062.633 
  287600     307.5697   -1496.2336     498.7138    378.60731   -81.279962    39062.633 
  287700    308.72717   -1532.4742    464.26466    313.09632    478.00895    39062.633 
  287800    304.36581   -1571.7412    445.28138    235.33245      46.3087    39062.633 
  287900    310.98966   -1563.5449    476.56311    304.44688   -39.625145    39062.633 
  288000    295.00981   -1591.8688    468.43498    196.49786   -18.605614    39062.633 
  288100    299.00363   -1565.7771    467.49421    239.51792    279.96718    39062.633 
  288200    291.94642   -1553.3654    497.33259    250.19266    515.04177    39062.633 
  288300    293.31101   -1545.0746     508.1326    275.38894    42.691947    39062.633 
  288400    294.72674   -1530.1938    461.03028    249.50161   -57.534601    39062.633 
  288500    295.50781   -1515.7307    484.39154    290.82068    78.944199    39062.633 
  288600    301.54114   -1482.8035    487.95921    354.30978   -118.55064    39062.633 
  288700    301.28886   -1498.2396    476.38167    326.16743   -183.50321    39062.633 
  288800    298.37786   -1448.1633    490.98925    377.82695    452.03212    39062.633 
  288900    297.39867   -1482.1149    483.12536    331.63034    678.82021    39062.633 
  289000    291.40751   -1518.4484    490.26951    275.63537    844.58065    39062.633 
  289100    309.63861    -1534.592    487.77902    338.57084    618.43651    39062.633 
  289200    290.92601   -1528.7373    480.59034    253.51294      512.007    39062.633 
  289300    297.52295   -1575.7389    478.49802    233.93502    176.15281    39062.633 
  289400    304.21408   -1575.0252    439.49911    225.58726    828.20924    39062.633 
  289500    303.97059    -1517.369    467.06643    309.72138   -254.41788    39062.633 
  289600    297.72946   -1503.4667    478.71902    307.35223   -246.48086    39062.633 
  289700    304.39431   -1533.9358    460.23394     288.2179   -207.24923    39062.633 
  289800    288.26255   -1535.4044    480.27824    234.61701   -120.03505    39062.633 
  289900    301.43775   -1537.4772    460.50418    271.71849    158.67564    39062.633 
  290000    307.97678   -1527.4708    477.22125    327.69892    288.90618    39062.633 
  290100    298.84146   -1515.5706    479.77516    301.27975    117.83196    39062.633 
  290200    305.60776   -1567.6462    476.47525      276.178     545.6029    39062.633 
  290300     296.4616   -1525.8117    492.96275    293.57833    711.15231    39062.633 
  290400    301.77193   -1531.6102    442.85928    261.43579    410.37081    39062.633 
  290500    309.86483   -1529.9446    460.99238    317.44372    208.77538    39062.633 
  290600    294.05404   -1500.2329    472.15648    287.57894    235.61351    39062.633 
  290700    301.98175   -1511.3975    467.21697    306.94499    93.889102    39062.633 
  290800    306.68563   -1520.0627    486.78661    338.89552    155.04107    39062.633 
  290900    307.24846   -1478.8969     474.5755    370.36834   -25.669177    39062.633 
  291000    290.15192    -1563.817    465.20225     199.5818   -272.91764    39062.633 
  291100    293.89622    -1507.339    462.72113    270.33141   -100.66727    39062.633 
  291200    298.91797   -1530.1868    462.37055    269.60126    -4.105794    39062.633 
  291300    299.81446   -1491.2579    471.75048    321.92121    178.43979    39062.633 
  291400    288.28655   -1522.1148    452.52321    220.25888   -277.06574    39062.633 
  291500    305.42002   -1522.0046    487.01297    331.51731   -165.35052    39062.633 
  291600    305.00305   -1463.7418     504.1265    405.02814     630.7979    39062.633 
  291700    300.10222   -1500.9226    470.68092    312.47448    58.259611    39062.633 
  291800    301.75501   -1521.4074    486.34092    315.04449    418.68815    39062.633 
  291900    295.65105   -1492.7763    483.48931    313.51377     154.9203    39062.633 
  292000    296.16505   -1492.2267    474.87515    307.74888      229.854    39062.633 
  292100    294.05321   -1482.9974    466.62262    299.27683    244.91565    39062.633 
  292200    302.20594   -1451.5952    474.95228    375.48564    102.43427    39062.633 
  292300    308.27865   -1475.3305    486.19213    390.16067    145.89381    39062.633 
  292400    304.38079   -1447.7164    475.60221    389.74507    95.746478    39062.633 
  292500    298.66915   -1466.0587    472.81446    343.06006    -368.7824    39062.633 
  292600    307.65697   -1434.8417    492.22721    433.90308   -560.49942    39062.633 
  292700    294.40099   -1447.5672    466.58276    336.22325   -427.44737    39062.633 
  292800    292.11684   -1425.2953    493.49306    375.18571    -873.5991    39062.633 
  292900     299.8751   -1394.9783    504.36572    451.08734    -758.8528    39062.633 
  293000    293.46873   -1429.8442    473.93741    357.12981    33.009989    39062.633 
  293100    296.78165   -1461.2803    484.42027    350.99927   -100.62952    39062.633 
  293200    306.60636    -1474.751    461.48248    358.54838    456.72453    39062.633 
  293300    300.63519   -1473.8002    461.53515    332.83568    443.96465    39062.633 
  293400    296.81712   -1486.4431    458.75371    300.32859    128.92028    39062.633 
  293500    298.35584    -1465.626    485.74887     355.0253  -0.11198646    39062.633 
  293600    309.98615   -1453.1028    468.45128    402.28722    266.38032    39062.633 
  293700    304.42384    -1471.097    483.24843    374.20337    391.88325    39062.633 
  293800    293.29182   -1447.3307    476.15498    341.06933    295.50923    39062.633 
  293900    297.01191   -1474.3589    476.51272    331.04326    868.08951    39062.633 
  294000    291.92638   -1435.8153    492.54932    362.86988      551.231    39062.633 
  294100    291.72522   -1516.4597    475.70733    264.48337    410.45553    39062.633 
  294200    313.77295   -1519.5056    460.91285    345.28893    561.91028    39062.633 
  294300    309.15966   -1481.3503    491.98711    393.87772     493.7889    39062.633 
  294400    306.06675   -1521.3829    467.67035    315.69004    726.31433    39062.633 
  294500    298.46996   -1529.9505    466.98688    272.44946    345.86548    39062.633 
  294600    295.85135    -1525.964      472.443    270.17588    -151.7133    39062.633 
  294700    316.66418   -1473.2442    496.04897    439.62231   -249.16128    39062.633 
  294800    295.94533   -1455.5533    474.32019    342.88424   -396.73925    39062.633 
  294900    309.33425   -1485.2195    471.67697    370.47952   -485.77911    39062.633 
  295000    295.38161   -1487.0007    449.67651    284.27098   -363.87727    39062.633 
  295100    297.03195   -1490.7277    451.54804    289.79952   -635.63155    39062.633 
  295200    303.16257   -1534.6684    468.05849    289.79883   -103.72136    39062.633 
  295300    309.46598   -1520.1372    453.10786    317.58212   -523.38738    39062.633 
  295400     298.8699   -1525.4414    466.26933    278.03035   -98.669988    39062.633 
  295500    301.20085   -1520.3004    492.60193    319.93317   -277.79252    39062.633 
  295600    301.01031   -1483.4833    431.52512    294.82091   -115.25387    39062.633 
  295700    305.77193   -1478.8914    474.11728     363.3094   -50.736227    39062.633 
  295800    290.02057   -1501.8764    451.26634    246.99875   -495.79601    39062.633 
  295900    293.15141      -1464.6    457.82961    304.84644   -105.22396    39062.633 
  296000    294.36068   -1489.5073    441.54384     269.0639    174.53218    39062.633 
  296100    302.10242   -1483.4148    456.53733    324.78797     -19.4976    39062.633 
  296200    314.92752   -1433.5897    486.18195    461.63968   -318.40926    39062.633 
  296300    306.94497   -1443.9694    462.89795    392.26043   -329.86405    39062.633 
  296400    307.41771   -1467.2825    478.21678    386.38137    71.051365    39062.633 
  296500    301.38986   -1472.8727    488.32905    363.93361   -440.64942    39062.633 
  296600    286.96879   -1444.2164     437.5324    277.27058   -458.75705    39062.633 
  296700    297.86384   -1443.5389     494.4766    383.63881    -695.5339    39062.633 
  296800    306.95867   -1456.8691    460.12539     376.6495   -709.58958    39062.633 
  296900    305.77114   -1465.0754    445.96304    348.96762   -830.52294    39062.633 
  297000     300.4392   -1480.5401    469.38226    333.06599    -659.6356    39062.633 
  297100    303.27999   -1421.1918    470.25387    405.99611   -305.91243    39062.633 
  297200    306.85068   -1402.3739    464.72309    435.25928    84.557892    39062.633 
  297300    297.77286   -1430.7684    500.76387    402.28963    469.82439    39062.633 
  297400    296.04492   -1465.7858    486.09969    344.87689    348.77861    39062.633 
  297500    305.68279   -1469.1255    464.86567    363.42488   -181.42806    39062.633 
  297600    288.47408   -1440.4258    489.81028    340.07404    7.9103293    39062.633 
  297700     305.8479   -1456.6749    492.53448    404.28293     464.9862    39062.633 
  297800    296.74731    -1443.491    453.78056    337.99514   -89.702499    39062.633 
  297900    298.12413   -1450.7002    511.77084    394.93642   -314.50684    39062.633 
  298000    297.82425   -1487.3001    448.01246    293.23642    96.251753    39062.633 
  298100    299.89422   -1464.0985    471.94031    349.62726   -335.68466    39062.633 
  298200    307.05893   -1435.3074    471.22092    409.75526   -21.345637    39062.633 
  298300    301.49323   -1445.2268    490.58873    394.30167     152.3345    39062.633 
  298400    303.99532   -1457.3405    475.27062    378.06469    253.62074    39062.633 
  298500    312.77918   -1489.8144    463.44611     373.0671    529.30474    39062.633 
  298600    309.74599   -1464.6894    480.11543    401.29025   -90.345402    39062.633 
  298700     301.3057   -1426.3457    486.60491    408.35991    642.57768    39062.633 
  298800    305.85498   -1523.8823    475.89114    320.46394    371.79103    39062.633 
  298900     313.3943   -1506.2867     432.6121    328.51292    112.22009    39062.633 
  299000    293.07803   -1476.6961    447.72799    282.32037   -325.32829    39062.633 
  299100    308.76961   -1470.2943    499.10164    410.30307   -145.73619    39062.633 
  299200    292.37869   -1480.2138     461.3584    289.30415    509.85416    39062.633 
  299300    306.08235   -1498.4809    487.70982    358.70129    433.40251    39062.633 
  299400    294.03834   -1524.4177    457.25686    248.42432    174.75186    39062.633 
  299500    304.71045   -1525.7463    467.73384    305.32177    138.38881    39062.633 
  299600    294.91528   -1482.2164    454.73907    292.03139   -2.2146865    39062.633 
  299700    299.08859    -1493.864    463.15258    307.46947   -62.385054    39062.633 
  299800    293.34418   -1490.6782    487.87595    309.67711   -599.80628    39062.633 
  299900    314.48581   -1487.4933    470.52457    390.10238   -105.69342    39062.633 
  300000     345.0925   -1488.4419    478.64609    534.21564    509.42278    39062.633 
  300100    293.66511   -1517.9325    465.14732    261.13003    356.37773    39062.633 
  300200    296.83225   -1521.2697      453.003    259.81896    615.67189    39062.633 
  300300    299.09184   -1488.9896    464.74235    313.94826    410.68854    39062.633 
  300400    305.01897   -1502.7628     467.1388    329.09067   -123.86457    39062.633 
  300500    301.19541   -1528.5705    467.75056    286.78731   -220.59697    39062.633 
  300600    295.92752   -1514.3567    472.33588    282.01687    644.52857    39062.633 
  300700    296.29594   -1507.2472    451.28496     269.7238    446.34854    39062.633 
  300800    307.29147   -1479.1212     479.3849    375.14587    711.95457    39062.633 
  300900    302.66392   -1507.7566    468.88286    315.30392    487.05957    39062.633 
  301000    291.65822   -1483.6095     474.2182    295.54472    170.52005    39062.633 
  301100     293.5165   -1520.5506    453.65077    246.35049   -337.59373    39062.633 
  301200    340.22689   -1498.8352    462.38613    485.79272     221.0954    39062.633 
  301300     297.9377   -1483.8019    461.18194    310.41166   -227.85495    39062.633 
  301400    307.96644   -1476.8244    476.98432    378.06208    226.56534    39062.633 
  301500    294.60343   -1454.1261    491.18635    355.17369   -485.53445    39062.633 
  301600    295.22747   -1459.0966    451.64007    313.44899    27.400447    39062.633 
  301700    301.96755   -1485.8901    496.97695    362.14882   -207.84095    39062.633 
  301800    292.50843   -1481.9659    439.30909    266.08316      37.7988    39062.633 
  301900    306.80031   -1508.2915    473.47161    337.86481    78.628973    39062.633 
  302000    310.68796   -1482.6006    470.64259    378.12076    386.94001    39062.633 
  302100    289.57726   -1499.0858    454.90352    251.44317     629.0297    39062.633 
  302200    312.11305   -1458.1432     481.0081    419.31977    737.23905    39062.633 
  302300    309.60627    -1440.562    484.09574    428.77287    487.52738    39062.633 
  302400    301.35147   -1448.8278    482.79489    382.27264    32.211897    39062.633 
  302500    296.11706   -1449.3473     448.2351    323.77353   -459.91212    39062.633 
  302600     298.0586   -1441.3884    457.39007    349.57422     344.1389    39062.633 
  302700    297.65993   -1497.4764    462.77826    297.09066   -5.1856414    39062.633 
  302800    301.69113   -1493.4036    437.79139    294.21302   -195.58091    39062.633 
  302900    299.54584   -1452.1732    481.12078    369.17432   -231.88189    39062.633 
  303000    297.35101   -1462.0807    455.41218    323.73815   -107.78375    39062.633 
  303100    316.03683   -1472.5271    459.20866    400.69222    164.49127    39062.633 
  303200    301.24384   -1477.5841    451.35464    321.59453   -310.94922    39062.633 
  303300    300.91003   -1464.1796    450.59032    332.74114    2.9147645    39062.633 
  303400    306.07855   -1387.2417     489.9468    472.16046    -206.2514    39062.633 
  303500    294.52678   -1436.9388    470.00568    350.83741   -11.570085    39062.633 
  303600    298.21265   -1354.1218     498.6182    478.75818   -342.18383    39062.633 
  303700    305.26644   -1404.4822    453.10683     414.4465   -584.04132    39062.633 
  303800     307.5518   -1477.0763     505.8502    404.82091   -171.36694    39062.633 
  303900    298.25088   -1461.5197    456.83322    329.74637   -335.50919    39062.633 
  304000    300.94759   -1427.0607    467.70931    387.14712     -176.407    39062.633 
  304100    308.88186   -1475.9426    459.73246    365.78784    -54.32521    39062.633 
  304200    293.15844   -1475.6906    495.38506    331.34276    88.833412    39062.633 
  304300    300.89105   -1443.4153    479.31684    382.14705   -267.44396    39062.633 
  304400    301.45069   -1464.4327    473.25946    357.57618   -217.32675    39062.633 
  304500    306.73872   -1493.8971    449.62028    328.13229   -138.21497    39062.633 
  304600     307.8963     -1466.55    449.32962    360.36801    486.40608    39062.633 
  304700      295.043   -1511.9245    483.63527    291.79092     1.482507    39062.633 
  304800    297.29011   -1486.9485    474.11179    317.29749    77.402267    39062.633 
  304900    289.86916   -1495.8165     476.9368    278.05165    34.347889    39062.633 
  305000    295.06492   -1501.8418    470.41216    288.74857     65.91185    39062.633 
  305100    295.40131   -1514.7823    464.25366    271.15465   -257.93988    39062.633 
  305200     299.2529   -1537.9413    450.87209    251.84686    247.63037    39062.633 
  305300    297.26055   -1509.5793    468.76726    289.18991   -40.548302    39062.633 
  305400    305.50468   -1520.8651    476.75732    322.77997    296.22998    39062.633 
  305500    284.11844   -1542.6665    455.24464    183.77965   -74.964875    39062.633 
  305600    293.93191   -1533.1169    455.88056    237.87256    112.79129    39062.633 
  305700    314.39252    -1530.666    451.46465    327.45239    -201.2228    39062.633 
  305800    304.72489   -1513.7778    464.27371    313.89478   -266.74099    39062.633 
  305900    299.84085   -1522.2297    440.74942     260.0664    124.78235    39062.633 
  306000    305.70716    -1543.344    480.80954    305.25929     501.7366    39062.633 
  306100    308.98614   -1544.2672    481.74066    319.93796    56.301491    39062.633 
  306200    299.13434   -1540.5484    468.26559    266.10286    625.76967    39062.633 
  306300    291.91613   -1546.5504    469.45495    228.99448    550.71338    39062.633 
  306400    301.30491   -1534.7425    451.88849    265.24313    64.775556    39062.633 
  306500    301.24658   -1527.4248    463.06874    283.48013   -104.83261    39062.633 
  306600    306.43575   -1525.6844    454.37539    299.74452   -388.55065    39062.633 
  306700    296.81732   -1515.6034     464.4429    276.85839   -135.10022    39062.633 
  306800    294.09957   -1517.0492    497.50999    296.31984   -310.02914    39062.633 
  306900    302.84408   -1503.7594     455.2576    306.48194   -39.292387    39062.633 
  307000    302.78405   -1469.5304     467.6886     352.8733    305.57654    39062.633 
  307100     301.3617   -1495.9762    475.54077    327.91586     289.9296    39062.633 
  307200    300.31921    -1456.947    505.47427    392.21427    360.80011    39062.633 
  307300    295.71773   -1490.5438    452.16869    284.72397    182.46949    39062.633 
  307400    300.69732   -1492.9713    478.46522    330.87265   -62.401906    39062.633 
  307500    293.44161   -1493.0516    468.53384    288.39751   -328.07527    39062.633 
  307600     303.1909   -1446.8414    433.93246    343.62649     2.531151    39062.633 
  307700    305.94394   -1483.0098    462.52267      348.366   -596.21631    39062.633 
  307800    301.59711   -1487.8766    468.05387    329.58184   -566.88758    39062.633 
  307900    309.59245   -1439.9863    498.65759    443.84852   -510.48201    39062.633 
  308000    307.46282   -1466.8477    442.88987    351.69102   -312.76577    39062.633 
  308100    312.76761   -1459.0955    487.32118    427.60923    309.64411    39062.633 
  308200    294.09429   -1495.2432    465.04477    285.63703    175.58203    39062.633 
  308300    303.35073    -1478.177    483.13237    362.20592    219.82193    39062.633 
  308400    306.75608   -1520.6777    470.56943    322.37855   -365.66457    39062.633 
  308500    296.16088   -1508.4057    458.55371    275.22976   -513.28786    39062.633 
  308600    308.48637   -1516.0957    459.44392    323.57663   -329.10603    39062.633 
  308700    305.43749   -1502.5226    454.81573     318.8803    44.231207    39062.633 
  308800    308.09874   -1488.2288    463.78658    354.05189   -40.915048    39062.633 
  308900    302.64702   -1492.2213    480.64217    342.52288   -200.28453    39062.633 
  309000    301.64609   -1516.1999    430.94206    264.36589   -635.27478    39062.633 
  309100    303.27458   -1522.3587    433.17955    267.73067    65.569076    39062.633 
  309200     301.2754   -1516.7342    475.12592     306.3569   -354.54757    39062.633 
  309300    309.55926   -1511.8329    458.68139    331.87722    457.22103    39062.633 
  309400     306.8147   -1502.5498    455.49864    325.69793    546.45193    39062.633 
  309500    301.72803   -1541.4073    449.95398    258.53695    449.08916    39062.633 
  309600    299.71935   -1538.0473    454.57613    257.53192    240.79459    39062.633 
  309700    300.46058     -1495.23    448.49498    297.58443    169.56375    39062.633 
  309800    297.29099   -1502.2366    461.14501    289.04655  0.013242213    39062.633 
  309900    296.05626   -1500.3908    444.31302    268.53589    468.67313    39062.633 
  310000    299.06442   -1456.5277    439.54387    321.08896    456.79349    39062.633 
  310100    302.75847   -1470.0481    444.07554    328.62815    638.53384    39062.633 
  310200    294.09285    -1474.494    475.73077    317.06578    492.63704    39062.633 
  310300    312.02256    -1454.746    457.76043    399.06454     746.2257    39062.633 
  310400    296.90554   -1474.8924    433.88524    287.40639    514.57629    39062.633 
  310500     292.1003   -1481.4684    439.82987    265.27542    593.71604    39062.633 
  310600    301.74798   -1489.3694    464.88152    325.59166    200.65263    39062.633 
  310700    305.80861   -1494.7774    429.13913    302.60934    329.80722    39062.633 
  310800    296.64637   -1487.3394    455.07138    294.98593   -370.32725    39062.633 
  310900    295.03402   -1484.6312     452.5142    287.92303    139.85118    39062.633 
  311000    308.22504   -1500.7493    479.09853     357.4084   -79.096578    39062.633 
  311100    304.34133   -1506.4286    433.69884    288.95297    -298.9995    39062.633 
  311200    302.48485   -1461.2226    461.26028    353.41418   -138.41573    39062.633 
  311300    306.80605   -1459.9398    471.98045    384.75102    32.850085    39062.633 
  311400    298.79077   -1428.0582    455.26917    364.05945     -461.094    39062.633 
  311500     295.2831   -1451.5461    447.05834     316.6667   -604.89085    39062.633 
  311600    308.57537   -1449.9597    439.35773    370.02468    99.420425    39062.633 
  311700    291.66763    -1435.719    468.57569    337.83485    317.87705    39062.633 
  311800    299.11859   -1476.4568    474.23095     336.0893    511.79292    39062.633 
  311900    298.51794   -1486.3964    443.38559    292.61696     822.7958    39062.633 
  312000    295.75612   -1487.6261    475.23708    310.88184    644.97199    39062.633 
  312100    302.94778   -1486.4909    453.45292    322.40974     646.7894    39062.633 
  312200    305.44854    -1477.011    444.82946    334.45509    43.490005    39062.633 
  312300     298.4212     -1511.18    464.99117     289.0061    172.93896    39062.633 
  312400    302.17812    -1519.928    442.19631    274.27242    135.50157    39062.633 
  312500     291.5406   -1463.9148    444.68087    285.17584   -5.9719888    39062.633 
  312600    303.83337   -1467.5934    445.75094     337.5676    362.61897    39062.633 
  312700    289.22195   -1450.7341    457.62319     300.9248   -35.895865    39062.633 
  312800    294.86861    -1490.767    453.35825    281.89115   -241.60613    39062.633 
  312900    292.52908   -1473.5717    454.28846    289.54917    472.11188    39062.633 
  313000    302.40258   -1462.7047    440.68421    330.98789    358.53658    39062.633 
  313100    303.98298   -1461.9196    438.78634    336.94611    471.94052    39062.633 
  313200     297.6378   -1463.1223    446.71165    315.27913    499.55501    39062.633 
  313300    293.01416   -1478.1894    445.65262    278.46599    460.95262    39062.633 
  313400    297.20573   -1457.8231    443.04056    314.97416    851.41595    39062.633 
  313500    299.42498   -1454.9393    479.36729    364.11403    449.24035    39062.633 
  313600    306.46906   -1440.5402    447.21064    377.87303   -112.38746    39062.633 
  313700    291.92212   -1505.3466     459.4291    260.19923    522.96097    39062.633 
  313800    292.43859   -1478.1654    471.46962    301.73172    407.91969    39062.633 
  313900    299.27908   -1427.5443    454.08739    365.57631    421.32949    39062.633 
  314000    296.17163   -1426.7546    465.01038    363.38571    131.57535    39062.633 
  314100    305.52419   -1416.2542      457.783    408.50386   -294.54464    39062.633 
  314200    301.35652   -1379.1299     451.5952    420.79337    422.66109    39062.633 
  314300    306.97082   -1410.5447    459.02441    421.92735   -338.01897    39062.633 
  314400    303.47101   -1424.9174    462.89345     395.7648   -70.143448    39062.633 
  314500     300.3337   -1441.2664    479.64257    382.12799   -38.580083    39062.633 
  314600    292.35498   -1461.9365    451.36294    297.47987   -517.89237    39062.633 
  314700    290.95914   -1484.1527    438.97827    256.63375    68.577435    39062.633 
  314800    306.73149    -1462.096    442.47249    352.75332    123.10043    39062.633 
  314900    295.39208   -1451.5224    455.43925     325.5589    645.91339    39062.633 
  315000    310.41259   -1457.2426    452.37856    383.98272    131.31887    39062.633 
  315100    302.90128    -1450.792    461.55223    365.99984    287.34978    39062.633 
  315200    315.89044    -1461.391    433.68408    385.64883   -21.769246    39062.633 
  315300    303.78904   -1452.1916    436.96242    343.98249   -215.56526    39062.633 
  315400    283.64871   -1437.2644    474.92334    306.75884   -50.636234    39062.633 
  315500    297.56158   -1419.5012    448.21912    360.06673    277.53982    39062.633 
  315600     309.2648   -1438.4531    471.92793    417.18614    548.51121    39062.633 
  315700    291.45622   -1482.3749    433.65271    255.31005   -84.148302    39062.633 
  315800    312.35181   -1496.4064    458.57987    359.69669    224.96661    39062.633 
  315900    314.24018    -1474.719    439.38889    370.64205    373.01239    39062.633 
  316000     305.7328   -1491.1572     431.6343    308.38557    26.852171    39062.633 
  316100    306.78407   -1490.2607     443.9193    326.27059   -207.62808    39062.633 
  316200    299.16981   -1465.7522     462.5371    335.32925    202.49403    39062.633 
  316300    304.42782   -1463.9301    438.19946    336.33909   -228.26855    39062.633 
  316400    297.98101   -1441.1356    434.59182    326.68167   -515.24184    39062.633 
  316500    289.81371   -1454.2146    436.10987    278.57861   -743.96862    39062.633 
  316600    305.11823   -1399.1333    455.51128     421.5367    273.45919    39062.633 
  316700    299.56914   -1434.6307    456.52734    362.22765    637.86376    39062.633 
  316800    306.54316   -1455.8148    462.23859    377.95792    479.78068    39062.633 
  316900     295.9149   -1447.3477    440.97885    317.61242   -412.92398    39062.633 
  317000    301.19899   -1439.7179    435.70066    343.60603   -211.06814    39062.633 
  317100    293.82016   -1446.9137    473.65205    341.34728    204.19897    39062.633 
  317200    289.81265   -1449.6785    472.18945    319.18947   -38.704713    39062.633 
  317300    304.62514   -1457.7342    455.86528    361.08359    218.63629    39062.633 
  317400    285.00217    -1466.547    448.32672    256.93529   -213.54995    39062.633 
  317500    297.54007   -1422.3266    446.33244    355.25838   -515.91849    39062.633 
  317600    299.60441   -1421.3038    465.73181    384.91687   -436.11802    39062.633 
  317700    293.93288   -1433.0844    465.43352    347.46236   -306.58691    39062.633 
  317800    311.28861   -1410.1194    451.98497    434.63185   -11.717619    39062.633 
  317900      302.823    -1432.243    463.65427    386.30067   -216.20893    39062.633 
  318000    293.09301   -1417.8647    438.18044    331.67132   -453.20327    39062.633 
  318100    306.89865   -1477.1865    459.56953    355.50774   -53.605612    39062.633 
  318200    291.33415   -1417.2338    470.00564    356.25791    389.05153    39062.633 
  318300    305.63655   -1443.9337    433.06771     356.6118    826.99578    39062.633 
  318400    298.71527   -1481.2314    443.89851    299.17769    459.29566    39062.633 
  318500    289.30044   -1447.8319    466.41626    312.97115    381.16436    39062.633 
  318600    293.66603   -1446.9129    466.25331    333.25976    373.13187    39062.633 
  318700    301.49404   -1481.6515    482.50062    349.79253   -116.92451    39062.633 
  318800    295.77698   -1443.3756    442.46028    322.44879    736.49087    39062.633 
  318900    305.51191   -1471.7192    447.90603    343.10697    586.69301    39062.633 
  319000    303.28276   -1456.4661     465.7423    366.22264    438.43953    39062.633 
  319100    303.85479   -1478.4524    460.75052    341.80396    275.66665    39062.633 
  319200    301.13848   -1491.8417    454.15092    309.66176    225.04219    39062.633 
  319300    299.02612    -1464.922    421.33214    294.31153    73.119977    39062.633 
  319400    310.57944   -1436.0733    455.62433    409.14422    153.49724    39062.633 
  319500    316.76586   -1437.8241     443.5314     422.9798    135.05561    39062.633 
  319600    295.90151   -1464.1884    438.58399    298.31696   -293.97429    39062.633 
  319700    297.86944   -1462.1923    436.49482    307.02871    30.104443    39062.633 
  319800    298.46677   -1441.3888    462.94355    356.95356   -673.76161    39062.633 
  319900    309.05459   -1459.3632    454.14081    377.54843    3.8378245    39062.633 
  320000    292.71619    -1433.061    451.10863    327.71722   -519.49532    39062.633 
  320100    289.61299   -1441.9407     456.5697    310.41422    -448.8297    39062.633 
  320200    309.95059   -1444.0302    454.55253    397.30193    -322.9244    39062.633 
  320300    304.71312   -1417.7393    475.03392    420.64078   -195.61779    39062.633 
  320400     300.4526   -1436.6747    453.09185    360.70096    223.90647    39062.633 
  320500    307.63332   -1451.3271    467.51853    392.60317   -648.58236    39062.633 
  320600    294.15176   -1423.6104    454.74592    347.22814   -377.04286    39062.633 
  320700    296.16497   -1449.9175    462.42704    337.60959   -239.15499    39062.633 
  320800    300.89145   -1456.2114     449.7959    339.83175    98.347223    39062.633 
  320900    309.67323   -1468.7445    454.41405    371.20829    332.35009    39062.633 
  321000    302.41492   -1515.1068    435.06741     273.0242    309.80673    39062.633 
  321100    297.78513   -1517.2421    453.13522    268.24208   -30.709541    39062.633 
  321200    296.51083   -1445.3244    461.77964    343.10275   -618.18342    39062.633 
  321300    311.81116   -1475.2172    439.44197    359.32901    37.412897    39062.633 
  321400    292.31197    -1466.226    440.63261    282.26761     4.733902    39062.633 
  321500    285.38551    -1459.615    448.49337      265.749   -612.97748    39062.633 
  321600    298.63993    -1457.998    420.02933    298.20488   -39.697317    39062.633 
  321700    296.69915   -1489.9434    452.51052    290.05727   -449.11417    39062.633 
  321800    296.30335   -1456.1765     445.2823    314.82503   -328.09407    39062.633 
  321900     295.4757   -1434.2223    451.61331    339.40717   -796.28073    39062.633 
  322000    301.48987   -1431.3372     438.3346    355.92219    -122.0054    39062.633 
  322100    296.56177    -1447.232    462.12757    341.77106   -348.38566    39062.633 
  322200    295.10639   -1449.9269    463.69074    334.12763     -216.461    39062.633 
  322300    297.95426   -1462.2335    426.71728    297.58947    5.1572692    39062.633 
  322400     302.2378   -1431.2145     450.1438    371.20045   -296.65445    39062.633 
  322500    284.96499   -1410.9407    469.83692    333.88539   -51.851692    39062.633 
  322600    309.49305   -1424.5077    445.06624    405.29107    12.757277    39062.633 
  322700    297.53433   -1428.5055    479.49156    382.21294    530.08436    39062.633 
  322800     290.9296    -1445.805    433.97903       289.85   -21.178843    39062.633 
  322900    294.48242   -1445.0698    455.45295     327.9552   -11.177724    39062.633 
  323000    303.73739   -1381.5389    468.21299    445.65464    148.73038    39062.633 
  323100     311.1475   -1463.3435    437.47896    366.27032    159.72234    39062.633 
  323200    297.35337   -1427.0624     437.0891    340.44392    758.42846    39062.633 
  323300    301.33068   -1460.6305     459.2077    346.78963    237.25761    39062.633 
  323400    298.34977   -1438.2094     421.4072    318.07311     116.7844    39062.633 
  323500    302.02954   -1421.6791     459.6598    389.32005    156.53771    39062.633 
  323600    309.65837    -1423.072    459.07377    421.47393   -118.33303    39062.633 
  323700    299.83523   -1501.5027    436.19391    276.21274   -292.09383    39062.633 
  323800    308.02139   -1492.5287    437.42339     323.0428    173.31031    39062.633 
  323900    293.13591   -1535.4309    443.10342    219.22004   -477.78897    39062.633 
  324000    291.45831   -1490.5751      446.209     259.6755   -93.849501    39062.633 
  324100    298.78529   -1511.9089    445.71534    270.63039   -47.073743    39062.633 
  324200    287.13404    -1482.794    434.77804    236.67803   -430.85626    39062.633 
  324300     299.7169   -1469.8057    430.06285    301.24931    215.16426    39062.633 
  324400    306.99939   -1485.8721    443.26885    330.97216    166.87803    39062.633 
  324500    306.68289   -1455.9752    439.07899    355.26311    110.43453    39062.633 
  324600    296.56517   -1437.6797    454.93603    344.14702   -486.05905    39062.633 
  324700    298.89538   -1453.4301    440.81333    324.69973   -624.25011    39062.633 
  324800     302.7322    -1401.228    483.56149    436.81667   -185.72881    39062.633 
  324900    294.29978   -1420.8521    452.02137     347.9241   -211.20447    39062.633 
  325000    294.77399   -1448.8475    423.40412    293.43318    -14.83863    39062.633 
  325100    304.18358   -1444.4087    493.59961    410.16779    201.85712    39062.633 
  325200    288.65507   -1403.1378    436.73432     325.0958   -10.216461    39062.633 
  325300    308.16068   -1421.6641    462.52735    419.63445    -314.5347    39062.633 
  325400    298.95167    -1437.015    484.71059    385.26389   -910.92861    39062.633 
  325500    309.78754   -1439.0831       435.42    382.38702   -351.20719    39062.633 
  325600    297.96718    -1434.242    457.63097    356.55248   -333.27391    39062.633 
  325700    297.57675   -1441.5943     423.0509    312.87329   -178.20251    39062.633 
  325800    300.39315   -1404.4703    471.77525    411.32276    131.49065    39062.633 
  325900    302.21918   -1451.2608    471.82164    372.74865    328.74665    39062.633 
  326000    303.35481   -1458.0883    439.11796    338.29845    149.79852    39062.633 
  326100    315.24913   -1455.6287    464.73212    419.58978    690.43316    39062.633 
  326200    296.58838   -1452.6415    463.65639    338.00937    808.50974    39062.633 
  326300    297.88291     -1474.29    451.18274    309.67925    778.59401    39062.633 
  326400     308.5518   -1449.3304     455.6896    386.88037    597.27202    39062.633 
  326500    305.96525   -1449.1142    488.25858    408.09284     669.6995    39062.633 
  326600    296.56542   -1471.7595    447.38159    302.51389    619.07325    39062.633 
  326700    294.13062   -1444.2096    448.20517    319.99353    352.66911    39062.633 
  326800    301.95752   -1418.1779    449.93782    382.77702     216.9187    39062.633 
  326900    304.33121   -1426.7673    474.74817    409.61827   -101.07478    39062.633 
  327000     297.3214    -1381.382    485.95317    434.84532   -569.05605    39062.633 
  327100    300.77319   -1412.8194    435.63851    368.53726   -635.81677    39062.633 
  327200    302.98145   -1412.6215    432.79305    375.76993   -1184.9609    39062.633 
  327300    292.63412   -1415.9447    462.03879    355.39649    -1604.727    39062.633 
  327400    294.56594   -1408.3514    462.73687     372.3312   -1030.2498    39062.633 
  327500    288.93814   -1469.9066    447.41703    270.27632   -369.13294    39062.633 
  327600    296.42158   -1453.9237    470.27703    342.60161   -88.395893    39062.633 
  327700    301.02147   -1459.8922    478.77432    365.71115    68.054423    39062.633 
  327800    295.76134   -1457.5928    452.65553    318.35689   -53.115488    39062.633 
  327900    292.75151   -1464.7222    472.74017     317.8456   -273.31927    39062.633 
  328000    306.53854    -1419.256    455.56925    407.82671     38.30921    39062.633 
  328100    295.70308   -1461.8397    458.89733    320.09111    283.98562    39062.633 
  328200    300.83047   -1447.6195    469.90633    368.26131   -53.318173    39062.633 
  328300    312.70636   -1430.7052    467.77926    436.18355     752.7357    39062.633 
  328400    293.31779   -1420.6634    463.19867    354.89649     153.0556    39062.633 
  328500    295.82745    -1457.908    467.54206    333.22404    496.38605    39062.633 
  328600    288.99963   -1493.5982    465.16551    264.60824    517.11856    39062.633 
  328700    301.03055   -1453.6905    476.90995    370.08907     647.6405    39062.633 
  328800    294.84617   -1433.1304    453.25356    339.32268     511.8274    39062.633 
  328900    301.72148   -1402.7689    458.34967    405.54178    323.52035    39062.633 
  329000    293.59165   -1454.3463    443.27963    302.51982    218.49455    39062.633 
  329100    303.06666   -1464.7299    476.06117    367.31086    238.15021    39062.633 
  329200    289.56932   -1411.9161    438.83274    322.50653   -42.632246    39062.633 
  329300    292.25792   -1433.1272    460.33858    334.83055    293.81089    39062.633 
  329400    302.14361   -1426.1599    449.25131    374.94112   -136.49874    39062.633 
  329500    293.61222   -1455.9911    451.97597    309.66349    300.37662    39062.633 
  329600    291.82057   -1427.0436    457.41563    336.03449     270.4548    39062.633 
  329700    302.39409    -1455.249    435.57242    333.29375    171.72101    39062.633 
  329800    309.59141   -1443.8781    468.74392    410.03845   -135.98763    39062.633 
  329900    307.21343   -1433.7695    439.62437    380.38795    324.00345    39062.633 
  330000    302.91022   -1400.9055    478.18195     432.5561    486.53428    39062.633 
  330100    301.59633   -1400.3583    483.17218    432.21492    483.98443    39062.633 
  330200    294.66466   -1382.2033    482.06349    418.24762   -575.40314    39062.633 
  330300    299.50132   -1411.2906    451.08074    379.81771    -87.16577    39062.633 
  330400     310.1974   -1435.2709    477.04637    429.65941    -182.7004    39062.633 
  330500    298.16629   -1411.4701    484.99236    407.57661   -184.89848    39062.633 
  330600    294.90572   -1404.6741    443.80922     358.6011   -89.322366    39062.633 
  330700    306.45459   -1441.1048    457.28698    387.32007   -205.83612    39062.633 
  330800    302.35837   -1411.7941    446.18018     387.1967   -570.87344    39062.633 
  330900     304.2295   -1379.1383    447.29903    429.34315   -57.871117    39062.633 
  331000    305.28827   -1357.2814    481.47252    490.11067   -110.45213    39062.633 
  331100    297.67668   -1374.2239    453.24444    410.88431   -323.68302    39062.633 
  331200    310.08223   -1364.5325    489.02127    511.85739    312.94315    39062.633 
  331300    302.80968   -1384.5206    452.23012    422.53937    44.487399    39062.633 
  331400    289.47931   -1405.5286    473.51163    363.17015    69.099804    39062.633 
  331500    305.84688   -1398.4275    447.15547    417.14679   -16.365298    39062.633 
  331600    296.61747   -1426.9104    510.45216    410.66641     65.79388    39062.633 
  331700    308.84762   -1408.8828    479.31267     452.2746    191.78355    39062.633 
  331800    304.15172   -1361.6949    467.41122    466.55071   -514.38777    39062.633 
  331900    293.30966   -1438.5563     460.1107    333.87922   -157.93999    39062.633 
  332000    297.68289   -1406.3761    454.62428    380.13975    124.97915    39062.633 
  332100    299.76447   -1418.5659    454.74902    377.38807    48.563696    39062.633 
  332200     298.7377   -1430.3044    450.89829    357.20492    112.32891    39062.633 
  332300    293.64759   -1388.1653    460.61715    386.28875   -396.04934    39062.633 
  332400    303.88433    -1418.254    472.98616    414.37015   -360.72671    39062.633 
  332500    301.88497   -1414.4723    460.79774    397.01796    11.483262    39062.633 
  332600    307.12518   -1427.1926     437.3737    384.31932   -4.8526081    39062.633 
  332700    297.42674   -1403.6325    444.41211    371.52511   -76.547519    39062.633 
  332800    305.34965   -1393.1604    435.47188    408.50561    352.22892    39062.633 
  332900    294.03697   -1456.2137    425.95428    285.31954   -251.00535    39062.633 
  333000    301.66239   -1445.8274    469.71463     373.5839    207.19789    39062.633 
  333100    295.18169   -1455.2186    445.59362     311.0757   -69.502901    39062.633 
  333200    295.88682   -1459.8632    452.62423    316.61664    -167.8327    39062.633 
  333300     296.6587   -1426.0393    452.81992     354.0897    35.797994    39062.633 
  333400    302.49437   -1400.4526    442.96656    395.93304    196.44887    39062.633 
  333500    289.48763     -1413.17    439.54715    321.60149   -153.01085    39062.633 
  333600    297.00847   -1393.2017    441.71336    377.38569   -335.98426    39062.633 
  333700    302.91612   -1417.2864    449.09715    387.11684   -330.72015    39062.633 
  333800    307.43481   -1368.3869    480.23862    487.37528   -211.13376    39062.633 
  333900    307.30579   -1381.6957    452.95493     446.2055    189.87045    39062.633 
  334000    295.78842   -1422.5813    457.03701    357.87108     122.9214    39062.633 
  334100    298.96272   -1432.2439    445.23645    350.61026   -121.85832    39062.633 
  334200    313.13914   -1413.2414     451.1612     438.9657    8.9572592    39062.633 
  334300    310.23642   -1405.5713    460.45559    442.94284   -97.058252    39062.633 
  334400    302.20872   -1406.8396    431.70085    377.00224   -173.98463    39062.633 
  334500    295.00531   -1436.5317    465.07476    348.45464   -185.95983    39062.633 
  334600    299.46718   -1415.8119    458.03653    382.09946   -55.138464    39062.633 
  334700    302.04219   -1383.1304     448.7434    417.00892    260.25976    39062.633 
  334800    305.62556   -1429.4614    458.73138    396.69856    123.63466    39062.633 
  334900    295.48316   -1485.3491    442.33075    279.03123    194.65753    39062.633 
  335000     307.2073   -1466.7987     440.6073    348.31426    467.96799    39062.633 
  335100    297.36148     -1488.65    455.96856    297.77205   -9.9840664    39062.633 
  335200    305.29962   -1428.8118    431.76676    368.92529   -560.51535    39062.633 
  335300    292.28305   -1428.2631    454.11399     333.5825   -1001.3921    39062.633 
  335400     291.9336   -1471.2501    437.71014    272.62814    -178.7708    39062.633 
  335500    304.20845   -1461.6336    445.83838    345.29293    123.23241    39062.633 
  335600     294.3929   -1449.2764    443.42485     311.3199    360.49867    39062.633 
  335700    304.31489   -1458.2796    442.35835     345.6432    366.94634    39062.633 
  335800    304.41184   -1436.6259    451.35823    376.73051     269.0357    39062.633 
  335900    292.02071   -1420.7061      434.267     320.1188   -49.849832    39062.633 
  336000    292.59692   -1422.3403    447.74887    334.54451   -175.85982    39062.633 
  336100    300.96541   -1449.6494    446.47673     343.4056     168.4635    39062.633 
  336200    286.50163    -1456.714    408.17813    233.32857    120.24822    39062.633 
  336300    302.89452   -1424.3139    465.58656    396.48207    474.97064    39062.633 
  336400    294.57413   -1442.4166    431.06678    306.63249    274.36518    39062.633 
  336500    307.88165   -1435.9857    486.85625    428.39339   -131.79785    39062.633 
  336600    298.61529   -1403.1589    447.71777    380.62217   -62.822731    39062.633 
  336700    304.90182   -1416.9753    448.23976    395.45495     469.2959    39062.633 
  336800    292.20638    -1413.577     452.0393    345.85087    156.37976    39062.633 
  336900    304.88109   -1386.5203    446.63568    424.21315    249.97715    39062.633 
  337000    294.39776   -1390.6384    466.30002     392.8549    20.773185    39062.633 
  337100    293.12729   -1397.7953    448.51089    362.22455   -361.77129    39062.633 
  337200    293.81043   -1366.0258     446.9652    395.50484   -421.24616    39062.633 
  337300    304.52885   -1424.2555    423.23834    361.50461   -603.07914    39062.633 
  337400    304.83921   -1397.2997    468.05773     434.6684    -522.4726    39062.633 
  337500    300.89458   -1397.8151    430.02608    378.47229   -367.08874    39062.633 
  337600    303.29619   -1405.3226    476.54947    428.23343    -144.4351    39062.633 
  337700    302.30769   -1351.2759    472.49508    473.80305   -229.56577    39062.633 
  337800    272.99228   -1363.0841    430.31069    288.64754   -1.4684284    39062.633 
  337900     292.3004   -1399.8813    475.14263    383.07062    145.72038    39062.633 
  338000    299.77678   -1404.5462    445.47609     382.1899     30.79015    39062.633 
  338100    309.26729   -1401.4657    469.66793    451.92468    829.69623    39062.633 
  338200    304.08909   -1387.5558    456.36537    429.36368    762.22269    39062.633 
  338300    299.71174   -1428.2681    450.81753    363.51844    187.31211    39062.633 
  338400    302.95745   -1420.3224    459.30643    394.47502    354.77616    39062.633 
  338500    296.84567   -1400.6028    462.25418    389.79708     769.1921    39062.633 
  338600    305.27647   -1452.7542    464.09026     377.2028    237.34006    39062.633 
  338700    297.02566   -1408.7556    466.57022    386.76562    524.22967    39062.633 
  338800    299.77576   -1439.9522    441.73459    343.03782    394.08069    39062.633 
  338900    298.83191   -1426.5032    465.05971    375.58899    422.07493    39062.633 
  339000    298.44742   -1448.2391    448.17962    335.25274     114.3533    39062.633 
  339100    298.42686    -1410.232    429.59024     354.5785    192.09033    39062.633 
  339200    305.40152   -1492.3507    465.46242    339.53797    -22.81176    39062.633 
  339300    294.15997   -1424.1382    435.49293    327.48406    217.36248    39062.633 
  339400     303.2271   -1431.7268    474.78609    399.75673    452.71297    39062.633 
  339500     304.7821   -1434.7569    451.58185    380.47975   -42.919464    39062.633 
  339600    288.18163   -1433.0728    441.00568    297.31399   -167.08922    39062.633 
  339700    295.98293   -1418.5301    489.54135    395.29683   -271.86353    39062.633 
  339800    297.35931    -1473.254    451.19561    308.38541    -120.6236    39062.633 
  339900    299.02544   -1444.9226    456.87813    349.85388   -148.17183    39062.633 
  340000    298.56276   -1428.1759    448.81469    356.46711    235.28247    39062.633 
  340100    298.61764   -1447.0544    446.58718     335.6066    -9.691646    39062.633 
  340200    311.77706   -1445.3868    452.31959     401.8844   -108.68426    39062.633 
  340300    298.26974   -1457.0157    452.69378    330.19531    268.28773    39062.633 
  340400    310.51503   -1499.8527    446.44164    335.89401   -250.82734    39062.633 
  340500    295.59786   -1497.2503    444.94745    270.25986   -20.427016    39062.633 
  340600     301.1915   -1427.3489    453.13202    373.37293    99.132618    39062.633 
  340700     306.9232   -1434.6203      465.053    403.66726    371.44698    39062.633 
  340800    299.64281   -1410.3935    457.47629    387.74335    16.327633    39062.633 
  340900    292.61092   -1422.5769    443.94955    330.57122   -128.47783    39062.633 
  341000    303.17424   -1404.9987    479.66854    431.13082    594.57005    39062.633 
  341100    294.19574   -1407.7036    465.45244    374.03819    106.87154    39062.633 
  341200    307.25767   -1401.1047    470.03182     443.6581    185.35798    39062.633 
  341300    309.16896   -1479.5095    458.61829    362.39124     235.3262    39062.633 
  341400    304.48082   -1443.8592    440.47403    358.92164   -277.77044    39062.633 
  341500    296.53859   -1429.0072     454.5135    352.27806   -169.40282    39062.633 
  341600    312.95905   -1445.3536    469.37091    424.25745    132.06758    39062.633 
  341700    298.12259   -1421.5092    454.12621    366.47588    110.45918    39062.633 
  341800     303.1953     -1437.67    456.85071    375.73593    -8.898218    39062.633 
  341900    290.48227   -1452.1597    461.50634     309.0212    103.74993    39062.633 
  342000    301.71854    -1458.771     464.9456    356.12239    185.48304    39062.633 
  342100    302.86608   -1442.5099    477.61564    390.18797    406.27153    39062.633 
  342200     299.4075   -1408.4061    456.71378    387.91554   -666.95968    39062.633 
  342300    305.24473   -1439.5752     482.2016    408.35113    135.23487    39062.633 
  342400    298.23726   -1450.1823    453.89054    338.08015    33.719414    39062.633 
  342500    305.70532   -1493.3931    472.54345    346.93585    248.13351    39062.633 
  342600    309.40423   -1444.3114    470.50238    410.52608    173.61702    39062.633 
  342700     298.2614   -1387.8449    459.23362    405.86866   -314.03741    39062.633 
  342800    308.98321   -1424.0119    467.58708    426.02653   -489.54832    39062.633 
  342900    297.80313   -1449.4754     462.8614     345.8156   -246.16614    39062.633 
  343000     298.3975   -1444.4649     454.3671    344.99108   -441.49895    39062.633 
  343100    295.61686   -1439.0358    468.09644    351.70837   -484.93606    39062.633 
  343200    301.89829   -1449.0215    459.78832    361.51896    11.214651    39062.633 
  343300    294.05219   -1469.6022    475.04538    321.09023   -52.391202    39062.633 
  343400    307.64505   -1462.1866    483.69525    397.97292    -35.68157    39062.633 
  343500    307.11982   -1474.2522    475.05939    374.92141    60.793901    39062.633 
  343600     298.7003   -1428.2986    458.44804    366.59309    249.10668    39062.633 
  343700    290.65511   -1461.2886    463.82719    302.98645    427.04124    39062.633 
  343800    296.39851   -1504.6373    464.52843    286.03612    334.13239    39062.633 
  343900    305.51838   -1513.4305    455.81425    309.33287    135.60992    39062.633 
  344000    297.36255   -1514.6838    455.15303    270.92748    84.740915    39062.633 
  344100    300.09797   -1527.7438    465.65891    280.61225    235.18944    39062.633 
  344200     299.1485    -1503.815    457.04133    291.67532     231.6775    39062.633 
  344300    292.23978   -1481.3945    468.98856    295.13207    500.22179    39062.633 
  344400    292.21507   -1520.8233    449.26571    235.86988    423.59822    39062.633 
  344500     301.2161   -1467.3587    473.19295    353.53406    550.12896    39062.633 
  344600    313.42429   -1477.2285    464.00293    389.09607    237.60716    39062.633 
  344700    296.63813    -1457.774    478.24369    347.68683    311.90346    39062.633 
  344800    304.61181   -1440.0909    476.80754    399.60958    76.945124    39062.633 
  344900     309.2789   -1470.0803    423.79015    337.48429   -82.083254    39062.633 
  345000      304.709   -1393.8366    452.48704     421.9782   -346.59485    39062.633 
  345100     297.0676   -1442.2564     465.0108      351.893    357.38614    39062.633 
  345200    307.77124   -1453.5001    462.06423    385.59291    412.03059    39062.633 
  345300    304.72165   -1473.0788    445.35513     335.6607    677.31315    39062.633 
  345400    293.08523   -1449.8139    478.65532    340.16212    514.14102    39062.633 
  345500    301.56635   -1445.6966    479.31621    382.88655    217.66063    39062.633 
  345600    296.56538   -1481.6455    458.75725    304.00335   -229.17925    39062.633 
  345700    309.56128   -1481.1338     465.7809    369.68488    326.94086    39062.633 
  345800    304.13233   -1456.9754    465.20884    368.98104    119.80208    39062.633 
  345900    309.49924   -1450.2387    481.43984    415.96135   -267.18077    39062.633 
  346000    295.46442   -1479.8419    478.77213    320.89595   -257.29161    39062.633 
  346100    309.90868   -1424.3021    455.47958    417.76964    -215.1085    39062.633 
  346200    297.81731   -1467.4185    454.75851    319.83295   -531.34154    39062.633 
  346300    300.62935   -1468.7316    456.78207    333.12506   -88.724799    39062.633 
  346400    307.82092   -1452.0929    477.68188    402.84006   -978.97796    39062.633 
  346500    305.60842   -1424.1956    465.09088     408.2472   -275.95197    39062.633 
  346600    292.34236   -1453.0745    452.27952      307.202   -374.65345    39062.633 
  346700     301.9066   -1459.2091    461.25655    352.83669   -294.30197    39062.633 
  346800    289.33127   -1452.8548    452.09464    293.76457   -615.19343    39062.633 
  346900    299.63414   -1447.0009    461.95253    355.57345   -397.10246    39062.633 
  347000    291.51739   -1454.4096    443.91275    293.80903   -55.944248    39062.633 
  347100    302.11533   -1435.4134    468.72439    385.03415   -168.61569    39062.633 
  347200    295.53911   -1437.9312     467.5871    351.95578   -191.57535    39062.633 
  347300    308.35138   -1470.5017    470.58501     379.7078   -407.73524    39062.633 
  347400    295.39868   -1475.9647     453.0293    298.73618   -284.96755    39062.633 
  347500     307.1013   -1479.0289    449.58564    344.58809   -259.53957    39062.633 
  347600    301.48296   -1421.1203    452.08029    379.85382    -599.9362    39062.633 
  347700    289.22977   -1445.8363    464.19407    312.42843   -109.84772    39062.633 
  347800    302.82548   -1464.7228    459.84041    350.01806    52.203338    39062.633 
  347900    293.94735   -1463.4507    446.04911    297.77645    492.69119    39062.633 
  348000    306.65352     -1475.55    479.14569    375.62366     245.8145    39062.633 
  348100     290.3158   -1486.2344    474.36549    287.06083   -231.98568    39062.633 
  348200    290.84666   -1520.4719     442.1529    222.98596     107.9386    39062.633 
  348300    298.44092   -1493.8604    458.33539    299.75814   -144.31715    39062.633 
  348400    298.44069   -1469.8858    438.55394    303.95025   -92.758904    39062.633 
  348500    308.86764   -1460.5625     467.8977    389.26956   -238.06726    39062.633 
  348600    298.30101   -1508.3753    430.96277    257.24463   -417.03757    39062.633 
  348700    307.47784   -1503.6661    431.12181    303.17182   -187.33892    39062.633 
  348800    293.71668   -1517.1202    451.84644    248.87224    -783.0172    39062.633 
  348900    289.11426   -1468.1957    442.89751    268.25568   -373.16777    39062.633 
  349000    299.66695   -1476.8781    467.56056    331.45106    336.47466    39062.633 
  349100    296.00091   -1495.8458    449.83021    278.35049    599.60768    39062.633 
  349200    299.79248   -1516.6161    453.06746    277.78162    485.48373    39062.633 
  349300    304.77486   -1503.4843    444.04006    304.17814    936.25792    39062.633 
  349400    304.02625   -1516.9623    440.99478    284.30542    474.87817    39062.633 
  349500    300.63669   -1507.1254    451.43043    289.41248    139.78683    39062.633 
  349600    306.26374   -1532.4585    432.71285    270.53835    780.10375    39062.633 
  349700    308.59517   -1508.1726    483.99431    356.53694    699.49159    39062.633 
  349800    297.70417   -1471.0873    457.36763    318.26709    221.81017    39062.633 
  349900    299.13259   -1459.8855    459.52836    338.02069    -225.6802    39062.633 
  350000    286.26242   -1499.0176    461.87738    243.65386   -604.75748    39062.633 
  350100    286.93995   -1497.9457    454.68024     240.5601   -199.45101    39062.633 
  350200     296.9505   -1475.3868    447.17264    300.40051   -447.39186    39062.633 
  350300    296.92715   -1499.2342    429.31446    258.59048   -54.841766    39062.633 
  350400    297.63971   -1454.4188    455.71029    332.98988   -183.99159    39062.633 
  350500    305.29094   -1436.8146    480.71902    409.83595    254.66701    39062.633 
  350600    287.62944   -1478.8504    420.63867    228.69875   -185.23941    39062.633 
  350700    308.09551   -1443.0061    457.58562    393.05914    14.344874    39062.633 
  350800    304.12389   -1472.6399    444.25896    332.32891    186.85649    39062.633 
  350900    293.42356   -1488.6953    436.53396    260.67308    161.91722    39062.633 
  351000     301.0653   -1445.3411    442.27603    343.96007     189.2479    39062.633 
  351100     290.3481   -1445.9149    466.72887    319.88829    80.060867    39062.633 
  351200    303.30439   -1464.1415     447.5022      340.404    107.30661    39062.633 
  351300    300.78788   -1489.3366    463.51941    319.96666    -146.1991    39062.633 
  351400    289.81262    -1460.537    461.90559    298.04699   -140.11024    39062.633 
  351500    294.22471   -1434.4339    473.22769    355.21279   -401.93276    39062.633 
  351600    305.03012   -1477.6139    465.07363     352.2242    5.0116945    39062.633 
  351700    309.53352   -1481.1338    456.93306    360.71283    503.80374    39062.633 
  351800    292.32027    -1486.429    469.00899    290.47815    114.78193    39062.633 
  351900    308.18028   -1448.3004    450.61103    381.16954    345.13826    39062.633 
  352000     299.5528   -1416.2081    451.19125    375.24111   -145.86927    39062.633 
  352100    292.33214   -1418.5952    428.27945    317.63548   -245.40477    39062.633 
  352200    304.49442   -1451.0169    483.91839    395.26919   -412.54596    39062.633 
  352300    295.12357   -1413.3006    440.52083    347.66082    -215.0503    39062.633 
  352400    301.33162   -1429.9703    476.79936    395.04578   -255.81199    39062.633 
  352500    301.11243   -1440.9478    426.66999    332.95818    76.244644    39062.633 
  352600    299.01486   -1434.7977    459.62676    362.68008   -468.53163    39062.633 
  352700    288.45253   -1420.4945      442.805    312.90367   -144.20189    39062.633 
  352800    304.11175   -1399.6039    447.99784    409.04949     -300.251    39062.633 
  352900    297.17187   -1413.3482     483.4338    399.69069    345.10652    39062.633 
  353000    306.46659   -1438.2922    469.99033    402.88972    124.63664    39062.633 
  353100    303.41019   -1427.3731    464.64016    394.78364    554.87827    39062.633 
  353200    297.33868   -1432.1862    477.20026    375.36559    921.37345    39062.633 
  353300    304.33173   -1456.0883    459.65457    365.20608    890.74008    39062.633 
  353400    289.90651   -1455.6117    429.66499    271.15182    145.46279    39062.633 
  353500    300.89462   -1472.8522     460.3316    333.74085    227.69128    39062.633 
  353600    293.40905   -1450.9597    446.08552    307.89534    638.41167    39062.633 
  353700    302.50704   -1490.1675     439.6716    302.97981    822.54275    39062.633 
  353800     305.4877   -1474.4181    444.93316     337.3269    246.44653    39062.633 
  353900    301.01632    -1444.928    448.70686    350.58481   -128.15412    39062.633 
  354000    300.01494   -1421.7264    458.88404    379.48326   -463.42396    39062.633 
  354100    302.08715   -1416.0638    455.14006     390.6733   -550.49841    39062.633 
  354200    303.05169    -1418.151    466.68071    404.44231    -83.77195    39062.633 
  354300    297.97926   -1429.2187    450.99199    354.99086   -540.57025    39062.633 
  354400    296.75439   -1409.7693    462.32727    380.29523   -31.730976    39062.633 
  354500    302.56657   -1470.9204    473.64294    356.46466    194.82724    39062.633 
  354600    292.55258   -1492.5121    463.59499    280.02042   -78.208497    39062.633 
  354700    293.04769    -1530.569    456.82487    237.40865     56.50161    39062.633 
  354800    301.56248   -1511.0221    412.49704    250.72456   -243.25729    39062.633 
  354900    306.86045   -1502.2406    415.48052    286.19372   -188.18822    39062.633 
  355000    307.89881   -1472.6643    448.88274    353.81807   -697.07518    39062.633 
  355100    299.28587   -1446.5547    482.12911    374.63801   -402.49463    39062.633 
  355200    294.85601   -1443.3021    456.16856    332.11001    369.70319    39062.633 
  355300     292.7206   -1481.7307    459.35525    287.31383   -290.16402    39062.633 
  355400    303.25739   -1446.3911    439.05951    349.50139   -168.60992    39062.633 
  355500    300.71997   -1408.3789    476.68095    413.78207   -171.43158    39062.633 
  355600    294.78334   -1421.7004      457.862    355.08002   -128.16376    39062.633 
  355700    288.34301   -1452.8439    492.03084    329.29003   -174.69877    39062.633 
  355800    293.06283   -1507.3432    452.33217    256.20948    202.90571    39062.633 
  355900     296.2852   -1505.1835    447.24018    267.69473   -33.586911    39062.633 
  356000    299.37839   -1475.6639    476.85133      340.665    275.42862    39062.633 
  356100    295.09387   -1488.8047     446.0671    277.57019    393.25382    39062.633 
  356200    296.20125    -1447.815    460.11143    337.55882    210.88166    39062.633 
  356300    295.28494    -1484.937    477.17649    313.40215    214.55055    39062.633 
  356400    308.64326   -1527.7555    435.48365    288.65849       44.162    39062.633 
  356500    308.47929    -1523.787    461.38989    317.79968    103.07677    39062.633 
  356600    287.53301   -1512.9994     466.9186    240.39821   -464.81689    39062.633 
  356700    297.86552   -1444.7236    435.45915    323.44427   -89.905019    39062.633 
  356800    286.02154   -1483.7309    439.20875    235.19424   -88.008778    39062.633 
  356900    290.64173   -1475.7681    452.55129    277.17119   -219.99005    39062.633 
  357000    295.57179   -1482.6728    451.35478    291.12808   -86.242336    39062.633 
  357100    307.49244   -1502.6445    448.54957    321.68648   -36.054488    39062.633 
  357200    293.17417   -1497.5197    447.53744    261.73643   -174.95046    39062.633 
  357300    308.03651   -1461.1048    448.49272    365.60361   -263.22317    39062.633 
  357400    302.85358   -1459.3186    466.34542    362.05308   -644.97203    39062.633 
  357500    316.47761   -1468.4272    447.13861    394.69418   -472.12699    39062.633 
  357600    311.25898   -1441.6923    436.64194    387.58327   -753.04766    39062.633 
  357700    303.84953   -1437.9034     452.4382    374.01709   -648.64051    39062.633 
  357800    308.20483   -1459.0139     447.6567     367.6116   -298.13096    39062.633 
  357900    303.76862   -1494.3999    474.28514    339.00552    551.60901    39062.633 
  358000    290.38169   -1501.1583    468.45552    266.52184    413.47172    39062.633 
  358100    300.11085   -1484.8235    438.27337    296.20458    369.34095    39062.633 
  358200    298.68042   -1509.4362    426.70139    253.61991    90.117491    39062.633 
  358300    307.49508   -1537.6119    461.97381    300.15518   -210.31011    39062.633 
  358400    290.27065   -1542.8142    456.14764    212.06114   -469.58853    39062.633 
  358500    299.33733   -1531.0363    451.16918     259.4267   -657.58006    39062.633 
  358600    308.57782   -1453.0131    452.97981    380.60427   -351.81047    39062.633 
  358700    298.41169   -1455.0111    438.80098    318.94219   -390.45256    39062.633 
  358800    295.56906   -1491.2869    466.42991    297.57689    -437.1152    39062.633 
  358900    301.42102   -1473.1706    454.76507    330.21116   -454.20304    39062.633 
  359000    300.26789    -1506.981    449.94647    286.42286   -76.071383    39062.633 
  359100    303.04957   -1489.3679    461.63111    328.16633   -196.02543    39062.633 
  359200    296.14471   -1498.6874    439.10692    265.42896    390.92041    39062.633 
  359300    310.56409    -1467.916     447.9381    369.54662    516.98131    39062.633 
  359400    296.20219   -1471.6249    436.55417    290.19589    180.88248    39062.633 
  359500    300.02854   -1502.4851    454.60308    294.50449    710.36439    39062.633 
  359600    302.14493   -1473.4011    449.11213     327.5666    236.94693    39062.633 
  359700     299.0371   -1515.9359    465.97947    287.99411   -23.933567    39062.633 
  359800    288.27662   -1499.9728    409.93534    199.76864    24.780719    39062.633 
  359900    297.39619    -1467.948     463.8443    326.50508    316.25666    39062.633 
  360000    308.27235   -1502.8701    469.05838    345.45915   -133.26136    39062.633 
  360100     299.4228   -1477.6641    470.94453    332.95668   -133.89044    39062.633 
  360200    303.04281   -1484.5745    458.63403    329.93247   -26.661234    39062.633 
  360300    299.41422   -1487.0175    475.81038     328.4308    512.78335    39062.633 
  360400     309.7656   -1476.3952    450.42203    359.97886    732.34178    39062.633 
  360500    305.08008   -1465.4718    448.13802    347.65428    381.75804    39062.633 
  360600     309.0096   -1502.0162    453.17339     333.7267    410.63765    39062.633 
  360700    292.96118   -1473.6532    485.00893    322.12146    251.50385    39062.633 
  360800    312.44582   -1478.0131    458.41411    378.34477    434.19812    39062.633 
  360900    302.08948   -1511.6841    454.66809    294.59154    335.52974    39062.633 
  361000    299.55605   -1512.0992    465.27036    293.44366   -9.4498714    39062.633 
  361100     297.4001   -1499.4587    441.54637    272.71396    178.03398    39062.633 
  361200    291.48788   -1511.2076     455.3886    248.35488    333.27619    39062.633 
  361300    299.76986   -1529.7124    467.76755    279.28424    449.04161    39062.633 
  361400    295.54342    -1485.929     486.6912    323.08141      890.254    39062.633 
  361500    293.25797   -1544.7558     450.7398    218.07763    195.22445    39062.633 
  361600    302.30463   -1545.8692    471.41577    278.11672    73.091456    39062.633 
  361700    300.89671   -1522.5223    430.46076    254.20924    235.67093    39062.633 
  361800     305.1053    -1529.398    453.41672    289.11963    326.06962    39062.633 
  361900    297.05144   -1540.6539    452.09277    240.50522   -28.818408    39062.633 
  362000    299.62638   -1496.9447    443.85678     287.4992    0.2314904    39062.633 
  362100    288.41047   -1494.3828    443.70778    239.72994   -352.18197    39062.633 
  362200    314.19367   -1530.4854    454.78939    330.06796   -114.94503    39062.633 
  362300    298.93903   -1464.5336    476.94777    349.92599    412.93446    39062.633 
  362400    310.60097   -1506.4038    460.43109    343.71685    106.45212    39062.633 
  362500      304.662   -1498.6553    451.83765    316.29982    195.80427    39062.633 
  362600    304.18689   -1491.8183    470.79908    339.97256    492.20001    39062.633 
  362700    299.59346   -1458.7746    466.37283    348.03808    329.76462    39062.633 
  362800    289.92303   -1503.5569     473.3877    267.00325     563.2807    39062.633 
  362900    305.47876   -1481.3434    466.43168    351.86013    276.46353    39062.633 
  363000    293.20929   -1439.7026    472.68142    344.85464   -244.37852    39062.633 
  363100     314.1874    -1435.267    466.11266    436.58166    33.387933    39062.633 
  363200    305.43094   -1442.3281      474.551    398.78075    310.58757    39062.633 
  363300    299.03143   -1437.2753    452.13516    352.78505    258.81012    39062.633 
  363400    304.21574   -1463.0148    485.19671    383.30274    936.77552    39062.633 
  363500    302.93315   -1457.6219    461.98534    359.74571    531.37237    39062.633 
  363600    303.60807   -1442.6876    480.75232    396.46669    373.43214    39062.633 
  363700    303.32582   -1483.8865    473.98248    347.23513    523.52695    39062.633 
  363800    297.80193   -1514.6105    458.51898    276.33267    648.26332    39062.633 
  363900    297.22717   -1486.7059    481.05368    324.20034    546.65774    39062.633 
  364000    296.23329   -1487.0293    466.26451    304.64099     795.2604    39062.633 
  364100    301.21947   -1494.6893    457.54253    310.56814    271.63308    39062.633 
  364200    302.42371   -1472.4349    471.33299    352.00099   -94.564033    39062.633 
  364300    298.22807   -1479.7521     475.0166     329.5953    508.83292    39062.633 
  364400    299.24939   -1439.5048    476.40625    375.80183   -50.560914    39062.633 
  364500    294.43537   -1450.3326    501.47447    368.50339   -34.958175    39062.633 
  364600    312.19825   -1477.3194    464.46218    383.97892     100.5057    39062.633 
  364700    294.28025    -1502.655    470.95961    284.97216   -21.034328    39062.633 
  364800    288.88475    -1455.441    481.48555    318.57151   -313.71519    39062.633 
  364900    297.48223   -1465.2704    464.09443    329.81777    214.14757    39062.633 
  365000    307.79967   -1494.4264    480.20488    362.93444    -106.8613    39062.633 
  365100    311.96102    -1449.098     468.7406    415.41737    318.55088    39062.633 
  365200    302.14638    -1497.618    448.71489    302.95896    294.47066    39062.633 
  365300    298.19325   -1484.4609    465.03992    314.75404    272.25162    39062.633 
  365400    310.78268    -1466.275    472.49142    396.71903    102.41323    39062.633 
  365500    306.51153   -1500.1736    455.60611    326.82509     183.7248    39062.633 
  365600    295.31957   -1523.3284    493.63985    291.62903    316.16821    39062.633 
  365700     313.4208   -1473.9343    450.64806    379.01983    623.09019    39062.633 
  365800    296.28886      -1479.1    495.76114    342.31553    167.60342    39062.633 
  365900    288.84112   -1480.5107    454.24913     266.0702   -529.12506    39062.633 
  366000    296.91601   -1463.0211    454.05962    319.49891   -176.86265    39062.633 
  366100    298.00668    -1445.818    478.98249    366.50476    56.954674    39062.633 
  366200    297.94948   -1473.5571    457.53745    317.06472    69.570574    39062.633 
  366300    316.06057   -1433.1059    502.75724    483.76823    70.500833    39062.633 
  366400     298.4788   -1465.9534    449.35681    318.85607    147.41019    39062.633 
  366500    303.01976     -1422.81    450.77936    383.73913    128.00009    39062.633 
  366600    305.95373   -1456.8675    468.50718    380.53661    58.813236    39062.633 
  366700    302.90594   -1487.3401    440.85502    308.77541   -232.63111    39062.633 
  366800    287.81847   -1461.0907    480.51559    307.18113   -165.08876    39062.633 
  366900    298.83975   -1490.5248    465.97945    312.52224    88.123204    39062.633 
  367000    313.50484   -1483.1332    454.98251    374.53135    33.351915    39062.633 
  367100    304.41428   -1517.1573    491.50531     336.3571    398.98462    39062.633 
  367200    296.21691   -1497.4882    432.54647    260.39069   -198.26865    39062.633 
  367300    294.27716   -1467.2707     487.9395    337.32243    20.715983    39062.633 
  367400    301.72169   -1444.8418    470.49994    375.62005    139.46691    39062.633 
  367500    288.57787   -1445.5784    462.47558    308.05115    334.98487    39062.633 
  367600    295.34125    -1482.922    486.11609    324.60871    309.23933    39062.633 
  367700    301.72881   -1476.3715    476.76508    350.38738    317.86133    39062.633 
  367800    296.51258   -1467.9599    464.49221    323.18767    374.19911    39062.633 
  367900    291.90284   -1448.0184     467.6629    325.67501    409.33155    39062.633 
  368000    297.10727   -1470.3941    470.27474    329.19673    200.25719    39062.633 
  368100    299.99717   -1487.5588    494.60001    349.28727    476.56096    39062.633 
  368200    290.70317   -1473.4106    454.51739     281.7697    171.75539    39062.633 
  368300    292.29319   -1466.3837    474.80085    316.19408    37.942951    39062.633 
  368400    300.86408   -1507.0064    460.24788    299.36632    260.30998    39062.633 
  368500    299.82709   -1481.9358    459.95104    319.50036    105.02454    39062.633 
  368600    294.60201   -1489.1409    465.81032    294.77648    152.79095    39062.633 
  368700    305.42567   -1526.7457    465.73831    305.52689   -27.947609    39062.633 
  368800    306.26167   -1498.1982    467.97636    340.05284   -166.13615    39062.633 
  368900    302.31395   -1479.1817    478.38693      351.817   -489.64107    39062.633 
  369000    297.88373   -1482.3909    455.96712    306.36633   -336.52556    39062.633 
  369100    309.99469    -1485.424    455.59157    357.14452    402.10662    39062.633 
  369200    297.09452   -1535.9209    464.90519     258.2434    627.46765    39062.633 
  369300    303.35745   -1498.4224    450.75076    309.60905    431.67972    39062.633 
  369400    304.95913   -1498.2555    471.20112    337.39257    364.13162    39062.633 
  369500    294.58519   -1454.4414    483.71072    347.30112   -100.13167    39062.633 
  369600    309.43709   -1434.2082    469.69175    419.96569    22.452395    39062.633 
  369700    295.01374   -1506.7855    452.37762    265.54143   -520.29101    39062.633 
  369800    291.84422   -1487.9922    503.88083    321.65682   -358.44784    39062.633 
  369900    298.02366   -1518.4174    460.47441    275.47319   -421.68508    39062.633 
  370000    305.63102   -1525.0761    452.96506    295.34199    104.92226    39062.633 
  370100    304.33449   -1510.2658    482.78334    334.16965   -136.55253    39062.633 
  370200     292.3198   -1488.6128    472.20015    291.48337   -123.30505    39062.633 
  370300     305.5192   -1508.4093    478.51551    337.05889   -418.46995    39062.633 
  370400    297.93218   -1527.8872    468.83871    273.95847   -533.03489    39062.633 
  370500    305.83505   -1495.2318    432.85777    305.99187   -539.06403    39062.633 
  370600    306.80885   -1507.1323    483.36815    348.95872    10.656025    39062.633 
  370700    299.25751   -1502.0654    480.95889    317.83016    150.71842    39062.633 
  370800    303.13482   -1524.1049     458.8755    291.05516     333.6473    39062.633 
  370900    299.21256    -1539.344    445.97717    245.36871    608.59326    39062.633 
  371000    301.62964    -1484.842    483.63367    348.34176    637.43637    39062.633 
  371100    308.68528     -1464.52    465.36142    381.95981    38.618641    39062.633 
  371200    291.09762   -1500.4967    470.36547     272.2965   -77.019893    39062.633 
  371300    282.76354   -1495.4907    453.65804    223.30677    181.66483    39062.633 
  371400    292.36211   -1477.2055    491.36517    322.24504       80.705    39062.633 
  371500    292.33745   -1491.6378    495.50456    311.84175     143.3539    39062.633 
  371600    302.22236   -1527.7856    480.07957    304.49605    282.81333    39062.633 
  371700    288.90815   -1511.8916     467.1321    247.87221   -76.130004    39062.633 
  371800    302.34922   -1510.9676    465.48566    307.28765     491.8909    39062.633 
  371900    298.03517   -1552.1963    467.26897    248.54034   -144.23426    39062.633 
  372000    299.52396   -1498.1451    463.55125    305.53498    30.086856    39062.633 
  372100    304.75297   -1536.0082    448.24758    275.76392    77.996989    39062.633 
  372200    300.80316   -1548.1108    437.97492    235.71637   -401.73314    39062.633 
  372300    300.96737   -1537.9591    479.37755    288.00539    440.35514    39062.633 
  372400    301.10259   -1570.2134    450.71213    227.69075    223.65191    39062.633 
  372500    294.46974   -1530.7831    486.65729    273.38946    507.11323    39062.633 
  372600    295.32648   -1531.1764    449.83135    240.00347    320.18667    39062.633 
  372700    302.81288   -1520.3186     451.8564    286.38191     544.2114    39062.633 
  372800    300.60618   -1511.0326    484.44991    318.38829    439.48221    39062.633 
  372900     296.0982   -1506.3607    485.15263    303.59324    293.65306    39062.633 
  373000    305.68909   -1467.8302    460.12944    360.01208   -73.030731    39062.633 
  373100    295.53831   -1501.1906    443.89246    264.99819    178.93736    39062.633 
  373200    296.95658   -1479.6224    485.25096    334.27046   -174.72965    39062.633 
  373300    296.63782   -1478.7171    468.49948    316.99809   -55.410454    39062.633 
  373400    302.51465   -1474.2024    488.59713    367.90456    224.24972    39062.633 
  373500    293.72876   -1466.5958     474.1726    321.77682   -50.527696    39062.633 
  373600    288.64291   -1518.3806    476.09378    249.15812    -501.6031    39062.633 
  373700    302.64155   -1483.2927    461.00118    331.78601    408.51118    39062.633 
  373800    311.53638   -1503.9891    460.25406     350.1397    134.63042    39062.633 
  373900    298.82792   -1453.3535    476.81248    360.47357    91.249128    39062.633 
  374000    286.08314   -1476.7764    470.47244    273.68806    49.225294    39062.633 
  374100    307.34308   -1480.4018    464.91644    359.62781   -169.69308    39062.633 
  374200    298.76556   -1488.2844    483.64257    332.09377    207.19369    39062.633 
  374300    305.50029   -1449.9266    459.31821    376.25977    123.73773    39062.633 
  374400    282.66595   -1489.7119    474.19588    249.18684   -161.10961    39062.633 
  374500     301.4551   -1472.6374    476.45749    352.58923   -125.26346    39062.633 
  374600    301.06986   -1489.9158    463.10642    320.23609   -564.59083    39062.633 
  374700    304.35418   -1456.5683    476.18861    381.36054   -197.05928    39062.633 
  374800    284.25567   -1491.0263    495.64659    276.43579   -640.80458    39062.633 
  374900    294.09393    -1492.659    464.84142    288.01624   -564.14339    39062.633 
  375000    296.91049    -1425.065    479.14199    382.51268   -209.35641    39062.633 
  375100    303.04562   -1446.9838     482.5979    391.49957   -122.49875    39062.633 
  375200    309.32987   -1489.5374    439.31949     333.7845    258.87029    39062.633 
  375300    303.42309   -1491.0456     489.1168    355.64556    691.13298    39062.633 
  375400    299.60825   -1464.0257    487.64839    364.12864    414.54166    39062.633 
  375500    305.91586   -1500.7009    453.20318    321.22978   -76.503523    39062.633 
  375600    299.48485   -1487.5201    464.56569    316.99952      -64.343    39062.633 
  375700    299.89282   -1455.4153    481.82455    368.18846   -354.90018    39062.633 
  375800    284.71695   -1482.1511    479.90572    271.63402   -258.68494    39062.633 
  375900     304.2329   -1454.0608    478.87291     386.0097    -192.5662    39062.633 
  376000    296.26598   -1465.6319    456.39501    316.31514    -440.6578    39062.633 
  376100    289.94186   -1471.9098    482.43441     307.7813   -662.05524    39062.633 
  376200    305.95372   -1466.0924    459.14468     361.9491   -905.90965    39062.633 
  376300      289.228   -1486.3947    457.42622    265.09419   -831.03363    39062.633 
  376400    301.64338   -1484.1368    467.04129    332.51612   -103.87912    39062.633 
  376500    288.46666   -1511.5538     474.8813    253.98381    34.801654    39062.633 
  376600    315.80074   -1510.8042    465.22367    367.37383    423.97534    39062.633 
  376700     300.0196   -1440.9333    476.88312    378.29626    20.687945    39062.633 
  376800    306.18619   -1459.0007    488.63394    399.57027   -17.390943    39062.633 
  376900    292.32307   -1489.2407    509.24679    327.91675    696.95399    39062.633 
  377000     297.0116   -1440.0117    463.95061    352.82702    127.79205    39062.633 
  377100    298.66114   -1446.5692    504.27848    393.97768   -28.055572    39062.633 
  377200    292.53876   -1489.2146    454.11797    273.77909    364.49608    39062.633 
  377300    299.99862   -1475.7859    479.87063    346.33731   -369.03972    39062.633 
  377400    296.06486   -1502.8463    484.90105    306.70694    148.68116    39062.633 
  377500    292.38449   -1514.7424    453.19137    246.63443   -83.204835    39062.633 
  377600    300.95041   -1515.7042    450.41456    281.22142    270.27148    39062.633 
  377700     293.9353   -1546.4867    500.10713    268.74456    643.99053    39062.633 
  377800    289.71192   -1538.0295    446.14037    204.33874    391.65925    39062.633 
  377900    306.24396   -1547.8561    439.40008    261.73949    253.26353    39062.633 
  378000    302.51354   -1555.4684    463.12042    261.15689    370.20892    39062.633 
  378100     303.1983    -1548.432    446.04269    254.17925    429.19916    39062.633 
  378200    311.95887   -1531.2983    454.51591    318.98271    89.349528    39062.633 
  378300    291.16608   -1535.6673    443.82768    210.89447   -113.12161    39062.633 
  378400    306.48429   -1491.4562    480.30257     360.1171   -278.75941    39062.633 
  378500    303.91512    -1483.953    461.13989    336.96271   -73.596999    39062.633 
  378600     304.1876   -1499.4645    467.34752    328.87787   -50.717438    39062.633 
  378700    301.92363   -1512.0635    457.13264    295.93456    105.02987    39062.633 
  378800     295.7126   -1480.8111    454.33471    296.59967   -538.84429    39062.633 
  378900    310.33863    -1508.256    474.23742    354.49722    265.87939    39062.633 
  379000    304.82238   -1553.5745    489.70247    299.96297   -3.8625445    39062.633 
  379100    297.89882   -1495.9259    433.51704    270.44879    205.77412    39062.633 
  379200    305.98945   -1502.1938    476.59149    343.45445    222.33609    39062.633 
  379300    297.84561     -1469.91    443.16915    305.87882   -202.62555    39062.633 
  379400    290.96078   -1465.7201    463.54651    299.64197    236.39411    39062.633 
  379500    312.15594   -1538.8777    471.54673    329.31589    228.62621    39062.633 
  379600     293.9639   -1528.7371    438.73535    225.25031   -461.17476    39062.633 
  379700     294.4438   -1519.4888    440.13486    238.04525   -407.15406    39062.633 
  379800    288.89065   -1505.0326    458.29087     245.8116   -399.77028    39062.633 
  379900    309.98258   -1494.9444    431.13892    323.11732   -393.53701    39062.633 
  380000    301.84485   -1478.6881     464.4913    336.31616    -74.40319    39062.633 
  380100    289.62222   -1491.5596    462.27452    266.54149    370.71361    39062.633 
  380200    302.55734   -1491.3269    481.91812    344.29202    679.36083    39062.633 
  380300    303.36568   -1457.8453     463.9524    363.42461    598.02454    39062.633 
  380400    294.84487   -1473.6954    449.96479    295.46307    626.70769    39062.633 
  380500    292.98329   -1481.5693    462.68623     291.9815    214.87309    39062.633 
  380600    302.43912   -1476.0462    448.60354    325.72925    177.03119    39062.633 
  380700     306.6265   -1481.6754    485.96807    376.19971    142.29284    39062.633 
  380800    297.26968   -1511.9661    458.34457    276.42124   -112.19084    39062.633 
  380900     291.4673   -1481.5163     469.4343    291.99983    263.61018    39062.633 
  381000    299.30296   -1506.0945    452.48221    285.52778    119.32343    39062.633 
  381100    307.07997   -1528.2427    463.48289    309.17615   -768.04196    39062.633 
  381200    306.43497   -1537.6584     445.3204    278.71211   -179.34606    39062.633 
  381300    305.63131   -1531.5515    449.79932    285.70217   -415.41004    39062.633 
  381400    295.31714   -1488.6888     454.9833    287.60122    -630.8676    39062.633 
  381500    299.68892    -1496.093    473.55125    318.32518   -246.69454    39062.633 
  381600    294.65077   -1435.9872    484.71123    367.04929    -409.1592    39062.633 
  381700    293.68403   -1471.0571    457.55173    300.49449   -132.62347    39062.633 
  381800    295.37322   -1447.0384    476.14022    350.65951   -110.61497    39062.633 
  381900    305.89306   -1427.0104     466.2569     407.8719   -487.33095    39062.633 
  382000    293.74783   -1453.2215    457.53143    318.59521   -711.36513    39062.633 
  382100    291.36592   -1474.1201     474.9855    304.49355   -515.15994    39062.633 
  382200    304.61143   -1489.9179    487.93048    360.90381   -463.39207    39062.633 
  382300    306.92469    -1443.428    453.89501    383.70814   -235.28484    39062.633 
  382400    297.49814   -1485.7262    469.17533    314.51408   -738.03354    39062.633 
  382500    291.28789   -1461.7393    475.60356    317.14335   -209.01042    39062.633 
  382600    300.10492    -1488.164    478.62842    333.19259     -492.056    39062.633 
  382700    301.73899   -1473.9809    444.26081    320.31928    -454.6118    39062.633 
  382800    301.09984   -1491.1751    481.17305    337.17763    148.40633    39062.633 
  382900    310.57065   -1502.5395    444.71683    331.73123    873.21896    39062.633 
  383000    298.24895    -1458.557    495.88602     371.7532    355.25609    39062.633 
  383100    307.33212   -1514.5962    460.76205    321.22995    291.87963    39062.633 
  383200    299.21272   -1488.8759    479.44834    329.30874    -437.5547    39062.633 
  383300    303.32428   -1496.4371    486.61129    347.30644   -72.277482    39062.633 
  383400    292.69953    -1471.119      454.065    292.54105   -76.013633    39062.633 
  383500    316.13931   -1451.5914    475.04765    437.92539   -257.95818    39062.633 
  383600    305.78822   -1442.4596    451.07938    376.77614   -135.77624    39062.633 
  383700    294.48369   -1448.9542    485.99878    354.62232   -195.45995    39062.633 
  383800    284.84356   -1491.2609    465.17065    248.35561   -278.30836    39062.633 
  383900    298.48271   -1476.1028    479.82291    339.19026    92.419247    39062.633 
  384000    302.48814    -1451.947    459.47585    360.92008   -245.14719    39062.633 
  384100    304.32268    -1464.917    450.14946    346.83171   -324.16766    39062.633 
  384200    298.34049   -1488.1455    454.35951    301.04785     133.9867    39062.633 
  384300    298.77431   -1500.6399     447.5698     283.7047    467.64366    39062.633 
  384400    305.96342   -1475.0464    453.78989     347.6838    431.81174    39062.633 
  384500    296.97463   -1474.2399    459.31372     313.7965   -160.74016    39062.633 
  384600    299.93056   -1499.9946    456.21976     298.1732    78.782272    39062.633 
  384700    305.08354   -1522.0944    472.26049    315.16957    97.384036    39062.633 
  384800    289.05231   -1435.5325    473.81219    331.55637   -36.324445    39062.633 
  384900    301.23299   -1469.0133    455.38232    334.14444    117.49859    39062.633 
  385000    293.62181   -1448.6072    470.79554     335.9098    101.53764    39062.633 
  385100    305.04472   -1471.8869    463.22962    356.17259    102.36854    39062.633 
  385200    289.02644   -1481.3666    463.26529    275.05956   -84.094798    39062.633 
  385300    301.69724   -1490.7018    449.45306     308.6038    -631.8132    39062.633 
  385400    305.30052     -1489.71    458.39522    334.65957   -531.70233    39062.633 
  385500    305.43852   -1486.6224    464.13759    344.10695   -733.82824    39062.633 
  385600    300.70183   -1475.2696    468.87819    339.00743   -785.52604    39062.633 
  385700    297.05626     -1462.17    447.26797    314.18587   -465.83266    39062.633 
  385800    297.24288   -1466.3971    481.19666    344.72237   -154.57378    39062.633 
  385900    298.02471   -1480.9809    450.29613    302.73617   -354.56978    39062.633 
  386000    298.95872   -1528.7031    453.75738    262.65416   -483.35386    39062.633 
  386100     304.5181   -1508.4267    462.50065    316.54755   -547.02209    39062.633 
  386200    293.71955   -1498.0612    461.92919    278.02678    291.26329    39062.633 
  386300    301.90346   -1456.8376    486.63661    380.57421    13.734171    39062.633 
  386400    299.22036   -1463.8738    465.63828    340.53497    457.93171    39062.633 
  386500    297.35022   -1482.5924    469.00046    316.81114    128.13365    39062.633 
  386600    304.46821   -1442.9702    471.98244    391.26264    137.58738    39062.633 
  386700     295.8475   -1417.1217    460.98162     367.5396   -11.173717    39062.633 
  386800    308.20117   -1430.5686    487.46835    435.85215   -413.55954    39062.633 
  386900     291.2084   -1417.6158    461.97979    347.28746   -607.79035    39062.633 
  387000    303.95225   -1463.3608    437.71912    334.30022   -59.035381    39062.633 
  387100    294.82223   -1494.7212    466.69039    291.06159    452.26939    39062.633 
  387200    306.39727   -1515.3102    478.73042    334.30159     1016.894    39062.633 
  387300    306.55935   -1493.8047    471.20497    349.00684     1158.068    39062.633 
  387400    301.14987   -1428.0992    475.65673    394.96102    551.03455    39062.633 
  387500     294.2517   -1458.1165    492.27422    350.69745    341.02799    39062.633 
  387600    300.86738    -1476.442    470.54573    340.24331    179.82322    39062.633 
  387700     301.4308   -1470.0724    464.50999    343.09804    42.438026    39062.633 
  387800    299.81832   -1449.4185     477.4103    369.43775     3.422451    39062.633 
  387900    293.04524   -1456.1393    480.06551    335.06805    644.07862    39062.633 
  388000    289.03296   -1442.0071    474.61648    325.79944     450.3625    39062.633 
  388100    311.93512   -1430.4273    455.69322    420.92473     481.4612    39062.633 
  388200    306.95276   -1446.5023    479.41242    406.27695    221.94633    39062.633 
  388300    291.85702   -1469.0079    457.50203    294.31958      272.961    39062.633 
  388400    307.71619   -1442.4819    471.32068     405.6213    182.46731    39062.633 
  388500    293.68849   -1477.0826     467.3456    304.28288   -381.26443    39062.633 
  388600    292.13452    -1475.173    453.65941    285.55349   -69.860238    39062.633 
  388700    297.72913   -1473.5807    447.36954     305.8873   -300.26845    39062.633 
  388800    309.51632   -1469.9356    438.61702    353.51803   -523.73457    39062.633 
  388900    307.54477   -1508.7209    454.46472    321.75935   -763.95095    39062.633 
  389000    292.32735   -1489.8218    450.61104    268.71905   -376.17328    39062.633 
  389100    289.14052   -1498.3529    461.01828    256.33672    166.32328    39062.633 
  389200    309.63301   -1501.3758    450.83904    334.82194   -166.95236    39062.633 
  389300    306.01211   -1477.7214    471.70115    363.13792   -43.518858    39062.633 
  389400    297.61597   -1456.9426    472.92565    347.57519   -481.85102    39062.633 
  389500    299.89936   -1485.6909    443.25839    299.37595   -313.75329    39062.633 
  389600    297.54064   -1446.4549     477.2309    362.03111    93.670336    39062.633 
  389700    292.22139   -1474.2675    464.05884    297.24705    119.23039    39062.633 
  389800    293.65495   -1484.6352    458.90766    288.14227    128.15002    39062.633 
  389900    307.51804   -1448.7072    462.51422    389.70299   -263.77206    39062.633 
  390000    293.96967   -1496.7218    454.36976    272.92582   -601.07109    39062.633 
  390100    296.79403   -1459.5712    472.40582    340.74925   -359.95953    39062.633 
  390200    287.04076   -1446.5661    462.55935    300.26982   -328.09309    39062.633 
  390300    304.46732   -1450.1093    453.35131    365.48849   -541.86942    39062.633 
  390400    289.08218   -1460.7533    454.66735    287.32435   -105.34161    39062.633 
  390500    284.28544   -1452.2807    473.11783    292.78587   -239.14079    39062.633 
  390600     299.1085   -1448.0082    467.84243     358.1043   -340.79856    39062.633 
  390700    301.89211   -1462.4237    463.32176    351.62255   -224.22235    39062.633 
  390800    299.77872   -1479.9245    460.44875    321.79292    602.87555    39062.633 
  390900    307.35886   -1499.7194     463.8502    339.31453    285.41794    39062.633 
  391000    303.26117   -1466.5126    505.14173    395.47902     210.3187    39062.633 
  391100    295.12561   -1471.1961    455.23808    304.49181    126.95018    39062.633 
  391200    302.20642   -1470.4199     449.5683    331.27916    399.30066    39062.633 
  391300    299.28009   -1464.3865    490.62807    365.27928    198.38943    39062.633 
  391400    297.39643    -1469.503    467.15089    328.25778    428.96473    39062.633 
  391500    292.38717   -1454.4514    455.82558    309.57168    384.43508    39062.633 
  391600    302.95494   -1447.5155    447.30694    355.27116   -367.47145    39062.633 
  391700    303.34665   -1425.8528    469.65408    401.03368   -144.75866    39062.633 
  391800    306.80256   -1469.6845    450.26215    353.27236   -102.87446    39062.633 
  391900    302.75949   -1471.8653    470.48644     353.2264    44.167458    39062.633 
  392000    293.04913   -1472.6968    454.13301    292.59541   -243.66999    39062.633 
  392100    308.43108   -1465.6167    456.56329    370.92769   -121.18914    39062.633 
  392200     313.1803   -1503.3593    462.04935    359.92005    169.60226    39062.633 
  392300    299.38761   -1471.9704    458.44494    325.99333   -167.68479    39062.633 
  392400    295.69522   -1474.6278    440.05376    288.42427     -76.4341    39062.633 
  392500    300.41947   -1499.7657     441.1498     285.5196    327.42709    39062.633 
  392600    305.76065   -1460.2943    470.84218    378.58094    325.98775    39062.633 
  392700    299.26135   -1449.1998    462.21812    351.97225    468.38146    39062.633 
  392800    292.58696   -1396.9029    457.29993     369.4884   -314.44344    39062.633 
  392900    295.28958   -1462.3141    497.45076    356.32012    144.29296    39062.633 
  393000    303.47081   -1420.7647    511.44241    448.46559   -312.69153    39062.633 
  393100    284.36327   -1456.6689    477.78162    293.40969    107.93153    39062.633 
  393200    303.76534   -1455.0383    478.98936    383.05668    -307.0276    39062.633 
  393300     314.8463   -1483.5176    446.02268    371.18911   -358.65297    39062.633 
  393400    305.66468    -1461.675    464.89711    370.82579    24.635625    39062.633 
  393500    294.73306    -1486.325    474.85882    307.22727   -485.66089    39062.633 
  393600    303.95762   -1482.7577    470.44321    347.65143     13.64741    39062.633 
  393700    294.37898   -1504.3438    465.32052    278.08598     23.32851    39062.633 
  393800    304.80423   -1540.5751    458.66649    281.84519   -98.574854    39062.633 
  393900    296.90793   -1511.5488    479.08684    295.96225    118.30384    39062.633 
  394000    287.81679   -1498.2835    484.52045    273.98569   -348.59761    39062.633 
  394100    297.71129   -1500.9547    479.30565    310.36958   -220.15909    39062.633 
  394200    306.55427   -1486.7223    475.20795    360.06956   -330.49068    39062.633 
  394300    305.48401   -1520.8903    455.20412    301.10917   -198.89668    39062.633 
  394400    296.66392   -1474.1254    466.99866    320.20577     204.5977    39062.633 
  394500    308.10422   -1501.3887    475.11663     352.2466   -130.99227    39062.633 
  394600    302.70682   -1493.5884    477.82867    338.60987   -109.34694    39062.633 
  394700    302.81049   -1494.5573    484.06016    344.33634   -575.67523    39062.633 
  394800    308.19747   -1480.3593    458.39213    356.96866   -291.04262    39062.633 
  394900    298.85509   -1533.9793    479.62563    282.78255   -316.89807    39062.633 
  395000    289.47773   -1511.8576    462.97339    246.29588   -482.17917    39062.633 
  395100    295.83163   -1470.4088    477.47246    330.67227   -744.87849    39062.633 
  395200    301.88794   -1514.2415    483.20548    319.66971   -223.02142    39062.633 
  395300      298.108   -1481.6169    468.38758    320.56427   -152.73014    39062.633 
  395400    305.89963   -1518.2763     480.9532    331.33183   -149.06676    39062.633 
  395500    303.91151   -1502.3257    448.60933    306.04325   -299.94858    39062.633 
  395600    300.54729   -1483.0729    500.02282    361.65737    402.09563    39062.633 
  395700    299.56807    -1497.801    467.08643     309.6117    155.10139    39062.633 
  395800    299.53558   -1475.3538    478.77015     343.5972   -121.91403    39062.633 
  395900    289.40243    -1524.342    470.58019    241.08139    319.68104    39062.633 
  396000    295.15255   -1512.1378    435.54594    243.97846    7.8999663    39062.633 
  396100     300.3489   -1537.4266    492.45225    298.84549   -120.97151    39062.633 
  396200    295.64602   -1515.6919    452.99981     260.0861    -135.6706    39062.633 
  396300    310.38767   -1489.3023     463.9672    363.40011   -321.42285    39062.633 
  396400    296.68896   -1495.0311    465.59176    298.00519   -673.88523    39062.633 
  396500    292.63457    -1498.445    441.76105     252.6205   -21.837432    39062.633 
  396600    309.70291   -1514.9618    472.68454    343.39422     59.43046    39062.633 
  396700     291.5487   -1521.3855    453.61553    236.67601    369.03335    39062.633 
  396800    291.48266   -1493.1804    498.17114    309.14129   -191.09881    39062.633 
  396900    298.54449    -1492.679    478.48041    321.54791   -50.682849    39062.633 
  397000    306.50789   -1444.8134     486.7747    413.33762   -756.93486    39062.633 
  397100    299.93044   -1484.2891    462.44633    320.10475   -875.02571    39062.633 
  397200    299.43904   -1503.2771    472.81882    309.29061   -808.90595    39062.633 
  397300    310.24243   -1490.8973    451.03959    348.22772   -737.35185    39062.633 
  397400    297.57334   -1480.0103    476.55233     327.9435     22.00231    39062.633 
  397500    301.94017   -1509.4323    489.14283    330.65001    -487.0693    39062.633 
  397600    293.85975   -1492.4706    453.59613    275.91155   -34.993471    39062.633 
  397700    296.47317   -1492.7175    531.43563    365.19719   -316.81524    39062.633 
  397800    295.01382   -1460.9488    472.58782     331.5887    333.07597    39062.633 
  397900    309.14799   -1467.3127    447.74184    363.61776    178.10591    39062.633 
  398000    298.15801   -1453.8183    479.80987    360.00889   -533.18201    39062.633 
  398100    295.89134   -1545.1438    463.39742    242.12945   -425.70877    39062.633 
  398200    301.62868   -1498.7967    483.62552     334.3746   -472.87784    39062.633 
  398300    297.80709   -1492.8138    477.79017    317.42369   -141.30963    39062.633 
  398400    291.74435   -1517.7366     480.0996    267.68442    288.25072    39062.633 
  398500    291.45496   -1527.3897    472.73345    249.37031   -419.01731    39062.633 
  398600    306.18311   -1510.0965    457.80568     317.6324   -376.98055    39062.633 
  398700    306.37067   -1477.5547    460.50437    353.71209   -612.05726    39062.633 
  398800    290.41459   -1515.0158    475.87777    260.23367   -583.85546    39062.633 
  398900    297.79231   -1490.7181      486.797    328.46002   -207.03618    39062.633 
  399000    303.70202    -1471.112    459.91952    347.62983    88.119665    39062.633 
  399100    295.00333    -1451.411    507.56537    376.05708   -150.26945    39062.633 
  399200    292.89867   -1430.7919    488.63091    368.32506   -329.72334    39062.633 
  399300    288.87832   -1479.7267    491.77126    304.54278   -160.20851    39062.633 
  399400    306.41122   -1437.8431    490.49251    423.59322   -129.20955    39062.633 
  399500    299.18938     -1450.17    472.29834    360.76026   -785.84181    39062.633 
  399600    303.55519   -1471.5084    501.39862    388.05563   -31.342314    39062.633 
  399700    286.07428   -1498.1263    487.57575    269.40178    -935.5532    39062.633 
  399800    300.90794   -1492.5171    461.31223    315.11614   -602.35043    39062.633 
  399900    289.35527   -1514.1681    468.64011    249.10414   -495.86475    39062.633 
  400000    307.30246   -1481.2163    446.86192    340.57702   -600.96593    39062.633 
  400100     296.9929   -1475.5405    497.20916    350.47308    127.69609    39062.633 
  400200    297.95191   -1486.8118    471.91814     318.2015    42.198032    39062.633 
  400300    304.25467   -1483.4066    514.82745    392.71583    189.32515    39062.633 
  400400    297.50827   -1471.6513    476.68151    336.14051   -5.5150467    39062.633 
  400500    315.36069   -1477.6042     453.1365    386.51776    138.04829    39062.633 
  400600    296.67115   -1449.6867    497.07878    374.75688   -84.874697    39062.633 
  400700    299.66397   -1440.5201    508.20056    408.43574   -103.52853    39062.633 
  400800    304.76817   -1488.8888    463.10176    337.80551    326.90117    39062.633 
  400900    308.55524   -1501.8446    459.88276     338.5748    442.98121    39062.633 
  401000    294.65853   -1504.3948    459.95443    273.91959    464.01642    39062.633 
  401100    297.37159     -1521.87    501.10842    309.73715    630.22472    39062.633 
  401200    303.92351   -1504.9457    470.93834    325.80596     568.7652    39062.633 
  401300    292.56177   -1492.8118     472.5421      288.709    186.99525    39062.633 
  401400    304.41278   -1487.8584    476.03875    350.18282    29.409179    39062.633 
  401500    297.10577   -1480.8188    473.57645    322.06704    276.73454    39062.633 
  401600    297.83851   -1465.1363    472.13193    339.58342   -240.49859    39062.633 
  401700    304.39341   -1495.0498    505.27882    372.14474   -417.60583    39062.633 
  401800     311.3293   -1518.0579    447.51014    322.40052   -331.01762    39062.633 
  401900    300.51082   -1511.3646    479.77635    312.95599   -298.30778    39062.633 
  402000    309.75408    -1526.839    453.19709    312.25852   -1102.6395    39062.633 
  402100       302.77    -1505.926    478.60524    327.33153   -455.59898    39062.633 
  402200    311.30443   -1487.4937     479.1819    384.52519   -376.60619    39062.633 
  402300    303.11841   -1491.6733    468.15359    332.69141   -168.30711    39062.633 
  402400    303.37926   -1524.8417    487.27948    319.81596    73.118779    39062.633 
  402500    298.17655   -1463.9426    504.23441    374.39216    137.81208    39062.633 
  402600    301.60542   -1499.3988    479.07699     329.1199    348.83041    39062.633 
  402700    298.38561    -1505.158    490.96222    320.83986    236.47112    39062.633 
  402800    305.58993   -1490.7464     489.0297    365.55251    366.38726    39062.633 
  402900    295.61658   -1499.8843    483.50889    306.27107    207.14516    39062.633 
  403000    305.99947   -1503.9992    467.11282    332.21525    329.23022    39062.633 
  403100    309.60017   -1495.5729    514.59089    404.22982    677.13961    39062.633 
  403200     298.4599   -1468.2034    480.73911    347.90376    291.27065    39062.633 
  403300    309.00294   -1484.0053    524.10555    422.63999    223.28122    39062.633 
  403400    304.78946   -1471.5838    494.15291     386.2568   -173.66722    39062.633 
  403500    301.03444    -1487.297    475.43306    335.02314   -189.70081    39062.633 
  403600    305.53809   -1487.2769    476.40036     356.1607    95.063234    39062.633 
  403700    296.26595   -1493.6202    486.96799    318.89968   -130.92633    39062.633 
  403800    301.43529   -1525.4902    483.95823    307.14851    507.13517    39062.633 
  403900    299.38717   -1485.3881    488.44455    342.57335   -28.853155    39062.633 
  404000     307.8583   -1482.5722     460.9614    355.80752    780.99258    39062.633 
  404100    307.24242   -1485.6217    485.97229    375.01338    874.47185    39062.633 
  404200    307.55051   -1497.1434    502.78487    381.68271    607.87724    39062.633 
  404300    309.21225   -1503.7292    498.00124     377.7482    784.17639    39062.633 
  404400    300.10761   -1476.1263    496.87959    363.49358    446.32021    39062.633 
  404500    302.51961   -1468.9771    486.84216    371.39705    520.20474    39062.633 
  404600    308.16978   -1458.9695    474.51805    394.36052    306.54276    39062.633 
  404700    306.24678   -1457.0483    470.16389    383.32365    196.90314    39062.633 
  404800    294.25218   -1504.7802    458.70922    270.47089   -160.10826    39062.633 
  404900    305.71087   -1434.7171    509.02957    442.12279   -129.35558    39062.633 
  405000    298.79224   -1480.0892    486.97605    343.74179   -367.45018    39062.633 
  405100    307.43851   -1451.5986    478.02506    401.96653   -13.646173    39062.633 
  405200    308.26077   -1494.2354     482.4513    367.43499   -68.350307    39062.633 
  405300    299.81455   -1513.9651    468.59366    296.05762    819.36982    39062.633 
  405400    295.44958   -1483.5422    499.14237    337.49945    873.40601    39062.633 
  405500     300.5205    -1503.728    474.70935    315.56896    883.64271    39062.633 
  405600    291.54754   -1480.4679     475.2948    299.26765    490.35388    39062.633 
  405700     302.3642   -1469.3309    496.25407    379.75988    470.59914    39062.633 
  405800    288.21957   -1491.4171    508.10013    306.23384    78.681034    39062.633 
  405900    303.76681   -1474.7195    480.99713     365.3898    285.15001    39062.633 
  406000    307.45272   -1497.2991    499.84074    378.14533    915.28109    39062.633 
  406100    299.35683   -1512.0317     487.4313    314.78072    162.58115    39062.633 
  406200    300.93259   -1497.4103    459.93679    308.95783   -437.01887    39062.633 
  406300    294.75493   -1490.7649    477.10437    305.13076   -2.7506045    39062.633 
  406400    300.77746    -1468.495    495.39644     372.6387    169.56725    39062.633 
  406500    299.64116   -1485.8882    443.28292    298.04799    250.73472    39062.633 
  406600    305.16506   -1511.3605    486.28732    340.29511   -93.088712    39062.633 
  406700     292.8558   -1515.6545    509.74237    304.38207    360.06635    39062.633 
  406800    300.89099   -1502.8804    494.72279    338.08758     494.0591    39062.633 
  406900    292.77949   -1512.0333    487.92251    285.84197    73.249152    39062.633 
  407000       291.19    -1477.438    486.53163    311.93479    199.08881    39062.633 
  407100    311.72707   -1519.0637    476.13166     351.7959    102.15406    39062.633 
  407200    306.62575   -1510.2732    497.72115    359.35159   -2.6622371    39062.633 
  407300    306.76776   -1537.8615    464.71007    299.38761   -411.49233    39062.633 
  407400    294.01764    -1482.625    480.46144    313.32897   -290.60046    39062.633 
  407500     310.5146   -1538.4146    449.03818    299.92666    24.032201    39062.633 
  407600    290.65736   -1513.4982    469.31701     256.2768    263.41801    39062.633 
  407700    302.00071   -1525.2969    466.95322    292.86661    35.856888    39062.633 
  407800    300.62877   -1503.6506    487.68956    329.11093   -258.73653    39062.633 
  407900    310.87455   -1475.6038     477.4831    392.79297    642.84473    39062.633 
  408000    297.47885   -1493.9881    490.45856    327.44916   -169.14456    39062.633 
  408100     309.0992   -1517.7164    460.47322    325.72724   -129.03913    39062.633 
  408200    292.88575    -1525.391    461.01179    246.04903    -803.0351    39062.633 
  408300     303.0855   -1533.3176     458.1075     280.8538   -307.42627    39062.633 
  408400    307.21741   -1536.6768    466.31256    304.18663   -451.33729    39062.633 
  408500    302.01758    -1528.444    449.13275    271.97456    219.39884    39062.633 
  408600    292.22513   -1526.0029    492.18381    273.65333   -516.30465    39062.633 
  408700    297.30054   -1480.4416    483.66139    333.40066   -280.49072    39062.633 
  408800     301.2528   -1485.1133    434.43198    297.18274    124.01263    39062.633 
  408900    301.71779   -1487.3189     525.7309    388.35656    315.49689    39062.633 
  409000    292.02241   -1468.1104    471.77699    310.23206   -207.53153    39062.633 
  409100    304.62342   -1499.5828    479.96152    343.32364    134.92442    39062.633 
  409200     297.8254   -1522.0673    467.66451    278.12639    565.11594    39062.633 
  409300    294.99422   -1535.1039    469.34761     254.1056   -124.11583    39062.633 
  409400    308.45326   -1499.2475     460.7863    341.61906    123.01341    39062.633 
  409500    305.54285   -1528.8227    456.13779    294.37363   -409.10504    39062.633 
  409600    307.00548   -1523.9544    475.46722    325.11551   -613.45957    39062.633 
  409700     296.6798   -1499.8618     458.5866    286.12838   -165.28341    39062.633 
  409800    297.62482   -1489.5202    466.73203     308.8436     260.5806    39062.633 
  409900    296.68702    -1462.523     511.9087    376.82152    40.386738    39062.633 
  410000    301.11333   -1433.9379    470.58942    383.89152   -22.778525    39062.633 
  410100    301.34825   -1423.1284    497.16173    422.32443     153.3012    39062.633 
  410200    292.50954   -1441.2056    494.77198     362.3114   -514.26227    39062.633 
  410300      293.391   -1471.9968     439.8931    280.58512   -642.34389    39062.633 
  410400    307.26733   -1481.8756    491.47789    384.37654   -674.43679    39062.633 
  410500    295.69076   -1452.2249    468.79607     339.5495   -1307.5598    39062.633 
  410600    299.07935   -1443.8386    484.52907    378.83011   -1188.5449    39062.633 
  410700    288.73302   -1437.6946    477.39458    331.54807   -1109.2404    39062.633 
  410800    297.97348    -1447.316    465.79131    351.66704    -990.6031    39062.633 
  410900    305.68634   -1467.1854    470.90205    371.41721   -174.82708    39062.633 
  411000    295.34098   -1498.7833    470.94496    293.57505   -387.25399    39062.633 
  411100    289.99001   -1432.4535     472.8339    337.85253   -198.96931    39062.633 
  411200    303.49343   -1493.8633    484.00771    348.03352     292.0564    39062.633 
  411300    303.71214   -1467.3398    443.31327    334.84105     243.6143    39062.633 
  411400    290.44862   -1486.2175    491.21884    304.52534   -132.97552    39062.633 
  411500    306.84829   -1457.8595    483.08764    398.12745   -157.41199    39062.633 
  411600    296.60729    -1487.851    472.88646    312.11455   -500.45635    39062.633 
  411700    302.94787   -1525.8072    500.54548    330.18635    28.020285    39062.633 
  411800    303.85633   -1500.2109    509.39398     368.6958    62.092847    39062.633 
  411900    302.41081   -1522.1489    480.94313    311.83944     698.3094    39062.633 
  412000    295.36717   -1490.0198     483.3584    314.86919    270.22056    39062.633 
  412100    310.20162   -1503.3121    470.66546    355.25619    378.93035    39062.633 
  412200    294.44396    -1487.297    467.34668    297.44969    71.263216    39062.633 
  412300    304.39882    -1493.001    484.21109    353.15009    324.03095    39062.633 
  412400    293.72303   -1510.9401    468.49374    271.72802    446.10485    39062.633 
  412500     306.8186   -1508.2671    483.79121    348.29067    579.12957    39062.633 
  412600    280.33364   -1488.3994    481.74027    247.60845    154.07786    39062.633 
  412700    291.89654   -1487.1994    475.70039    294.50324   -599.52233    39062.633 
  412800    301.55536   -1524.9982    461.23914    285.45868   -383.13752    39062.633 
  412900    290.51734   -1526.5178    464.04737    237.36102   -516.03792    39062.633 
  413000    298.50781   -1531.2905    445.39051    249.68242   -519.45519    39062.633 
  413100    293.50313   -1503.0591    452.05541    262.18678   -470.69707    39062.633 
  413200    284.58697   -1518.6981    475.60415    230.20387   -550.25714    39062.633 
  413300    309.76751   -1492.5228    446.05268    339.49038   -377.86604    39062.633 
  413400    302.97704   -1490.4347    446.69471    311.83866   -128.21367    39062.633 
  413500    298.68574     -1490.59    465.24092    311.02939   -325.97248    39062.633 
  413600    304.70051   -1429.8959    493.69628    427.09009    92.236456    39062.633 
  413700    303.40824   -1488.3686    450.82843    319.96773    196.80039    39062.633 
  413800    293.63524    -1514.189    470.71388    270.30646   -47.160218    39062.633 
  413900     304.4761   -1480.3604    483.51479    365.44013    141.67039    39062.633 
  414000    310.04494   -1496.7018    451.42014    341.92011    163.11138    39062.633 
  414100    311.68651   -1467.2947    458.98291     386.2347   -191.52764    39062.633 
  414200    300.48325   -1483.6506    471.69215    332.46248    47.376463    39062.633 
  414300    293.11918    -1499.357    469.50725    281.62284   -613.44649    39062.633 
  414400    299.45959   -1501.4844    469.96119    308.31766    -442.7618    39062.633 
  414500    295.05009   -1452.9473    456.34664    323.51127   -342.64817    39062.633 
  414600    306.93152   -1464.8545    466.58117    374.99847   -585.24592    39062.633 
  414700     298.2004   -1459.3516    466.08289    340.93829   -86.287296    39062.633 
  414800    302.18195    -1474.782    477.04554    354.28479   -134.71232    39062.633 
  414900    299.76413   -1466.6538    483.04693    357.59652   -145.55506    39062.633 
  415000    279.98175   -1475.6212    441.39187    218.46391   -686.29408    39062.633 
  415100    293.83585   -1483.2308    470.65379    302.10213    177.50572    39062.633 
  415200    291.44099   -1500.3835    456.87696    260.45754    64.839343    39062.633 
  415300     294.2485    -1487.281    487.85567    317.10007   -20.988782    39062.633 
  415400    294.63368   -1455.9951    467.33853    329.59222    71.422147    39062.633 
  415500    294.20583   -1477.3227    465.19278    304.20462   -67.966362    39062.633 
  415600    296.40427   -1481.1054    485.45976    330.52507     207.5287    39062.633 
  415700    297.24093   -1475.6772     448.3192    302.55613    125.47112    39062.633 
  415800    303.88572   -1506.7956    456.43955    309.28816    446.21939    39062.633 
  415900    285.33102   -1505.0949    454.80171    226.33374   -7.9704986    39062.633 
  416000    296.51371   -1519.4029    466.84091    274.09848    204.10597    39062.633 
  416100    281.68321    -1484.599    464.59766    240.30452    215.65566    39062.633 
  416200     307.9375     -1430.94    468.72154    415.55427   -106.93022    39062.633 
  416300     299.8551   -1423.8674    493.18965    410.93272   -159.17017    39062.633 
  416400    310.14464   -1434.5883    467.95257    421.01218   -364.13043    39062.633 
  416500    304.99591   -1404.0635    469.43474    429.98273   -99.691125    39062.633 
  416600    304.61175   -1451.6479    480.65155    391.89629   -188.48126    39062.633 
  416700    300.24709   -1459.0889    464.28176    348.55714   -519.20519    39062.633 
  416800    298.61091   -1460.0698    471.47545    347.44935   -459.04744    39062.633 
  416900    297.80002    -1424.821    454.23378     361.8284   -17.241462    39062.633 
  417000    287.86254   -1429.2317    505.70601    364.42773    49.385694    39062.633 
  417100    297.78645   -1461.9406    501.32053    371.73487    296.61953    39062.633 
  417200    292.85261   -1434.9835    490.65422    365.95061    511.75654    39062.633 
  417300    302.53569   -1501.8883    484.80125    336.51691    121.82235    39062.633 
  417400    300.50286   -1457.7315    463.27317    350.05032    58.458686    39062.633 
  417500    294.93673    -1481.303    484.36853    322.67023    317.08949    39062.633 
  417600    297.60233    -1454.259    487.74238     365.0145    156.46511    39062.633 
  417700     305.2326   -1456.1491     493.5093    403.03063    75.834219    39062.633 
  417800    303.99109   -1470.7647    488.14171    377.49272       31.346    39062.633 
  417900    293.93934   -1471.4076    482.05975    325.79437    232.03874    39062.633 
  418000    303.72503    -1518.346     464.7912    305.37048   -52.046293    39062.633 
  418100     293.7706   -1492.9837    459.98314    281.38662   -715.48857    39062.633 
  418200    296.57202   -1463.3941    441.05774    304.58494   -408.59251    39062.633 
  418300    302.08354   -1455.3368     510.6468     406.8909   -333.49819    39062.633 
  418400    314.76479   -1474.0345    452.95171    387.23657   -516.96261    39062.633 
  418500    306.18348   -1455.3595    490.72952    405.29484    191.67488    39062.633 
  418600     301.7506   -1463.9239     454.0323    340.19971   -236.01168    39062.633 
  418700    297.78068   -1442.8204     471.7673      361.276   -100.65294    39062.633 
  418800    311.75173   -1449.3644    482.30827     427.7822    48.797375    39062.633 
  418900    304.54454   -1485.9111    462.47229    339.15307    -462.4689    39062.633 
  419000    307.64611   -1490.0827    468.43906    354.82533    124.44587    39062.633 
  419100    305.55122   -1513.4321    479.86138     333.5253    81.495237    39062.633 
  419200      308.269   -1502.6518    481.81358    358.41764    815.64545    39062.633 
  419300    289.54407    -1541.435    496.74213    250.78401    275.82478    39062.633 
  419400     307.7698   -1515.3937    478.05292    339.68165    940.74771    39062.633 
  419500    313.03675   -1527.9106    457.24015    329.91726    645.11545    39062.633 
  419600    298.65179   -1526.9231    464.63996    273.94346    28.605708    39062.633 
  419700    291.97635   -1509.5597    488.04433    284.84401    386.72771    39062.633 
  419800    301.45897    -1474.541    475.68217    349.92766    644.31097    39062.633 
  419900    297.80286   -1494.8235    472.05124    309.65612   -172.33896    39062.633 
  420000    294.03747   -1489.5464    485.37914    311.41395    35.317818    39062.633 
  420100    295.05216   -1525.7028    469.52375    263.94204     368.1986    39062.633 
  420200    304.79757   -1502.8558    509.88406    370.75229    698.43962    39062.633 
  420300    300.61599   -1516.3813    472.94224     301.5758   -109.38241    39062.633 
  420400    299.51109   -1509.8676    430.98242    261.18608    266.17014    39062.633 
  420500    291.67662   -1484.0039    498.81148    319.82592    466.56554    39062.633 
  420600    294.99886   -1496.7261    495.39583    318.55237    581.82233    39062.633 
  420700    303.68185   -1495.8842    456.64425    319.49215    876.88015    39062.633 
  420800     306.0869   -1480.1839    473.98119    363.29006    605.29202    39062.633 
  420900    297.29328   -1482.6832     475.9402     323.4054    290.53749    39062.633 
  421000    304.37721   -1490.9847    483.41477    354.27334    357.93179    39062.633 
  421100    301.34116   -1529.6257     459.3391    277.97278    521.12718    39062.633 
  421200    306.47578   -1433.8802    486.04763    423.40016    761.03414    39062.633 
  421300    307.39935    -1484.735     460.1729     350.8028    132.53417    39062.633 
  421400    306.52942   -1486.7471    467.59712    352.32268   -346.78527    39062.633 
  421500    298.78832   -1481.2739    470.00096    325.56456   -406.83556    39062.633 
  421600     304.0173   -1485.4182    474.01939    348.83411     -314.236    39062.633 
  421700     300.7834   -1485.4925    488.63763    348.90893   -379.11392    39062.633 
  421800    306.47627    -1472.816    477.06411    375.48292   -320.02747    39062.633 
  421900     307.4382   -1478.2906     458.3136    355.56169   -492.23568    39062.633 
  422000    288.50318    -1484.804    450.92609    256.94181   -347.11067    39062.633 
  422100    295.63279   -1494.3887    472.53911     300.8694   -95.780877    39062.633 
  422200    296.99883   -1485.9775    442.55986    285.41334    157.46653    39062.633 
  422300    294.06752   -1506.2257    475.14292    284.63294   -307.99713    39062.633 
  422400    281.75172   -1520.6816    441.86674    181.79758    73.525064    39062.633 
  422500    303.61316   -1538.9443    439.77454    259.25497    218.45798    39062.633 
  422600    300.25445   -1526.3385    453.15402    270.21271    517.65547    39062.633 
  422700    297.92329    -1525.519     465.8707    273.31888    150.40176    39062.633 
  422800     296.4506   -1550.0209    455.33755    231.69468    551.36417    39062.633 
  422900    294.71863   -1554.1511    484.54824    249.02602    110.83334    39062.633 
  423000    304.26674   -1513.5017    475.41463    323.26191    96.313044    39062.633 
  423100    301.64458   -1494.3411     479.1472    334.42306   -271.00588    39062.633 
  423200    300.69613   -1508.7751    438.11722    274.71549   -542.29375    39062.633 
  423300    297.44582   -1517.8411     484.4273    297.41711   -174.85354    39062.633 
  423400    298.41734   -1497.4125    471.04351    308.80863   -406.11666    39062.633 
  423500    294.85299   -1519.2851    451.76145    251.70639   -482.60443    39062.633 
  423600    301.62096   -1525.8822    434.68634    258.31542    11.631338    39062.633 
  423700    301.37921   -1524.2461    487.48517    311.66873    75.635343    39062.633 
  423800    309.48804   -1488.6274    452.52237    348.60503   -60.502404    39062.633 
  423900     294.7213   -1454.0469    461.24021    325.83415   -76.496534    39062.633 
  424000    299.50728   -1537.2393    443.16456    245.97953     383.6827    39062.633 
  424100    297.86284   -1498.7845    448.79145    282.70363    -91.18586    39062.633 
  424200    295.28788   -1527.6369    456.31903    249.85797   -379.32044    39062.633 
  424300    296.07875   -1509.2531    461.83086    277.29207     43.88457    39062.633 
  424400    310.19051   -1517.7627    448.19096    318.28131   -230.30731    39062.633 
  424500      299.346   -1511.9747    472.98643    300.34437    129.26641    39062.633 
  424600    306.85174   -1534.6333    464.17877    302.46026    521.94069    39062.633 
  424700    294.97525   -1558.7959     470.2389    231.22003    428.93112    39062.633 
  424800    299.15127   -1527.9616    451.88826     262.3881   -254.02396    39062.633 
  424900    307.88571   -1532.9974    419.06086    263.60448   -286.70753    39062.633 
  425000    299.73583   -1533.3391    462.42422    270.16191    338.76411    39062.633 
  425100    303.92035   -1570.8171    447.17983    236.16188   -62.955809    39062.633 
  425200    301.04072   -1537.4735     469.9627    279.40434    706.56929    39062.633 
  425300     295.5067   -1526.0971    463.64857    259.70633     116.1185    39062.633 
  425400    299.23439   -1492.0515    480.25942    327.04119    170.30566    39062.633 
  425500    301.44516   -1489.2475    482.87511    342.35227     116.2295    39062.633 
  425600     291.8463    -1505.999    446.21787    245.99636    487.07446    39062.633 
  425700    309.31047   -1554.5737    445.46967    274.81157    456.25661    39062.633 
  425800    309.40517    -1525.428    452.88999    311.80137    295.60355    39062.633 
  425900    302.01711   -1516.9675    465.89469    300.21086    223.12754    39062.633 
  426000    300.62075   -1541.2601    463.75136    267.52742    376.51738    39062.633 
  426100    295.78408   -1492.8462    439.84132    270.39106   -30.358376    39062.633 
  426200    287.09698   -1470.4587    475.18883     289.2583   -388.33736    39062.633 
  426300    297.66516   -1488.9721    473.83693    316.67708    -14.98458    39062.633 
  426400    311.61108   -1450.0202    465.87794    410.06679   -522.72749    39062.633 
  426500    293.22105   -1461.8172    458.49623     308.6074   -698.22332    39062.633 
  426600    297.63821    -1492.814    460.02666    298.90429    109.56451    39062.633 
  426700     290.0334   -1521.3204    464.24063    240.58645    86.751483    39062.633 
  426800    300.93649   -1492.8717    478.46173    332.03886    483.05093    39062.633 
  426900     301.4876   -1512.3446     426.1971    262.76707     587.3657    39062.633 
  427000    296.49738   -1536.2964    487.43559    277.72658    482.07616    39062.633 
  427100    311.53822   -1511.8433    447.45103    329.49071    195.55891    39062.633 
  427200    283.94222   -1505.0627     459.4356    224.78598    59.757443    39062.633 
  427300    295.31372   -1503.1325    516.16483     334.3238    349.35806    39062.633 
  427400    291.11685   -1507.0945    463.39775    258.81713    249.69142    39062.633 
  427500    309.67179   -1467.3712    461.58929    379.75032   -232.13444    39062.633 
  427600    297.11476   -1484.0571    480.26894    325.56151    298.62905    39062.633 
  427700    296.09847   -1479.5856    460.48474    305.70166    529.13371    39062.633 
  427800    297.54597   -1481.0286    449.12584    299.37619    47.743682    39062.633 
  427900    308.17332   -1494.9887    451.94288    335.78198     155.9664    39062.633 
  428000    293.08138   -1522.6136    441.17725    229.86718    15.587446    39062.633 
  428100    301.76623   -1509.9085    475.01596    315.26868    224.39955    39062.633 
  428200    298.11108   -1521.8309    479.13598    291.11245    532.98834    39062.633 
  428300    298.14381   -1512.9529    475.65288    296.65378   -2.0828136    39062.633 
  428400    292.92692   -1484.0442    485.08714    311.65532   -14.288555    39062.633 
  428500    305.76872   -1478.1771    458.76247    348.65457   -65.985189    39062.633 
  428600     303.2578   -1433.5229     471.7357    395.04762   -164.37413    39062.633 
  428700    306.31708   -1445.4057    482.03722    407.15411   -347.66858    39062.633 
  428800      298.835   -1475.7899     487.1761    348.43252   -620.20224    39062.633 
  428900    299.99898   -1487.2998    450.09664    305.05101   -1056.8002    39062.633 
  429000    293.41407   -1487.8485    453.88567    278.82916    -1350.086    39062.633 
  429100    294.86021   -1466.4729    470.30108    323.09048   -945.45187    39062.633 
  429200    297.77582   -1504.5028    440.90211    268.70669   -521.46273    39062.633 
  429300    299.32343   -1541.9204    474.93672    272.24798     60.50395    39062.633 
  429400    303.60194   -1536.3702     458.9583    280.96265    636.04215    39062.633 
  429500    291.04227   -1567.6921    466.31688    200.80489   -138.17914    39062.633 
  429600    304.95816   -1608.2955    487.24128    243.38833    296.93916    39062.633 
  429700    303.02167   -1567.3034    461.67963     250.1546     238.8086    39062.633 
  429800     308.2688   -1517.8507    436.49251    297.89678      449.757    39062.633 
  429900    287.75334   -1558.4262    455.89002    184.92863    216.29816    39062.633 
  430000    308.96963   -1541.5664    464.94109    305.76536   -16.697335    39062.633 
  430100    294.65918    -1542.564    474.79137    250.59024    289.30651    39062.633 
  430200     304.9735    -1520.789    496.80913    340.53135    140.00221    39062.633 
  430300    302.27202   -1531.0615    456.86006    278.22281   -142.59038    39062.633 
  430400     301.2258   -1520.8582    466.85677    293.74183    461.29238    39062.633 
  430500    304.12395     -1557.63     464.1107    267.19087    244.92425    39062.633 
  430600    290.15102   -1525.1644    454.77893    227.80704    375.67172    39062.633 
  430700    301.75868   -1520.6462    451.29569     280.7769    95.447494    39062.633 
  430800    303.44901   -1503.7106    471.29535    325.27508   -410.38251    39062.633 
  430900    301.42573   -1545.1528    482.57062    286.05561   -613.58149    39062.633 
  431000      301.905   -1543.8724    469.64567    276.55537   -471.93177    39062.633 
  431100    288.65332   -1503.8189    499.54289     287.2155    134.35939    39062.633 
  431200    300.47814   -1568.4728    492.66695    268.59218    70.872351    39062.633 
  431300    309.84359   -1540.2914    473.35292    319.36241   -350.47231    39062.633 
  431400    302.27398   -1574.0269    478.23096    256.63701   -172.99368    39062.633 
  431500     310.1469   -1538.1091    459.73126    309.28019    32.770581    39062.633 
  431600    287.09872   -1575.5472    495.69279    204.68147    332.23394    39062.633 
  431700    292.45042   -1543.9991    473.35093    237.83232    122.39103    39062.633 
  431800    311.46463   -1545.0753    445.03374    293.51221   -35.573111    39062.633 
  431900     293.1119   -1563.9221    470.76328    218.28124   -28.825519    39062.633 
  432000    303.47623   -1562.5017    458.95105    254.26143   -6.9242443    39062.633 
  432100    298.11075   -1538.0445    486.90939    282.67079   -10.021851    39062.633 
  432200     301.7512   -1516.8547    464.74991    297.98915    451.84773    39062.633 
  432300    304.84132   -1527.0853    475.31695    312.15147    307.33574    39062.633 
  432400    305.09932   -1518.0508    493.59706    340.62042    543.74692    39062.633 
  432500    295.73364   -1516.6218    465.91346    272.46192   -194.35483    39062.633 
  432600    290.72849   -1501.6132    484.79891    283.96197   -11.861131    39062.633 
  432700    302.79852   -1504.2952     492.9946    343.47927   -94.348317    39062.633 
  432800    295.75073   -1519.8094    483.91885    287.35617    -445.8228    39062.633 
  432900    310.59861   -1518.1618    455.82847    327.34572    4.7056906    39062.633 
  433000    297.03774   -1495.2758    465.19698    298.92622   -328.70391    39062.633 
  433100    301.40038   -1512.0545    476.84794    313.31776   -50.852485    39062.633 
  433200    302.29885   -1528.8455    440.27503    263.97385   -218.81414    39062.633 
  433300    313.56155   -1549.3635    458.33675     311.9091    365.86838    39062.633 
  433400    295.88688   -1544.2276    476.54721    256.17548   -155.50912    39062.633 
  433500    312.83516   -1501.8829    465.67031    363.47319   -64.160907    39062.633 
  433600    303.21493   -1494.8761    483.09564    344.86248   -86.060296    39062.633 
  433700    292.52995   -1510.3966    482.20356    280.64323    132.72322    39062.633 
  433800     293.6989   -1517.8563    448.32841    244.53854    327.12394    39062.633 
  433900    308.10644   -1512.1002    487.39348     353.8218    363.76132    39062.633 
  434000    294.67694    -1499.281    504.32674    323.48809    811.92008    39062.633 
  434100    307.32617   -1513.1171    459.50756    321.42797    512.24147    39062.633 
  434200    307.31913   -1495.2655    471.87975    351.62022    427.39882    39062.633 
  434300    305.65073   -1505.9579     465.9037    327.48703    177.33597    39062.633 
  434400    293.81233   -1529.0395    458.80424     244.3387   -40.423826    39062.633 
  434500     307.8222   -1505.0547    469.83039    342.03253   -305.39325    39062.633 
  434600    298.39219    -1501.885    472.41483    305.59497   -324.20866    39062.633 
  434700    303.81045    -1483.989    449.75624    325.07477    158.61342    39062.633 
  434800    296.18115   -1530.1445    486.73155    281.75958   -298.23503    39062.633 
  434900    312.31018   -1492.0199    489.37558    394.69257    15.374674    39062.633 
  435000    298.92254   -1520.4543    452.58923    269.57286    279.05183    39062.633 
  435100     304.9829   -1475.8929    492.66027    381.32058    459.33465    39062.633 
  435200    292.69469   -1472.1243    472.86307    310.31217    1.9896945    39062.633 
  435300    300.06361   -1497.5038    472.63174    317.67129   -106.36485    39062.633 
  435400    297.90232   -1462.0288    469.43719    340.28165    49.997762    39062.633 
  435500    301.84276   -1455.7846    471.54625    366.26533    234.44093    39062.633 
  435600    299.57857   -1500.9089    468.56063    308.02499    2.8952007    39062.633 
  435700     310.1362   -1493.3125    478.74722    373.04486   -88.145208    39062.633 
  435800    296.00796   -1476.6103    470.81217    318.59949   -521.63472    39062.633 
  435900    300.59856    -1474.495    470.64818       341.09   -357.59782    39062.633 
  436000    300.81432   -1474.8296    509.89345    380.96606   -329.73178    39062.633 
  436100    298.46566   -1432.3229    487.02297    390.09393   -449.46239    39062.633 
  436200    293.64446   -1482.2498    452.28546    283.85849   -431.66703    39062.633 
  436300    302.31612   -1474.0734    509.80575    388.35395    585.55189    39062.633 
  436400    301.47641   -1481.5846    493.43992    360.71981    332.96481    39062.633 
  436500    296.18582    -1524.153    463.43817     264.4785    477.97618    39062.633 
  436600    307.32867   -1496.2055    477.31849    356.16159    479.33452    39062.633 
  436700     298.3618   -1506.9231    458.50616     286.5122    352.11364    39062.633 
  436800    305.10766   -1518.3976    482.11581    328.82968    968.87946    39062.633 
  436900    295.24321   -1528.4136    495.08657     287.6489    959.93073    39062.633 
  437000    301.48803   -1550.6663    488.82133    287.07159    802.50888    39062.633 
  437100    303.62832   -1483.6807    478.89451    353.70634    320.08563    39062.633 
  437200     291.1292   -1460.0679    460.38921    302.89032    161.71103    39062.633 
  437300    301.70704   -1529.4081    462.39074    282.87903   -154.11423    39062.633 
  437400    309.33786   -1523.7858    461.20891    321.46128   -155.50685    39062.633 
  437500    297.42882   -1533.5725    451.72068      248.903   -291.63451    39062.633 
  437600    294.73976   -1533.1341    465.24196    250.83129   -364.34067    39062.633 
  437700    304.15566   -1513.0503    455.03488    302.83661   -412.14805    39062.633 
  437800    302.95564   -1518.4033    488.50006    325.57963     579.1015    39062.633 
  437900    296.75078    -1550.082    451.42938    229.06849     348.6937    39062.633 
  438000    289.14616   -1511.1165    454.39826    236.97832   -13.284086    39062.633 
  438100    294.20864   -1506.3206    501.74183     311.7683    511.67723    39062.633 
  438200    310.33794    -1529.137    484.61795    343.99363    746.62242    39062.633 
  438300    298.89188   -1496.5703    480.06017    320.79074    102.71805    39062.633 
  438400     300.1778   -1512.5987    458.02428    288.47985   -174.61248    39062.633 
  438500    302.98232   -1524.2066    475.16382    306.55943   -152.57073    39062.633 
  438600    303.00839   -1521.0282    479.79486    314.48556   -193.34902    39062.633 
  438700    289.60393   -1537.2748    453.27608    211.74595   -272.34101    39062.633 
  438800    308.09204   -1544.3882    458.21763    292.29361   -519.02735    39062.633 
  438900    297.42187   -1542.1252    456.27812    244.87664   -379.65661    39062.633 
  439000    307.98302   -1571.8706     454.4693    260.57507   -755.29343    39062.633 
  439100    298.22207   -1518.3402    456.80768    272.77141   -75.230135    39062.633 
  439200    312.21093   -1504.0061    462.33658    355.22332    401.05357    39062.633 
  439300    297.52458    -1529.527    464.12905    265.78533    322.85488    39062.633 
  439400    300.68243    -1486.016    461.32867    320.62474    337.57953    39062.633 
  439500    307.05104   -1511.6632    465.96259    328.10591    375.16729    39062.633 
  439600     295.2854   -1486.4297    441.41559    276.15062     497.1554    39062.633 
  439700    300.32306   -1498.7354    491.76427    336.73303     593.3576    39062.633 
  439800    307.33197   -1449.8154    482.65632    407.90441    1179.1824    39062.633 
  439900     292.7246   -1423.7951    467.60065    353.51278    551.07876    39062.633 
  440000    308.31213   -1450.8804    488.37803     416.9465    369.96941    39062.633 
  440100    301.98548   -1431.4527    487.75477    407.44429   -287.57524    39062.633 
  440200    301.17444   -1412.0891    490.68591    426.11025   -145.65844    39062.633 
  440300    305.55634   -1432.3842    469.63545    404.37017   -256.91967    39062.633 
  440400    307.82311   -1457.8773    468.69813    388.08176   -370.95872    39062.633 
  440500    302.83819   -1424.9113    457.56008    387.60615   -214.30897    39062.633 
  440600    297.36158    -1461.674    496.33009    365.11002   -218.50058    39062.633 
  440700    301.99769   -1484.5307    441.16567    307.83179   -279.95174    39062.633 
  440800     305.2409   -1493.7367    499.98604    371.95697    489.89695    39062.633 
  440900    294.52931   -1529.1432    462.04762    250.68625     71.83055    39062.633 
  441000    304.99743   -1529.7362    466.87363     301.7557    165.53268    39062.633 
  441100    303.73765   -1519.1336      463.332    303.18015    430.72573    39062.633 
  441200    296.64859   -1552.6843    451.32772    225.90726    116.47796    39062.633 
  441300    298.61295   -1542.4107    440.72502    234.36714    370.91429    39062.633 
  441400    302.53434   -1544.8024    470.39908    279.19458     17.52435    39062.633 
  441500    296.84692   -1524.6114    449.78887    253.32875    445.98299    39062.633 
  441600    299.88395   -1455.1997    483.84538    370.38525    644.89626    39062.633 
  441700    312.14647   -1495.3102    470.26523    371.55949    672.38501    39062.633 
  441800    291.82485   -1530.0281    482.27064    257.92403    553.02197    39062.633 
  441900    299.76791   -1499.1436     469.5405    311.61721    3.1158738    39062.633 
  442000    300.66056   -1493.0248    468.86899    321.05839    432.71149    39062.633 
  442100    306.26242   -1498.6031    462.38582    334.06081    263.60249    39062.633 
  442200    306.18733   -1508.0028    465.70295    327.64229    215.27475    39062.633 
  442300    313.69288   -1491.1443    474.70601    387.08514    609.73828    39062.633 
  442400    294.12057   -1497.6964    473.49873    291.75536    261.81711    39062.633 
  442500    293.50738   -1505.3075      471.886    279.78799    382.41356    39062.633 
  442600    296.15322   -1478.1092    474.21184    321.15013    248.73733    39062.633 
  442700    309.04968   -1480.3771    495.22098    397.59274    980.06521    39062.633 
  442800    308.96558   -1503.0753    470.34384    349.64108    512.37392    39062.633 
  442900    299.13836     -1490.61    478.11169    325.90533    24.534333    39062.633 
  443000    308.18253   -1518.5426    471.23733    331.56375    15.064935    39062.633 
  443100    296.17372   -1513.1771    489.47123    301.43338    198.67486    39062.633 
  443200    299.41503   -1489.3505    457.36772    307.65875   -464.62848    39062.633 
  443300    301.23586   -1507.2219    486.53509     327.1015    -121.9358    39062.633 
  443400     298.7058   -1465.5669    468.02426     338.9256    -103.1732    39062.633 
  443500    309.31133   -1444.9042    488.89956    427.91486   -74.478252    39062.633 
  443600    292.72091   -1521.8139    481.09823    268.97499   -98.275849    39062.633 
  443700    304.57291    -1504.673     459.1615    317.20739    -356.8527    39062.633 
  443800    305.60363    -1493.874    452.02587    325.48233   -6.8752948    39062.633 
  443900    302.23275   -1516.5498    479.53966    315.23838   -87.444233    39062.633 
  444000    300.71048   -1518.0411    447.37374    274.77022   -169.85498    39062.633 
  444100    294.23862   -1527.0392    457.91366    247.35564   -445.37281    39062.633 
  444200    300.90878   -1520.0766    454.09661    280.34482   -144.55332    39062.633 
  444300    304.86743   -1558.8229    460.04055    265.25426   -311.45324    39062.633 
  444400    298.35126   -1546.2125    458.51514    247.18468   -681.39546    39062.633 
  444500    298.37275   -1515.8525    487.45818     306.5838   -304.25406    39062.633 
  444600    313.95688   -1541.7394    455.23955    318.20478      -280.26    39062.633 
  444700    296.51163   -1489.5735    490.31712    327.39476   -287.71244    39062.633 
  444800    295.07783   -1495.1692    459.23215    284.29897   -335.57555    39062.633 
  444900    295.08896   -1490.7433    476.80721    306.34969    7.6381841    39062.633 
  445000    287.34009    -1492.136    476.21454    269.69434    188.39716    39062.633 
  445100    302.52311   -1474.7808    485.65829    364.42512   -74.928794    39062.633 
  445200    298.19933   -1497.5739    458.34575    294.97403    289.12015    39062.633 
  445300    307.66957   -1488.6534    474.37058    362.29113   -247.02167    39062.633 
  445400    303.99411   -1505.6009    463.98843    318.51673    -598.8195    39062.633 
  445500    293.70872   -1506.9291    450.79542     257.9767   -522.60493    39062.633 
  445600     303.8826   -1528.9593    474.26444    304.93542   -372.39218    39062.633 
  445700    295.76414   -1541.8834    454.40004    235.82334   -318.03506    39062.633 
  445800    298.06445   -1561.3366    461.28271    233.54486   -252.25753    39062.633 
  445900    296.46558   -1560.3565    477.22218    243.31079    627.48154    39062.633 
  446000    286.89137   -1551.1583    474.71705    207.16696    460.32471    39062.633 
  446100    292.37952   -1557.0132    428.51805    179.66809    288.00218    39062.633 
  446200    302.54237   -1532.4544    468.22362    289.40299    387.51686    39062.633 
  446300    303.85315   -1503.1689     470.3929    326.72256    336.81556    39062.633 
  446400    298.08122   -1508.0776    474.04378    299.63997   -360.79313    39062.633 
  446500    298.73364   -1522.9559    463.15967    276.79662   -287.70363    39062.633 
  446600    289.67278   -1513.0714    465.23473    248.21604     99.49324    39062.633 
  446700    312.23268    -1523.483    461.65364    335.16084   -230.21552    39062.633 
  446800    307.74885   -1589.3214    459.52102    247.12824   -50.429812    39062.633 
  446900    299.76915   -1514.8427    466.88942    293.27263    231.14288    39062.633 
  447000    300.44085    -1514.438    482.39603    312.18927     289.8148    39062.633 
  447100    291.68298   -1504.1686    466.77979    267.65795    123.94483    39062.633 
  447200    316.54461   -1524.8663    458.91329    350.32962    254.20684    39062.633 
  447300    296.34907   -1561.5521    488.61548    252.98721    326.78804    39062.633 
  447400    295.15909   -1515.2719    461.40637    266.73407    301.79199    39062.633 
  447500    300.39486   -1555.0519    461.48998    250.46351   -163.29457    39062.633 
  447600    299.41763   -1550.2966    442.91179    232.26834    -200.1454    39062.633 
  447700    293.78936    -1542.657     465.3925    237.20661   -421.87233    39062.633 
  447800    301.02037   -1542.4581     485.9739    290.33994   -635.34197    39062.633 
  447900    298.47046   -1576.0551    448.82852    208.18876   -922.07074    39062.633 
  448000    291.84124   -1599.8439    457.61714    163.52812   -470.90267    39062.633 
  448100    298.55603   -1572.4639    467.72073      231.055   -1019.4064    39062.633 
  448200    303.56067    -1567.096    469.61255    260.70644   -1203.7361    39062.633 
  448300    298.56885    -1517.339    466.38774    284.90422    -571.7367    39062.633 
  448400    292.71281   -1519.3562    488.78651    279.08476   -586.26228    39062.633 
  448500    297.24462   -1481.7412    466.89443     315.0839   -27.916693    39062.633 
  448600    299.94022   -1477.6397    462.02677    326.37836   -330.73066    39062.633 
  448700    305.84276   -1544.4619    487.94145    311.87998    241.07681    39062.633 
  448800    294.10869   -1536.5469    466.70802    246.06099   -445.92889    39062.633 
  448900    303.42785   -1540.5356    467.05138    284.11145   -336.03029    39062.633 
  449000    294.26795   -1544.5449    457.41142    229.47894   -326.96098    39062.633 
  449100    299.50774   -1495.6674    453.47883    297.86774   -608.76967    39062.633 
  449200    313.82082    -1519.858    450.07359    334.31145   -358.43617    39062.633 
  449300    307.51176   -1520.5696    469.81565    325.11387   -256.30859    39062.633 
  449400    294.22745   -1541.7052    440.06918    214.79528    53.197161    39062.633 
  449500    295.04265   -1506.3349    469.20869     282.9524     902.0358    39062.633 
  449600    299.53478   -1482.3846    487.07615    344.86883    1049.5391    39062.633 
  449700    289.88191   -1527.9723     460.3587    229.37486    873.06608    39062.633 
  449800    303.13168   -1582.4939     479.4215    253.19817    919.16603    39062.633 
  449900    295.54578   -1539.1922    469.10148    252.23899    556.57479    39062.633 
  450000    292.12168   -1514.9864    491.06068    283.08389    137.84747    39062.633 
  450100    297.22364   -1535.3261    445.12378    239.63452   -64.476889    39062.633 
  450200    304.82415   -1485.3889     475.9181    354.37216   -31.985053    39062.633 
  450300    295.87209   -1495.5924    464.31603    292.51333   -110.07987    39062.633 
  450400    301.65721   -1499.4444    477.65843    327.88749   -460.30884    39062.633 
  450500    300.80267   -1531.4903    471.53574    285.89546   -10.534086    39062.633 
  450600    296.30989   -1495.0899    456.96376    287.62236   -6.5358188    39062.633 
  450700    310.76418    -1511.209    470.48561     349.6964    -191.2752    39062.633 
  450800     305.3692   -1496.2474    456.40078    326.43494   -13.270355    39062.633 
  450900    293.65601   -1501.3974    462.33191    274.80902   -61.223285    39062.633 
  451000    303.75546   -1510.3369    455.56282    304.28734   -7.9032563    39062.633 
  451100    295.78971   -1482.1014     502.3409    343.66066   -711.87188    39062.633 
  451200     296.2565   -1464.1892    498.45784    359.77826   -1098.5421    39062.633 
  451300    295.09037   -1523.7445    462.87779    259.42542   -685.59741    39062.633 
  451400    298.15075    -1465.028    484.26426    353.22114   -1000.6088    39062.633 
  451500    309.85783   -1469.3461    471.93727     388.9558   -849.68341    39062.633 
  451600    297.14587   -1490.2241    439.79854     279.0633   -652.69955    39062.633 
  451700    304.24862   -1518.8924    452.63895    295.01446   -735.31932    39062.633 
  451800    296.36665    -1516.853    451.59294    260.74237   -286.93796    39062.633 
  451900    295.14536   -1505.5431    485.50323    300.49831   -290.27692    39062.633 
  452000    303.11462   -1527.7401    472.15046    300.60451    381.63622    39062.633 
  452100    302.95928   -1504.0369    483.54417    335.00649    304.39758    39062.633 
  452200    294.84154     -1512.73    458.08578    264.53455    456.57174    39062.633 
  452300    304.83427   -1526.1645     499.1831    336.90686      340.981    39062.633 
  452400    291.03958   -1495.0555    447.83612    254.94878    640.90137    39062.633 
  452500    303.04222   -1503.5746    469.48013    321.77583   -129.46849    39062.633 
  452600    290.79028   -1489.3616    468.35981    280.05087    -194.4257    39062.633 
  452700    306.75659     -1485.31    456.05954    343.23862    5.4624099    39062.633 
  452800    297.27692   -1532.3206    470.07955    267.83411   -320.83989    39062.633 
  452900    307.73129   -1504.9566    466.42515    338.31867   -474.85493    39062.633 
  453000    301.02908   -1501.6155    474.23561    319.48317    28.197877    39062.633 
  453100    307.03124    -1505.172    461.01259    329.55855   -334.96526    39062.633 
  453200    304.39852    -1487.381    445.30194    319.85953   -130.85488    39062.633 
  453300    295.43731    -1505.526    488.93429    305.25266    -87.06001    39062.633 
  453400    301.47822   -1505.1157    464.14499    307.90188    146.57261    39062.633 
  453500    301.78162   -1497.0477    466.06823    319.25058     166.7007    39062.633 
  453600    302.60943   -1529.8043    457.28773    281.41727     429.8857    39062.633 
  453700     307.2749   -1531.1488    490.62859    334.28791    288.62745    39062.633 
  453800    302.29269   -1519.0354    480.36787    313.84918     239.0541    39062.633 
  453900    306.42505   -1534.1684    470.81606    307.65331    270.97653    39062.633 
  454000    305.16231   -1511.9692    452.65683    306.04357    391.73909    39062.633 
  454100    303.49514   -1496.9142    468.17716    329.15968    366.06053    39062.633 
  454200    288.47493   -1516.0787     473.9471    248.56178    3.8770678    39062.633 
  454300    292.44326   -1514.4847    463.75734    257.72103   -125.48647    39062.633 
  454400    300.84036     -1532.25    469.07223    282.84098    264.17065    39062.633 
  454500    293.13036   -1512.4914    467.43805     266.4693   -15.735988    39062.633 
  454600     295.4076    -1554.733    469.48533    236.46382    352.91421    39062.633 
  454700    301.34893   -1510.9978    478.58053     315.8769    653.21152    39062.633 
  454800    295.53202   -1514.7464      485.592    293.11372    25.952236    39062.633 
  454900    298.17891    -1509.445    464.43519    289.10102   -225.56896    39062.633 
  455000     291.1134   -1501.8938    459.89158    260.49614    225.13629    39062.633 
  455100    295.28691   -1490.1968    486.72838     317.7031    20.452672    39062.633 
  455200    309.00783   -1528.0026    462.06232    316.62124    332.35087    39062.633 
  455300    297.37484   -1535.9224    455.06037    249.65124    263.53008    39062.633 
  455400    300.66577   -1491.6751     463.1775    316.73995    91.613474    39062.633 
  455500    309.09295   -1504.7443    464.96076    343.15883    -382.0086    39062.633 
  455600    306.61495   -1473.5895     500.2217    398.48759   -155.10923    39062.633 
  455700    304.09072   -1462.8775    482.42479    380.10876   -330.43393    39062.633 
  455800    298.35863   -1446.7385     474.2753    362.45179   -280.85203    39062.633 
  455900     301.4989   -1465.4046    498.05087    381.61143    -569.3043    39062.633 
  456000    300.45102   -1446.3465     484.7568    382.68698   -232.00841    39062.633 
  456100    303.97509   -1497.2481    470.61052    333.40648   -417.30992    39062.633 
  456200      303.946   -1515.3943    481.08643      325.606    242.97334    39062.633 
  456300     297.4643   -1461.1909    479.41689    349.13948   -294.29862    39062.633 
  456400    299.12685   -1481.6371    456.02606     312.7411   -297.98999    39062.633 
  456500    304.05554   -1494.3949    466.35688    332.36602    127.74248    39062.633 
  456600    299.97073   -1532.0931     499.8334    309.86806    148.41775    39062.633 
  456700    305.71576   -1553.7406    473.67385    287.76547    404.39999    39062.633 
  456800    301.05183   -1567.0389    462.99715    242.92309    636.46273    39062.633 
  456900    311.75167   -1514.0272    468.29284    349.10366     591.1423    39062.633 
  457000    302.02605   -1515.6831    493.97465    329.61529    590.80344    39062.633 
  457100    307.80009   -1586.3173    468.11228    258.95286    352.07397    39062.633 
  457200     293.3038   -1535.0615    471.15774    248.39487    206.19928    39062.633 
  457300    299.14357   -1550.0483    483.57105    271.94963    522.75277    39062.633 
  457400    299.26117     -1550.01    475.28267    264.22576   -448.85225    39062.633 
  457500    304.36236   -1520.1862    493.53708    335.12769    56.249042    39062.633 
  457600    307.49464   -1499.8642    494.30614    370.23321    46.288224    39062.633 
  457700    298.39392   -1507.0846    461.05398    289.04225    -721.6798    39062.633 
  457800    311.01689   -1508.8385     477.2899    360.00186   -262.99585    39062.633 
  457900    291.75298    -1470.036    461.45154    296.77552   -24.812665    39062.633 
  458000     293.2022   -1464.1682     488.5757     336.2516    224.50399    39062.633 
  458100    290.38669   -1470.9533    487.63506     315.9287   -663.79128    39062.633 
  458200    305.81458   -1490.7475     479.9374    357.46424   -579.03214    39062.633 
  458300    292.18018   -1491.6934    460.96978    276.54774   -729.43687    39062.633 
  458400    299.90906   -1487.3487    470.37708     324.8802   -875.12976    39062.633 
  458500    318.62268   -1520.5483       494.94    399.97194   -234.52402    39062.633 
  458600     307.3719   -1508.9348    469.11897     335.4263   -87.855305    39062.633 
  458700    293.20704   -1518.4565    489.73928    283.14857   -469.93477    39062.633 
  458800    303.08449    -1557.931    474.70402    272.83246   -468.93579    39062.633 
  458900    296.17099   -1552.0412    474.37558    247.46138    -94.46321    39062.633 
  459000    300.58039   -1531.2228    453.65934    267.29209   -306.55219    39062.633 
  459100    303.91082   -1540.0711    500.24512    319.93057    81.832684    39062.633 
  459200    301.43738   -1527.6307     461.3017    282.36085   -155.73295    39062.633 
  459300    305.83828   -1524.0027    470.63075    315.00845   -249.10896    39062.633 
  459400     290.7462   -1547.5076    446.34054    199.68835   -565.22047    39062.633 
  459500    303.81725     -1532.13    468.00113    295.20908    44.457935    39062.633 
  459600    302.61852   -1519.8946    446.90914    280.98912   -4.2614288    39062.633 
  459700     301.3737   -1511.6305    502.22006    338.99454    86.715623    39062.633 
  459800     291.5593   -1532.6362    490.88693    262.74414   -372.78223    39062.633 
  459900    309.53612   -1525.0151    480.23161    340.14173   -255.01185    39062.633 
  460000    303.03612   -1492.0355    476.99191    340.79939    335.31495    39062.633 
  460100    300.98861   -1497.7132    493.11791    342.08675    304.08095    39062.633 
  460200    289.56504   -1527.1709    463.89281    232.29262    101.57373    39062.633 
  460300    304.52042   -1504.2193    496.68915     354.9539    89.894966    39062.633 
  460400     291.1036   -1488.4227    477.41445     291.4463   -250.75224    39062.633 
  460500    302.28503   -1521.6959    465.77614    296.56269   -189.33198    39062.633 
  460600    303.43066   -1529.7425    475.96199    303.82773   -149.19278    39062.633 
  460700    303.01972   -1515.6182    441.42444    281.57585   -274.52442    39062.633 
  460800    290.98847   -1501.7569    457.20772    257.39026    187.72082    39062.633 
  460900    309.02708   -1511.4226    467.40042    338.62552    254.37041    39062.633 
  461000    294.58395   -1458.2146      470.801    330.61269   -92.700149    39062.633 
  461100    300.37424   -1456.7708    483.52034    370.68269    127.95189    39062.633 
  461200    299.17461   -1472.7631    464.52863    330.33133    -189.1138    39062.633 
  461300    295.38154   -1514.7023     492.7473    299.63987    119.56721    39062.633 
  461400     296.9409   -1492.6612    492.61977    328.53033   -63.897044    39062.633 
  461500    306.49134   -1522.3431    473.88679    322.84604   -219.26067    39062.633 
  461600    295.89861   -1503.1714    468.25965    288.99661   -187.44048    39062.633 
  461700    309.53958   -1531.4481      486.254    339.74662   -586.93166    39062.633 
  461800    303.49061    -1534.229    443.88173    267.52911   -73.704646    39062.633 
  461900     299.4727   -1504.4525     484.0789    319.52586   -328.22197    39062.633 
  462000     294.1733   -1487.4364    485.50528    314.25782   -211.67431    39062.633 
  462100    296.54338   -1532.9512     484.7329    278.57492   -298.63781    39062.633 
  462200     293.4789   -1493.2181    491.58876    311.45278     -163.287    39062.633 
  462300    311.09333   -1506.0165    459.81418    345.69023   -205.93492    39062.633 
  462400    308.38644   -1491.4065    503.95677    392.33158   -234.54735    39062.633 
  462500    292.92341   -1494.6854    481.09268    297.00398   -137.13044    39062.633 
  462600    292.63442   -1544.7935     495.8639    260.37411   -57.579509    39062.633 
  462700    296.05555   -1495.3109    479.64585    308.94542    -585.4089    39062.633 
  462800    305.19421    -1503.294    456.15963    318.36427   -570.31674    39062.633 
  462900    292.50633   -1474.9179    484.25099    318.06365    -456.5775    39062.633 
  463000    299.47449   -1501.2738    486.19764    324.83139   -451.60052    39062.633 
  463100    306.07852   -1478.2717    472.92408    364.10768   -139.08249    39062.633 
  463200    300.87527   -1540.9193    460.99317    266.24881    14.553883    39062.633 
  463300    298.54412    -1513.105    488.56164     311.2015    274.70975    39062.633 
  463400    299.95704    -1491.809    476.83784     327.0954    535.68515    39062.633 
  463500    294.04674   -1516.4756    497.71578    296.86284    296.72013    39062.633 
  463600    295.50458   -1522.3261     497.1182    296.93748    104.39243    39062.633 
  463700    306.64902   -1461.0135    489.13887    400.13312   -197.92892    39062.633 
  463800     300.4346   -1510.7844    466.69781    300.11665   -75.626461    39062.633 
  463900    306.24901   -1482.7164    487.84749    375.34914   -172.80487    39062.633 
  464000    309.68337   -1478.2973    502.07475    409.36149   -239.93027    39062.633 
  464100    308.86994   -1467.0823    467.07128    381.93366   -338.95899    39062.633 
  464200    309.87853   -1479.6239    496.69852    403.53191    71.134406    39062.633 
  464300    307.95711   -1465.3242    495.75961    408.29586     113.5976    39062.633 
  464400    307.32424   -1462.6487    512.06708    424.44722    152.82265    39062.633 
  464500    291.73219   -1489.0758    467.83347    284.02465    268.04548    39062.633 
  464600    302.31768   -1493.6011    512.02801    371.05542   -36.488719    39062.633 
  464700    300.66519   -1506.8552     506.6478    345.02757    226.87916    39062.633 
  464800    309.54198   -1490.4776    494.26183    388.73565   -291.20108    39062.633 
  464900    295.56584   -1460.9198    490.84231      352.342    216.12464    39062.633 
  465000    291.62364    -1474.574    503.90161    334.10887    160.29827    39062.633 
  465100    302.54366   -1491.0512    467.58396    330.17234    177.37074    39062.633 
  465200    301.36815   -1545.5067    498.25677    301.13017    365.83515    39062.633 
  465300    309.10267   -1502.1996    505.47343    386.25973     811.5914    39062.633 
  465400     295.1375   -1516.5835    504.58344    308.50298    543.17992    39062.633 
  465500    297.43694   -1509.9143    491.17891    312.05579    530.36025    39062.633 
  465600     306.0893   -1498.7472    498.73962    369.49589    538.59079    39062.633 
  465700    302.64396   -1547.5543    498.58676    305.12084    161.32908    39062.633 
  465800    297.46159   -1539.7877     464.4851    255.59888   -100.14371    39062.633 
  465900    300.64916   -1516.8164     520.8319    349.17877    419.45009    39062.633 
  466000    302.12995   -1526.7077    461.33278    286.41361    84.401264    39062.633 
  466100    296.17704   -1503.5677    472.47122    294.05764   -375.24793    39062.633 
  466200     305.6956   -1526.6975    483.92393    324.96839    267.78239    39062.633 
  466300    296.21395   -1530.7231    475.71081    270.30692    277.67179    39062.633 
  466400      307.556   -1562.5371    483.38003    296.90875    482.02516    39062.633 
  466500    296.25337   -1515.1205    498.60538    308.98048   -74.045389    39062.633 
  466600    302.50705   -1530.8323    467.10048    289.74403   -210.30194    39062.633 
  466700    296.53522   -1551.3026      483.911    259.36503   -558.90156    39062.633 
  466800    288.59769   -1517.9815     466.6724    239.93356   -722.48597    39062.633 
  466900    295.83408   -1525.3625    478.87591    277.13307   -404.35738    39062.633 
  467000    300.19168   -1513.2027    486.04144    315.95516   -482.95475    39062.633 
  467100    292.96998    -1531.683    458.83068    237.95274   -619.46302    39062.633 
  467200    305.53703   -1533.7371    497.15074    330.44616   -286.64622    39062.633 
  467300    300.14548   -1534.9505    445.24289    253.20201    54.169422    39062.633 
  467400    305.66228   -1539.5677    489.29636    317.32159    40.787177    39062.633 
  467500     303.1541    -1547.425    503.22334    312.16916    -173.8305    39062.633 
  467600    309.59881   -1520.6356    471.33423    335.90434   -609.63249    39062.633 
  467700    284.80002    -1533.389    459.85101    200.71312   -134.02389    39062.633 
  467800    305.81517   -1530.3209    462.50104    300.45708   -441.92411    39062.633 
  467900    294.01976   -1506.0935    481.68736    291.09589   -872.41071    39062.633 
  468000    302.64072   -1513.5237     469.0459    309.59611   -347.89009    39062.633 
  468100    307.03952   -1484.2946    495.82202    385.28232   -66.289186    39062.633 
  468200     296.4199    -1517.645    478.39167    286.98736    479.05662    39062.633 
  468300    309.51658   -1524.5696    458.32924    318.59747    669.40862    39062.633 
  468400    296.32477   -1511.0393    504.70569    319.48144    164.69442    39062.633 
  468500    309.19769   -1500.4888    458.18722     341.1094    158.71788    39062.633 
  468600    293.58379   -1514.4809    468.24481    267.31532    415.57269    39062.633 
  468700    301.57161   -1481.7546    479.77627    347.31213     574.8369    39062.633 
  468800    287.03103   -1492.2524    479.04882    271.02951    601.81588    39062.633 
  468900    300.82653   -1502.6618    499.43628    342.73134    482.85996    39062.633 
  469000    300.08178   -1479.9048    472.95328    335.67318   -409.65946    39062.633 
  469100    312.62855   -1474.4401    476.94052     401.2618   -163.88853    39062.633 
  469200    295.28302   -1468.1457    478.48985    331.49823   -127.61207    39062.633 
  469300    309.82596   -1488.9134    483.07042    380.37909    401.68895    39062.633 
  469400     299.4157   -1467.2973    503.18147    375.52862    190.00593    39062.633 
  469500    298.36799   -1475.4002    467.13162     326.6883   -112.55484    39062.633 
  469600    295.43274   -1521.1529    459.90971     260.5808    48.546854    39062.633 
  469700    300.82737   -1486.7269    465.66612    324.89985    36.815228    39062.633 
  469800    301.40321    -1505.935    474.75344    317.35539    46.356386    39062.633 
  469900    296.59245   -1505.3401    472.21198    293.88462     436.0415    39062.633 
  470000    313.84725   -1471.3108    478.07122     410.9745    1269.0671    39062.633 
  470100    297.15613   -1469.7161    528.01278    387.83142    654.81956    39062.633 
  470200    306.41101   -1488.6009    438.05116    320.39312   -75.604962    39062.633 
  470300    296.25234   -1448.3412    474.27242    351.42218   -211.76218    39062.633 
  470400    303.39095   -1440.8957    469.04463    385.57947   -164.58777    39062.633 
  470500    293.59261   -1491.4466    469.75274    291.89696   -245.02666    39062.633 
  470600    304.30577   -1491.5554    453.30233    323.27057   -323.81657    39062.633 
  470700    305.95764   -1501.4687    474.95683    342.40252    289.14968    39062.633 
  470800    294.85823   -1465.3932    478.15647    332.01673   -479.43885    39062.633 
  470900     307.7136   -1515.7241    453.94618    314.99303     36.23404    39062.633 
  471000    297.50573   -1523.7998    463.80376    271.10283    309.33928    39062.633 
  471100    301.99364   -1527.3547    460.32221    284.14618    471.26514    39062.633 
  471200    297.10828   -1520.9529     480.4808     288.8485    445.28616    39062.633 
  471300    296.70245   -1542.1608    454.82291    240.16702    161.55655    39062.633 
  471400    306.96658   -1470.5032    458.49709    361.42249    47.338091    39062.633 
  471500    305.68476   -1464.8699     492.8341    395.65766    224.08727    39062.633 
  471600    306.54967   -1492.9515    487.75426    366.36599    179.68274    39062.633 
  471700    306.56948    -1511.533    460.62484     320.7437    483.78545    39062.633 
  471800    300.09727   -1528.3814    480.39085    294.70346    20.241443    39062.633 
  471900    308.65179   -1519.3766    458.37018    319.96215    376.61641    39062.633 
  472000    291.48677   -1514.9463    487.93953    277.16215    244.39468    39062.633 
  472100    306.28725   -1492.5423     461.3653    339.21214   -26.529315    39062.633 
  472200    295.79889   -1513.3879     465.3249    275.39913   -512.15088    39062.633 
  472300    300.87341   -1488.2938    472.91586     330.7886   -391.75717    39062.633 
  472400    302.37271   -1479.1276    485.01396    358.76115    147.73965    39062.633 
  472500    298.22248   -1519.0262     491.3386    306.61814    433.10113    39062.633 
  472600    295.10742    -1510.184    487.86724    298.05166    233.13519    39062.633 
  472700     303.0077   -1501.0623    481.25219    335.90565    521.99741    39062.633 
  472800    309.97818    -1533.207    474.32682    328.02296    414.13244    39062.633 
  472900    295.60115   -1499.4143    487.22088    310.38399   -459.45467    39062.633 
  473000    295.34702   -1439.1901    487.03472    369.28498    399.20294    39062.633 
  473100     294.6681    -1486.479    486.66121    318.58504    154.91924    39062.633 
  473200    296.80183   -1472.3472     466.8609    322.46324    24.085708    39062.633 
  473300    306.07504   -1483.2658    484.57784    370.75176    -108.4996    39062.633 
  473400    292.61892   -1508.4193    493.29241    294.10746    151.07896    39062.633 
  473500    292.75633   -1525.8139    455.97419    240.00942   -602.79332    39062.633 
  473600    299.51857   -1476.0777    474.86025    338.88731   -920.66649    39062.633 
  473700    288.88712   -1487.6307    476.96006    281.86695   -624.74561    39062.633 
  473800    304.50898   -1507.7104    453.70333    308.42572   -149.60412    39062.633 
  473900    307.43761   -1482.7788    477.90962     370.6669    121.89062    39062.633 
  474000    300.49569   -1511.4348    466.29812    299.33991   -348.42261    39062.633 
  474100    295.62879    -1511.126    471.81916    283.39424   -666.40401    39062.633 
  474200    293.40775   -1510.3692    467.83008    270.22461   -175.29773    39062.633 
  474300    312.83669   -1532.1115    449.66438    317.24547   -65.230536    39062.633 
  474400     308.1879   -1508.5681    478.38343    348.70839    438.09957    39062.633 
  474500    301.59167    -1490.071    489.69061    348.99984    180.11117    39062.633 
  474600    290.02612   -1479.2686    457.12884    275.49387     512.9963    39062.633 
  474700    300.01504   -1528.7144    455.88621    269.49789     725.2637    39062.633 
  474800     304.0397   -1518.7345    472.14096    313.73961    675.68914    39062.633 
  474900    305.17741   -1488.3858    447.88504    324.92271    715.87633    39062.633 
  475000    306.22347   -1493.3668    468.78128    345.51824    188.38883    39062.633 
  475100    303.76666   -1513.7501    472.71796    318.07936   -501.78193    39062.633 
  475200    296.50294   -1494.1109    466.22584    298.72714   -475.68651    39062.633 
  475300    301.23199   -1493.5382    474.16751    328.40019    13.783781    39062.633 
  475400    301.76693   -1507.6106    452.06654    294.62027    83.639887    39062.633 
  475500    298.10617   -1487.5608    452.66675    298.89135   -173.27087    39062.633 
  475600    304.49306    -1501.377    485.07419    346.05882   -455.56778    39062.633 
  475700    296.86099    -1472.098    472.45558    328.57177   -629.81706    39062.633 
  475800    288.15551   -1468.4259    469.35366    290.19193   -683.38778    39062.633 
  475900    297.84451   -1522.0755    456.23696    266.77617   -604.81909    39062.633 
  476000    302.71634   -1539.3337    457.55125    272.62978   -302.73806    39062.633 
  476100     298.3885   -1536.9828    456.19919    254.26498   -501.33721    39062.633 
  476200    284.68207   -1502.5917    460.90382    232.03548   -63.248506    39062.633 
  476300    298.71214    -1493.289    489.74416    332.95175    -179.0682    39062.633 
  476400    300.95259   -1507.4484    491.70395    330.77635   -391.56479    39062.633 
  476500    303.41628   -1534.0228    454.98044    278.50153   -17.892532    39062.633 
  476600     298.6188   -1472.5489    462.52209    326.05222    164.09678    39062.633 
  476700    302.04949   -1500.9509    468.40036    318.87802    273.45919    39062.633 
  476800    293.93808    -1501.493    460.38984     274.0334    47.885472    39062.633 
  476900    298.04341   -1522.8008    482.77499    293.47875    -291.7046    39062.633 
  477000     297.8057   -1504.7411    462.43702     290.1369    26.346119    39062.633 
  477100    305.01402   -1473.5698    454.43234    345.55502    94.681597    39062.633 
  477200     314.9208   -1493.1622    490.25288    406.10802     117.5487    39062.633 
  477300    297.18476   -1485.0807     477.5777    322.15985    21.697022    39062.633 
  477400     308.4483   -1503.5756     477.6866    354.16914   -51.286514    39062.633 
  477500    312.77047   -1514.9656    466.04883    350.47961    23.129342    39062.633 
  477600    308.32641   -1468.9992    472.28536    382.79887    24.517219    39062.633 
  477700    302.97013   -1487.0981    469.10539    337.55497   -118.71209    39062.633 
  477800    302.37309    -1511.707     501.6565    342.82592   -355.00923    39062.633 
  477900    297.63029   -1481.2052    457.18719    307.63822   -664.97042    39062.633 
  478000    285.57363   -1522.1053    477.94924    233.55628   -609.75344    39062.633 
  478100    306.34698   -1544.2015    485.42653    311.88139   -236.97134    39062.633 
  478200    296.27421   -1501.4642    443.00036    267.12502   -396.56761    39062.633 
  478300    309.40952   -1514.2895    481.80268    351.87196   -219.75101    39062.633 
  478400     308.1952   -1464.6364    470.33734    384.62665    486.06883    39062.633 
  478500    296.33606   -1469.2218    465.89493    322.53874    565.48468    39062.633 
  478600     297.2659   -1502.1731    469.31336    297.16615    1301.9663    39062.633 
  478700    305.44424   -1502.4456    459.76596    323.93773    925.99777    39062.633 
  478800    309.06898   -1490.5805    479.50333    371.75799    382.83072    39062.633 
  478900    301.58999   -1468.8999    467.57295    348.04571    233.76257    39062.633 
  479000    295.00424   -1484.4554    449.00203    284.45333    65.910719    39062.633 
  479100    303.82591   -1475.8005    474.56214    358.13833    141.49436    39062.633 
  479200    310.31313   -1512.6928    481.64887    357.35783   -108.63495    39062.633 
  479300    294.79325   -1519.6823    466.37987    265.66031   -340.71375    39062.633 
  479400    299.84205   -1475.9091    456.54294    322.18589    212.71096    39062.633 
  479500    301.05919   -1510.6052    497.80841    334.20099    254.10046    39062.633 
  479600    297.85258   -1482.9565    450.09613     299.7904      347.502    39062.633 
  479700    307.50781   -1492.5115    456.73012    340.06881    -108.9754    39062.633 
  479800    299.42991   -1486.6587    495.15604    348.20544   -12.351177    39062.633 
  479900    290.47824   -1480.4921     472.0842    291.24868   -233.71245    39062.633 
  480000    304.05624   -1456.1306    475.82085    380.09747   -435.14869    39062.633 
  480100    288.75902   -1430.6019    468.35342    329.71591   -84.425899    39062.633 
  480200    299.65636   -1455.2034    495.25336    380.77124   -243.12534    39062.633 
  480300    295.28853   -1470.6872    453.48976    303.98134   -280.99753    39062.633 
  480400    298.90961   -1451.8749    488.02802    373.53325    67.618068    39062.633 
  480500    300.44331   -1459.4974    480.74766    365.49248    251.64458    39062.633 
  480600    308.81863   -1444.3292    452.90345    390.28926   -247.15998    39062.633 
  480700    305.79598   -1467.5725    467.36795    367.98662   -411.97279    39062.633 
  480800    305.20693   -1509.6785    475.98372    331.86081    675.56983    39062.633 
  480900    300.45248   -1499.0846    455.52491    300.72359    233.98572    39062.633 
  481000    301.95946   -1498.4214    484.72062      337.325    370.87982    39062.633 
  481100      300.219   -1446.7001    444.72582    341.26432   -126.24189    39062.633 
  481200    291.92921   -1443.6304    485.36287    347.88088   -25.420463    39062.633 
  481300    301.38383   -1426.9789    518.40068    439.87208    67.841635    39062.633 
  481400    308.74189   -1521.6177    457.30393    317.05795    264.22798    39062.633 
  481500    295.02136   -1484.5675    470.47175    305.88758   -171.56595    39062.633 
  481600    290.87179   -1478.3429    456.63585    279.71031    147.25436    39062.633 
  481700    303.18944   -1473.1198    466.43978    349.84897    109.72765    39062.633 
  481800     292.4263   -1480.6043    480.68282     308.4511   -325.36077    39062.633 
  481900    302.92238   -1489.3802    464.24601     330.1999   -108.74838    39062.633 
  482000    301.44205   -1494.5993    466.24123    320.35268      -55.191    39062.633 
  482100    294.89497   -1501.9741    471.16122    288.60497   -227.34838    39062.633 
  482200    289.71996   -1530.5734    456.30514    221.99558   -398.74385    39062.633 
  482300    299.30661   -1510.4125    429.08315    257.82701    470.42967    39062.633 
  482400    298.40775    -1527.866    453.25375    260.52249    288.27787    39062.633 
  482500     299.7801   -1488.2262    493.00074    346.04941    226.16077    39062.633 
  482600    299.57102   -1518.6099    460.20285    281.93235    80.192718    39062.633 
  482700    298.34432   -1520.0467    464.67294    279.47718   -37.266654    39062.633 
  482800    290.87353   -1538.9542    477.25112    239.72211   -405.96057    39062.633 
  482900    295.19148   -1509.5237    483.46074    294.68153    154.91243    39062.633 
  483000    298.49743   -1506.9696    479.02018    307.58653     747.6192    39062.633 
  483100    310.62866   -1539.6989    453.78884    303.90348    635.81653    39062.633 
  483200    294.46585   -1510.5935     485.3569    292.26131    457.82768    39062.633 
  483300     298.0277   -1524.5287     439.9377     248.8433   -92.191857    39062.633 
  483400    310.35856   -1508.4502    456.52657    336.68138    114.58379    39062.633 
  483500    301.93533   -1506.3128    459.33425    303.93932    273.06763    39062.633 
  483600    290.32158   -1547.4945    482.67865    234.13973    512.44255    39062.633 
  483700    297.80221   -1504.5217    491.99033    319.89404    747.73129    39062.633 
  483800    297.17215   -1532.4707    491.59297    288.72869    963.94809    39062.633 
  483900    302.87582    -1522.684    481.59112    314.03289    1048.7227    39062.633 
  484000    294.08048   -1516.2798     468.8533    268.34718    528.62769    39062.633 
  484100    300.98621   -1562.5571    464.88704    249.00123    79.463295    39062.633 
  484200    298.22336   -1538.0804    462.03726     258.2666    158.47131    39062.633 
  484300    301.23054   -1507.0395    478.20934    318.93423   -93.240601    39062.633 
  484400    304.69086   -1506.1557    482.05928    339.15021    205.42153    39062.633 
  484500    291.61508   -1497.5477    461.69489    268.89016    28.088398    39062.633 
  484600    293.27738   -1549.3334    495.81561    258.66271   -242.50242    39062.633 
  484700    307.83265   -1530.3226    469.85115    316.83216    56.713822    39062.633 
  484800    292.45877   -1539.4486    470.72667    239.79593   -487.02282    39062.633 
  484900    298.10583   -1477.0208    474.20041     330.9635    -436.0336    39062.633 
  485000     307.9943   -1481.1006    473.22148    370.14771    -323.5403    39062.633 
  485100    288.37941   -1508.8998    485.15418    266.52035   -106.31283    39062.633 
  485200    294.56946    -1500.791    460.22063    277.39106    46.747871    39062.633 
  485300    305.12528   -1559.4694    476.50265    282.22353    396.48543    39062.633 
  485400    290.48585   -1527.8203    451.73755    223.60783    785.00349    39062.633 
  485500    306.82624   -1550.4482    481.50081    303.85329    600.17994    39062.633 
  485600    306.36387    -1502.218     489.8772    358.39115    538.04297    39062.633 
  485700    309.24224   -1473.8033    473.79248    383.59952    394.11592    39062.633 
  485800    299.92658    -1513.511    494.67008    323.08933    288.43624    39062.633 
  485900    294.39968   -1558.2725    477.55868    236.48802   -166.61063    39062.633 
  486000    296.69229   -1525.8728    491.22809    292.81467    54.254966    39062.633 
  486100    293.69836   -1523.0413    475.59059    266.61331   -15.806836    39062.633 
  486200    298.81897    -1537.685    460.00977    259.29937   -458.23584    39062.633 
  486300    291.40394   -1527.4119    463.65782    240.04425   -204.18617    39062.633 
  486400    305.82038   -1524.5552      474.819    318.56408   -577.28102    39062.633 
  486500    298.63958   -1526.4061    486.76359    296.52951   -530.01724    39062.633 
  486600    299.72914   -1535.7523    460.32003    265.61455   -478.40608    39062.633 
  486700    295.20705   -1500.8993    481.42575    301.34065   -586.55202    39062.633 
  486800    306.57646    -1496.551    468.07788    343.21001    245.00733    39062.633 
  486900    296.26992   -1532.6677    473.30193    266.20392   -13.568114    39062.633 
  487000    301.77491   -1533.8228    490.96998    307.34724    457.07566    39062.633 
  487100    305.38555   -1564.3173    476.96408    279.00154    379.43148    39062.633 
  487200    295.39246    -1554.179     473.2266    240.69134    342.48769    39062.633 
  487300     313.7344   -1554.9601    471.93855    320.68764    142.29333    39062.633 
  487400    297.45184   -1570.0301    496.26733    257.09499    -106.1881    39062.633 
  487500    294.46546   -1587.6146    479.60596    209.48754    616.32591    39062.633 
  487600    301.43159   -1572.7822    497.94397    273.82579    616.32399    39062.633 
  487700    310.78536   -1539.4066    456.79651    307.90448     227.0609    39062.633 
  487800    298.70731   -1539.8716    480.26127    276.86466    149.16807    39062.633 
  487900    292.18487   -1571.7751     465.2112    200.72847    24.295676    39062.633 
  488000     296.1049    -1504.194    504.98418    325.62153   -84.674193    39062.633 
  488100    312.18299   -1532.5805    478.44058    342.62791    47.725284    39062.633 
  488200    296.12896   -1540.6948    476.97167    261.21588    121.21446    39062.633 
  488300    299.29102   -1492.3349    500.20198    346.95372     14.66505    39062.633 
  488400    296.88932   -1493.6754    482.58772    317.25331    257.51416    39062.633 
  488500      308.663   -1539.0552    484.69282    326.65634    582.64422    39062.633 
  488600    296.68524   -1548.3042    480.32293    259.44659    64.837947    39062.633 
  488700     294.1799   -1536.6367    506.14381    285.72564   -536.14975    39062.633 
  488800    303.19865   -1535.0984    451.51409    272.98588    151.75499    39062.633 
  488900    301.69152    -1523.567    457.61731    283.87728    542.10411    39062.633 
  489000    304.54348   -1551.8162    482.91975    293.69069    138.36799    39062.633 
  489100    305.01792   -1532.0665    489.80246    322.44588   -49.371412    39062.633 
  489200    307.10305   -1517.3176    479.00759    335.72918   -68.269519    39062.633 
  489300    295.25819   -1522.5224    464.22293    262.74347   -405.02549    39062.633 
  489400    301.86642   -1504.0352    499.50765    346.08189    161.20481    39062.633 
  489500    287.33144   -1478.7869    479.32381    286.11402   -234.67033    39062.633 
  489600    297.81058    -1507.323    492.84147    317.98134    246.85938    39062.633 
  489700    300.85528   -1458.7941    491.41031     378.7017    4.5980739    39062.633 
  489800      306.504    -1471.155    501.38218    401.58612    195.90024    39062.633 
  489900    297.87331   -1490.0188    498.85264    341.57734    467.59021    39062.633 
  490000    304.19695   -1489.3968    456.78525    328.42521   -225.54501    39062.633 
  490100     294.5817   -1468.6292    488.25146    337.63852     82.30501    39062.633 
  490200    292.06121   -1524.6882    466.79554    248.84641   -218.43314    39062.633 
  490300    300.17389   -1498.7111    482.15849    326.48414    490.13496    39062.633 
  490400    294.90457   -1484.3002     486.5856    321.74621   -23.511362    39062.633 
  490500    304.45814   -1485.8333       486.67    363.04204    36.874265    39062.633 
  490600    286.86881   -1542.7464    487.71127    228.47209    305.68608    39062.633 
  490700    304.34308    -1538.982    461.46022    284.16873    429.81969    39062.633 
  490800    299.51593   -1528.2446    494.32291    306.17125    426.25961    39062.633 
  490900    308.86458   -1500.7622    453.99379    335.15222    430.92097    39062.633 
  491000    295.56444    -1491.024      503.348    334.73716    189.54781    39062.633 
  491100    299.26849   -1480.3887     479.8867    338.48387   -226.52242    39062.633 
  491200    299.10792   -1521.1626     481.8475    298.95238   -109.18986    39062.633 
  491300    304.10353   -1555.2491    483.43588    288.80551    342.47775    39062.633 
  491400    303.88703   -1547.5764    468.38021    280.45388   -111.09713    39062.633 
  491500    298.90002   -1542.8217    483.66993    278.18544    234.36698    39062.633 
  491600    298.12235   -1519.8649    452.78676    266.77967     13.81445    39062.633 
  491700    293.38424   -1471.7665    488.08206    328.97409   -158.74997    39062.633 
  491800     297.2805   -1532.9273    448.05297    245.21684    31.595674    39062.633 
  491900    288.97485   -1506.6329    476.75746    263.05462   -376.76904    39062.633 
  492000    292.71939   -1539.4726    472.55048    242.76174   -36.586295    39062.633 
  492100    300.84393   -1509.8471    467.38082    303.56841     77.47355    39062.633 
  492200    292.43331    -1529.764    462.07881     240.7187     499.1323    39062.633 
  492300    303.70586    -1535.524    464.59591    287.91141    352.53842    39062.633 
  492400    292.39187   -1521.4991    491.96471    278.68411    365.08991    39062.633 
  492500    293.28461   -1533.5279     457.9558    236.64069    401.06134    39062.633 
  492600    302.80566   -1525.4095    461.99863    291.40097    296.89913    39062.633 
  492700    304.82429    -1538.805    462.69951    287.73812    76.553767    39062.633 
  492800    290.91098   -1507.8042    496.33227    290.12075    499.78001    39062.633 
  492900    306.37995   -1517.3128    508.37547    361.86655    53.357512    39062.633 
  493000    288.26022   -1477.2166    491.92592    304.44199    77.054328    39062.633 
  493100    304.54075   -1480.4856    467.37541     349.4648    269.91425    39062.633 
  493200    293.17574    -1466.915    508.76113    353.57179   -53.112752    39062.633 
  493300     304.5199   -1493.8144    475.14596    343.81325    315.26499    39062.633 
  493400    292.65863   -1484.5235    469.52635    294.41493    130.41886    39062.633 
  493500     300.8431   -1503.8103      499.424     341.6447     38.20288    39062.633 
  493600    295.90108   -1514.2968    466.73632    276.35889    109.92628    39062.633 
  493700    299.54023   -1504.3676    497.05737    332.89147   -186.14496    39062.633 
  493800     295.9543   -1488.9043    463.12437    298.37759   -329.47983    39062.633 
  493900    297.87041   -1497.9757    471.06888     305.8237   -307.75504    39062.633 
  494000    291.85081   -1511.5089    474.37402    268.66284   -412.75715    39062.633 
  494100    293.92532     -1495.45     490.4156      310.045   -296.27184    39062.633 
  494200    309.49902   -1500.9487     490.4913    374.30179   -182.73993    39062.633 
  494300      294.114   -1540.5016    471.02345    246.44549   -2.8714666    39062.633 
  494400    290.42674   -1527.8529    477.37178    248.94496   -534.36872    39062.633 
  494500    307.71529   -1543.2526    454.34555    287.87138   -103.55058    39062.633 
  494600    306.31377   -1530.2316    471.17352    311.44969   -270.86859    39062.633 
  494700    296.77281   -1491.6838    481.55927    317.69516    202.18984    39062.633 
  494800    292.19516   -1536.3403    480.28521    251.28328    179.52695    39062.633 
  494900    298.79967   -1538.5732    463.47351    261.78859    221.27995    39062.633 
  495000    294.46476   -1512.0152    485.25864    290.73651    693.17155    39062.633 
  495100    294.33167   -1521.5485    480.31762    275.66663    591.33101    39062.633 
  495200     300.7683   -1525.1996    460.14195    280.63869    242.64998    39062.633 
  495300    307.06473    -1536.406    471.07131    308.53306   -71.016659    39062.633 
  495400    300.60868   -1481.6487    446.43348    309.76688   -608.86814    39062.633 
  495500    290.72602   -1552.3652    445.34924    193.74919   -614.28553    39062.633 
  495600     303.0911   -1520.4612    479.15725    314.78505   -190.16005    39062.633 
  495700    287.28229   -1508.7772     483.8177    260.39774   -1020.8151    39062.633 
  495800    300.88441   -1436.7867    464.10024    373.52931   -404.37002    39062.633 
  495900    309.96991   -1454.1363    461.26959    393.99945   -714.01146    39062.633 
  496000    293.47544    -1486.191    472.68924    299.56481   -201.31666    39062.633 
  496100    304.47507   -1495.3196    470.15008    337.11158    179.30363    39062.633 
  496200    294.86041   -1482.1735     466.9421    304.03182   -83.554698    39062.633 
  496300    292.70811   -1494.8239    504.23137    319.04091   -535.00143    39062.633 
  496400     300.3888   -1500.4142    461.95258    305.53668    435.78624    39062.633 
  496500    303.01606   -1516.1072      490.314    329.96003    365.09393    39062.633 
  496600    306.86669   -1513.2827    468.35255    328.05149    240.36237    39062.633 
  496700    300.78961   -1486.4704    466.45411    325.77533    646.27189    39062.633 
  496800    289.86594   -1495.7614     485.2148    286.37037    900.60421    39062.633 
  496900    305.30223   -1511.5115    497.20737    351.67785    619.29194    39062.633 
  497000    296.83911   -1519.7629    472.62986    280.98331    339.22112    39062.633 
  497100     294.3718   -1502.4388    483.93868    298.57691    564.86136    39062.633 
  497200    309.18515   -1529.1105    475.53922    329.78369   -143.09971    39062.633 
  497300    304.86509   -1543.7769     461.9427     282.1919   -193.78512    39062.633 
  497400     291.9483   -1503.8623    459.39543    261.76704         -147    39062.633 
  497500    309.18011   -1535.8835    482.74563    330.19447     54.31991    39062.633 
  497600    294.12637   -1544.5072    494.29769    265.76946    -252.1039    39062.633 
  497700     305.7137    -1504.142    508.23404    371.91502     -185.087    39062.633 
  497800    304.46439   -1486.9374    480.33772    355.63361    52.899191    39062.633 
  497900      304.237    -1521.866    479.83695    319.18692    276.19054    39062.633 
  498000    301.70514   -1482.0941    498.70409    366.49785   -350.87025    39062.633 
  498100    298.43788   -1530.5424     471.1804    275.90754   -232.30104    39062.633 
  498200    291.72689   -1463.4247    480.30323    322.12178   -238.71907    39062.633 
  498300    288.10843   -1475.6493    467.46585    280.87013   -248.59529    39062.633 
  498400    303.39053   -1516.5839    462.20586     303.0506    282.62817    39062.633 
  498500    291.54162   -1488.7273    481.20001    296.88701    275.60915    39062.633 
  498600    300.80991    -1490.584    482.23418    337.53267    355.61865    39062.633 
  498700    296.37989   -1466.8388    498.53203    357.75493    158.51155    39062.633 
  498800    302.95814   -1482.5255    479.38061    352.34917    759.66317    39062.633 
  498900    291.82253   -1458.1334    485.02888    332.56662    245.47787    39062.633 
  499000    292.38374   -1491.6284    479.79481    296.34855   -17.713477    39062.633 
  499100    301.62655   -1465.7897    467.40959    351.15614    185.31901    39062.633 
  499200    306.24646   -1476.0669    496.95246    391.09222    402.89924    39062.633 
  499300    306.07855   -1462.7326    511.09765    417.82042    201.01651    39062.633 
  499400    301.06268    -1476.095     482.5425    353.46092    395.07348    39062.633 
  499500    289.90367   -1500.6367    509.22406    305.67314    543.60772    39062.633 
  499600     317.0512   -1492.0018    462.06707    388.61444   -114.74534    39062.633 
  499700    299.21035   -1463.8719    495.89743    370.75125   -39.365287    39062.633 
  499800    305.16606   -1490.2863    479.73036    354.81677   -318.97485    39062.633 
  499900    301.50615   -1491.7962    481.10631    338.30775    90.329112    39062.633 
  500000    307.09494   -1518.2773    486.31533    342.04094   -144.40669    39062.633 
  500100    305.55544   -1489.2586    470.34642    348.20266    12.298326    39062.633 
  500200    302.23147   -1489.8163     477.1648    339.59133    461.77351    39062.633 
  500300    297.52013   -1508.2469    483.08946    306.00595    841.14918    39062.633 
  500400    295.89279    -1500.683    475.02083    298.22019    206.25997    39062.633 
  500500    302.24723   -1475.6431    486.87258     363.5428    339.58406    39062.633 
  500600    297.76149   -1491.7288    485.25825    325.77271   -304.27866    39062.633 
  500700    303.24983   -1507.1489    460.88362    310.53379    584.20101    39062.633 
  500800    300.54194   -1494.7498     502.3969    352.33063    204.31657    39062.633 
  500900    298.84096   -1494.2028    480.18568    323.05585    59.961269    39062.633 
  501000    290.84713   -1472.1349    459.23875    288.41088    54.907783    39062.633 
  501100     286.4595   -1457.6779    496.89446    320.89253   -461.51148    39062.633 
  501200    305.05757   -1525.3143     484.6329    324.20589    -118.4438    39062.633 
  501300    294.42348   -1482.6567    439.80805    274.45972    7.8454461    39062.633 
  501400    292.04834   -1502.1608    484.10562    288.62634   -248.06566    39062.633 
  501500    297.95659   -1485.6759    447.78645    295.22675   -228.57745    39062.633 
  501600    305.28459   -1491.6034    476.77099    351.07066    9.3679852    39062.633 
  501700    309.83253   -1473.0041    478.09263    391.33996   -156.61431    39062.633 
  501800    308.73666    -1480.677    445.39754    346.06885    387.71757    39062.633 
  501900    303.32814    -1500.619    470.95742    327.48791    20.435315    39062.633 
  502000    306.05804   -1532.5257    467.15091    303.98884    601.60127    39062.633 
  502100     300.7459    -1476.751    483.72004     352.5651     491.1941    39062.633 
  502200    293.91699   -1503.9031    467.12374    278.26279    80.740835    39062.633 
  502300    300.00986   -1490.0769    465.84103    318.06702    381.26969    39062.633 
  502400    290.95608   -1479.8009    501.64254    323.63611    727.21024    39062.633 
  502500    306.85284   -1485.7893    468.63413    355.76453     654.4387    39062.633 
  502600    301.84313   -1451.8237    478.69353     377.3751    764.76429    39062.633 
  502700    293.11844   -1472.6197    474.38493    313.23452    1137.0345    39062.633 
  502800     293.4052   -1516.7734    451.37759    247.35654    754.14725    39062.633 
  502900    295.45659   -1546.0244    498.44503     274.3513    173.51794    39062.633 
  503000    302.59172   -1555.8745    471.18457     269.1647   -34.628634    39062.633 
  503100    298.16146   -1564.7212    435.68668    204.99822    274.07981    39062.633 
  503200    303.90323   -1544.4482    476.96069    292.23503    19.984662    39062.633 
  503300    299.60914   -1549.1848    451.45879    242.78401   -56.730154    39062.633 
  503400    305.66706   -1526.3989    464.38282    305.59823   -207.87945    39062.633 
  503500    304.17213   -1511.3195    467.11953    316.72573   -579.54976    39062.633 
  503600    301.69541   -1511.8938    458.39015     296.3407   -244.61255    39062.633 
  503700     311.0992   -1544.0607    467.28642    315.14444   -182.40192    39062.633 
  503800    294.47003    -1524.868    478.84552    271.49416   -284.92917    39062.633 
  503900    308.85675   -1535.6798    458.51318    304.71899   -289.04495    39062.633 
  504000    301.92562    -1496.582    478.66935    332.96167   -634.68147    39062.633 
  504100    307.11039   -1471.9076    502.71058    404.87503   -454.28183    39062.633 
  504200    295.63804   -1457.3499    470.60554    335.99813   -169.85234    39062.633 
  504300    297.24868   -1471.2502    485.29186    343.99048    476.92752    39062.633 
  504400     294.9406   -1491.6861    482.02917    309.96514    95.613813    39062.633 
  504500    295.62562   -1514.5131    470.57169    278.74557    40.393018    39062.633 
  504600    295.88346   -1512.6938    492.69556    303.84227    267.60767    39062.633 
  504700    289.14552   -1521.5447    484.87031    257.01926    265.45137    39062.633 
  504800    300.20836   -1562.7481    460.09702    240.53994    42.296859    39062.633 
  504900    295.07277     -1491.05    480.94488    310.10823   -2.1771265    39062.633 
  505000    306.36996   -1491.6559    480.38739     359.4907    322.50351    39062.633 
  505100    301.23652   -1511.5811    508.43277    344.64286   -2.8919977    39062.633 
  505200    291.52143   -1494.0659    453.57286    263.83088    279.36184    39062.633 
  505300    297.29045   -1524.4945    472.59313    278.23434    242.43504    39062.633 
  505400    290.34519   -1513.5727     486.3695    271.85802   -473.79452    39062.633 
  505500    294.80367   -1512.4709    428.26813    234.80657   -207.57974    39062.633 
  505600     298.2067   -1494.6526    498.10353    337.68616    86.510791    39062.633 
  505700    296.94297   -1443.9972    486.51767    371.10143   -82.490511    39062.633 
  505800    294.62681   -1480.5224     446.6737    284.36936   -184.02353    39062.633 
  505900     306.1947   -1477.9861    481.14356    373.13258   -7.2583182    39062.633 
  506000    304.51132   -1530.4781    486.72169     318.6869    217.47025    39062.633 
  506100     301.6487    -1525.679    432.09558    256.05198    124.82229    39062.633 
  506200    308.50507   -1503.0283     488.7363    366.02014    281.38374    39062.633 
  506300    298.71769   -1498.1619    470.39673    308.75629   -30.650584    39062.633 
  506400    308.88334   -1527.6885    486.76288      341.079    547.21098    39062.633 
  506500    299.39491   -1519.8948    470.23992    289.89663   -75.643396    39062.633 
  506600    311.26834    -1477.705    485.51829    400.48878   -93.355386    39062.633 
  506700     298.4076   -1496.2084    474.80004    313.72568    -668.4371    39062.633 
  506800     289.8172   -1455.1931     488.8035    330.30931     -682.568    39062.633 
  506900    293.96033   -1483.2441    472.85642    304.84839   -361.19241    39062.633 
  507000     286.2099   -1478.9358    467.36826    268.99163   -879.42905    39062.633 
  507100    307.29141    -1475.518    471.15021     370.5142   -378.70091    39062.633 
  507200    306.22101   -1519.4593    485.57099    336.20447   -30.734275    39062.633 
  507300    299.74027   -1453.6176    472.70627    360.18537    292.88988    39062.633 
  507400    296.69391   -1483.5166    490.66254    334.61258    388.14131    39062.633 
  507500    298.09935   -1474.6692    494.50476    353.59046    111.57142    39062.633 
  507600    289.29309   -1488.2782    487.33586    293.41162    -144.4379    39062.633 
  507700    295.35957   -1471.5208    470.42335    320.39911    101.58435    39062.633 
  507800    299.05949   -1488.6789    487.70743    337.07926    245.02892    39062.633 
  507900    295.95266   -1483.4761    489.28616    329.96026    299.35327    39062.633 
  508000    293.14122   -1460.6252    483.66974     334.6158    623.70462    39062.633 
  508100    309.61359   -1421.1577    492.63467    456.74881    859.65651    39062.633 
  508200    300.17906   -1494.0194    492.03814    341.07863    480.88343    39062.633 
  508300     298.6887   -1489.2586     484.8481    331.98126    506.27071    39062.633 
  508400    294.73661   -1465.7937    500.39418    353.30978     510.7562    39062.633 
  508500    308.37027   -1471.5999    446.37957    354.48865   -96.641331    39062.633 
  508600    305.50741   -1447.3493    499.18372     418.7344     -73.7767    39062.633 
  508700    292.79295   -1468.5735    486.29377    327.73333    98.324039    39062.633 
  508800    299.65183   -1487.3097    477.66821    331.05952   -584.93461    39062.633 
  508900    296.51099   -1484.4346    491.46127    333.67496   -250.28423    39062.633 
  509000    300.78877     -1506.74    472.05465     311.1025    48.204297    39062.633 
  509100    291.13758   -1508.2363    475.17442    269.54468   -542.02816    39062.633 
  509200    308.25321   -1462.1075    488.98327    406.06098   -568.21239    39062.633 
  509300    298.21172   -1488.4977     471.2529    317.01291    105.02963    39062.633 
  509400     300.5871   -1525.1481     457.0957     276.8332    269.79149    39062.633 
  509500    304.02419   -1488.2304    505.70129    377.73465    92.204177    39062.633 
  509600    302.32335   -1482.4679    474.99662     345.1826    301.68855    39062.633 
  509700    306.55735   -1481.3173    467.45168    357.73203    3.9249907    39062.633 
  509800    304.98056   -1498.7476    496.11781    361.91297    221.99088    39062.633 
  509900    309.09252   -1540.5576    467.70593    310.08884   -131.24374    39062.633 
  510000    301.21965   -1525.1819    445.68716    268.22098   -173.92128    39062.633 
  510100    298.89571   -1526.3076    471.42053    282.43086    13.070238    39062.633 
  510200    294.09756   -1557.9186     455.8097    213.74122    59.342748    39062.633 
  510300    307.21526   -1536.1309    477.74639     316.1567   -253.42287    39062.633 
  510400    304.79065   -1546.0657    466.61905    284.24644   -14.600889    39062.633 
  510500    296.58504   -1538.8466    473.47867     261.6116   -339.56362    39062.633 
  510600     288.8901   -1522.9828    463.72506    233.29312   -364.93107    39062.633 
  510700    303.89953    -1549.655    478.00279    288.05377   -316.00327    39062.633 
  510800    294.70511   -1517.0397      463.414    264.94268   -330.15277    39062.633 
  510900    305.36589   -1542.2651    475.74237    299.74409    434.34493    39062.633 
  511000    303.65943   -1521.3868    481.77398    319.01896   -85.556338    39062.633 
  511100    299.45246   -1553.8803    464.43552    250.36414    522.13917    39062.633 
  511200    294.92292   -1530.4065    484.37626    273.51264    61.609542    39062.633 
  511300    298.31167   -1543.5736    482.96746     274.0987     427.7102    39062.633 
  511400     305.7363   -1555.5785    463.85776    276.20337   -225.89013    39062.633 
  511500    300.87897   -1509.0887    477.44147    314.54421   -114.63583    39062.633 
  511600    291.80125   -1481.1755    473.96076    298.36125    436.20432    39062.633 
  511700    299.88823   -1547.1371    497.24065     291.8622    845.99568    39062.633 
  511800    295.77923   -1511.0807    479.10827    291.40176    736.14013    39062.633 
  511900    308.24261   -1511.5168    482.47147     350.0925    657.81221    39062.633 
  512000    307.58394   -1479.9369    497.98602    394.23992    477.99327    39062.633 
  512100    284.39669   -1507.5784    495.24594    260.11405    191.31234    39062.633 
  512200    306.44187   -1516.7625     479.3699    333.68835   -204.28928    39062.633 
  512300    307.26251   -1508.3649    484.84162    351.22937   -127.00767    39062.633 
  512400    297.00289   -1540.6817    458.52868    246.69602    534.23103    39062.633 
  512500    293.13709   -1508.6199    512.58981    315.52266    257.61768    39062.633 
  512600    305.81225   -1482.2545    484.85285    370.86231    624.33383    39062.633 
  512700    297.74541   -1540.1283     472.3668    264.40976    171.26648    39062.633 
  512800     297.4818   -1506.2093    513.27114    338.05371    -285.2412    39062.633 
  512900    297.85844   -1502.1375    462.18345    292.72299   -116.97601    39062.633 
  513000    296.74353   -1479.4342    489.48194    337.73643    -310.4552    39062.633 
  513100     296.6962   -1510.4959    494.29132    311.27232   -117.80594    39062.633 
  513200    308.43922   -1531.2728     497.7627    346.50734    283.50375    39062.633 
  513300    296.35803   -1509.0774    485.19995    302.08646   -368.21806    39062.633 
  513400    305.38004   -1485.2197    464.42945     345.5399   -371.70072    39062.633 
  513500    288.39496   -1514.4579    484.67882    260.55646   -763.22081    39062.633 
  513600    296.97404   -1496.3167    472.91931    305.32261   -426.39521    39062.633 
  513700    299.10274   -1512.6549    517.18653    342.77588   -295.79451    39062.633 
  513800    299.47944   -1509.2086    487.26007     317.9812   -328.35616    39062.633 
  513900    303.60413   -1479.4733    502.34505    381.25609   -621.59648    39062.633 
  514000    303.64635   -1494.0458     484.0488    348.57628   -236.84193    39062.633 
  514100     288.1606   -1535.6929    500.22906    253.82312   -385.30817    39062.633 
  514200    295.68356   -1538.3617     487.3523     271.9368   -243.69248    39062.633 
  514300    300.20327    -1534.338    482.91584    291.74608   -93.610716    39062.633 
  514400    309.57647   -1535.7177    493.16833    342.55644    101.82739    39062.633 
  514500    299.68787   -1490.3762    494.78939    345.27538   -425.74331    39062.633 
  514600    288.88191   -1515.7081    462.62893    239.43509   -514.61928    39062.633 
  514700    304.09052   -1540.4808    480.52333     300.6031   -316.64488    39062.633 
  514800    304.89906   -1528.3382    489.76557     325.6055   -114.79324    39062.633 
  514900    291.41304   -1531.9719    464.11097     235.9781    45.529932    39062.633 
  515000    303.08841    -1474.239    480.19349    362.03135   0.52800791    39062.633 
  515100     305.9214   -1477.2324    489.76994    381.28979    578.43426    39062.633 
  515200    286.33679    -1522.548      500.785    259.36394    277.78054    39062.633 
  515300    301.01475   -1511.4683     494.3368    329.66741   -77.921629    39062.633 
  515400    299.61407   -1515.9373    470.32326    294.91797    149.34482    39062.633 
  515500    297.92003   -1520.7414    451.65018    263.86132    -83.87156    39062.633 
  515600    301.17891   -1499.6374    511.68113    359.57711    292.08428    39062.633 
  515700    295.22125   -1478.1768    485.93916    328.64006    267.27039    39062.633 
  515800    306.47623    -1485.878    467.60394    352.96066   -405.27273    39062.633 
  515900    300.62494   -1494.3261    492.54331     343.2721    76.303652    39062.633 
  516000    300.53366   -1501.0792    446.36704    289.93428    133.54786    39062.633 
  516100    302.95356   -1507.1011    487.67303    336.04548    276.10972    39062.633 
  516200    309.34925   -1526.1393    463.74491    321.69479    435.43769    39062.633 
  516300    312.47473   -1544.5835    471.38817     324.8778    65.169645    39062.633 
  516400    300.47403   -1517.9722    491.47467    317.88212   -103.57188    39062.633 
  516500    295.41577   -1470.4647     504.2256    355.50887    562.45332    39062.633 
  516600    293.15296   -1517.5175    505.24105    299.34734    242.09867    39062.633 
  516700    294.10462   -1477.3543    459.76618     298.2935    42.730855    39062.633 
  516800    310.24035   -1498.5007    489.66111    379.23654    163.63033    39062.633 
  516900    291.74059   -1529.2737    487.18165     263.2125    217.78635    39062.633 
  517000    308.46635   -1491.5147     502.8109    391.43504    303.00804    39062.633 
  517100    293.15699    -1448.641    496.84959     359.8504   -263.96287    39062.633 
  517200    304.61323   -1457.8096    483.30033    388.38997    -82.74309    39062.633 
  517300    288.84325   -1498.9213    477.33994    270.75992   -608.44711    39062.633 
  517400    302.61712   -1492.4821    507.91792    369.40405    8.3382549    39062.633 
  517500    299.21238   -1489.4547    465.73018    315.01029    124.56163    39062.633 
  517600    311.71032   -1482.0309    488.18543    400.80753   -205.58519    39062.633 
  517700    301.78941   -1518.4088     503.9783    335.83442    161.14998    39062.633 
  517800     286.5286   -1543.1005    471.62072    210.50535   -350.35945    39062.633 
  517900    306.63014   -1535.6387    500.16528     336.4499   -284.40097    39062.633 
  518000    289.95972   -1486.8782    498.93394    309.39232   -229.77592    39062.633 
  518100    302.97642   -1537.9671    478.67212    296.28093    55.548361    39062.633 
  518200    306.15441   -1547.5216    505.32791    327.60105   -17.989254    39062.633 
  518300    302.35251   -1543.5261    478.55298    287.81124    10.166139    39062.633 
  518400    295.58443   -1523.1714    505.29321    304.62445    43.459585    39062.633 
  518500    296.02479   -1525.5977    466.14534    265.02056    438.53096    39062.633 
  518600    286.86162   -1493.3065    475.42884    265.59748   -159.18569    39062.633 
  518700    308.30585    -1511.537    471.84698     339.7307   -126.93195    39062.633 
  518800     305.9633   -1517.6033    499.46458    350.80099    19.527397    39062.633 
  518900    290.97948   -1505.4254    503.18785    299.66168    115.66918    39062.633 
  519000    292.06728   -1556.8249    492.48199    242.42334    228.13696    39062.633 
  519100    301.89301   -1525.4928    498.51124    323.74694    445.33671    39062.633 
  519200    295.82048   -1490.8609    499.19114    331.88897    382.01277    39062.633 
  519300    300.83284   -1521.9216     480.6345    304.69794   -256.55061    39062.633 
  519400    301.00526   -1493.6737    478.69914    331.78196    -771.4455    39062.633 
  519500    301.20262   -1509.1839    498.04653    336.50222    -1687.947    39062.633 
  519600    317.38966   -1530.8089    463.60696     352.8616   -513.89146    39062.633 
  519700    289.70652   -1512.1298    479.12545    263.19933   -440.73907    39062.633 
  519800    295.72602   -1474.8521    520.77047    369.05455   -114.50799    39062.633 
  519900    308.60337   -1456.1303    497.62214    422.24383   -375.09411    39062.633 
  520000     296.9265   -1475.2377    492.61572    345.88534   -356.55382    39062.633 
  520100    291.75399   -1507.9397    504.53773    301.96259   -698.54044    39062.633 
  520200    295.81401   -1484.1399    478.16159    317.55146   -162.93497    39062.633 
  520300    304.52788    -1489.255    498.10369    371.36602   -49.883997    39062.633 
  520400    305.22049   -1489.7346     502.9328    378.81449    186.76243    39062.633 
  520500    299.56148   -1436.8848    484.27255    387.68448   -29.672979    39062.633 
  520600    289.75417   -1470.3249    513.80417    339.89617    187.80582    39062.633 
  520700    294.83415   -1470.6132    488.71039    337.24289   -2.4705821    39062.633 
  520800    300.32791   -1500.8146    480.48236    323.39371   -251.47401    39062.633 
  520900    298.36172   -1471.0971    502.81811    366.64974    96.272807    39062.633 
  521000     301.5928   -1492.9627    489.11814    345.54075    217.68073    39062.633 
  521100    290.38354   -1483.2305    505.65214    321.65452    538.75076    39062.633 
  521200    288.99784   -1480.6203    505.02141    317.43404    91.410683    39062.633 
  521300    291.74249   -1495.3551    505.69559    315.65351   -166.95704    39062.633 
  521400    304.82403    -1506.902    472.20976    329.15014    179.70792    39062.633 
  521500    291.47763   -1495.9356    507.33865    315.53102    307.57094    39062.633 
  521600    287.56473   -1456.1563    474.14115    304.60578   -55.690322    39062.633 
  521700     295.8199   -1472.6736    478.87652    329.75906   -468.29398    39062.633 
  521800    298.62311   -1473.0141     504.0253    367.10952   -785.57523    39062.633 
  521900    306.35865   -1457.1183    487.05268    400.64304   -551.88035    39062.633 
  522000     300.8041    -1404.491    508.38099     449.7464   -789.91517    39062.633 
  522100     303.8732   -1473.4401    480.86382    367.01198   -980.94772    39062.633 
  522200    301.28733   -1509.6265    487.54586    325.93788   -230.51116    39062.633 
  522300    294.10018   -1509.6716    470.49721    276.68745   -582.01601    39062.633 
  522400    308.77094   -1543.0103    480.51543    319.00678   -227.34807    39062.633 
  522500    300.41602   -1498.9179    483.07262    328.27483    113.20943    39062.633 
  522600    303.92208     -1485.43    473.49767    347.87462   -118.29214    39062.633 
  522700    292.18996   -1489.0375    477.34484    295.62245   -407.71134    39062.633 
  522800    306.91615   -1493.3054    462.90822     342.8058   -492.58157    39062.633 
  522900    313.34295   -1486.2486    491.04907    406.75814    229.33864    39062.633 
  523000    289.34306   -1527.5324    487.62594     254.6711    315.95061    39062.633 
  523100     295.2497   -1525.3995    484.14099    279.74645    704.57063    39062.633 
  523200    291.19298   -1515.1367     485.3805    273.09827    178.58532    39062.633 
  523300     288.9682   -1511.3155    488.91483    270.49971    758.06522    39062.633 
  523400    298.51919   -1500.4548     488.1031    323.28169    774.87378    39062.633 
  523500    296.84432   -1499.5375    470.51854    299.12067    776.56494    39062.633 
  523600    301.35789   -1459.8441    486.35265    374.84281    1103.2099    39062.633 
  523700    297.59344   -1482.6455    509.42214    358.26802    538.06962    39062.633 
  523800    312.03462   -1470.7969    493.81258     419.1197    507.65024    39062.633 
  523900    302.33343    -1466.647    498.19839    384.25039    233.50642    39062.633 
  524000      302.888   -1502.3747    470.79521    323.60071   -264.13211    39062.633 
  524100    293.35635   -1495.9371    494.09119    310.68792      -155.53    39062.633 
  524200    289.80837   -1510.2085    509.99204     296.4429   -203.56622    39062.633 
  524300    295.17414   -1545.9776    488.97829    263.66759    66.897653    39062.633 
  524400    309.61584   -1506.4883    474.03605    352.82965    509.55845    39062.633 
  524500    298.42059   -1529.6487    465.62337    271.16688   -43.016752    39062.633 
  524600     299.3216   -1533.1834    462.88442    268.92448    478.41153    39062.633 
  524700    301.62302   -1524.5974    515.40329     340.3264    379.59123    39062.633 
  524800    296.99244   -1561.3126     440.9378    208.42757    384.92283    39062.633 
  524900    301.19352   -1508.2602    476.00679    315.34542    505.40599    39062.633 
  525000    295.11681   -1496.4716    479.82217    303.76104    504.67223    39062.633 
  525100     305.4079   -1477.2335    491.73471    380.95597   -76.247264    39062.633 
  525200     306.0824   -1519.4724       473.54     323.5402    407.35465    39062.633 
  525300    296.20411   -1557.6462    480.36091    247.98993    262.30359    39062.633 
  525400    294.30292   -1579.4989    462.05273    199.32278    110.83554    39062.633 
  525500    290.42569   -1600.4304    450.26769    149.25877   -128.76393    39062.633 
  525600    316.07856   -1552.7816    500.81407    362.22986    383.29135    39062.633 
  525700    294.97377   -1557.7156    480.76929    242.82419   -102.74992    39062.633 
  525800    282.65637   -1558.9157    471.76274    177.50697    101.28092    39062.633 
  525900    305.37644   -1557.7795    476.11804    284.65256    80.195445    39062.633 
  526000    292.50764   -1555.0321    481.68691    235.39132   -601.76203    39062.633 
  526100    302.42966   -1559.7041    484.47251    277.89793   -330.24756    39062.633 
  526200    294.64824    -1580.059    472.83965    211.09453   -240.04341    39062.633 
  526300     295.7376     -1511.75    473.87578     285.3137    23.599196    39062.633 
  526400    306.02772   -1525.0642    500.71545    344.87918    10.304947    39062.633 
  526500    293.94817   -1582.9353    461.57028     193.8167   -38.227002    39062.633 
  526600    299.71598   -1523.9527    490.45479    307.49007   -8.6216884    39062.633 
  526700    302.15633   -1550.0893    496.96971    298.78701     87.87478    39062.633 
  526800    300.75678   -1561.2786    473.53883      257.905   -744.11573    39062.633 
  526900    309.07765   -1549.9229     485.7799    318.73091   -348.31371    39062.633 
  527000    303.34602   -1554.3635    474.48265    277.34867   -1220.4325    39062.633 
  527100    290.74119   -1521.4664    482.00417    261.37081   -952.16125    39062.633 
  527200    300.08586    -1541.138    472.46623     273.9711   -317.50134    39062.633 
  527300    308.78372   -1563.8281    498.28843    316.01917   -998.48137    39062.633 
  527400    299.32245   -1521.4973    498.46287    316.19283   -568.67461    39062.633 
  527500     294.7293   -1535.6743    475.03665    258.03897   -440.03965    39062.633 
  527600    293.91691   -1502.6709    478.05172    290.42266   -60.206682    39062.633 
  527700    310.03862   -1550.4561    499.70759    336.42506    203.61411    39062.633 
  527800    296.33897   -1533.4568    477.97619    270.39799   -43.849098    39062.633 
  527900    294.72107   -1521.7701    474.72022    271.58993   -564.64992    39062.633 
  528000    284.17433   -1537.8386    504.52865    238.14164   -6.9078904    39062.633 
  528100    296.95019   -1509.0693    473.67788    293.22187    310.38351    39062.633 
  528200    298.88338   -1499.1669    514.90247    352.99836   -70.717793    39062.633 
  528300    312.17943   -1488.1799    505.23399    413.80602    491.23316    39062.633 
  528400    294.07383   -1530.3634    480.74336    266.12391    24.788754    39062.633 
  528500    289.40895   -1518.7748    508.22345    284.32104    507.52869    39062.633 
  528600    288.46656    -1472.319    500.81338    319.15029    215.85034    39062.633 
  528700    303.30624   -1487.5505     508.8442     378.3452    351.17475    39062.633 
  528800    293.33187   -1493.4425    490.13062    309.11241    208.22837    39062.633 
  528900    298.33018   -1498.2277    500.55475    337.11469    354.77332    39062.633 
  529000    302.23228    -1506.976     523.6197    368.89017    284.37807    39062.633 
  529100    305.94128   -1469.8226    534.45374     433.4723    258.24398    39062.633 
  529200    308.97891   -1486.3657    494.59075     390.6572     779.2416    39062.633 
  529300    306.92823   -1452.3199    487.70625    408.64334    517.17243    39062.633 
  529400    302.74688   -1491.5827    537.52803    400.49418    465.86485    39062.633 
  529500    309.51412   -1479.7599    494.95899    400.02588    305.96287    39062.633 
  529600     296.4069   -1495.2084    495.32314    326.29725    384.46096    39062.633 
  529700     302.5997   -1535.7741    509.13075    327.24698    725.34194    39062.633 
  529800    301.13801   -1470.8094    486.68412    363.22524    629.23147    39062.633 
  529900    296.70936   -1465.7832    502.16354    363.91615    496.84843    39062.633 
  530000    294.20563   -1483.0564    527.55311    360.83028   -31.823853    39062.633 
  530100    292.00037   -1473.4766    507.51599    340.50625   -295.42281    39062.633 
  530200    299.62324   -1490.1995    494.58541    344.95902   -234.46556    39062.633 
  530300    298.55412   -1530.7742    474.40238    279.41783   -211.16844    39062.633 
  530400    292.03039   -1512.2483    511.59716    305.95001    5.0514842    39062.633 
  530500    303.83553   -1471.6849    497.66291    385.39771    282.83569    39062.633 
  530600    298.37432   -1492.5554    478.83811    321.26784    333.59093    39062.633 
  530700    308.74005   -1517.3398    502.03246    366.05608    409.86234    39062.633 
  530800    288.47044   -1511.2721    500.17617    279.57732    703.74107    39062.633 
  530900    286.16657   -1495.4853    484.92224    269.80226    418.19662    39062.633 
  531000    297.84527   -1505.7174    509.18141    336.08212    227.15281    39062.633 
  531100    296.65356   -1513.7449    496.42222    309.96348    -47.10964    39062.633 
  531200    290.17223   -1556.1193     477.8477    220.01579   -37.396289    39062.633 
  531300    296.84347   -1535.6142    498.02904    290.55071     -601.678    39062.633 
  531400    307.07314   -1540.9134    477.99173    310.98373   -206.36235    39062.633 
  531500    298.51502   -1508.9527     513.8624    340.52438   -353.07566    39062.633 
  531600    303.42365   -1526.2507    482.57229    313.89846   -305.57187    39062.633 
  531700    307.62695   -1484.0648    496.02009    388.33855    369.97901    39062.633 
  531800    306.13871   -1530.1353    512.83998    352.42922    534.27308    39062.633 
  531900     303.1269   -1550.0242    466.28096    272.50588    564.07947    39062.633 
  532000    299.10579   -1511.6217    520.91851    347.55476    1106.6805    39062.633 
  532100    306.80021   -1530.2765    492.83131    335.23905    593.04889    39062.633 
  532200    312.87596    -1543.453    475.33439    331.74973    201.84859    39062.633 
  532300    314.69826   -1531.4969    477.09338    353.61811    402.62451    39062.633 
  532400    298.48796   -1534.2509    482.59114    283.83388    451.56385    39062.633 
  532500    296.09945   -1529.4662    506.47744     301.8182    369.46503    39062.633 
  532600    296.14355   -1522.8785    489.15927    291.28504    54.543032    39062.633 
  532700    295.70038     -1496.24    503.05104    329.83248     101.0659    39062.633 
  532800    299.84986   -1521.2485    487.06465    307.40312   -300.78928    39062.633 
  532900    293.23029   -1489.2617    489.12677    311.83482    284.49406    39062.633 
  533000    304.59774   -1520.8937    504.93223    346.86844   -210.84891    39062.633 
  533100    293.96978   -1506.2135    502.88505    311.94991   -21.143322    39062.633 
  533200    299.28335   -1472.6203    507.08179    373.51385    737.24175    39062.633 
  533300    315.65445   -1490.9104    468.45826     389.8477     210.6184    39062.633 
  533400    301.11511   -1542.1668    512.51297    317.59418   -167.17813    39062.633 
  533500    304.87468   -1523.5854    496.83919    337.32289     3.036023    39062.633 
  533600    305.38409   -1499.9347    481.73539    348.14891    1.7379831    39062.633 
  533700    296.71947   -1563.7654    500.81173    264.62736    443.50127    39062.633 
  533800    312.28102   -1555.9168    499.37351     340.6632   -109.96506    39062.633 
  533900    311.02586   -1533.4063    466.99959    325.18392   -37.156515    39062.633 
  534000    300.27518   -1552.1181    520.23306    311.60488    -73.50334    39062.633 
  534100    301.95716   -1512.6678    494.14489    332.49259    106.00655    39062.633 
  534200    313.86053   -1538.2169    486.47775    352.53439   -216.45519    39062.633 
  534300    301.39683   -1588.0367    498.24313    258.71487    -536.7898    39062.633 
  534400    295.75119   -1535.1291    471.61456    259.73419   -195.53305    39062.633 
  534500    293.44652   -1504.6468    515.47397     323.7644   -513.41698    39062.633 
  534600    297.24983   -1530.8006     472.6624    271.81571    209.82484    39062.633 
  534700    295.18043   -1554.4048    495.89051    262.18075    60.569573    39062.633 
  534800    301.09829   -1515.8683    524.98496    356.28941   -216.27989    39062.633 
  534900    273.04411   -1566.6495    508.28445    163.28776   -488.41976    39062.633 
  535000    293.81188   -1529.3343    497.94828    283.18587    94.459702    39062.633 
  535100    305.78169    -1546.877    489.75451    311.00466    45.638581    39062.633 
  535200    301.62649   -1568.5173    477.47628      258.495   -217.58944    39062.633 
  535300    289.94376   -1569.6693    482.62596    210.22182    -353.2222    39062.633 
  535400    297.56691   -1550.8065    519.27868    299.84484     26.55557    39062.633 
  535500    304.75836    -1586.197    482.51979    259.87136   -309.76415    39062.633 
  535600     299.7126   -1582.6804    463.67861    221.97105   -1192.5512    39062.633 
  535700    298.85648   -1536.5507     487.9599     288.5516   -81.229031    39062.633 
  535800     302.6244   -1564.4126    458.73208    248.32029   -35.581246    39062.633 
  535900    292.49588   -1578.0894    475.68829    206.28275     316.1585    39062.633 
  536000    306.99694    -1573.905    511.09254    310.75198    605.74904    39062.633 
  536100    297.24466   -1576.5816    470.87075    224.21994    537.52987    39062.633 
  536200    297.23391   -1553.0419    520.62903    297.46989    345.56453    39062.633 
  536300    299.76649   -1556.6171    458.99942    243.59634    506.30054    39062.633 
  536400    298.81871   -1599.1408    458.66546    196.49811    832.15264    39062.633 
  536500    309.58562   -1570.4685    486.63468    301.31289   -72.653382    39062.633 
  536600     298.9367   -1558.0751    462.37671    241.80295   -274.08241    39062.633 
  536700    286.69996   -1558.8634    480.37351    204.26189   -375.54228    39062.633 
  536800    306.33491   -1567.9892    474.16805    276.78129    -591.3988    39062.633 
  536900    294.03002   -1599.3593    467.95385    184.14241    -746.2264    39062.633 
  537000    302.39278   -1581.4267    474.44378    245.98163    59.805041    39062.633 
  537100    304.78816   -1600.0182    488.46282    252.12661   -8.5900124    39062.633 
  537200    299.47527   -1594.4539    487.66949    233.12667    303.48514    39062.633 
  537300    296.56642   -1577.0451    481.73307     231.5842   -336.82286    39062.633 
  537400     306.9429   -1534.1223    488.28263    327.48301     605.7869    39062.633 
  537500    297.21705   -1570.5783      484.941    244.16997    453.86333    39062.633 
  537600    288.60082   -1527.5023    492.16752    255.92188    169.34443    39062.633 
  537700    305.42637   -1594.7748    487.18555    258.94811     678.6142    39062.633 
  537800    303.02325   -1593.1874    492.41417    255.01209    198.54803    39062.633 
  537900    302.14369   -1554.7915    505.41789    302.47648   -185.55063    39062.633 
  538000    309.71377    -1550.262     506.5769    342.03498   -184.67539    39062.633 
  538100    303.77574   -1570.3906    467.66032    256.42192   -177.83375    39062.633 
  538200    297.73301   -1605.9617    452.92317    179.07723   -354.35926    39062.633 
  538300    293.80695   -1610.1338    500.66932    205.08535   -234.78723    39062.633 
  538400    297.25334   -1600.7511    482.62936    211.84795   -209.30837    39062.633 
  538500    308.83554   -1575.8099    477.02759     283.0084   -838.58115    39062.633 
  538600     300.5229   -1574.5972    475.40118     245.4023   -383.45603    39062.633 
  538700    304.92736   -1584.7516    455.18338    234.73653    -374.1607    39062.633 
  538800    295.91742   -1584.2422      476.305    216.05533   -262.85296    39062.633 
  538900    308.65609   -1549.3327    485.73612    317.39125    -252.7216    39062.633 
  539000    304.16403   -1551.7931    477.38123     286.4776   -725.71356    39062.633 
  539100    303.48514   -1588.8261    480.17584    249.20173   -639.87526    39062.633 
  539200    303.72258   -1579.6373    474.76515    254.04213   -193.00857    39062.633 
  539300    307.15145   -1559.3144    502.72585    317.66725    -572.8587    39062.633 
  539400    291.56123    -1580.083    473.95445    198.37355   -683.81066    39062.633 
  539500    304.68028   -1586.2567    480.39535    257.33787   -56.362174    39062.633 
  539600    303.98211   -1570.1556    490.62384    280.54375   -717.53061    39062.633 
  539700    298.02701   -1530.8054    491.58043    294.20625   -542.46911    39062.633 
  539800    311.25046   -1586.2441     473.8295    280.18096   -659.83375    39062.633 
  539900    303.18037   -1565.4001    491.85441    282.94271   -82.615518    39062.633 
  540000    296.06524    -1569.731    475.21358    230.13642    305.46465    39062.633 
  540100    312.05108   -1546.1262    471.38574    321.43713    323.22835    39062.633 
  540200    303.02319   -1587.9328    486.82148    254.67377   -368.66473    39062.633 
  540300    302.21386    -1567.135    469.53093    254.55992       206.16    39062.633 
  540400     288.1313   -1571.5953    478.04631    195.60683   -601.74658    39062.633 
  540500    300.52653   -1511.3329     498.3038    331.58542   -617.14889    39062.633 
  540600    295.79184   -1530.9246    472.89399    265.40002   -647.29824    39062.633 
  540700    293.87609   -1542.3235    480.08868    252.62436   -288.59222    39062.633 
  540800    305.19044   -1547.6398    488.45131    306.29331    -114.8622    39062.633 
  540900    297.76417   -1555.3067    486.49918    263.44768    -291.1506    39062.633 
  541000    305.73703   -1563.8425    487.96387    292.04877   -535.92891    39062.633 
  541100    296.85539   -1549.9508    496.34978    274.58818   -54.673602    39062.633 
  541200    296.24901   -1510.1191    492.49123    307.84824   -305.67412    39062.633 
  541300    307.67982   -1523.4321    505.99665    359.18437   -597.90243    39062.633 
  541400    304.65082   -1565.0644    489.85357    287.85667   -346.46874    39062.633 
  541500    307.92363   -1504.1817    499.83394    373.36286   -230.93121    39062.633 
  541600     300.0398   -1535.8227    492.87315    299.48727     238.3618    39062.633 
  541700    303.08251   -1567.2804    479.97756    268.74762    202.64804    39062.633 
  541800    304.66411   -1538.8065    499.98543    324.30583    167.31935    39062.633 
  541900    306.47464   -1535.7121    488.09017    323.60566    249.89363    39062.633 
  542000    291.41106    -1539.524    471.76699    236.07313    229.51809    39062.633 
  542100    292.14434   -1543.2539    493.28957    257.14667   -118.45288    39062.633 
  542200    299.65363   -1564.4227    487.58378    263.87011   -133.00916    39062.633 
  542300    303.19001   -1551.4542    501.61516    306.69249    74.599026    39062.633 
  542400    293.13341   -1541.3674    519.61366    289.78257   -79.312154    39062.633 
  542500     299.4574   -1551.7972    465.70606    253.73993    -311.2307    39062.633 
  542600    299.58769   -1526.7151     501.3246    315.02354    243.96566    39062.633 
  542700    290.76697   -1568.8469     472.1668    204.26831   -414.13953    39062.633 
  542800    301.86878   -1550.6747    501.29393    301.23922   -275.89312    39062.633 
  542900    300.34363   -1571.0074    465.79274    238.58158   -135.14388    39062.633 
  543000    297.36976   -1601.7003    495.39578    224.18598    13.006722    39062.633 
  543100    306.16986   -1618.3749    489.74642    241.23547   -185.40353    39062.633 
  543200    298.79727   -1568.8979    478.16946    246.14912   -335.34265    39062.633 
  543300     304.7141   -1570.9069    486.40032      278.844    310.31636    39062.633 
  543400    300.67834    -1564.812    478.71678    259.19853   -136.45838    39062.633 
  543500     302.2574   -1575.5726    477.20178    253.98806    30.784016    39062.633 
  543600    311.03296   -1568.5534    475.73928    298.80826   -69.191011    39062.633 
  543700     295.2134   -1584.1916    457.74322    194.39419    -831.6891    39062.633 
  543800    298.22485   -1568.3286    493.58483    259.57261   -653.53206    39062.633 
  543900    306.51761   -1604.3839    440.19392    207.22989   -880.70014    39062.633 
  544000    290.43495    -1573.708    495.45138    221.20623   -695.72445    39062.633 
  544100    291.87713   -1598.5939    493.80352    201.12512   -351.93704    39062.633 
  544200    296.90478   -1547.5485    500.07061    280.93222   -441.61304    39062.633 
  544300    300.21461   -1601.3357       476.26    218.14328   -57.448291    39062.633 
  544400    297.37992   -1600.9133    496.44022    226.06292    309.85044    39062.633 
  544500    298.78395   -1618.8532    466.42875    184.39347    151.52002    39062.633 
  544600    303.17389   -1566.9758    479.37141    268.85504   -275.43743    39062.633 
  544700    308.63459   -1576.6831    516.00551    320.21404   -524.83349    39062.633 
  544800    306.85833   -1604.5571    474.49086    242.87806    104.31707    39062.633 
  544900    304.80741   -1608.2349    491.17239    246.70549   -269.10136    39062.633 
  545000    310.28915   -1575.8608    485.31792    297.75156   -532.58739    39062.633 
  545100    313.34147   -1594.6668    472.07087     279.3552   -318.75006    39062.633 
  545200    293.42479   -1591.8708    497.92829    218.89753    197.18396    39062.633 
  545300    302.42947   -1578.1556    466.89825    241.87136   -445.45656    39062.633 
  545400    293.24823   -1598.7665     498.2697    211.55327   -22.049629    39062.633 
  545500    296.17164   -1596.6726    474.03899    202.49635   -223.76736    39062.633 
  545600    309.91975   -1573.0796    487.81319    301.37528    115.73541    39062.633 
  545700    310.40561    -1592.879    500.59581    296.53231   -6.1102467    39062.633 
  545800    293.96751   -1608.5287    465.34045    172.08002   -238.56435    39062.633 
  545900    301.97195   -1561.0803     501.3997    291.40106   -135.93209    39062.633 
  546000    298.63197   -1593.8947     474.9448      217.188   -0.7636428    39062.633 
  546100    303.09909   -1610.0267    495.54835    241.64641    477.30532    39062.633 
  546200    297.25775   -1590.9891    500.28816    239.28846   -275.40717    39062.633 
  546300    292.94236   -1598.5296    446.99047    159.14235   -266.67889    39062.633 
  546400    297.09875   -1590.2312    503.12176     242.1686    321.43658    39062.633 
  546500    301.39468   -1554.3006    481.25459    275.45285    376.14317    39062.633 
  546600    301.84628   -1578.4668    510.41801    282.47054   -135.26091    39062.633 
  546700    289.88477   -1557.5821    475.20723    214.62638   -791.32596    39062.633 
  546800    310.52095   -1540.2671     486.9199    335.98438    -65.44118    39062.633 
  546900    306.01356   -1592.0708    486.92894    264.02275    406.35433    39062.633 
  547000     295.5782   -1575.7563    494.22601    240.94445    813.89937    39062.633 
  547100    293.46062    -1598.644    488.43464    202.79096    396.68357    39062.633 
  547200    295.49103   -1608.0604    497.14756    211.17186    340.23643    39062.633 
  547300    295.00821   -1571.2512    476.65453    225.32787    308.03569    39062.633 
  547400    299.51795   -1569.9415    540.46833    310.62876    345.06899    39062.633 
  547500    301.38643   -1544.6406    470.16827    273.98961   -77.862976    39062.633 
  547600    304.08852   -1545.6182    498.58784     313.5213   -630.46211    39062.633 
  547700     286.5861   -1556.0748    515.18835    241.35592   -214.04965    39062.633 
  547800    302.24928   -1507.2332     475.5338    320.62305   -740.43293    39062.633 
  547900    303.32426   -1553.0212    502.16833    306.27927   -836.10637    39062.633 
  548000     305.8056   -1530.5931    474.87365    312.51469    -593.6698    39062.633 
  548100    300.68317   -1544.4044    504.98722    305.89823   -1103.9335    39062.633 
  548200    307.20795   -1511.1818    511.98183    375.30861   -344.86813    39062.633 
  548300    296.35133   -1538.3202    480.42641    268.04011    191.34555    39062.633 
  548400    294.88903   -1533.8875    482.03225    267.53602   -200.22477    39062.633 
  548500     308.5432   -1515.8696    469.96077    334.57382   -304.10862    39062.633 
  548600    311.61966   -1513.2166    517.87778    398.90858   -145.22286    39062.633 
  548700    299.85754   -1513.3927    521.86356    350.09222    401.90525    39062.633 
  548800    309.71143   -1518.8352    499.69116    366.56561    -704.8037    39062.633 
  548900    300.39686   -1535.3181    490.57644    299.29271   -393.82281    39062.633 
  549000    290.39185   -1534.6672    518.15727    282.76005   -951.21584    39062.633 
  549100     293.7678   -1534.5334    475.67469    255.51593   -1035.5873    39062.633 
  549200    291.83275   -1531.5547    487.49721    261.65944    -1027.356    39062.633 
  549300    301.16832   -1543.4039    485.94368    290.02586   -564.84648    39062.633 
  549400    302.03828   -1525.4232    480.35992    306.31513   -682.86906    39062.633 
  549500    299.41898   -1519.3681    487.28655    307.57766   -286.39366    39062.633 
  549600    302.33578   -1552.5843    464.37326    264.49846    20.823851    39062.633 
  549700    307.24416   -1561.4674    496.99554    310.19873    137.65189    39062.633 
  549800     292.2242   -1548.1991    483.74442    243.01366    136.48247    39062.633 
  549900    304.37503   -1578.4096    464.09942     247.5233    36.035899    39062.633 
  550000     299.3058   -1556.7337    487.64891      270.068   -331.98919    39062.633 
  550100    297.28055   -1558.5745    493.50945    265.02636    440.49423    39062.633 
  550200    290.51118    -1534.928     472.5499    237.42586   -346.39371    39062.633 
  550300    303.23226   -1552.6106    493.40321    297.51313   -391.51228    39062.633 
  550400    293.11479   -1588.1484    465.68174    188.98631    -140.2081    39062.633 
  550500    296.16023   -1590.0805    478.00889    213.00732    661.65955    39062.633 
  550600     305.6579   -1605.7866    467.77672    229.56346    125.73317    39062.633 
  550700    311.28665   -1594.6845    458.78143    256.85438     819.3911    39062.633 
  550800    307.12751   -1536.6192    501.56726    339.09675    600.94153    39062.633 
  550900    306.65054   -1555.8414    480.80398    296.97712     612.1425    39062.633 
  551000    304.66727    -1553.213    481.41337     291.3414    126.19237    39062.633 
  551100    292.45196   -1581.4411    469.28395    196.33017   -128.56319    39062.633 
  551200    304.18198   -1587.3905    519.38858    292.96788     511.9049    39062.633 
  551300      300.883   -1618.3402    474.35582    202.22511    226.29329    39062.633 
  551400    295.31227   -1537.3548    482.41722    266.34739   -197.97943    39062.633 
  551500    303.54941   -1509.6331    496.73996    345.24638   -397.56941    39062.633 
  551600    304.16971   -1524.1228    455.81967    292.61171   -299.07268    39062.633 
  551700    305.25165   -1490.9855    487.95807    362.72819   -326.30359    39062.633 
  551800    305.17677   -1524.2523    498.32367    339.49205    49.411454    39062.633 
  551900    311.06343   -1540.6043    489.46643    340.62079   -200.84945    39062.633 
  552000    296.30178   -1550.1428    490.85058    266.42002   -127.46756    39062.633 
  552100    302.42889    -1565.193    481.61563     269.5487    230.67729    39062.633 
  552200    295.66753   -1516.6143    482.49789    288.75799   -331.49389    39062.633 
  552300    294.64808   -1474.7703     490.8474    334.39027   -187.03205    39062.633 
  552400    305.34451   -1525.4973    497.86001    338.53387   -265.29647    39062.633 
  552500    303.37828   -1507.1879    465.72882    315.91478   -444.02067    39062.633 
  552600    301.82502   -1506.5519    500.03705    343.90942   -45.107214    39062.633 
  552700    292.26072    -1537.669    485.37009    255.33275     -512.368    39062.633 
  552800    302.23273   -1529.5391      485.395     308.1043   -477.69739    39062.633 
  552900    307.17904   -1571.8541    482.00468    284.52978   -505.14865    39062.633 
  553000    306.57451    -1526.995    505.33681    350.01619    308.71977    39062.633 
  553100    285.87509   -1538.0315    479.41998    220.44968    3.4503864    39062.633 
  553200    289.72719   -1552.8852    482.50218    225.91313    373.78888    39062.633 
  553300    301.31506    -1479.855    502.51115    370.79869    441.13154    39062.633 
  553400    286.93195   -1521.3054    499.97661    262.46094    584.27251    39062.633 
  553500    294.25911    -1549.266    478.99971    246.30665    626.09778    39062.633 
  553600    300.25897    -1528.776    499.71946    314.36089    206.85761    39062.633 
  553700    302.96366   -1522.2582    498.91299    332.17356    225.84652    39062.633 
  553800    294.46121   -1526.4418    483.05124    274.08659   -356.89609    39062.633 
  553900    290.53998   -1506.9596    524.74763    317.72079   -268.39114    39062.633 
  554000    295.60146   -1518.2811    477.61121    281.90895    143.97891    39062.633 
  554100    305.09453   -1561.4079    518.43621    322.08095    703.66624    39062.633 
  554200    292.66232   -1532.1783    490.24335    267.49362    310.63513    39062.633 
  554300    290.53652   -1551.9806    495.14906    243.08577    360.54064    39062.633 
  554400    304.56951   -1558.1646    476.77059    281.30965    615.23006    39062.633 
  554500     305.2424   -1549.5615     467.7117    283.86447    347.84294    39062.633 
  554600    299.76152   -1568.7688    476.67055    249.09352    300.34483    39062.633 
  554700    297.35747    -1563.583    479.80795    246.66055    72.146708    39062.633 
  554800     307.5489   -1557.2248    470.52508    289.33435   -48.839915    39062.633 
  554900    303.66936   -1547.2265    485.44758    296.89726    405.03132    39062.633 
  555000    303.02172   -1543.4367    499.61723    311.95902     384.6996    39062.633 
  555100    299.23104   -1504.9669    490.56147    324.41283   -173.20395    39062.633 
  555200    294.16967   -1537.9114    486.93131    265.19261     431.6405    39062.633 
  555300     292.9309   -1587.0925    490.46749    214.00526   -125.11338    39062.633 
  555400    311.22797   -1504.3302    464.21941    352.38413   -180.22915    39062.633 
  555500    297.41085   -1511.7047    474.23561    293.20526    533.54267    39062.633 
  555600    304.10843   -1518.1729    499.76922    342.23704    777.50291    39062.633 
  555700    305.36041   -1579.6984     504.6895    291.23341    810.99691    39062.633 
  555800    302.28473    -1568.482    459.61727     243.6164    35.333664    39062.633 
  555900    301.62156   -1558.2976    476.46937    267.68565    387.27813    39062.633 
  556000    301.36394   -1562.9111    489.26045    274.71063    505.47594    39062.633 
  556100    304.84125   -1580.5744    491.86989    275.21494    193.30873    39062.633 
  556200     297.7803   -1541.5905    482.87295    273.60982    216.96358    39062.633 
  556300    304.88302   -1543.9387    489.50539    309.67305    155.61023    39062.633 
  556400    299.67199    -1548.792     482.6106    274.60974    107.46532    39062.633 
  556500    298.80736   -1490.5623    494.80167    341.16204   -446.54636    39062.633 
  556600    315.23306   -1492.4421     523.2758    441.24817   -135.89873    39062.633 
  556700    300.14116   -1537.3063    463.12167    268.70577   -406.34111    39062.633 
  556800    300.87841   -1542.5252    517.90228      321.566    -610.8077    39062.633 
  556900    298.95592    -1568.279    470.46158    239.76989   -790.52359    39062.633 
  557000    301.91566   -1560.7555    500.10477    290.17908   -366.87351    39062.633 
  557100    287.05144   -1549.2487    497.40892     232.4846   -346.22631    39062.633 
  557200    312.59103   -1551.8399    472.87322    319.62681   -428.88309    39062.633 
  557300    297.88294   -1533.5317    507.60762    306.86258   -644.50241    39062.633 
  557400     301.6319   -1529.1933    478.57537    298.94228   -404.04017    39062.633 
  557500    298.84916   -1509.7439    492.98633    320.35212   -183.37294    39062.633 
  557600     301.9153   -1466.6113     501.9162    386.13313    72.504376    39062.633 
  557700    297.49138   -1505.6317    491.65874    317.06177    45.938869    39062.633 
  557800    290.97097   -1560.2163    511.66283    253.30769    445.84211    39062.633 
  557900    291.54281   -1569.1214    498.53069    233.82895    307.33276    39062.633 
  558000    294.34354   -1550.6527    482.99087    249.28882   -391.12093    39062.633 
  558100    302.78151   -1586.2804    465.34575    233.76915   -241.17613    39062.633 
  558200     305.5161    -1540.211    493.61869    320.34657    235.22124    39062.633 
  558300    307.90369   -1559.9194    472.90577    290.60781   -292.75084    39062.633 
  558400    298.73928   -1570.6818    498.20425    264.14051   -381.61121    39062.633 
  558500    296.55891   -1575.9523    494.18219    245.09249   -331.17179    39062.633 
  558600    293.05797   -1537.3822    509.17539    282.99198    264.27358    39062.633 
  558700    303.42571   -1567.1375    487.18967    277.63824    133.44037    39062.633 
  558800    303.41401   -1573.5405    486.52733    270.52061    193.04386    39062.633 
  558900     293.5516   -1547.6686    470.62413    236.36294    1001.9304    39062.633 
  559000     311.0879   -1563.3529    474.25352    302.76888    742.84675    39062.633 
  559100    296.86042   -1528.3019    503.78753     303.6973    236.92765    39062.633 
  559200    296.50131   -1509.3954    514.11369     331.3232     48.37608    39062.633 
  559300    293.19043   -1554.8114    482.21892    239.19892   -47.476137    39062.633 
  559400    308.85146    -1534.613    489.97334    337.22227   -370.07248    39062.633 
  559500    311.04592   -1543.1199    491.16267    339.72319   -180.59099    39062.633 
  559600     301.5849   -1554.6869    484.55467    279.21772   -360.49206    39062.633 
  559700    303.69016   -1559.7846    485.77645    284.76116   -84.860353    39062.633 
  559800    292.63759   -1488.5047    503.20929    324.02248   -695.98552    39062.633 
  559900    289.96874   -1542.4133    490.51634    245.47995   -476.40461    39062.633 
  560000    301.71577   -1514.3303    483.94263    319.54777    285.32054    39062.633 
  560100     306.2075   -1520.5808     502.7001    352.15168    -271.7942    39062.633 
  560200    297.91754   -1521.6484    486.61134    297.90437   -62.169907    39062.633 
  560300    297.54316   -1542.9208    494.66262    283.00826   -113.52701    39062.633 
  560400     288.1127   -1525.0784    503.23378    267.22801   -98.525122    39062.633 
  560500    292.91473   -1541.4689    506.12053     275.2095    1171.2259    39062.633 
  560600    305.00511   -1543.1995    495.98883    317.44193    138.71739    39062.633 
  560700    295.86059   -1502.4617    483.27846    304.55499    105.82224    39062.633 
  560800    297.56427   -1485.0138    509.03819    355.38523    114.00456    39062.633 
  560900    300.07598   -1525.5017    479.49621    296.59327    550.24779    39062.633 
  561000     300.2769   -1566.6412    490.21732    267.07376    466.43869    39062.633 
  561100    302.13813   -1601.7723    472.74597     222.7989    268.00264    39062.633 
  561200    297.34886   -1615.5511    509.93671    224.78262    773.43639    39062.633 
  561300    293.81996   -1594.9713    473.59801    193.23474    738.42637    39062.633 
  561400    299.76293   -1567.4596    458.72523    232.46373    621.79732    39062.633 
  561500    305.17877   -1553.2829    506.47682    318.62348    170.37584    39062.633 
  561600    290.35794   -1561.6151    481.23117    218.73433    223.34923    39062.633 
  561700     298.9943   -1572.9246    477.48472    242.31914    557.25098    39062.633 
  561800    308.97153   -1531.4811    468.31643    319.23448    487.33653    39062.633 
  561900    294.12758   -1571.1967    488.64137     233.4291    368.49629    39062.633 
  562000    297.47621   -1579.9085    471.59182    222.65019   -246.37497    39062.633 
  562100    291.30953   -1581.5216    473.44853    195.30283   -194.47265    39062.633 
  562200    306.05143   -1534.8955      486.491    320.92949    244.74491    39062.633 
  562300    292.46296   -1556.0166    493.05517    245.57515    277.14049    39062.633 
  562400    301.94572   -1551.9882    496.82008    295.79622    675.39646    39062.633 
  562500    311.78715   -1546.1463    478.62012    327.47062    245.96036    39062.633 
  562600     306.2544   -1556.6888    476.23493    289.78829    209.42992    39062.633 
  562700    296.49233   -1547.5474    483.80831    262.82564    340.75635    39062.633 
  562800    300.24182    -1555.847    483.70459    271.19827    96.822448    39062.633 
  562900    298.62637    -1559.856    484.81478    261.07164   -194.11366    39062.633 
  563000      300.945   -1517.9936    479.02396    307.51725   -182.36013    39062.633 
  563100    304.69608   -1528.2919    479.04284    314.02084   -217.38691    39062.633 
  563200    296.71551   -1534.7516    494.97085    287.78258   -906.01854    39062.633 
  563300    302.64321   -1528.0173    483.98532    310.05304   -323.72141    39062.633 
  563400    311.32596   -1519.8181    503.93297    377.04824   -271.16372    39062.633 
  563500    301.12298   -1512.0751    489.08988    324.29798   -26.404499    39062.633 
  563600    301.16968   -1525.2648    497.42063    319.64797    286.93764    39062.633 
  563700    303.06181    -1540.117    476.19121    292.03208    360.47086    39062.633 
  563800    303.63344   -1528.7574    509.91543    339.67352    47.687663    39062.633 
  563900    303.77718   -1539.4562    497.45468    317.15706    515.70347    39062.633 
  564000    291.46412   -1577.0367    494.35528    221.38617   -304.64404    39062.633 
  564100    291.60382   -1510.5257    491.39452    285.56146   -507.09618    39062.633 
  564200    309.68881   -1511.9673    463.35681    336.99794    23.547388    39062.633 
  564300     292.6753   -1523.7935    498.53396    284.22704   -411.21804    39062.633 
  564400      296.687   -1529.8843     485.6218    283.17321   -306.08961    39062.633 
  564500    312.59273   -1548.1091    479.81916    330.31118   -55.920937    39062.633 
  564600    301.43999   -1558.7201    486.92238     276.9039   -341.80253    39062.633 
  564700    298.55392   -1508.0861    478.05569    305.75832   -858.15541    39062.633 
  564800    303.85492   -1547.1716     490.9563    303.29114   -397.99149    39062.633 
  564900    306.16468   -1526.2062    485.23212    328.86667   -639.95447    39062.633 
  565000     292.9861   -1544.9636    487.25864    253.17226   -1021.5508    39062.633 
  565100    302.11021   -1528.4219    487.63792    310.91627   -874.65079    39062.633 
  565200    289.94508    -1512.089    491.94565    277.12774   -468.18454    39062.633 
  565300    295.13064   -1526.0983    482.11055    276.48454   -17.305841    39062.633 
  565400    287.05384   -1501.3924    494.06668    277.00933     554.0491    39062.633 
  565500    312.44702   -1486.0424    494.59955    406.50638    83.675919    39062.633 
  565600     301.8359   -1518.9576    500.01341    331.52879    225.69028    39062.633 
  565700      294.495   -1508.4515    515.79815    324.97501    28.642096    39062.633 
  565800    299.63648   -1519.3499    472.90457    294.18693    148.33989    39062.633 
  565900    298.56293   -1549.5557    495.76069    282.03403    39.717759    39062.633 
  566000    293.55147   -1519.9955    492.94104    286.35235    183.49265    39062.633 
  566100    299.46017   -1518.0727    502.05058     323.8214   -345.48196    39062.633 
  566200    297.78968    -1495.161     469.2057    306.41408    17.635715    39062.633 
  566300    301.20034   -1527.2223    500.89027    321.29734    206.16717    39062.633 
  566400    298.60351   -1511.2304    480.24413     305.0243    64.754088    39062.633 
  566500    300.64863   -1517.2911    510.88401    338.75378    269.06439    39062.633 
  566600    304.48143   -1552.3187    485.21689    295.20778    247.26397    39062.633 
  566700    303.77965   -1506.9825    500.71284    352.89996   -184.62636    39062.633 
  566800    305.31989   -1499.3639    501.37769     368.0748    -386.3719    39062.633 
  566900    294.16831   -1499.2825    493.33171    310.21591   -827.82291    39062.633 
  567000    299.60794   -1501.7179    482.50782    321.29454   -72.508039    39062.633 
  567100    294.17899   -1558.1586     514.6058    272.66167    418.49885    39062.633 
  567200    309.10469   -1563.6873    494.40539    313.71302    196.38591    39062.633 
  567300    293.72243   -1557.7003    491.84674    248.31819     518.2163    39062.633 
  567400    302.71411   -1562.5336    467.19716    259.06579    573.03651    39062.633 
  567500    300.10135   -1593.8564    487.52122    236.37708   -303.09473    39062.633 
  567600    296.00745   -1586.2778    470.39334    208.51088    84.960151    39062.633 
  567700    291.97076    -1566.707    505.98083    245.60817   -206.17319    39062.633 
  567800    301.02812   -1570.8708    469.46915    245.45715   -184.98522    39062.633 
  567900    285.81006   -1581.4832    491.52509    188.81212   -44.654511    39062.633 
  568000    290.34653   -1603.5531    474.23638    169.75049   -119.41229    39062.633 
  568100     303.8257   -1575.2716    492.43384    276.53797   -667.80933    39062.633 
  568200    296.58704   -1565.4439    494.41321    255.95785    -172.3776    39062.633 
  568300    308.37787   -1531.2605    483.76427    332.24677   -300.67555    39062.633 
  568400    306.49114   -1520.6891    508.16265    358.77501   -388.58604    39062.633 
  568500    302.12829   -1542.9805    495.55068    304.35132   -138.53166    39062.633 
  568600    308.34285   -1564.0432    478.67464    294.21775    542.03024    39062.633 
  568700    306.49125   -1578.2371    487.55277    280.61756    461.70018    39062.633 
  568800    293.36638   -1587.2428    457.14152    182.47731    470.18707    39062.633 
  568900    300.34028   -1599.7114    490.44488    234.51474    358.09153    39062.633 
  569000    303.16216   -1547.3532    496.58326    305.63701    481.45866    39062.633 
  569100    307.05102   -1537.6106    489.36617    325.56198    357.28649    39062.633 
  569200    299.15346   -1557.6916      484.105    264.88458    6.2007541    39062.633 
  569300    298.52258   -1568.9443    474.08051    240.78464   -253.55584    39062.633 
  569400    303.45057    -1584.229    475.14175    248.61008    -162.3414    39062.633 
  569500    288.14644   -1574.7227    487.97541    202.47634   -418.14451    39062.633 
  569600    305.03171   -1556.1609    483.95796    292.56873   -464.33955    39062.633 
  569700     295.7932   -1532.9369    480.98439     271.4842   -472.09368    39062.633 
  569800    301.31038   -1524.5876    469.73165    293.26573   -426.49757    39062.633 
  569900    305.56019   -1544.6103    486.86534    309.39118    327.34237    39062.633 
  570000    302.18542   -1544.2129    492.36209    300.18595    -223.3516    39062.633 
  570100     304.6043   -1557.3187    492.87034    298.41095   -22.122317    39062.633 
  570200    292.39631    -1551.485    475.33926    232.09262    148.16978    39062.633 
  570300    291.87309   -1588.2087    477.91249    195.60115    38.589957    39062.633 
  570400    314.63037   -1537.8989    482.10178     351.9208    202.04893    39062.633 
  570500    287.28301   -1528.2304    499.50371    256.63377    78.991363    39062.633 
  570600    306.46358   -1496.2554     481.8924     356.8151    16.187731    39062.633 
  570700    295.38301   -1485.2254    477.88657    314.26265    8.8448399    39062.633 
  570800    290.95295    -1514.335    489.03067     276.4761    212.55085    39062.633 
  570900    302.51807   -1527.9002    480.75326    306.37814    640.40678    39062.633 
  571000    303.29006   -1510.0808    490.31995    337.21824   -82.037838    39062.633 
  571100    303.16601   -1484.9317    495.42877    366.92119    319.23797    39062.633 
  571200    303.14676   -1509.4836    476.04046    322.89482    65.369406    39062.633 
  571300    296.74286   -1540.9998    502.28902    288.97488    39.316307    39062.633 
  571400    309.10116   -1543.6659    466.66695    305.98017   -153.65459    39062.633 
  571500    296.52162   -1520.1252    516.28725    322.85784   -417.48331    39062.633 
  571600    291.93549   -1525.7786    481.92727    262.32523   -325.12282    39062.633 
  571700    298.09467   -1550.6496    479.56262      262.647   -503.28724    39062.633 
  571800    305.22534   -1517.4606    476.10244    324.27978    3.3189268    39062.633 
  571900    298.79128   -1509.8013    494.51913    321.56854     92.38434    39062.633 
  572000    295.58838   -1517.7732     489.0365    293.78357   -57.002806    39062.633 
  572100    305.62143   -1518.0551    473.30572    322.66075   -159.40446    39062.633 
  572200    305.01596   -1507.4142    473.40467    330.69169   -299.38276    39062.633 
  572300    301.08951   -1544.2395    493.16486    296.05878    49.564007    39062.633 
  572400    300.43901   -1552.1499    469.61717    261.69026    80.668913    39062.633 
  572500    294.16986   -1523.4778    471.22757    263.92333    378.19081    39062.633 
  572600    301.87249   -1524.5815    512.50097    338.55609    768.92422    39062.633 
  572700    307.21589   -1562.5236    458.70507    270.72555    150.20006    39062.633 
  572800    288.64394   -1568.6874    484.45197    207.21406   -54.736446    39062.633 
  572900    296.10141   -1555.8256    476.66786    245.65799    339.70398    39062.633 
  573000    295.98994   -1496.2103    499.01543    327.12208   -592.02339    39062.633 
  573100    297.29456   -1506.9713    491.31131    314.49413   -585.50182    39062.633 
  573200    295.96409   -1521.5462    471.29876     273.9539   -890.92258    39062.633 
  573300     299.0761   -1523.7256    468.92458    283.32398   -481.31627    39062.633 
  573400    290.05759   -1541.7985    461.13139    217.10732   -1188.8831    39062.633 
  573500    293.30557   -1490.0204    476.89897     299.1852   -984.13352    39062.633 
  573600    307.29511   -1461.1813    462.61348     376.3307   -826.41451    39062.633 
  573700    301.12557   -1475.4783    460.58942    332.40586   -313.25052    39062.633 
  573800    299.75087   -1525.9041    485.08469    300.32466   -322.79255    39062.633 
  573900    303.25097   -1533.9557    480.90524    303.75384    -288.3386    39062.633 
  574000    305.64483   -1506.5491     478.8771    339.84286   -489.50747    39062.633 
  574100     308.2702   -1487.4649    467.82693    359.62327   -359.83893    39062.633 
  574200    298.42549   -1508.8703    458.56653    284.91034   -396.50306    39062.633 
  574300    303.53931   -1546.7771    474.95835    286.27557    141.73574    39062.633 
  574400    293.01569   -1558.4928    465.96269    218.47944    434.31128    39062.633 
  574500    312.43628    -1551.128    482.27116    329.04424    424.65875    39062.633 
  574600    303.41749   -1600.7517    468.08378    224.88135    481.36623    39062.633 
  574700    302.05918    -1565.921    470.40658     255.9575    799.74823    39062.633 
  574800    296.34861   -1551.0717    455.93215    230.78214    194.50549    39062.633 
  574900    299.11872   -1600.3757    450.24925    188.18927   -324.43971    39062.633 
  575000     303.2092   -1581.8654    441.67986    216.43177   -914.57179    39062.633 
  575100     309.4643   -1554.5077    475.12898    305.22522   -113.42218    39062.633 
  575200    300.98296   -1555.8966    476.66411     267.4242   -414.06999    39062.633 
  575300    302.55825   -1514.9182    461.09863    299.88531    27.415704    39062.633 
  575400    302.52913   -1567.8954    496.25956    281.93874   -451.97658    39062.633 
  575500    286.40623   -1573.3514    454.37365    162.45981   -966.39287    39062.633 
  575600    296.57057   -1552.8205    470.35029    244.44457   -774.10995    39062.633 
  575700    294.51426   -1540.9523    465.20709    241.96926   -674.42862    39062.633 
  575800    305.48738   -1550.7905    478.07074    294.09061    40.520918    39062.633 
  575900    296.50769    -1541.745    478.16445    263.05288    878.90604    39062.633 
  576000    296.76238   -1527.3538    498.74656    299.16583    503.20753    39062.633 
  576100    289.70875   -1535.8977     442.6715    202.98745    434.10824    39062.633 
  576200    301.27226   -1518.3416    467.17244    296.78197    362.04548    39062.633 
  576300    287.33852   -1544.4622     479.1519    220.29856    572.36693    39062.633 
  576400    311.02635   -1543.9636    474.07051     321.6997    405.67237    39062.633 
  576500    293.19329   -1503.8591    478.00206    285.94718   -141.21526    39062.633 
  576600     313.9213    -1490.974    505.71173    419.28316   -61.855433    39062.633 
  576700    292.58304   -1470.4978    498.41571    336.99175    146.07764    39062.633 
  576800    311.89558   -1478.7659    483.77373     400.4897     65.68359    39062.633 
  576900    298.73189   -1483.1707    479.06948    332.48373    148.32745    39062.633 
  577000    296.15399   -1492.5424     505.1689    337.67752   -68.134912    39062.633 
  577100    303.88666   -1464.5618    497.71241    392.79909   -27.642992    39062.633 
  577200    299.83088   -1510.3032     471.4848    302.68367   -455.45608    39062.633 
  577300      294.992   -1497.0645    498.30784    321.09535   -313.77779    39062.633 
  577400    309.12616    -1471.425    483.59872    395.26471   -793.13062    39062.633 
  577500    302.96009   -1464.5816     509.2622    400.18338    -312.4999    39062.633 
  577600    296.07586   -1508.9946    472.45221    288.15901    -644.2407    39062.633 
  577700    305.33033   -1483.0188    499.18709    382.27597   -65.838811    39062.633 
  577800    294.01987   -1518.9354    479.73515    276.30223   -246.32219    39062.633 
  577900    288.78003   -1510.3944    466.27772    247.94177   -413.78808    39062.633 
  578000    285.18732   -1520.1179    464.37042    220.23645   -612.98236    39062.633 
  578100    290.11756   -1571.4354    460.80268    187.41009   -974.43684    39062.633 
  578200    303.22397   -1537.7477    469.15817    288.09389   -564.58154    39062.633 
  578300    292.02674   -1565.0949    478.02593    219.51583   -364.19824    39062.633 
  578400    307.23047   -1542.7234    487.07141    318.95728   -449.47673    39062.633 
  578500    294.13037   -1529.1664    476.35122     263.1817   -347.36188    39062.633 
  578600    293.91898   -1484.2231    493.03864    323.86665    -537.8859    39062.633 
  578700    302.41189   -1480.5779    490.30168    362.77381   -158.67409    39062.633 
  578800    306.50554   -1499.6964    470.65875    342.32823   -256.40201    39062.633 
  578900    303.21704   -1529.0294    476.44859    304.07161    162.96581    39062.633 
  579000    296.85872    -1573.924    455.85763    210.13764    322.38938    39062.633 
  579100    305.52426   -1553.5701    458.87266    272.27798    812.60381    39062.633 
  579200     305.5437   -1564.4453    473.49674    276.11376      914.047    39062.633 
  579300    297.08265   -1581.2139    459.00886     207.0009    551.74742    39062.633 
  579400    298.41733   -1484.0357    499.14631    350.28819    813.98259    39062.633 
  579500    295.89133   -1563.5776    487.32912    247.62729    557.23847    39062.633 
  579600     310.0399   -1570.0667    469.25755     286.3701    369.82261    39062.633 
  579700    299.30509   -1557.7914    482.72352    264.08169    933.02664    39062.633 
  579800     302.4143   -1503.2104    472.69809    322.54849    622.31228    39062.633 
  579900    305.75072   -1532.8198     501.9503    337.11909    424.18807    39062.633 
  580000    307.93903   -1510.2649    468.02107     335.5357   -379.91881    39062.633 
  580100    306.54053   -1512.4422    473.24324    332.32343   -194.41978    39062.633 
  580200    304.75404    -1507.266    455.78577      312.049    499.24799    39062.633 
  580300    304.74067   -1522.6084    476.52118    317.38227    317.27342    39062.633 
  580400     302.9774   -1538.1584    467.88077    285.30262   -32.410156    39062.633 
  580500    303.29455   -1533.6866    445.10018    268.41277   -57.228111    39062.633 
  580600    288.07648   -1503.8126    493.64076    278.73874    351.63652    39062.633 
  580700    300.18584    -1472.388    491.76686    362.46909    705.44916    39062.633 
  580800    303.31314   -1510.0565    446.08627    293.11218    556.73125    39062.633 
  580900    310.77664   -1516.6759     479.4948    353.29446    676.80965    39062.633 
  581000    294.91064   -1540.6752    476.35695    255.16973    368.65967    39062.633 
  581100     303.0112   -1558.3216    465.66436    263.07424   -14.828762    39062.633 
  581200    298.17232   -1516.7987    483.63946    300.92215   -184.48008    39062.633 
  581300    304.21324   -1514.1054    459.51262     306.5168   -163.15925    39062.633 
  581400    298.77529   -1511.8569    480.64694    305.56918     21.92727    39062.633 
  581500    293.60487   -1522.5903    467.88472    258.94015    583.94807    39062.633 
  581600    294.88585   -1520.7681    485.58691    284.19583   -111.00639    39062.633 
  581700    305.02575   -1534.5586     476.1324    306.31871    570.44375    39062.633 
  581800    299.45981   -1519.2384    463.85182    284.45526    248.41268    39062.633 
  581900    297.10712   -1565.1753    451.24209    215.38222    131.19443    39062.633 
  582000    304.41275   -1539.3435    489.41637    312.07513    467.47393    39062.633 
  582100    305.15325   -1590.3861    462.43039    237.35975   -48.309956    39062.633 
  582200    293.63491   -1578.0007    462.82915    198.60858    368.41711    39062.633 
  582300    296.29009    -1528.837     473.7871    270.61002   -254.35053    39062.633 
  582400    300.94139   -1565.5174    474.28789    255.24127    143.34721    39062.633 
  582500    300.72552    -1521.967    464.21432    287.75215    176.91947    39062.633 
  582600    302.27262    -1532.745    492.51196    312.19384   -325.39624    39062.633 
  582700    297.09594   -1518.4622    461.81811    272.62135   -74.750537    39062.633 
  582800    299.45647   -1538.8381    507.44953    308.43835     20.94243    39062.633 
  582900    293.54994   -1513.8023    478.62608    278.22369    -108.8061    39062.633 
  583000    307.27841   -1492.2087    471.74468    354.35972    162.25548    39062.633 
  583100    300.57467   -1492.8387    466.84621    318.83742   -186.51034    39062.633 
  583200    311.73205   -1509.1386    489.20292    374.81454   -766.31641    39062.633 
  583300    300.15165   -1526.8122    471.01158    287.13667     161.8663    39062.633 
  583400    289.74539   -1532.9516    477.98668    241.41275    675.42705    39062.633 
  583500     301.5708   -1506.3604    476.30404    319.23042    107.61344    39062.633 
  583600    292.13639     -1477.47     477.8023     307.4077   -198.30813    39062.633 
  583700    293.65667   -1500.4514    502.47062     315.8967   -300.19957    39062.633 
  583800     297.4949   -1516.2773     499.1831    313.95627   -126.57337    39062.633 
  583900    299.80172   -1511.7899     460.3083    289.88997    404.76621    39062.633 
  584000    299.98139   -1490.6873    480.01175    331.49992   -183.43545    39062.633 
  584100    297.56919   -1510.9374    489.87408    310.31952     117.2416    39062.633 
  584200    311.62289   -1447.9345    509.12713    455.45449    118.34358    39062.633 
  584300    296.96067   -1490.6354     492.2414    330.26622   -13.829851    39062.633 
  584400    307.41662   -1513.5594    486.52784    348.41057    167.68039    39062.633 
  584500    294.36739   -1487.6221    504.78131    334.21659   -219.67626    39062.633 
  584600    295.35124   -1530.2493    485.31808    276.52812   -724.94763    39062.633 
  584700    309.01295   -1520.1619    481.44061    343.86321   -590.09251    39062.633 
  584800     287.9114   -1509.3857    476.87688    255.66314   -628.72706    39062.633 
  584900    301.92085   -1509.4135     443.5912    285.03071    -485.9571    39062.633 
  585000    294.17164   -1482.0341    492.09373    326.24119   -805.33036    39062.633 
  585100    310.68788   -1529.3968    471.82511    332.50677   -269.11922    39062.633 
  585200    296.54896   -1558.0295    487.97887    256.76755    90.145197    39062.633 
  585300    299.13454   -1522.2979    502.17429    318.26291    35.979725    39062.633 
  585400    296.23362   -1551.7694    470.49955    244.13735    157.97589    39062.633 
  585500    298.59301   -1577.1699    495.69333    254.48706    143.21007    39062.633 
  585600    287.37392   -1533.8015    452.79415    204.75985    103.49092    39062.633 
  585700    306.47662   -1555.8831    513.45392    328.80729    464.13776    39062.633 
  585800    301.07677   -1521.8059    489.15102    314.42151    112.47103    39062.633 
  585900    294.07248   -1527.9153    463.63342    251.45598   -427.35242    39062.633 
  586000    292.47227   -1566.5637    486.05379    228.06832   -97.699005    39062.633 
  586100    305.31579   -1529.8657    476.77669    312.95367   -265.20815    39062.633 
  586200    295.64932   -1535.3313    485.76892    273.23062    788.75424    39062.633 
  586300    306.46412   -1553.7774    498.14088    315.54398    730.95189    39062.633 
  586400     301.1408   -1556.7609      464.394    254.99599    179.03372    39062.633 
  586500    298.65991   -1512.5475    476.58065    300.29607    43.124531    39062.633 
  586600    303.92738    -1497.459    480.43854    342.81012   -408.94201    39062.633 
  586700    297.81067   -1512.9034    458.85849     278.4184   -955.93063    39062.633 
  586800    308.08921   -1455.0634     516.7268    440.11488   -745.50766    39062.633 
  586900    296.23371   -1478.2392    473.14276    320.31118   -843.98928    39062.633 
  587000    298.76681   -1466.7074    487.47058    357.50446   -447.74778    39062.633 
  587100    299.41827   -1484.3934    502.97807     358.2407   -328.12166    39062.633 
  587200      300.872   -1483.9759    510.62271     372.8071   -348.88117    39062.633 
  587300    297.22348   -1473.0805     481.0112     337.7668   -27.711574    39062.633 
  587400    319.66695   -1464.8269    477.86063    443.28626    3.4876218    39062.633 
  587500     296.8811   -1524.7772    479.31234    282.83931    198.84385    39062.633 
  587600    309.63565   -1542.4367     487.0717    330.00556    842.20707    39062.633 
  587700    299.72246   -1522.4155    470.54609    289.14763    549.40418    39062.633 
  587800    301.78906   -1523.1279    493.28208    320.41758    520.51865    39062.633 
  587900    288.51468   -1495.7934    507.04984    302.12767    335.05285    39062.633 
  588000    300.01525   -1463.8254     461.7283    340.22994    340.49218    39062.633 
  588100    307.32695    -1477.557    479.22692    376.71093   -558.69471    39062.633 
  588200    301.07382   -1494.0566    499.20761    352.21423   -54.489136    39062.633 
  588300    296.71799   -1479.8806    510.26056    357.95436    196.44659    39062.633 
  588400    297.51573   -1481.6489    491.14196    340.63675    349.48604    39062.633 
  588500    300.59462   -1501.8372    490.61632    333.69833    358.51507    39062.633 
  588600    306.51603   -1529.9056    498.92593    340.43313   -309.74361    39062.633 
  588700    302.06975   -1501.6787     488.0642    337.90473   -297.02111    39062.633 
  588800    307.67401   -1488.9457    484.96025    372.60836   -175.82838    39062.633 
  588900    303.10085   -1497.3276    520.67906    379.48407  -0.38153261    39062.633 
  589000    300.21933   -1545.0383    502.66045    300.86224    78.610819    39062.633 
  589100    301.75459   -1478.1376    476.53861    348.51015    151.90758    39062.633 
  589200    298.55227   -1485.5367    511.74183    361.98646   -154.69761    39062.633 
  589300    300.19704   -1566.0809    452.28395     229.3434   -373.33474    39062.633 
  589400    292.97004    -1502.656     478.0455    286.19484    192.61332    39062.633 
  589500    303.05222   -1481.0023    498.08069    372.99338   -314.66251    39062.633 
  589600    305.59886   -1454.4895    473.58316    386.40283   -360.16945    39062.633 
  589700    312.04065   -1507.6766    477.69424    366.14869    11.479653    39062.633 
  589800    295.58407   -1560.9975    454.48319    215.98674   -842.52848    39062.633 
  589900    301.53449   -1532.6726    487.76622    304.21803    -491.1909    39062.633 
  590000    298.59667   -1510.4272    507.64046    333.19322   -311.95206    39062.633 
  590100    290.07214   -1563.9209    468.41811    202.33683   -81.692549    39062.633 
  590200    315.39441   -1489.3402    472.68343    394.47958    512.36325    39062.633 
  590300    294.27835   -1486.6828      519.612    349.58822    102.06353    39062.633 
  590400    296.59744   -1505.5176    490.60065    312.11815    67.506451    39062.633 
  590500    307.15574   -1478.9801    500.27364    395.56851    170.07304    39062.633 
  590600    297.85375   -1483.1241    497.12004    346.65197    125.88615    39062.633 
  590700    321.47118   -1491.4791    493.01785    439.86375   -25.399518    39062.633 
  590800    295.60277   -1547.4033    478.59305    253.77443   -31.591796    39062.633 
  590900    301.36516   -1554.7645    506.24985    299.85216   -126.15493    39062.633 
  591000    302.84432   -1555.6049    488.09262    287.47251    48.859158    39062.633 
  591100    294.67942   -1501.3291    508.14195    325.26636   -459.38529    39062.633 
  591200    300.80474   -1503.1661    515.37371    358.06696   -637.36172    39062.633 
  591300    296.93186   -1521.9849    466.40985    272.95623   -726.59365    39062.633 
  591400    304.61656   -1553.6386    493.02425    302.29983   -168.53355    39062.633 
  591500    302.92918   -1546.2631    499.82942    308.93077   -71.282236    39062.633 
  591600    296.03708   -1522.9038    505.23737    306.86147    141.51459    39062.633 
  591700    298.65299   -1558.6275    478.75735     256.3618    351.92188    39062.633 
  591800    311.09986   -1555.9469    506.89598    342.87076     434.8497    39062.633 
  591900    296.16116   -1581.6451    482.97194    226.40994    253.03434    39062.633 
  592000    302.44343   -1534.3582    504.08997    322.92294    149.86474    39062.633 
  592100    297.45515   -1566.5411    485.66131    249.99276    -130.4463    39062.633 
  592200    302.81568   -1535.0322    469.77886    289.60332   -80.147151    39062.633 
  592300    304.37409   -1526.8324    500.53955    335.53646    147.76153    39062.633 
  592400    301.99937   -1519.7135     507.0972    338.58809     179.6537    39062.633 
  592500    296.54154     -1520.45    481.24416    287.57912   -252.51841    39062.633 
  592600    304.77144   -1553.9706    495.72223    305.35875   -251.41106    39062.633 
  592700    295.17872   -1568.3672    485.67246    237.99273   -322.65792    39062.633 
  592800    312.73429   -1524.6753    470.59663    345.15579    -508.0877    39062.633 
  592900     302.8206   -1553.3151    504.11831    305.68191   -599.73517    39062.633 
  593000    299.13092    -1506.559    480.79792    312.60922   -257.08042    39062.633 
  593100    305.39226   -1518.1434    487.67842    335.91981   -53.229682    39062.633 
  593200    294.72008   -1508.7504    488.11314    297.99813   -369.87915    39062.633 
  593300    305.53183   -1491.2297    496.57798    372.35749   -553.88025    39062.633 
  593400    305.06183   -1500.6214    482.48348    346.76849   -122.74674    39062.633 
  593500    287.38679    -1502.681    490.68545     273.8292   -100.46754    39062.633 
  593600    294.72937   -1510.5084    520.00824    328.17677    169.93574    39062.633 
  593700    302.58133   -1497.0166    509.52563    366.31716    279.16882    39062.633 
  593800     296.9164   -1502.9815    495.12393    320.60453   -41.885393    39062.633 
  593900    294.52132   -1501.5621    496.71218    312.89614   -3.4644307    39062.633 
  594000    286.54253   -1497.2654    529.99542    314.77745   -183.60279    39062.633 
  594100    299.46568   -1525.6503    512.38493    326.60267    94.422618    39062.633 
  594200     309.5299   -1517.3007    458.37059    325.96732    87.670309    39062.633 
  594300    309.59981   -1577.4587    498.36587    306.11731    396.27729    39062.633 
  594400    302.39363   -1534.8835    482.45895    300.54381    704.16766    39062.633 
  594500    305.43505   -1512.5914    508.08144    362.06621    416.03339    39062.633 
  594600    305.30738    -1517.215    494.29315    343.08319    465.14859    39062.633 
  594700    304.54426    -1542.222    488.46559    308.83429    440.89835    39062.633 
  594800    301.45632     -1523.72    492.68068    317.73529    563.24106    39062.633 
  594900    309.36166   -1544.8176    462.89395    302.22101    54.270925    39062.633 
  595000    302.01862   -1524.4712     508.5179    335.33715   -180.27869    39062.633 
  595100    303.08385   -1540.6151     487.1596    302.60099   -121.24143    39062.633 
  595200    292.15279   -1530.8713    498.10998    274.38743    -32.93952    39062.633 
  595300     296.5789   -1547.8928    493.37589    272.43513   -787.67216    39062.633 
  595400    297.94399   -1558.8473    498.26476     272.4772   -589.90772    39062.633 
  595500    290.40413   -1514.1667    482.99116    268.14939   -445.95925    39062.633 
  595600    305.04815   -1525.2249    497.90927    337.52952   -399.64859    39062.633 
  595700    297.89406   -1542.4285    468.83887    259.24679   -644.62545    39062.633 
  595800    302.88948   -1559.3803    494.98578    290.79232    87.363678    39062.633 
  595900    301.30489   -1538.9692    512.96993     322.0978   -225.53202    39062.633 
  596000    300.06585   -1541.9182    471.73937    272.37457   -312.39157    39062.633 
  596100    296.35428   -1536.8955    487.39256     276.4442   -531.54619    39062.633 
  596200    296.73012   -1552.8225    470.09372    244.89988   -200.04444    39062.633 
  596300    297.21421   -1540.5384    512.17715    301.43331    87.920769    39062.633 
  596400     304.1475   -1546.6523    489.43906    303.60223    79.506534    39062.633 
  596500    318.62797   -1534.0528    479.51395    371.06516   -207.38508    39062.633 
  596600    311.90549   -1560.7781    470.82192    305.57007   -440.91307    39062.633 
  596700    292.99587   -1537.2216    476.09265    249.79194   -231.91114    39062.633 
  596800    291.39924    -1544.844    481.87148    240.80481   -129.67547    39062.633 
  596900     299.9219   -1522.2474    481.24221    300.90412   -403.38218    39062.633 
  597000    311.48973   -1520.4123    476.29366    349.54742   -218.94097    39062.633 
  597100     302.7098    -1522.248    498.05385    330.18883   -171.12717    39062.633 
  597200    289.79462   -1538.3405     488.4943    246.75172    129.64315    39062.633 
  597300    296.09235   -1527.8522    491.68849    288.61151    771.01712    39062.633 
  597400    295.16846   -1522.9553    504.14448    301.83072    592.29259    39062.633 
  597500    299.01272   -1539.5202    480.65424    278.97555    735.13329    39062.633 
  597600    308.89679   -1500.3578    491.57566    373.28261    1054.6263    39062.633 
  597700    297.71176   -1499.3365    495.06924     327.7535    490.42038    39062.633 
  597800    302.84536   -1485.2883    484.29943    354.00058    457.54995    39062.633 
  597900    306.94911   -1497.0752    480.29315    356.56835    176.97693    39062.633 
  598000    305.84103   -1469.0099    486.75307    386.13583    322.91339    39062.633 
  598100    304.30854   -1450.3803    479.41269    390.56848    51.684813    39062.633 
  598200    309.63368    -1419.488    501.44863    467.32231    9.1926495    39062.633 
  598300    293.26151    -1467.354    499.27597    344.03144   -359.34892    39062.633 
  598400     304.4541   -1443.3685    473.94321    392.76201   -324.29636    39062.633 
  598500    298.55602   -1434.4603    497.90157    399.23938    280.32497    39062.633 
  598600    287.93291   -1461.9426    475.53577    301.86135   -66.392573    39062.633 
  598700     296.2942   -1472.6044     515.2913    368.36522   -197.87627    39062.633 
  598800     303.8286   -1511.3051    496.38403    344.46762    588.04796    39062.633 
  598900     307.1919   -1546.4443    468.12436    296.11684    118.10702    39062.633 
  599000     306.3498   -1542.4383    474.44192     302.6726     194.7674    39062.633 
  599100    294.68849   -1531.9646    492.75079    279.28024   -156.45706    39062.633 
  599200    298.27392   -1493.8116    475.60951    316.33382    266.55927    39062.633 
  599300    304.85093   -1505.4451    489.91876    348.43645    58.136956    39062.633 
  599400    308.04094     -1537.01    488.91855    330.14406    444.28434    39062.633 
  599500    306.82877   -1528.3117    484.12633    328.62667   -6.6704351    39062.633 
  599600    305.49956    -1518.197    487.72263    336.39047   -265.28208    39062.633 
  599700    310.60299   -1473.6191     477.1126    393.19206   -126.93456    39062.633 
  599800      308.914   -1485.7801    484.99939    381.36103   -535.90477    39062.633 
  599900    293.26516   -1504.6964    479.16614    286.59556   -178.93439    39062.633 
  600000    300.15163   -1500.5372    476.99899    319.39893   -427.62728    39062.633 
  600100    288.03629   -1495.4532    481.20913    274.48671   -337.88282    39062.633 
  600200    290.29063   -1526.7068     477.1633    249.27366    237.01397    39062.633 
  600300    309.56545   -1512.6095    505.35547     377.8025    716.71506    39062.633 
  600400    284.67362   -1525.1459    476.40493    224.94461    82.857921    39062.633 
  600500    294.15901   -1539.8444    482.26886    258.54952   -265.93308    39062.633 
  600600    311.76333   -1559.6604    482.67143    317.90123    336.03322    39062.633 
  600700    292.08212   -1507.2236    476.46815    276.07714   -397.17037    39062.633 
  600800     312.0347   -1505.7638    492.53142    382.87199    -951.2468    39062.633 
  600900    311.53743   -1524.6372    475.66986    344.91209    40.798174    39062.633 
  601000    304.15218   -1507.5384    507.65456    360.95257   -46.572221    39062.633 
  601100    301.46843   -1553.7512    473.65831    268.73591    72.616805    39062.633 
  601200    300.59566   -1519.6895     475.4302    300.66456    -146.6092    39062.633 
  601300    283.07563   -1477.1644    486.97093    276.34232    -412.0027    39062.633 
  601400    307.84626   -1513.4965    506.43941    370.30737   -402.61477    39062.633 
  601500    290.12187   -1530.4968     503.7634    271.32866    263.53118    39062.633 
  601600    292.17592   -1534.7858     476.7982    249.26471    192.05109    39062.633 
  601700    297.48567   -1541.9209    470.22864    259.31686     45.87824    39062.633 
  601800    298.33705   -1547.0924    494.67166     282.3976   -73.589996    39062.633 
  601900    299.62049    -1527.461    491.54731    304.64703   -98.649965    39062.633 
  602000    299.85345   -1589.7686     480.8634    232.69783   -12.402734    39062.633 
  602100    295.76106   -1517.3099    490.04568    296.02866    11.315908    39062.633 
  602200    295.27261   -1496.6881    474.79983    299.21917   -384.74612    39062.633 
  602300     295.3318   -1538.8055    511.45731    294.02411   -228.10432    39062.633 
  602400    307.15615    -1544.539    490.29163    320.02943    -266.0641    39062.633 
  602500    306.35095   -1532.0829    457.73466    296.32593   -55.492059    39062.633 
  602600    302.13399   -1534.0614    458.40815    276.15338   -410.62719    39062.633 
  602700    302.11683    -1572.958    476.21638    254.98829   -492.75724    39062.633 
  602800    298.54831   -1568.4536    450.66256    217.97261    86.553328    39062.633 
  602900    299.94506   -1559.6591    482.68157    265.03547   -502.95985    39062.633 
  603000    313.83638   -1614.2926    458.98252    248.85532   -70.794416    39062.633 
  603100     309.7573   -1572.7351    442.93673    256.11643    -322.8591    39062.633 
  603200    297.38874   -1544.3204    497.07827    283.33329   -309.51651    39062.633 
  603300    295.81417   -1566.1354    458.44843    215.84353    -264.1861    39062.633 
  603400     298.9725   -1523.9962     475.8152    289.48053    162.16631    39062.633 
  603500    303.49995   -1551.3449    457.67205    264.24543   -408.94914    39062.633 
  603600    307.26009   -1533.6451    476.75147    317.84825   -511.00459    39062.633 
  603700     306.4728   -1539.9587    453.53635    284.79701   -943.69561    39062.633 
  603800    297.64991   -1574.4678    467.48361    224.75986    -26.26448    39062.633 
  603900    306.45584   -1554.6733    457.96332    274.43346    177.86527    39062.633 
  604000    289.58208   -1538.6699    483.61349    240.59057   -18.728581    39062.633 
  604100     304.2265   -1560.6364    455.08012    255.61272    406.97424    39062.633 
  604200     301.3567    -1531.546    463.11014    279.89307    257.42051    39062.633 
  604300     303.4717   -1573.4089    482.62325    267.00617    363.78159    39062.633 
  604400    291.73955   -1564.4868    492.89882    233.71189    39.538719    39062.633 
  604500    293.08127   -1562.6737    474.84652    223.47581    84.602435    39062.633 
  604600    298.74796    -1547.276    479.88956    269.27039     -245.301    39062.633 
  604700     293.3802   -1524.5054    489.62987    277.76498   -20.890254    39062.633 
  604800    299.10489   -1509.3435     481.6388    310.54917     239.1087    39062.633 
  604900    303.49623   -1518.4056    506.88355    346.37956    208.95492    39062.633 
  605000    302.57771   -1520.0375    506.84279    340.59727    559.08576    39062.633 
  605100    297.48241   -1504.2284    509.08183    335.84802   -44.221325    39062.633 
  605200    304.82802    -1531.584    454.64518    286.92149   -270.42107    39062.633 
  605300    311.73673   -1533.4288      476.633    337.97545    25.791938    39062.633 
  605400    308.28763    -1545.697    481.05848    314.70069    6.4580275    39062.633 
  605500    302.37611   -1559.7519    474.38892    267.52697    144.53757    39062.633 
  605600    307.22125   -1537.7845    467.43079    304.21435   -19.325837    39062.633 
  605700    296.09967   -1543.3327    487.49643    268.97161   -683.80549    39062.633 
  605800    291.49344    -1575.771    509.79779    238.22553   -238.01333    39062.633 
  605900    302.90137   -1499.4908    480.76063    336.50989   -8.2739753    39062.633 
  606000    287.81676   -1506.0637    489.46321    271.14805    194.02312    39062.633 
  606100    300.83262    -1545.989    494.92433    294.91944    197.57781    39062.633 
  606200    297.26087   -1510.4982    493.70087    313.20599    170.42516    39062.633 
  606300    291.42549   -1499.3244    514.74133    319.31166    223.67029    39062.633 
  606400    295.79954    -1508.498    494.99347    309.96049    330.75646    39062.633 
  606500    292.40769   -1504.3214    488.17591    292.14378    696.65899    39062.633 
  606600    302.04685   -1505.2347     509.1898    355.37185    589.09557    39062.633 
  606700    291.92877   -1530.1342    493.37996    269.39226    655.74494    39062.633 
  606800    298.94874   -1500.7701    496.59768    333.38283    294.74595    39062.633 
  606900    295.69107   -1534.3115    495.65466    284.32293    190.68802    39062.633 
  607000    302.61066   -1532.6564    494.03569    315.31869    283.07894    39062.633 
  607100    305.66567   -1529.5531    489.74707    327.80208   -256.99637    39062.633 
  607200    293.76685   -1508.0719    497.76412    304.06261    403.07347    39062.633 
  607300    291.31521   -1469.7067    493.28044    326.97504   -2.2176993    39062.633 
  607400    299.18741   -1510.6263    515.63165    343.62845    65.995509    39062.633 
  607500    295.55393   -1499.2828    486.40332    309.48668   -179.82128    39062.633 
  607600    300.79019   -1515.3946    487.56765    317.96724   -347.82167    39062.633 
  607700    300.60219   -1509.9024    478.60217     313.6528   -375.70179    39062.633 
  607800    304.37829   -1525.9804     498.2975    334.16518   -376.33614    39062.633 
  607900    304.08141   -1507.7785    500.39657    353.13783   -704.31151    39062.633 
  608000    293.81986   -1495.4533    480.97821    300.13256   -179.01548    39062.633 
  608100    298.41359   -1526.0228    485.72799    294.86601   -434.99311    39062.633 
  608200    312.25167    -1513.345     501.0199       384.75   -295.79783    39062.633 
  608300    299.78977   -1502.9271    488.66864     327.0597   -301.03335    39062.633 
  608400    303.34077   -1480.2927    505.85296    382.76623   -376.05303    39062.633 
  608500    296.56545   -1509.0392    471.53168    289.38442    -422.8193    39062.633 
  608600    299.46591   -1474.1258    496.69182    362.43521   -382.49103    39062.633 
  608700    286.24001   -1515.8958    470.87256    235.67062   -163.67621    39062.633 
  608800    304.41495   -1558.6876    491.50607    294.83061   -133.78898    39062.633 
  608900    299.02445   -1541.9511    469.51777    265.46066   -60.265806    39062.633 
  609000    294.38953   -1496.6807    475.48093    295.95665    39.027646    39062.633 
  609100    294.20492   -1510.4531    493.02568    298.90299    660.70563    39062.633 
  609200    299.44063   -1502.6088    503.57049    340.71772    870.96303    39062.633 
  609300    304.51868   -1471.0566     499.3654    390.78499    846.88118    39062.633 
  609400    293.41815    -1501.783    502.80897    313.83622    521.74354    39062.633 
  609500    301.82424   -1500.3245    467.09268    317.18896    379.65683    39062.633 
  609600    297.83244   -1506.6477    516.47872    342.39167   -69.319048    39062.633 
  609700    300.07018    -1501.142    485.30434    326.73514   -75.949162    39062.633 
  609800    308.45054   -1468.7942    488.57006    399.84398   -117.34097    39062.633 
  609900    304.28597   -1488.6275    478.13562    350.94318    290.66007    39062.633 
  610000    290.46791   -1519.7917    456.96099    236.77959    323.09659    39062.633 
  610100    302.97347   -1528.9428    530.92113    357.54105    91.404565    39062.633 
  610200    295.06029   -1544.2912    488.48375     264.3501    283.22421    39062.633 
  610300    301.13472   -1558.0269    480.38644    269.69522    719.61254    39062.633 
  610400    299.78858   -1562.6278    523.36107     302.0461    459.67544    39062.633 
  610500    290.40618   -1546.1206    471.92029    225.13386    358.54086    39062.633 
  610600    290.46764   -1553.6964    463.01068     208.9234    343.02163    39062.633 
  610700    301.35704   -1513.8365    493.10682    327.60072    512.86984    39062.633 
  610800    302.40296   -1540.3691    502.08073    314.72165     1009.478    39062.633 
  610900    296.29272   -1525.7198    487.58648    287.53839    647.98801    39062.633 
  611000    301.41782   -1563.6009    475.42548    260.42693    531.39011    39062.633 
  611100    289.75619   -1536.3576    485.46925    245.53758    408.80035    39062.633 
  611200    301.44695   -1542.4209    459.56915    265.88094    739.78523    39062.633 
  611300     299.2851   -1593.2623     478.6553    224.45313    587.92041    39062.633 
  611400    303.14106   -1532.7807    485.55214    309.08395    648.14319    39062.633 
  611500    307.73343   -1536.3468     489.9478    330.46065    824.98627    39062.633 
  611600    302.47656   -1583.4343     453.1302    223.03528    572.74159    39062.633 
  611700    302.50787   -1584.5558    500.85673    269.78041    919.97093    39062.633 
  611800    289.97063   -1548.8079    455.32085    203.89828    689.77423    39062.633 
  611900    290.37221   -1549.8779    475.87565    225.17994    298.45302    39062.633 
  612000    295.03195   -1539.9278    512.84218    292.94512   -358.88679    39062.633 
  612100    291.23103   -1532.5142    503.24508    273.75553   -627.70711    39062.633 
  612200    315.25244   -1542.4494    496.15084    364.20261   -924.10991    39062.633 
  612300    294.29242   -1509.3152    468.92819    276.33495   -317.05436    39062.633 
  612400     298.7207   -1550.4314    492.00116    278.10466   -297.64698    39062.633 
  612500    304.37006   -1528.8151     481.2017    314.19781     172.8975    39062.633 
  612600    300.16166   -1519.1634    500.39683    324.21545   -482.41785    39062.633 
  612700     301.0943   -1531.4139    469.19235    284.93329   -235.88564    39062.633 
  612800    297.60052   -1539.2908    474.26074      266.493   -487.73313    39062.633 
  612900    300.84566     -1530.78    474.26447    289.52687    368.85588    39062.633 
  613000    294.47992   -1570.2643    482.01389    229.31044    374.95533    39062.633 
  613100    296.72854   -1572.5323    480.39014    235.47947    412.97003    39062.633 
  613200    303.69745   -1531.6244    475.65627    302.83375    282.50699    39062.633 
  613300    294.06348   -1547.2223    472.74574    241.22103   -95.761514    39062.633 
  613400    306.78186   -1540.0435    482.01848    314.57713    55.748274    39062.633 
  613500     301.4631   -1479.1533    476.41697    346.06866   -342.80418    39062.633 
  613600     292.3879   -1531.7339    471.86026    248.32712   -895.43133    39062.633 
  613700    298.44755   -1546.0112    462.04891    251.35051   -286.21249    39062.633 
  613800    305.97599   -1508.3487    490.25297    350.90079    -647.7253    39062.633 
  613900    300.58231   -1531.2637     490.4804    304.08086    -461.2935    39062.633 
  614000    291.13375   -1541.9026    474.24768    234.93449   -288.43653    39062.633 
  614100    299.84388   -1545.6935    500.61226    296.47905    136.51654    39062.633 
  614200    294.45402   -1522.1121    517.61056    312.94342    238.88625    39062.633 
  614300    289.85637   -1540.4582    486.12521    242.54118    307.05327    39062.633 
  614400    314.32614   -1548.2306    499.95902    358.08512    1226.5015    39062.633 
  614500    303.01395   -1534.1326    488.58056    310.19171    847.90162    39062.633 
  614600     303.2985   -1565.8596     471.6184    262.77573    571.14213    39062.633 
  614700    306.82348   -1529.3858    481.47083    324.87338    696.97713    39062.633 
  614800    310.13446   -1533.6955    498.20682    352.11368    38.749332    39062.633 
  614900    308.76137   -1526.4946    442.91204    297.87632   -210.27448    39062.633 
  615000    294.65687   -1536.3289    501.58438    283.60803   -54.563271    39062.633 
  615100    301.37293   -1561.2737    464.93422      252.062    147.43389    39062.633 
  615200     297.7243   -1535.7288    460.56766    256.91565    105.49063    39062.633 
  615300    304.37671   -1542.5638    474.46792    293.74517    217.38046    39062.633 
  615400    292.70716   -1535.5843    504.84597    278.89086     -255.734    39062.633 
  615500    304.42964   -1519.2734    478.22356    321.02805   -121.52601    39062.633 
  615600    297.96649   -1543.0109    504.32348    294.47304   -147.65834    39062.633 
  615700    301.15707   -1511.7666    507.45737    343.12645   -331.63469    39062.633 
  615800    306.40481   -1544.2767     489.8094    316.44786   -671.24118    39062.633 
  615900    294.37856   -1543.3107    476.66084    250.45749   -513.25879    39062.633 
  616000    290.57869    -1480.086     472.8748    292.89482   -846.80249    39062.633 
  616100    301.22105   -1510.9679    471.33096    308.08503   -675.20438    39062.633 
  616200    302.27048   -1519.0777    469.03655    302.37615   -694.24081    39062.633 
  616300    295.72439   -1564.6033    477.11518     235.6407    156.99808    39062.633 
  616400    307.18016    -1533.221    471.33575    312.49894    70.782847    39062.633 
  616500    292.86994    -1566.835    450.33292    193.85545    651.52109    39062.633 
  616600    292.86852   -1553.2458    475.28228    232.38762    208.99948    39062.633 
  616700    299.35852   -1532.4967    496.01404    302.90601    7.5986961    39062.633 
  616800    296.59797   -1560.8492    446.75728    212.94551   -129.28733    39062.633 
  616900    300.84157   -1553.4882    468.41323     260.9492   -143.31106    39062.633 
  617000    305.27076   -1511.0902    467.40692    322.15786   -212.94508    39062.633 
  617100    296.04246   -1484.6353    501.50252    341.41921   -395.74729    39062.633 
  617200    300.55208   -1462.7463    475.51503    357.49757    23.206693    39062.633 
  617300    306.59068   -1467.7558    495.18951    399.18045   -74.426106    39062.633 
  617400    307.55957   -1529.2471    497.85795    344.69261   -401.82861    39062.633 
  617500    291.97706   -1490.5264    482.63855    298.47472   -15.702389    39062.633 
  617600    302.01409   -1497.0974    482.19621    336.36901    41.799958    39062.633 
  617700    296.33687   -1495.5567    477.12978    307.44225   -363.05882    39062.633 
  617800    293.94431     -1543.83    469.00561    240.34003   -780.54324    39062.633 
  617900    301.18367   -1535.0827    439.79367    252.26567   -843.19989    39062.633 
  618000    309.38416   -1532.4957    501.11326    352.86287   -861.06009    39062.633 
  618100     298.0308   -1528.8607     449.4592    254.04669   -371.62266    39062.633 
  618200    295.33618   -1557.6878    475.83124    239.53537   -189.46102    39062.633 
  618300    304.27163   -1539.9439    466.20564    287.63262   -50.494339    39062.633 
  618400    299.55812   -1506.4753    477.42198    311.22844   -74.026782    39062.633 
  618500    301.81706   -1487.2283    482.10024    345.26059   -42.271188    39062.633 
  618600    298.42796   -1494.6701    472.73583    313.29085   -391.87323    39062.633 
  618700    301.84809   -1529.7668    456.12951    276.89016   -117.89116    39062.633 
  618800    291.71413   -1518.5137    502.88027    289.55278   -413.58303    39062.633 
  618900    296.16376   -1471.6873    459.91742     313.3248   -274.65949    39062.633 
  619000    301.05012   -1533.7196    477.14957    290.38722   -188.72277    39062.633 
  619100    293.39829    -1496.579    493.70368    309.84612   -234.09002    39062.633 
  619200    305.45721   -1527.5406    462.70529     301.8401    -322.1896    39062.633 
  619300    297.57057   -1511.5799    471.59258    291.40168   -63.872663    39062.633 
  619400    294.51931   -1509.5295    449.12592    257.33349   -531.07862    39062.633 
  619500    303.44899    -1494.295    492.43505    355.83029   -138.47009    39062.633 
  619600    306.04575   -1490.8541    465.72309     344.1776    475.02816    39062.633 
  619700    298.32236   -1507.5255    442.51316    269.74033   -141.48233    39062.633 
  619800    296.97661   -1488.5548    479.29951    319.47622   -600.95561    39062.633 
  619900    306.20066   -1509.1317    455.49474    316.36477   -19.604553    39062.633 
  620000    299.88984   -1484.5531    478.80465    336.01739    50.023994    39062.633 
  620100    284.21529   -1492.5212    476.40314    255.51685   -70.239308    39062.633 
  620200    307.08088   -1511.7775    472.29555    334.45809   -246.51977    39062.633 
  620300    307.40481   -1467.1222    458.94389    367.21101   -223.86852    39062.633 
  620400    297.61889   -1456.1431    467.49991    342.96198   -222.75969    39062.633 
  620500    304.43876   -1473.1978    484.02772    372.94861    -210.6391    39062.633 
  620600    293.71463   -1472.0507    470.54727    312.63338    -482.6436    39062.633 
  620700    301.55545   -1477.8953    486.11225    357.43513    579.82691    39062.633 
  620800    292.12112   -1473.4572    491.18861    324.73849    56.758398    39062.633 
  620900    304.82286    -1521.262    451.88996    294.46514    -170.6743    39062.633 
  621000    299.03612   -1491.4353    499.40721    345.91808    144.26629    39062.633 
  621100    303.67455   -1478.0876    477.16966    357.78141    -44.10778    39062.633 
  621200    312.35534    -1467.335    495.70995    425.91392    638.65829    39062.633 
  621300    296.24339   -1464.2621    489.92894    351.11783    169.76952    39062.633 
  621400    303.01083   -1539.6877    467.65239     283.6945    262.14972    39062.633 
  621500    300.73046   -1505.2232    474.35072    314.65447    711.99838    39062.633 
  621600    286.54428   -1516.8463     470.7332     235.9421    911.35269    39062.633 
  621700    293.52359   -1522.4576    459.74257    250.56704    849.44776    39062.633 
  621800    301.93777   -1470.2262    490.58799    371.29052    685.80853    39062.633 
  621900     298.3336   -1516.7611    460.52083     278.5627   0.34920099    39062.633 
  622000    299.51906   -1491.4316     481.9819    330.65723    261.77594    39062.633 
  622100    291.30906   -1511.9162    473.13641    264.59403    286.30288    39062.633 
  622200     293.4625   -1516.8918    464.59462    260.71153    176.46209    39062.633 
  622300    293.69814   -1500.4156    494.93991    308.58729    145.27046    39062.633 
  622400    289.35322   -1518.5028    506.25732    282.37752    -111.0841    39062.633 
  622500    292.05927   -1526.3118    463.04622    243.46479   -120.69173    39062.633 
  622600     296.1482    -1521.146    490.16473    294.04383   -157.91741    39062.633 
  622700    299.50515   -1487.6246     464.5786    316.99873   -73.831859    39062.633 
  622800    304.94896   -1494.8087    466.13344    335.72612   -145.45362    39062.633 
  622900    307.47903   -1481.5997    482.61706    376.73872   -176.84434    39062.633 
  623000    302.15029   -1545.7789    448.59872    254.69943    186.08847    39062.633 
  623100     302.7155   -1485.1326    485.94382    355.21968    53.193273    39062.633 
  623200    303.40111   -1490.7164    487.59311    354.35268    71.874488    39062.633 
  623300    302.52183   -1469.9572    508.17143    391.75617    17.146309    39062.633 
  623400    296.74986   -1465.6131    476.68471    338.78857    160.27912    39062.633 
  623500    307.81975   -1510.7709    489.48466    355.95962   -25.660906    39062.633 
  623600     299.9949   -1533.7824    462.46312    270.91665     168.6614    39062.633 
  623700    306.08413   -1525.5746    463.03155     306.9373   -302.53674    39062.633 
  623800    298.72102    -1517.047    484.46565    303.95503    313.16644    39062.633 
  623900    302.61787   -1541.0999    481.04136    293.91312   -95.525722    39062.633 
  624000    301.69114   -1537.2611    443.71586    256.28001      424.964    39062.633 
  624100    311.74767   -1518.5555    443.96514    320.22973    98.808366    39062.633 
  624200    304.80145   -1501.2731    461.82116    324.28951    274.12356    39062.633 
  624300    307.51528    -1491.487    480.83347    365.23002    186.66833    39062.633 
  624400    300.36173   -1513.0088    474.91187     305.7803   -9.1723686    39062.633 
  624500    296.30375   -1554.9668    445.99037    216.74462    610.89398    39062.633 
  624600    300.23574   -1550.9139    468.34688     260.7465    1043.9186    39062.633 
  624700    307.89417   -1502.6738    467.20873     342.1138    857.83956    39062.633 
  624800    309.95799   -1511.3038    481.96662    357.47555    268.75499    39062.633 
  624900    306.01605   -1514.8915    453.04576    307.32999     180.5491    39062.633 
  625000    302.22588   -1501.1338    475.60625    326.69023     7.140655    39062.633 
  625100    305.29581   -1534.0295    467.45881    299.38257     734.4166    39062.633 
  625200    294.06548   -1538.3304    453.73147    231.10762    616.04487    39062.633 
  625300    292.95127   -1522.8825    502.66287    290.50173    1020.2251    39062.633 
  625400    301.31837   -1536.6546    469.95642    281.45917    892.29018    39062.633 
  625500    300.50605   -1538.5656    476.50395    282.46132    650.35398    39062.633 
  625600    303.13248    -1566.412    454.70321    244.56532    190.61481    39062.633 
  625700    298.66707   -1540.3479    489.61737    285.56448     329.5114    39062.633 
  625800    290.47473   -1558.5402      472.432    213.53259    56.907722    39062.633 
  625900    295.23453   -1580.1405    447.55774    188.35436   -626.91157    39062.633 
  626000    308.13094   -1535.5361    459.45543    302.55745     240.9971    39062.633 
  626100    296.06299   -1536.0958    467.21055    255.75858    640.53501    39062.633 
  626200    293.99529   -1542.2528    493.94966    267.08943    752.84033    39062.633 
  626300    291.02039    -1532.276    485.50044     255.3067    214.60502    39062.633 
  626400    293.53891   -1527.2193    468.83185    254.96313    601.54485    39062.633 
  626500    294.04681   -1530.7034    442.46545    227.38507   -173.39876    39062.633 
  626600    295.48873   -1496.0419    464.03298    290.06554   -99.270423    39062.633 
  626700    294.50874   -1539.8572    456.88866    234.72128   -437.26561    39062.633 
  626800    304.61408   -1533.3089    470.70855    300.30273    443.74093    39062.633 
  626900    295.93375   -1488.3811    456.57868    292.26317   -478.40082    39062.633 
  627000    297.86971   -1542.9174    462.79304    252.60301    185.07251    39062.633 
  627100    303.00274   -1516.6509    456.03567    295.07837   -126.31861    39062.633 
  627200    308.23129   -1497.0201    455.27437    337.34142   -191.39509    39062.633 
  627300    303.75418   -1529.2024    448.17773      278.031   -557.35655    39062.633 
  627400    305.43552   -1482.7002      482.969    366.84715    540.28287    39062.633 
  627500    293.43765   -1506.8476    460.81111    266.86107    182.78982    39062.633 
  627600     307.3298   -1507.1397    470.12998    338.04403    209.24023    39062.633 
  627700    294.00667   -1455.4758    473.50398    333.47158   -123.53995    39062.633 
  627800    288.43484   -1492.5562    452.22636    250.18411   -377.60137    39062.633 
  627900    305.34587   -1516.3687    485.93883    335.74742     429.5143    39062.633 
  628000    295.25347   -1481.5318    440.51653    280.00656    225.84284    39062.633 
  628100    300.06375    -1487.395    467.80089    322.94989     400.9441    39062.633 
  628200    301.52712   -1485.3628    457.83263    321.56123    859.59892    39062.633 
  628300    303.95396   -1489.4938    460.23494    330.69069    911.00071    39062.633 
  628400    302.15397   -1524.8518    476.76951    303.81372    69.809537    39062.633 
  628500    300.58045   -1516.5655    468.46246    296.75278    283.55932    39062.633 
  628600    293.49617   -1539.2187    470.96487    244.90554    567.98742    39062.633 
  628700    303.96743   -1537.8752    443.83181    265.96641    400.85448    39062.633 
  628800    305.01339   -1597.3734    446.35421    213.67046     376.0736    39062.633 
  628900    296.95463   -1573.0032    452.13739    207.76735   -36.339552    39062.633 
  629000    292.25929     -1528.15    428.31148    207.78673    89.964727    39062.633 
  629100    299.19103   -1570.0813    468.98109    237.53902   -304.80809    39062.633 
  629200    302.87846   -1539.7106    478.48853    293.91548   -170.19003    39062.633 
  629300    304.34179   -1566.4449     460.1393    255.37922    468.32294    39062.633 
  629400    296.97374   -1560.2341     466.2391    234.72363   -345.52652    39062.633 
  629500    290.47941   -1545.0637    464.52751     219.1256   -257.27597    39062.633 
  629600    300.23382   -1493.3137    445.44983    295.44109    -67.82975    39062.633 
  629700    301.10421    -1489.827    468.57642    325.94864   -158.85221    39062.633 
  629800    310.64346   -1493.4993    501.75061    398.13102    157.90958    39062.633 
  629900    304.43384    -1458.935    476.30981    379.47147    48.379759    39062.633 
  630000    305.59678   -1460.1557    466.31141    373.45552   -66.398531    39062.633 
  630100    299.78075   -1440.6185    501.75971    402.41902   -341.19064    39062.633 
  630200    306.00286   -1466.8059    455.26215    357.57301   -338.88273    39062.633 
  630300    300.78125   -1494.5662    474.42332    325.61139   -48.533002    39062.633 
  630400    300.06943   -1488.1149     486.1955    340.64999    65.154511    39062.633 
  630500     290.6686   -1462.2363    476.88603    315.15799    224.02533    39062.633 
  630600    292.01391   -1512.0396    492.97666    287.46449   -503.28739    39062.633 
  630700    303.01163     -1506.78     467.1664    316.11976   -235.08133    39062.633 
  630800    295.17694    -1451.133    457.32193    326.86842   -740.15207    39062.633 
  630900     306.8805   -1481.0939    475.98672    367.93628    -387.0715    39062.633 
  631000    294.60689   -1521.2328    462.99308    259.88919    366.63982    39062.633 
  631100    318.93334   -1529.2852    460.88913    358.57419    794.28783    39062.633 
  631200    298.79753   -1473.9914     508.0392    370.92641    68.514595    39062.633 
  631300    295.91738   -1546.4373    458.30788    235.86293   -588.82506    39062.633 
  631400    310.85761   -1515.2711    456.64236    332.20913   -177.76275    39062.633 
  631500     303.7463   -1505.9713    441.36408    294.41317   -382.78268    39062.633 
  631600    297.18683   -1510.1995    483.53802    303.01057   -414.20811    39062.633 
  631700     294.6567   -1499.7538    481.93517    300.53316   -318.81507    39062.633 
  631800    302.78515   -1451.9483    460.89853    363.67033   -218.57088    39062.633 
  631900    302.47919   -1465.4964    466.24086    354.09559    108.75238    39062.633 
  632000    305.92628   -1507.6523    491.59912    352.72097    451.40193    39062.633 
  632100    301.70489   -1474.3346    461.99233    337.54454    273.11418    39062.633 
  632200    296.34205   -1432.5906    453.87406    347.17586    1044.5975    39062.633 
  632300    297.35456   -1470.5225    478.69534    338.59536    505.73229    39062.633 
  632400    314.20618   -1477.1991    463.66445    392.28535    810.51365    39062.633 
  632500    299.65045    -1474.895    463.57482    329.37463   -287.00362    39062.633 
  632600    294.68319   -1476.0761    453.42741    295.82164   -833.08892    39062.633 
  632700    297.50281   -1479.2307    466.30233    318.15748   -138.19832    39062.633 
  632800    296.37229   -1481.5715    466.19149    310.64767   -209.60185    39062.633 
  632900     296.2422   -1488.8974    470.39269    306.94089   -174.48633    39062.633 
  633000    308.56452   -1467.2825    459.33743    372.63307    339.37583    39062.633 
  633100    294.05791   -1498.9839     483.0685    299.75724   -295.45519    39062.633 
  633200    296.59613   -1473.8079    478.21686    331.43816   -171.28294    39062.633 
  633300    307.30393   -1442.0941    476.77462    409.61845   -17.175429    39062.633 
  633400    295.82921   -1458.4012    499.73366    364.93028   -321.41032    39062.633 
  633500     301.5931   -1456.2368    489.29542    382.44529    14.319945    39062.633 
  633600    294.31454   -1483.8338    474.92796    307.91509   -239.56228    39062.633 
  633700    296.92792   -1455.2161    477.73034     351.0279    89.383466    39062.633 
  633800    307.90519    -1450.474    488.06101    415.21509    353.14153    39062.633 
  633900    299.66484   -1463.6317    487.99891    365.12638    241.46461    39062.633 
  634000    298.23005   -1450.2336    484.41518    368.52126    541.23437    39062.633 
  634100    301.91122   -1485.7595    468.22127    333.27177    781.22302    39062.633 
  634200    305.06157   -1455.7226    481.09232    390.27499    499.86391    39062.633 
  634300    299.54454   -1495.9141    498.46483    342.77171    249.27191    39062.633 
  634400    302.55309   -1477.5884     488.5303    364.62366    855.84253    39062.633 
  634500    299.99163   -1527.4693    475.81328    290.56526    720.26145    39062.633 
  634600    299.93992   -1480.2712    467.82507    329.54379    360.68906    39062.633 
  634700    307.88427   -1469.2071    451.62565    359.95306    316.16432    39062.633 
  634800    297.22993   -1490.7443    483.87704     322.9977     151.3793    39062.633 
  634900    298.48469   -1467.1393    489.00611    357.34582   -126.77517    39062.633 
  635000    309.51151   -1472.6786    475.89715    388.03367     397.1432    39062.633 
  635100    298.49573   -1454.1709      487.128    368.48546    829.46356    39062.633 
  635200    298.57646   -1452.7537     484.8419    367.97773    846.84684    39062.633 
  635300    301.27014   -1450.3414     476.2531    373.85337    534.72851    39062.633 
  635400    292.85447   -1473.4503    469.77745    306.61546   -26.025822    39062.633 
  635500    306.32715   -1458.1399    465.81839    378.24615   -29.562862    39062.633 
  635600    300.75419   -1467.2049    478.85822    357.28643   -335.50607    39062.633 
  635700    297.55039   -1409.6482    476.84957    398.50015   -648.25888    39062.633 
  635800    301.44564   -1428.7589    472.37489    392.34285   -576.49298    39062.633 
  635900    289.84586   -1453.0148    478.42727    322.23967   -687.95215    39062.633 
  636000    289.31164   -1455.1352    478.64136    317.94308   -98.298512    39062.633 
  636100    297.63061   -1481.8683     482.8641     332.6535   -665.45042    39062.633 
  636200    301.48626   -1482.2697    469.35766    335.99652   -359.52088    39062.633 
  636300    292.73376   -1480.8861    460.95105     289.8131   -462.46477    39062.633 
  636400    293.15476    -1488.983    465.22522     287.8741   -238.34316    39062.633 
  636500     311.2553    -1452.633    463.19829    403.18245   -220.96579    39062.633 
  636600    293.73666   -1467.9399    501.34365    347.63913   -331.55288    39062.633 
  636700    292.24118   -1482.8292     478.9733    303.68842    41.815702    39062.633 
  636800    307.88728   -1455.9668    492.43623    414.01747   -359.67369    39062.633 
  636900    294.99184   -1438.6053     473.5805    354.82648   -554.91685    39062.633 
  637000    302.88871    -1445.604    494.06476    403.64415   -178.11432    39062.633 
  637100    304.83622   -1467.1016    454.74392    351.53933    204.17048    39062.633 
  637200    296.13257   -1467.1612    483.95227    341.74624    389.34082    39062.633 
  637300    300.50054    -1412.665    474.71492    406.54821    31.178109    39062.633 
  637400    309.77765   -1418.7331    467.22677    434.49953   -110.12078    39062.633 
  637500    304.05973    -1408.838    483.49452    435.07932    165.12421    39062.633 
  637600    296.54832   -1433.7416    478.18957    371.26323    205.16615    39062.633 
  637700    293.04278   -1470.3352    513.71666    354.51229   -61.966912    39062.633 
  637800    301.12504   -1433.5172     450.1914    363.96658   -223.83587    39062.633 
  637900    295.17929    -1422.413      493.339    391.61594   -417.10985    39062.633 
  638000    307.69381   -1477.6082    476.83642    375.91063   -76.721154    39062.633 
  638100    294.26777   -1458.4781    437.72246    295.85604   -175.33434    39062.633 
  638200    294.89509   -1455.1332    496.18854    360.47368   -175.63217    39062.633 
  638300    301.89052    -1491.973    449.31583    308.06011    25.541537    39062.633 
  638400      311.039   -1492.2981     464.6365    363.98782    462.45377    39062.633 
  638500    289.36358   -1494.4028    491.78037     292.0469    558.28322    39062.633 
  638600    306.30539   -1497.0877    478.46458    351.84715    509.70043    39062.633 
  638700    305.45401    -1490.589    466.99521    343.06735    199.70302    39062.633 
  638800    314.37846   -1474.7615    487.37581    419.20507   -267.77023    39062.633 
  638900    303.83737   -1479.5458    458.58165    338.46379   -578.97197    39062.633 
  639000     298.7547   -1474.6236    469.55049     331.6139   -153.91101    39062.633 
  639100    309.57466   -1478.7805    504.28696    410.60408    327.78767    39062.633 
  639200      303.275   -1476.7575    469.91661    350.07092    545.78231    39062.633 
  639300    291.80418   -1478.4193    485.04522    312.21494    541.70293    39062.633 
  639400     302.1576   -1518.9743    494.63967    327.57762    701.05082    39062.633 
  639500    301.57928   -1526.9851    457.20335      279.543    176.96656    39062.633 
  639600    294.47318   -1507.4678    475.94463    286.00749    171.91112    39062.633 
  639700    299.39309   -1522.1319    472.00838    289.41979   -81.341196    39062.633 
  639800    309.10017   -1502.4353    452.97134    333.51076   -69.997145    39062.633 
  639900    290.79854   -1524.2518    469.80451    246.64236    442.42215    39062.633 
  640000    304.59683   -1505.8942    480.27743    337.20909    518.01053    39062.633 
  640100      295.521   -1473.6035    488.53763    337.15298    789.92102    39062.633 
  640200    303.06164   -1486.2627    464.22212    333.91663   -101.97058    39062.633 
  640300    287.27567   -1482.3685    481.07479    284.03392   -174.57156    39062.633 
  640400    303.87069   -1483.9329    483.97116     359.6152    45.520405    39062.633 
  640500    308.28554   -1472.1406      481.599    388.78834    96.673688    39062.633 
  640600    297.75306   -1502.3808    495.38735    325.21205   -721.61243    39062.633 
  640700    300.06256   -1500.0138    467.22377    309.74862   -114.44451    39062.633 
  640800    307.14878   -1514.1715    466.83328    326.90558   0.71260008    39062.633 
  640900    294.18321   -1532.8876    444.65525    228.00094    114.66843    39062.633 
  641000    303.05522   -1509.6304    464.97099    311.26905    529.23964    39062.633 
  641100    304.32213   -1517.8305    463.90395    307.67025    169.82508    39062.633 
  641200    303.26114   -1534.8693    426.75552      248.736   -148.78693    39062.633 
  641300    308.33163   -1498.9709    469.92217    350.48741   -58.846586    39062.633 
  641400    311.08609   -1524.2753    453.84789    321.43274    317.81574    39062.633 
  641500    299.83054   -1549.3872    463.35852    255.47188    493.48549    39062.633 
  641600    293.75964   -1524.6151     487.8794    277.60249    449.79417    39062.633 
  641700    304.98829   -1495.9983     456.8821    325.46113    571.79587    39062.633 
  641800    289.81764   -1544.2494    450.66261    203.11412    327.98796    39062.633 
  641900    308.70824   -1515.3385    461.36224    327.24483    26.905602    39062.633 
  642000    298.04268   -1507.9984    437.72178    263.22472   -537.16123    39062.633 
  642100    301.36891   -1471.2287    481.45703    358.61186   -330.70912    39062.633 
  642200    301.99144   -1456.0121    458.14635    353.30312   -529.79324    39062.633 
  642300    290.81042    -1463.789    458.27468    295.62849   -644.40238    39062.633 
  642400     292.0209   -1480.9226    489.04079    314.67689   -227.30806    39062.633 
  642500    302.16207   -1500.1392    476.05488    327.84794   -144.62047    39062.633 
  642600     290.4638   -1456.0193    457.75229    301.32495   -428.00803    39062.633 
  642700     303.1606   -1466.8318    506.84014    396.40822   -855.15632    39062.633 
  642800     307.3879   -1494.6438    469.00515    349.67502   -598.86607    39062.633 
  642900    298.40853   -1493.7331    481.83162     323.2367   -331.38881    39062.633 
  643000    308.67502   -1531.8124    460.66526    309.92541   -293.41473    39062.633 
  643100    294.95647   -1500.4126    477.66829    296.94871    222.19416    39062.633 
  643200    306.94175   -1491.0212    465.95969    348.25598    152.72247    39062.633 
  643300    302.74886   -1474.3936    473.31268    353.47684   -21.684009    39062.633 
  643400    292.72302   -1490.0264    486.29266    305.96639   -98.537742    39062.633 
  643500    297.28655   -1465.3297    468.30268     333.0912    -138.3459    39062.633 
  643600    297.41291    -1466.106    477.52187    342.09953    108.34407    39062.633 
  643700    305.41053   -1470.2967    483.83317    380.00297   -375.16364    39062.633 
  643800     290.1089   -1473.9076     478.2071    302.30358   -241.57825    39062.633 
  643900    291.83329   -1453.1414    493.89824    346.47617    52.242183    39062.633 
  644000    299.99862   -1486.3863    472.71411    328.58045    257.48934    39062.633 
  644100    301.47437   -1499.4276    474.93299    324.36078    404.97921    39062.633 
  644200    303.89574   -1464.3237     472.1641    367.52947   -39.272977    39062.633 
  644300    300.75464   -1488.4312    461.50834     318.7123    112.22029    39062.633 
  644400    299.76721   -1477.8309    521.01762    384.40393   -164.89151    39062.633 
  644500    302.95152   -1498.5183    478.67167    335.61776    -151.3614    39062.633 
  644600    303.57288   -1482.7812    489.43279    364.89616   -402.41125    39062.633 
  644700    297.98309   -1477.1162    462.18904    318.30757   -543.69276    39062.633 
  644800    300.47602   -1470.5124    468.42019    342.29632   -561.84242    39062.633 
  644900    289.44942   -1491.3897    486.02996    289.69367   -291.45835    39062.633 
  645000    298.51541   -1582.4644    457.87262    211.02462   -401.74572    39062.633 
  645100    306.16518   -1523.8829     486.4063    332.36637   -136.35283    39062.633 
  645200    308.09162   -1499.6964     444.8779    323.64373    284.46942    39062.633 
  645300    300.98657   -1479.7885    476.00251    342.88686    672.05052    39062.633 
  645400    299.59982   -1470.7407     492.2316    361.95916   -87.570023    39062.633 
  645500    293.97763   -1472.1933    496.55759    339.67781   -212.62637    39062.633 
  645600     286.9956   -1470.2328    482.91486    296.75664   -131.57924    39062.633 
  645700    312.75683   -1455.4881    491.19628    435.04353     -5.67174    39062.633 
  645800     300.9025   -1484.8823    461.16278    322.57719   -168.07941    39062.633 
  645900    291.22376   -1501.0728    498.88499    300.80437   -654.06488    39062.633 
  646000    301.26451   -1487.1727    470.32369    331.06747   -182.46559    39062.633 
  646100    310.41941    -1494.217    488.12216    382.78239    107.60182    39062.633 
  646200    307.28381   -1467.6551    474.28603     381.4789    222.74179    39062.633 
  646300     288.9324   -1513.5769    456.90757    236.07084    216.39543    39062.633 
  646400    300.24286   -1483.9641    487.55138    346.93262    326.99494    39062.633 
  646500    290.47163   -1494.8926    454.20415    258.93855    807.95554    39062.633 
  646600    293.81197   -1509.4798     471.4956    276.58809    75.891615    39062.633 
  646700    299.89405   -1469.1373      483.516    356.16345    103.56368    39062.633 
  646800    300.28661   -1483.2433    460.84875    321.14654   -467.97105    39062.633 
  646900    302.03559   -1445.3078    482.04952    388.10806   -168.56989    39062.633 
  647000    297.53295   -1509.0662    490.67281     312.8273    38.727002    39062.633 
  647100    292.46637   -1426.2365    490.73004    373.04539    53.395248    39062.633 
  647200    297.02439   -1507.8127    508.59969     329.7323     -440.005    39062.633 
  647300    293.16159   -1497.5711    479.75816    293.84947   -831.75809    39062.633 
  647400    300.35608   -1497.9063    475.96623    321.91189   -602.60501    39062.633 
  647500    295.89127    -1509.043     453.3724    268.20487    -764.6271    39062.633 
  647600    299.71645   -1495.2481    487.98249    333.72456   -472.29683    39062.633 
  647700    303.79069   -1499.7559    475.02184    334.48502   -531.70134    39062.633 
  647800    307.62787   -1511.5085    440.20934    305.08819    -244.2296    39062.633 
  647900    290.21076   -1519.6556    454.43763    233.24183   -185.09107    39062.633 
  648000    299.99064   -1502.9956    490.73285    329.95416   -352.64225    39062.633 
  648100    302.94326   -1514.0467    464.47027    305.85112    186.37256    39062.633 
  648200     305.3471   -1503.1153    496.35281    359.42031    139.39781    39062.633 
  648300    296.37871   -1463.3659    471.95053    334.64108    453.83797    39062.633 
  648400    296.94745   -1482.1168    485.37614    331.86037   -349.72292    39062.633 
  648500    296.04323   -1498.7093    473.21965     299.0657   -393.69118    39062.633 
  648600    301.47782   -1466.7747    490.19719    372.29325   -186.91506    39062.633 
  648700    295.89136   -1467.1211    473.09636    329.85113   -208.56528    39062.633 
  648800    304.55978   -1468.2743    479.12115    373.50701    184.53842    39062.633 
  648900    291.99676   -1472.4493    480.66482    314.66623   -628.56476    39062.633 
  649000    305.28314   -1413.4557    460.68559    413.12648    -97.22355    39062.633 
  649100    292.00993   -1424.8909    493.91435    375.53314   -440.49686    39062.633 
  649200    300.04636   -1465.0937    482.03686     359.4093   -191.83234    39062.633 
  649300    302.96099   -1494.0377    472.07102    333.54008   -635.84324    39062.633 
  649400    302.23761   -1479.1969     459.6189    332.69229    -701.8402    39062.633 
  649500    300.08948   -1451.1355     477.9095     369.4331    -443.9534    39062.633 
  649600    302.79376   -1446.8952     494.9763    402.83967    130.24353    39062.633 
  649700    299.23379   -1427.0196    460.23552    372.04649    54.264533    39062.633 
  649800    299.64481   -1403.8481    486.45863    423.28011    118.57374    39062.633 
  649900    291.54248   -1476.9542    469.13021    296.59419    671.45373    39062.633 
  650000    308.89278   -1446.1449    489.46046    425.36235    278.95954    39062.633 
  650100    296.13428   -1448.7891    493.08633    369.26002    145.90883    39062.633 
  650200    300.08406   -1483.7686    462.48352    321.34979   -136.76333    39062.633 
  650300    297.41126   -1481.3098    466.56298    315.92942    364.04413    39062.633 
  650400     308.7936   -1500.5429    480.72076    361.78086    169.32882    39062.633 
  650500    293.35951   -1514.4811    484.12689    282.19369   -99.197572    39062.633 
  650600    302.51129   -1489.1046    474.61302    339.00317   -37.202826    39062.633 
  650700    289.15356    -1469.213    492.32236    316.83899    338.08664    39062.633 
  650800    305.99073   -1448.2986    502.09001    422.85392    311.10708    39062.633 
  650900    294.75851    -1471.287    469.97899    317.49931    518.33754    39062.633 
  651000    306.24976   -1478.7159    482.26109    373.76662    420.81718    39062.633 
  651100    300.21401    -1497.349    469.29389     315.1612    32.844679    39062.633 
  651200    294.61865   -1477.4033    456.11811    296.89631    42.542638    39062.633 
  651300    290.23581   -1494.1864    450.23482     254.6203    396.65728    39062.633 
  651400    295.29534   -1458.2027    489.51261    352.51907   -236.15853    39062.633 
  651500    306.55358     -1465.72     469.4424    375.30312    81.266299    39062.633 
  651600     299.9146    -1431.887      466.938    376.92769   -104.90206    39062.633 
  651700    295.79139   -1474.8785    481.40087    329.95094    -205.3781    39062.633 
  651800    305.75016   -1497.0916    480.10629    351.00084   -239.80855    39062.633 
  651900    300.69313   -1479.6362    469.49754    335.22127    285.64728    39062.633 
  652000    292.16687    -1490.983    471.10128     287.3301    -99.37917    39062.633 
  652100    302.29111   -1468.2654     470.4699    354.71417   -7.3246943    39062.633 
  652200    304.84838   -1439.1054    477.51459    402.36052   -239.60765    39062.633 
  652300    298.53466    -1440.962    486.95587    381.69643   -75.735617    39062.633 
  652400    307.68776   -1441.4494    466.67993    401.88584   -282.86829    39062.633 
  652500    292.58692   -1469.7312     492.8574    332.21739     386.9438    39062.633 
  652600     311.0054   -1467.0535    475.43164    399.87724    54.220104    39062.633 
  652700    301.27707   -1460.2236    468.10801    355.85698   -392.79785    39062.633 
  652800    294.05543   -1475.4544    479.76681    319.97395   -351.92039    39062.633 
  652900    299.11727    -1477.148    462.71264    323.87388   -29.873041    39062.633 
  653000    302.67761   -1519.6873    482.17871    316.73035    655.72731    39062.633 
  653100     284.2412    -1486.845    486.00598    270.91174    876.15651    39062.633 
  653200    295.86991   -1483.1604    486.09735    326.71692    536.24594    39062.633 
  653300    293.00309   -1489.2752    482.42948    304.10753     -73.3266    39062.633 
  653400    290.93162   -1466.6711    477.68661     312.7006   -63.438298    39062.633 
  653500    315.75769   -1424.9161    503.83479    491.68042    12.075468    39062.633 
  653600    292.13653   -1411.8827    469.60013    364.79351    68.064649    39062.633 
  653700    296.80875   -1419.0275    487.97388    396.92681    249.20918    39062.633 
  653800    297.26436   -1446.8081    493.26305    376.47391    255.76704    39062.633 
  653900    302.99965   -1455.4888    456.37306    356.56399    60.655403    39062.633 
  654000    290.87174   -1475.0258    464.44455    290.83591   -782.84263    39062.633 
  654100    304.50514   -1444.9517    477.89572    395.35964   -635.10057    39062.633 
  654200    307.18721   -1470.0391    463.95547    368.33213   -196.26992    39062.633 
  654300    297.93554   -1497.6589    491.04858    326.41163    309.95782    39062.633 
  654400    298.54583   -1458.3414    475.39153    352.80271   -170.93936    39062.633 
  654500    306.78556    -1467.707    437.29221    342.20383     -374.975    39062.633 
  654600    294.26531   -1437.2912    470.38432    349.69378   -509.13703    39062.633 
  654700    302.78844   -1425.4588    481.81187    411.08789   -557.22753    39062.633 
  654800    297.50347   -1461.6585    478.43154    347.86185   -168.01379    39062.633 
  654900     296.4661   -1456.0302    485.15148    355.56865    170.19484    39062.633 
  655000    294.52722   -1491.7741    503.42581    329.42423    14.123306    39062.633 
  655100    299.31056   -1479.1418    486.62592    346.65815      363.835    39062.633 
  655200    286.41111   -1499.1403    473.86035    256.17946    124.31545    39062.633 
  655300    302.65802   -1491.1158    490.98975    354.02526    159.72041    39062.633 
  655400     295.8132   -1469.3414    477.74486    331.92961   -118.15044    39062.633 
  655500    304.63653   -1479.2872    483.79681    367.51309     90.23002    39062.633 
  655600     292.0131   -1461.0606    468.50194    313.96511    538.63487    39062.633 
  655700     306.6362   -1477.7223    473.34766    367.57578   -248.54102    39062.633 
  655800     295.2183   -1470.0762    448.14376    298.93206   -241.55234    39062.633 
  655900    299.11512    -1454.547     475.6286    359.38118    97.768053    39062.633 
  656000    306.73445   -1480.8341    484.81785    376.37377    272.59946    39062.633 
  656100    309.44119     -1450.54    467.88345    401.84393   -173.06518    39062.633 
  656200    303.77913     -1441.55    477.79306    395.41037   -393.37568    39062.633 
  656300    295.87783   -1464.5268    473.14521    332.43378   -544.95354    39062.633 
  656400    296.00774   -1422.4399    490.47337     392.4301   -1086.8659    39062.633 
  656500    293.84023    -1421.867    460.75724    353.58898   -998.15283    39062.633 
  656600    301.95981   -1437.5563    477.98795      391.459   -920.82491    39062.633 
  656700    311.67311   -1479.8748    469.71883    384.33054   -436.77244    39062.633 
  656800    293.40972    -1478.118    455.83159    290.48617   -316.57077    39062.633 
  656900    305.21388   -1457.7796    489.24566    397.05271    237.69873    39062.633 
  657000    291.09451   -1437.8385    460.57623    325.15158   -400.06131    39062.633 
  657100    303.29547    -1479.352    467.60429    345.25567   -161.59381    39062.633 
  657200    302.52366   -1498.8958    476.18774    330.84208    376.35018    39062.633 
  657300    291.78774   -1499.9521    462.40553    267.96897    53.787646    39062.633 
  657400    293.96093   -1472.5096    476.91564    319.64483    393.52629    39062.633 
  657500    291.59598   -1529.2539    469.10621    244.50981   -499.99436    39062.633 
  657600    306.18216   -1470.6991    488.26411    387.48398    96.100334    39062.633 
  657700    298.48682   -1467.5434    480.27434    348.21943    -109.8869    39062.633 
  657800    310.93885   -1488.6131    467.89198    370.48021   -619.05287    39062.633 
  657900    302.03136   -1477.1816    474.47595    348.64181    293.56392    39062.633 
  658000    301.19977   -1496.9144    478.50275    329.21517    225.68659    39062.633 
  658100     294.4543   -1495.8404    486.58954     308.1954    163.03808    39062.633 
  658200    296.40055   -1477.5032    467.38463     316.0356    159.64058    39062.633 
  658300    300.07721   -1463.2657    480.35913    359.69762    667.90401    39062.633 
  658400    305.12581   -1495.9883     475.7828    344.98715    1045.1524    39062.633 
  658500    306.78427   -1447.9151    481.14473    405.84256    191.07259    39062.633 
  658600    306.33477     -1444.22     489.2491    415.63087    172.90805    39062.633 
  658700    310.22478   -1459.8392    489.85193    418.01915     188.7379    39062.633 
  658800    316.90715   -1446.5384    494.70466    466.07097    330.95987    39062.633 
  658900    303.05661   -1482.9537    482.86215    355.84309     78.87588    39062.633 
  659000    303.17753   -1513.7318    476.26882    319.01266    672.07042    39062.633 
  659100    297.32057   -1517.1656    494.88428    307.98915    162.37492    39062.633 
  659200    295.16868   -1516.7663    459.09263    262.96885     588.1797    39062.633 
  659300    303.66903   -1559.8864     477.4602    276.24852    853.13617    39062.633 
  659400    297.89413   -1526.5362    494.55128     300.8518    549.32923    39062.633 
  659500    295.95423   -1508.5143    449.34868    264.99157    150.13527    39062.633 
  659600    310.62057   -1513.9874    507.65327    383.44313    229.02884    39062.633 
  659700    293.44266   -1529.3484    437.31531    220.88682     165.5365    39062.633 
  659800    289.99703   -1479.0639    486.79983    305.23946   -516.63147    39062.633 
  659900    300.33354   -1503.5009    446.28398     286.5342   -672.03233    39062.633 
  660000    310.39955   -1515.5817    466.57702    339.78374   -662.14252    39062.633 
  660100    301.77509   -1496.6115    465.95351    319.54292   -747.26666    39062.633 
  660200    289.89631   -1494.8686    459.61885    261.80316   -1237.1258    39062.633 
  660300    295.53041   -1532.8107    468.77915    258.22939   -1114.9135    39062.633 
  660400    287.12831   -1539.9314    467.98797    212.72492   -1020.6129    39062.633 
  660500    302.44845   -1529.3079    460.06647    283.97215   -738.43946    39062.633 
  660600    310.08188   -1522.0118    456.88723    322.24252    39.400475    39062.633 
  660700    304.79207   -1561.1745    481.26123    283.78611    449.58907    39062.633 
  660800    297.22925   -1523.0384    473.95196    280.77545    413.23769    39062.633 
  660900    297.06058   -1519.8039    469.10462    278.40795    205.03531    39062.633 
  661000    297.83548   -1530.9617    472.74001    274.35257   -347.07405    39062.633 
  661100    305.67829   -1550.6066    485.77261     302.8306    26.790884    39062.633 
  661200    300.25743   -1511.7981    477.61016    309.22262   -240.82041    39062.633 
  661300    293.50924   -1507.6024    492.34615    297.96156   -488.26195    39062.633 
  661400    293.97603   -1528.6225    476.29957    262.98334    -652.7636    39062.633 
  661500    307.17573   -1468.7496    479.09278    384.70762   -182.50702    39062.633 
  661600    299.65412   -1523.6419    451.29976    268.36909   -595.02597    39062.633 
  661700    295.63313   -1539.8879    478.84563    261.67829   -98.144197    39062.633 
  661800    303.78832   -1569.6256     477.6365    267.21933    51.689613    39062.633 
  661900    291.14172   -1508.7985    480.68604    274.51266   -4.4579589    39062.633 
  662000    291.76856   -1530.5431    483.28701    258.17361    27.046843    39062.633 
  662100    303.01556   -1513.4002    479.26345    321.61417    668.49904    39062.633 
  662200    302.14711   -1536.4335    463.94965    279.38154    235.73301    39062.633 
  662300    298.26498   -1546.9316    483.45482    271.01915    585.31728    39062.633 
  662400    297.01727   -1545.3849    474.49588    258.02442    346.45366    39062.633 
  662500    302.79215   -1561.5902    479.27552    272.43671     622.7289    39062.633 
  662600    292.98593     -1579.14    469.35111     201.0876    426.41986    39062.633 
  662700    304.16295   -1553.3652    470.81138     278.3308    299.75952    39062.633 
  662800    294.67194   -1554.4042     479.0969    243.11269    32.386077    39062.633 
  662900     301.9474   -1529.7316    463.64759     284.8878   -480.55835    39062.633 
  663000    298.65861    -1539.985    455.24733    251.51945   -461.20946    39062.633 
  663100    312.68431   -1524.2618    443.32265    318.07175   -714.02243    39062.633 
  663200    291.81998   -1520.6697    469.43189    254.42194    -483.6648    39062.633 
  663300    312.16477   -1538.2593    453.88571    312.31271    200.94177    39062.633 
  663400    285.01911   -1530.1837    472.55225    217.59986    137.40352    39062.633 
  663500    299.00387   -1543.4535    488.99972    283.34814   -398.22768    39062.633 
  663600     306.3509   -1522.5415    479.89439    328.02686   -333.57913    39062.633 
  663700    299.57851   -1541.0062    460.14966     259.5164   -45.993744    39062.633 
  663800    307.08102   -1505.2378    476.46709    345.16993    258.90301    39062.633 
  663900    297.92711   -1526.1029    485.63934    292.52071    154.07207    39062.633 
  664000    294.66923   -1512.1376    465.85299    272.12321   -84.992248    39062.633 
  664100    292.95568   -1555.8533     488.6738     243.5616   -110.57822    39062.633 
  664200     304.9954   -1529.6253    479.44255    314.42646    302.71008    39062.633 
  664300    304.89124   -1542.4221    455.42704    277.14812    490.75968    39062.633 
  664400    313.27248   -1527.1318    472.34598    346.85661    738.24856    39062.633 
  664500    297.91062   -1557.9839     475.1817    250.10829    929.89555    39062.633 
  664600    291.39412   -1493.4218    462.15512    272.48767    902.40762    39062.633 
  664700    304.38121   -1504.8562    499.41951    356.42447    595.56288    39062.633 
  664800    311.92025   -1518.6307    475.15842    352.12003    702.96506    39062.633 
  664900    305.58811   -1487.9111    466.11929    345.46923     230.0117    39062.633 
  665000    303.29287   -1500.0006    460.90341     317.8945   -512.00817    39062.633 
  665100    291.04818   -1494.3667    478.33614    286.17606   -317.72527    39062.633 
  665200    309.18445   -1490.0632    485.60154    378.89012    102.78591    39062.633 
  665300    300.38681   -1506.2772    479.70131    317.41351    326.44251    39062.633 
  665400    299.42275   -1496.2147    477.28391    320.74522    649.19334    39062.633 
  665500     287.7157   -1507.1807    471.61542    251.73107    44.328174    39062.633 
  665600    300.82564   -1545.3535    467.75537     268.3547    243.06622    39062.633 
  665700    299.38259   -1489.1466    493.19084    343.54057    248.78953    39062.633 
  665800    294.01467   -1491.8983    495.56048     319.1414     291.2314    39062.633 
  665900    296.07544   -1526.5887    467.88085    265.99164    523.78496    39062.633 
  666000    293.22037   -1508.2644    459.49819     263.1592   -173.50708    39062.633 
  666100    298.77247   -1518.0405     468.3705    287.09652   -543.80329    39062.633 
  666200    291.81076   -1539.3267    473.32321    239.61503   -379.53387    39062.633 
  666300     295.6454   -1514.4267    466.14552    274.49422    89.568082    39062.633 
  666400    307.63277   -1518.2771    475.51136    333.64355    404.57534    39062.633 
  666500    297.29243   -1541.4065    499.84454    288.58262    23.391348    39062.633 
  666600    293.52235   -1506.4739    481.77852     288.5811    329.11132    39062.633 
  666700    298.63732   -1506.5413    503.99577    333.61638    525.69368    39062.633 
  666800     302.9965   -1498.5663    499.08749    356.18683    593.30116    39062.633 
  666900    291.85018   -1514.2448    469.42292    260.97302    225.94322    39062.633 
  667000    315.26345   -1557.5721    478.11928    331.09758    245.57809    39062.633 
  667100    308.08849   -1569.9474    455.63703    264.13785   -44.246427    39062.633 
  667200    298.68134    -1516.097    469.62819    289.89001   -528.94285    39062.633 
  667300    289.64804   -1511.0556     496.8084    281.69489   -886.20481    39062.633 
  667400    292.06178   -1497.9539    460.17299    268.96067   -407.02824    39062.633 
  667500    297.56032   -1483.9411    474.06151    321.46356   -575.00887    39062.633 
  667600    288.84476   -1503.6674    468.85989    257.54056   -818.72425    39062.633 
  667700    311.46246   -1545.3597    454.11619     302.3005   -385.28653    39062.633 
  667800     299.9817   -1522.5232    478.77702    298.43072    -190.8758    39062.633 
  667900    297.64951   -1519.2987    486.14842    298.59197   -96.884552    39062.633 
  668000    297.30499    -1471.801    468.27914    326.67895   -54.442878    39062.633 
  668100    294.02663   -1476.6641    469.62434    308.49301   -336.35737    39062.633 
  668200    306.75767   -1479.9205    491.45095    384.02435   -779.14302    39062.633 
  668300    300.41926   -1493.4603     463.5532    314.22753   -511.10091    39062.633 
  668400    310.41776   -1489.0299    491.03321    390.87319   -393.49591    39062.633 
  668500    306.24303    -1459.918    494.70405    404.97743   -19.033347    39062.633 
  668600    313.33434   -1472.0805    464.02535    393.86407   -267.85226    39062.633 
  668700    307.79425    -1468.965    471.75376    379.92057    195.43811    39062.633 
  668800    305.03112   -1460.5852    502.57213    406.75596   -290.08245    39062.633 
  668900    294.40749   -1485.1381    481.18692    313.28565   -128.83997    39062.633 
  669000    292.98418   -1479.2845    496.90455    328.48863    176.88713    39062.633 
  669100    297.41101   -1449.9865    526.28696    406.97559   -119.46034    39062.633 
  669200     303.3342   -1472.8337    466.21272     350.5557   -122.48634    39062.633 
  669300    310.02944   -1490.7989    501.89574    398.22927   -195.00722    39062.633 
  669400    295.39615   -1457.0335    469.59928    334.22604    -630.8521    39062.633 
  669500    302.84015   -1459.0915    485.80407    381.67871    -845.9096    39062.633 
  669600    300.29103   -1488.2768    466.94594    322.22999   -644.74686    39062.633 
  669700    298.72025   -1473.0833     483.3939    346.84352   -757.23011    39062.633 
  669800    290.49206   -1443.7038    470.19077    326.20536   -821.96391    39062.633 
  669900    294.26264   -1445.2294    484.97443    356.33368   -799.54191    39062.633 
  670000     301.6797   -1493.9435    473.27785    329.10843   -577.25559    39062.633 
  670100    299.16284   -1486.9263    465.07388    316.66078   -180.15744    39062.633 
  670200    296.12121   -1487.2629    499.33475    336.97616   -5.1680446    39062.633 
  670300    295.52659   -1493.4446    490.40455    319.20378    353.47235    39062.633 
  670400    294.11648   -1471.0732    481.05085    325.91239    688.08808    39062.633 
  670500    291.09095   -1539.1517    490.44706    253.69334     652.2698    39062.633 
  670600    301.41028   -1553.5881    465.17897    260.15947     544.7694    39062.633 
  670700    299.93748   -1550.1177    475.86309    267.72447    362.38539    39062.633 
  670800    301.62047   -1524.5353    471.12956    296.10333    195.81231    39062.633 
  670900    301.78441   -1549.8475    484.08621    284.48132    612.84281    39062.633 
  671000    306.73055   -1547.7595    463.84658    288.45964    267.03636    39062.633 
  671100    297.14737   -1588.2829    477.36115    218.57378   -146.56465    39062.633 
  671200    298.28036   -1551.1327    469.07906     252.5111   -141.23221    39062.633 
  671300    294.43089   -1530.5488    466.56228    253.35497    21.333888    39062.633 
  671400    299.11146   -1553.1818    463.82265    248.92418    546.85047    39062.633 
  671500    290.02444   -1588.8158    468.16408    176.97449    731.82736    39062.633 
  671600    305.38459    -1592.894     481.2844    254.74091    1136.0497    39062.633 
  671700    298.67265   -1567.0068     491.4316    260.74469    868.69496    39062.633 
  671800    301.89682   -1538.0868    497.85317    310.51184    668.60911    39062.633 
  671900    299.78449   -1596.0004    475.89989    221.19405    693.68525    39062.633 
  672000    298.91382   -1562.7427    463.73981    238.39604    279.28979    39062.633 
  672100    304.21594   -1540.3245    469.55638    290.35361   -282.66689    39062.633 
  672200    302.95702   -1551.2648    450.16126    254.38547     121.6252    39062.633 
  672300    300.04642   -1544.3485    472.46561    270.58357    -212.1588    39062.633 
  672400    300.46846   -1511.1941    466.23693    299.39759    27.385455    39062.633 
  672500    300.21769   -1525.0586    470.28556    288.45975   -129.24946    39062.633 
  672600    292.70519   -1512.0785    463.76247    261.30436    499.45883    39062.633 
  672700    291.02718   -1517.7834    495.27914    279.60836    504.80541    39062.633 
  672800    299.29608   -1519.5108    473.00595    292.60443    393.66795    39062.633 
  672900    299.21283   -1487.7492    475.77303    326.76061    776.90624    39062.633 
  673000    294.09183   -1493.8531    476.20338    298.17474    603.10248    39062.633 
  673100    290.74958   -1528.9073    522.52035    294.48363   -105.34549    39062.633 
  673200    295.90241   -1527.9045     466.6511    262.67194    34.395001    39062.633 
  673300    303.19959   -1514.3993    476.75366    318.92865    623.89717    39062.633 
  673400    301.47517   -1484.0807    507.55729    372.33554    333.95237    39062.633 
  673500    291.25922   -1481.9683    462.60198    283.78443    285.80749    39062.633 
  673600    290.12019   -1482.7096    504.65113    319.99606     9.517702    39062.633 
  673700    308.16959   -1500.2349    489.97924    368.55543     523.0581    39062.633 
  673800    301.61342   -1498.6566    429.69393    280.51483    700.20798    39062.633 
  673900    296.45937   -1499.3759    520.16506    347.20646    884.57791    39062.633 
  674000    289.08433   -1517.0353    499.03687    275.42149    672.92173    39062.633 
  674100    302.13163   -1533.3497    479.59799    298.04442     334.8156    39062.633 
  674200    292.27665   -1544.6895    491.65671    254.67015    132.40539    39062.633 
  674300    302.66443   -1501.2944    486.09365    338.97922    112.19764    39062.633 
  674400    293.60788   -1516.1436    498.06563    295.58115      277.485    39062.633 
  674500    294.06985   -1505.9728    474.28081    284.03411    422.14616    39062.633 
  674600    301.43069   -1560.1629    485.89055    274.38762     68.70951    39062.633 
  674700    291.53056   -1529.4829    458.97999     233.8619    2.6108332    39062.633 
  674800    302.82405   -1531.8095    510.80488    333.88947    20.034041    39062.633 
  674900    301.49875   -1560.7969    464.61272    252.78024   -139.87893    39062.633 
  675000    299.88266   -1517.0041    495.03946    319.76911   -448.14906    39062.633 
  675100    298.36868   -1458.5432    477.60244    354.01917   -412.84106    39062.633 
  675200    303.91959   -1499.2738      473.681    334.20297   -327.76737    39062.633 
  675300    294.69345   -1514.6226    485.95489    289.84852   -289.97533    39062.633 
  675400     298.7351   -1473.9973    472.65347    335.25548   -447.37181    39062.633 
  675500    307.63617   -1499.8267    486.10323    362.70098   -327.07394    39062.633 
  675600     292.1684   -1488.5983    478.61111    297.23146   -605.52151    39062.633 
  675700    300.78624   -1444.4272    484.24751    385.59687    -479.2157    39062.633 
  675800    292.56369   -1433.3196    480.35064    356.01828   -465.19789    39062.633 
  675900    301.82243   -1493.3866    502.65674    359.68281   -176.46474    39062.633 
  676000    300.45819   -1496.9317    487.45181     334.8289    454.34338    39062.633 
  676100    305.34986   -1489.8448    480.69899    357.04929   -333.70809    39062.633 
  676200    298.40981   -1444.7996    481.28448    371.62888    304.79459    39062.633 
  676300     302.3917   -1454.4397     469.0502    367.57018   -13.366073    39062.633 
  676400    292.38591   -1480.0622    497.83808    325.96769    561.77581    39062.633 
  676500    299.45716   -1503.1303    462.12766    298.82737    382.45901    39062.633 
  676600    306.00469   -1489.6522    478.08584    357.55855     470.8562    39062.633 
  676700    300.09508   -1484.8464    475.95282    333.79061    215.04424    39062.633 
  676800    286.32279   -1516.8273    469.71015    233.94713    180.63261    39062.633 
  676900    306.08231   -1542.3709     491.7983    318.89962    697.89989    39062.633 
  677000    293.70574   -1527.8547    488.44656    274.68887    324.55857    39062.633 
  677100    303.22951   -1512.4267    501.06881    345.35035    373.00224    39062.633 
  677200    300.31801    -1533.861    448.91738    258.73793    -210.7675    39062.633 
  677300    293.35681   -1525.6469    465.85725     252.7462   -436.11223    39062.633 
  677400     289.7987   -1553.3192    464.49475    207.79175    502.60115    39062.633 
  677500    309.39411   -1487.6547    455.75332    352.38845    465.86873    39062.633 
  677600    301.86939   -1516.4871    499.43198    333.56767    195.15455    39062.633 
  677700    308.94226   -1462.0588    493.47282    413.68219    373.87277    39062.633 
  677800    297.95608   -1476.3855    468.69688    325.42524    510.97481    39062.633 
  677900     288.2079   -1484.6877    516.61465     321.4255    139.73481    39062.633 
  678000    296.56983   -1503.6065    496.61081    319.91581   -222.41093    39062.633 
  678100    302.94925    -1486.231    464.72076     333.9441    161.32991    39062.633 
  678200    304.74765   -1477.1735    488.81311    375.14033    4.4979715    39062.633 
  678300    291.09189   -1540.7179    492.41029     254.0945    -43.25509    39062.633 
  678400    292.57587   -1486.1246    495.74368    318.66079    128.57467    39062.633 
  678500    293.31993   -1516.6739    483.32363    279.02055    298.44838    39062.633 
  678600    301.53349   -1543.0171    470.63027    276.73308   -30.517766    39062.633 
  678700    289.91887   -1537.4204    482.69884    242.43223   -89.198362    39062.633 
  678800    295.52241   -1552.1057    477.57957    247.69905    194.37803    39062.633 
  678900    298.76545   -1527.9101    456.13108    264.95618   -67.714482    39062.633 
  679000     299.3315   -1555.0641    511.89082    296.09446    486.56163    39062.633 
  679100     301.4227   -1557.5057    482.57266    273.69114    285.02271    39062.633 
  679200    305.14444   -1559.1234    461.97391    268.12653   -204.60764    39062.633 
  679300    298.45231   -1523.2957     465.7409    277.77934   -173.44187    39062.633 
  679400    297.80019   -1526.0896    483.56868    289.89545    9.3131704    39062.633 
  679500    314.65273   -1565.6845    473.88272    316.01612   -104.93527    39062.633 
  679600    307.35041   -1534.3437    466.24095    307.04315   -175.23677    39062.633 
  679700    293.08969   -1547.5668    475.13364    238.90753   -148.59046    39062.633 
  679800    295.20819   -1567.9544    459.32004     212.1849   -389.63696    39062.633 
  679900    299.14529   -1542.0239    479.00686     275.4176    172.45188    39062.633 
  680000    302.80278   -1569.3275    484.21024     269.6817    494.30479    39062.633 
  680100    292.05806    -1570.852    475.23708       211.11    879.58235    39062.633 
  680200    304.38744   -1550.8868    478.40928    289.41154    493.26231    39062.633 
  680300     292.9266   -1537.5647    465.68222    238.72852    311.16654    39062.633 
  680400    298.51063   -1567.2493    459.87625    228.22199    66.004883    39062.633 
  680500    295.01712   -1492.9243    446.57065    273.61074    6.0198918    39062.633 
  680600    293.90356   -1535.4941    475.01463    254.50258    -615.3339    39062.633 
  680700    291.10874   -1525.9324    485.53864    262.08379   -142.89285    39062.633 
  680800    313.37575   -1522.0814    472.55354    352.57664   -328.05768    39062.633 
  680900    287.20522   -1503.0154    471.31381    253.31082    -344.5648    39062.633 
  681000    310.69829   -1483.7408    473.89607    380.28031    100.75821    39062.633 
  681100    289.23854   -1492.7753    497.53917    298.87379   -57.550145    39062.633 
  681200    294.37539   -1507.1815    488.24649     298.1582   -149.76636    39062.633 
  681300    305.71033   -1490.7099    467.16297    344.26097   -477.46395    39062.633 
  681400    290.72994   -1513.0707    472.69114    260.40319   -416.55858    39062.633 
  681500    294.32783    -1494.518     491.2779    313.64026    336.63414    39062.633 
  681600    298.70699   -1517.5862     460.3116    279.19895    381.99285    39062.633 
  681700    295.61138   -1511.1432    491.36052    302.84049    797.56007    39062.633 
  681800    298.38348    -1519.883    472.15912    287.30222    842.63627    39062.633 
  681900    305.06859   -1493.4961    505.41429    376.85484   -33.244267    39062.633 
  682000     304.3761   -1529.3753    470.05282    302.51582   -24.535973    39062.633 
  682100    293.82864   -1547.5833    451.93977    219.00342    59.143843    39062.633 
  682200    310.40235   -1497.4415     490.0793    381.43876   -97.082342    39062.633 
  682300    299.24308   -1532.5975    484.47356     290.7482   -967.00411    39062.633 
  682400      308.965   -1487.1739    476.06052    371.25658   -139.83573    39062.633 
  682500    304.67877   -1514.2193    487.24994    336.22315    132.01865    39062.633 
  682600    303.41128   -1506.6813    501.99449    352.83468   -127.52608    39062.633 
  682700    301.56525   -1519.1775    495.08283    325.16736   -46.040259    39062.633 
  682800    295.83401   -1517.3971    462.26181    268.48408   -538.41934    39062.633 
  682900    299.07508   -1515.6656    485.70695    308.16181   -68.197459    39062.633 
  683000    304.05589    -1500.941    492.15722    351.62183    142.88987    39062.633 
  683100    295.85452   -1558.7366    475.23386    240.20837     62.78525    39062.633 
  683200    317.74544   -1502.0229    521.89702    441.52946     2.466022    39062.633 
  683300    300.31667   -1543.2472     441.2524    241.68083    -129.7963    39062.633 
  683400    292.39333   -1534.2837    463.15718    237.09851   -10.178882    39062.633 
  683500    306.25377   -1550.5366     477.1231     296.8258    510.33972    39062.633 
  683600     299.3845   -1566.1554     476.4487    249.79817    449.52317    39062.633 
  683700     306.8839   -1584.1303    451.62922    240.55766    159.84372    39062.633 
  683800    317.17326   -1553.8084    482.27772    347.56462    276.18749    39062.633 
  683900    303.89389   -1531.3256    462.25532    290.61051    370.65027    39062.633 
  684000    304.39431   -1557.4634    465.04627    269.50271    102.84734    39062.633 
  684100    293.31428   -1530.7685    474.51036     256.0874    153.61126    39062.633 
  684200    301.45171   -1533.7368    480.54408    295.56129   -285.51067    39062.633 
  684300    300.49531   -1516.9094     474.8932    302.45875   -174.79137    39062.633 
  684400    290.08144   -1502.8487    472.08077    267.11325   -475.69054    39062.633 
  684500    296.74347   -1512.1352    473.74301    289.29625   -387.30206    39062.633 
  684600    301.08479   -1559.5787    485.88577    273.41943   -538.33462    39062.633 
  684700    299.54487   -1509.2841    474.25638    305.19469   -402.69195    39062.633 
  684800    295.00486   -1494.6103    498.12057    323.41978   -180.02586    39062.633 
  684900    287.86281   -1501.2426    485.29843    272.01039    -249.4455    39062.633 
  685000    297.67428   -1501.7564    480.85244    310.94904   -520.36515    39062.633 
  685100     290.8522   -1562.8855    496.68163    235.12588   -347.46446    39062.633 
  685200    290.37774   -1511.2325    475.01553    262.98991    225.02394    39062.633 
  685300    307.38568   -1498.5072    485.34276    362.13934   -328.94046    39062.633 
  685400     302.4483   -1509.1138    509.69598    353.79519   -90.308984    39062.633 
  685500     292.5871   -1550.1947    469.46763    228.36492   -202.16769    39062.633 
  685600    304.80841   -1510.9844    490.15677    342.94489    380.01254    39062.633 
  685700    298.05419   -1543.5362     460.7042    250.72088    12.899964    39062.633 
  685800    303.12355   -1556.0278    472.99355    273.19983    792.49351    39062.633 
  685900    308.78898   -1524.3366    490.92534    348.17112    1059.0247    39062.633 
  686000       291.44   -1514.5322    490.43486    279.86235    945.56282    39062.633 
  686100    305.53221   -1496.2502    473.93036    344.69113      517.773    39062.633 
  686200    297.05991   -1538.0422    502.35048    293.41252   -35.631763    39062.633 
  686300    289.76365   -1515.6001    495.75586    276.61513    57.528357    39062.633 
  686400     303.5768    -1485.939    478.54575    350.86879    -39.71265    39062.633 
  686500    296.11467   -1525.5561    495.74794    295.06692   -680.07296    39062.633 
  686600    305.06654   -1502.2438    490.74381    353.42742    -145.6421    39062.633 
  686700    292.94259   -1493.1121    488.62802    306.19847   -263.27507    39062.633 
  686800    296.85858   -1501.1701    502.24853    329.28187   -52.023471    39062.633 
  686900    308.78461     -1515.94    474.63462     340.2574    200.01105    39062.633 
  687000    294.07424    -1523.359    483.63319    276.01992    -622.0423    39062.633 
  687100    291.95408   -1493.2497    499.11192    312.12193    -610.8855    39062.633 
  687200    301.56279   -1512.7416    481.21025    317.71971    -863.2475    39062.633 
  687300    295.56374   -1510.4367    503.31498    315.28833   -604.96709    39062.633 
  687400    283.03087   -1519.3138    473.77796    220.79969     152.2542    39062.633 
  687500    304.80191   -1558.9145    484.61352    289.44242   -130.32372    39062.633 
  687600    300.16145   -1530.2366    496.80938    309.55396    587.75637    39062.633 
  687700    309.77621   -1533.9725    477.44966    329.47663   -342.86345    39062.633 
  687800    301.31696   -1557.7898     459.2117    249.57302    191.31146    39062.633 
  687900     309.8766   -1540.7995    499.95555    345.60459    439.32729    39062.633 
  688000     291.5556   -1553.9029     458.2038    208.77775    676.63585    39062.633 
  688100    303.74158   -1564.3822    499.47323    294.09032   -63.724384    39062.633 
  688200    312.52887   -1537.2595    498.50057    359.55641    66.699959    39062.633 
  688300    307.57546   -1523.6914    502.20278    354.66425   -227.70931    39062.633 
  688400    296.26226   -1506.7337    505.93597    324.73763   -509.85312    39062.633 
  688500    298.72185   -1468.5054    478.07187    346.10651   -306.69281    39062.633 
  688600    302.45455   -1504.7779    495.39943    343.86241    158.47057    39062.633 
  688700    297.58205   -1532.4727    495.00791    293.97558    459.22492    39062.633 
  688800    310.80847   -1540.4281    472.51492    322.70481    157.18333    39062.633 
  688900    292.51263    -1532.517    487.98087    264.22269    153.21022    39062.633 
  689000    305.38926    -1536.687     470.8983    300.58274   -127.17288    39062.633 
  689100    299.02358   -1541.6831    486.07788    282.28486     404.9986    39062.633 
  689200    291.65296   -1505.8165    491.98255    291.07851    294.73729    39062.633 
  689300     295.1786   -1518.3741    498.86126    301.17407    366.24971    39062.633 
  689400    284.81393   -1518.5229    499.38828    255.17866    457.65867    39062.633 
  689500    297.29348    -1512.349    489.28719    307.08746    379.13626    39062.633 
  689600    294.17468   -1547.6533    497.03584    265.57773    34.092237    39062.633 
  689700    296.05523   -1491.9672      500.431    333.07291    438.45636    39062.633 
  689800    302.51703   -1512.9749    483.44943      323.995    260.08016    39062.633 
  689900    293.44771   -1525.5482    463.06013    250.45446    -122.2833    39062.633 
  690000    292.88429   -1507.9565    503.68547    306.15069   -408.44371    39062.633 
  690100    294.17863   -1518.4889    488.51567    286.23957    518.86443    39062.633 
  690200    296.17813   -1532.7682    491.97425    284.36505    311.61763    39062.633 
  690300    305.77853   -1497.4083    485.45895     356.1637   -141.72404    39062.633 
  690400    311.37868   -1463.0429    471.88409    402.01036   -957.17937    39062.633 
  690500     302.2965   -1489.6164    479.43064    342.34802   -666.19933    39062.633 
  690600    300.39449   -1483.2474    469.38481    330.16122   -736.67286    39062.633 
  690700    294.24668   -1508.1393    494.81546    303.19346   -354.72448    39062.633 
  690800    297.76426   -1511.5635    494.00306    314.69521   -317.23822    39062.633 
  690900    304.68772   -1531.3742    468.88237    300.74066    56.810548    39062.633 
  691000    295.75122   -1539.4311      488.892    272.70974    -128.6844    39062.633 
  691100    302.85865   -1486.3894     512.9915    381.65102    124.01197    39062.633 
  691200    292.36182    -1510.013    451.96296    250.03404    203.87201    39062.633 
  691300    292.64673    -1510.244    516.67141    315.78615    45.946752    39062.633 
  691400    306.11579   -1530.6457    473.24535    312.22164    211.59453    39062.633 
  691500    295.45324   -1519.0891    477.41435    280.24095    198.54235    39062.633 
  691600    307.07894   -1536.7552    506.49079    343.66692    527.26174    39062.633 
  691700     305.1176   -1544.4807    476.84609    297.52126    537.37666    39062.633 
  691800    287.24064   -1525.3945    485.25702    245.03342    204.39587    39062.633 
  691900    311.63168   -1545.7986    496.59786    345.10038    601.93982    39062.633 
  692000    294.17742   -1510.8299    499.76547      305.143   -10.777178    39062.633 
  692100    309.21434   -1481.8658     475.7396     377.3593   -30.729755    39062.633 
  692200    299.03811   -1452.3618    503.21723    388.81052   -256.75818    39062.633 
  692300    300.48736   -1514.6423    468.33823     298.1352   -565.94031    39062.633 
  692400    288.45731   -1482.2189    481.49656    289.89221   -559.87227    39062.633 
  692500    296.56335   -1447.3771    492.22765    371.73305    -691.2212    39062.633 
  692600    301.77679   -1480.2043    494.08744    364.09156    -236.9874    39062.633 
  692700    293.90309   -1467.1377    489.06166    336.90399   -418.85809    39062.633 
  692800     305.1346   -1483.6203    459.91552     341.5272    -164.9424    39062.633 
  692900      302.353   -1484.4323    478.68944    347.04367    286.31286    39062.633 
  693000    306.17794   -1530.2558    508.88509    348.52936   -247.73249    39062.633 
  693100    295.19977   -1517.2988     481.4613    284.94412    313.71465    39062.633 
  693200    292.39711   -1548.1576     479.7074    239.79171   -168.71304    39062.633 
  693300    307.41937   -1530.2004     475.5412    320.79534   -302.26448    39062.633 
  693400    298.96703   -1508.8559     482.5245    311.30568   -103.40302    39062.633 
  693500    309.24958    -1510.093    471.42327     344.9735   -175.70514    39062.633 
  693600    300.80995   -1512.5643    499.63524    332.95357    -45.11661    39062.633 
  693700    298.72139   -1456.3868     484.4228    364.57403   -429.84824    39062.633 
  693800    303.15726    -1473.495    489.82782    372.71783   -134.51566    39062.633 
  693900    295.56201   -1454.8136    490.23247    357.82118   -294.86398    39062.633 
  694000    301.93031     -1446.81    503.07077    407.15612    523.77424    39062.633 
  694100     290.3619   -1462.4213    505.14327    341.85796   -43.533527    39062.633 
  694200    296.93244   -1462.0097    469.92855    336.45278    35.401892    39062.633 
  694300    311.15839   -1432.4748    516.59068    476.29946    150.04706    39062.633 
  694400    301.48628   -1430.1359    499.41072    418.18348    272.17583    39062.633 
  694500    300.44753   -1436.0744    489.82729    398.01399     564.6604    39062.633 
  694600    291.79798   -1449.1848    505.54787    361.92432    811.91856    39062.633 
  694700    300.02178   -1494.4678    500.47974    348.36817    705.12433    39062.633 
  694800    302.16831   -1448.2815    485.38245    389.06113    625.64213    39062.633 
  694900    300.71002   -1483.0088    478.01481    340.44152    119.79606    39062.633 
  695000    295.72035   -1517.1124    486.49889    292.49729   -104.87725    39062.633 
  695100    301.21422   -1476.1463    480.95958    352.50471   -488.35635    39062.633 
  695200    299.92495   -1485.7711    495.70532    351.85723   -874.63356    39062.633 
  695300    299.32801    -1474.655    470.69703    335.29421   -907.33232    39062.633 
  695400    289.26653   -1483.5126    504.09475    314.81733   -924.11371    39062.633 
  695500    294.37734   -1513.3669     481.6316     285.3666   -729.87997    39062.633 
  695600    298.31728   -1499.7071    477.09141    312.11431   -214.19639    39062.633 
  695700    297.05932   -1484.8524    462.27832     306.5275    -355.6275    39062.633 
  695800    299.59104   -1447.1554    496.17557    389.44919   -600.69768    39062.633 
  695900    288.57418   -1454.2578    485.78669    322.66628   -640.11488    39062.633 
  696000    304.57019   -1484.4468    505.72551     383.9854    251.99286    39062.633 
  696100    314.12939   -1497.7041    483.90831    391.68065   -564.25419    39062.633 
  696200    309.88748   -1522.8905    472.19609    335.80287   -512.41343    39062.633 
  696300    289.24019   -1529.6742     451.4559    215.89899   -945.77889    39062.633 
  696400    300.47064   -1524.4442    467.55609    287.47641    19.838127    39062.633 
  696500    303.20036   -1475.3673    482.86659    364.07707    32.479356    39062.633 
  696600    303.28851   -1497.1614    487.41169    347.22252    137.59589    39062.633 
  696700    289.17209   -1503.9904     492.1632    281.98542    101.61671    39062.633 
  696800    302.74795   -1501.8412    488.27476    340.98715    62.590797    39062.633 
  696900    300.81718   -1496.0721    473.78237     323.6253    -272.4719    39062.633 
  697000    301.21681   -1498.7302    490.17424    339.14706   -786.88731    39062.633 
  697100    303.49428   -1545.5777     448.5802    260.89535   -272.17182    39062.633 
  697200    303.49472   -1533.6957    505.51298    329.71213   -793.25407    39062.633 
  697300    304.23003   -1481.0428    509.26848    389.41046   -159.77288    39062.633 
  697400    300.78988   -1501.9557    480.54083    324.37793   -316.99456    39062.633 
  697500    305.20065   -1510.9486    465.88116    320.46003    152.50578    39062.633 
  697600    306.72472   -1510.2358    503.02008    365.13076   -20.176944    39062.633 
  697700    289.00232   -1502.3719    498.85312    289.53418   -372.76698    39062.633 
  697800    295.66366   -1491.9676    485.13971    316.02926    170.22207    39062.633 
  697900    297.82622   -1490.8058    518.78893    360.51604    310.61463    39062.633 
  698000    298.88538   -1490.9887    488.34524    334.62825   -194.06082    39062.633 
  698100    295.94676   -1493.6709     514.9124    345.36526    416.54499    39062.633 
  698200    305.69586   -1523.9329    473.80716    317.61743    430.45682    39062.633 
  698300    294.35882   -1519.2854    496.00878    293.74246    359.13954    39062.633 
  698400    311.19148   -1500.6988    485.14849     376.7813   -48.095981    39062.633 
  698500     299.7575   -1557.2356    458.40294    242.34116    -516.5191    39062.633 
  698600    295.72261   -1542.8265     452.9584     233.2528   -309.63517    39062.633 
  698700    299.87134   -1505.6454    492.71739    328.75513   -515.01275    39062.633 
  698800     293.6625   -1535.7023    501.88218    280.08344    175.01037    39062.633 
  698900    306.13255   -1538.3597    497.12421    328.46147    269.49489    39062.633 
  699000    296.31161   -1542.5518    488.61654     271.8209   -17.290252    39062.633 
  699100    287.53402   -1488.5104    496.24474    294.21786    386.79212    39062.633 
  699200    300.74357   -1524.1247    467.41715     288.8781    104.55923    39062.633 
  699300     304.6214   -1496.5938    494.91253    361.25452     103.3992    39062.633 
  699400    289.54129   -1543.1815     448.3385    200.62141    274.19486    39062.633 
  699500    293.55992   -1549.8343      479.234    242.84429   -328.64361    39062.633 
  699600    302.27158   -1537.5701    462.42825    277.28041    132.56368    39062.633 
  699700    293.21903   -1518.1094    482.43647     276.2465    88.221272    39062.633 
  699800    309.69656   -1507.0375    480.80085    359.40641    238.53291    39062.633 
  699900    263.68075   -1522.3195    471.68086     129.1207    282.77629    39062.633 
  700000    304.03012   -1506.1277    501.29344    355.45602   -34.133215    39062.633 
  700100    294.38284   -1513.6761    482.06889    285.51928    236.80572    39062.633 
  700200    302.11948   -1536.3564    498.42509    313.81043   -139.08841    39062.633 
  700300    297.21271   -1560.2433    478.87038    248.41499   -70.073265    39062.633 
  700400    308.84789   -1539.9691    481.15606    323.03292    672.00616    39062.633 
  700500    294.11776    -1535.333    489.54302    270.15053    341.91754    39062.633 
  700600     301.0299   -1545.7281    471.31763    272.45626     172.8656    39062.633 
  700700    301.67762    -1556.033    493.00974    286.74153    180.10101    39062.633 
  700800    303.18779    -1537.667    481.10229    299.95685    169.13304    39062.633 
  700900    298.96732   -1532.3663    505.71089    310.98288    155.28607    39062.633 
  701000    310.56456   -1536.7961    503.15946    355.89001   -157.44116    39062.633 
  701100    287.37204   -1477.9235     499.6482    307.48347    10.221166    39062.633 
  701200    295.40214   -1467.1799    497.75015    352.25725   -183.27139    39062.633 
  701300    307.97677   -1561.7933    477.47588      293.631    47.472168    39062.633 
  701400    296.18814   -1502.7297    504.84269    327.31674   -205.52484    39062.633 
  701500    297.82799   -1520.9066    477.11478    288.74897    386.50819    39062.633 
  701600    303.46741   -1540.4572    524.65059    341.96609    134.18071    39062.633 
  701700    299.79559   -1540.7827    476.05751    276.61904   -78.753939    39062.633 
  701800    299.68044   -1532.6762    507.71016    315.86297    751.57853    39062.633 
  701900    300.08301   -1594.3333     485.2012    233.49811    207.85087    39062.633 
  702000    299.07288   -1567.1271    489.00386    259.98743    381.74649    39062.633 
  702100    303.48215   -1556.5158    482.00326    283.32609    325.44426    39062.633 
  702200    309.79521   -1526.7876     451.2298    310.52668    74.940268    39062.633 
  702300    290.38524   -1567.0197    487.44028    219.66098    116.27869    39062.633 
  702400    297.71396   -1518.3023    474.09508    287.82338    141.56418    39062.633 
  702500    302.20846   -1559.3381    477.96236    270.76413    67.934384    39062.633 
  702600    297.57873   -1567.0255    490.74557    255.14557    182.02278    39062.633 
  702700    299.64747   -1592.5762     491.5126    239.61783    388.69847    39062.633 
  702800    304.86305   -1585.1347    471.67426    250.55653    485.83714    39062.633 
  702900    296.42904   -1559.8309    497.14207    263.59276    92.904536    39062.633 
  703000    303.69535   -1565.1335    481.58028    275.23929    272.92701    39062.633 
  703100    304.61241   -1537.0632    522.81612    348.64855    431.96641    39062.633 
  703200     291.3351   -1529.9358    458.61642    232.17094    793.92422    39062.633 
  703300    308.64672   -1514.8001    501.96964    368.11538    412.49945    39062.633 
  703400    305.76037   -1532.3395    472.72322     308.4155    458.83499    39062.633 
  703500     293.0104   -1542.7047    474.85961    243.14089    20.136576    39062.633 
  703600    302.96506    -1550.024    476.68656    282.18753    75.693432    39062.633 
  703700     310.2536   -1564.6345    472.14311    295.64402   -96.868082    39062.633 
  703800    303.53711   -1570.0134    470.03478    258.10591   -224.06158    39062.633 
  703900     299.2252   -1549.4746    492.99858    282.31615   -923.94041    39062.633 
  704000    302.36402   -1500.9669    487.98729    339.85623   -679.80969    39062.633 
  704100    300.88696    -1535.731    496.22653    306.72269   -360.70423    39062.633 
  704200    297.58671   -1531.3269    501.12654    301.26086    306.30248    39062.633 
  704300    297.35381   -1485.0799    493.30284    338.64208   -109.06325    39062.633 
  704400    306.25093   -1522.1338    502.60435    350.69719    -20.39909    39062.633 
  704500    303.67659    -1526.214    472.62737    305.12192    384.82486    39062.633 
  704600    293.11464   -1524.7252    470.72592    257.45309    223.27255    39062.633 
  704700    305.80612    -1524.723    497.40737    340.92082    306.28288    39062.633 
  704800    295.97864   -1555.9976    486.38833    254.65712    509.89038    39062.633 
  704900    300.95834   -1548.2873    491.97683    290.23611   -47.412446    39062.633 
  705000    295.99374   -1522.5493     476.6449    278.42959    572.12686    39062.633 
  705100     306.5599   -1597.3836     474.8305    249.05595   -7.3386125    39062.633 
  705200    305.10852   -1552.5131    485.54761    298.14982   -215.11686    39062.633 
  705300     293.0024   -1536.3261     504.9407    279.56476   -323.71675    39062.633 
  705400    296.32537   -1532.5688    485.23389    278.48284   -59.911799    39062.633 
  705500    297.41416    -1535.969    482.54354    277.26373   -270.76987    39062.633 
  705600    302.00784   -1549.6341     456.6919    258.30003   -195.02416    39062.633 
  705700    296.88825   -1547.5034    491.76508    272.59785    -301.0208    39062.633 
  705800    290.02852   -1511.6212    491.90352    277.92667   -277.11198    39062.633 
  705900    303.51115   -1526.7763    461.78477    292.97679   -395.09252    39062.633 
  706000    301.25345   -1560.7966    493.44977    280.52017   -500.58865    39062.633 
  706100    316.53558   -1541.0718    471.47627     346.6467    72.321836    39062.633 
  706200    304.28765   -1549.9919    493.14502    304.59565     77.23694    39062.633 
  706300    294.83448   -1553.0902    459.56325    225.62024   -179.80286    39062.633 
  706400    307.79116   -1543.5647    487.01691    320.57016   -383.04572    39062.633 
  706500     296.7472   -1577.8921    486.57366    236.38664     61.40021    39062.633 
  706600    290.24738   -1533.9558    490.66198    255.32987    210.20842    39062.633 
  706700    301.96735   -1530.1004    502.18359    323.14424    472.17449    39062.633 
  706800    296.42511   -1546.4641    488.10873    267.90865    577.23217    39062.633 
  706900    307.19479   -1569.9739    486.47654    290.95226    605.98737    39062.633 
  707000    294.98982   -1538.3331    494.34874    275.85787    86.976612    39062.633 
  707100    288.41492   -1570.5823     475.2467    195.08928   -153.01914    39062.633 
  707200    302.83007   -1565.3987     466.6825    256.20487    2.3986728    39062.633 
  707300    302.27732   -1539.0795    497.25856    310.62701   -149.36855    39062.633 
  707400     305.3308    -1524.644    484.30369     325.7695   -348.56992    39062.633 
  707500     303.4992   -1544.0836    494.99858    308.82989    -761.9918    39062.633 
  707600    295.66332   -1546.4335    454.33228    230.75439   -546.73908    39062.633 
  707700     304.7239   -1543.2798     484.4503    304.56495   -632.57888    39062.633 
  707800    300.81385   -1510.8586    469.67918    304.72067   -107.59497    39062.633 
  707900    300.06254   -1528.2894     490.0672    304.31642   -255.54349    39062.633 
  708000    306.01781   -1526.2486    492.14349    335.07851    113.04298    39062.633 
  708100    300.19062   -1594.5466    484.37381    232.93881    193.82413    39062.633 
  708200    302.70732   -1554.0075    477.07908    277.44344    275.28416    39062.633 
  708300    291.56091   -1514.2568    472.61864    262.86245   -42.969363    39062.633 
  708400    296.97728   -1527.5049    481.88159    283.11125    312.65604    39062.633 
  708500    298.06588   -1547.6914    497.67486    283.58857   -37.946794    39062.633 
  708600    295.03539    -1523.001    486.36665    283.41182    442.50926    39062.633 
  708700    297.51435   -1510.6602    487.92877    308.40609    308.55299    39062.633 
  708800    308.29109   -1559.2625    511.50821     331.6004    210.66068    39062.633 
  708900     298.4376   -1506.3903    468.12426     297.0022    473.35796    39062.633 
  709000    308.40677   -1493.3282    492.72502    379.26916   -174.99956    39062.633 
  709100    305.39252   -1537.6231    492.71758    321.48046    342.23903    39062.633 
  709200    305.72593   -1530.9662    485.64432    322.55581    250.37391    39062.633 
  709300    298.12331   -1539.2442    477.92508    272.54299   -197.26426    39062.633 
  709400    290.02744   -1544.8192    469.15789    221.97822    136.23938    39062.633 
  709500    303.01449   -1492.0178    497.77927    361.50763   -52.028248    39062.633 
  709600     294.6165   -1467.3844    491.66478    342.45226   -47.802358    39062.633 
  709700    292.37595   -1470.9026    483.31794    320.56256   -409.23304    39062.633 
  709800    301.06071   -1535.2442     482.8263    294.58673   -47.038062    39062.633 
  709900    299.38424   -1504.0863    455.95841    291.37581    174.11417    39062.633 
  710000    298.59285   -1519.7687    472.27593    288.47018    432.44967    39062.633 
  710100    307.73525    -1514.748    498.21355    360.33332    330.25928    39062.633 
  710200    300.19129   -1481.4195    460.10939    321.80456    198.33039    39062.633 
  710300    297.58028   -1538.2972    458.77969    251.91497    120.00573    39062.633 
  710400    296.61366   -1500.1757    499.30898    326.24093    59.496347    39062.633 
  710500    305.96645    -1502.903    476.22069    342.27152   -352.15638    39062.633 
  710600    291.99841   -1500.8074    469.36647    275.01715   -156.04451    39062.633 
  710700    304.83831   -1520.4227    485.49888    328.98248    -368.5728    39062.633 
  710800    289.06792   -1543.0554    471.94622    222.23731    248.98125    39062.633 
  710900    296.77603   -1494.6313    466.57865    299.78148    95.821263    39062.633 
  711000    306.51308   -1526.8479     507.3307    351.88233     309.3303    39062.633 
  711100    303.62219   -1531.4189     487.6453    314.69154    459.97472    39062.633 
  711200    305.01234   -1477.5859    482.06876    369.16784    1156.5925    39062.633 
  711300    310.03305   -1513.2729    456.98127    330.85698    587.88792    39062.633 
  711400    305.77642   -1514.2987    468.12395    321.92879    556.93019    39062.633 
  711500    298.29344   -1549.4564    487.22067    272.38756    151.19409    39062.633 
  711600     291.8844   -1499.8691    485.89298    291.97191    111.20306    39062.633 
  711700    308.47042   -1518.2707    464.52717    326.41352    170.31496    39062.633 
  711800    312.78789   -1523.9739     471.8963    347.39666     549.9556    39062.633 
  711900    310.91529   -1463.4691    501.30335    428.93018    112.67181    39062.633 
  712000    293.83556   -1474.0689    489.80447    330.41343   -243.08307    39062.633 
  712100    296.22876   -1533.1871    482.78171    274.98013   -352.30037    39062.633 
  712200    291.60052   -1519.0247    474.46605    260.11926    212.63759    39062.633 
  712300    298.10801   -1468.7436    483.61952    348.66949   -105.71599    39062.633 
  712400    294.01407    -1484.043    498.44455    329.87813    410.53062    39062.633 
  712500     301.5402   -1483.7805    492.02045    357.38988    804.76849    39062.633 
  712600    302.69258   -1462.6979    495.72259    387.33055    1125.7838    39062.633 
  712700     291.3242   -1485.7088    485.71966    303.45232    325.16965    39062.633 
  712800    300.70531    -1448.052    502.13807    399.50053    125.02806    39062.633 
  712900    295.07783   -1456.9273    474.05336    337.36208    168.96038    39062.633 
  713000    295.09713   -1471.6686    488.90674    337.56054    150.98859    39062.633 
  713100    290.32907   -1496.9396    498.80518     300.8547    36.553747    39062.633 
  713200    297.95704   -1497.4154     472.8414    308.54418    325.06704    39062.633 
  713300    295.88843   -1542.8559    479.51312    260.52001    437.17977    39062.633 
  713400     293.8062   -1520.6457    473.01436    266.91515     418.2236    39062.633 
  713500    296.09011    -1563.255    467.95008    229.46019    534.64731    39062.633 
  713600    307.02419   -1533.2418    461.81281    302.25741    709.26651    39062.633 
  713700    302.05018   -1525.8648    464.29474    289.86163    210.63824    39062.633 
  713800    291.17539   -1555.2075    460.27202    207.84019   -19.609649    39062.633 
  713900    299.64909   -1536.7536    495.10545    299.04059    499.40837    39062.633 
  714000    305.28054    -1493.976    499.07123    370.98013     42.62104    39062.633 
  714100    309.55654   -1478.4718    483.18923    389.73406   -432.50327    39062.633 
  714200    293.56608   -1491.0647     473.5283    295.93571   -132.30594    39062.633 
  714300    295.29248   -1491.8118    468.17386    297.55852   -277.86487    39062.633 
  714400    306.85365   -1453.3712    496.06187    415.61406   -338.29752    39062.633 
  714500    297.02271   -1468.8948    474.88354    334.92648   -221.00649    39062.633 
  714600    307.74978    -1472.954    474.33873    378.31752   -78.909871    39062.633 
  714700    308.12656   -1450.8803     480.3293    408.06755    99.322717    39062.633 
  714800     291.1252   -1466.4284    492.55375    328.67655   -168.70561    39062.633 
  714900     292.7801   -1466.4444    486.91627    330.42736   -209.78858    39062.633 
  715000    295.15994   -1470.3222    497.50906     347.7903    -533.4952    39062.633 
  715100    296.54189   -1461.9816    482.41379    347.21871   -399.38874    39062.633 
  715200    297.91947   -1498.8538    458.66386    292.76015   -162.61143    39062.633 
  715300    304.29569   -1484.2437    473.56575    350.80054    419.31228    39062.633 
  715400    300.86148   -1488.9071    465.05162    322.25776     62.37934    39062.633 
  715500    307.28085   -1498.3135    453.20803    329.72919    188.30956    39062.633 
  715600    302.26427   -1534.7966    478.40195    295.99489   -184.98589    39062.633 
  715700    306.42512    -1511.519    466.38352    325.87051   -268.28252    39062.633 
  715800    296.21398   -1479.0722    480.81546    327.06266    30.921481    39062.633 
  715900    293.18908   -1559.1918    473.34493     225.9385    427.98473    39062.633 
  716000    311.93082   -1505.5392    449.66358    339.76399    651.79515    39062.633 
  716100    297.43414    -1521.694    456.42148     265.5061    294.32429    39062.633 
  716200      314.514   -1531.6523     458.8048    334.34971   -300.10313    39062.633 
  716300    289.43827   -1545.0962    464.92023    214.82753   -179.18177    39062.633 
  716400    304.48635   -1519.6554    462.13688    304.81306   -209.07937    39062.633 
  716500    296.17218   -1543.6146    440.84677    222.36449   -817.34579    39062.633 
  716600    311.04766   -1555.2313    452.53025    288.98714   -662.37606    39062.633 
  716700    308.62455   -1497.4431    475.24647    358.65008    -276.1485    39062.633 
  716800      301.452   -1551.1536    467.39831    265.00004    116.94681    39062.633 
  716900    289.82243   -1538.7728     456.2643     214.2138   -238.33835    39062.633 
  717000    294.39992   -1491.7325    471.47803    296.94843   -223.73205    39062.633 
  717100    302.43334   -1503.2284    461.18894    311.10659   -468.83076    39062.633 
  717200     288.3176   -1515.8616    457.69775    231.82554   -544.25764    39062.633 
  717300    295.33282   -1525.1729    467.53411    263.73813   -430.65627    39062.633 
  717400    285.98951   -1506.9233    461.10369    233.75349   -494.10952    39062.633 
  717500     296.6437   -1543.9498    460.66632    243.95857   -647.14121    39062.633 
  717600    300.43428   -1514.0434    462.07036    292.22881    19.383698    39062.633 
  717700     298.6641   -1528.3485    475.16564    283.09884   -17.914824    39062.633 
  717800    293.24588   -1479.2911    479.75721    312.50562   -9.9001535    39062.633 
  717900     292.7168   -1545.5453    487.28853    251.41555   -228.32595    39062.633 
  718000    293.60835   -1509.2141    448.89862    253.34576   -504.41685    39062.633 
  718100    283.33078   -1546.9175    442.03178    162.79171   -566.25706    39062.633 
  718200    309.99021    -1530.175    466.51381    323.29567   -542.64194    39062.633 
  718300    311.35721   -1490.7347    446.04536    348.38383   -312.07196    39062.633 
  718400    302.89839   -1500.3807    454.66571    309.51173   -569.14809    39062.633 
  718500    304.75233   -1518.7928    480.89529    325.62406   -648.59372    39062.633 
  718600    303.18173   -1508.7532    473.12443    320.86565   -176.28125    39062.633 
  718700    302.90055   -1470.2831    435.07172    320.02503   -457.25764    39062.633 
  718800     299.2447   -1501.8235    469.90283    306.95874    6.5075716    39062.633 
  718900    292.14043   -1495.2055    473.33094    285.21893    264.25212    39062.633 
  719000    302.02359   -1518.9724    471.60164    303.94197    396.47347    39062.633 
  719100    292.71674   -1540.2394    446.00137    215.43401    731.24203    39062.633 
  719200    295.20948   -1534.1508    465.91491    252.58916    1031.8626    39062.633 
  719300    308.28717   -1506.3908    467.76299    340.70938    790.98308    39062.633 
  719400    297.09838   -1498.2967    461.36308    292.34271     673.0745    39062.633 
  719500    291.98727   -1508.5861    455.18073    253.00285    241.12285    39062.633 
  719600    304.01564   -1512.8424    460.70264    308.08575    715.14343    39062.633 
  719700      296.407   -1530.2161    449.99128     245.9581    492.43019    39062.633 
  719800    285.36352   -1445.4252     477.2929    308.63995    71.072005    39062.633 
  719900    283.48225   -1479.1763    467.50664    256.68547   -8.1819668    39062.633 
  720000    294.58718   -1474.9265     458.2712    301.38542    57.053031    39062.633 
  720100    299.66636   -1475.0965    497.36091    363.03047   -463.58177    39062.633 
  720200    291.69234   -1461.4782    461.83765    305.44814    163.90205    39062.633 
  720300    307.55253    -1489.666    458.58888    344.97315   -118.53656    39062.633 
  720400     304.0405   -1462.6793    466.64487    364.30234    76.092245    39062.633 
  720500    310.71805   -1464.8768    484.39866     409.7353   -43.036568    39062.633 
  720600    294.32055   -1456.8085    461.09628    321.13559   -353.64578    39062.633 
  720700    303.25913   -1424.4577    474.49141     406.8745   -236.19226    39062.633 
  720800    300.50304   -1408.2914    463.55359    399.77171    -9.229046    39062.633 
  720900    302.37632   -1416.6174    481.68789    417.96138      134.632    39062.633 
  721000    303.45993   -1445.5016    475.61508     387.8527    203.49892    39062.633 
  721100    287.90175   -1415.6634      493.909    366.37439    111.09694    39062.633 
  721200    295.56479   -1423.5346    498.80191    397.68206    301.79788    39062.633 
  721300    294.04012   -1421.2756     480.2227    374.54019   -60.914837    39062.633 
  721400    290.13163   -1411.5416    480.95087    367.51497   -314.18713    39062.633 
  721500    303.44942   -1395.2788    463.68455    426.09792   -101.97907    39062.633 
  721600    311.06554   -1413.0467    511.86212    490.58357   -506.39763    39062.633 
  721700      291.982   -1438.1966    465.65757    333.84566   -241.87941    39062.633 
  721800    307.12898   -1449.7866    469.97028    394.33893    21.979497    39062.633 
  721900    289.85913   -1401.4922     506.5062    401.90056   -168.11509    39062.633 
  722000    303.58663   -1420.2002    498.23185    436.33769    62.378317    39062.633 
  722100    302.32617   -1405.3712    478.34424    425.63954    183.22256    39062.633 
  722200    312.59074   -1408.4998    465.20174    455.29413   -519.70411    39062.633 
  722300    304.86843   -1449.1265    469.83421    384.74877    -443.4107    39062.633 
  722400    290.81111   -1422.1959     482.8662    361.81615   -845.92485    39062.633 
  722500    283.70559   -1435.2274    478.82883    312.95578   -778.44037    39062.633 
  722600    304.00536   -1434.7569    513.84317    439.26586   -639.80468    39062.633 
  722700    292.76127    -1452.945     481.5652    338.49146   -961.55025    39062.633 
  722800     299.5098   -1444.8724    461.62691       356.82   -660.27261    39062.633 
  722900    298.43838   -1454.5005    458.19423    338.96555   -274.25889    39062.633 
  723000    298.35024   -1465.5324    487.61464    356.95963    -254.8312    39062.633 
  723100    287.57625   -1449.9579    489.39668    326.11125   -790.63105    39062.633 
  723200    295.42058   -1400.9169    483.69388    404.54659   -445.37102    39062.633 
  723300    310.79666   -1400.2975    466.67905    456.94671    41.792674    39062.633 
  723400    300.39946   -1381.5227    501.70654     464.2299    169.63508    39062.633 
  723500     292.1402    -1453.596    471.33926    324.83577    232.61243    39062.633 
  723600    296.93472    -1420.959    482.06648    389.65162    163.41342    39062.633 
  723700    295.13846   -1432.7329     491.8253    379.59965    177.72556    39062.633 
  723800    303.50725   -1449.4045    456.12499    364.67142    301.71242    39062.633 
  723900    304.48492   -1469.6915    473.11166     365.7453    625.53372    39062.633 
  724000    291.70842   -1456.2658     490.4148    339.30959     399.1901    39062.633 
  724100    327.63057   -1433.7892    438.87384    470.96798     667.8991    39062.633 
  724200    307.44249   -1474.1557    491.99501    393.39725    519.92567    39062.633 
  724300    309.65122   -1488.0231    475.07538    372.49248    349.17039    39062.633 
  724400    297.33741    -1486.069     458.1102    302.38701    619.04922    39062.633 
  724500    295.13463   -1469.1029    502.88523     354.2725    359.16933    39062.633 
  724600    291.93572   -1454.9901    439.16872    290.35625    543.42943    39062.633 
  724700    306.37013   -1445.5737    485.30582    410.49211    155.36836    39062.633 
  724800    292.64753   -1458.4891    436.48264    287.35596   -231.44684    39062.633 
  724900    295.68555   -1456.4368     464.7878    331.30601   -282.07478    39062.633 
  725000    302.60237   -1464.7753    470.88162    360.00862   -331.69811    39062.633 
  725100    293.18879   -1450.1768    449.30615    310.91343    48.348823    39062.633 
  725200    293.71023    -1471.908    494.78251    336.99157    194.68445    39062.633 
  725300     298.9939   -1480.0828    476.51145    334.18589    140.45703    39062.633 
  725400    313.32902     -1452.93    480.20804    429.17349    274.62443    39062.633 
  725500    307.56236   -1431.5687    469.12326    413.64879   -149.38331    39062.633 
  725600    303.06641   -1459.8035    464.51412    360.68909   -892.37709    39062.633 
  725700    307.38472   -1447.8997    500.08387     427.4836   -582.11343    39062.633 
  725800    301.38748   -1440.6169    498.79754    406.64723   -26.279373    39062.633 
  725900    296.63553   -1391.4049    473.96413    409.76474    77.513098    39062.633 
  726000    300.14862   -1428.8115    503.08702    417.19928    339.74581    39062.633 
  726100    294.14187   -1493.3492    468.88518    291.58438    862.79726    39062.633 
  726200    287.61505   -1483.8074    473.05551    276.09418    398.09355    39062.633 
  726300    300.27109   -1488.9319    452.15159    306.69131    509.89943    39062.633 
  726400    297.96223   -1439.4588    468.23647    361.91909    343.01885    39062.633 
  726500    304.90989   -1448.7352    466.23539    381.72673   -136.37351    39062.633 
  726600    297.22936   -1466.5221     471.3335    334.67377   -195.93307    39062.633 
  726700    294.21217   -1506.2968    483.52773    293.59375   -255.75917    39062.633 
  726800    305.50526   -1506.3871    487.46483    347.96817    15.704184    39062.633 
  726900    300.09482   -1485.6015    442.58963    299.67109   -18.408619    39062.633 
  727000     310.2806     -1550.58    473.42365    311.09981     526.6077    39062.633 
  727100    304.17875   -1534.5921     464.9733     291.3365     349.4775    39062.633 
  727200    303.46775    -1542.616      442.636    257.79415    262.61848    39062.633 
  727300    301.93774   -1496.4471    474.54804    329.02952    -201.4331    39062.633 
  727400     307.0603   -1466.2353    460.16891    367.78158   -125.45674    39062.633 
  727500    300.56572   -1481.6368    472.09393    335.24708    15.449588    39062.633 
  727600    307.21185   -1514.2994    450.74089    310.96753   -3.3272307    39062.633 
  727700    301.34075     -1496.44    473.77524     325.5928    543.98286    39062.633 
  727800    303.96245   -1555.4781    449.19333    253.70273     479.1433    39062.633 
  727900    304.17567   -1525.7674    442.95103    278.12515   -128.21178    39062.633 
  728000    303.69794   -1506.3135    447.94035    300.43094    257.98085    39062.633 
  728100    294.21395   -1478.0759    436.55475    274.84968   0.55558783    39062.633 
  728200    293.87731   -1489.3762    477.36481    302.85328    61.054053    39062.633 
  728300    306.54663   -1473.9162    453.70156      351.335    74.847997    39062.633 
  728400    300.09032   -1466.5028    484.06722    360.22726   -154.69434    39062.633 
  728500    294.93996   -1496.6576    474.67627    297.63782   -323.87448    39062.633 
  728600    308.99792   -1455.2549      473.347    400.60928   -35.105636    39062.633 
  728700    296.99161   -1493.4453    459.83597    295.18927     433.4094    39062.633 
  728800    309.39147    -1516.313    450.13535    318.10043    -95.32064    39062.633 
  728900    297.72399   -1507.8268    450.59594    274.84456    214.40444    39062.633 
  729000    308.09776   -1488.6202    485.77547    375.64498   -128.59661    39062.633 
  729100    290.85302   -1494.0326     458.4301    265.73083   -413.93397    39062.633 
  729200    302.99744   -1492.3771    465.60042    328.89326   -187.80411    39062.633 
  729300    288.93237   -1462.4424    470.69929    300.99687   -457.49805    39062.633 
  729400    290.33925   -1500.0088    465.96435    264.99025    77.448634    39062.633 
  729500    312.54994   -1519.9694    466.35383    344.79409    560.41599    39062.633 
  729600    295.61795   -1479.7019    472.25948     315.2102    303.97964    39062.633 
  729700    304.69086   -1472.2296    483.37821    374.39519     125.4032    39062.633 
  729800    294.97235   -1380.6906    462.88709    401.96063    252.31202    39062.633 
  729900    307.13534   -1413.4308    488.90758    449.66049   -45.719483    39062.633 
  730000    296.83879   -1462.5448    485.08059    350.65071   -417.20316    39062.633 
  730100    310.93517   -1482.0816    435.31557    344.41888   -382.55434    39062.633 
  730200     305.5068   -1455.4524    492.46727    403.91213   -267.93441    39062.633 
  730300    290.84256   -1489.8378    450.20714     261.6559    174.80031    39062.633 
  730400    300.74934   -1477.4712    467.67506    335.81529    431.45045    39062.633 
  730500    300.51022   -1473.4378     464.1657    335.26952    86.643986    39062.633 
  730600    304.49892   -1479.8495    463.70134    346.23968   -92.690185    39062.633 
  730700    302.06993     -1509.99    453.00361    294.53366    210.26501    39062.633 
  730800    282.36988   -1534.9939    460.80986    189.19413    120.01258    39062.633 
  730900    306.75659   -1537.9909    445.19325    279.69137     41.41001    39062.633 
  731000    303.05829   -1508.6893    449.27046     296.5233    431.33157    39062.633 
  731100    301.64796   -1505.7161    484.14222    328.05818    586.83399    39062.633 
  731200    291.41027   -1489.8227    463.46749    277.47145    132.31844    39062.633 
  731300    308.49491   -1498.8622    487.06648    368.47093    249.95093    39062.633 
  731400    301.92592   -1480.6895    471.39287    341.57906    220.82027    39062.633 
  731500    293.40938   -1445.2669    465.25337    332.75748    118.46119    39062.633 
  731600    305.97867   -1509.3128    469.02313    328.71888    116.37661    39062.633 
  731700    290.87623   -1515.3128    456.95494     243.0794    280.42476    39062.633 
  731800    301.54797   -1535.2577    460.84892    274.77589     312.2354    39062.633 
  731900    298.16495   -1533.6997    489.53493    289.88365    138.37834    39062.633 
  732000    301.52281   -1529.7931    450.47703    269.75599   -126.92834    39062.633 
  732100     301.9205   -1504.9608    457.76544    303.65606   -363.37544    39062.633 
  732200    300.79615   -1538.2456    468.61891    276.19424   -471.97139    39062.633 
  732300    297.60048   -1483.1262    483.48269    331.87936   -82.423776    39062.633 
  732400    298.02162   -1482.1222    510.51837    361.80324    476.95034    39062.633 
  732500    296.01374   -1460.1351    486.25886    350.54716    518.70895    39062.633 
  732600    294.04017   -1474.3083    476.84799    318.13301     99.75485    39062.633 
  732700    297.82327    -1469.567    465.28051     328.2332   -580.43396    39062.633 
  732800    295.47395   -1502.3986    490.92734    310.53706   -224.48977    39062.633 
  732900    300.26684   -1513.8242    462.95312    292.58164   -122.92569    39062.633 
  733000     292.3862   -1520.6917    482.52683    270.02826    167.68466    39062.633 
  733100    298.91352   -1498.6011    484.04049    322.83704   -249.53823    39062.633 
  733200    295.49122   -1536.2811    444.17761    229.98214   -869.01485    39062.633 
  733300     293.9751   -1559.9921    438.17667    193.48677   -918.10331    39062.633 
  733400    299.85094   -1528.1099    486.77151     300.2534   -1252.8031    39062.633 
  733500    299.90257   -1520.1539    479.29808    300.96703   -1050.2783    39062.633 
  733600    298.19706   -1483.5651    445.58649    296.21338    -823.0398    39062.633 
  733700    290.80699   -1505.6744    458.91085    254.36389   -300.55268    39062.633 
  733800     291.5176   -1501.2823    479.94057    282.96511    172.49841    39062.633 
  733900    306.68485   -1487.1462    476.48556     361.5074    62.627964    39062.633 
  734000    299.62981   -1498.4974    507.73509     349.8402     185.3675    39062.633 
  734100    302.74343   -1523.0169    472.28653    303.80307    86.362788    39062.633 
  734200    295.86836   -1498.3567    473.54511    298.96136   -298.14618    39062.633 
  734300    295.03506   -1534.7918    443.55405    228.80685   -261.34017    39062.633 
  734400    293.05003   -1526.4224     456.8718     241.6126   -588.55153    39062.633 
  734500    313.21063   -1528.7813    476.75094    349.33533   -236.18606    39062.633 
  734600    310.10714   -1553.2591    462.16111    296.38214   -36.688591    39062.633 
  734700    304.94739   -1526.8605    447.33446    284.86836    50.169375    39062.633 
  734800    303.68405   -1536.3034     468.6735    291.11201   -597.49675    39062.633 
  734900    302.04971   -1526.4032    432.32535    257.35172    -767.6965    39062.633 
  735000    298.81726   -1521.7307    458.65926    273.89552     -462.394    39062.633 
  735100    298.02999   -1561.6706    459.10254    230.87644   -581.96091    39062.633 
  735200     297.9211   -1586.1729    459.70722    206.49172     -686.266    39062.633 
  735300    303.73832   -1568.8961    469.49988    259.58855    110.33575    39062.633 
  735400    299.99526   -1526.3165    434.31564    250.23668   -365.05398    39062.633 
  735500     306.4449   -1542.8426     493.0372    321.28917    63.129957    39062.633 
  735600    291.03411   -1472.4384     488.6187    318.32389    235.07931    39062.633 
  735700    296.57569   -1518.3257    452.73775    261.34977    459.13548    39062.633 
  735800    301.22992   -1539.0733    445.57817    254.26658    180.87748    39062.633 
  735900     291.8421    -1517.579    474.99862    263.17837   -46.901592    39062.633 
  736000    300.91106    -1556.023     465.1677    255.47971    391.78864    39062.633 
  736100    292.49721   -1528.8088    482.08897    261.96995    691.26963    39062.633 
  736200    286.24781   -1484.9886    485.04436    280.78448    52.454979    39062.633 
  736300    310.08072   -1498.8405    474.12927    362.65066    363.76589    39062.633 
  736400    291.68613   -1547.8445    461.77002    218.98642   -66.363412    39062.633 
  736500    305.83915   -1483.9972    456.10798    340.49507    396.89227    39062.633 
  736600    307.65831   -1448.5608    501.24591    429.20868    524.28445    39062.633 
  736700    297.68612   -1454.1071    463.70488    341.50378    505.34691    39062.633 
  736800    300.47051    -1521.589    463.34013    286.11501   -7.2261079    39062.633 
  736900    303.22984   -1500.3206    462.10947    318.49854    387.58833    39062.633 
  737000    291.63715   -1509.9867    454.32397    249.17901    277.54459    39062.633 
  737100    302.57999   -1497.5136    446.83789    303.12642   -82.179629    39062.633 
  737200    296.88285   -1494.5007    469.04688    302.85821    179.71596    39062.633 
  737300    294.17823   -1508.2794    482.71085     290.6425    294.51911    39062.633 
  737400    288.53905   -1447.3228    483.72923     327.3867    180.75485    39062.633 
  737500    295.59053   -1521.9692    459.79339    260.35411   -330.75854    39062.633 
  737600    296.00743   -1575.4593     434.8649    183.80085   -62.426394    39062.633 
  737700    302.99911   -1504.6391    479.90744    330.94571   -22.921077    39062.633 
  737800     304.7567   -1507.7726    447.55354    303.32207   -183.58211    39062.633 
  737900    301.20678   -1497.8482    461.64728    311.45717    -750.6577    39062.633 
  738000    303.41351   -1479.2349    463.38836    341.68497   -545.01904    39062.633 
  738100    296.44896   -1524.5355    454.02346    255.85867   -122.57972    39062.633 
  738200    303.58159   -1506.1729    470.94646    323.05708    138.83515    39062.633 
  738300     301.8135   -1482.3261     493.2583    361.30486    543.16533    39062.633 
  738400    287.16409   -1507.1179    460.28227    237.99276     285.4125    39062.633 
  738500    298.37096   -1480.5631    476.79869    331.20569   -7.6579794    39062.633 
  738600    300.50741   -1478.9846    455.94094    321.48538    179.39472    39062.633 
  738700    295.25673   -1528.6092    459.76401    252.19126    808.01782    39062.633 
  738800    306.45152   -1507.0489    468.12082    332.19604    688.46559    39062.633 
  738900    307.54392   -1501.0714    443.55548    318.49576    177.89113    39062.633 
  739000    296.36287   -1505.2457    456.20991    276.94977    517.93008    39062.633 
  739100    308.28488   -1502.6222     460.6485     337.3532    275.52895    39062.633 
  739200    296.54151   -1468.9673    479.21832    337.03579    148.29647    39062.633 
  739300    301.96325   -1528.3997    446.86071    269.50378    90.370799    39062.633 
  739400    301.58769   -1480.7832    457.74656    326.32576    110.09729    39062.633 
  739500     307.6332   -1523.5973    471.08946    323.90333    70.093403    39062.633 
  739600     296.7142    -1503.701    483.12127    306.97776   -78.850203    39062.633 
  739700    299.06989   -1471.0542    449.71486    316.75791    -234.5182    39062.633 
  739800    296.88392    -1418.518    482.36484    392.16362   -464.53088    39062.633 
  739900    301.02538   -1456.3172    454.00493    344.53429   -52.072151    39062.633 
  740000    309.73982   -1481.1592    495.17858    399.85596    596.09899    39062.633 
  740100    299.37662   -1525.9834     460.9685    274.45475    951.46465    39062.633 
  740200    304.39362   -1508.0189     470.1479     324.0457    327.40773    39062.633 
  740300    294.18869    -1473.403    450.76761    293.62248   -145.12512    39062.633 
  740400    310.28628   -1468.6765    447.52372    367.12885    14.172838    39062.633 
  740500    305.33222   -1501.1217    496.49247    361.48692   -63.227191    39062.633 
  740600    291.26561   -1473.1255    496.60961    326.66353     -314.489    39062.633 
  740700    295.91927   -1452.2451    467.68856    339.44421   -740.27267    39062.633 
  740800    301.51714   -1471.0077    455.77783     333.8169   -149.88894    39062.633 
  740900    298.90097   -1505.3982    429.96368    261.90696   -4.4091229    39062.633 
  741000    302.56241     -1491.84    489.54725    351.43074    408.37072    39062.633 
  741100    296.93873     -1479.57     473.4219    322.41395    394.74338    39062.633 
  741200    303.12655   -1473.3995    483.22299    366.07106    219.03723    39062.633 
  741300    320.24102   -1461.4505    463.21214    434.58268    527.49734    39062.633 
  741400    294.37944   -1474.4934    483.93444    326.55234    31.389242    39062.633 
  741500    304.36265   -1453.5222     468.5633    376.81916    69.900109    39062.633 
  741600    307.54613   -1479.2411    460.99648    357.77696    386.89304    39062.633 
  741700    297.56474   -1484.5403    470.72424    317.54683    159.28794    39062.633 
  741800    310.38004   -1493.1148    462.97977    358.56607    541.16711    39062.633 
  741900    292.64378   -1528.7266    453.96052    234.57956    905.40205    39062.633 
  742000    289.78146   -1493.0348    459.88358    263.38779    633.74268    39062.633 
  742100    291.37848   -1505.3015    469.94907    268.33198    -20.76461    39062.633 
  742200    302.54379   -1459.4128    476.91928    371.14671    263.68562    39062.633 
  742300    307.64256   -1480.1538    442.41041    338.70972    58.481071    39062.633 
  742400    307.00887   -1485.2668    465.14953    353.50058    60.230117    39062.633 
  742500    291.25586   -1464.4676    480.42785    319.09601   -182.57829    39062.633 
  742600    299.16413   -1455.1818    452.42757    335.76469   -317.64328    39062.633 
  742700    299.95653   -1434.4564    469.99494    377.60282   -73.769656    39062.633 
  742800    296.03785    -1415.923     471.2598    379.86814   -189.18241    39062.633 
  742900    306.36767   -1449.4148    497.75257    419.08673   -329.88979    39062.633 
  743000    302.48926   -1417.1245    463.32414    399.59584   -452.12638    39062.633 
  743100    299.25255   -1420.1484    480.43514    399.20128   -339.11343    39062.633 
  743200    294.97755    -1466.085    442.89619    296.59849   -825.95283    39062.633 
  743300    312.18981   -1443.3446    460.55922    414.01295   -360.90683    39062.633 
  743400     309.1297   -1424.3035    473.23431    432.03762    227.12985    39062.633 
  743500      296.055   -1411.5537    485.26002    398.31432   -177.72085    39062.633 
  743600    297.86859    -1458.934    471.64719     345.4356   -299.75698    39062.633 
  743700    292.02809   -1418.7697    485.72065    373.54186   -194.53057    39062.633 
  743800    302.96942   -1486.3782    474.71579    343.88212    44.755855    39062.633 
  743900    308.82888   -1465.8746    460.55857    376.44487   -43.503666    39062.633 
  744000    309.83106   -1478.8731    464.86143    372.23316    352.54479    39062.633 
  744100     298.3199   -1458.2321    493.47092    369.98047    275.18489    39062.633 
  744200    299.16104   -1520.1763    471.07153    289.40037     487.1456    39062.633 
  744300    300.72452   -1505.7314    464.14138    303.91036    586.96149    39062.633 
  744400    301.21111   -1469.3229     484.2301    362.58466    369.78986    39062.633 
  744500    295.94901    -1449.505    462.65784    337.28669    -107.1287    39062.633 
  744600    305.92844   -1425.7659    522.00234    465.02021    476.99038    39062.633 
  744700    297.85796   -1456.4733    462.18551    338.38705     56.49866    39062.633 
  744800    307.04686    -1466.412    489.82726     397.2031    270.64453    39062.633 
  744900    299.58041   -1471.7237    485.46264     354.1204    330.91879    39062.633 
  745000    298.02731   -1471.7235    465.46671    327.17576    630.56424    39062.633 
  745100    290.73519   -1488.3127    499.36105    311.85457    230.49198    39062.633 
  745200    301.66925   -1472.1923    470.95882    348.49387   -31.510052    39062.633 
  745300    296.33518   -1518.6173    458.28177    265.52608   -202.17588    39062.633 
  745400    304.10543   -1471.1693    474.50149    363.95948    -228.6488    39062.633 
  745500    299.30018   -1460.6458    477.74694    356.22879     -132.993    39062.633 
  745600    293.12118   -1468.1878    490.71418    334.00798   -153.43535    39062.633 
  745700    296.85536    -1496.007    448.87724    281.05929   -131.55341    39062.633 
  745800    303.37891    -1499.168    450.87849    309.08721    251.35244    39062.633 
  745900    300.08022   -1495.4779    476.84504    323.98485    365.10897    39062.633 
  746000     297.8464    -1485.675    479.56936    326.51744    118.58986    39062.633 
  746100    294.57727   -1445.9778    466.05178    338.07042   -287.54976    39062.633 
  746200    291.05011   -1461.3348    468.88514    309.76551    72.246798    39062.633 
  746300    301.56951   -1488.8648    450.46407    310.88036    64.821759    39062.633 
  746400    294.72461   -1488.3581    481.68927    311.98683    614.24956    39062.633 
  746500    307.50775   -1422.9892    468.46997    421.33069    391.29322    39062.633 
  746600    288.30638    -1482.767    489.22264    296.39484     46.11652    39062.633 
  746700    300.93544   -1468.6285    490.09297    367.90853    809.84249    39062.633 
  746800    297.70111   -1489.1539    465.02485    307.84398    99.653658    39062.633 
  746900    303.41223   -1455.3498    466.34432    368.52027   -463.10087    39062.633 
  747000    289.16285   -1459.3648    468.23112    302.63752   -317.44432    39062.633 
  747100    295.67214   -1455.1212    477.20936    344.98322    54.302492    39062.633 
  747200    316.66937   -1489.6791     470.3441    397.50578    460.28353    39062.633 
  747300    302.69313   -1462.2649    479.58022     371.6237    257.92661    39062.633 
  747400    300.97789   -1490.1681    480.32628    336.79229    267.04298    39062.633 
  747500    303.59301   -1494.1414    468.55424    332.74744   -248.45485    39062.633 
  747600    307.00061   -1472.8067    470.91097    371.68508   -104.57612    39062.633 
  747700    296.75457   -1425.2796    486.54996    389.00847   -94.323013    39062.633 
  747800    297.52607   -1436.4022    463.24692    358.03466   -63.909541    39062.633 
  747900    296.96621   -1469.1748    482.59115     342.1013   -333.08535    39062.633 
  748000    292.83732   -1476.2361    463.46494    297.44039    22.677295    39062.633 
  748100     298.2932   -1499.1591    471.80549    307.26861    241.52467    39062.633 
  748200    309.54347   -1485.2173    461.52646    361.26729    504.68501    39062.633 
  748300    293.62434   -1455.9468    461.08134    318.86739   -305.76155    39062.633 
  748400    306.78701   -1450.3833    469.24467    391.48659   -89.345913    39062.633 
  748500    299.39295   -1495.3355    474.39223    318.59944   -70.448892    39062.633 
  748600     305.9354   -1516.3437    501.37137    353.84253    -501.3522    39062.633 
  748700    307.38008   -1506.1091    469.22032    338.38989   -573.71507    39062.633 
  748800    295.64259   -1493.5091     470.0015    299.25526   -913.70972    39062.633 
  748900    311.35953   -1457.5063    466.54512    402.12229   -689.93634    39062.633 
  749000    299.96465   -1469.1693    486.81009    359.74137   -792.39305    39062.633 
  749100    293.62361   -1517.5117     485.5198    281.73763   -503.30244    39062.633 
  749200    286.66628   -1513.3035    468.66467    237.96222   -431.49537    39062.633 
  749300    303.83145   -1517.1975    459.12417    301.32804   -36.051188    39062.633 
  749400    295.25055   -1475.7384    449.65251    294.92293   -230.40774    39062.633 
  749500    307.50194   -1478.7995    485.72856    382.75293   -225.11079    39062.633 
  749600    307.53198   -1493.2314    454.11775    336.84472    128.98778    39062.633 
  749700    307.89068   -1520.6968    465.78369    322.65014    698.05364    39062.633 
  749800    303.60437   -1467.2882    483.21457    374.31182    169.11566    39062.633 
  749900    301.90719   -1464.2566    477.16792    363.70321   -639.29515    39062.633 
  750000    302.29252   -1456.3433    466.13576    362.30837   -469.68201    39062.633 
  750100    296.39633   -1533.5841    468.23937    260.79049    65.298376    39062.633 
  750200    296.93626   -1519.9891    466.07569    274.63757    203.20915    39062.633 
  750300    305.69042   -1514.5803    477.62805    330.76657    207.48096    39062.633 
  750400    297.51533   -1521.2383    452.68328    262.58679   -639.06328    39062.633 
  750500    299.69458   -1542.3109    476.01209    274.59348   -367.34492    39062.633 
  750600    300.82962   -1563.9309    472.53063    254.57044    -609.7173    39062.633 
  750700    297.49077   -1523.6477    464.87851    272.26281   -473.70702    39062.633 
  750800    292.89145   -1491.2058    473.87819    293.12611    -370.0715    39062.633 
  750900    303.60669    -1520.989    469.00108    306.40789   -471.13508    39062.633 
  751000    306.03774   -1518.0379    453.51933    304.75421   -512.24488    39062.633 
  751100    307.42443   -1504.3002    477.42787    348.60481    67.553955    39062.633 
  751200     298.8112   -1488.3809    464.49834    313.05724   -37.331773    39062.633 
  751300    302.90116   -1497.1569    495.62235     353.7046    232.23255    39062.633 
  751400    295.84399   -1495.4401     483.6078     311.8317    425.52506    39062.633 
  751500    310.72557   -1484.9635    490.16569    395.44924    698.12838    39062.633 
  751600    292.29101   -1482.1576    484.35665    309.96629   -160.38922    39062.633 
  751700    291.30208   -1446.0782    454.18656    311.45092    523.10169    39062.633 
  751800    301.00126   -1481.2104    474.90358    340.43178    91.943868    39062.633 
  751900     294.8503   -1500.6541    462.00714    280.57102    -208.3771    39062.633 
  752000    287.97454   -1488.8709    479.91251    279.49607    386.08025    39062.633 
  752100    294.52815   -1488.2673    499.52109    329.03041     338.0225    39062.633 
  752200    291.02352    -1478.284    507.50841    331.32067    302.84503    39062.633 
  752300     307.6726    -1486.245    465.50836    355.85088    433.13247    39062.633 
  752400    294.54395   -1474.6436    473.58427    316.78795    197.00816    39062.633 
  752500    294.96586   -1481.7289    492.18609    330.19219    182.75749    39062.633 
  752600    295.34945   -1449.8666    488.44735    360.03201    397.27714    39062.633 
  752700    298.10942   -1521.6873    468.92701    281.03966    131.41927    39062.633 
  752800     292.1276   -1490.0424    488.36845    305.36217    102.25593    39062.633 
  752900    291.23292     -1519.46     490.1784    273.75151   -97.742063    39062.633 
  753000    301.12891   -1442.8678    513.21529    417.65725   -122.58493    39062.633 
  753100    291.29947   -1471.2245    483.74952    315.85589    -556.9878    39062.633 
  753200    308.98975   -1432.6845    471.05504    420.85118   -70.953965    39062.633 
  753300    306.54614   -1447.8045    481.16366    404.90659   -4.4799154    39062.633 
  753400    314.19966   -1503.4528    477.35089    379.68894   -149.73807    39062.633 
  753500    307.12949   -1526.3883    468.10823    315.87739   -101.29419    39062.633 
  753600    298.26023   -1533.4865    485.89283    286.88097   -93.659422    39062.633 
  753700     311.6611   -1540.0395    462.47863    316.87197   -482.31563    39062.633 
  753800    296.74836   -1502.0303     472.2659     297.9459   -744.87867    39062.633 
  753900    296.04025   -1483.7626    479.20264    319.98207   -799.04015    39062.633 
  754000    309.25168   -1530.7509    429.57142    282.47313    372.91988    39062.633 
  754100    314.14536   -1450.5036    462.76119    417.80551    645.48294    39062.633 
  754200    310.47455   -1490.3805    490.59773    389.34113    263.67091    39062.633 
  754300    305.72668    -1547.961    486.85879    306.77887    8.4008707    39062.633 
  754400    300.56622   -1486.5988    490.95482    349.14815    182.38978    39062.633 
  754500    301.16992   -1531.2639    461.06832     277.2976    217.45886    39062.633 
  754600    303.66527   -1532.8182    478.98925    304.82896    283.93452    39062.633 
  754700    305.25687   -1489.4378    466.27679    342.61799    196.02258    39062.633 
  754800    285.25086   -1521.5442    479.35696    234.08097   -142.58232    39062.633 
  754900    301.01004    -1511.286     476.3916    311.88352    162.45867    39062.633 
  755000    292.10216   -1494.5065    453.63564    266.05144    -67.68841    39062.633 
  755100    297.78174   -1571.6733    482.02904    242.68958    219.64451    39062.633 
  755200    298.29576    -1549.992    461.28102    245.92267    212.54941    39062.633 
  755300    295.76468   -1521.1108     459.2989    261.49723    78.874182    39062.633 
  755400    288.39807   -1478.0276    481.12537    293.44727    213.19979    39062.633 
  755500    299.21425   -1477.0167    498.36732    360.09378    157.84959    39062.633 
  755600    296.23399   -1514.5397    466.31556    277.18473    540.14341    39062.633 
  755700    290.94128   -1470.0812    464.85513    296.50218    373.21692    39062.633 
  755800    291.81474   -1491.1823    477.36991    291.82394    411.06461    39062.633 
  755900    304.57415   -1494.4563    458.71577     326.9839   -278.12653    39062.633 
  756000    303.87846   -1490.1843    491.32471    360.75215   -250.46383    39062.633 
  756100     301.4475   -1504.6027    466.36959    310.50208   -448.63699    39062.633 
  756200     307.5231   -1504.0657    477.22581    349.07866   -205.75143    39062.633 
  756300    300.93446   -1491.5651     501.0254    355.90006   -140.84412    39062.633 
  756400    303.02215   -1481.0084     443.1803    317.95239   -340.17143    39062.633 
  756500    309.57682   -1501.2971    488.18841    371.99868   -248.57632    39062.633 
  756600    302.06978    -1487.476    483.97599     348.0193   -354.45445    39062.633 
  756700    307.40064    -1497.791    453.16534    330.74502   -709.53155    39062.633 
  756800     298.9938   -1480.3956    500.46583    357.82711   -17.500943    39062.633 
  756900      300.983   -1518.5045    449.82355    277.97597    484.76413    39062.633 
  757000    300.81524   -1527.3354    469.81816    288.38906    118.80047    39062.633 
  757100    307.29662   -1520.2288    474.67437    329.35084    364.49603    39062.633 
  757200    292.23803   -1543.5763    445.89272    209.84657   -213.11011    39062.633 
  757300    299.05468   -1520.3225    461.93807    279.64475    29.812713    39062.633 
  757400    293.54106   -1509.3243    464.76892    268.80479   -40.215521    39062.633 
  757500    297.34607    -1529.535    474.82091    275.67043    43.037699    39062.633 
  757600    298.94894   -1511.6818    463.81023     289.6845    65.552335    39062.633 
  757700    300.91695   -1498.7836    500.47569    348.05347     17.81416    39062.633 
  757800    312.42643   -1510.2457    455.58363    343.19498   -58.625716    39062.633 
  757900    297.41963   -1534.8079    448.20863    244.11441    326.72327    39062.633 
  758000    296.82032   -1548.5168    485.54298     265.0584   -261.11306    39062.633 
  758100    289.94546   -1555.1112    458.55385    200.71548   -206.33251    39062.633 
  758200    294.17301   -1537.6876    475.99358    254.49365     53.74681    39062.633 
  758300    296.95028   -1506.0881    474.99448    297.52016   -499.14437    39062.633 
  758400    306.54293   -1526.7674    468.43229    313.19805   -407.78213    39062.633 
  758500    296.14154   -1503.7246    453.51958    274.79024   -377.87038    39062.633 
  758600    299.22645   -1516.5379    484.62021    306.88008   -55.655708    39062.633 
  758700    296.09588   -1494.0685    463.18184    293.90434   -22.527033    39062.633 
  758800     302.3479   -1518.8368    499.61061    333.53755   -159.23275    39062.633 
  758900    294.89688   -1505.8174     471.5099    285.11889    207.42936    39062.633 
  759000    294.16342   -1493.4491    454.25729    276.95293   -207.21639    39062.633 
  759100    301.16814   -1495.6884     516.5397    368.33656    255.51616    39062.633 
  759200     297.0947   -1497.1219    449.43187    281.56981     233.0161    39062.633 
  759300    304.97201   -1498.6217    500.32711    366.20991   -158.81705    39062.633 
  759400     288.5867   -1494.0237    446.85593    244.02571   -482.33785    39062.633 
  759500    304.80446   -1507.5421    466.71191    322.92469   -488.29126    39062.633 
  759600    299.63112   -1491.2054    489.92488     339.3278   -327.79854    39062.633 
  759700    291.04362   -1510.0553     460.4388    252.56963   -387.47053    39062.633 
  759800    300.47668   -1499.3879     477.7928    322.79647   -3.6094852    39062.633 
  759900    296.44045   -1513.8322       465.18    277.68049    140.10866    39062.633 
  760000    292.29926   -1530.4761    482.63833    259.96639    122.93816    39062.633 
  760100    301.83186   -1517.3293    490.96588    324.09148    436.65992    39062.633 
  760200    297.35835   -1529.2711     475.1513    276.31969    437.64043    39062.633 
  760300    304.51494   -1514.0078    462.34749    310.79916    374.77291    39062.633 
  760400    299.54202   -1481.4902    486.57498    345.29444    187.85329    39062.633 
  760500    299.84668   -1488.3588    483.40773     336.6217   -200.17291    39062.633 
  760600    302.71943   -1516.8311    475.85063     313.4455     200.0948    39062.633 
  760700    296.34263   -1494.7554    479.77209    310.91171    355.07491    39062.633 
  760800    293.72551   -1499.2181    464.21949    279.18684    171.49244    39062.633 
  760900    300.87095   -1498.9121    464.35687    311.60032    313.77978    39062.633 
  761000    300.40813   -1476.9089    469.59477    336.77069    -72.22856    39062.633 
  761100    290.21097   -1508.9484    456.25805    245.77037    96.571383    39062.633 
  761200    301.54339   -1467.0318    459.03951    341.17194    282.25021    39062.633 
  761300    304.02409   -1473.8328    474.20156     360.6321     148.5138    39062.633 
  761400    300.26476   -1490.8763    465.51604    318.08311   -359.85523    39062.633 
  761500    296.91165    -1513.685    462.43162    277.18753    -925.9012    39062.633 
  761600    299.71034   -1503.7221    489.59417    326.83481   -430.40904    39062.633 
  761700    302.83188   -1503.4278    455.09472     306.5961   -72.414231    39062.633 
  761800    295.28082   -1470.7693    471.45127    321.82619   -715.06615    39062.633 
  761900    293.09785   -1509.3648    447.10743    249.11981   -402.92273    39062.633 
  762000     287.1962   -1508.9886    494.05326    270.03672   -673.17154    39062.633 
  762100    311.66556   -1488.1678    461.60922    367.89424   -461.10913    39062.633 
  762200    297.44756   -1521.2671    474.10875    283.68036   -15.306522    39062.633 
  762300    300.14002   -1546.7706    482.34658    278.46124    160.64481    39062.633 
  762400    294.12729   -1543.9883    448.79894    220.79378   -369.25911    39062.633 
  762500    310.86269   -1516.4982    473.42922    347.79157     -110.767    39062.633 
  762600    295.24638   -1500.2282    480.21608    300.97807    279.09066    39062.633 
  762700    296.27759    -1510.764     472.3646    287.20458   -374.69964    39062.633 
  762800    302.45108    -1506.516    479.68595    326.39528   -69.978008    39062.633 
  762900    306.55985   -1521.2985    469.76391    320.07421   -183.62509    39062.633 
  763000    291.93884   -1528.0107    471.79412    249.97498    378.98438    39062.633 
  763100    300.38745   -1531.7766    470.71436    282.93004       626.37    39062.633 
  763200    304.82566   -1530.9385    467.17444    300.08564    794.51738    39062.633 
  763300    295.66787   -1530.2595    491.62104    284.23745     484.8026    39062.633 
  763400    304.68045   -1513.1224    464.08492    314.16252    343.75066    39062.633 
  763500    306.14651   -1512.3516    480.89228    338.30014     532.5621    39062.633 
  763600    293.87563   -1493.4374    457.87185    279.29154   -179.27483    39062.633 
  763700    296.39323     -1536.39    461.65517    251.38653    241.66701    39062.633 
  763800    290.86083    -1555.177    462.07141    208.26269    432.79551    39062.633 
  763900    301.82347   -1540.1426    457.40458    267.67928   -107.67945    39062.633 
  764000    304.97797   -1564.8365    469.87004    269.56473   -33.411559    39062.633 
  764100    293.88186    -1536.287    457.84873    236.44674   -9.5327147    39062.633 
  764200    300.61437   -1499.0769    456.03219    301.96291    28.603944    39062.633 
  764300    292.51285   -1516.7338    475.37172    267.39771    400.31691    39062.633 
  764400    284.98237   -1530.9724    462.47007    206.56456    311.78348    39062.633 
  764500    307.25436   -1511.1431    498.65289    362.22592    971.61003    39062.633 
  764600    287.83931   -1515.7734    466.33801    238.41406    824.10818    39062.633 
  764700    296.31032   -1560.1439    449.97607    215.58255    654.00388    39062.633 
  764800    291.15196   -1530.9889    484.33275    256.01477    310.16648    39062.633 
  764900    299.70071   -1528.4364    450.57314    263.05641    399.54149    39062.633 
  765000    306.64521   -1520.3755    479.00567    330.62094    598.05348    39062.633 
  765100    304.20449   -1502.0865    475.15885    334.14288    220.34209    39062.633 
  765200    306.88611   -1498.0176    464.77849     339.8295    529.26773    39062.633 
  765300    295.64253    -1446.722    518.35865    394.39924   -170.31606    39062.633 
  765400    301.06361   -1475.0156    447.19764    319.19961    -77.48443    39062.633 
  765500    289.42544   -1470.2058      499.296    324.03631   -169.70736    39062.633 
  765600    299.81485   -1442.8273    461.90375    360.50682   -361.96566    39062.633 
  765700    292.21111   -1483.6559    441.13164    264.88552    -89.40835    39062.633 
  765800    303.34765    -1492.056    488.31478    353.49554    362.68709    39062.633 
  765900    305.58974   -1497.2035    472.57572     342.6406    195.72004    39062.633 
  766000    304.29569   -1508.0887    462.61631    316.00612    459.03658    39062.633 
  766100    310.02487   -1482.1044    448.73885    353.74647    585.00096    39062.633 
  766200    304.76124   -1512.4674    467.88576     318.9799    447.21599    39062.633 
  766300    298.94302   -1508.2349    456.88762    286.18232    349.18773    39062.633 
  766400      297.394   -1529.5434    443.75396    244.80961    402.19955    39062.633 
  766500     302.0551   -1473.2836    477.20693    355.37707    221.96035    39062.633 
  766600    298.29988   -1492.8353    448.20118    290.01796    118.05001    39062.633 
  766700    300.90745   -1501.0587     473.5887    318.84889   -362.16721    39062.633 
  766800    310.54841   -1497.7023    473.26021    365.01234    23.851777    39062.633 
  766900    301.20511   -1519.7236    464.56446    292.49151    116.54306    39062.633 
  767000    300.26644   -1486.0014     461.1064    318.55583   -183.74684    39062.633 
  767100    305.67023   -1470.2299    468.79256    366.19116   -280.33555    39062.633 
  767200     301.0434   -1516.1148    465.63746    296.44976    187.89532    39062.633 
  767300    305.10373   -1484.7685    469.15498     349.4803   -279.31598    39062.633 
  767400    308.97715   -1506.5717    465.88876    341.74137   -379.36726    39062.633 
  767500    302.18811   -1509.9721    437.14691    279.22367   -749.52894    39062.633 
  767600    291.42931   -1491.5569    468.82344    281.17833   -709.80741    39062.633 
  767700    304.14527   -1503.3447     447.5119     304.9727    -292.3245    39062.633 
  767800    299.15387   -1516.3135     455.0792    277.23875    44.778251    39062.633 
  767900    301.47568   -1540.4972    456.91382    265.27788   -295.68851    39062.633 
  768000    297.81172   -1523.3681    477.99769    287.09752   -94.333612    39062.633 
  768100    300.88277   -1524.5794     468.0096    289.63864   -27.272428    39062.633 
  768200    301.71797   -1488.6895    467.25174    328.50756    25.156447    39062.633 
  768300    296.27112   -1509.4899    457.97744    274.06259   -222.07307    39062.633 
  768400    303.41733    -1480.315    455.96299    333.19657   -134.46647    39062.633 
  768500    306.13253   -1542.4559    472.30893    299.54996    40.076104    39062.633 
  768600    297.73325   -1519.5039    474.56242    287.17538    316.34276    39062.633 
  768700    296.24451    -1565.385    458.69257    218.76356     315.0299    39062.633 
  768800    295.46798   -1478.9954    491.37578    334.36203   -19.123616    39062.633 
  768900    301.62105   -1467.9624    453.62218    335.17147    -138.4814    39062.633 
  769000    305.95809   -1500.8021      471.052    339.16637   -330.34624    39062.633 
  769100    296.56385   -1470.0643    456.08596    312.90638   -377.17105    39062.633 
  769200    306.95748   -1491.0191    499.15171    381.52053   -174.31141    39062.633 
  769300    301.22489   -1509.1216    422.39258    261.01012    170.04963    39062.633 
  769400    305.18859   -1523.1623     453.8227    296.13394    357.61767    39062.633 
  769500    301.68082   -1502.1392     482.2611    329.90094    882.53201    39062.633 
  769600    298.78955   -1476.6705    477.57643    337.74888    548.66771    39062.633 
  769700     308.1691   -1483.2609    476.77664    372.32464   -43.657702    39062.633 
  769800    288.29323   -1459.7812    461.03726    291.13648   -239.14474    39062.633 
  769900     288.8237   -1499.2318    483.73405      276.756    -386.7646    39062.633 
  770000    302.04368   -1468.0132    487.07362    370.46299   -426.75085    39062.633 
  770100     287.3138   -1485.5891    477.51975    277.42889   -121.69813    39062.633 
  770200    305.84813    -1481.837    454.83709    341.42448   -323.55409    39062.633 
  770300    305.22522   -1490.0784    459.22009    334.77906    338.65508    39062.633 
  770400    305.06424   -1479.0322    458.55219    344.43717    84.068123    39062.633 
  770500    291.92492    -1440.063    484.71287    350.77916   -153.80813    39062.633 
  770600    292.97391   -1443.2422    481.92976    349.51027   -255.01298    39062.633 
  770700    304.18078    -1399.083    460.85861    422.73998   -494.61774    39062.633 
  770800    313.00968   -1387.9885    483.03741    495.51556   -557.27803    39062.633 
  770900    313.96733   -1401.7082    458.87125    461.91442    -225.1232    39062.633 
  771000    296.53978   -1465.4062    478.25479    339.62559   -708.51945    39062.633 
  771100     298.9582   -1469.1284    460.33684    328.80595    119.37662    39062.633 
  771200    291.79583   -1474.3381    442.66555    273.87912   -15.152403    39062.633 
  771300    299.83753   -1426.7406     469.2284    384.01959   -79.648664    39062.633 
  771400      311.181   -1413.0468     487.7868    467.02472    867.57508    39062.633 
  771500    292.42619    -1429.977    473.90196    352.29706   -57.743994    39062.633 
  771600    305.28702   -1459.9551    465.69674    371.65554    227.76115    39062.633 
  771700    303.55262   -1437.7406    465.45515    385.86842     814.6453    39062.633 
  771800    307.74256   -1469.5256    460.32761    367.70252    314.60314    39062.633 
  771900    307.59215   -1475.6366    453.83694    354.42788    -331.7333    39062.633 
  772000    301.72903   -1456.4339    468.21288    361.77372   -861.17282    39062.633 
  772100    288.17256   -1484.9229    448.01601    252.43355   -524.53655    39062.633 
  772200    294.23883   -1498.6695    442.51516    260.32786   -556.21246    39062.633 
  772300    297.42356   -1500.7545    475.25724    305.23404   -603.91917    39062.633 
  772400    291.66439   -1509.9921    472.77655    267.74805    -735.3948    39062.633 
  772500    303.36826   -1471.0164    472.30106    358.61371    23.481964    39062.633 
  772600    288.63198   -1516.1054    459.93704    235.22766   -421.78501    39062.633 
  772700    305.20237    -1441.366     484.1425    408.31166     359.3168    39062.633 
  772800    297.48244    -1489.382    460.78988    302.40259   -408.42757    39062.633 
  772900    305.60651   -1458.8119    466.11235    374.64379    117.29261    39062.633 
  773000    307.24724   -1461.2669    443.35412    356.77154    516.96042    39062.633 
  773100    303.61044   -1499.0089    474.67819     334.0818   -143.63574    39062.633 
  773200    304.79964   -1471.0644    450.83423     343.5031   -105.41053    39062.633 
  773300    305.23699   -1444.8494    468.68138    389.52203   -113.86933    39062.633 
  773400    307.24436   -1417.7394    475.52092    432.45291   -373.42969    39062.633 
  773500      299.654   -1465.2025    454.14629    329.65447   -642.02408    39062.633 
  773600    291.11921   -1475.9649     469.3451    295.90462    -179.6288    39062.633 
  773700    298.05636   -1490.5489    457.21959    300.23321   -288.32975    39062.633 
  773800    296.99626   -1490.8718    466.37189    304.31957   -763.13006    39062.633 
  773900    291.75627   -1467.9461    467.94704    305.37567   -193.60326    39062.633 
  774000    300.52039   -1455.7295     446.4203    335.27789   -300.76372    39062.633 
  774100    300.36578   -1448.7623    474.80097    369.93398   -31.581638    39062.633 
  774200    300.06792   -1443.5306    469.64592    368.67793    589.44313    39062.633 
  774300    308.80101   -1458.6983    463.03297    385.97085    -181.7876    39062.633 
  774400    298.18997   -1449.1094    449.49906    334.55001    139.32245    39062.633 
  774500    298.23943   -1478.1887    472.32559    328.51854    -5.675519    39062.633 
  774600    302.93127   -1476.2852    463.45007    342.53875    127.44402    39062.633 
  774700    297.04837   -1457.2584    459.93531    331.72953    362.85418    39062.633 
  774800    304.95093   -1499.5972    499.08513    363.89815    36.354243    39062.633 
  774900    287.07698   -1460.6354    450.38874    274.19199   -442.10971    39062.633 
  775000    300.12868   -1447.5592    453.63103    348.90634   -202.08797    39062.633 
  775100    297.60147   -1436.7562    477.79744    372.56849   -301.77223    39062.633 
  775200    315.76717   -1462.7592     480.9087    430.95368   -104.35377    39062.633 
  775300    304.56465   -1466.5967    458.87456    354.95977   -200.16281    39062.633 
  775400    305.38758   -1453.7107     470.0266    382.67976   -612.76582    39062.633 
  775500    297.86143   -1461.8774    473.51121    344.32417   -408.95036    39062.633 
  775600    306.80945   -1466.6448    470.04843    376.12922   -338.53287    39062.633 
  775700    308.95775   -1420.8699    465.36774     426.8353    161.52817    39062.633 
  775800    303.49352   -1470.0983    469.34283    357.13404     665.6447    39062.633 
  775900    305.29557   -1475.0225    479.29046    370.22018    414.26074    39062.633 
  776000    291.64026   -1485.9144    443.62421    262.56545    137.93011    39062.633 
  776100     286.8655   -1454.2384    478.42045    307.67449    522.13411    39062.633 
  776200    310.50465   -1447.6132    478.79449    420.43987   -86.039279    39062.633 
  776300    297.24203   -1480.4345     474.3138    323.79835   -145.98185    39062.633 
  776400    300.29705   -1462.0422    469.92539    351.47101   -374.21084    39062.633 
  776500    299.08888   -1483.5365    460.42004    315.06584    -433.1607    39062.633 
  776600    299.01159   -1463.5274    462.76206     337.0711   -594.94721    39062.633 
  776700    315.47936   -1477.6846    469.18109    403.01293    -549.2414    39062.633 
  776800    285.74424   -1510.6655    461.64035    229.45056   -248.31059    39062.633 
  776900    292.63053   -1554.1149    456.45534    211.62675   -444.07263    39062.633 
  777000    296.73597    -1523.986    458.09678    261.76569   -118.80455    39062.633 
  777100     309.6132   -1518.2168    445.56442    312.61776    261.12648    39062.633 
  777200    305.66535   -1534.2244    459.04342    292.42568   -12.909818    39062.633 
  777300    291.23212   -1520.9805    460.56441    242.61343   -99.526603    39062.633 
  777400    311.54257   -1510.4889    466.89701     350.3106    38.230941    39062.633 
  777500    299.21316   -1504.5498    481.59706    315.78554   -93.548426    39062.633 
  777600    300.31407    -1509.904    451.21386    284.97384   -714.37546    39062.633 
  777700      299.952   -1458.5919    482.37682    365.82898   -265.46405    39062.633 
  777800    290.21473   -1518.3701    475.71669    255.82413    915.83315    39062.633 
  777900    308.59995   -1473.5995    461.72665    368.86379    997.02379    39062.633 
  778000     294.6553   -1483.4949    470.09326    304.94389    357.89366    39062.633 
  778100    289.31746   -1498.9941    457.20759    252.67642     230.0896    39062.633 
  778200    294.04645   -1488.3203    473.02733    300.32847   -52.403658    39062.633 
  778300    295.93258   -1542.7044    471.32593    252.68183   -177.05416    39062.633 
  778400    311.25685     -1487.23    464.91656    370.31063    430.35401    39062.633 
  778500    302.78331   -1463.3886    479.43764     370.7609    57.687967    39062.633 
  778600    304.67271   -1489.5868     486.5933    360.17189   -388.54105    39062.633 
  778700    293.36716   -1502.8104    475.67497    285.44668   -280.08303    39062.633 
  778800    302.08541   -1502.7289    499.69076    348.55114    114.16389    39062.633 
  778900    302.81311   -1502.3144    468.48283    321.01363   -533.07764    39062.633 
  779000    300.50698   -1488.6416    478.81202     334.6975   -436.38068    39062.633 
  779100    295.14919   -1535.1432    474.36637    259.77842    -841.3857    39062.633 
  779200    292.02033    -1517.882      465.871    254.54518   -415.44312    39062.633 
  779300    304.15608   -1541.5025    437.40367    256.75511   -119.52335    39062.633 
  779400    305.06464   -1479.3612    498.10218     383.6599   -411.51392    39062.633 
  779500    295.57065   -1509.6822    451.82025    264.57907   -265.89854    39062.633 
  779600    295.18931   -1532.6892    471.50422    259.54987    297.32855    39062.633 
  779700    310.57553   -1513.6637    456.27015    332.18219   -473.18392    39062.633 
  779800    299.91069   -1441.0403    499.27119    400.09002   -595.75714    39062.633 
  779900    302.18156   -1445.4673    473.55768     380.1099   -1026.8943    39062.633 
  780000    293.58184   -1495.5181    459.56113    277.58571   -765.49446    39062.633 
  780100    309.51355    -1459.952    476.49292    401.36523   -712.48112    39062.633 
  780200    298.07394   -1508.3537    521.59888    346.88637   -256.32449    39062.633 
  780300    286.50033   -1501.5182    469.43699    249.77736    96.060512    39062.633 
  780400    297.17146   -1515.5014    484.85913    298.96106    142.07974    39062.633 
  780500    310.71106   -1500.6665     487.1914    376.70709    110.17343    39062.633 
  780600    298.17608   -1457.6218    466.17423    342.65056   -44.212729    39062.633 
  780700    294.66552   -1490.2347     492.2919    320.44842    -472.3573    39062.633 
  780800    285.42889   -1457.6405    467.44462    286.86893   -468.56203    39062.633 
  780900      300.329   -1451.2427     496.6857    389.17379   -199.79535    39062.633 
  781000    290.61591   -1459.4644    483.30451    324.11259   -464.42917    39062.633 
  781100     297.8621   -1502.2827    473.57774    303.98843    137.42911    39062.633 
  781200    292.28979   -1514.3125    489.53566    282.98492    293.87124    39062.633 
  781300    298.62093   -1488.6778    509.30524    356.71598    558.23576    39062.633 
  781400    298.57201   -1504.1923    457.34358    289.02091     478.7801    39062.633 
  781500    294.19636   -1476.2796    480.17123     320.1838    313.81254    39062.633 
  781600    302.49612   -1509.8104    466.57247    310.18897    397.72321    39062.633 
  781700    306.80081   -1509.4648    454.21542    317.43748    99.424063    39062.633 
  781800    303.15607   -1526.1821    468.52156    298.71913    -391.1421    39062.633 
  781900    303.84318    -1475.817    492.46995    376.10685   -299.61296    39062.633 
  782000    306.80923   -1449.7169     498.1272    421.13487   -490.88922    39062.633 
  782100    296.89586    -1462.588    437.88294    303.66511   -349.87962    39062.633 
  782200    302.14201   -1485.8876    488.44422    354.39912   -568.62315    39062.633 
  782300    300.28108   -1494.8892    464.40482    313.03195   -31.429137    39062.633 
  782400    310.05519   -1473.6513     466.1702    379.76653    339.51486    39062.633 
  782500    307.27339   -1454.6942    471.57125    391.67834    150.57794    39062.633 
  782600    308.56224   -1494.0569    484.85439    371.36538    278.77783    39062.633 
  782700    295.17915   -1473.4279    476.63472    323.89616    664.61084    39062.633 
  782800    308.86911   -1530.3845    467.66535    319.22174    981.42162    39062.633 
  782900    292.00777   -1488.1095    481.01694    299.40745    487.82669    39062.633 
  783000    296.10274   -1520.2035    460.84939    265.46756   -282.94264    39062.633 
  783100    310.24759   -1510.8999    478.89182    356.10042    74.055272    39062.633 
  783200    294.63005   -1456.8901    482.63822    343.98068   -272.89409    39062.633 
  783300    299.96632   -1548.4411    451.29911    244.96603   -167.68304    39062.633 
  783400    296.48986   -1529.1636    470.61511    268.00526     22.28042    39062.633 
  783500    303.96207   -1537.6606     457.1852    279.51043   -101.79676    39062.633 
  783600    298.36756   -1484.7189    465.14041     315.3764   -324.87073    39062.633 
  783700    306.31297   -1488.6809    465.58382    347.40721   -54.243303    39062.633 
  783800    291.54995    -1477.497    503.28721     330.2418   -351.01011    39062.633 
  783900    294.30117   -1523.2738     477.5424    271.02973   -344.68135    39062.633 
  784000    294.20633    -1478.424    488.09247    326.00519   -413.29198    39062.633 
  784100    303.68679   -1507.8791    464.66235    315.53746    27.354454    39062.633 
  784200    297.24451    -1546.507    468.73948    252.16265    164.13121    39062.633 
  784300    292.13062   -1497.4064    477.40244    287.04566   -81.470076    39062.633 
  784400    302.40169   -1542.1004    455.47854    266.38256    201.60868    39062.633 
  784500    297.31467   -1511.6213    480.46759    299.09038    34.936504    39062.633 
  784600    303.30358   -1525.5995    457.63203    289.07215    330.57624    39062.633 
  784700    308.63173    -1534.769    444.95235    291.06221     557.9183    39062.633 
  784800    299.16206   -1487.0813    484.15173    335.58009    92.851409    39062.633 
  784900    295.62642    -1502.038    469.11714    289.76967   -530.96101    39062.633 
  785000    306.92704    -1497.291    462.32508    338.28581   -274.36189    39062.633 
  785100     300.9411   -1501.8523    456.09861    300.71577   -277.14417    39062.633 
  785200    300.86677   -1474.8155    489.95542    361.27673   -586.03375    39062.633 
  785300    291.74638   -1509.8415     466.8112    262.30019   -807.67626    39062.633 
  785400     297.0314   -1528.5519    454.03151    254.45632   -795.21135    39062.633 
  785500    305.15897   -1544.1148    467.16695    288.39319   -500.82203    39062.633 
  785600    301.15735   -1509.7491    440.68241    278.37033   -187.95309    39062.633 
  785700    303.85993   -1520.9911    476.10961    314.64735    34.956148    39062.633 
  785800    288.03137   -1537.6884    470.83746    221.85788    -342.0892    39062.633 
  785900    296.22131   -1555.6988    462.29528     231.9487    367.43121    39062.633 
  786000    294.30981   -1538.9681    479.76402    257.59568    171.80897    39062.633 
  786100    294.85193   -1560.3915     454.3286    213.16239    542.26825    39062.633 
  786200    301.04917   -1549.2636    467.91136    265.60067     454.7751    39062.633 
  786300    291.70717   -1515.2674    467.19575    257.08341    139.62866    39062.633 
  786400    294.64065   -1504.5114    473.20876    286.97738    223.70631    39062.633 
  786500    301.40886   -1507.4759    476.25422    317.34056     102.4181    39062.633 
  786600    297.45027   -1504.1638    491.29152    317.97844   -23.607251    39062.633 
  786700    301.33064   -1453.6312    471.54594    366.12701   -155.65627    39062.633 
  786800    300.51984   -1425.8392    470.91855    389.66394   -26.523372    39062.633 
  786900    297.43899   -1479.1135    487.42192    339.10868    117.30245    39062.633 
  787000    293.78052   -1516.9909    466.47875    263.91939    478.12866    39062.633 
  787100    309.56882    -1497.686    476.85465    364.24019    293.02525    39062.633 
  787200    305.70405   -1489.3329    454.30969     332.7566   -410.74466    39062.633 
  787300    299.83418   -1471.3845     507.7775    377.90989   -203.50833    39062.633 
  787400    297.97442   -1502.5081    456.08743    286.77529    155.49588    39062.633 
  787500    304.60657   -1483.5669    481.16015     360.4627   -90.459721    39062.633 
  787600    300.76242   -1509.8812     481.2364    317.02513   -112.30779    39062.633 
  787700    298.94124   -1482.8821    491.68927    346.32882    262.96803    39062.633 
  787800    305.14086   -1484.2723    442.61136      323.599    460.42104    39062.633 
  787900    305.74665   -1507.5804    468.52695    328.91695    63.874136    39062.633 
  788000    294.23791   -1529.7392    479.04367    265.78251   0.42745441    39062.633 
  788100    300.68745   -1499.5864    465.36806    311.11622    15.740479    39062.633 
  788200    297.20593   -1484.0595    496.08572    341.78373   -357.94208    39062.633 
  788300    301.75455   -1489.1514    456.37644    317.33397   -458.60184    39062.633 
  788400    305.23995   -1483.4113    503.78311    386.07515   -239.84781    39062.633 
  788500    296.41517   -1502.1294    484.07688    308.16706   -89.422186    39062.633 
  788600    301.67745   -1485.8375    448.22051    312.14702   -239.52669    39062.633 
  788700    299.56247   -1478.2626     467.9001    329.93868   -415.92353    39062.633 
  788800    296.12975   -1492.8508    454.97302     287.0647    126.44544    39062.633 
  788900    301.48966   -1507.7148    447.21309    288.42205  -0.71246773    39062.633 
  789000    305.50716   -1513.6692    492.88693    346.11665    139.59541    39062.633 
  789100    289.88107   -1468.1583    477.19784    306.02422   -586.10704    39062.633 
  789200    302.55049   -1486.2665    470.26513    337.66877   -262.66426    39062.633 
  789300    297.65056   -1477.1444     479.1971    333.79963     91.28663    39062.633 
  789400    301.48055   -1478.1554    503.08262    373.81026    366.78715    39062.633 
  789500    295.39429   -1496.5534    479.62821    304.72673    31.838171    39062.633 
  789600    300.39909   -1467.3608    452.52848    329.21202   -282.77657    39062.633 
  789700     297.5417   -1457.4191    462.85874    336.69952   -198.63056    39062.633 
  789800    307.41708   -1452.0031    450.62789      374.069   -116.92933    39062.633 
  789900    301.66414   -1450.9348    469.86406    368.63376     -196.079    39062.633 
  790000    298.52342   -1465.7459    495.39379     365.3001   -959.75276    39062.633 
  790100    296.11414   -1458.9666    454.63988    320.54594   -1273.0627    39062.633 
  790200    300.87316   -1459.3991    465.90401    352.67036   -1064.4757    39062.633 
  790300    295.75232     -1482.69    480.22689    320.79071   -742.18091    39062.633 
  790400    302.68699   -1473.1155    468.64087    349.80629   -539.95642    39062.633 
  790500     297.8704   -1462.3579    486.85973    357.23236   -707.57715    39062.633 
  790600    292.69617   -1512.9677    460.72102    257.33333   -748.88072    39062.633 
  790700    305.61341   -1499.5031    464.04007    331.91122   -452.35131    39062.633 
  790800    302.42912   -1494.5624    479.75886    338.32364    158.08727    39062.633 
  790900    308.98183   -1512.4046    448.49649    318.53707    196.81799    39062.633 
  791000    300.21486   -1535.2166    459.01072    267.01422    542.85694    39062.633 
  791100    292.80571   -1561.3537    476.81652    225.53295     386.0105    39062.633 
  791200    298.81458   -1537.0186    459.33348    259.26984    557.28155    39062.633 
  791300    290.82358    -1519.055    471.56628    253.71293    311.16389    39062.633 
  791400    291.43502   -1517.6702      467.386    253.65315    513.07788    39062.633 
  791500    300.38547   -1529.2375    477.13861    291.88456    391.45919    39062.633 
  791600    292.62976   -1511.5267    484.94996     282.7061    367.05246    39062.633 
  791700    288.71785   -1512.0098    479.11895    258.88937    557.63476    39062.633 
  791800    302.46706    -1539.188    460.80774    274.91663    38.394282    39062.633 
  791900     304.5983   -1551.0875    453.21641     264.9614   -2.1720761    39062.633 
  792000    301.86805   -1522.9705    469.59197    297.23831    328.39282    39062.633 
  792100    294.21138   -1557.1386    469.51364    228.73437    55.259038    39062.633 
  792200    302.52647   -1509.0776    458.89117    303.37626   -33.585869    39062.633 
  792300    301.11253   -1511.2853    508.32278    344.27396    -192.3393    39062.633 
  792400    299.42786   -1459.8492    458.28175    338.13145   -260.28061    39062.633 
  792500    299.77527   -1485.7221    496.20223    351.73336   -345.15609    39062.633 
  792600    299.15986   -1482.1158    462.56465    318.94863   -145.83615    39062.633 
  792700    306.41405   -1470.8082     475.6233    375.77156    235.06488    39062.633 
  792800     291.0274   -1482.5691    494.86358    314.40807    82.076294    39062.633 
  792900     296.6896   -1472.7242    487.46475    342.18791   -26.158123    39062.633 
  793000    304.48221   -1478.7057    513.30704    396.91438   -171.15104    39062.633 
  793100    298.64019   -1520.0645    466.83524    282.94543   -289.55507    39062.633 
  793200    294.33627   -1517.5821     486.0016    285.33764     158.1332    39062.633 
  793300     296.9557    -1524.514    483.03644    287.16038    275.96635    39062.633 
  793400    296.23743   -1521.8565    428.92374    232.49155    204.66557    39062.633 
  793500    300.28792    -1533.623    525.16154    335.08549    56.042535    39062.633 
  793600    294.66015    -1540.272    448.28778    226.38305   -39.330276    39062.633 
  793700    302.31219   -1499.0886    484.00848    337.52386    386.06217    39062.633 
  793800    306.84033   -1526.6781    490.90561    337.09125   -651.75928    39062.633 
  793900    303.17059   -1511.1708    473.84432    319.11809   -362.69111    39062.633 
  794000    303.00521    -1496.626    498.53621    357.61491    -402.5361    39062.633 
  794100    299.81606   -1489.5728    486.04761    337.91063   -188.46195    39062.633 
  794200    303.79903   -1523.9052    496.17326    331.52441    -248.0459    39062.633 
  794300    292.62356   -1475.2038    455.95052    290.00185   -396.88656    39062.633 
  794400    304.81479   -1490.1612    496.05083    369.69066    -355.5924    39062.633 
  794500    307.30627   -1453.0763    487.23537    409.10754   -4.9274992    39062.633 
  794600    295.96161   -1489.5371     469.3877     304.0408    465.86205    39062.633 
  794700    291.91841   -1561.0302     494.9218    239.99179    29.101279    39062.633 
  794800    298.32356    -1505.719     479.9629    309.00193    366.96669    39062.633 
  794900    302.87751   -1532.1172    476.75753    299.77367    492.06686    39062.633 
  795000    292.15681   -1518.3241    475.90862    264.75132    407.39935    39062.633 
  795100    298.89268   -1544.4431    474.43949    267.30077    777.59701    39062.633 
  795200    294.27482   -1510.5254    461.06272    267.18053   -340.48223    39062.633 
  795300    293.46816    -1528.903    477.35809    261.48911   -272.15924    39062.633 
  795400    303.61241   -1586.9089    473.64338     245.1559   -186.35114    39062.633 
  795500    300.37793   -1571.0912    443.00849    215.86701   -101.73654    39062.633 
  795600    298.02233   -1558.8903    453.56439    228.08438    634.49705    39062.633 
  795700    297.92316   -1525.5383    482.00433    289.43264   -147.29967    39062.633 
  795800    290.67896   -1531.8121    468.06561    236.80816    9.4173918    39062.633 
  795900    299.40923   -1549.8457    483.06192    272.83176   -92.589445    39062.633 
  796000    303.16736   -1523.6253    456.58856    289.39336    376.13106    39062.633 
  796100    302.21373   -1542.9197    491.68267    300.92639    73.698463    39062.633 
  796200    297.95262   -1574.6047    457.21095    215.70463    -410.1623    39062.633 
  796300     303.2111   -1548.1684    462.59768    271.05511    588.95379    39062.633 
  796400    309.70667   -1535.1907    502.69555    353.19318    76.989341    39062.633 
  796500    293.75583    -1519.238     474.4956    269.57876   -225.46431    39062.633 
  796600    304.03654   -1516.0113    484.87409    329.18185    178.94912    39062.633 
  796700     304.2316   -1497.8849    476.42908    339.73596    65.812863    39062.633 
  796800    309.66455    -1552.726    469.56613    302.33993   -217.17652    39062.633 
  796900    301.77737   -1538.5423    495.14671    306.81548    119.71288    39062.633 
  797000    303.61991   -1551.4895     496.9091    303.87459   -284.27062    39062.633 
  797100    301.58855   -1537.8574    487.92415    299.43299   -295.61799    39062.633 
  797200    307.48121    -1529.751    470.54111    316.52125   -241.79016    39062.633 
  797300    310.58502   -1505.9726     487.1306    370.77624   -328.02442    39062.633 
  797400    288.09479   -1496.4086    489.57503    282.15891   -322.21408    39062.633 
  797500    301.57654   -1498.0821    459.09811    310.32849   -504.95045    39062.633 
  797600    300.89554   -1513.8155     508.3225    340.77257   -753.87494    39062.633 
  797700    298.19019   -1567.4023    477.12608    243.88513   -488.84496    39062.633 
  797800    308.84245   -1503.6412    491.19426    369.37467   -487.69889    39062.633 
  797900    299.24221   -1497.9993    482.04418     322.9132   -568.76128    39062.633 
  798000    303.45151    -1502.258    464.47462    319.91809   -13.875058    39062.633 
  798100    296.12915   -1544.1957    486.60696    267.35104    419.43682    39062.633 
  798200    303.87862   -1531.9495     501.4738    329.13674    612.90617    39062.633 
  798300    307.47613   -1559.6017    468.15972    284.26648    353.29688    39062.633 
  798400    290.56263   -1522.1703    494.22777    272.09162   -99.831106    39062.633 
  798500    294.62778   -1533.0056    474.92613    260.14297   -123.40581    39062.633 
  798600    288.55225    -1564.584    502.98259    229.43792   -4.2532535    39062.633 
  798700    292.69282   -1567.0544     463.8594    206.37001    51.350275    39062.633 
  798800    310.26166   -1534.9469    501.44818    354.67272   -470.10778    39062.633 
  798900    294.64911   -1517.9812    509.26046    309.59712   -290.18707    39062.633 
  799000    303.68365   -1531.6093    470.01781    297.14865    -114.6747    39062.633 
  799100    294.34628   -1538.4121    462.33574    240.88658    288.78802    39062.633 
  799200    305.03639   -1562.0924    467.18539    269.88554    466.30573    39062.633 
  799300    309.98714   -1586.0959    499.99788    300.84516    82.329551    39062.633 
  799400    303.37958   -1562.0577    452.12147    247.44344    169.35362    39062.633 
  799500    307.46481   -1609.6301    462.60209    228.62979    315.86479    39062.633 
  799600    303.44185   -1567.5321    492.82012    282.94632    161.02841    39062.633 
  799700     310.8109   -1512.9423    485.27799    362.96454    511.92032    39062.633 
  799800    299.84722   -1552.5301    461.69706    250.74221   -97.858112    39062.633 
  799900     304.8432   -1541.9525     491.1234    313.09912    178.95144    39062.633 
  800000    305.58341   -1548.9473    469.68496    287.97771   -74.850626    39062.633 
  800100    292.09358   -1566.6667    469.96704     210.1842   -444.09819    39062.633 
  800200    292.52705   -1526.7984    480.57704    262.60191    309.78443    39062.633 
  800300    301.11835   -1559.2844    495.67884    283.65693   -8.9330823    39062.633 
  800400    298.89325   -1554.0801    487.40996    270.63678    1177.7581    39062.633 
  800500    300.63946   -1535.2802    502.18045    312.02007    764.30238    39062.633 
  800600    294.59798   -1547.7408    488.61114    258.95936    665.03579    39062.633 
  800700     291.3692    -1555.866    481.23534    229.01218    280.31295    39062.633 
  800800    302.87686   -1534.3132    487.84704    308.66424    373.86245    39062.633 
  800900    293.48674   -1530.5578    468.32861    250.88802    10.452092    39062.633 
  801000    303.08749   -1507.8437    499.38891    347.61805    176.41345    39062.633 
  801100      300.911   -1520.7101    458.23335    283.85798    9.3893229    39062.633 
  801200    305.06791   -1550.2037    491.32438    306.05428    203.83061    39062.633 
  801300    303.02088   -1543.6933    501.38378    313.46521    480.89771    39062.633 
  801400    294.67383   -1531.1866     462.5824     249.8242    163.18411    39062.633 
  801500    306.19118   -1490.5205    459.51078    338.94959    212.03334    39062.633 
  801600    300.26025   -1517.5708    515.50743    341.35983   -74.171895    39062.633 
  801700    295.96936   -1539.7171     480.8547    265.36252   -550.63039    39062.633 
  801800    307.59342   -1530.8594    477.64766    323.02148   -1037.6507    39062.633 
  801900    302.37383   -1519.3334    499.35304    332.89932   -836.65529    39062.633 
  802000    302.18849   -1568.9649     453.1887    236.27432   -722.81138    39062.633 
  802100    306.49818   -1539.8938    465.89247    297.33158   -345.13537    39062.633 
  802200    294.58208   -1536.6729    498.35214    279.69721   -159.55753    39062.633 
  802300    312.07621   -1515.6628    494.10857    374.73588   -367.30061    39062.633 
  802400    308.78963   -1518.2505    475.47539    338.81017   -260.61069    39062.633 
  802500    299.96915   -1529.4438    491.87987    304.55679   -459.48425    39062.633 
  802600    303.32706   -1545.4835    487.25119    298.91238    142.03458    39062.633 
  802700    296.35695   -1512.6908    489.91572    303.18391    40.430046    39062.633 
  802800    295.67024   -1512.0052    464.93347    275.81486   -629.75247    39062.633 
  802900    305.50125   -1504.8887    503.46399    365.44774     -313.939    39062.633 
  803000    300.34812   -1484.3117    481.58602    341.09063    -446.4764    39062.633 
  803100    296.10724   -1477.0807    480.09908    327.86017   -477.49512    39062.633 
  803200    297.72061   -1503.9798    506.01417    334.09467   -257.81249    39062.633 
  803300    306.05531   -1511.8551    484.04749     341.5438    -173.1819    39062.633 
  803400    291.66716   -1498.2434    489.45833    296.19093    605.49782    39062.633 
  803500    308.87801   -1490.6612    487.63047    378.94995   -11.309355    39062.633 
  803600    288.35466   -1494.6134    508.89475    304.43656   -153.20437    39062.633 
  803700    298.36932    -1483.531    468.65939    320.09113    31.512194    39062.633 
  803800    298.38293   -1494.9429    497.87342    337.95415   -376.19823    39062.633 
  803900    300.15409    -1455.432    492.41318    379.92942    81.058763    39062.633 
  804000    297.35118   -1517.7142    501.33258    314.02583    85.793364    39062.633 
  804100    306.51166   -1504.7535    504.54227    371.18202    408.22804    39062.633 
  804200    300.08324    -1518.471    500.16433    324.32449    145.42459    39062.633 
  804300     299.3448    -1537.932    492.61562    294.01083   -289.07783    39062.633 
  804400    299.24823   -1487.1012    484.98647    336.78042   -577.57206    39062.633 
  804500    303.79039   -1466.6813    481.96065    374.49703   -227.22361    39062.633 
  804600    294.76515   -1491.6828    500.41079    327.56497    79.657794    39062.633 
  804700    301.24727   -1512.5131    514.48106    349.80728   -111.82512    39062.633 
  804800    301.13785   -1502.1727    483.43129    328.60835    565.54468    39062.633 
  804900    305.27124   -1513.7389    485.26689    337.37131    281.44092    39062.633 
  805000    305.38721    -1501.719    517.99668    382.63989    110.45136    39062.633 
  805100    299.98731   -1498.4924    503.14642    346.85601    76.302587    39062.633 
  805200    303.86578   -1545.2816    466.33227    280.60567    470.99571    39062.633 
  805300    302.63526   -1507.4831    504.91921     351.4856   -92.185666    39062.633 
  805400    292.04303   -1504.7175     506.6929    308.63308    199.84664    39062.633 
  805500    300.53408   -1576.3185    485.83862    254.16844    140.27008    39062.633 
  805600    295.22061   -1501.2713     493.7489    313.35243   -81.771501    39062.633 
  805700    303.77689   -1537.1876    484.54522    306.51492    211.96304    39062.633 
  805800    304.52743   -1571.8668    482.72057     273.3691   -11.444218    39062.633 
  805900     305.6368   -1572.1051    499.83267    295.20649    19.094576    39062.633 
  806000    289.80909    -1546.452     463.2084    213.41901   -242.13264    39062.633 
  806100    306.55101   -1531.6298    476.30398    316.24346   -126.01189    39062.633 
  806200    297.18512   -1549.7069    502.54666    282.50417    541.26533    39062.633 
  806300    288.70791   -1548.9828    490.54771    233.30068    7.7124866    39062.633 
  806400    301.07569   -1545.7377    489.16421    290.49815     492.0222    39062.633 
  806500    296.04263   -1581.3187     484.0224    227.25636    454.91374    39062.633 
  806600    305.66079    -1544.027    488.89739    312.45665   -101.48163    39062.633 
  806700     300.5556   -1578.6493    452.41381     218.5092   -434.97657    39062.633 
  806800    302.74505   -1556.6885    459.99408    257.84625     2.868509    39062.633 
  806900    303.58875   -1529.1747    496.56039    325.70118   -155.13742    39062.633 
  807000    302.84868   -1550.9318    513.92344    317.99591    -47.24897    39062.633 
  807100    291.43984   -1553.5443    460.13859    210.55322   -199.25135    39062.633 
  807200    297.64252   -1539.6085    473.16503    265.26742   -309.37259    39062.633 
  807300    284.35665   -1498.2819    501.11814    275.10357   -214.05458    39062.633 
  807400    297.86904   -1536.2493    482.70934    279.18449     121.5179    39062.633 
  807500    302.08987   -1511.8758    498.55138    338.28479   -177.71826    39062.633 
  807600    308.71903   -1518.0418    480.19042      343.418    124.29688    39062.633 
  807700    305.01757   -1543.5204    501.11053    322.29853    396.28113    39062.633 
  807800    300.07461   -1515.8676    499.19511     325.9201   -35.755081    39062.633 
  807900    296.32204   -1551.1211    502.58313    277.26494    243.50646    39062.633 
  808000    302.43274   -1558.8154    477.86074    272.18866   -123.14755    39062.633 
  808100    304.02888   -1505.8268    517.27753     371.7355    310.99926    39062.633 
  808200     296.5679   -1515.1572    457.64391    269.38957   -256.81421    39062.633 
  808300    290.92336    -1536.338    508.94245     274.2526    6.7259788    39062.633 
  808400    292.37025   -1531.4876    499.61457    276.24874    297.60391    39062.633 
  808500    310.02024    -1501.581    494.74047    380.25082    121.98755    39062.633 
  808600    293.68877   -1514.1254    500.49029    300.38599    119.52075    39062.633 
  808700    300.19627   -1536.8324    505.10211    311.40669    572.90894    39062.633 
  808800    298.59013   -1479.5561    519.92367    376.31831    430.30839    39062.633 
  808900    298.25282   -1506.9837    480.62869    308.08659   -192.23127    39062.633 
  809000    298.47606   -1557.2881     512.2303    290.38254   -625.60498    39062.633 
  809100    303.55508   -1505.7345    462.43788    314.86826    264.62686    39062.633 
  809200    295.77061   -1523.3157    501.85538    301.87537    77.379618    39062.633 
  809300    296.74184   -1535.9081    496.03152     287.8045    276.53632    39062.633 
  809400    307.68743   -1514.6882    483.35245    345.31814    436.74175    39062.633 
  809500    318.02143   -1550.0892    483.51738    356.31833    -511.7832    39062.633 
  809600    294.05982   -1544.3382    502.68344    274.02645   -562.02136    39062.633 
  809700    300.10756    -1551.525    482.68185    273.89686   -592.17597    39062.633 
  809800    297.47161   -1568.4237    494.44171    256.96427   -493.21439    39062.633 
  809900    300.87533   -1546.5105    478.00634    277.67102   -19.872975    39062.633 
  810000    295.30229   -1508.5205    477.22035    289.94013   -725.05826    39062.633 
  810100    297.71984    -1510.458    482.55848    304.15739   -905.58117    39062.633 
  810200    299.89872   -1514.2941    488.91374    316.42519   -184.04728    39062.633 
  810300    294.76202   -1531.6331    479.50685    266.69673   -188.71875    39062.633 
  810400    298.87543   -1504.1424    501.70816    334.79296   -26.626424    39062.633 
  810500    308.44305    -1538.578    501.18355    342.64017    29.854789    39062.633 
  810600    299.97046   -1511.7766    495.06593    325.41594   -49.600724    39062.633 
  810700    296.49079   -1497.0138    507.09784    336.64191    -661.3806    39062.633 
  810800    306.93532   -1490.2947    489.77118    372.76519   -848.63011    39062.633 
  810900    292.66036   -1470.1455    469.77542    309.04968   -982.39047    39062.633 
  811000    301.82341   -1517.3169    488.31387    321.41405    -1054.931    39062.633 
  811100     290.8488   -1492.9353    484.01746    292.39671   -503.25074    39062.633 
  811200    302.73301   -1534.2574    506.31251    326.54183   -376.26054    39062.633 
  811300    287.86063    -1543.655    452.97881    197.26859   -467.38715    39062.633 
  811400    303.71295   -1540.4814    509.41771    327.80751   -392.97095    39062.633 
  811500    298.11207   -1531.3133    482.21152    284.70998   -286.89279    39062.633 
  811600    303.89649   -1510.1381    488.75689    338.31123   -5.0880877    39062.633 
  811700    310.57413   -1538.7368     487.4008    338.23349    71.128322    39062.633 
  811800    299.08098   -1512.5717    494.31006    319.88526    266.38787    39062.633 
  811900    296.88652   -1517.5682    531.07064    341.83086    248.81467    39062.633 
  812000    293.80621   -1511.0166    504.58168    308.11168    551.41529    39062.633 
  812100    308.77892     -1536.35     501.7759    346.96326    437.21722    39062.633 
  812200      294.888   -1491.6079    486.13409    313.91287    22.990897    39062.633 
  812300    297.02635    -1516.071    476.20186    289.08492   -413.17882    39062.633 
  812400    296.31979   -1490.4353    496.81304     332.1705   -134.68097    39062.633 
  812500    302.27869   -1530.9002    508.32573     329.8796    155.50288    39062.633 
  812600    301.19172    -1542.156    480.61087    286.04564   -212.40288    39062.633 
  812700    299.98669   -1546.4725    470.39828    266.12503   -442.26458    39062.633 
  812800      297.643   -1531.6257     484.0045    284.09188   -801.57943    39062.633 
  812900    305.89114   -1536.9579    496.48417    328.14314    -628.6682    39062.633 
  813000    301.48402    -1567.161    452.86513    234.60269   -989.67891    39062.633 
  813100    304.28918     -1581.88    508.14767    287.71708   -323.39062    39062.633 
  813200     281.1241    -1625.624    458.87495     91.05527   -132.80476    39062.633 
  813300    298.35303   -1564.2044    478.37596    249.06143    184.10288    39062.633 
  813400    296.69737   -1591.5541    467.41807     203.3461   -283.79154    39062.633 
  813500    304.97138   -1597.7824    472.29597    239.01533   -24.980333    39062.633 
  813600    290.63763    -1610.061    456.74246    147.05111    -210.2466    39062.633 
  813700    301.09364   -1566.1972    487.36212    268.31685    174.73836    39062.633 
  813800    302.69905   -1550.7358    499.83687    303.43596   -113.73037    39062.633 
  813900    294.53946   -1538.1667    488.01486     267.6754    43.539618    39062.633 
  814000    295.00993   -1516.0652    491.75583    295.62289    338.68834    39062.633 
  814100    298.78533   -1524.1589    516.21701    328.88219    190.48787    39062.633 
  814200    310.25184   -1540.0008    478.83067    326.95735    360.83848    39062.633 
  814300    307.24058   -1539.4524    478.87325    314.07538    199.09389    39062.633 
  814400      289.663   -1512.7744    515.88075    299.11531   -256.65944    39062.633 
  814500     297.0301   -1507.0854    520.33106    342.21654   -105.59706    39062.633 
  814600    303.84909   -1484.5803    511.93463    386.83468    183.41671    39062.633 
  814700    307.65709   -1503.2284    507.88152     381.1712    715.90277    39062.633 
  814800    310.96066    -1525.041    494.73327    360.99119   -18.797525    39062.633 
  814900    308.00385   -1535.7745    493.97605    336.27112   -108.77644    39062.633 
  815000    298.58855   -1511.6812    502.61331     326.8758   -141.50506    39062.633 
  815100    301.73435   -1528.9095    479.62327    300.73241   -687.87159    39062.633 
  815200    303.47634   -1556.7252    490.09933    291.18668   -1000.1817    39062.633 
  815300    309.51565   -1515.7529    503.92038    373.00109   -161.98265    39062.633 
  815400    289.28809   -1545.1776    485.24933    234.40333    40.781838    39062.633 
  815500    301.94286   -1507.9905    484.37099    327.33202     261.2253    39062.633 
  815600    303.18039   -1525.6853    501.10216    331.90535    706.22691    39062.633 
  815700    297.50072   -1579.5902    475.27055    226.75691    543.05472    39062.633 
  815800    297.71888    -1551.066    490.76751    271.75415    439.33841    39062.633 
  815900    302.89113   -1566.5164    506.07245    294.75027    1182.2558    39062.633 
  816000     292.8089   -1593.9438    505.68847    221.82904    490.59149    39062.633 
  816100     291.9433     -1576.62    478.45489    208.04641    -164.0352    39062.633 
  816200    309.75168   -1545.6632     486.0284    326.25493   -55.182814    39062.633 
  816300    297.98857   -1559.8205      468.374    241.81275   -238.09554    39062.633 
  816400    298.71272   -1579.2638    503.34696    260.58238   -190.13062    39062.633 
  816500    287.36944   -1551.7695    471.20983    205.18751   -463.92239    39062.633 
  816600    294.19864   -1578.8125    489.51226    227.00212   -690.59384    39062.633 
  816700    301.42306   -1574.5337     489.7705     263.8626   -224.40418    39062.633 
  816800    290.45804   -1531.0502    515.33206      283.848   -56.831699    39062.633 
  816900    303.40229    -1576.846    486.75706    267.39232    262.38928    39062.633 
  817000    286.89471   -1552.9912    485.68222    216.31413   -176.90952    39062.633 
  817100     298.0238   -1572.2934    469.76465    230.88811   -500.51036    39062.633 
  817200    303.38285   -1555.5354    491.06863    292.92755    139.76077    39062.633 
  817300    305.48345   -1535.0651    483.32989    315.05755    745.53767    39062.633 
  817400    300.71059   -1578.1701    456.73192    223.99985    441.01558    39062.633 
  817500     305.2013   -1531.2757    520.69651    354.95122    11.791487    39062.633 
  817600    296.16315   -1556.8399    490.82042    259.07252    159.42911    39062.633 
  817700    305.23047   -1546.2111    479.97188    299.42172   -30.668825    39062.633 
  817800    301.84229   -1556.5882     490.1859    284.09919    -153.0888    39062.633 
  817900    306.70604   -1548.9854    480.85575    304.13327   -293.21636    39062.633 
  818000    305.02928   -1578.2096    495.95414    282.50524   -624.80538    39062.633 
  818100    305.92057   -1592.3914    482.77248     259.1296    67.781722    39062.633 
  818200    288.46922   -1548.1914    491.59356    234.06994   -99.789799    39062.633 
  818300    303.93515   -1585.4435    508.57889    283.00074    260.87158    39062.633 
  818400    299.18175    -1577.262    487.11701    248.45278    288.52574    39062.633 
  818500    306.81652   -1582.6868    494.93063    285.00103    150.28997    39062.633 
  818600    305.59845   -1574.2849     487.9462    280.96857    -313.5615    39062.633 
  818700    300.75237   -1567.4093    477.87905    256.09471    82.299307    39062.633 
  818800    300.41282   -1570.1457    479.67038     253.6305   -701.04956    39062.633 
  818900    306.16864   -1593.8658    499.28336    275.27608    -128.2952    39062.633 
  819000    310.21487   -1641.3058    475.79804    222.45434    73.627583    39062.633 
  819100    296.23099    -1601.144     501.4426    225.69403    353.16123    39062.633 
  819200    285.89304   -1620.4855    479.49623    138.15221    33.663175    39062.633 
  819300     295.5784   -1629.4362     495.3395    188.37894   -80.801513    39062.633 
  819400    294.79614   -1585.1126    480.24909    214.11218    154.86146    39062.633 
  819500     307.5937   -1601.6143    510.69223    285.31235    5.4397931    39062.633 
  819600    301.56742   -1565.1129    489.70076    273.85962   -9.1893435    39062.633 
  819700    294.50652   -1563.2289    503.30637    257.75735    41.519159    39062.633 
  819800    302.21915   -1605.8404    493.95676    240.30405    291.94234    39062.633 
  819900    307.40683   -1632.2476    495.56003    238.71077   -265.52539    39062.633 
  820000     307.1115   -1622.0596    490.97533    242.99275   -48.265787    39062.633 
  820100     299.6266   -1600.4565    487.19198    227.32362   -123.67403    39062.633 
  820200    298.83251   -1571.9778    465.43306    230.49041    -505.2409    39062.633 
  820300    302.46036   -1606.2459    514.11405    261.13509   -563.31684    39062.633 
  820400     290.6974   -1542.5746    470.37282     228.4353   -610.43027    39062.633 
  820500    300.21554   -1588.7869    485.64042    240.07662   -695.75852    39062.633 
  820600    293.11392   -1550.5587    490.70337    251.59377   -151.83085    39062.633 
  820700     298.7665   -1542.5642    507.61923    301.79495    324.67766    39062.633 
  820800    296.99618   -1570.1023    521.60411    280.32091    201.42583    39062.633 
  820900    304.75148    -1584.766    494.18996    272.94175    830.81138    39062.633 
  821000    301.86062   -1565.4709    486.58935    271.70203    25.835017    39062.633 
  821100     292.6131    -1564.421    490.24691    235.03421   -344.50446    39062.633 
  821200    301.33513   -1526.8545    509.47024    330.84811   -635.65026    39062.633 
  821300    296.88694   -1547.1842    498.38215    279.52822   -267.83979    39062.633 
  821400    299.60862    -1547.099    484.21899    277.62762   -729.70064    39062.633 
  821500    295.91351    -1562.048    507.03504    268.96206   -315.35454    39062.633 
  821600    300.44874   -1572.7146    504.25947    275.81142    371.76321    39062.633 
  821700    292.33675   -1569.1751    509.71507    248.51185    137.87875    39062.633 
  821800    299.56954   -1640.7438    468.47389    168.06289    29.739699    39062.633 
  821900    301.56426   -1554.0155    500.83401    296.07611   -282.12057    39062.633 
  822000    295.94466   -1565.5939    492.47829    250.99875    246.60408    39062.633 
  822100    297.64823   -1549.6552     500.3829    282.46417   -79.485807    39062.633 
  822200    293.96395   -1585.5651    482.60476     212.2919   -637.62517    39062.633 
  822300    296.15516   -1521.7954    505.38948     308.6503   -912.37266    39062.633 
  822400    292.74174   -1542.1759    467.73532    235.34333    139.63342    39062.633 
  822500    304.42089   -1556.9885    528.69465     333.7448    191.02048    39062.633 
  822600    305.88957   -1526.6708    508.79754    350.73655    384.36346    39062.633 
  822700    298.11921   -1531.3111    500.18317    302.71578    547.35707    39062.633 
  822800    299.74117   -1539.5642    507.14315    308.67962    192.85033    39062.633 
  822900    306.35891   -1562.6252    477.00172    285.08627    376.44102    39062.633 
  823000     287.9477   -1535.5093    493.96803    246.79312    318.11401    39062.633 
  823100    297.31686   -1594.8317    491.73172    227.15391    14.439857    39062.633 
  823200    305.33723     -1572.48    472.85509    266.51366   -68.119339    39062.633 
  823300    294.39575   -1572.8528    466.95343    211.28495   -299.67537    39062.633 
  823400    303.48172   -1574.0923     470.8111    254.55542   -71.283616    39062.633 
  823500    304.00811   -1544.2411    497.76159    313.71234   -292.45769    39062.633 
  823600    307.51187   -1571.2464    488.41732    293.03928    57.033129    39062.633 
  823700    289.80879   -1557.1143     499.3237     238.8707   -87.566947    39062.633 
  823800      306.007   -1523.5035    442.32825    287.96006   -399.17486    39062.633 
  823900    304.20022   -1538.2225    522.46681    345.29567   -186.84386    39062.633 
  824000    295.03467   -1541.3548    459.65657    238.34466   -325.75853    39062.633 
  824100     298.0282   -1497.6318    529.96847    365.77325   -120.13942    39062.633 
  824200     313.3742   -1529.7416    528.07442     400.4304     158.0393    39062.633 
  824300    299.68304   -1503.8004    501.39457    338.43476   -23.290015    39062.633 
  824400    296.81795   -1552.9862    505.31037    280.34577    36.037855    39062.633 
  824500    300.17266   -1531.2466    515.13428    326.91894    275.85786    39062.633 
  824600    309.93422   -1537.9042    486.82615    335.62834   -352.34648    39062.633 
  824700    288.34593   -1507.3865    521.86918     304.5989   -105.82294    39062.633 
  824800    299.22407    -1522.017    501.49179    318.26195   -32.870139    39062.633 
  824900    307.58936   -1541.1343    472.53438    307.61508    147.64688    39062.633 
  825000    296.22474   -1534.3758    494.61107    285.60281   -102.76643    39062.633 
  825100    304.51103   -1562.8105    475.83926    275.47079    34.333647    39062.633 
  825200    300.47723   -1539.0108    510.71019    316.09336   -22.275773    39062.633 
  825300    303.03439   -1526.9468    490.85118    319.73964    258.06385    39062.633 
  825400    301.68754   -1529.2841    499.29941    319.82445   -211.75058    39062.633 
  825500    302.48423   -1531.8121    495.75494    317.31652   -146.56973    39062.633 
  825600    311.65852   -1521.0346    470.39714    343.78383   -387.33417    39062.633 
  825700    304.71834   -1524.5362    502.55796    341.39133   -351.01013    39062.633 
  825800    299.56816   -1473.3989    533.52567    400.45343   -95.063528    39062.633 
  825900    306.06778   -1509.5862     515.0914    374.91244    41.007776    39062.633 
  826000    297.83143   -1542.3385    500.50279    290.72042   -45.908025    39062.633 
  826100    296.21922   -1531.2792    515.19026    309.25389    199.63921    39062.633 
  826200    308.18071    -1524.411    499.37957    353.82946   -17.281723    39062.633 
  826300    300.29555   -1537.2201    497.65035    304.01138   -141.04568    39062.633 
  826400    291.51014   -1528.5192    490.96817     266.7224   -448.45785    39062.633 
  826500    311.19451   -1559.8035    483.72716    316.26886   -284.32196    39062.633 
  826600    300.06728   -1522.5773    485.86634    305.84883   -275.81814    39062.633 
  826700    309.11103   -1513.7015    497.20973    366.53154   -766.71788    39062.633 
  826800    299.39164   -1538.6553    481.07198    281.95354   -57.118904    39062.633 
  826900    294.97152    -1568.419    483.46156    234.80294   -164.52139    39062.633 
  827000    296.29921   -1552.3795     514.6619    287.98317   -362.38576    39062.633 
  827100    306.04601    -1547.706    504.67121    326.27506   -533.80076    39062.633 
  827200     298.6929   -1530.8424    496.36191    301.93009   -612.63416    39062.633 
  827300     299.4092   -1561.4512    483.67648    261.84062   -939.85848    39062.633 
  827400    299.84357     -1527.63     491.1682    305.09709   -469.61614    39062.633 
  827500    293.42843   -1533.7234    495.76791    274.90079   -4.8883618    39062.633 
  827600    303.98217   -1520.0111    505.63599    345.70068   -342.18425    39062.633 
  827700    308.52597   -1520.6094    472.77697     332.5732     326.9863    39062.633 
  827800    293.01258   -1492.2856    503.65283    322.36287   -58.337969    39062.633 
  827900    303.43506   -1480.0744    487.39078    364.94426   -284.86475    39062.633 
  828000    301.20723   -1533.3695    500.34688    314.63753    -223.9694    39062.633 
  828100     309.2272   -1512.4531    503.79395    374.88398   -194.29054    39062.633 
  828200     305.6841   -1482.9372    497.11389     381.8672   -744.64122    39062.633 
  828300    290.89136   -1561.6605    487.36556    227.20994   -120.92217    39062.633 
  828400    294.88047   -1542.5915    486.92448    263.68593    252.55794    39062.633 
  828500    309.87219   -1560.5413    480.53856    306.42619   -539.84368    39062.633 
  828600    299.35662   -1536.3652    479.75342    282.76836   -400.09385    39062.633 
  828700    305.86679   -1505.2456    524.23381    387.49614   -273.05158    39062.633 
  828800    291.73424   -1504.5552    514.20434     314.9253   -114.87319    39062.633 
  828900    300.71287   -1510.3833    520.84872    355.91373   -72.559295    39062.633 
  829000    293.40456   -1569.7406     497.4944    240.50332   -497.01308    39062.633 
  829100    306.75508    -1519.778    491.02468    343.72897   -92.463863    39062.633 
  829200    300.73708   -1514.1978    492.84858     324.2074    299.95896    39062.633 
  829300    303.18612   -1557.5548    503.66801    302.62725   -228.70377    39062.633 
  829400    299.20825   -1560.1028    488.37482    266.98828   -211.02746    39062.633 
  829500    294.57129   -1563.9598    515.02405    269.03394   -189.66038    39062.633 
  829600     297.6233   -1549.3356    504.49454    286.78382    732.07798    39062.633 
  829700     308.0729   -1586.5983    487.90018    279.68044    618.65226    39062.633 
  829800    290.55699   -1551.1413    519.29514    268.16269    395.11694    39062.633 
  829900    304.99367    -1528.424    515.95279    352.13023    216.38953    39062.633 
  830000    301.63529   -1543.9578    495.59435    301.21189    158.40046    39062.633 
  830100    302.21831   -1559.4917    484.56791    277.26015   -308.93934    39062.633 
  830200    290.93298   -1559.8387    518.78304    260.63546   -212.73094    39062.633 
  830300    307.08259   -1596.8016    477.83743    254.98344    419.93972    39062.633 
  830400    302.04108   -1590.6488    496.90731    257.64944    209.13795    39062.633 
  830500    289.88811   -1576.3742    520.85272    241.49468    438.13968    39062.633 
  830600    292.81369   -1616.0292    497.85026     191.9269    137.13453    39062.633 
  830700    291.65134   -1596.6546    524.77481    233.02547   -401.49399    39062.633 
  830800    291.05277   -1572.1171    508.12972    238.23968   -1380.8361    39062.633 
  830900    298.55074   -1570.7228    509.65374    274.70537   -1018.6929    39062.633 
  831000    297.48855   -1553.1594    493.42802    271.29065   -1106.8946    39062.633 
  831100    293.02543   -1556.9761    479.94473    234.02183   -614.31574    39062.633 
  831200    297.04995   -1543.6718    503.59314      288.981   -734.04347    39062.633 
  831300    295.42403   -1543.5899    527.95205    306.14713   -515.48662    39062.633 
  831400    289.90186    -1542.773    514.76771    269.07244    266.39547    39062.633 
  831500    294.76564   -1535.1353    518.92461    302.62854   -145.11079    39062.633 
  831600    294.80249   -1522.0795    520.08737    317.01188    20.165082    39062.633 
  831700    297.28792   -1566.9257    497.14277    260.34148   -375.34281    39062.633 
  831800    305.83819   -1541.5008    522.13151    349.01073   0.56560922    39062.633 
  831900    293.55876   -1540.2217    512.84322    286.06091   -59.015366    39062.633 
  832000    298.75163   -1547.3181     527.1449    316.50005    95.392122    39062.633 
  832100     301.8378    -1582.539    470.73568    238.67818  -0.46755012    39062.633 
  832200    299.54774   -1624.1813     480.6686    196.72255   -125.02064    39062.633 
  832300    303.56753   -1620.2864    501.37742    239.31161    163.34915    39062.633 
  832400    302.34828   -1620.6145    500.96889    233.11979    118.63856    39062.633 
  832500    285.27898   -1573.3811    507.90564    210.91857    221.27879    39062.633 
  832600    291.95012   -1596.4911    519.68956    229.44047    240.27971    39062.633 
  832700    282.87152   -1594.0267    500.94677    172.54264    282.33911    39062.633 
  832800    292.85409   -1596.8713    497.41982    210.83506     675.0544    39062.633 
  832900     300.1407   -1591.2145    488.69251    240.36634    590.34566    39062.633 
  833000    305.58708   -1603.8338    505.59398    269.01664    302.62772    39062.633 
  833100    306.25135   -1566.6317    479.20155    282.79841   -381.11153    39062.633 
  833200    304.98556   -1568.8261    517.35442    313.09341     268.8725    39062.633 
  833300    300.36794   -1545.6562    511.29264    309.54148    74.655546    39062.633 
  833400    312.54749   -1601.1024    522.20361    319.49996    22.204252    39062.633 
  833500    311.10684   -1594.4833    481.81367    279.28329    43.147329    39062.633 
  833600     290.6152   -1530.5398     515.9301    285.65961   -154.09481    39062.633 
  833700     297.3967   -1606.1136    496.07252    220.56995    36.101347    39062.633 
  833800    307.89053   -1582.0404    514.96645    310.48861    275.07892    39062.633 
  833900    301.06466   -1624.4233    505.06091    227.65982    421.31678    39062.633 
  834000     298.7052   -1607.5661    494.13617    223.03563    455.02516    39062.633 
  834100    302.56539   -1570.7148    525.44869    308.47068     225.4979    39062.633 
  834200     305.6065   -1601.7865     481.6786    247.23548    661.00775    39062.633 
  834300    303.74569   -1581.2654    498.69955    276.45183    518.05816    39062.633 
  834400    300.74808   -1592.3944    517.50292    270.71436    279.60213    39062.633 
  834500    295.93713   -1581.5916    490.28555    232.77467    922.37054    39062.633 
  834600    308.07714   -1554.8642    507.09123    330.62449    332.74954    39062.633 
  834700    291.45127   -1534.3271    500.98119     270.6642    305.43419    39062.633 
  834800     306.8171   -1583.4774     501.5603     290.8427   -106.16885    39062.633 
  834900    288.41916   -1586.3894    511.82707    215.88149   -103.51641    39062.633 
  835000     302.8411   -1591.5212    509.78566     273.2349      51.4197    39062.633 
  835100    291.96093   -1602.3435    488.55025    192.49712   -156.96585    39062.633 
  835200    293.56469   -1607.7627     501.6805    207.38375    191.92352    39062.633 
  835300    304.77821   -1597.8258    512.55276    278.36439    308.49213    39062.633 
  835400    292.87832    -1528.696    498.06466     279.7636    203.55058    39062.633 
  835500    291.30882   -1535.5663    507.81385     275.6203   -474.98675    39062.633 
  835600    284.52679   -1562.6856    508.94561    219.28855   -72.293359    39062.633 
  835700    290.01527   -1600.0385    480.23092    177.77758   -357.09806    39062.633 
  835800    292.66852   -1589.5251    489.53391     209.4651    22.804696    39062.633 
  835900    305.57249   -1584.2235    488.12219    271.08989    6.2232904    39062.633 
  836000    290.17121   -1575.9607    513.46907    235.79122   -140.65278    39062.633 
  836100    301.90637   -1549.9734    476.12817    276.94303   -433.58341    39062.633 
  836200    295.23972   -1614.6569    481.59451    187.89796   -187.77382    39062.633 
  836300    300.37863   -1622.2014    480.32149    202.07293   -407.43849    39062.633 
  836400    300.44688   -1569.1419     474.8663    249.98262   -630.41777    39062.633 
  836500    293.29319   -1596.0847    470.08467    186.25116    -869.2583    39062.633 
  836600     298.8217   -1569.0394    507.74816     275.6956   -776.27371    39062.633 
  836700    305.57509   -1581.1844    497.02688    283.04524   -533.38501    39062.633 
  836800    302.73855   -1558.3569    502.96056    299.11527   -127.95664    39062.633 
  836900    295.76474   -1562.0622    489.92842    251.17556   -332.69313    39062.633 
  837000    294.68256   -1497.5536    519.66343    340.57738     -536.224    39062.633 
  837100    300.57027   -1525.3485     500.9005    320.36229    229.86582    39062.633 
  837200    298.89091   -1540.4656    485.89687    282.72774   -189.40415    39062.633 
  837300     292.6998    -1511.212    497.41629    295.80052    42.552591    39062.633 
  837400     300.2875   -1523.2836    511.99288     332.2544    277.72851    39062.633 
  837500    297.23178   -1517.1109    516.46767    329.23001    294.92461    39062.633 
  837600    306.08638   -1483.5437    512.13546    398.08223    797.55118    39062.633 
  837700    301.20018   -1510.9317    523.59829    360.29521    879.68983    39062.633 
  837800    299.02305   -1523.4172    514.50678    328.97724    1006.2198    39062.633 
  837900    298.97347   -1575.4362    522.87231    285.10194    289.39707    39062.633 
  838000     298.7099   -1547.1311    488.30441    277.65987   -397.87022    39062.633 
  838100    296.34035   -1527.9561    502.32082    300.24949   -83.835505    39062.633 
  838200    307.11727   -1514.7439    500.85301    360.21194    179.06851    39062.633 
  838300    299.66699   -1584.0108    507.71783    264.47586    682.14263    39062.633 
  838400     300.4369   -1540.3886    505.00175    308.82669   -200.42818    39062.633 
  838500     307.0159   -1550.0514    497.24921    320.84708    226.25381    39062.633 
  838600    299.96761   -1489.7226    489.67828    342.06949    496.06239    39062.633 
  838700    294.49299    -1531.012    515.35317    301.96053    159.24493    39062.633 
  838800    296.36226   -1539.9771    497.92309    283.92885   -84.743368    39062.633 
  838900    310.55084   -1533.6173    487.55653    343.40454   -557.16803    39062.633 
  839000    289.12436   -1539.9358    503.07458    256.73779   -498.98135    39062.633 
  839100    296.95931   -1501.3616    515.50069    342.79323   -646.11441    39062.633 
  839200    292.55781   -1469.8459    510.92808    350.04315   -757.41584    39062.633 
  839300     304.0259   -1499.0834     508.0753    369.26338   -309.56584    39062.633 
  839400    293.17117   -1474.4168    485.47252    322.76096   -210.06399    39062.633 
  839500    302.29641   -1511.4848    510.13328     351.1818    79.957463    39062.633 
  839600    293.86157   -1514.3987    493.20299    293.59853   -60.814227    39062.633 
  839700    304.82956   -1488.2628    503.83904    379.44334   -349.36274    39062.633 
  839800    294.41593   -1470.7091    486.13152    332.69696    315.31956    39062.633 
  839900    298.25567   -1462.9793    519.90829    391.38332    554.27601    39062.633 
  840000    309.78404   -1490.6562    506.05358    401.43183    607.78491    39062.633 
  840100    298.14953   -1512.3873    499.27313    320.86526    445.27257    39062.633 
  840200    300.64178   -1532.2506    504.36118    317.24078    70.355402    39062.633 
  840300    303.40536   -1503.2153    499.11829      353.398   -83.179481    39062.633 
  840400     302.3871   -1537.0884      497.933    313.78368    5.9736786    39062.633 
  840500    298.33028   -1500.3835    540.29461    374.69925    265.31682    39062.633 
  840600    316.57507   -1492.3195    491.68168    415.78106    33.412062    39062.633 
  840700    287.84071   -1511.9849    485.16446    261.03531    92.154021    39062.633 
  840800    297.79004     -1516.94    522.55323    337.98421     33.70871    39062.633 
  840900    305.66301   -1509.3503    492.99758    351.24351   -307.43502    39062.633 
  841000    295.81893   -1509.5138    498.37328    312.41127   -765.10695    39062.633 
  841100    287.21432   -1470.0233    492.25056     307.2804   -1124.7119    39062.633 
  841200    293.37142   -1507.4718    476.81496    281.94436   -1283.9725    39062.633 
  841300     286.1516   -1509.1349    530.16747    301.33093   -488.10025    39062.633 
  841400    303.07982    -1568.417    489.04897     276.6705   -74.774431    39062.633 
  841500    307.68752   -1545.3783     488.5379     319.8138   -440.81771    39062.633 
  841600    297.32202   -1529.7438    496.85302    297.38617    135.99851    39062.633 
  841700    298.83624   -1513.0735    536.70811    360.68652   -257.75357    39062.633 
  841800    298.02413   -1464.5416    488.59769     357.4744   -433.32007    39062.633 
  841900    290.22004   -1503.1002    507.95191    303.35306   -516.54344    39062.633 
  842000    298.03819   -1523.0536    494.59561     305.0233   -595.49161    39062.633 
  842100    291.55032    -1553.475    508.22651    259.20473   -662.43418    39062.633 
  842200    300.03261   -1533.9377    493.65749    302.12449     126.0564    39062.633 
  842300    292.44619    -1541.378    485.52118    252.60477    93.025638    39062.633 
  842400    306.10823   -1494.1022     516.7247    392.21069   -263.00271    39062.633 
  842500    298.77104   -1516.7428    513.57304    333.59038   -216.48387    39062.633 
  842600    295.35009    -1525.461    498.82308    294.81628    82.651744    39062.633 
  842700    293.27659   -1548.8351     503.9611    267.30288   -166.30445    39062.633 
  842800     307.4914   -1518.7708    495.01699     352.0229    313.60506    39062.633 
  842900    300.31203   -1535.0684    525.66615    334.25264   -126.93338    39062.633 
  843000    283.92719    -1511.791    482.04698    240.60182    231.57262    39062.633 
  843100     306.8324   -1489.1581    534.86184    418.53202    208.50384    39062.633 
  843200    297.87925   -1491.0872    503.50591    345.18887   -88.961483    39062.633 
  843300    301.10382   -1538.3856    507.86574    316.67765   -498.56853    39062.633 
  843400     303.8091   -1548.8371    488.47886    298.94315    91.770997    39062.633 
  843500    306.33505   -1555.2264    481.46615    296.84277     43.14165    39062.633 
  843600    293.57159   -1535.3989    465.44712    243.54501   -166.52815    39062.633 
  843700    307.91369   -1538.9335    496.90828    335.64095    118.92802    39062.633 
  843800    302.55829   -1523.4742    491.07531    321.30619   -114.79266    39062.633 
  843900      295.534    -1531.266    505.30933    296.32035    195.22267    39062.633 
  844000    301.05307   -1509.4758    500.43444    337.92904    73.186517    39062.633 
  844100    305.57597   -1518.3836    478.60659     327.4297   -13.977493    39062.633 
  844200     298.2628   -1565.8475    505.27116    273.90983   -217.28851    39062.633 
  844300    296.65139   -1498.3682    498.46995    327.37818    -17.94452    39062.633 
  844400    303.42494   -1512.3014    487.34036    332.62157   -73.509048    39062.633 
  844500    300.93598   -1528.4385    494.90223    312.91032    -247.6961    39062.633 
  844600    286.76846   -1533.7506     520.8224    270.13008   -181.14326    39062.633 
  844700    291.39852   -1529.3649    486.75136    261.16052   -382.21738    39062.633 
  844800    295.06049   -1542.7201    509.79171       287.23   -143.49083    39062.633 
  844900    292.99188    -1544.795    495.42603    261.53405    162.83633    39062.633 
  845000    297.36988    -1530.327    512.37174    312.53582    12.135552    39062.633 
  845100    302.35027   -1539.5326     500.3887    313.63039    391.24041    39062.633 
  845200    308.05378   -1542.7096    537.07072    372.65404   -71.323183    39062.633 
  845300    301.21369   -1524.0063     526.6497     350.3324    10.344668    39062.633 
  845400    302.72798   -1499.7699    491.40517     346.0995    231.60006    39062.633 
  845500    288.59509   -1502.0676    516.66529     305.8286     -561.979    39062.633 
  845600     298.3309   -1546.0167    473.25094    262.02514   -165.53498    39062.633 
  845700    299.85088   -1560.6013    499.19089    280.18117   -242.49792    39062.633 
  845800      297.555    -1566.607    478.20226    242.91461    46.311084    39062.633 
  845900    292.29901   -1566.2947    475.36032    216.86862   -230.03036    39062.633 
  846000    305.17194   -1568.2122    474.21735    271.40423   -19.075835    39062.633 
  846100    298.40956   -1542.4462    482.84936    275.54597   -196.02692    39062.633 
  846200    285.75497   -1527.3578    519.10157    270.26744    86.126056    39062.633 
  846300    300.80733   -1588.9956    486.68373    243.55901    222.11383    39062.633 
  846400    289.73716   -1589.1979    499.18105    206.32398    319.21295    39062.633 
  846500    293.42248   -1586.5241    491.24278    217.54831   -149.09513    39062.633 
  846600    300.64197    -1638.473    452.08723    158.74533   -192.71314    39062.633 
  846700    300.30409   -1584.6841    499.88096    258.81618    29.843343    39062.633 
  846800    310.97579   -1652.2647    474.76949    213.87138    470.62059    39062.633 
  846900    295.15129   -1607.8242    498.16292    210.90345      391.957    39062.633 
  847000    298.83537   -1598.1722    484.48183    223.35762    847.59306    39062.633 
  847100    305.81481   -1580.3494    499.68617    287.61215    199.79982    39062.633 
  847200    299.33007   -1558.7379    460.35534    240.87884    40.731344    39062.633 
  847300    306.11585   -1476.7333     500.1269    393.01591   -197.66954    39062.633 
  847400    311.12292   -1538.4631    516.70737    370.26914   -638.29775    39062.633 
  847500    297.38295   -1554.7205    470.56609    246.39514   -474.99526    39062.633 
  847600    298.11711   -1510.1951     508.2021    331.84132    -1103.812    39062.633 
  847700     299.1859   -1553.7679    463.82672    248.67515    12.669188    39062.633 
  847800    299.08981   -1532.2816    496.22142    302.12621   -348.52267    39062.633 
  847900    290.25489   -1543.5444     475.9385    231.05135   -420.92441    39062.633 
  848000    290.90321   -1567.3077    453.33556    187.58585   -411.36676    39062.633 
  848100    299.97674   -1554.9916    491.29887    278.46203    356.11975    39062.633 
  848200    299.95501   -1511.7403    507.30847    337.62567    -164.7878    39062.633 
  848300    304.91152   -1518.3576    484.02733    329.90356    64.918848    39062.633 
  848400    304.31542    -1487.945    508.77303    382.39489   -139.42471    39062.633 
  848500    298.29904   -1498.7566    494.83367    330.72539    127.31439    39062.633 
  848600    298.17298   -1482.3166    501.69201    353.45977   -570.89773    39062.633 
  848700    292.59651   -1496.1567    488.45975    301.43717   -447.96827    39062.633 
  848800    295.24379   -1505.3709    482.57696     298.1846   -764.97425    39062.633 
  848900    302.08415   -1499.9018    484.32109    336.00296    96.712033    39062.633 
  849000    300.90657   -1496.2532    507.15533    357.21707    -565.3207    39062.633 
  849100     286.2997   -1506.9267    479.17506    253.20933   -503.25186    39062.633 
  849200    299.76464   -1520.2479    484.58569    305.54353    -752.2181    39062.633 
  849300    309.84072   -1486.8515    497.66676    397.10332   -281.77856    39062.633 
  849400    308.12254     -1495.71    496.54509    379.43572   -584.40612    39062.633 
  849500    297.30574   -1504.8999    500.95582       326.26   -483.34847    39062.633 
  849600    299.21097   -1489.9313    497.92521     346.7224   -479.86683    39062.633 
  849700    306.71199   -1466.6227    520.22764    425.89444   -517.22261    39062.633 
  849800    300.83542   -1477.4159    468.04269    336.62338    37.659947    39062.633 
  849900    309.18822   -1500.3897    487.68863    370.66763    199.51008    39062.633 
  850000     300.9703   -1493.8917    506.05962    358.76797   -438.73602    39062.633 
  850100    303.74296    -1498.001    493.43913    354.44359    84.884626    39062.633 
  850200     311.5544   -1493.4143    474.45273    374.99384    229.82805    39062.633 
  850300    306.07951   -1544.9579    469.83261    294.33436    267.08962    39062.633 
  850400     298.4145   -1501.7959    496.47806    329.84704   -17.016203    39062.633 
  850500    301.81066    -1538.141    503.40338    315.62239    139.98769    39062.633 
  850600    309.49364   -1564.5051    469.19397    289.42401    164.46265    39062.633 
  850700    308.13065   -1547.8773    475.02768    305.78731   -402.58024    39062.633 
  850800    304.90555   -1520.4521    493.07241    336.82748   -829.23711    39062.633 
  850900    300.63679   -1523.7812    473.65412    294.98082    -450.8582    39062.633 
  851000    294.19395   -1531.1685    495.32513    280.43793   -592.51785    39062.633 
  851100    320.70931   -1545.7008    512.21411    401.42955   -561.86044    39062.633 
  851200    295.71723   -1538.1811    469.01806    253.93381   -479.47379    39062.633 
  851300    318.10225   -1541.1036    505.32671    387.47489   -241.64113    39062.633 
  851400    293.00014   -1519.8836    497.31437     288.3708    -703.2629    39062.633 
  851500    299.79191   -1547.5851    504.16938    297.91198   -555.53599    39062.633 
  851600    299.33616   -1518.5914    500.94392    321.64114   -265.86679    39062.633 
  851700    295.43586    -1549.866    508.92875    280.90066   -360.55118    39062.633 
  851800    308.06595   -1571.8852    473.74482    280.20698     74.08595    39062.633 
  851900    302.94269   -1593.1349    475.97859    238.26857    250.13631    39062.633 
  852000    296.46821   -1547.4185    485.72489    264.76326   -142.50017    39062.633 
  852100    368.29967   -1557.8582    492.16226    582.14891    548.38292    39062.633 
  852200    274.32019   -1602.9388    448.49141    72.914864   -325.24892    39062.633 
  852300    259.72854   -1587.6606    486.95205    61.367832    422.53659    39062.633 
  852400    373.61666   -1555.5177    498.52591    614.64235    419.75139    39062.633 
  852500     253.6859   -1553.2984    483.83852     65.58051   -243.64753    39062.633 
  852600    300.21332   -1563.5214    482.96004    262.65179    376.20219    39062.633 
  852700    291.42556   -1547.7241    475.29956    231.47051    45.165376    39062.633 
  852800    301.85861   -1542.7927    501.22273     309.0046   -50.053025    39062.633 
  852900     297.8623   -1504.1535    502.07888    330.61962      -587.05    39062.633 
  853000    302.93232   -1484.8547     510.6712    381.19502   -667.56373    39062.633 
  853100    291.60979   -1499.5146    500.65068     305.8554   -467.41363    39062.633 
  853200    310.03047   -1489.4516    490.11213    387.79753   -351.55827    39062.633 
  853300    305.13054   -1474.4787    500.77839    391.51351   -520.48883    39062.633 
  853400    298.57572   -1496.2759    469.77636    309.38667   -643.36733    39062.633 
  853500    310.56493   -1503.4355     467.5655    353.65828   -414.38411    39062.633 
  853600    295.37147   -1506.3935    497.06383    312.22015   -247.36314    39062.633 
  853700    310.77786   -1497.6988     474.4365    367.21873    45.303581    39062.633 
  853800    306.47152   -1505.2153    499.04596    365.04431    36.643363    39062.633 
  853900    292.50538   -1499.8232    484.70647    293.60967   -727.32794    39062.633 
  854000    307.27698   -1499.2767    516.02959    391.57032   -321.13411    39062.633 
  854100    294.61705   -1481.6621     482.6253    319.13761   -142.07476    39062.633 
  854200    305.94205   -1513.2076    495.99042    351.62754   -151.30036    39062.633 
  854300    294.08508   -1552.5116    477.17339    240.45604    29.280331    39062.633 
  854400    307.17061   -1513.5129    475.70438    336.53297   -159.47105    39062.633 
  854500    293.70545   -1507.4548    489.47247    296.11343   -375.81297    39062.633 
  854600    295.91495   -1486.3042    507.82212    345.49934   -613.78503    39062.633 
  854700    303.91465   -1500.0014    485.85752    345.62981    16.116661    39062.633 
  854800     300.0024   -1481.8958     496.7412    357.11485   -307.66913    39062.633 
  854900    306.90185   -1475.7071     474.9473    372.37922   -315.68103    39062.633 
  855000    305.97739   -1488.4998    471.66862    352.17164    93.655716    39062.633 
  855100    301.42322   -1516.9971    489.86234    321.49176   -387.41219    39062.633 
  855200    308.00576   -1515.9264    504.35664    366.50832    384.19458    39062.633 
  855300    299.96455   -1510.9043    483.29172    314.48755    301.01321    39062.633 
  855400    300.33787   -1527.8732    518.16301    334.06027    800.21416    39062.633 
  855500    295.34512   -1516.7473    482.34409    287.02868    471.76312    39062.633 
  855600    298.00308   -1490.8627     495.1538    337.61527    203.32897    39062.633 
  855700    298.99065   -1475.6399    501.55753    363.66037   -7.2599351    39062.633 
  855800     297.1016   -1516.0529     515.8995    329.13736   -155.69234    39062.633 
  855900    301.15218   -1525.0955    492.40046    314.71879   -204.02465    39062.633 
  856000    290.52834   -1479.1529    499.06469    319.79251    248.28938    39062.633 
  856100    295.22522   -1493.5506    487.81585    315.16069     530.9365    39062.633 
  856200    293.80259   -1482.1756    502.26469    334.61944   -40.016898    39062.633 
  856300    306.07786   -1476.2314    500.38404    393.60497   -437.98479    39062.633 
  856400    314.16713   -1488.8793    477.65408    394.42005   -330.33373    39062.633 
  856500    295.28707   -1521.0796    486.50628    286.59883    191.20845    39062.633 
  856600    304.83192   -1527.8152     497.5509    333.61341   -111.83406    39062.633 
  856700    305.16486   -1510.5828    512.38998    367.17459   -109.19581    39062.633 
  856800    297.92006    -1528.417    485.52433    290.06007   -125.64345    39062.633 
  856900    299.64036   -1528.9917    489.34167    300.99963   -84.862289    39062.633 
  857000    310.08618   -1506.4356    505.67586    386.62658    130.21202    39062.633 
  857100    302.87914   -1498.3031    512.01295    368.85044    124.65399    39062.633 
  857200    293.90106   -1512.7065     491.8417     294.1061   -713.64483    39062.633 
  857300     308.2551   -1455.3878    490.44885     414.2547   -625.12311    39062.633 
  857400    300.94167   -1504.4798     478.9807    320.97283    -656.0736    39062.633 
  857500    296.16267   -1497.8969    496.61657    323.80946   -53.495689    39062.633 
  857600    297.00795   -1516.0315    459.13349    271.97371   -143.08974    39062.633 
  857700    303.99327   -1516.9973    460.53358    303.66175    429.06059    39062.633 
  857800    291.58752   -1518.7215    509.01824    294.91644    585.36658    39062.633 
  857900    302.98817   -1551.1036    491.33568    295.86046   -155.29641    39062.633 
  858000    289.66435   -1508.0065    505.82312     293.8317   -205.25751    39062.633 
  858100    303.97277   -1543.3596      488.177    304.85114   -493.12982    39062.633 
  858200     305.2269   -1533.8227    474.10003    305.92221    -338.6663    39062.633 
  858300    295.86124    -1524.834    491.60784    290.51494    326.83341    39062.633 
  858400     303.1015   -1575.9104    507.99869    288.22382    383.17665    39062.633 
  858500    297.49703   -1548.4847    488.61919    271.19445    177.25228    39062.633 
  858600    300.45737   -1541.1853    507.59381    310.71358    68.627778    39062.633 
  858700    286.68337   -1578.2932    480.57694    184.96129    307.73443    39062.633 
  858800    304.68169   -1581.6853    476.99015    258.51037    669.03642    39062.633 
  858900    309.14669   -1576.0526    492.05118    299.18145    255.03345    39062.633 
  859000    300.21341   -1520.2024    504.85717     327.8684   -110.29397    39062.633 
  859100    296.78649   -1500.5544    495.91358    323.24007   -311.06705    39062.633 
  859200     298.3102    -1532.607    494.80849    296.89972   -287.37266    39062.633 
  859300    304.02246   -1522.4531    501.37242    339.17539    313.83441    39062.633 
  859400    296.33111   -1584.2734    482.01424    223.58425   -307.77759    39062.633 
  859500    302.19846   -1521.5611    472.35199    302.88602   -173.68663    39062.633 
  859600    307.00809   -1506.5849    500.48261    367.51202    198.08707    39062.633 
  859700    304.18629   -1521.6055     499.7854    339.16892    356.56075    39062.633 
  859800     314.8307   -1509.7492    518.53441    417.39942    271.73632    39062.633 
  859900     296.2031   -1547.3434    497.91354    275.84078    143.60874    39062.633 
  860000    298.10876    -1503.784    498.70032    328.71331    41.413165    39062.633 
  860100    299.41525   -1527.0535      495.977    308.56599   -192.63466    39062.633 
  860200    295.10828   -1537.6827    490.30614    272.99568   -95.586026    39062.633 
  860300    300.65952   -1527.8581    505.71704    323.06855    37.336946    39062.633 
  860400    294.93246   -1513.5974     490.7301    296.71835   -104.64937    39062.633 
  860500    301.47514   -1551.0159    473.37659    271.21953    126.11306    39062.633 
  860600     303.5805     -1581.35    481.98995     258.9186    329.04188    39062.633 
  860700    295.70931   -1542.0327    513.33288    294.36158    15.163143    39062.633 
  860800    300.95584   -1571.8099    497.52585    272.25131    68.387236    39062.633 
  860900    292.04635    -1570.787    480.88089    216.76649    649.17452    39062.633 
  861000    299.00155   -1580.1484    489.67028    247.31341     93.98932    39062.633 
  861100    293.13479   -1555.1814     510.8628    267.22385    141.89182    39062.633 
  861200     311.7392   -1547.2578    496.57852    344.10294    275.42982    39062.633 
  861300    292.97632   -1537.7924    503.45295      276.494   -306.24491    39062.633 
  861400    295.65316   -1507.5195     504.8836    320.17429   -92.822212    39062.633 
  861500    303.89771   -1501.7795    482.55524    340.47362   -196.65086    39062.633 
  861600    291.34186   -1530.7995    505.59899    278.32007   -558.41842    39062.633 
  861700     287.6682   -1547.0766    479.25851    219.26577   -419.14361    39062.633 
  861800    296.37857   -1556.3555    481.57007    251.27032   -54.891205    39062.633 
  861900    300.08653   -1538.6849    492.23032    296.19139   -173.71005    39062.633 
  862000    299.05225   -1538.9958    491.41101    290.43357   -20.969083    39062.633 
  862100    310.21237   -1540.0971     524.5027    372.35648   -435.19409    39062.633 
  862200    300.19028   -1516.3203    495.58369    322.37353   -349.09825    39062.633 
  862300    296.86903   -1572.4977    464.87193    220.62438   -498.18644    39062.633 
  862400    304.91314   -1562.5909    486.32986    287.98009   -412.25296    39062.633 
  862500    297.71478   -1542.3854    480.36693    270.01576    45.956996    39062.633 
  862600    298.54653   -1579.3777    484.23047    240.60846    81.304113    39062.633 
  862700    293.42129   -1591.9304    503.12172    224.01567    118.60946    39062.633 
  862800    294.35622   -1588.1444    529.27515    258.13816    1061.8186    39062.633 
  862900    293.81367    -1621.378    467.65104    160.85298     965.9079    39062.633 
  863000    291.84768   -1606.2144    497.19976    196.76903    583.06614    39062.633 
  863100    302.15413   -1595.6668    470.94396    227.17392     709.2538    39062.633 
  863200    305.67998   -1589.5234    493.63402    271.78276    327.99695    39062.633 
  863300    319.12036   -1586.3335    475.79728    317.27082    212.65387    39062.633 
  863400    300.89411   -1538.7588    489.79826    297.29865   -159.27671    39062.633 
  863500    309.30807   -1563.0808    478.08333    298.90747   -120.96557    39062.633 
  863600    291.60498   -1556.0523    498.19481    246.84035    -516.3695    39062.633 
  863700    285.48219   -1572.8658    476.85206    181.28945   -427.34751    39062.633 
  863800     298.0514   -1602.1191    504.65996    236.08125   -369.42573    39062.633 
  863900     292.3225   -1572.3291    491.53584    227.11486   -78.348054    39062.633 
  864000    296.97632   -1543.9416    493.38814    278.17682     281.4622    39062.633 
  864100    298.52569   -1537.5489    512.47911    310.59264    199.41365    39062.633 
  864200    304.73168    -1558.741      525.859    330.54724     143.7941    39062.633 
  864300     297.2462   -1577.0778    487.87667    240.73664   -132.79479    39062.633 
  864400    297.41461   -1563.5692      498.289    265.41104   -226.37279    39062.633 
  864500    299.18592    -1532.305     521.4484    327.75981    284.26875    39062.633 
  864600    295.45675   -1551.0517    484.95148    255.83113   -206.12816    39062.633 
  864700    298.92215   -1551.6227     496.5366    282.35018   -81.665251    39062.633 
  864800     312.7797   -1548.8722    491.25623    341.82169   -164.76762    39062.633 
  864900    308.04482   -1568.5338    488.23308     297.9522   -979.85326    39062.633 
  865000    296.07971   -1555.6658    497.66998    266.72276   -229.08637    39062.633 
  865100    315.28053   -1577.6245    474.94642     307.9488    -325.3997    39062.633 
  865200    296.35759    -1539.581    498.76058     285.1415   -81.603796    39062.633 
  865300    301.89377   -1533.3152    488.71253    306.12923   -40.911805    39062.633 
  865400    303.11213   -1537.0229    484.51072    303.67083   -556.06993    39062.633 
  865500    293.72706   -1500.3858    507.37869     321.1853   -319.75579    39062.633 
  865600    303.35522   -1531.0979    489.43428    315.60704   -461.54714    39062.633 
  865700    310.49901   -1524.2898    480.29489    345.23845   -431.98518    39062.633 
  865800    295.42688   -1560.2431    477.05826    238.61287   -610.61892    39062.633 
  865900    297.76446   -1527.6428    524.70984    329.32352    70.324365    39062.633 
  866000    299.19936   -1545.3438    500.43519    293.76797   -332.79848    39062.633 
  866100    308.41727   -1567.3386     499.8366     312.4173    -277.2934    39062.633 
  866200    303.31881   -1593.8789    504.20958    267.43841   -570.26216    39062.633 
  866300    296.34975    -1584.378    465.67997    207.22883   -416.99194    39062.633 
  866400    310.87244   -1568.3601    514.29015    336.83428   -231.13013    39062.633 
  866500    308.55909   -1597.4215    496.65772    279.79004    570.95726    39062.633 
  866600    298.01384   -1599.0898     491.4763    225.75878    379.06363    39062.633 
  866700    287.84873   -1539.9183    516.08481    264.05815   -40.654995    39062.633 
  866800     302.8222   -1549.7313    488.96185    294.11639    179.25422    39062.633 
  866900    309.63078    -1565.054    485.67074    305.96551    7.2573168    39062.633 
  867000    311.96153   -1539.5826    474.12709    330.32147   -368.53439    39062.633 
  867100     290.5642   -1550.9447    502.72287    251.81932   -575.60245    39062.633 
  867200    288.41243   -1509.9522     497.0606    277.52216   -683.20713    39062.633 
  867300    303.87591   -1498.5131    502.68042    363.76769   -604.20397    39062.633 
  867400    301.42256   -1537.1069    470.21153    281.72818   -639.46384    39062.633 
  867500    309.18173   -1523.6816    506.42003      366.078   -857.86975    39062.633 
  867600    294.83573   -1554.7669    495.57349    259.95944   -341.38645    39062.633 
  867700    309.39497   -1491.9061    498.56884     390.9565    -416.1189    39062.633 
  867800    296.38696    -1442.669    499.01041    382.43476   -758.13887    39062.633 
  867900    302.36508   -1471.6641    505.59696    386.77347   -408.74151    39062.633 
  868000     309.0767   -1486.3376    491.98775     388.5198   -767.40558    39062.633 
  868100    301.41214   -1512.3264    491.67712    327.92774   -490.04648    39062.633 
  868200    306.88058   -1519.7572    506.37193    359.65858   -312.27196    39062.633 
  868300    310.48845   -1522.3382    503.42042    370.26838    159.28489    39062.633 
  868400    293.13649   -1508.4263      492.887    296.01077    78.955287    39062.633 
  868500      310.974   -1526.8903    507.94391    372.41223    284.47118    39062.633 
  868600    302.72082   -1530.8428    461.59386     285.1833     97.79112    39062.633 
  868700     291.8307   -1536.4577    491.29324    260.54323   -67.480925    39062.633 
  868800    291.70325    -1551.489    503.08738    256.73585   -403.15554    39062.633 
  868900    305.15709   -1565.0917    489.02504    289.26589   -251.23657    39062.633 
  869000     294.7534   -1574.8412    470.55089     214.4941   -428.24873    39062.633 
  869100    300.58713   -1531.2702    507.08184    320.69731    -343.2494    39062.633 
  869200    294.20658   -1521.1504    514.66568    309.85318   -458.70437    39062.633 
  869300    309.29146   -1521.1853    512.37104    375.01638   -416.11096    39062.633 
  869400    301.59561   -1536.8389    487.84767    300.40659   -279.27044    39062.633 
  869500     305.6822   -1534.0997    504.70731    338.28969   -208.53351    39062.633 
  869600    293.68452   -1579.9711     460.3049    194.33593   -64.807418    39062.633 
  869700    314.30686   -1570.1674    512.83565    348.93866   -97.372447    39062.633 
  869800    294.30636   -1543.4813     500.1375    273.44049    -274.6778    39062.633 
  869900     295.2887   -1537.2056    500.54963    284.52355   -115.18646    39062.633 
  870000    308.90315   -1554.2686    486.89994    314.72455   -285.65374    39062.633 
  870100    296.83747   -1528.7613    509.87323    309.22096   -364.53208    39062.633 
  870200     302.2862   -1549.3094    519.68523    322.86349   -290.82571    39062.633 
  870300    309.25774   -1542.0922    503.23648    344.82399    286.43138    39062.633 
  870400    299.01005   -1522.8805    473.25542    288.20448    207.51895    39062.633 
  870500    302.41955   -1551.8529    498.60173    299.83312   -350.00897    39062.633 
  870600    310.54316   -1566.4018    485.94276    308.97189   -118.14059    39062.633 
  870700    286.99628   -1566.6778    484.91304    202.31282    287.70495    39062.633 
  870800    296.18268   -1542.3371    512.57415    295.41637    220.86919    39062.633 
  870900    294.82098   -1561.1755    482.38944    240.30073     492.6966    39062.633 
  871000     296.4923   -1546.8863     464.0846    243.76295    256.85007    39062.633 
  871100    295.15186   -1545.6355    507.32698    282.25876    70.021229    39062.633 
  871200    305.06213   -1533.9966    521.47132    352.38248   -194.24002    39062.633 
  871300     306.8995   -1525.9596    508.64946     355.8183   -276.79204    39062.633 
  871400    292.34635   -1544.1433    490.92926    254.80084   -549.36465    39062.633 
  871500    295.21061   -1577.4607    477.93937    221.30876   -535.29938    39062.633 
  871600    306.22264   -1539.5224    510.38559    340.96322   -135.42262    39062.633 
  871700    304.10564   -1553.3819    504.78765    312.03393   -292.85137    39062.633 
  871800    302.15721   -1538.8777    502.11321    315.14605    137.20985    39062.633 
  871900    310.81916   -1591.7686    455.61437     254.5116    331.67229    39062.633 
  872000    295.42698   -1538.6907    505.05188    288.15934    564.21035    39062.633 
  872100    301.50466    -1581.918     473.7732    240.84616     840.1022    39062.633 
  872200    300.33202   -1590.6847    483.89193    236.95155    565.16054    39062.633 
  872300     301.2899   -1625.7037    485.13051     207.4569    381.75186    39062.633 
  872400     295.9378   -1587.8691    476.71157     212.9261    142.23691    39062.633 
  872500    296.54466   -1562.3723    507.30259     271.7292    85.301611    39062.633 
  872600    290.39141   -1537.9155    487.65391    249.00647   -462.68393    39062.633 
  872700    308.65882   -1538.2476     474.5492    317.30169   -253.27454    39062.633 
  872800    295.14537   -1596.4744     505.6063    229.67009   -86.382022    39062.633 
  872900    315.02905   -1595.9172    468.79631    282.38077    155.39943    39062.633 
  873000    309.28106   -1544.8402    482.14476    321.08861    271.97646    39062.633 
  873100    295.95644   -1576.9444    489.09783    236.32051   -208.37297    39062.633 
  873200    297.82609   -1553.3262    480.73459    259.94068    65.334483    39062.633 
  873300    297.86007   -1568.6864      491.243    255.24092    261.64379    39062.633 
  873400    303.43208    -1564.365    454.77702    248.02655    124.40815    39062.633 
  873500    301.11398   -1539.7252    500.17797    307.69571     723.0943    39062.633 
  873600    313.39193   -1553.4261    468.14822    316.89898   -13.185002    39062.633 
  873700    297.56466    -1573.157    473.48999    231.69555     -152.999    39062.633 
  873800    296.50526   -1550.1189    469.55337    246.05715   -265.28371    39062.633 
  873900    304.15401   -1547.4391    490.10512    303.51064   -683.08123    39062.633 
  874000      297.038   -1538.5061    503.26806    293.76811   -187.36072    39062.633 
  874100    302.53257   -1574.3548    482.71426    261.94949    230.29643    39062.633 
  874200    297.95703   -1558.8509    490.65801    264.92523    68.125831    39062.633 
  874300    295.43742   -1533.4875    505.10678    293.46417   -103.79117    39062.633 
  874400     293.3973   -1531.7251    511.12733    292.11922    115.72512    39062.633 
  874500     300.7323   -1557.4675    492.66978     280.7375    238.22154    39062.633 
  874600    299.40041   -1550.0268      460.317    249.86631      311.058    39062.633 
  874700    305.64983   -1561.7579    477.53845    283.31777   -211.30264    39062.633 
  874800    303.39582   -1570.0101    489.52424    276.96641    370.63306    39062.633 
  874900    302.46893   -1566.2945     487.7762    274.78699    529.13321    39062.633 
  875000    313.35246   -1523.7771    475.19591    353.41908    427.10407    39062.633 
  875100    300.49003   -1505.3584    486.16612    325.25899    325.25755    39062.633 
  875200    306.38856   -1555.4527    502.10144    317.49121    478.60694    39062.633 
  875300    300.62669   -1555.0514    452.63782    242.64915   -195.85415    39062.633 
  875400    298.15052   -1537.1517    504.06251    300.89467    356.71755    39062.633 
  875500     291.0449   -1554.2351     473.2294    221.18623   -18.976882    39062.633 
  875600    311.63093   -1523.4049    486.91875     357.8117    449.50906    39062.633 
  875700    297.17244   -1560.7314    452.29278    221.16911    454.73878    39062.633 
  875800    297.75063   -1485.6223     487.0227    333.59502     180.4242    39062.633 
  875900    303.70807   -1496.0041    496.81323    359.65853    538.50722    39062.633 
  876000    295.72824   -1520.6238    486.67057    289.19286    454.80391    39062.633 
  876100    307.53419   -1514.8183    524.54464     385.6945     336.0911    39062.633 
  876200    297.18642   -1496.4044    484.12945    317.39531   -179.44781    39062.633 
  876300    311.26578   -1528.9321    473.75166    337.48362   -271.94013    39062.633 
  876400     301.3148   -1509.1471    507.64352    346.63785   -356.12424    39062.633 
  876500     295.1608   -1540.5901    483.13854    263.15566    -441.7563    39062.633 
  876600    297.01708   -1545.6755    471.61681    254.85386   -185.03125    39062.633 
  876700    302.09591   -1550.0784    464.26892    265.82678    21.478956    39062.633 
  876800    297.71887   -1554.6485    474.81598    252.21999    452.42944    39062.633 
  876900    301.06675   -1553.4061    472.84975    266.47525    119.74287    39062.633 
  877000    292.74937    -1579.598    490.66558    220.88559    337.62045    39062.633 
  877100    294.46949   -1525.5103    477.76919    269.77313   -346.92852    39062.633 
  877200    305.12806   -1502.3377    486.75478    349.61982   -520.20278    39062.633 
  877300    308.83559   -1506.4077    495.98409    371.36732   -375.07293    39062.633 
  877400     301.2948   -1500.7446    494.79758    342.10499   -516.24883    39062.633 
  877500    303.46587   -1527.2845    483.20435     313.6856    327.78841    39062.633 
  877600    301.16381   -1515.2291    474.75105    306.98783   -61.215359    39062.633 
  877700    301.84783   -1522.3601    499.56696    327.73318    219.54167    39062.633 
  877800    299.72282   -1520.7743    480.79718     301.0415    415.50099    39062.633 
  877900    303.82182   -1497.6924    530.07576     391.7417    106.56904    39062.633 
  878000    305.80706   -1511.9797    476.07998    332.34099    503.18269    39062.633 
  878100    296.01778   -1566.2681    485.64653    243.81999    -326.8185    39062.633 
  878200    312.60195   -1576.8603     440.6071    262.38917   -240.61923    39062.633 
  878300    310.36773   -1519.3338    478.24021    347.55246   -529.92144    39062.633 
  878400    293.18816   -1535.3387    490.96947    267.41197   -641.62578    39062.633 
  878500    292.18157   -1526.4911    478.97745    259.76392   -618.74989    39062.633 
  878600    304.38584   -1505.0331    507.93097    364.77972   -403.25494    39062.633 
  878700     312.4729   -1466.2404    495.44808    427.27268   -750.09471    39062.633 
  878800    301.28962   -1474.4156    508.37751    381.99065   -526.15554    39062.633 
  878900    294.29004   -1555.8753    468.31537    229.15133   -13.438196    39062.633 
  879000    303.74059   -1538.6929    503.04163    323.34363   -273.08515    39062.633 
  879100    312.06913   -1500.4679    462.70435    358.49486   -135.53703    39062.633 
  879200    290.47102    -1515.276    482.59751    266.94579   -115.55104    39062.633 
  879300    293.35896   -1569.5223    483.13735    226.16049    850.75147    39062.633 
  879400     297.1388   -1600.0138    488.25888    217.70225    489.67239    39062.633 
  879500    296.56531    -1576.124    463.83526    214.60257    753.62389    39062.633 
  879600    284.50505   -1572.4149    491.51227    192.02866    343.54718    39062.633 
  879700    316.51363   -1535.0377    473.46832     354.5746    334.33698    39062.633 
  879800    303.49108   -1531.0384    479.24371    306.08387    2.8934741    39062.633 
  879900    293.51996   -1561.7423    464.47853    216.00205    181.02531    39062.633 
  880000    301.83588   -1556.2551    482.38762     276.6054    437.58497    39062.633 
  880100    294.92286   -1525.0922    512.54013    306.99061   -186.75991    39062.633 
  880200    293.92045    -1577.743    503.24434      240.559    388.13042    39062.633 
  880300    292.72028   -1565.6886    489.87919    233.87853   -68.594684    39062.633 
  880400    288.97467   -1567.0384    491.11354    217.00442     92.11396    39062.633 
  880500     303.0379   -1537.1229    474.46053    293.18851   -353.86609    39062.633 
  880600    299.35908    -1508.832    485.59265     316.1518   -381.60246    39062.633 
  880700    294.83898   -1526.8098     500.6502    293.00777   -412.76609    39062.633 
  880800    302.70915   -1524.2959    472.54249    302.62663   -462.31088    39062.633 
  880900    294.96956   -1528.6479    490.35633    281.46003   -544.77472    39062.633 
  881000    298.94881    -1534.491    500.10219    303.16673   -16.969536    39062.633 
  881100    290.83032    -1535.772    499.00355    264.46335   -722.46511    39062.633 
  881200    295.87361   -1547.6566    498.22113    274.36099   -483.21169    39062.633 
  881300    300.43352   -1564.5624    477.01173    256.64776   -368.22263    39062.633 
  881400    312.02587   -1532.6648    473.29256    336.69262    -391.4249    39062.633 
  881500     308.3543   -1541.5763    508.36463    346.42582     4.248572    39062.633 
  881600    302.18719   -1512.4327    492.75606    332.36805    131.54526    39062.633 
  881700    312.65349   -1550.8517    505.60271    353.62396    206.16541    39062.633 
  881800    294.73693   -1527.7437    475.79206    266.75907   -391.16585    39062.633 
  881900    297.02367   -1549.1113    509.01417    288.84491   -234.42823    39062.633 
  882000    302.94518   -1526.3082    468.49866    297.62659   -286.33211    39062.633 
  882100    297.71738   -1516.8406    494.10061    309.30589   -369.07196    39062.633 
  882200    304.10496   -1558.2495    512.24331    314.61894   -53.849746    39062.633 
  882300    296.98043   -1571.6512    492.20676    249.30421   -466.88139    39062.633 
  882400    293.78349   -1571.0231    473.24016    216.66192   -444.89943    39062.633 
  882500    301.68654   -1559.7239    494.32157    284.40229    99.448164    39062.633 
  882600    315.14169   -1524.3265    485.41728    371.09645   -65.685193    39062.633 
  882700    306.76585   -1552.3722    488.01871    308.17697   -933.19708    39062.633 
  882800    298.43888   -1536.6267    486.87163    285.51895   -724.11568    39062.633 
  882900    299.86387   -1520.5169    488.48998    309.62274   -143.31031    39062.633 
  883000    305.72048   -1571.4955    499.84933    296.20712    111.56636    39062.633 
  883100    311.09906   -1553.6678     486.2563     324.5066   -114.78846    39062.633 
  883200    303.22496   -1511.2016     480.4842    325.97046     267.0485    39062.633 
  883300    301.44229   -1548.9926    478.83222    278.55147   -23.747532    39062.633 
  883400    305.25668   -1504.3665    501.70306    363.11469    415.76837    39062.633 
  883500     302.5191   -1514.0482    499.11134    338.59282   -41.188155    39062.633 
  883600    303.73403   -1505.4453    528.89724    382.41749   -42.759437    39062.633 
  883700    305.26384   -1485.6356    492.49433    372.66898   -71.154102    39062.633 
  883800    291.12599   -1453.0409    535.20397    384.71776   -89.788253    39062.633 
  883900    294.57623     -1469.58    465.20438    313.61608   -785.66525    39062.633 
  884000    295.13503   -1500.5828     487.7518    307.66094   -418.29744    39062.633 
  884100    304.08397   -1541.6893    474.16025    293.00227   -483.53045    39062.633 
  884200      300.823    -1509.911    493.62456    329.65456   -419.95819    39062.633 
  884300     296.4844   -1485.2862    504.85238    346.09539   -291.78942    39062.633 
  884400    299.25205    -1531.147    507.77569    315.54095   -680.12084    39062.633 
  884500    294.01756   -1458.2309    490.42432    347.68552    -425.9731    39062.633 
  884600    285.62403   -1468.5131    503.63991    313.06468    -405.4642    39062.633 
  884700    305.94277   -1493.5435       515.82    391.12445    526.57286    39062.633 
  884800    297.61205   -1502.6483    480.96392    309.89022   -177.04336    39062.633 
  884900    296.24285   -1450.5459     500.9864    375.88909    479.22671    39062.633 
  885000    297.00275   -1542.8865    489.09075    275.05275   -192.01935    39062.633 
  885100    291.92846   -1568.5693    481.99933    219.57512    233.27339    39062.633 
  885200    297.79667   -1521.7636    513.30487    323.94186    206.17047    39062.633 
  885300    301.09657   -1528.2479    484.99316    303.91035    304.07374    39062.633 
  885400    300.16314   -1526.2818    502.99483    319.70174    254.96175    39062.633 
  885500    295.55218   -1517.6372    476.15601    280.87719     189.7027    39062.633 
  885600    296.05046   -1502.1408     490.7292    313.17618   -216.93776    39062.633 
  885700    310.46704   -1526.5506    492.44467    354.98445    197.31222    39062.633 
  885800    292.34189   -1491.2077    485.47492    302.26214    460.48315    39062.633 
  885900    295.33215   -1519.2215     511.3643    313.51672    322.87401    39062.633 
  886000    299.78385   -1475.7697      512.853    378.37501    324.04096    39062.633 
  886100    304.63313   -1489.8484    499.67661    372.81652    419.84854    39062.633 
  886200    298.92365   -1495.2625      499.344    341.52444    82.510733    39062.633 
  886300    301.65623   -1495.1341    495.05183    349.58683    74.405316    39062.633 
  886400    288.08196    -1441.366    467.69419    315.26328   -166.27579    39062.633 
  886500    309.49383   -1492.2919    496.46104    388.90515   -303.52244    39062.633 
  886600    284.58034    -1472.393    470.47334    271.34856   -43.779427    39062.633 
  886700    295.53739   -1482.7334    477.21545    316.77425   -633.23635    39062.633 
  886800    306.74053   -1536.4612    488.49323    324.44921   -395.17224    39062.633 
  886900    296.19428   -1501.0272     462.5608    286.76487   -83.914976    39062.633 
  887000    302.27384   -1522.4349    470.86471     300.8622   -52.262176    39062.633 
  887100    300.24072   -1559.0045    463.46754    247.79887    439.69729    39062.633 
  887200    296.42892   -1553.9606    479.54046    251.86088    599.06094    39062.633 
  887300    299.93292   -1560.4299    480.37735    261.90609    198.97851    39062.633 
  887400     292.1855   -1562.1429    496.44397    241.59627    171.06777    39062.633 
  887500    296.90215   -1535.5624     477.4659    270.30189    180.29566    39062.633 
  887600    291.80572   -1534.0318    466.14955    237.71373   -46.514588    39062.633 
  887700    309.12452   -1523.1212    493.60283    353.56531    184.91864    39062.633 
  887800    294.60144   -1511.0532    487.25255    294.30385    383.31814    39062.633 
  887900    299.33444   -1533.8182    498.00971    303.47249   -78.335709    39062.633 
  888000    298.35536   -1468.9654    511.02646     376.9614    76.950216    39062.633 
  888100    309.08404   -1516.3196    463.81667    330.39959     55.46003    39062.633 
  888200    305.79195   -1526.0292    472.74526    314.88912     376.2984    39062.633 
  888300    294.72829   -1506.8496    498.67038    310.49293    76.386895    39062.633 
  888400    300.86744   -1516.0736    486.80847    316.87474    166.21352    39062.633 
  888500    296.67598   -1488.8311    481.48212    320.03747    68.247629    39062.633 
  888600    301.03831   -1497.0723    487.50111     337.3332     103.0864    39062.633 
  888700    304.26695   -1532.9944    476.13459    304.49014    790.13085    39062.633 
  888800    298.96896   -1532.9459    482.23622    286.93605    374.19108    39062.633 
  888900    297.96305   -1535.2666    480.11621    277.99467    778.43964    39062.633 
  889000    299.41843   -1536.6357    493.10366    296.12464    479.26315    39062.633 
  889100     305.3116   -1513.1464    477.89111    330.76859    66.393527    39062.633 
  889200    291.15347   -1517.6679     485.0991    270.10887   -272.14368    39062.633 
  889300    290.85969   -1526.9792    481.81512    256.19914   -621.46241    39062.633 
  889400    305.60275   -1484.5254    486.89513    369.69633   -415.45197    39062.633 
  889500     311.3694   -1524.1958    480.59998    349.53188   -279.23305    39062.633 
  889600    295.59413   -1557.8839    497.39983    262.06197    72.183369    39062.633 
  889700    292.97268    -1562.415    514.99502    263.39713    164.67263    39062.633 
  889800     299.7549   -1547.2636    492.61067    286.50926   -5.4754922    39062.633 
  889900     303.6738   -1576.8616    468.85333    250.68781   -304.81545    39062.633 
  890000    299.82039   -1567.0092    479.92911    254.37509   -44.450547    39062.633 
  890100    290.70927   -1571.0851    478.85563    208.46077    19.831337    39062.633 
  890200    302.60339   -1566.1907    496.24223     283.9584    335.04685    39062.633 
  890300    302.57997   -1556.3662    483.23524    280.67107    623.19556    39062.633 
  890400    293.99645   -1536.9015    487.07111     265.5673   -22.858663    39062.633 
  890500      302.243   -1532.8662    487.41932    306.84752    368.95548    39062.633 
  890600    297.49377   -1559.1295    480.69847    252.61434    534.37696    39062.633 
  890700    299.41768   -1513.7404    498.64178    324.55474    221.86591    39062.633 
  890800    296.54441   -1492.0405    493.87305    328.63033    132.94439    39062.633 
  890900    291.99836   -1521.9495    488.23276    272.74112   -367.39578    39062.633 
  891000    306.35785   -1523.1049    494.23763    341.83778    116.41412    39062.633 
  891100    311.09298   -1515.6204    482.35508    358.62557     371.9999    39062.633 
  891200    298.03714    -1550.404    486.58004    269.65262    357.30808    39062.633 
  891300    303.21908   -1489.4648     514.7224    381.91917    236.43178    39062.633 
  891400    302.18394   -1507.8694    480.84883    325.00958    320.91205    39062.633 
  891500    292.69289   -1522.2961    488.91856    276.18777   -73.140156    39062.633 
  891600    286.88231   -1519.0282    504.72118    269.26062     412.7413    39062.633 
  891700    301.17995   -1549.0123    500.93646    299.46224    334.40304    39062.633 
  891800    304.41537   -1508.5112    478.88012    332.38295   -229.25649    39062.633 
  891900    305.95002   -1502.7638    495.62914    361.74567   -486.79865    39062.633 
  892000    306.68186   -1505.7567    500.36581    366.76383   -64.357972    39062.633 
  892100    297.51948   -1509.7431    460.37001    281.78736    68.397825    39062.633 
  892200    296.02932   -1519.1256    454.77499    260.14258      -717.38    39062.633 
  892300    296.88325   -1533.9253    490.31392    284.70246   -101.73035    39062.633 
  892400    301.77277   -1554.1359    468.06024    264.11479    -773.1512    39062.633 
  892500    299.06539   -1492.6789    474.52695    319.92519   -613.30403    39062.633 
  892600    293.62173   -1495.5019    475.77069     293.9899   -864.77786    39062.633 
  892700    303.95159   -1551.1537     475.8079    284.59316   -640.35415    39062.633 
  892800    315.27202   -1561.6986    493.28072    342.17094   -369.63838    39062.633 
  892900    301.91129   -1576.1297    476.28094    250.96143   -379.97178    39062.633 
  893000    296.03391   -1544.9066    457.30841    236.91551   -556.44785    39062.633 
  893100    305.07122   -1603.1222    475.28262    237.10885   -135.77384    39062.633 
  893200    296.09002   -1575.8913    474.02388    222.89736   -212.94316    39062.633 
  893300    298.98089     -1578.57    481.24751    240.37655    -629.2521    39062.633 
  893400    302.99054   -1605.6691    438.57345    188.54343   -153.20607    39062.633 
  893500    291.93101   -1566.2228    499.07251    239.00625    107.72596    39062.633 
  893600    299.52808   -1576.2545     472.2035    236.09637   -478.20803    39062.633 
  893700    294.55349   -1586.2919    442.30819    173.90632    28.584615    39062.633 
  893800    302.73846   -1537.0974    496.34875    313.76245    222.31889    39062.633 
  893900    304.86358   -1573.1991    477.51421    268.33444     619.7938    39062.633 
  894000    298.01325   -1574.1252    486.97074    246.21516    99.053851    39062.633 
  894100    306.66757   -1514.4871    492.41603    350.01968   -185.60804    39062.633 
  894200    306.16937   -1538.6975    457.98519    289.14944   -98.833986    39062.633 
  894300    307.27681   -1510.3382    507.20058    371.67898    221.12158    39062.633 
  894400    308.37431   -1485.3085    478.14617    372.56473   -526.90693    39062.633 
  894500    291.35659   -1484.5453    475.25533    294.29652    304.67794    39062.633 
  894600    295.45795   -1531.2031    481.68407    272.41767   -181.63716    39062.633 
  894700    298.08516   -1536.2402    486.78087    284.23211   -190.05045    39062.633 
  894800    299.09982   -1536.1808     483.6901    285.74048   -576.90749    39062.633 
  894900    292.83504   -1539.6014    445.07631    215.67625   -259.24054    39062.633 
  895000    312.08901   -1563.2825    505.50532     338.5702   -395.02659    39062.633 
  895100    307.09178   -1523.8635    488.83137    338.95665   -233.09272    39062.633 
  895200    303.24711   -1524.3985    505.14173    337.53018    328.36407    39062.633 
  895300    294.95193   -1515.3829    480.68054    284.97036    310.84225    39062.633 
  895400    306.83628   -1523.4194     488.7792    338.20539    313.14326    39062.633 
  895500    297.19823   -1489.3804    491.95435    332.29709   -69.601941    39062.633 
  895600    298.75755   -1494.2133    462.30883    304.79535   -80.147133    39062.633 
  895700    295.70849   -1515.7279    504.63594    311.96572   -529.31365    39062.633 
  895800    295.34033    -1473.977    507.60191    355.03544   -610.12045    39062.633 
  895900    294.64453   -1519.6332    463.39993    262.06405   -83.193222    39062.633 
  896000    301.88686   -1500.2534    498.85935     349.3069   -53.998053    39062.633 
  896100    294.52108   -1509.0105    491.99292    300.72739    194.18487    39062.633 
  896200    287.81827   -1524.4936    501.11033    264.37209    239.35191    39062.633 
  896300     300.6972    -1497.108    496.49589    344.76609    73.369981    39062.633 
  896400     308.3589   -1501.9071    475.23835    352.98934    22.013532    39062.633 
  896500    295.99586   -1499.3131      486.784    311.81433   -364.40438    39062.633 
  896600    309.88375   -1565.5645    454.65515    275.57127    136.94975    39062.633 
  896700     308.5786   -1512.5868    482.74699    350.80125    310.92908    39062.633 
  896800    300.98857   -1542.2029    497.67008    302.14901    54.188657    39062.633 
  896900    310.33003   -1525.0618    463.18154    326.59705     125.9111    39062.633 
  897000    298.24075   -1506.9446    489.75166    317.19459    53.922456    39062.633 
  897100    298.52346   -1572.5085    462.69275    225.83674   -525.99741    39062.633 
  897200    309.18669    -1564.684    475.58815    294.26594   -141.32147    39062.633 
  897300    315.59246   -1522.4188    490.96053    380.56424      200.042    39062.633 
  897400    297.34478   -1533.6078    475.27128    272.04226    393.72684    39062.633 
  897500    294.52837   -1558.5324    485.42016    244.66542    36.985593    39062.633 
  897600    297.30115   -1531.4606    444.39777    243.12072    107.63231    39062.633 
  897700    301.04534   -1556.5039    467.59164    258.02357    541.96303    39062.633 
  897800    293.06283   -1553.2444    473.24324    231.21934    633.51197    39062.633 
  897900    305.17238    -1538.853    501.78435     328.3324    588.79631    39062.633 
  898000    302.17515   -1520.2375     494.7185    326.47181    563.32623    39062.633 
  898100    303.25641   -1540.4563    502.76455    319.13686     278.4424    39062.633 
  898200    296.86808   -1551.3251    486.27267     263.1935   -137.06033    39062.633 
  898300    309.35688   -1523.3142    500.41606    361.22511    40.666297    39062.633 
  898400    301.63465   -1546.6177    498.60388    301.55872   -4.4243782    39062.633 
  898500    295.58624   -1565.4113    485.90205    243.00152   -352.71998    39062.633 
  898600    298.13783   -1526.4372    477.58697    285.07687    37.068248    39062.633 
  898700     293.2552   -1545.4884    488.09464    254.68744   -23.340696    39062.633 
  898800    297.32275   -1564.9239    477.81458    243.17091   -456.41712    39062.633 
  898900    302.58016   -1535.1572    473.38323    292.02891   -91.594679    39062.633 
  899000    309.55731   -1542.2164    491.07647    333.88014   -745.18841    39062.633 
  899100    298.26351   -1548.8071     450.0994    235.78162   -537.79726    39062.633 
  899200    292.31258   -1590.2885    483.50862    201.08383   -333.19915    39062.633 
  899300    307.03692   -1535.8273    471.44269    309.35872   -164.48813    39062.633 
  899400     294.7278   -1592.8874    481.98547    207.76798   -105.89269    39062.633 
  899500    301.80306   -1586.7373     459.5079    223.09665   -119.12528    39062.633 
  899600    309.18138   -1569.3603    474.11282    288.09053   -425.10565    39062.633 
  899700    297.04759   -1597.7116    454.33342    185.67093   -416.57892    39062.633 
  899800    299.45174    -1536.351    502.94218    306.39693    45.186589    39062.633 
  899900    294.76217   -1552.9668    493.06826    258.92512    151.95275    39062.633 
  900000    295.66172   -1527.4422    486.13827    281.54457    8.4881487    39062.633 
  900100    311.03861   -1523.3599     489.7169    358.00466    370.36593    39062.633 
  900200    296.95355   -1534.5929    471.83278    265.86821    288.59535    39062.633 
  900300    306.27809   -1524.1409    516.03352    362.24085    674.93044    39062.633 
  900400    300.31931   -1515.7437    474.28456    302.22829    589.10767    39062.633 
  900500    300.06326   -1529.1863    500.34599    313.70149     73.71702    39062.633 
  900600     299.0965   -1545.3431    500.16308     293.0363    544.16889    39062.633 
  900700    290.80987   -1574.7915    470.22769    196.57649   -254.72876    39062.633 
  900800    306.12527   -1573.4734    493.83195      290.023   -140.77253    39062.633 
  900900     305.4416   -1570.5066    477.39226    273.49123    47.433044    39062.633 
  901000    302.74369   -1592.1285    470.75752    233.16364    550.62162    39062.633 
  901100    297.47805   -1552.4332    495.39017    273.93205    42.300404    39062.633 
  901200    303.12015   -1572.2575    505.03137    288.99281    605.18476    39062.633 
  901300    311.71517   -1534.4765    479.82602    340.02423    551.07058    39062.633 
  901400    304.45235   -1585.4479    489.60929    266.34082   -270.89911    39062.633 
  901500    304.38203    -1559.791    500.96144    303.03524     387.1921    39062.633 
  901600    302.90183   -1547.4785    477.58444      285.348    216.13348    39062.633 
  901700     307.4926   -1573.6957    479.84086    281.92726   -234.71215    39062.633 
  901800    303.39049   -1540.9797    472.02711    288.47595   -306.15222    39062.633 
  901900    299.88178   -1540.4084    465.89105    267.21252   -419.45614    39062.633 
  902000    294.89276   -1538.4305    487.83983    268.81727   -287.37431    39062.633 
  902100    307.32579   -1562.4044     495.3169    307.94829    223.35299    39062.633 
  902200     300.8096   -1554.7538    462.63952    253.76677   -397.67059    39062.633 
  902300    300.26396   -1548.5044    463.53621    258.47161   -230.34853    39062.633 
  902400    290.68193   -1528.0874    458.81633    231.29686      -151.85    39062.633 
  902500    297.50738   -1555.8208    462.70564    237.99119    44.879054    39062.633 
  902600    293.32371   -1575.8338    484.66874    221.22264   -309.31694    39062.633 
  902700    301.05189   -1516.2022    490.58599    321.34889   -126.14696    39062.633 
  902800    302.49933    -1540.703    465.63163    278.36986   -22.649313    39062.633 
  902900    294.79785    -1557.474    475.76713     237.2764    28.854324    39062.633 
  903000     311.4244   -1558.4225     487.3515    322.30277   -233.80473    39062.633 
  903100    309.42812   -1549.7394    486.34543    321.04808   -288.20667    39062.633 
  903200    299.98536   -1519.5482     475.6597    298.30473    -56.27479    39062.633 
  903300    296.09469   -1576.4843    456.00184    204.30317   -683.65773    39062.633 
  903400    294.59516   -1544.5309     502.9547    276.50022   -782.43108    39062.633 
  903500    294.90646   -1536.9369    478.91031    261.44262   -675.23148    39062.633 
  903600    294.41626   -1579.0216    486.13012    224.38457   -342.70912    39062.633 
  903700    311.74628   -1595.3962    478.06153    277.47929   -120.40247    39062.633 
  903800    300.53748    -1559.964     450.6912    235.39072   -435.82109    39062.633 
  903900    297.69852   -1513.6306    490.81242    309.14334   -89.585025    39062.633 
  904000    294.50647   -1538.9733    486.59555    265.30191   -157.78705    39062.633 
  904100    303.08608   -1539.7317    479.38262    295.71742    228.13791    39062.633 
  904200     304.4724   -1519.2905    511.67536    354.65402    381.39792    39062.633 
  904300    291.88349   -1514.2955    496.93955    288.58798    108.51609    39062.633 
  904400    301.90023   -1516.9297    473.69713    307.52823    86.027924    39062.633 
  904500    300.83552   -1558.8104    504.34378    291.53041   -13.898217    39062.633 
  904600    290.52237   -1565.7712    469.41938    203.50215    287.46771    39062.633 
  904700    304.31433    -1539.699    501.07652    322.93946   -236.50998    39062.633 
  904800    296.94962   -1520.9488    502.15762    309.81962   -693.17425    39062.633 
  904900    290.21853   -1509.6356    478.63053    267.48945   -1053.0359    39062.633 
  905000      290.777    -1493.127     493.4248    301.29103   -965.80207    39062.633 
  905100    291.85316   -1511.4233    480.42133    274.80618   -626.33536    39062.633 
  905200     302.6948   -1489.1738    470.64553    335.78761   -386.53708    39062.633 
  905300    301.08213   -1461.8602    518.51676    403.75696   -609.08975    39062.633 
  905400     299.2337    -1523.145    474.60625    290.29142   -484.24889    39062.633 
  905500    303.99893   -1490.8771     496.7059    365.97953   -107.93464    39062.633 
  905600     294.1276   -1485.4816    518.52382    349.02674   -513.25255    39062.633 
  905700    297.76865   -1506.8053    470.78031    296.25022    41.709913    39062.633 
  905800    298.23721   -1518.9317    507.31187    322.75187    330.77596    39062.633 
  905900     290.4611   -1520.2858    503.15739    282.45147    295.48901    39062.633 
  906000    310.66765   -1515.2938    490.73286    365.42695    1091.9237    39062.633 
  906100    298.71726   -1539.9241    492.68578    289.28124    660.20991    39062.633 
  906200    299.55856   -1500.4817    478.70401    318.50603    810.66905    39062.633 
  906300    297.99538   -1516.9744    474.63396    290.94929    138.16132    39062.633 
  906400    307.26151   -1529.6428    506.73123    351.83661    207.58514    39062.633 
  906500    300.29638   -1505.6722    499.87402     337.7867   -32.099983    39062.633 
  906600    286.36329   -1546.2719    493.77345    228.74703   -510.47438    39062.633 
  906700     305.4161   -1553.0093    499.76569    313.24786    -228.2483    39062.633 
  906800    290.63366   -1535.1708    477.39517    242.57631   -109.76922    39062.633 
  906900    298.20113   -1549.7338    469.32403     253.8005    -534.4311    39062.633 
  907000    305.03963   -1539.0153    469.70618    295.49792    26.543534    39062.633 
  907100    302.54756   -1540.2677    501.86869    315.25798    310.93831    39062.633 
  907200    289.65874   -1525.7362    474.08931    244.34309    125.96021    39062.633 
  907300    298.88637   -1518.4181    494.83292    313.69103    479.02673    39062.633 
  907400    309.57796   -1498.5128    500.44545     387.0451    485.96159    39062.633 
  907500    295.50917   -1487.0513    510.13793    345.25253    367.84738    39062.633 
  907600    300.89421   -1481.0165    531.82796    397.07105    300.52555    39062.633 
  907700    289.36712   -1508.5027    510.11722     296.2997   -86.491942    39062.633 
  907800     297.5358    -1507.425    484.88368     308.6921     297.5629    39062.633 
  907900    304.68416    -1490.763    512.72321    385.17686    198.83642    39062.633 
  908000    301.06809    -1534.821    475.56754    287.78415    275.22623    39062.633 
  908100    302.63582   -1570.6125    510.92101     294.3605    151.95039    39062.633 
  908200    297.89775     -1550.18    498.12751    280.80039    135.23232    39062.633 
  908300    309.53594   -1533.5929    491.87554    343.20706    274.55503    39062.633 
  908400    298.94777   -1541.4838    491.88238    287.94945    273.96565    39062.633 
  908500    289.76732   -1544.4655    471.41068    223.42088     449.9643    39062.633 
  908600     302.1297   -1528.3451    492.14645    315.58885    117.27025    39062.633 
  908700    297.09623   -1557.2777    505.33631    277.32537   -49.683148    39062.633 
  908800    300.16753   -1563.2229    475.60709     255.3925    135.59925    39062.633 
  908900    308.84225   -1541.9024    497.97086    337.88924    9.6087083    39062.633 
  909000    294.91044    -1541.497    501.10168    279.09175   -18.054599    39062.633 
  909100    291.49895    -1563.047    480.89601    222.07245    102.31497    39062.633 
  909200    298.01785   -1555.3989    474.06648    252.05786   -78.041877    39062.633 
  909300     294.4923   -1514.0189    500.67727    304.27456    117.21001    39062.633 
  909400    299.65875   -1508.7809     517.7471    349.69819    191.43328    39062.633 
  909500    288.78295   -1507.2159    489.87374    274.72933    264.92553    39062.633 
  909600    288.22233   -1538.3387    496.51141    247.73584    15.779913    39062.633 
  909700    290.56346   -1512.4105    503.50878    291.13607    372.02196    39062.633 
  909800    300.05158   -1501.3782    500.58309    341.69444     448.2576    39062.633 
  909900    296.00626   -1511.6103    503.82633    316.60602    585.71351    39062.633 
  910000    313.80641   -1550.3558    487.26087    340.93645    632.10029    39062.633 
  910100    297.19755    -1549.328    506.71594    287.10794    607.61287    39062.633 
  910200     303.1895   -1515.4806    487.07433    328.12293    587.90433    39062.633 
  910300    291.78729    -1530.072    484.11418    259.55569    199.53121    39062.633 
  910400    302.41147   -1527.8488    517.03783     342.2372    288.40863    39062.633 
  910500    297.44756   -1532.8742    482.38241    280.34684    88.918654    39062.633 
  910600    294.94886   -1500.7167    493.81918    312.76143    285.86439    39062.633 
  910700    306.47534   -1512.9813    489.60238    347.85172   -256.86051    39062.633 
  910800    296.34656   -1534.8921    487.43207    278.45247   -181.76876    39062.633 
  910900    289.88168   -1518.2741    488.19655    266.90983    92.438324    39062.633 
  911000    300.92167   -1524.4634    508.66426    330.58332    573.53378    39062.633 
  911100    303.05442   -1554.1649    472.93199    274.69191    404.99048    39062.633 
  911200    290.15845   -1536.7883    469.48521     230.9227    6.4880584    39062.633 
  911300    300.55735   -1539.1378    478.68636    284.30107    198.57915    39062.633 
  911400    289.23275   -1556.6118    505.24857    242.72072    464.37504    39062.633 
  911500    294.63516   -1534.5086    485.65428    269.40112     429.5615    39062.633 
  911600    300.81515   -1506.7914    500.08914    339.20363    264.83105    39062.633 
  911700    293.90333   -1559.6926    475.04684    230.33532   -335.76446    39062.633 
  911800    310.23011    -1553.867    498.60471    332.76801   -655.21155    39062.633 
  911900    307.19088   -1532.9835    464.59306     306.0417   -463.37184    39062.633 
  912000    296.13396   -1584.3102    485.70972    226.36088   -439.02683    39062.633 
  912100    292.89287   -1536.1117    493.95059    268.29893   -53.895582    39062.633 
  912200    301.16049   -1552.4257    487.07022    282.09553   -206.55006    39062.633 
  912300    293.68967   -1539.5497    492.07744    266.55284   -342.40382    39062.633 
  912400      301.554   -1562.9372    492.27241    278.54685    -751.1542    39062.633 
  912500    311.55622   -1546.1791    484.79388    332.57838   -131.05713    39062.633 
  912600    306.14822   -1584.6636    492.83111    277.93461   -426.43714    39062.633 
  912700    294.52199   -1556.0421    486.06474    247.77175   -428.70509    39062.633 
  912800     304.6751   -1577.0475    485.66773    271.79626    219.95907    39062.633 
  912900    288.67322   -1541.1315    515.90185    266.35084    -187.2243    39062.633 
  913000     302.3774   -1546.9548     482.2983    288.23917   -1.0593822    39062.633 
  913100    300.76678    -1538.625    490.18604    297.25053   -363.30408    39062.633 
  913200    294.93285   -1564.1033    493.16046    248.64455    138.99014    39062.633 
  913300    304.27074   -1530.3214    511.89342     342.9389    611.13768    39062.633 
  913400    302.16775   -1551.0583    496.69081    297.59029    192.44049    39062.633 
  913500    303.94641   -1520.8262    474.96444    314.05403    349.87116    39062.633 
  913600    307.72014    -1526.085    467.92976    318.64495    98.570299    39062.633 
  913700    295.24738   -1574.8869    496.14584    242.25356   -321.97905    39062.633 
  913800    307.04509   -1587.0682    483.07276    269.78443   -254.07334    39062.633 
  913900    310.64132   -1570.6873    469.63957    288.82235   -553.69394    39062.633 
  914000    300.10776   -1502.1973    469.67111    310.21472     20.71125    39062.633 
  914100    303.21837   -1515.2276    524.46957    365.90041   -169.59762    39062.633 
  914200    308.48725   -1487.8721    511.29553    403.65586   -61.963316    39062.633 
  914300    297.77072   -1542.8089    496.31507    285.79074   -287.20848    39062.633 
  914400    303.12518   -1542.2231    491.58074    305.59904   -171.76851    39062.633 
  914500    302.14017   -1525.6271    514.91766    341.12484   -565.71543    39062.633 
  914600    298.20909   -1566.6592    502.03863    269.62534   -60.101717    39062.633 
  914700    300.88842   -1564.2095    492.85391     274.8781   -284.32598    39062.633 
  914800    304.44717   -1563.1148    498.24374     297.2852   -256.85881    39062.633 
  914900    304.28875   -1513.7143      487.659    335.39216   -539.05198    39062.633 
  915000    306.70248    -1517.502     499.0498    353.79476    194.97619    39062.633 
  915100    296.41806   -1552.6806    493.23199    266.78383   -300.04215    39062.633 
  915200    302.13147   -1524.2963    512.04922    339.54829   -296.42581    39062.633 
  915300    304.16679   -1491.2422    480.82776    350.48736   -762.36527    39062.633 
  915400    303.21089   -1481.4365    503.32836    378.51677   -473.35666    39062.633 
  915500    296.37906   -1489.0302     512.2901    349.31791   -251.29425    39062.633 
  915600    293.79232   -1496.4402    494.37812    312.42231   -493.01918    39062.633 
  915700    304.31004   -1537.0333    523.63002    348.13944   -68.385143    39062.633 
  915800     301.7904   -1498.0617    502.14229    354.34997   -166.31657    39062.633 
  915900    290.81857   -1523.2347    514.53084    292.47541   -163.22581    39062.633 
  916000    291.86859   -1542.9752    492.38312    255.28519    -45.84319    39062.633 
  916100    295.49402    -1552.788      480.476    249.78614   -328.74532    39062.633 
  916200    298.17402   -1564.0072    502.98195    273.06373   -6.3503798    39062.633 
  916300    296.08169   -1572.9695    499.06316    250.82111   -155.84373    39062.633 
  916400    304.01908   -1543.6392    493.68633    310.28808    284.20535    39062.633 
  916500    305.07935   -1590.0547    479.63066    254.56074    564.57299    39062.633 
  916600     303.2496    -1629.185    505.27306     232.8862    135.24426    39062.633 
  916700    296.63064   -1577.9882    475.54986    224.74518    162.82038    39062.633 
  916800    309.40025   -1598.5174    479.14008    264.93999    722.38286    39062.633 
  916900    296.47158   -1612.0988    477.44448    191.81762    363.53217    39062.633 
  917000    295.90273   -1574.6617    495.36085    244.62595    81.459804    39062.633 
  917100    310.78538   -1570.0598    500.96629    321.42116    627.72547    39062.633 
  917200    310.34467   -1574.7582    482.85478    296.63943    132.83478    39062.633 
  917300    308.76448   -1538.7124    470.82547    313.58585    36.693917    39062.633 
  917400    301.59811   -1556.4911    493.72503    286.64291   -791.53132    39062.633 
  917500    298.86106   -1554.6239     496.6276    279.16661   -485.41665    39062.633 
  917600    306.97763   -1573.2509     482.7421    282.96926   -475.55389    39062.633 
  917700    297.14305   -1580.8454    480.69431    229.32511    -286.2858    39062.633 
  917800    302.23914   -1586.5164    484.87205    250.63275   -202.95383    39062.633 
  917900    302.06698   -1571.3154    461.70289    241.89432    234.07537    39062.633 
  918000    300.96976   -1581.7788    478.44571    243.26459    292.99141    39062.633 
  918100    290.96342   -1580.8755    477.70094    198.65279   -547.17396    39062.633 
  918200    298.09876   -1537.0556    469.87582    266.57253   -159.05946    39062.633 
  918300     292.7411   -1592.7835    486.07833    203.07583   -634.37612    39062.633 
  918400     298.4748   -1594.4349    516.78437    257.78424    60.251724    39062.633 
  918500    291.52684   -1578.7201    497.97746    223.60561    154.78012    39062.633 
  918600     305.7934   -1612.7012    492.14512    247.62348   -32.929891    39062.633 
  918700    303.24617   -1618.3457     477.7557    216.19283   -87.559493    39062.633 
  918800    312.93193   -1596.9348    486.20197    289.38586    -53.16551    39062.633 
  918900    296.21742   -1581.0724    477.92122    222.18361    -128.1041    39062.633 
  919000     306.9569   -1570.9133    471.54582    274.01777    419.87477    39062.633 
  919100    298.97977   -1576.1207    495.82837    257.40174    291.12455    39062.633 
  919200    303.13733   -1580.5202    465.53547    241.31109     42.47597    39062.633 
  919300    294.51616   -1529.7904    496.37765     284.3102    440.22567    39062.633 
  919400    306.00948   -1569.8528    496.64466    295.93819    610.57208    39062.633 
  919500    292.34453   -1564.8997    494.38045     237.4874   -151.20064    39062.633 
  919600    308.56458   -1616.4463    476.24086    240.37292   -395.31899    39062.633 
  919700    298.22186   -1593.2853    476.33162    217.34939    248.64817    39062.633 
  919800     301.5582    -1568.515    501.29827    282.01368   -259.56963    39062.633 
  919900    302.27984   -1570.1923    480.06432    262.33127    217.74693    39062.633 
  920000    289.88778   -1544.8569    494.72455    246.88234   -25.710238    39062.633 
  920100    298.78808   -1510.2768    483.49239      310.052   -253.37832    39062.633 
  920200    290.92704   -1494.9286    522.50449    329.24052   -343.94393    39062.633 
  920300     307.4736   -1565.1456    520.32651    330.87801     193.0906    39062.633 
  920400    290.73984   -1560.1184    465.16282    205.87142   -299.29751    39062.633 
  920500    290.98472   -1562.4949    491.41627    230.84398   -437.15817    39062.633 
  920600    287.88537   -1580.5629    508.28272    215.77536   -624.59064    39062.633 
  920700    301.69663   -1548.1858    499.44995    301.11394   -569.49318    39062.633 
  920800    308.61589   -1557.6524    484.29662    307.45218   -155.63425    39062.633 
  920900    289.05929   -1510.4871    523.05172     305.8725   -364.72306    39062.633 
  921000    303.15105     -1524.74    508.14363     339.7608    363.66069    39062.633 
  921100    299.79492   -1539.8089    494.75908    296.29137    195.29523    39062.633 
  921200    299.94087   -1558.5119    478.10929    261.59161   -390.98883    39062.633 
  921300    296.81697   -1586.8862    483.39997    224.53099   -547.64665    39062.633 
  921400    298.97548   -1571.1812    471.55461     238.0483    -450.4021    39062.633 
  921500    301.98894   -1576.4412    501.50822    276.22468    -472.2536    39062.633 
  921600    295.98518   -1534.0432    471.81382    262.06626   -160.49825    39062.633 
  921700    291.27933   -1543.6463    475.82548    235.41994   -675.65422    39062.633 
  921800     299.9829   -1558.2079    459.14175    243.11611    -873.4638    39062.633 
  921900     317.9653   -1539.1767    513.58174    397.04403   -811.24668    39062.633 
  922000     295.2458   -1566.7102     475.2804    229.55776   -277.46709    39062.633 
  922100    299.61643    -1565.682    504.67312    279.53376   -92.127428    39062.633 
  922200    286.70343   -1549.8914    491.75494    224.63084    32.791103    39062.633 
  922300    310.92805   -1551.1041    483.80153    323.85048    58.320436    39062.633 
  922400    295.93471   -1561.1018    509.74051    272.70859   -30.492045    39062.633 
  922500    298.73566   -1539.6746    469.15061    266.07784   -445.77539    39062.633 
  922600    303.37468   -1560.8946    498.82515    295.28828   -793.29401    39062.633 
  922700    301.51806   -1541.3253    497.39573    305.12131    459.21601    39062.633 
  922800    305.65968   -1591.1928    504.56353    280.95203    358.03509    39062.633 
  922900    289.45774    -1593.685    463.88549    165.29109   -71.979233    39062.633 
  923000    292.19503   -1578.4701    487.27713    216.14477    112.19416    39062.633 
  923100    300.37177   -1574.5479      495.222    264.59628    140.73103    39062.633 
  923200    313.64883   -1585.7693    482.94048    300.49745    6.2858871    39062.633 
  923300    296.77838   -1566.0996    477.50964    239.25468   -257.62736    39062.633 
  923400    305.33499    -1554.963    471.54518    282.71078    314.53667    39062.633 
  923500    307.87255   -1524.4315    472.88256    325.93313    744.47291    39062.633 
  923600    300.74005    -1564.954    499.99733    280.61323    575.57796    39062.633 
  923700      295.881   -1546.9662    502.57909    279.44237    740.66269    39062.633 
  923800    295.34198   -1536.8234    473.37665    257.97111    244.66219    39062.633 
  923900    289.45745   -1519.3118    491.16159    266.93917    440.89753    39062.633 
  924000    286.82769   -1507.8501     516.6858    292.15893    550.45256    39062.633 
  924100    300.54477   -1547.3027    465.86742    263.26094    505.28775    39062.633 
  924200    310.79048   -1552.6253    471.34085    309.25301   -50.813031    39062.633 
  924300    293.50392   -1549.3268    485.96025    249.82754   -469.75471    39062.633 
  924400    290.90427   -1565.3074    481.10757    217.36281    57.847083    39062.633 
  924500    302.31142   -1537.5878    476.53218    291.54495   -35.826913    39062.633 
  924600    311.34832   -1551.1442    484.15066    326.03982   -122.14128    39062.633 
  924700    303.96966   -1581.3375    472.71161    251.39394    129.68451    39062.633 
  924800    307.77806   -1548.8059    504.46043    332.71384   -622.74071    39062.633 
  924900    296.09897   -1531.9411    484.27183    277.13558   -285.97473    39062.633 
  925000    292.98234   -1593.1249     489.1853    206.92078    425.31029    39062.633 
  925100    303.70902   -1575.0507    484.51609    268.31903   -133.74368    39062.633 
  925200    298.65481   -1524.4057    491.96078    303.79518   -248.20654    39062.633 
  925300    300.54254   -1573.6892    504.09993    275.09691    5.6355236    39062.633 
  925400    295.60237   -1563.1568    495.08755    254.51367    357.12137    39062.633 
  925500    296.42553   -1567.9889    496.30903    254.58602    226.96871    39062.633 
  925600    303.81523   -1547.4362    488.80598    300.69866    275.24319    39062.633 
  925700    304.09399   -1590.2135    508.38863    278.75125    192.05693    39062.633 
  925800    297.55044   -1583.1264    474.62645    222.79901     439.1063    39062.633 
  925900    298.57317   -1550.0691    497.25581     283.0616    377.76707    39062.633 
  926000    302.01336   -1515.2143    480.41896    316.47158    660.99049    39062.633 
  926100    304.11762   -1521.6234    523.67049    362.72891    395.80287    39062.633 
  926200    296.59064    -1520.529    513.29904    319.77466    110.34151    39062.633 
  926300    299.93825   -1551.1272     486.7592     277.6145   -96.465217    39062.633 
  926400    292.98273   -1531.7312    494.47115    273.60202    387.65172    39062.633 
  926500    300.24385   -1519.0445    510.01374    334.31903     499.7925    39062.633 
  926600    291.77237   -1524.3555    486.19874    267.28992    590.87669    39062.633 
  926700    296.25879   -1518.3491    552.59636    359.76712    847.89851    39062.633 
  926800    295.48966   -1510.3688     477.9806    289.69038    131.41659    39062.633 
  926900    306.68929   -1489.9472    503.68736    385.92809   -103.07966    39062.633 
  927000    294.33699   -1521.7641    502.50794     297.6652      -402.38    39062.633 
  927100    303.69952   -1550.1159    504.68085    313.37609    94.524352    39062.633 
  927200    297.84644   -1535.3391    502.08871    299.37292    20.933077    39062.633 
  927300     289.8882   -1526.7325    495.10061     265.3847   -66.707554    39062.633 
  927400    290.89395    -1512.676    483.68335    272.52388   -11.736686    39062.633 
  927500    310.76844   -1527.7998    497.85686    360.49597   -410.02635    39062.633 
  927600    298.78311   -1513.5655    482.21089    305.45957   -470.89144    39062.633 
  927700    302.96751   -1527.8032    492.23976    319.97253   -524.91928    39062.633 
  927800    292.88727   -1500.9272    508.14204    317.64984   -362.27198    39062.633 
  927900    303.40314   -1510.7421    486.47861    333.22162   -265.93151    39062.633 
  928000    302.15174   -1514.6368    482.94246    320.19177   -165.65645    39062.633 
  928100    288.12386   -1534.5445    506.51858    261.09669    85.860689    39062.633 
  928200    298.05521   -1580.2118    473.79169    227.13734    334.64876    39062.633 
  928300    310.21881   -1549.2098    490.17603     328.9459    90.452162    39062.633 
  928400    295.79441   -1557.7358    474.29381    240.00015    121.15004    39062.633 
  928500    288.90852   -1589.4677    505.21623    208.38181    156.11809    39062.633 
  928600    296.82488   -1546.3287    502.46553    284.18952    323.49696    39062.633 
  928700    290.00871   -1589.8508    478.75443    186.45943   -38.764492    39062.633 
  928800     294.1819   -1592.6551    487.44594    211.01832    192.42136    39062.633 
  928900    313.46001   -1593.9807    497.55933    306.06012    481.38668    39062.633 
  929000    300.19977   -1567.8555    470.56831    245.86542    32.715801    39062.633 
  929100     298.2889   -1552.6008    496.91182    278.91394    354.25236    39062.633 
  929200    306.17539    -1574.506    481.93062    277.31328    236.88335    39062.633 
  929300    297.33485   -1541.7347    501.27433    289.87395    498.57892    39062.633 
  929400    305.07207   -1560.8166    488.40076    292.53631    328.92462    39062.633 
  929500    300.72889   -1577.0884    478.86121     247.2928    508.88796    39062.633 
  929600    302.10698   -1569.9107    469.50212    251.27729    405.00314    39062.633 
  929700    297.52906   -1524.0568    481.90169    289.04818   -128.48782    39062.633 
  929800    307.13756   -1541.0887    472.27932    305.38417    71.161454    39062.633 
  929900    302.28036   -1525.8396    480.64555    307.26753    745.34662    39062.633 
  930000    313.85499   -1567.4679    468.79075    305.57156   -227.15302    39062.633 
  930100    302.20749   -1577.8318    497.81287    272.11657   -1.3191311    39062.633 
  930200    297.09929   -1594.2561     484.4071    219.43141   -239.59979    39062.633 
  930300    297.93749   -1574.4304    493.94285    252.54314    22.805999    39062.633 
  930400    314.04031   -1578.3351    496.13673     322.8795     300.1477    39062.633 
  930500    302.73526   -1589.9593     483.2648    247.80234    614.07836    39062.633 
  930600    300.04047   -1578.3011    447.85433    211.99302     58.55476    39062.633 
  930700    305.99069   -1562.8404    493.95022    300.17208    407.22619    39062.633 
  930800    304.47353   -1595.8416    479.11616    245.54882    618.03662    39062.633 
  930900    304.10915   -1601.2908    482.31896    241.67208    912.83036    39062.633 
  931000    310.79653    -1538.215    526.70373    379.05325    690.96817    39062.633 
  931100    296.91342    -1591.275    508.02541    245.19922    407.92322    39062.633 
  931200    303.68632   -1595.7549    465.05781    228.05499   -195.57331    39062.633 
  931300     295.2748   -1526.1681    497.82838    292.77752   -50.034309    39062.633 
  931400    301.30158   -1571.5497    477.90929    254.44192   -52.198612    39062.633 
  931500    292.08508   -1550.3511    519.30466    275.79939    37.058398    39062.633 
  931600    305.35675   -1547.7135    490.24648    308.75892   -145.53542    39062.633 
  931700    304.53546   -1542.4888    482.08127    302.14377    420.11143    39062.633 
  931800    293.99788   -1522.1214    494.26683    287.54954    223.95618    39062.633 
  931900    293.79214   -1529.5279    521.46674     306.4224   -19.287673    39062.633 
  932000    302.82542   -1538.8994    500.52727    316.52815    183.00332    39062.633 
  932100    292.27978   -1531.2632    506.16513    282.61887   -25.948565    39062.633 
  932200    307.78815   -1527.4668    492.12767    341.76533    165.56119    39062.633 
  932300    295.21769   -1516.4205    495.26325    299.70458   -603.90796    39062.633 
  932400    302.26335   -1486.0148    478.46578    344.83638   -533.58372    39062.633 
  932500    303.51247    -1498.047    502.83877      362.766   -615.38751    39062.633 
  932600    295.43835   -1560.3211    501.17432    262.70225   -246.76905    39062.633 
  932700    298.57046   -1538.1532    482.86663    280.57619    138.48063    39062.633 
  932800    303.05587   -1519.4959    484.08111    320.51654    148.55462    39062.633 
  932900    291.09276   -1524.3148     501.9039    279.99507    223.74791    39062.633 
  933000     299.1677   -1496.3569    505.62766    347.80565    482.13698    39062.633 
  933100     308.4975   -1534.5096    496.77204    342.54062    409.99094    39062.633 
  933200    289.39648   -1503.7633    499.95295    291.00624    97.302247    39062.633 
  933300    297.17434   -1471.0667      498.071    356.62053    253.49701    39062.633 
  933400    302.45338   -1484.3715    477.56072    346.42487   -251.46913    39062.633 
  933500    297.92215   -1471.5073    495.89807    357.35283    634.73225    39062.633 
  933600    305.07009   -1462.2739    484.13653    386.80594   -98.199844    39062.633 
  933700    314.34589   -1480.1788    485.30716    411.57348    107.34421    39062.633 
  933800    307.49612   -1418.9985    478.43637    435.23575     -108.876    39062.633 
  933900    300.04017   -1427.5477    533.03689    447.92769   -684.37031    39062.633 
  934000    298.23947   -1440.4744    467.24284    361.15026   -439.17433    39062.633 
  934100    301.10416   -1457.5089    485.87567    375.56577   -424.14016    39062.633 
  934200    296.11522   -1460.2747    492.29252    356.89534   -395.86505    39062.633 
  934300    308.36092   -1450.9839    490.38794    419.07117   -41.525721    39062.633 
  934400    290.99512   -1518.6725    469.94798    253.24469   -118.17412    39062.633 
  934500    301.02103   -1489.3204    517.74472    375.25138    409.96202    39062.633 
  934600    302.49803   -1497.8125    500.89213    356.51504     357.8841    39062.633 
  934700    309.94255   -1504.0027    489.58685    372.32788    123.51016    39062.633 
  934800     294.8007   -1558.0221    470.20374    231.17771   -382.71682    39062.633 
  934900    295.18076   -1495.4222    478.82186    304.09617    67.827046    39062.633 
  935000    288.05662   -1482.4141    510.35614    316.76379   -71.784525    39062.633 
  935100    304.77582   -1492.7315    480.17475    351.06995      186.803    39062.633 
  935200    296.26236   -1510.7743    485.50708     300.2686   -1365.7682    39062.633 
  935300    304.19655   -1512.5667    481.11494    329.58316   -761.77556    39062.633 
  935400     298.4259   -1488.9288    482.37477    328.66192    76.117602    39062.633 
  935500    302.01008    -1483.908    514.66811    382.01243    -82.76532    39062.633 
  935600    289.79421   -1513.1092    503.84581    287.33265   -284.58331    39062.633 
  935700    296.64788    -1491.098    475.82851    311.99129    76.136378    39062.633 
  935800    299.38889   -1485.3308    515.66449    369.85822    345.36657    39062.633 
  935900    296.81703   -1494.9053    478.46029    311.57253    752.33516    39062.633 
  936000    301.62708    -1493.459    507.37915     363.4588    558.72996    39062.633 
  936100    304.14962   -1489.5658    486.64406    357.90325    456.96461    39062.633 
  936200     303.3811   -1489.7365    493.13354     360.7835    437.15205    39062.633 
  936300    301.87758   -1482.0879    489.46113    358.03266    538.31656    39062.633 
  936400    296.72552   -1500.1419    488.11489    315.58113    393.39589    39062.633 
  936500    295.09213   -1454.4233    497.72292    363.59958    457.98179    39062.633 
  936600    302.87812   -1503.1309    484.19854     336.2037    887.56137    39062.633 
  936700    299.20358   -1492.8231    490.98902    336.86137    492.63771    39062.633 
  936800    299.14757   -1538.5314    483.72858    283.64199    149.87458    39062.633 
  936900    310.18184   -1512.8261    496.16065    371.14889   -316.86722    39062.633 
  937000    293.38241   -1509.4182    464.67618    267.90832   -839.75619    39062.633 
  937100    294.98541   -1527.3424    456.56847     249.0486   -555.98192    39062.633 
  937200    303.23684   -1528.2186     484.7959     313.3183   -171.53913    39062.633 
  937300    304.55195   -1522.9869     476.6825    316.32069   -389.92962    39062.633 
  937400    305.32635    -1573.332    471.06281     263.8207   -72.686952    39062.633 
  937500    309.89072   -1551.8959    484.83824    319.45415    227.59641    39062.633 
  937600    288.62933   -1540.5227    500.07903     250.9405   -29.998897    39062.633 
  937700    295.25687   -1549.5158    469.24763    240.76891    289.76906    39062.633 
  937800    296.95336   -1538.3376    472.85927    263.14915     468.6109    39062.633 
  937900    305.01767   -1528.1449    479.56158    316.12546   -151.93569    39062.633 
  938000    307.97293   -1576.1491    471.80964    273.59175    518.92244    39062.633 
  938100    297.05374   -1548.7475    488.86063    269.18982    132.16616    39062.633 
  938200    293.48824   -1538.6358    465.56733    240.05541    337.90157    39062.633 
  938300    295.41606    -1545.898    469.08371    244.93505     458.1741    39062.633 
  938400    292.73304   -1533.1168    476.52563    253.15378   -115.87932    39062.633 
  938500    302.97452   -1542.1866    466.82853    280.20928    263.84295    39062.633 
  938600    300.41171   -1554.9698    496.44558     285.5766    137.40357    39062.633 
  938700    307.02151   -1509.9016    472.43438    336.20716   -267.80342    39062.633 
  938800    293.39592   -1545.9694    494.14258    260.88401   -388.06602    39062.633 
  938900    301.22482   -1523.7062    488.95257    312.98523   -490.58911    39062.633 
  939000    305.36029   -1540.0489    481.36003    307.55289   -607.09328    39062.633 
  939100    298.10942   -1528.7649    481.25293    286.28795    -414.8599    39062.633 
  939200    302.50881   -1528.7333    466.11428    290.86467   -9.8178664    39062.633 
  939300    305.70831   -1565.7869    468.86206    270.87399    34.886406    39062.633 
  939400    301.39995   -1512.6291    477.84567    313.73898    289.57135    39062.633 
  939500    300.91707   -1499.6944    470.21664    316.88417    70.151952    39062.633 
  939600    306.52675   -1543.0141    481.74999     310.1966    116.87095    39062.633 
  939700    290.16617    -1520.956    457.79575    235.10005     151.9535    39062.633 
  939800    298.62712   -1569.8648    465.83113    232.08258    103.08642    39062.633 
  939900    306.41799   -1541.1523    492.86695    322.68873     589.3879    39062.633 
  940000    304.58488   -1536.5158      494.889    321.14559   -36.483157    39062.633 
  940100    300.29452   -1534.8913    472.63162    281.31676   -78.639264    39062.633 
  940200    312.24854   -1524.7906    477.34744    349.61796    223.10139    39062.633 
  940300    294.08957   -1525.9612    460.63111    250.48421   -89.201492    39062.633 
  940400    302.52768    -1542.098    446.93913     258.4092    585.33024    39062.633 
  940500    302.04823    -1533.968    482.64998    300.10495    416.49476    39062.633 
  940600    290.68948   -1537.8787    461.47852    224.20153    240.64308    39062.633 
  940700    308.76531   -1566.6265    484.39145    299.24147    850.49365    39062.633 
  940800     308.2254    -1535.792    496.92593    340.19471     1012.061    39062.633 
  940900    312.81846   -1567.0399    465.77075    298.34193    1298.8229    39062.633 
  941000    308.28233   -1540.3826     473.1704    312.10333    551.70636    39062.633 
  941100    305.93923    -1491.867    475.75444    352.71944    -74.06645    39062.633 
  941200    305.15596   -1503.1788    473.37812    335.52681    137.03298    39062.633 
  941300    299.55205   -1519.5449    490.94581    311.65547   -101.59444    39062.633 
  941400     295.1864   -1531.3196    467.68537     257.0876   -66.571121    39062.633 
  941500    289.08033   -1538.2732    467.73703    222.86591   -223.81998    39062.633 
  941600    307.52697   -1597.0719    465.93487    244.79886    288.76165    39062.633 
  941700    304.71714   -1552.9534    473.24888    283.65959    359.98759    39062.633 
  941800    300.47915    -1557.632    437.10245    223.87303    -121.5258    39062.633 
  941900    307.85321   -1598.0081     453.3752    232.76264    89.031493    39062.633 
  942000    300.61887   -1622.3655    456.35196     179.0142   -51.605285    39062.633 
  942100    296.28841    -1567.803    454.08402    211.93338   -202.62276    39062.633 
  942200    297.92503   -1599.1248    452.34014     186.1903   -228.46055    39062.633 
  942300    306.94173   -1626.8248    454.34898    200.84158    234.87381    39062.633 
  942400    307.43465   -1631.6145    455.25006    199.15841    187.21452    39062.633 
  942500    296.33124    -1620.326    463.12134    168.63931    176.11909    39062.633 
  942600    304.50584    -1587.327    466.62001     241.7118      191.161    39062.633 
  942700    301.49369   -1578.9903    464.03406    233.98557     345.8334    39062.633 
  942800      305.399   -1546.0995    456.43192    276.74737   -48.332527    39062.633 
  942900    288.84747   -1563.5381    474.98327    203.80527   -840.49076    39062.633 
  943000    302.17411   -1579.0202     470.1127     243.0787   -297.03662    39062.633 
  943100    293.82913   -1609.1528    466.26762    171.76388    45.606366    39062.633 
  943200    300.74052    -1576.489    454.26341    223.34638   -371.25247    39062.633 
  943300    308.63367   -1636.5973    453.50128    197.79148   -653.23393    39062.633 
  943400    305.85244   -1622.1789    453.99568    200.26045    264.91592    39062.633 
  943500    300.83165   -1609.6588    473.64743    209.96838    252.73946    39062.633 
  943600     303.7672    -1534.129    485.24764    310.23257    179.01002    39062.633 
  943700    303.37662     -1586.73    458.74393    229.38034    395.62447    39062.633 
  943800    300.77232     -1567.15    467.01267    245.57694    480.77366    39062.633 
  943900    290.04584   -1553.6217    458.77835    202.87863   -290.18559    39062.633 
  944000    299.05606   -1536.7554    465.68349     266.9635    139.90782    39062.633 
  944100    293.83482   -1552.1504    477.44174     239.9659    56.015547    39062.633 
  944200    305.49335   -1538.4663    479.17797    307.54874   -150.93873    39062.633 
  944300    295.95826   -1490.2047    466.88967    300.86016    44.813812    39062.633 
  944400    297.23444   -1538.8367    484.77451     275.8229    373.82295    39062.633 
  944500    295.75243    -1473.799    485.40464       334.86    774.89273    39062.633 
  944600    290.83042   -1503.3414    505.07687    302.96776    749.82946    39062.633 
  944700    291.33722   -1515.3222    494.65728    282.83483    823.88594    39062.633 
  944800    297.14481   -1565.2169    457.53669    221.80383    456.56249    39062.633 
  944900     297.8177   -1507.4132    505.07307    330.15458    641.28976    39062.633 
  945000    300.33605   -1547.6611     469.7731    265.87431    233.08643    39062.633 
  945100    307.28313   -1549.9626    497.35961    322.24197   -107.99767    39062.633 
  945200    307.76471   -1518.4412     460.6057    319.16408    -486.3111    39062.633 
  945300    302.56229    -1497.626    482.89797    338.99491   -579.45359    39062.633 
  945400     306.7419   -1480.1978    486.43072    378.65629    -356.3497    39062.633 
  945500    300.69757   -1471.5018    466.60288    340.48094    343.88811    39062.633 
  945600    308.75445   -1534.2775    473.93367    321.08409   -559.73095    39062.633 
  945700    292.71151   -1496.5939    512.57293    325.62769   -222.99317    39062.633 
  945800    301.62107   -1517.2889    476.46115    308.68406   -222.32307    39062.633 
  945900    294.53724   -1496.5155     476.2754    297.57722   -151.25291    39062.633 
  946000    310.62439   -1509.9437    481.65965    361.51036    -285.2054    39062.633 
  946100    293.29967   -1542.3277    492.54751    262.49999    520.40025    39062.633 
  946200    297.94481   -1542.1622    445.43636     236.3376    210.81176    39062.633 
  946300    299.88401   -1522.2148    472.24965    291.77471    118.75493    39062.633 
  946400    291.50799   -1516.4004    472.96352    260.82698   -498.23603    39062.633 
  946500    293.81958   -1501.7278    517.44363    330.32221   -386.49204    39062.633 
  946600    298.61394   -1493.3574    472.16059    314.86043   -34.283629    39062.633 
  946700    310.14927   -1552.6293    475.62552    310.66481    313.98063    39062.633 
  946800    310.87811    -1508.636    489.66361    371.95717    481.30364    39062.633 
  946900    307.40749   -1546.8454     493.4056    321.96153    927.28314    39062.633 
  947000    297.19877   -1526.7423    460.72298    263.70618    513.88574    39062.633 
  947100     284.9997   -1503.8422    506.69317    277.99545     551.5532    39062.633 
  947200    295.06417   -1508.8597     472.2041    283.51933    593.95978    39062.633 
  947300    292.48981   -1503.9006    514.74895    319.50508    149.86732    39062.633 
  947400    297.11613   -1530.4872    479.57621    278.44476    638.38987    39062.633 
  947500    302.40207   -1559.6771    475.55078    268.87983   -319.68724    39062.633 
  947600     292.5178    -1515.552    517.32479    310.55468   -216.31766    39062.633 
  947700    305.76126    -1523.283    460.90266    305.65546   -203.81496    39062.633 
  947800    294.61016   -1514.2463    482.91299    286.81028   -247.39657    39062.633 
  947900    306.62608   -1532.5467    458.53353    297.89199   -650.97232    39062.633 
  948000    298.23083   -1539.9515    473.44266     267.8343    40.732713    39062.633 
  948100    305.50997   -1542.7732    472.73235    296.87059    185.30576    39062.633 
  948200    300.38885   -1536.2012    464.95569    272.75303     105.5028    39062.633 
  948300    297.26661   -1576.2386     454.0137    207.80413   -236.96025    39062.633 
  948400    309.24359   -1545.3656    452.86289    291.11368    273.72307    39062.633 
  948500    302.21503    -1533.375    487.74054    306.53483   -251.47773    39062.633 
  948600    303.21415   -1537.9003    486.72472    305.46395    -815.7708    39062.633 
  948700     291.1311   -1540.0021    447.74537     210.3209   -1085.9468    39062.633 
  948800    309.07593   -1524.0746    473.82819    332.61984   -454.56538    39062.633 
  948900    297.38556    -1512.077    498.67117    317.15545   -562.51403    39062.633 
  949000    300.96629   -1522.6852     454.2633    278.16021   -12.613523    39062.633 
  949100    305.03894   -1524.5831    482.36595     322.5868   -56.951501    39062.633 
  949200    310.06019    -1510.443    463.84502     340.6721    286.92171    39062.633 
  949300    294.15538   -1557.4612    453.77831    212.42586    74.182717    39062.633 
  949400    293.04266   -1501.3361    467.54694    277.34108    181.02116    39062.633 
  949500    295.57977   -1468.5254    475.82951    329.78588    235.89448    39062.633 
  949600    300.71265   -1539.5437    476.44386    282.34745    192.49417    39062.633 
  949700    304.12125   -1504.7845    448.44793    304.36145    603.56486    39062.633 
  949800    305.28304   -1500.8414    483.47043    348.52515   -246.58696    39062.633 
  949900    295.62761   -1517.3126    457.58782      262.971    -291.6765    39062.633 
  950000    303.79204   -1533.4681    473.92438    299.68138   -303.56077    39062.633 
  950100    290.10623   -1513.6109    499.05672    283.43791   -581.46871    39062.633 
  950200    301.41919   -1501.4671     474.9866    322.12796    97.380838    39062.633 
  950300    304.99214   -1530.8489    473.13601    306.88168    -159.7058    39062.633 
  950400    300.12646   -1521.0274    468.90081    290.69796   -266.27406    39062.633 
  950500    292.68714   -1546.1657    465.57717    228.95106   -667.13824    39062.633 
  950600    294.99019   -1532.9756    488.48063    275.34889   -1313.1954    39062.633 
  950700     298.8612   -1510.1193    460.10984    287.15413   -1285.7785    39062.633 
  950800    308.14795   -1528.2138    494.84586    345.34632   -602.51337    39062.633 
  950900    296.20779   -1511.0577    490.49971    304.73368   -842.72283    39062.633 
  951000    296.28439   -1471.6162    476.38977      330.408   -831.36558    39062.633 
  951100    307.66729     -1459.11      505.302    422.75575   -465.81891    39062.633 
  951200    310.93558   -1497.8204    470.37782    363.74409    224.44801    39062.633 
  951300    301.08944   -1506.0685    499.45864    340.52326    308.60029    39062.633 
  951400    299.32741   -1512.2753     487.5676    314.54176     328.8795    39062.633 
  951500    304.87175   -1479.2397     483.4078    368.22404    375.72993    39062.633 
  951600       297.75   -1528.6519    468.61343    272.15337   -301.45513    39062.633 
  951700    296.08447   -1496.2905    487.21568    315.66508   -338.65113    39062.633 
  951800    310.16472   -1523.8045    500.98676       364.92    302.99843    39062.633 
  951900    295.62622   -1503.5317    500.45847    319.61642   -90.174827    39062.633 
  952000    309.72706   -1542.6777    477.16807    320.26992    202.92339    39062.633 
  952100    305.76756   -1558.2192    481.98502    291.82975    186.47452    39062.633 
  952200    303.78957   -1534.9447    466.85739    291.12676    245.19999    39062.633 
  952300    300.22967   -1508.0832    485.09492    320.29807   -334.48372    39062.633 
  952400    307.63901   -1500.8651    485.60677    361.17883   -242.97755    39062.633 
  952500    303.29109   -1483.2426    501.54076    375.28193    -148.1018    39062.633 
  952600    299.35336   -1589.6916    476.84306    226.51708   -82.733342    39062.633 
  952700    305.62652    -1542.199    459.82763     285.0616   -7.8368007    39062.633 
  952800    296.85494   -1516.7954    478.83062    290.22234   -489.94522    39062.633 
  952900    291.94815   -1509.0843    475.48822    272.63713   -224.68275    39062.633 
  953000    292.27941   -1533.8871     494.3459     268.1741   -479.31889    39062.633 
  953100    289.88912   -1530.3712    500.08269    266.73223   -172.04041    39062.633 
  953200    296.24868   -1542.8085    479.43722    262.10335   -183.86458    39062.633 
  953300    301.98979   -1503.8197    482.19756    329.53935   -134.66854    39062.633 
  953400    298.93514   -1548.5623    484.07161    273.00369    -232.6946    39062.633 
  953500     304.0403   -1539.0398    487.40747    308.70353    31.475344    39062.633 
  953600    298.62016   -1530.7114    481.84967    287.22342   -613.64018    39062.633 
  953700    310.39551   -1519.4372    428.30947    297.64256   -444.27211    39062.633 
  953800    305.29146   -1586.9768    484.82876    263.78573   -504.24306    39062.633 
  953900    302.50794   -1527.4961    457.21748     283.2012   -582.18102    39062.633 
  954000    304.59858   -1548.1067    450.09846    264.82547   -28.117408    39062.633 
  954100    309.31912    -1531.929    455.35621    307.38152    624.08237    39062.633 
  954200    300.84203   -1550.7376    465.47424    260.76286    362.67604    39062.633 
  954300     301.0769   -1552.1649    492.60297    287.51513    556.06701    39062.633 
  954400    301.57791   -1565.2628    475.11633    259.17218    162.40015    39062.633 
  954500    307.31589   -1584.4915     501.4719    291.97184    210.12561    39062.633 
  954600    291.78337   -1600.7954     458.7247    163.42521   -270.93539    39062.633 
  954700    313.60895   -1595.4659     463.2629    270.94487   -551.69668    39062.633 
  954800    297.35117   -1565.9732    459.35161    223.78584   -862.77927    39062.633 
  954900     300.2288   -1541.6422    467.98515    269.62539   -724.91111    39062.633 
  955000    298.10341   -1591.9055    475.23014    217.09767   -861.13134    39062.633 
  955100    297.31989   -1568.8901    442.72204    204.09942   -156.97248    39062.633 
  955200    298.93693   -1597.5342    457.82453    197.79275    88.291266    39062.633 
  955300    299.15911   -1565.5133    486.49899    259.48218    552.00215    39062.633 
  955400    306.61568   -1583.8097    480.24482    268.29374    -164.5542    39062.633 
  955500    295.64191    -1632.823    452.43865    142.37548    266.11806    39062.633 
  955600    302.53591   -1647.0801    446.69524    153.22005    401.44703    39062.633 
  955700    300.52291   -1606.2708     462.9508    201.27834    585.04969    39062.633 
  955800    310.41012   -1605.6867    435.91332    219.06227    544.24491    39062.633 
  955900     301.6164   -1626.7515    462.56648    185.30579    539.47079    39062.633 
  956000    299.34824   -1624.4521    477.74923    192.63975    807.04226    39062.633 
  956100    314.10681    -1608.258    462.71547    259.83282    876.63976    39062.633 
  956200    308.30591   -1620.3625    443.07372    202.13221     417.0602    39062.633 
  956300    309.76809   -1623.2071    452.50904    215.26509    160.06747    39062.633 
  956400     303.9214   -1646.3316     467.5781    181.05043   -177.14318    39062.633 
  956500    291.59262   -1607.7339    491.67404    188.58269   -30.057242    39062.633 
  956600    298.15763   -1561.8175    445.83975    218.03787     318.7527    39062.633 
  956700    302.81521   -1610.6199    473.94064     218.1753    5.3814007    39062.633 
  956800    289.04289   -1588.4675    468.38884    173.15591    720.34807    39062.633 
  956900    307.78962   -1592.0027    450.32733    235.43565    816.51608    39062.633 
  957000    282.29932   -1547.0619    465.35645      181.357    329.14291    39062.633 
  957100     319.5627   -1587.5031    448.46951    290.75256    456.60251    39062.633 
  957200    312.00084   -1550.8891    448.99051    294.05425    1316.6514    39062.633 
  957300    312.89861   -1536.9446     478.4548    341.47983    183.14683    39062.633 
  957400    287.64223   -1577.7678    442.82443    152.02436    569.75988    39062.633 
  957500     306.0209    -1540.916    461.53565    289.81706    431.45011    39062.633 
  957600    292.92625   -1497.2118    468.53941    281.93699    122.60582    39062.633 
  957700    285.09397   -1548.7183    473.66988    200.51784   -426.09994    39062.633 
  957800    296.28824   -1526.5887     461.8943    260.95721    307.30019    39062.633 
  957900    299.16749   -1544.0061    459.56412    254.09199    137.23891    39062.633 
  958000    311.68163   -1499.2482    492.83325    388.10975    247.57584    39062.633 
  958100    312.14361   -1510.8103    471.20102    356.98236    65.235383    39062.633 
  958200     301.2724   -1553.2028    459.33206      254.081    193.94855    39062.633 
  958300    300.42226   -1552.5815    485.89124     277.4578    540.37256    39062.633 
  958400    306.45417   -1508.1138    473.54762    336.56975    313.23836    39062.633 
  958500    299.45712   -1486.5757     450.6357    303.88976    48.257256    39062.633 
  958600    297.73761   -1442.8532    480.44603    369.72919    166.29722    39062.633 
  958700    285.56471   -1467.3056    490.59094    300.95778     509.1095    39062.633 
  958800    286.89257   -1463.7716    486.96801    306.80995    678.88181    39062.633 
  958900    304.69439   -1477.0674    503.35483     389.5498   -369.21593    39062.633 
  959000    318.59151   -1458.7112    461.26352    427.99314   -33.330751    39062.633 
  959100    310.11055   -1501.1522    490.94654     377.2897   -157.02207    39062.633 
  959200    296.11477   -1547.7315    454.78428    231.92826   -482.88079    39062.633 
  959300    305.26031   -1523.1411    466.32261    308.97597   -443.58343    39062.633 
  959400    294.30485   -1500.8394    474.58704    290.52519   -842.04587    39062.633 
  959500    299.48385    -1506.832    452.40797    285.52532   -568.88263    39062.633 
  959600     293.5258   -1479.0056    478.25823    312.54458   -626.35889    39062.633 
  959700    301.70608   -1478.0825    470.26695    342.07654   -855.79415    39062.633 
  959800     294.7863   -1490.9995    465.92839    293.86056    -348.2522    39062.633 
  959900    306.83034   -1558.8878    462.47137    276.40265   -373.72189    39062.633 
  960000    294.79903    -1485.756    480.07765    313.31026   -274.36089    39062.633 
  960100    296.01452   -1535.1353    462.50973    251.80135   -181.08986    39062.633 
  960200    304.92446   -1501.4925    455.40307    318.20235    343.38097    39062.633 
  960300    310.02983   -1506.1752    475.00027    355.95927    203.32919    39062.633 
  960400    301.19429   -1545.6994    453.98782    255.89069   -188.61998    39062.633 
  960500    299.76926   -1595.5531     455.2254    200.89869   -387.57621    39062.633 
  960600    307.57512   -1525.3173    460.57267    311.40672   -232.39939    39062.633 
  960700    302.60573   -1550.7238    459.70047    262.89403   -152.46403    39062.633 
  960800    293.87342   -1559.4639    459.11312    214.49642   -456.06131    39062.633 
  960900    293.94977   -1544.0629    465.87669    237.00266   -318.42408    39062.633 
  961000    289.51849   -1553.1295    458.86456    201.09749   -632.62121    39062.633 
  961100    287.41606   -1540.1829    461.84579    207.61867   -82.467821    39062.633 
  961200    277.16778    -1571.391    429.33133    98.043322   -426.03217    39062.633 
  961300    304.14265   -1555.2184    444.83074    250.40609   -446.51849    39062.633 
  961400    305.44011   -1512.1851    501.56891    355.98268    79.492614    39062.633 
  961500     292.1926   -1469.4462    461.29464    299.17538   -69.598807    39062.633 
  961600    304.08343   -1511.4846    467.30422    316.34845    447.26411    39062.633 
  961700    294.69886   -1539.9727      458.387    236.95477   -63.372297    39062.633 
  961800    302.55124    -1515.286    456.28792     294.6754   -697.53516    39062.633 
  961900    305.99326   -1512.9738     450.3453    306.44525   -206.64472    39062.633 
  962000    284.78144   -1519.0506    460.15386    215.27124   -628.37645    39062.633 
  962100    304.03498   -1506.3697    452.52708    306.46942    80.871237    39062.633 
  962200    294.78703   -1531.7966    456.62204    243.76035    -61.33321    39062.633 
  962300    298.16594   -1478.6658    483.81533    339.20231   -104.10181    39062.633 
  962400     300.4009   -1472.8523    456.91414    328.11429    164.77589    39062.633 
  962500    279.47416   -1511.0731    487.80296    227.15195   -46.179267    39062.633 
  962600    301.02815   -1498.0758    468.28517    317.06829    98.276363    39062.633 
  962700    300.67674   -1515.4217    449.79462     279.6595    74.500117    39062.633 
  962800    298.89988     -1532.75    463.72249    268.30913    205.70626    39062.633 
  962900     296.1748   -1497.0032    473.26194    301.40282    601.21764    39062.633 
  963000    299.30472   -1525.6392     462.9517    276.46038    497.30456    39062.633 
  963100    303.08387   -1496.3078    466.05162    325.80044     934.7345    39062.633 
  963200    299.98615   -1501.0604    489.88134    331.01776    310.82603    39062.633 
  963300    297.72494   -1506.4968    480.29505    305.87794    597.60975    39062.633 
  963400    299.35701   -1523.9087    467.92852    283.40175    614.79198    39062.633 
  963500    299.72238   -1500.6131    464.79347    305.19697    969.85868    39062.633 
  963600    292.74548   -1468.2385     481.3825    322.94466    886.55066    39062.633 
  963700    292.98316   -1507.9596     497.4378    300.34226    529.45091    39062.633 
  963800    310.25158    -1525.044     461.8929    324.97527    420.60518    39062.633 
  963900    298.14846   -1497.4947    448.35798    284.83789    -218.8668    39062.633 
  964000    292.00747   -1464.0645    458.44106    300.87523   -440.81657    39062.633 
  964100    301.44496   -1463.5165     498.1092    383.31648    443.04835    39062.633 
  964200    303.63079   -1492.0372    462.20859    328.67499     12.35039    39062.633 
  964300    305.04496   -1521.5872    452.15555    295.39931    461.97207    39062.633 
  964400    289.01484   -1507.9946    482.35536    267.46981    207.06249    39062.633 
  964500    302.56098   -1591.1808    433.17529    195.71158     213.5432    39062.633 
  964600    305.04397   -1515.3709    450.07065    299.52626      435.397    39062.633 
  964700    306.48076   -1506.1532    493.09225    358.19397    622.37689    39062.633 
  964800    305.61987   -1495.0306    475.23068    347.60323    799.46163    39062.633 
  964900     308.3321    -1497.678    470.39484    352.25506    437.91216    39062.633 
  965000    294.34496   -1484.8958    483.60913    315.67031    373.48224    39062.633 
  965100    296.89978   -1532.5432    450.39852    246.24313    500.31676    39062.633 
  965200    300.58198   -1535.9234    456.06354    265.00277    662.60381    39062.633 
  965300    291.23575   -1526.8535    472.69884    248.89117    236.09046    39062.633 
  965400    304.29175   -1535.1906    449.50025    275.77055     490.2294    39062.633 
  965500    293.97414   -1510.3686    489.97826     294.9076    329.04046    39062.633 
  965600    301.70582   -1502.3006    494.81301     342.4033   -316.94771    39062.633 
  965700    289.86956   -1492.3902    477.34888    281.89181    295.29791    39062.633 
  965800    305.31527   -1474.3964    483.66602    375.30993    244.12959    39062.633 
  965900    305.52302   -1450.5952    482.29562    398.67027    323.67922    39062.633 
  966000    303.61557   -1480.4713    471.02021    348.98442    345.56366    39062.633 
  966100    300.93908   -1472.8457    479.11956    352.73428    472.37411    39062.633 
  966200    298.00869   -1456.2375    477.60988    354.72162   -14.656761    39062.633 
  966300    296.13844   -1475.6598    459.31694     308.6385    281.79495    39062.633 
  966400    303.19806   -1502.0383    505.37979    359.90899    287.95057    39062.633 
  966500    295.94261   -1502.4893     487.5223    309.13823    802.56437    39062.633 
  966600    299.15652   -1507.9578     480.3592     310.8863    647.86601    39062.633 
  966700    300.03306   -1460.1038    482.71504    365.01793    681.21986    39062.633 
  966800    299.81039   -1458.4354    492.16819    375.14326    468.38515    39062.633 
  966900     308.8946   -1492.9344     471.8338    360.95438    -476.7083    39062.633 
  967000    293.64404   -1469.2741    482.93396     327.4808    12.635153    39062.633 
  967100    307.40576   -1461.7988    507.41164    421.00642   -52.686717    39062.633 
  967200    299.44572   -1482.1414    481.27548    338.91288   -260.65106    39062.633 
  967300    296.86607   -1530.2115    472.42007    270.44559   -310.10365    39062.633 
  967400    298.47744   -1508.0826     479.2579    306.62184   -293.86337    39062.633 
  967500    306.19966   -1486.2756    459.83073    343.55242   -624.58541    39062.633 
  967600     301.8771   -1493.6444    471.89331    328.90618   -382.15846    39062.633 
  967700    305.93401    -1492.001    472.24064    349.04831    284.04353    39062.633 
  967800    299.28101   -1555.9453    475.14462     258.2412   -175.32442    39062.633 
  967900     305.4099   -1497.9622    465.54151    334.04306   -16.156998    39062.633 
  968000    301.16801   -1521.8222    488.68716    314.34967    34.218487    39062.633 
  968100    298.79178   -1511.2374    470.66945    296.28503    248.76483    39062.633 
  968200    294.71252    -1530.622    484.40217    272.38167   -238.42529    39062.633 
  968300    287.84747   -1533.4891    462.42666    216.82354    61.415034    39062.633 
  968400    300.98956   -1545.9071    464.00933    264.78843    243.38432    39062.633 
  968500    293.67648   -1524.7161    459.92749    249.17749   -229.05332    39062.633 
  968600    303.29554   -1537.0027    462.44996    282.45091   -243.38333    39062.633 
  968700    291.32362   -1518.4604    478.72488    263.70345   -199.47155    39062.633 
  968800    297.41537   -1511.5614    461.56971    280.70287   -251.99401    39062.633 
  968900    300.93709   -1538.2041    469.32545    277.57277   -36.088629    39062.633 
  969000    287.80313   -1541.9094    478.97882      224.757   -153.26232    39062.633 
  969100    294.14644   -1503.6301    478.62429    291.06298   -173.08073    39062.633 
  969200    297.49498   -1524.8477    509.03523    315.23832   -602.76788    39062.633 
  969300    300.57214   -1536.7437     473.1594    281.23427    354.30848    39062.633 
  969400    291.22857   -1540.5694    465.35903    227.80328    332.86717    39062.633 
  969500    293.48773   -1442.2654    476.58609    347.44228    238.92798    39062.633 
  969600    294.78002   -1540.2178    482.16809     260.8538    397.31745    39062.633 
  969700     299.5404    -1496.619    477.47443    321.05786    406.57868    39062.633 
  969800    307.67101   -1486.1988    480.74095    371.12248    618.19304    39062.633 
  969900     300.8617   -1553.3891    487.45755    280.18266    404.55898    39062.633 
  970000    297.42339   -1533.3554    470.17078    267.54588    515.20359    39062.633 
  970100    300.68698   -1508.6647    499.29806    335.96585    425.54581    39062.633 
  970200    292.56103   -1511.2173    473.25399    271.01206      805.943    39062.633 
  970300    297.60506   -1499.0477    516.09477    348.59037    484.02708    39062.633 
  970400    303.18338   -1549.8311    435.07625    241.74697    854.96302    39062.633 
  970500    306.55227   -1495.0466    525.76285     402.2911    409.36748    39062.633 
  970600    295.06768   -1476.4572    492.05303    335.78645   -147.91726    39062.633 
  970700     293.9838   -1496.1512    467.63473    286.82462   -17.825314    39062.633 
  970800    309.02392   -1515.0595    481.27666    348.85069   -36.842338    39062.633 
  970900    303.44679   -1502.1149    452.12068    307.68616   -208.78433    39062.633 
  971000    295.32999   -1546.7483    485.09169     259.7076    157.53714    39062.633 
  971100    300.23593   -1551.6118    459.39451    251.09703   -67.275792    39062.633 
  971200    306.97005   -1530.2731    511.23807    354.40906   -50.823958    39062.633 
  971300    301.85059   -1520.3107    463.96208    294.19006    35.055333    39062.633 
  971400    289.87332   -1543.9398    463.75035    216.76058    137.11759    39062.633 
  971500    308.90109    -1527.838    455.19085    309.43679   -572.07097    39062.633 
  971600    295.09545   -1507.2991    465.65063    278.66633   -223.12364    39062.633 
  971700    305.95941   -1560.4842    488.72497    297.16307   -305.81245    39062.633 
  971800    295.04685   -1516.4037     455.9518    259.64545   -256.17527    39062.633 
  971900    296.36453   -1483.2628     502.8166    345.54677   -282.40774    39062.633 
  972000    303.27452   -1515.4921    455.93302    297.35052   -76.393276    39062.633 
  972100    304.22732   -1462.3538    473.83143    372.65026   -647.64027    39062.633 
  972200     292.6441   -1532.0372    494.36285    271.67268    85.801929    39062.633 
  972300    303.16284   -1496.2312    484.97491    345.15366   -56.251591    39062.633 
  972400    307.90519   -1515.2235    468.12875     330.5334    137.28244    39062.633 
  972500    293.50912   -1519.4209    464.46345    258.25985     598.9322    39062.633 
  972600    292.04493   -1489.6633    480.00518    297.00809   -59.652534    39062.633 
  972700    304.08799   -1509.9182    495.84358    346.47455    247.29784    39062.633 
  972800    300.06802   -1528.6969    476.36148    290.22769    607.41508    39062.633 
  972900    300.67288   -1558.1828    488.73869    275.82524    873.49736    39062.633 
  973000    299.14981   -1500.9809    468.42119    305.89517    337.16892    39062.633 
  973100    303.92005   -1476.8316    474.45408    357.42037   -702.32297    39062.633 
  973200     300.9177   -1554.2909    464.49437    256.56814    -643.5128    39062.633 
  973300    306.89572   -1480.2259    462.26566    355.15139   -395.85553    39062.633 
  973400    299.58375   -1487.1254    464.05423    317.32519   -627.63562    39062.633 
  973500    308.71479   -1510.6412    473.73649    344.34577   -574.74344    39062.633 
  973600    296.71509   -1532.8891    451.80503    246.47736    117.17207    39062.633 
  973700    304.92841   -1516.4812    459.11151    306.93974   -500.49243    39062.633 
  973800    301.54363    -1481.421    495.39906     363.1433   -140.35782    39062.633 
  973900    284.58377   -1491.8555    446.30714    227.73524   -725.72482    39062.633 
  974000    301.01815    -1427.231    487.81959    407.40276   -403.14269    39062.633 
  974100    302.43193   -1479.2982     477.8506    351.69205   -432.93621    39062.633 
  974200    300.13785   -1505.6214     484.5456    321.79973     175.1726    39062.633 
  974300    302.42272   -1489.8051    461.12592    324.41926   -31.213819    39062.633 
  974400    313.57598   -1498.7271    449.42582    353.69905     151.7762    39062.633 
  974500    305.83406   -1532.3658    482.85935    318.85509    489.45552    39062.633 
  974600    313.27303    -1455.005    509.85308    456.49299    698.38384    39062.633 
  974700    295.64059   -1453.8652    474.79263    343.68136    31.539158    39062.633 
  974800     305.3057   -1490.9362    480.70811    355.76939    124.07311    39062.633 
  974900    301.63016   -1463.6198    471.89063    357.82326   -60.902138    39062.633 
  975000    289.27597   -1492.9598    480.49399    281.81155   -467.59952    39062.633 
  975100    306.49796   -1521.7672    459.30232    308.86706   -344.51155    39062.633 
  975200    307.31058   -1478.3905    457.50449    354.08177   -501.50137    39062.633 
  975300    315.22412   -1533.3566    497.01936     374.0372    177.21553    39062.633 
  975400    301.98565   -1527.0274    493.69733    317.81285    699.34949    39062.633 
  975500    299.13611   -1522.8608    475.65427    291.18698    229.45273    39062.633 
  975600    301.95056   -1500.9464    461.71663    311.75618   -225.06554    39062.633 
  975700    297.78482   -1498.2298    486.37951     320.4973   -43.820635    39062.633 
  975800    307.09613   -1487.6743    483.50703    369.84102    18.325613    39062.633 
  975900    299.24184   -1494.8005    474.40565    318.47175   -112.35567    39062.633 
  976000     302.2074   -1463.1049    486.78047    375.81071   -165.12764    39062.633 
  976100    300.65251   -1491.4494    473.43086    327.15969   -125.23977    39062.633 
  976200    310.06651   -1500.8493    442.62023    329.06921    96.251131    39062.633 
  976300     296.7521   -1512.2082    464.67586    280.19468     129.2715    39062.633 
  976400    290.27487   -1498.5703    483.46249    283.63883    610.99586    39062.633 
  976500    294.81783   -1541.3472    486.40597    264.13146    693.88242    39062.633 
  976600    309.81897   -1472.4256    474.45604    388.22122    685.58783    39062.633 
  976700    297.57015   -1501.8437    480.38597    309.92939    416.65819    39062.633 
  976800    285.49034   -1493.9535    476.57122    259.95743    572.21048    39062.633 
  976900     294.1991   -1496.6194    469.67933    289.36431   -117.25406    39062.633 
  977000    311.77341   -1523.3751    476.26852    347.82877    240.57349    39062.633 
  977100    289.57111   -1533.9348    477.95264    239.61569    202.75047    39062.633 
  977200    304.87682   -1495.6949    442.18438    310.56812    35.670897    39062.633 
  977300     307.1786   -1543.9531    482.98972    313.41385   -216.64682    39062.633 
  977400    297.26831   -1527.6557    490.29523     292.6762   -60.719395    39062.633 
  977500    303.74518   -1513.4721     470.1175    315.66083   -300.75483    39062.633 
  977600    305.39799   -1541.4789    473.51794    298.44943   -56.526015    39062.633 
  977700    297.06354   -1534.9908    475.31552    269.44521    892.93676    39062.633 
  977800    305.61641    -1537.982    470.36991     299.7756    437.94751    39062.633 
  977900    303.97521   -1569.0467    488.19927    279.19722    913.36291    39062.633 
  978000    304.08848   -1530.6138    471.44392    301.38153     377.5129    39062.633 
  978100    295.86619   -1541.2907     482.9369    265.40948    378.70563    39062.633 
  978200    295.99374   -1526.1005    497.80855    296.04201    478.82229    39062.633 
  978300    302.80789   -1564.8617    487.00637    276.96646     281.4212    39062.633 
  978400      296.993   -1549.7207    454.99679    234.08095   -324.39423    39062.633 
  978500    308.31145   -1531.9923    471.73658    319.19013   -846.70763    39062.633 
  978600    310.71395   -1547.6492    460.01024     302.5561   -782.48153    39062.633 
  978700    303.22565   -1583.7903     474.7632    247.66386   -196.11505    39062.633 
  978800    300.80392   -1567.5462    475.13575    253.44526   -41.721048    39062.633 
  978900    310.69148   -1537.9653    444.98857    297.11776    78.228137    39062.633 
  979000    290.55799   -1509.0429    444.93927    235.90977   -529.90696    39062.633 
  979100    298.61179   -1501.9842    499.56773    333.63115   -547.43029    39062.633 
  979200    299.33148   -1511.3685    478.05995    305.95915   -50.155375    39062.633 
  979300    295.29479    -1507.602    487.80552    301.41028   -416.97064    39062.633 
  979400     303.7894   -1484.1768    472.28129    347.31771    24.938208    39062.633 
  979500    305.78994   -1523.7388    497.11526     341.5406    333.32007    39062.633 
  979600    291.61612    -1522.108    452.27636    234.91596     -32.5498    39062.633 
  979700    311.40639   -1556.3681    487.47194    324.39706    396.13125    39062.633 
  979800     304.2211   -1551.8333    455.90014    265.21165    215.09023    39062.633 
  979900    296.19255   -1502.9494    481.20626    303.48039   -406.20773    39062.633 
  980000    305.65559   -1502.9125    490.48296    355.13344   -299.39626    39062.633 
  980100    304.85922   -1532.5753    474.88317    306.30777   -574.03119    39062.633 
  980200    294.99359   -1513.0564    470.41757    277.22031   -166.78792    39062.633 
  980300    305.42278   -1524.2527    490.64243    332.91111   -57.487534    39062.633 
  980400     303.5602   -1514.7955    452.84809    296.24035   -494.77052    39062.633 
  980500     304.7064   -1500.7237    467.94173    330.53414   -758.57976    39062.633 
  980600    305.51545   -1514.8209    490.58663    342.70169   -45.800178    39062.633 
  980700    311.47985   -1483.8895     498.1045    407.83692    -95.60037    39062.633 
  980800    298.83446   -1542.5211    477.02371    271.54655     686.6674    39062.633 
  980900    302.02632   -1518.3631    472.05414    305.01591    103.82883    39062.633 
  981000    286.60224   -1507.7802     485.2499    259.78425   -117.99234    39062.633 
  981100    308.30912   -1454.4012    476.59805    401.63231    171.93605    39062.633 
  981200    299.04579   -1473.0549    504.54413     369.4787    306.91491    39062.633 
  981300    293.67029   -1483.5885    469.25463    299.60458    234.57917    39062.633 
  981400    291.44796   -1483.0912    505.56731    326.47139   -52.413803    39062.633 
  981500    297.83855    -1480.622    467.80628     319.7723    326.40035    39062.633 
  981600     308.0034   -1469.0305    519.34442    428.38145    31.122708    39062.633 
  981700    297.54182    -1516.917    465.70286    280.04619    156.80546    39062.633 
  981800    306.03195   -1527.6534    488.22609    329.81965     533.6522    39062.633 
  981900    303.03914   -1495.9936    476.07379    335.93662    340.24136    39062.633 
  982000    297.72023   -1492.9778    471.58747    310.66829    318.32401    39062.633 
  982100    287.93396   -1514.7604    506.86863    280.38124   -9.8441803    39062.633 
  982200     295.3773   -1528.1121    458.96326    252.42701    203.39885    39062.633 
  982300    304.40583   -1521.8933    492.75528    332.83324   -250.67595    39062.633 
  982400     301.9505   -1479.4819    492.51995    364.02372   -74.316149    39062.633 
  982500    282.33989   -1547.3939     453.6169    169.46695    353.71341    39062.633 
  982600    302.35491   -1549.2589    458.24565    261.78184     475.7553    39062.633 
  982700    307.91862   -1564.8971    465.11236    277.90348    683.89921    39062.633 
  982800    306.52864   -1569.3055     487.4861    289.64976    798.41916    39062.633 
  982900    297.51209    -1603.628    451.47664    178.97602    712.21518    39062.633 
  983000    304.08475   -1489.5397    489.70147     360.6965   -308.14427    39062.633 
  983100    303.98161   -1491.5028    464.83418    333.40462   -250.49025    39062.633 
  983200    301.53064   -1494.3695    501.39703     356.1347   -480.95844    39062.633 
  983300    307.60578   -1533.7443    476.05921    318.60341   -926.53149    39062.633 
  983400    300.26887   -1517.2533    460.70582    286.91429   -1057.1881    39062.633 
  983500    291.21102   -1515.4618    469.89693    257.37032   -648.53836    39062.633 
  983600    306.81668   -1483.5961    484.81678    373.97863   -448.75576    39062.633 
  983700    297.80662   -1519.4323    485.41858    298.43138   -599.20451    39062.633 
  983800    290.26566   -1547.7594     510.8554    261.80144   -204.00389    39062.633 
  983900    301.20395    -1490.069    464.56155    322.13809   -230.86071    39062.633 
  984000     298.8708   -1523.0373    490.66925    304.83849   -411.31196    39062.633 
  984100    305.27801   -1553.0215    471.25128     284.1034    393.31342    39062.633 
  984200    294.99318   -1548.6802    481.86132     253.0384    629.80969    39062.633 
  984300    296.28359   -1525.6545    486.46169    286.43802    322.35796    39062.633 
  984400     282.2411    -1497.958    507.96611    272.81005    2.2703987    39062.633 
  984500    310.12202   -1490.7866    480.81142    377.57149   -552.27501    39062.633 
  984600    294.64108   -1494.4062    505.11162     328.9873    -590.6149    39062.633 
  984700    292.52027   -1500.6775      463.965    272.08048   -833.84125    39062.633 
  984800    296.51986   -1505.1611    495.36531    316.89216   -961.74472    39062.633 
  984900    296.26217    -1533.947    487.64683     279.2348    -409.2084    39062.633 
  985000     302.2998   -1517.8773    460.21239    294.88359    59.603566    39062.633 
  985100    301.76846   -1483.9408    489.42592    355.65636   -486.90004    39062.633 
  985200    303.34931   -1496.6833    480.18482    340.74579   -317.99143    39062.633 
  985300    301.42135   -1528.8721    479.10719    298.85323   -402.50572    39062.633 
  985400    294.54786   -1550.4709    473.61538    241.00934   -150.63084    39062.633 
  985500    303.49235   -1574.3671    485.32932    268.84644    223.36811    39062.633 
  985600    308.54516   -1528.7696    485.38799    337.10986     -3.63776    39062.633 
  985700    306.35518   -1501.3045    479.87935    349.26796   -363.89504    39062.633 
  985800    297.47806   -1546.3108     484.3203    268.98462   -149.87314    39062.633 
  985900     305.5823   -1584.5658    458.99846    241.66777    -1.366491    39062.633 
  986000    290.70861    -1521.172    492.17519    271.69044   -104.90815    39062.633 
  986100    298.81443   -1529.0342      494.573    302.49305   -84.745349    39062.633 
  986200    300.09115   -1534.4502    468.14798    276.36434    441.71596    39062.633 
  986300    295.82951   -1533.6022    510.27491    300.27187     252.0517    39062.633 
  986400    300.38192   -1529.1116    496.78827    311.64418    501.11062    39062.633 
  986500    302.61213   -1518.1847    482.84224    318.60351    606.93059    39062.633 
  986600    294.02188   -1500.0399     495.3502    310.82179    393.10676    39062.633 
  986700    305.88693   -1512.5776     499.4159    355.43632    746.46441    39062.633 
  986800    294.05681   -1508.0001    474.33299    282.00064    360.42517    39062.633 
  986900    303.89877   -1499.6772    481.60666    341.63209    22.528203    39062.633 
  987000    295.93225     -1498.66    493.08921    318.48808   -318.43934    39062.633 
  987100    295.62066   -1512.1688    475.67175    286.16776   -514.97168    39062.633 
  987200    299.74745   -1468.8151    488.38956    360.70333   -754.89217    39062.633 
  987300    303.38535   -1527.0175    491.92032    322.30828   -221.25245    39062.633 
  987400    293.98658   -1521.5527    504.28251    298.08333    47.205106    39062.633 
  987500    291.95666   -1502.9111    486.43131    289.79146    25.490802    39062.633 
  987600    311.59814   -1487.1533    495.45811    402.45592    220.90618    39062.633 
  987700     291.5004   -1518.1286     474.8532    260.95446   -117.72875    39062.633 
  987800    304.55809   -1497.9244    460.19127    324.91941    323.37278    39062.633 
  987900    294.13705   -1523.6528    472.84574     265.2197    324.22076    39062.633 
  988000     317.0985   -1496.4303    471.81505    394.14558    46.144219    39062.633 
  988100    293.72544   -1497.9183    475.69074    291.95759   -279.71436    39062.633 
  988200    305.12322   -1462.5966    492.03341    394.61792   -635.31589    39062.633 
  988300    294.49944   -1493.8769    470.73882    294.51012   -758.84933    39062.633 
  988400    298.61046   -1513.4284    485.88054    308.49379   -242.22128    39062.633 
  988500    305.24903   -1472.6773    468.25663     361.3233    83.353969    39062.633 
  988600    308.77014   -1460.7405    509.03246    429.79006   -238.40995    39062.633 
  988700    288.58709   -1475.3635    489.60831    305.43997   -178.94181    39062.633 
  988800    292.45143   -1459.4151    506.12695    355.19679   -303.32346    39062.633 
  988900    299.39232   -1493.7945    497.50448    343.24985   -120.91443    39062.633 
  989000    294.86984   -1492.5104     470.7639     297.5589   -282.09716    39062.633 
  989100    302.35533   -1466.9134    486.20004     372.0836     304.9541    39062.633 
  989200    298.94255   -1483.0509    471.83169    326.30831    87.001682    39062.633 
  989300    290.00381   -1514.6774    490.42197    273.27846    47.279368    39062.633 
  989400    294.89606   -1525.0847    501.12517     295.4632    89.123785    39062.633 
  989500    296.77472   -1513.8387     477.7394    291.72895   -58.553589    39062.633 
  989600    297.17701   -1565.0622    507.59856    272.16454   -356.43922    39062.633 
  989700    300.04873   -1567.3499    446.80091     221.9278   -318.87127    39062.633 
  989800    308.82217   -1543.9288     489.8768    327.67893   -615.94241    39062.633 
  989900     289.6777   -1523.2574     498.1545    270.97182    129.76492    39062.633 
  990000    305.83793   -1516.4656    471.69418    323.60736   -339.80726    39062.633 
  990100    298.50412   -1547.3123    507.46104    295.71466    281.36781    39062.633 
  990200    297.35899   -1558.7776    476.29361    247.95835    146.43831    39062.633 
  990300    291.35044   -1528.9347    496.67384    271.29814   -204.12496    39062.633 
  990400    306.21313    -1518.856    479.40703    330.60855    235.18797    39062.633 
  990500    302.01008   -1541.1579    507.43709    317.53143   -328.51888    39062.633 
  990600    298.73669   -1503.1247    489.49518    322.97699   -358.58698    39062.633 
  990700    301.80604    -1537.098    506.03151    319.27286   -361.05904    39062.633 
  990800    308.82743   -1535.5933    460.95433    307.11537   -568.00907    39062.633 
  990900    297.02878   -1516.1285    478.96115    291.79764   -969.28894    39062.633 
  991000    299.11022    -1548.706    501.88463    291.45639   -522.21885    39062.633 
  991100     296.0046   -1573.4486    469.86373    220.79764   -203.45549    39062.633 
  991200    309.96486   -1504.9215    476.22172    358.14367    179.25748    39062.633 
  991300    291.48825   -1518.2446    521.85306    307.78404   -176.47095    39062.633 
  991400    301.14408   -1529.5283     463.3128    281.16214   -456.29805    39062.633 
  991500     305.1522    -1525.615    491.58613    331.28181      34.3894    39062.633 
  991600    301.01661   -1529.6318    477.33765     294.5131   -382.27434    39062.633 
  991700    294.26822   -1490.1327    489.77248    316.25342    50.968212    39062.633 
  991800     297.3642   -1504.2194    495.57618    321.82248    293.49084    39062.633 
  991900    297.07206    -1505.378    485.04115    308.82169    89.311609    39062.633 
  992000    309.14587   -1496.0739    500.20875    387.31403    38.386377    39062.633 
  992100    298.00627   -1525.6291    510.80178    318.51108     108.4705    39062.633 
  992200    298.76566   -1509.5077    506.18533    333.41374    43.106832    39062.633 
  992300    311.24338   -1512.2264    487.89332    368.23073   -64.075025    39062.633 
  992400     294.8854    -1472.902    491.73482     338.2079   -324.18759    39062.633 
  992500    302.10802   -1483.7866    485.38029    353.28413    -27.61549    39062.633 
  992600    303.62842   -1504.8217    478.20802    331.87932   -618.35514    39062.633 
  992700    311.91193    -1501.166    437.00402    331.39314   -733.93312    39062.633 
  992800    299.20098   -1526.9775    503.09684     314.8031   -330.25199    39062.633 
  992900    293.50803   -1521.6205    493.27703    284.86893   -189.45549    39062.633 
  993000    298.29021   -1511.2405    502.55399     325.9223    63.024329    39062.633 
  993100    301.06102   -1519.8159    498.80842    325.99851    150.80366    39062.633 
  993200    303.24755   -1532.6144    478.18798    302.36251    647.40699    39062.633 
  993300    290.91458   -1544.4253     466.5822    223.76567    680.95633    39062.633 
  993400    309.31621   -1509.2152    494.81836    369.54453    532.71657    39062.633 
  993500    312.50228   -1515.8525    491.03746    373.38131    361.29823    39062.633 
  993600    295.96804   -1516.3913    492.94864    300.77628    257.05503    39062.633 
  993700    308.31905   -1518.5702    488.02441    348.93403    375.90216    39062.633 
  993800    310.36086   -1482.7001    490.10347    396.01868   -284.55473    39062.633 
  993900     306.8908   -1508.6837    477.80703    342.21286    313.92737    39062.633 
  994000    291.83066   -1485.0153    516.47532    337.16755    784.14034    39062.633 
  994100    299.05693   -1502.4408    475.54929    311.14774    335.80573    39062.633 
  994200    298.38496    -1511.142    512.80478    336.69548    489.90663    39062.633 
  994300    315.52925   -1521.8294    487.83537    377.74563   -78.651673    39062.633 
  994400    301.53843   -1487.3714    494.15524    355.92578   -113.18516    39062.633 
  994500    300.84534   -1506.9191    474.76096    313.88285   -410.39352    39062.633 
  994600    305.12592   -1520.8243    508.33441     352.7032    127.86211    39062.633 
  994700    304.35614    -1509.637    488.53061    340.64255    2.1532109    39062.633 
  994800    302.80202   -1509.8205    463.46726    308.44231    116.50056    39062.633 
  994900    292.64263   -1472.5642    507.97751    344.75376     171.3741    39062.633 
  995000    309.31783   -1516.3431    502.02057    369.62601    449.59476    39062.633 
  995100    287.00203   -1521.0479    503.00618    266.06159   -76.849716    39062.633 
  995200     294.8061   -1532.6539    479.59861    265.96492    62.803544    39062.633 
  995300    295.81119    -1493.953    477.53573    307.09993    306.20332    39062.633 
  995400    298.72812   -1504.8915    511.36048    343.03714    709.68119    39062.633 
  995500    307.06436   -1525.5632    498.44918    346.75207    230.39916    39062.633 
  995600    308.90764   -1551.9167    455.84854    286.04513     56.61821    39062.633 
  995700    308.55072   -1552.2109    475.95097    304.25647    59.083349    39062.633 
  995800    309.73886   -1510.5241    516.08101    391.38928    604.90654    39062.633 
  995900    297.95187   -1498.1943    484.81871    319.71941    544.28143    39062.633 
  996000    284.60928   -1534.7177    487.96321    226.64316   -16.209286    39062.633 
  996100     295.3464   -1529.6128    488.96328     280.7881    670.39762    39062.633 
  996200    296.35939   -1505.0526    489.30534    310.22267    438.91379    39062.633 
  996300    296.61532   -1568.6393    475.38099     233.8568    229.81355    39062.633 
  996400    302.87189   -1530.9504    477.60488    301.76266    349.19958    39062.633 
  996500    306.14414    -1560.634    473.47031    282.58517   -246.65166    39062.633 
  996600    301.74284    -1535.141    488.66226    303.57786   -244.70616    39062.633 
  996700    294.90811   -1511.3195    481.14517    289.30237   -19.148364    39062.633 
  996800    304.94537   -1511.5088    482.05928    334.93582   -250.86032    39062.633 
  996900    294.70754   -1500.8431    477.69306    295.42927    60.804503    39062.633 
  997000    297.39289    -1522.749    470.47368     278.3187     39.57988    39062.633 
  997100    306.44774   -1512.4903    492.38303    350.99989     537.4288    39062.633 
  997200     294.6829   -1535.5863    475.31965    258.20235    81.113836    39062.633 
  997300    294.86011   -1553.1942    458.10845     224.1761    319.27044    39062.633 
  997400     293.0573   -1541.3181    487.44079    257.31849    218.44693    39062.633 
  997500    293.00874    -1525.817    483.41384    268.57531    368.57501    39062.633 
  997600    302.63606   -1570.9825    468.61681    251.68735   -225.77044    39062.633 
  997700    300.09878   -1605.8935    461.11958    197.92682   -265.18047    39062.633 
  997800     302.7829   -1565.8612      459.564    248.41282   -102.53784    39062.633 
  997900    302.40548   -1554.6454    449.87474    248.25071   -417.07932    39062.633 
  998000    296.57731    -1547.216      476.502    256.23099   -477.50512    39062.633 
  998100    301.16296   -1540.9224    455.42015    261.95987   -155.79835    39062.633 
  998200    292.22282   -1574.5447    433.47218    166.38959   -33.627145    39062.633 
  998300    303.28802   -1539.4749    495.13863    312.63377   -308.88537    39062.633 
  998400    293.29671   -1476.3601    490.93419    326.84102   -423.96696    39062.633 
  998500    298.56579    -1473.683    475.82742    337.98622    654.95345    39062.633 
  998600    310.12743    -1494.754    471.44267    364.25959    464.17935    39062.633 
  998700    306.09589   -1480.3041    477.97492    367.20381    761.32164    39062.633 
  998800    291.46274   -1485.4127    465.52387    284.17251    661.45016    39062.633 
  998900    308.64828   -1511.0906    517.87276    387.73507    693.13042    39062.633 
  999000    296.09283   -1533.9309    456.81816    247.66457    490.27907    39062.633 
  999100    299.54283   -1541.7772    482.05834    280.49442    381.14932    39062.633 
  999200    297.17613   -1539.5739    487.71077    277.76107    223.35153    39062.633 
  999300    296.26108    -1541.259    443.43975     227.7109   -176.90591    39062.633 
  999400    314.94817   -1493.0852    481.24014    397.29471    76.704249    39062.633 
  999500    292.73376   -1463.5879    501.12853    347.28888    634.36085    39062.633 
  999600    306.39104   -1492.3323    497.33722    375.85838     492.0265    39062.633 
  999700     302.7063    -1508.382     481.1415    327.12672    794.11104    39062.633 
  999800    294.31128   -1521.0739    494.33149    290.06388    705.22697    39062.633 
  999900    288.30183   -1529.1457    489.76197    250.53512    555.92207    39062.633 
 1000000    301.01183   -1528.9857    478.42384    296.22408    613.50903    39062.633 
 1000100    297.84854    -1478.294    496.93738    351.27615    680.66844    39062.633 
 1000200     292.2647   -1489.8309    484.80307    302.62169    698.32842    39062.633 
 1000300    305.74461   -1483.0298    485.18881    370.12024     376.9088    39062.633 
 1000400      312.618   -1487.7293    480.79688    391.78174    89.239165    39062.633 
 1000500    305.61742   -1504.2862    483.84189    346.94791    697.64871    39062.633 
 1000600    309.29408   -1519.0838    472.10337    336.86184    458.49617    39062.633 
 1000700    302.39446   -1440.9953    474.67114    386.64788    147.37277    39062.633 
 1000800    301.78571   -1483.1588    484.91926     352.0088    282.69884    39062.633 
 1000900    300.81868    -1527.613    484.90311    303.21184    486.24874    39062.633 
 1001000    307.93158   -1521.8851    487.44242    343.30357    361.71637    39062.633 
 1001100    299.67891   -1499.6729    486.87769    328.02691    92.245434    39062.633 
 1001200    294.35917   -1514.7799    472.78607    275.02675   -135.49245    39062.633 
 1001300     301.0005   -1518.2922    457.83702    286.28006    367.24882    39062.633 
 1001400    301.02491   -1508.6515    484.84424    323.03713    -82.86981    39062.633 
 1001500    294.96325    -1475.373    465.47242    309.82274    86.871827    39062.633 
 1001600    309.41903   -1471.7057    467.07476    379.77042   -210.78841    39062.633 
 1001700    294.04606   -1477.1289    476.29611    314.78692   -599.44818    39062.633 
 1001800    305.43327   -1471.8673    461.14575     355.8467   -611.38741    39062.633 
 1001900     294.9879   -1507.9854    490.21914    302.06737   -254.71483    39062.633 
 1002000    300.85072   -1451.4101    490.40668    385.06161   -603.03939    39062.633 
 1002100    297.06088   -1441.2459     488.7747    376.63736    -149.2066    39062.633 
 1002200    310.94641   -1465.3421    488.63478    414.52788    15.189384    39062.633 
 1002300    291.68596   -1502.0327    489.88274    292.91012    504.64191    39062.633 
 1002400    303.47906   -1442.1283    472.25773    387.95422    486.85368    39062.633 
 1002500    297.77262    -1483.931    501.82841    350.19046    422.27349    39062.633 
 1002600    304.29559     -1510.11    461.52428     312.8924   -115.59095    39062.633 
 1002700    292.51685   -1509.9296    468.82113    267.66923     377.7626    39062.633 
 1002800    300.08188   -1515.9026    474.93883    301.66137    5.7554474    39062.633 
 1002900    301.11622   -1533.1416    500.63799    314.74935    126.49738    39062.633 
 1003000    293.80979   -1499.1663    475.57542    290.97171   -604.92371    39062.633 
 1003100    299.88594   -1498.6832    486.97732    330.04258   -239.30502    39062.633 
 1003200    290.32155   -1494.5763    473.31488    277.69409   -481.96942    39062.633 
 1003300    305.52482   -1460.8139    473.18695      379.351   -267.14124    39062.633 
 1003400    296.28028   -1459.0508    494.80528    361.37047   -508.05447    39062.633 
 1003500    302.57322   -1489.6053    466.87797    331.04452   -225.06473    39062.633 
 1003600    309.70067   -1491.6963    473.76502    367.73021    159.87686    39062.633 
 1003700    301.27066   -1471.2804    481.12081    357.78437   -394.91882    39062.633 
 1003800    299.90677   -1505.9133    473.57712    309.50547   -422.92384    39062.633 
 1003900    291.92437   -1535.6729    477.05963    247.51352   -302.22928    39062.633 
 1004000    301.57572   -1501.1124    486.55437     334.7508   -242.70227    39062.633 
 1004100    295.37026   -1493.6804    498.44823    326.31224    378.59638    39062.633 
 1004200    289.96707   -1515.4405    467.79815    249.72709    -48.30639    39062.633 
 1004300    299.20617    -1518.864    476.29569    296.13873   -111.44808    39062.633 
 1004400    293.83333   -1469.4379    479.47358    324.70357   -392.63414    39062.633 
 1004500    299.46567   -1485.2833    480.35133    334.93607   -122.12567    39062.633 
 1004600    303.43634   -1476.0035    491.77032    373.40048   -351.89207    39062.633 
 1004700    309.41708   -1461.6946    478.10311    400.80116    51.606588    39062.633 
 1004800    300.63813    -1519.956    447.86766    273.02555     118.9836    39062.633 
 1004900    296.29712   -1547.5154    479.23027    257.40628    -201.4877    39062.633 
 1005000    304.98262   -1545.0413    484.84481    304.35544    309.86367    39062.633 
 1005100    304.33506    -1482.687    479.40866    358.37638   -197.38862    39062.633 
 1005200    294.61133   -1482.1857    463.11363    299.07673   -391.77624    39062.633 
 1005300      302.491   -1520.6078    468.52954    301.32572    137.83202    39062.633 
 1005400    305.64762     -1475.74    456.95619    348.74348    239.71975    39062.633 
 1005414    287.51193   -1501.0759    496.62729    281.93603   -516.12001    39062.633 
Loop time of 614.161 on 32 procs for 1000000 steps with 1502 atoms

Performance: 140.680 ns/day, 0.171 hours/ns, 1628.238 timesteps/s
100.0% CPU use with 32 MPI tasks x no OpenMP threads

MPI task timing breakdown:
Section |  min time  |  avg time  |  max time  |%varavg| %total
---------------------------------------------------------------
Pair    | 218.33     | 267.36     | 319.29     | 153.2 | 43.53
Bond    | 1.3128     | 1.4685     | 1.6612     |   6.5 |  0.24
Neigh   | 39.542     | 39.637     | 39.724     |   0.9 |  6.45
Comm    | 242.86     | 294.61     | 343.35     | 145.1 | 47.97
Output  | 0.3878     | 0.40456    | 0.83269    |  12.1 |  0.07
Modify  | 7.517      | 7.9361     | 8.3476     |  10.1 |  1.29
Other   |            | 2.74       |            |       |  0.45

Nlocal:        46.9375 ave          78 max          14 min
Histogram: 3 4 3 1 1 6 6 3 2 3
Nghost:        1936.03 ave        1988 max        1885 min
Histogram: 3 3 3 4 4 5 2 2 2 4
Neighs:        5201.06 ave       11919 max        1150 min
Histogram: 7 3 4 2 5 6 1 3 0 1

Total # of neighbors = 166434
Ave neighs/atom = 110.80826
Ave special neighs/atom = 1.9986684
Neighbor list builds = 49640
Dangerous builds = 0

# Output the system volume
variable v equal vol
print 'The system volume is $v'
The system volume is 39062.6332967067

# Outputs
variable A equal xhi-xlo
variable B equal yhi-ylo
variable C equal zhi-zlo
variable D equal xy
variable E equal xz
variable F equal yz
print 'Lattice vectors'
Lattice vectors
print '$A 0 0'
33.9302588018382 0 0
print '$D $B 0'
0 33.9302588018382 0
print '$E $F $C'
0 0 33.9302588018382
Total wall time: 0:10:18
