LAMMPS (29 Sep 2021 - Update 1)
# Test LAMMPS input file for single DeFDe

# Initialize simulation

clear

units real
atom_style full
boundary p p p
dielectric 1
special_bonds dreiding

bond_style harmonic
angle_style harmonic
dihedral_style harmonic
improper_style umbrella
pair_style hybrid/overlay hbond/dreiding/lj 4 9.0 11.0 90 lj/cut 8.50000

# Read data file
read_data frag5.dat
Reading data file ...
  triclinic box = (0.0000000 0.0000000 0.0000000) to (15.000000 15.000000 15.000000) with tilt (0.0000000 0.0000000 0.0000000)
  2 by 4 by 4 MPI processor grid
  reading atoms ...
  1506 atoms
  scanning bonds ...
  1 = max bonds/atom
  scanning angles ...
  6 = max angles/atom
  scanning dihedrals ...
  3 = max dihedrals/atom
  reading bonds ...
  1005 bonds
  reading angles ...
  507 angles
  reading dihedrals ...
  3 dihedrals
Finding 1-2 1-3 1-4 neighbors ...
  special bond factors lj:    0        0        1       
  special bond factors coul:  0        0        1       
     4 = max # of 1-2 neighbors
     3 = max # of 1-3 neighbors
     5 = max # of special neighbors
  special bonds CPU = 0.002 seconds
  read_data CPU = 0.016 seconds

# Dreiding potential information

bond_coeff 1 350 1.371
bond_coeff 2 350 1.42
bond_coeff 3 350 0.98

angle_coeff 1 50 109.471
angle_coeff 2 50 104.51

dihedral_coeff 1 0.333333333333333 -1 3

improper_coeff 1 40 0

pair_coeff 1 1 lj/cut 0.0725 3.472
pair_coeff 1 2 lj/cut 0.0830346313293435 3.67898051095681
pair_coeff 1 3 lj/cut 0.0832961583748014 3.43813484319623
pair_coeff 1 4 lj/cut 0.00269258240356725 3.32957895236019
pair_coeff 2 2 lj/cut 0.0951 3.8983
pair_coeff 2 3 lj/cut 0.0953995283007206 3.64309650983885
pair_coeff 2 4 lj/cut 0.00308382878902186 3.52806914614779
pair_coeff 3 3 lj/cut 0.0957 3.4046
pair_coeff 3 4 lj/cut 0.0030935416596516 3.29710294046152
pair_coeff 4 4 lj/cut 1e-04 3.193
pair_coeff 1 3 hbond/dreiding/lj 4 j 9.50 2.75 4 9.0 11.0 90
pair_coeff 3 3 hbond/dreiding/lj 4 j 9.50 2.75 4 9.0 11.0 90

neighbor 2 bin
neigh_modify every 2 one 10000

# Gemoetric relaxation
fix 1 all box/relax iso 1.0 vmax 0.001
minimize 1.0e-4 1.0e-6 10000 10000
WARNING: Using 'neigh_modify every 1 delay 0 check yes' setting during minimization (../min.cpp:188)
Neighbor list info ...
  update every 1 steps, delay 0 steps, check yes
  max neighbors/atom: 10000, page size: 100000
  master list distance cutoff = 13
  ghost atom cutoff = 13
  binsize = 6.5, bins = 3 3 3
  3 neighbor lists, perpetual/occasional/extra = 3 0 0
  (1) pair hbond/dreiding/lj, perpetual, skip from (3)
      attributes: full, newton on
      pair build: skip
      stencil: none
      bin: none
  (2) pair lj/cut, perpetual, half/full from (3)
      attributes: half, newton on
      pair build: halffull/newton
      stencil: none
      bin: none
  (3) neighbor class addition, perpetual
      attributes: full, newton on
      pair build: full/bin
      stencil: full/bin/3d
      bin: standard
Per MPI rank memory allocation (min/avg/max) = 11.60 | 11.93 | 12.17 Mbytes
Step Temp E_pair E_mol TotEng Press Volume 
       0            0 2.6271727e+17    200.46946 2.6271727e+17 2.1350053e+19         3375 
    5697            0   -1085.2108    19.636399   -1065.5744    45.964456    39359.762 
Loop time of 4.58967 on 32 procs for 5697 steps with 1506 atoms

100.0% CPU use with 32 MPI tasks x no OpenMP threads

Minimization stats:
  Stopping criterion = energy tolerance
  Energy initial, next-to-last, final = 
    2.6271727221881e+17  -1064.94878578329  -1065.04957601926
  Force two-norm initial, final = 3.2239858e+19 83.305216
  Force max component initial, final = 1.3745196e+19 34.144917
  Final line search alpha, max atom move = 9.2095084e-06 0.00031445790
  Iterations, force evaluations = 5697 5697

MPI task timing breakdown:
Section |  min time  |  avg time  |  max time  |%varavg| %total
---------------------------------------------------------------
Pair    | 1.3372     | 2.5691     | 3.8313     |  34.2 | 55.98
Bond    | 0.0066039  | 0.011454   | 0.015871   |   1.8 |  0.25
Neigh   | 0.097454   | 0.097749   | 0.097998   |   0.1 |  2.13
Comm    | 0.28678    | 1.5519     | 2.7885     |  44.2 | 33.81
Output  | 0          | 0          | 0          |   0.0 |  0.00
Modify  | 0          | 0          | 0          |   0.0 |  0.00
Other   |            | 0.3595     |            |       |  7.83

Nlocal:        47.0625 ave          64 max          29 min
Histogram: 1 0 5 3 5 5 6 1 5 1
Nghost:        1882.03 ave        1947 max        1830 min
Histogram: 7 4 1 3 1 2 3 8 2 1
Neighs:        4674.22 ave        6718 max        2731 min
Histogram: 1 2 2 7 6 5 3 2 3 1

Total # of neighbors = 149575
Ave neighs/atom = 99.319389
Ave special neighs/atom = 2.0079681
Neighbor list builds = 99
Dangerous builds = 0

# MD simulation
velocity all create 300.0 12345 rot yes dist gaussian
timestep 1.0
fix 2 all nvt temp 300.0 300.0 1

# Compute interaction energy
group WAT molecule <> 2 501
1500 atoms in group WAT
group MOL molecule 1
6 atoms in group MOL

compute w WAT group/group MOL pair yes
fix 3 all ave/time 10 5 100 c_w file outa

# Outputs
thermo 100 # Output thermodynamic data every nth step
#dump mf1 all xyz 10000 mol_*.xyz

# Run
run 1000000
Neighbor list info ...
  update every 2 steps, delay 10 steps, check yes
  max neighbors/atom: 10000, page size: 100000
  master list distance cutoff = 13
  ghost atom cutoff = 13
  binsize = 6.5, bins = 6 6 6
  4 neighbor lists, perpetual/occasional/extra = 3 1 0
  (1) pair hbond/dreiding/lj, perpetual, skip from (4)
      attributes: full, newton on
      pair build: skip
      stencil: none
      bin: none
  (2) pair lj/cut, perpetual, half/full from (4)
      attributes: half, newton on
      pair build: halffull/newton
      stencil: none
      bin: none
  (3) compute group/group, occasional, copy from (2)
      attributes: half, newton on
      pair build: copy
      stencil: none
      bin: none
  (4) neighbor class addition, perpetual
      attributes: full, newton on
      pair build: full/bin
      stencil: full/bin/3d
      bin: standard
Per MPI rank memory allocation (min/avg/max) = 10.45 | 10.47 | 10.73 Mbytes
Step Temp E_pair E_mol TotEng Press Volume 
    5697          300   -1085.2108    19.636399    280.26136    1609.0129    39359.762 
    5700    274.14751   -1070.2688     430.6829    590.27244    161.81028    39359.762 
    5800    291.40075   -1100.3837    113.14692    320.02168    236.31213    39359.762 
    5900    294.91816   -1101.7121    163.25454    384.58044    365.50361    39359.762 
    6000     305.5705   -1091.3224    173.68404    453.18736    319.78146    39359.762 
    6100    296.96819   -1074.5487    163.00102    420.68696    588.67863    39359.762 
    6200    301.40681   -1067.2919     167.6958    452.55072    416.07202    39359.762 
    6300    309.00821   -1094.6254     165.6457    457.26793    523.08746    39359.762 
    6400    293.28668   -1127.3139    169.39183    357.79685    679.70257    39359.762 
    6500    308.68307   -1095.3739    177.57732    466.99242    509.54465    39359.762 
    6600    293.41899   -1053.3049    178.38423    441.39188    210.28787    39359.762 
    6700    285.77994   -1121.2522    182.16458    342.95524    242.48819    39359.762 
    6800    303.84279   -1111.1301    191.99907    443.94389    509.14261    39359.762 
    6900    293.05907   -1085.8289    185.76876    414.63774    497.32822    39359.762 
    7000    302.96476   -1086.9221     191.3038     463.5177    336.42202    39359.762 
    7100    298.09625   -1084.4026     197.6103    450.50298    102.84166    39359.762 
    7200    306.15452   -1104.5887    192.94867    461.80565   -65.424623    39359.762 
    7300    301.73808   -1108.1094    195.62864    441.15222    614.45998    39359.762 
    7400    302.10447     -1092.41    196.56209    459.42876    21.268323    39359.762 
    7500    310.24921   -1079.2801    198.68335    511.21815    178.83826    39359.762 
    7600    301.78453   -1109.6337    189.37844    433.58605    349.02697    39359.762 
    7700    300.07647   -1096.5412    193.94477    443.58241    296.22846    39359.762 
    7800    298.21207     -1072.11    189.65201    455.35695    729.53117    39359.762 
    7900    288.56661    -1130.283     201.9777    366.23892   -3.3567349    39359.762 
    8000    296.62488   -1122.7599     187.8594    395.79401    327.14117    39359.762 
    8100     311.3643   -1168.1703     196.0199    424.66697    683.78236    39359.762 
    8200    295.65832   -1122.8428    204.50501    408.02061    801.56367    39359.762 
    8300    289.68263   -1124.2403    204.75134    380.06177    416.58227    39359.762 
    8400    296.71466   -1104.0986    202.69006    429.68879    491.22956    39359.762 
    8500     294.9152   -1121.5674    200.41137    401.86869    260.69561    39359.762 
    8600    304.52227   -1090.3982      226.195    501.91997    511.89137    39359.762 
    8700    302.15458   -1108.2158    217.06288    464.34854    207.72096    39359.762 
    8800    309.53461   -1095.8302    200.39066    493.16961    257.23514    39359.762 
    8900    292.11186    -1111.813    218.92332    417.55893    313.48852    39359.762 
    9000    303.04431   -1149.8779      213.152    422.76692    127.02688    39359.762 
    9100    291.58652   -1142.5558    205.69811    371.23423    38.093619    39359.762 
    9200    300.11153   -1178.2982    221.05177    389.08968    544.55638    39359.762 
    9300    294.04625    -1146.901    223.86735    396.09288    766.75195    39359.762 
    9400    300.37893   -1146.8767    230.00669    430.66571    454.74559    39359.762 
    9500    296.45691   -1167.3688    226.80092    389.37316    604.09219    39359.762 
    9600    296.70108    -1138.145    221.50237    414.39377    556.64439    39359.762 
    9700    291.64639   -1101.7918    222.59279    429.16144    21.522408    39359.762 
    9800    302.23561   -1114.1703    226.81028    468.50496    412.68687    39359.762 
    9900      304.391   -1073.7062     226.6907    518.51876   -36.193191    39359.762 
   10000    301.56891   -1108.7161    218.13264    462.29064    161.10231    39359.762 
   10100    309.63546   -1142.5303    219.46225     465.9935    109.17507    39359.762 
   10200    308.08937   -1123.9351    226.04811    484.23868      -11.913    39359.762 
   10300     296.7939   -1113.7922    230.81423    448.47479   -225.60764    39359.762 
   10400    296.61246   -1118.5976    237.11362    449.15484     147.3447    39359.762 
   10500    293.81047   -1128.3147    225.52862    415.28265    626.68462    39359.762 
   10600    309.30327    -1094.579      231.075    524.06732     53.88358    39359.762 
   10700    299.96861   -1071.1608    231.54518    506.07933     461.3658    39359.762 
   10800    307.46591   -1102.9765    241.03545    517.38767    359.90832    39359.762 
   10900    300.88742   -1112.3782    241.70675    479.14533    953.61143    39359.762 
   11000    302.59834   -1124.0629    233.34813    466.77742    275.03318    39359.762 
   11100    302.34152   -1117.6665    244.67658    483.35017     148.6701    39359.762 
   11200    289.84241   -1148.1764    246.03143    398.12264    236.08552    39359.762 
   11300    296.37729   -1125.0126    253.95738     458.5286    214.63456    39359.762 
   11400    307.74466   -1133.3454     245.2191    492.45287   -169.17807    39359.762 
   11500    299.01537   -1122.6432    244.72245    463.49782    166.88779    39359.762 
   11600    290.22148   -1148.8081    257.10623    410.26625    697.58271    39359.762 
   11700    306.60739   -1144.1627    242.58926    473.90391    773.77174    39359.762 
   11800    300.48021   -1154.5601    254.14177    447.57171    341.20309    39359.762 
   11900    294.53855   -1143.1246    251.84207    430.05247    68.893443    39359.762 
   12000     295.0025   -1138.8793    249.93907    434.47612   -13.933326    39359.762 
   12100    294.38864   -1146.0638    249.68756    424.28631    527.65769    39359.762 
   12200    299.40986   -1114.0943    265.14801    494.24207    988.30378    39359.762 
   12300    295.47282   -1158.3955    254.05494    421.18573    384.52994    39359.762 
   12400    291.55226   -1131.7463    246.87244    423.06428    445.33781    39359.762 
   12500    292.23846    -1150.922    247.54686    407.64139    362.65719    39359.762 
   12600    298.76534    -1122.286    260.03076    478.04163    545.32181    39359.762 
   12700    301.67364    -1139.101    253.31677    467.55963    289.89308    39359.762 
   12800    303.60729   -1109.8335    270.60382    522.78879    276.72573    39359.762 
   12900    293.16558   -1103.1149    249.59658    461.65738    92.916513    39359.762 
   13000    305.01145   -1131.4389    264.63562    501.51446   -211.77289    39359.762 
   13100    296.27398   -1112.7508    248.55802    464.92754    526.68149    39359.762 
   13200    295.15858   -1103.2771    270.84114    491.68059    143.45255    39359.762 
   13300    300.93049   -1065.4908    258.29137    542.81055    935.12356    39359.762 
   13400    300.86865   -1115.1108    248.08124    482.70302    706.26971    39359.762 
   13500    289.13365   -1124.3952     250.2761    422.96895    329.22842    39359.762 
   13600    296.11342   -1165.1569    250.70814    413.95132    701.51895    39359.762 
   13700    306.94915   -1150.9833    266.04871    492.07592     430.0666    39359.762 
   13800    295.57389   -1146.8923    252.51759    431.60494    408.97238    39359.762 
   13900      308.112   -1145.7629    248.16022    484.62449    418.38137    39359.762 
   14000    300.53366   -1155.6104    265.63962    458.25901    565.15471    39359.762 
   14100    300.43714   -1105.8158    249.89192    491.87289    511.59351    39359.762 
   14200    312.73635   -1157.8793    266.13464    511.22788    512.09637    39359.762 
   14300    298.92221   -1136.0544    263.55203    468.49827     243.9211    39359.762 
   14400    295.36466   -1138.1434    249.38843    436.28609    559.32834    39359.762 
   14500     297.3638   -1137.1639    280.91468     477.7602    82.905585    39359.762 
   14600    300.33692   -1140.2146    270.98299    478.11562     87.49979    39359.762 
   14700    293.59046   -1113.6434    257.00383    460.44221    225.43232    39359.762 
   14800    302.67802   -1138.2017    286.83454    506.48253   -88.255132    39359.762 
   14900     306.8286   -1145.2655    271.58303    502.78717     187.9995    39359.762 
   15000    305.77523    -1190.327    274.07675    455.49381    127.69374    39359.762 
   15100    316.55821   -1173.4427    285.15777    531.83297    190.52054    39359.762 
   15200    311.51301   -1165.8962    265.28997     496.8782    557.92907    39359.762 
   15300    286.29863   -1182.5143    266.29344     368.1489    468.08406    39359.762 
   15400    300.68358   -1194.4582    267.32532    421.76951    464.40268    39359.762 
   15500    299.46276   -1185.3287     259.6527    417.74959    422.29762    39359.762 
   15600    308.37773   -1177.3536    281.46336    487.52898    311.83928    39359.762 
   15700    304.05007   -1133.4285    263.64336     494.2197    615.71468    39359.762 
   15800    304.50914   -1141.5286      283.584     508.1197   -231.14986    39359.762 
   15900    296.32498   -1182.8138    270.91384    417.44918    82.968586    39359.762 
   16000    304.91695   -1114.6129    302.89753    556.17838    205.67399    39359.762 
   16100    300.62406   -1131.9055    281.14545    497.87523   -48.758278    39359.762 
   16200    296.51505   -1191.1687    275.43519    414.46838    154.02588    39359.762 
   16300    306.47805   -1210.5924     286.3254    450.63009    452.51563    39359.762 
   16400    287.61379   -1156.0375    297.07298    431.30523    337.64625    39359.762 
   16500    303.74916   -1185.9113    285.75921    462.50286    320.44974    39359.762 
   16600    305.67756   -1207.6999    292.26125    455.86731    364.04163    39359.762 
   16700    302.15916    -1163.893    286.78395    478.41294    768.47655    39359.762 
   16800    310.01544   -1156.0984    276.07033    510.73814    359.34084    39359.762 
   16900    298.04917   -1188.1622    295.68233     444.6042   -30.695588    39359.762 
   17000    311.68245   -1159.3633    295.86205    534.74333    220.91998    39359.762 
   17100     304.1114   -1198.5434    290.25905    455.99556     319.5537    39359.762 
   17200    302.96097   -1208.2956    301.23243    452.05586   -26.633126    39359.762 
   17300    297.40859   -1226.2752    278.00747    385.94259    22.382975    39359.762 
   17400    302.15392   -1190.5581    290.26948    455.20986    170.79678    39359.762 
   17500    287.35703   -1215.6882    283.88167    357.31131   -304.09184    39359.762 
   17600    306.05532   -1163.8097    279.29595    488.48693    103.85228    39359.762 
   17700    307.47686   -1211.8993    304.74984    472.22837    272.16463    39359.762 
   17800    307.35133   -1188.9479    297.91824    487.78506    487.05199    39359.762 
   17900    303.33164   -1174.6431     289.2852    475.42394    337.59964    39359.762 
   18000     290.5091   -1186.2104    306.60536    423.65338    513.56896    39359.762 
   18100    293.89404   -1169.0578     286.4519    435.83772    306.41733    39359.762 
   18200    306.74404   -1158.5324    301.07394    518.63189    227.15662    39359.762 
   18300    298.88052   -1152.9367    296.84461    484.72159    60.694863    39359.762 
   18400    304.38821   -1167.2139    297.68591    495.99382    679.19384    39359.762 
   18500    294.13599   -1175.7218    303.62395    447.43125    388.49018    39359.762 
   18600    295.15303     -1162.68    295.76169    457.17329    566.89487    39359.762 
   18700    287.53698   -1154.9021    300.98889    436.01195    320.83116    39359.762 
   18800    291.15596   -1153.8303    310.52004    462.85004    400.87712    39359.762 
   18900     296.5955   -1201.6376    310.68313    439.60822    609.89942    39359.762 
   19000    297.56698   -1168.7037    297.08058    463.29778    477.26433    39359.762 
   19100    296.87792   -1146.0683    308.26893    494.03038    621.15873    39359.762 
   19200     294.0783   -1137.0953    313.10098    495.27596    335.35495    39359.762 
   19300    294.75919   -1179.9881    306.47068    448.80736   -23.487196    39359.762 
   19400    296.01695   -1159.9209     306.4119    474.45831    658.04997    39359.762 
   19500    296.41143   -1179.5906    304.08722    454.23361    69.439955    39359.762 
   19600    297.68595   -1165.3265    298.01016    468.13829    293.52342    39359.762 
   19700    294.03543   -1134.2888    300.98515    485.77428    422.76981    39359.762 
   19800    295.58477    -1180.832    324.16675    469.36318    540.66695    39359.762 
   19900    294.98035   -1207.2435    308.19354    424.26702   -56.224369    39359.762 
   20000    298.11812   -1179.9562    313.64084    471.07806    155.22846    39359.762 
   20100    299.29613   -1207.9867     324.1581    458.84949    66.605502    39359.762 
   20200    307.40657   -1205.4614    291.13965     464.7407    100.33353    39359.762 
   20300    300.53849   -1200.5167    303.11327    450.84802   -366.54826    39359.762 
   20400     306.4488   -1176.2043    298.39628    496.95784    94.264977    39359.762 
   20500    296.01511   -1223.0554    311.52001     416.4236    60.757252    39359.762 
   20600    305.81757   -1212.2933    298.92562    458.56636    54.959054    39359.762 
   20700    299.20722   -1229.1149    321.35065    434.51499   -390.95569    39359.762 
   20800    283.87747   -1222.2089    314.20081    365.50007    83.325711    39359.762 
   20900    301.47495   -1222.8141    310.37493    440.01333   -286.68857    39359.762 
   21000    297.51617   -1226.3065    317.69323     426.0797    457.98244    39359.762 
   21100     311.1791   -1216.5006    322.80655    502.29247    751.52769    39359.762 
   21200     297.3585   -1187.5894      294.658    441.05426    375.34977    39359.762 
   21300    314.52569   -1233.7276    328.47661    505.74873    130.50304    39359.762 
   21400    299.41449   -1202.5229    320.50635    461.19253   -309.83575    39359.762 
   21500    302.63685   -1195.1608     296.7605    459.26469   -176.83164    39359.762 
   21600     306.4077   -1231.5707    329.53061    472.54134    53.933186    39359.762 
   21700    291.63437   -1202.3374     309.6765     415.6456   -266.84617    39359.762 
   21800    308.70894   -1230.7129    326.76208    480.95424   -191.21164    39359.762 
   21900    301.15898   -1185.0181    318.52212    484.53911   -90.498365    39359.762 
   22000    309.92413    -1175.442    324.61687    539.53144    167.34971    39359.762 
   22100    304.32678   -1181.4284    330.63654    514.45429    210.91679    39359.762 
   22200    301.19414   -1194.9351    319.34983    475.60751    255.80092    39359.762 
   22300    295.39552   -1216.5573    325.19526    433.81746    19.789558    39359.762 
   22400    297.53165   -1236.3551    310.75366      409.161    339.31349    39359.762 
   22500    299.51996   -1216.7396    331.20977    458.15242    304.48723    39359.762 
   22600    296.54826   -1227.4917     331.0382    433.89733    59.638523    39359.762 
   22700    294.57521   -1198.4761    342.90531    465.92865    346.36255    39359.762 
   22800    306.95429   -1193.1885    328.71434    512.55941    565.10563    39359.762 
   22900      300.414    -1184.858    342.95931    505.79433    294.41031    39359.762 
   23000      305.811   -1220.9045    319.00515    470.00519    -8.425383    39359.762 
   23100    306.23581   -1213.8846    332.92013    492.84591   -68.827917    39359.762 
   23200    300.19946   -1218.7878    333.86507    461.80784   -175.29037    39359.762 
   23300    308.21457   -1228.4651    319.85685    474.07905   -297.65077    39359.762 
   23400    296.90453   -1231.8634    318.95087    419.03654   -306.16613    39359.762 
   23500    296.55912   -1227.9873    311.13534    413.54756   -385.49846    39359.762 
   23600      299.326   -1179.6963    338.09605    501.21184   -53.938433    39359.762 
   23700    302.89545   -1254.6529    323.52602    427.69821    479.14131    39359.762 
   23800    298.40305    -1299.175    319.35783    358.85448    458.37759    39359.762 
   23900     318.3159   -1297.0857    314.30762    445.22492     508.1169    39359.762 
   24000    298.95187   -1221.6577    315.95022    435.42626    81.131465    39359.762 
   24100    300.99823   -1234.8068    325.39157    440.89864   -137.10184    39359.762 
   24200    297.42076   -1236.1597    344.15779    442.26302    239.11736    39359.762 
   24300    299.57906   -1246.3643    327.41877    425.00187   -233.52252    39359.762 
   24400    299.00143   -1249.3884    320.00111    411.96872    47.106304    39359.762 
   24500    286.83313   -1266.9655    335.77075    355.57278   -452.80967    39359.762 
   24600    293.49373   -1272.6941    330.64063    374.59439   -572.53874    39359.762 
   24700    291.46388   -1204.5923    336.43031    439.37973   -218.94534    39359.762 
   24800    300.38906   -1219.3622    327.15724    455.37616   -599.44341    39359.762 
   24900    303.30258   -1204.9637    338.88634    494.57418   -82.180188    39359.762 
   25000    303.55787   -1229.2975    331.50061    463.99987       332.09    39359.762 
   25100    289.56759   -1238.2037    349.14626    409.97732    137.00468    39359.762 
   25200    310.94094   -1241.3645    318.34828     471.9019    134.89427    39359.762 
   25300    306.82024   -1254.8905    329.94284    451.48449    349.97481    39359.762 
   25400    309.01957    -1340.058     327.9297    374.17029   -22.258779    39359.762 
   25500    293.54829   -1306.1296    314.68343    325.44637    224.69277    39359.762 
   25600    305.89551   -1260.6876    334.93699    446.53304    613.83596    39359.762 
   25700    295.58405   -1317.0005    338.71177    347.73657    67.188981    39359.762 
   25800    305.00306    -1289.836    335.14369    413.58776    311.47554    39359.762 
   25900    303.04903    -1240.411    333.18917    452.29223    798.09373    39359.762 
   26000     300.9821    -1251.774    309.67812    408.14572    185.70556    39359.762 
   26100    305.73563   -1283.2257    332.52479    420.86553    726.52819    39359.762 
   26200     308.2516    -1251.824    353.87251    484.90193    335.19879    39359.762 
   26300    300.69283   -1298.4951    329.00712    379.45587    120.88688    39359.762 
   26400    303.39172   -1270.3619     326.0514    416.74092    466.04441    39359.762 
   26500    305.07072   -1283.5712    344.19906    429.21151    391.31265    39359.762 
   26600    307.06959   -1281.1642    339.91471    436.30132    411.59914    39359.762 
   26700    299.91213   -1287.9525    337.66263    395.15165    479.84149    39359.762 
   26800    297.67466   -1273.2508    340.97047    403.12363    232.56897    39359.762 
   26900    307.61254   -1288.8499    333.00199    424.13857    566.16949    39359.762 
   27000    305.14304   -1289.4838    346.79959    426.22388     436.1835    39359.762 
   27100    306.20632   -1256.7616     349.5123    466.42876    469.99501    39359.762 
   27200    297.78128   -1250.6616    348.80687    434.02753   -162.54835    39359.762 
   27300    282.08941   -1197.1304    341.14198     409.4983   -381.67747    39359.762 
   27400    302.21168   -1244.9395    330.50996    441.32804    168.81088    39359.762 
   27500    298.21996   -1270.5114    340.43542    407.77434   -281.38558    39359.762 
   27600    293.41957   -1272.6818    339.60841    383.24176   -121.43604    39359.762 
   27700    302.71759   -1249.8499    350.51873    458.69601    139.53766    39359.762 
   27800    299.62253   -1290.2374    358.67883    412.58382    427.46932    39359.762 
   27900    300.34257   -1259.4566    353.40614    441.32212    719.45715    39359.762 
   28000     299.5333   -1283.9097    353.29844    413.13078    665.11034    39359.762 
   28100    306.96664   -1290.9746    367.40534    453.51966    384.78252    39359.762 
   28200    310.58862   -1258.2412    359.17941    494.27577    210.28665    39359.762 
   28300     294.2455   -1291.5261    371.32475    399.81899    25.387196    39359.762 
   28400    304.66164   -1246.2698    354.01195    474.49059    548.45373    39359.762 
   28500    293.79901   -1245.0818    332.24927    405.18482   -160.63292    39359.762 
   28600    298.77069    -1270.592    358.28798    428.01684   -102.64949    39359.762 
   28700    301.45273   -1282.8337    348.84925    418.36837   -281.68214    39359.762 
   28800    296.06391   -1245.8164    353.76437    436.12593    129.35302    39359.762 
   28900     298.6723   -1274.5825    344.31352    409.61053   -150.01925    39359.762 
   29000    303.00092   -1328.7809    349.76392    380.28127    309.37989    39359.762 
   29100    296.03322   -1269.4495    373.14552    431.73633     264.8474    39359.762 
   29200    287.88378   -1281.5421     352.7961    362.73493   -127.72659    39359.762 
   29300    293.70837   -1262.8136    337.60746    392.40465   -18.651052    39359.762 
   29400    294.00817   -1284.9779    341.82338    375.80114   -355.80341    39359.762 
   29500    299.62068   -1250.9901    353.56578    446.70975    238.23101    39359.762 
   29600    303.74039   -1273.0201    341.83529     431.4308     456.3518    39359.762 
   29700    294.21906   -1288.5136    356.27519    387.66337     349.4996    39359.762 
   29800    312.26222   -1256.5887    363.91609    508.17287    815.28617    39359.762 
   29900    301.66161   -1248.0821    355.93951    461.14735    592.39039    39359.762 
   30000    299.97447   -1251.4102    373.65544    467.96648    296.80714    39359.762 
   30100    314.11121   -1266.5651    351.60442    494.17968    250.21421    39359.762 
   30200    297.91247   -1260.8761    343.88538    419.48016    52.971523    39359.762 
   30300    306.44344   -1250.1135    349.72567     474.3539    223.58544    39359.762 
   30400    300.85786   -1194.3847    371.65616    526.95567    636.00958    39359.762 
   30500     296.0956    -1256.514    358.36636    430.17245    627.12589    39359.762 
   30600    299.81454   -1234.2231    356.62261    467.40329    257.69378    39359.762 
   30700    312.53819   -1266.9019    347.39799    482.57967    250.72992    39359.762 
   30800     290.9901    -1284.068    379.70104     401.0493   -147.43289    39359.762 
   30900    301.18762   -1277.0369    337.53331    411.66002   -57.862597    39359.762 
   31000    290.70415   -1265.8401    367.71051    406.00391   0.23639417    39359.762 
   31100    301.30131   -1228.5272     351.6873    474.83368   -977.34907    39359.762 
   31200    295.12375   -1216.8597    363.84456    470.94516   -341.71561    39359.762 
   31300    297.32947   -1256.7762    350.59506    427.67429   -250.97943    39359.762 
   31400    298.05679   -1252.5697    355.89138    440.43993   -112.54438    39359.762 
   31500    291.46604   -1272.3517    361.11113     396.3108    55.910428    39359.762 
   31600    299.96862   -1253.9038    364.38471     456.1759    396.19647    39359.762 
   31700    306.42849    -1275.183    339.63997    439.13169    607.61108    39359.762 
   31800    296.72565   -1228.1554    384.63421    487.62539    366.42394    39359.762 
   31900    293.05691   -1265.3048    358.32105    407.70447     127.8283    39359.762 
   32000    310.64741   -1193.7042    367.21404    567.11113    346.24838    39359.762 
   32100    306.58613   -1216.7434    383.12689    541.76539    291.22202    39359.762 
   32200    311.57662   -1244.6742    373.26106    526.35675   -296.24435    39359.762 
   32300    293.51865   -1238.1358    366.98138    445.60519   -34.698158    39359.762 
   32400    302.27523   -1219.1612    341.98583    478.86737   -480.50296    39359.762 
   32500    307.35443   -1257.8147    374.25086    495.26475   -563.03168    39359.762 
   32600    297.04935   -1284.1499    346.74359    395.19245   -258.68102    39359.762 
   32700    310.47283   -1249.7993    351.59747    494.61624    -226.3291    39359.762 
   32800    300.86295   -1279.3758    357.53947    427.87072    234.46643    39359.762 
   32900     299.8874    -1246.297    368.91787    467.95143   -132.03401    39359.762 
   33000    303.33893   -1255.0941    351.47876    457.19927   -20.796089    39359.762 
   33100    304.86248   -1254.4132    358.00446    471.24067   -140.05018    39359.762 
   33200    308.98099   -1266.5856    384.42135     503.9613    -255.8695    39359.762 
   33300    307.59917   -1241.5258    365.64044    504.04117   -276.43895    39359.762 
   33400    289.95135   -1238.2057    344.20707    406.75763   -205.40445    39359.762 
   33500    301.95638   -1281.0285    357.89663    431.48047    69.272602    39359.762 
   33600    301.43842   -1253.7802     347.6473    446.15575   -229.05728    39359.762 
   33700     297.1057   -1231.1554    374.37553    476.07164    12.532317    39359.762 
   33800    301.29426   -1292.4932    366.74973    425.89853     194.6675    39359.762 
   33900    298.07276   -1260.1995    369.10731    446.09771    53.443642    39359.762 
   34000    309.33407   -1294.6298    371.31031       464.39    417.87921    39359.762 
   34100    309.46623   -1326.0047    362.76649     425.0642    288.47628    39359.762 
   34200    291.25046   -1310.0461    379.09792    375.63604    329.37518    39359.762 
   34300    291.99257   -1337.6011     365.2029    337.51528    109.80936    39359.762 
   34400    290.78834    -1335.032    357.19744    326.67656    380.19449    39359.762 
   34500    293.45514   -1314.6416    349.64621    351.47936   -69.366351    39359.762 
   34600      297.955   -1298.8016    366.28482    404.14487   -358.89061    39359.762 
   34700    288.83355   -1288.8203    358.01151     364.9329   -446.28771    39359.762 
   34800    312.51453   -1311.2371    351.64126    442.38157   -516.94163    39359.762 
   34900    298.09615    -1309.428    364.69329    392.56011   -548.38988    39359.762 
   35000    293.67185   -1266.4178    366.62309    417.65218    -169.2221    39359.762 
   35100    285.46756   -1335.1443    379.25894    324.75615     278.4297    39359.762 
   35200    301.89248    -1334.709    359.10651    378.72317   -32.958353    39359.762 
   35300    304.24518   -1347.4247    357.13967    374.59508    6.2251229    39359.762 
   35400    298.76743   -1335.5136    361.12627    365.91897   -434.65612    39359.762 
   35500    302.00785   -1321.6749     369.2744    402.44273    369.59915    39359.762 
   35600    309.27026   -1297.0547    348.36858    438.73714   -175.05566    39359.762 
   35700     299.3221   -1335.2774     350.4228       357.94   -241.06506    39359.762 
   35800    293.27049   -1302.6015    366.98154    380.02644    59.624717    39359.762 
   35900    292.95077   -1276.2107    366.76298    404.76433    457.18536    39359.762 
   36000    289.92265   -1341.2361    364.30233    323.69381    159.45872    39359.762 
   36100    291.80961   -1342.3817    346.61901    313.32998    112.87346    39359.762 
   36200    289.98265   -1334.4385    367.38078    333.83901    206.38957    39359.762 
   36300    297.14982   -1338.4541    355.25972    349.85515    212.93283    39359.762 
   36400    303.23662   -1343.1375    353.60453    370.82261    548.65291    39359.762 
   36500    293.87789   -1372.3742    357.64166    303.63865    318.48535    39359.762 
   36600     299.9045   -1356.1599    375.09523     364.3427    560.37149    39359.762 
   36700    295.03739   -1335.5613     375.7617    363.77332    639.26789    39359.762 
   36800    293.35975   -1354.1695    356.19506    318.07233     444.5129    39359.762 
   36900    299.41328    -1337.585     372.7682     378.3868    432.69064    39359.762 
   37000    300.12308   -1317.6643    342.14301    370.86658    699.18815    39359.762 
   37100    307.28454   -1326.8856    372.41805    424.04749    778.43914    39359.762 
   37200    301.27779   -1345.8398     339.0258    344.75406    784.71805    39359.762 
   37300    295.32624   -1331.3306    358.60821    352.14628    748.95903    39359.762 
   37400    300.15783   -1332.7492    377.98211    391.77673    244.50106    39359.762 
   37500    307.79439   -1312.7753     356.2058    424.23276   -99.779284    39359.762 
   37600    304.43122   -1327.7152    369.45006    407.44959   -70.093062    39359.762 
   37700    303.42063   -1311.1866    375.96761    425.96209    224.56025    39359.762 
   37800    300.01017   -1331.3606    354.66779    369.18855    206.31061    39359.762 
   37900    287.37613    -1366.799    365.05668    287.46128    78.678776    39359.762 
   38000    291.13463    -1336.054    366.89518    336.90584    235.87706    39359.762 
   38100    290.57509   -1344.3751    368.31622    327.49556    120.72513    39359.762 
   38200    306.56867   -1318.0654    373.61646     430.8546   -223.33875    39359.762 
   38300    310.45487   -1342.4164    375.98212    426.30325   -252.04304    39359.762 
   38400    294.39074    -1312.375    360.48664    368.78363   -53.944802    39359.762 
   38500    304.21392   -1320.8554    370.07788    413.96235   -231.35563    39359.762 
   38600    292.24985   -1278.9888    374.77091    406.84969    186.97616    39359.762 
   38700    303.37941    -1318.603    377.30268    419.69583    195.80034    39359.762 
   38800    296.79435   -1329.7901    385.65127    387.31599    544.14005    39359.762 
   38900    290.93006    -1318.916    371.99463    358.22556    649.37427    39359.762 
   39000     308.3313   -1328.1465    376.97707    432.04156    923.91049    39359.762 
   39100    296.32853   -1312.4889    371.24314    388.11928    560.40594    39359.762 
   39200    300.19633   -1314.9917     385.8802    417.60498     880.6357    39359.762 
   39300    298.79374   -1282.0881    390.57807     448.9143    784.22324    39359.762 
   39400    285.33215   -1295.3176    367.58967    352.30612    173.19195    39359.762 
   39500    297.91796   -1283.4748    393.86144    446.88208    347.30818    39359.762 
   39600    300.52641   -1246.5189    384.39465      486.073    72.565241    39359.762 
   39700    294.07953   -1285.7404    374.96559    408.50096   -373.99657    39359.762 
   39800     300.2989   -1284.5682    367.26154    429.87001    18.230177    39359.762 
   39900    299.67661   -1293.7079     373.0572    423.73426   -420.40817    39359.762 
   40000    289.34718   -1303.4009    379.79522    374.44028    38.830851    39359.762 
   40100    298.04937   -1344.3383    358.50512    351.25184    206.85236    39359.762 
   40200    306.12276   -1253.7528    376.15476    495.70511    344.94829    39359.762 
   40300    296.29807   -1282.9678     374.2084    420.46909   -222.20069    39359.762 
   40400    295.94405   -1326.8668    372.82597    373.59946   -234.63889    39359.762 
   40500    291.32918   -1334.1587    389.37404    362.15277   -420.23534    39359.762 
   40600    311.23433   -1320.0676    387.22063     463.3873   -425.05987    39359.762 
   40700    303.28077   -1312.7465    372.07823    419.88536   -73.706187    39359.762 
   40800    294.84548   -1287.4218    385.81828     421.1084    64.568223    39359.762 
   40900    301.93505   -1301.0447    386.24074    439.71268   -252.38332    39359.762 
   41000    290.05671   -1274.2211    378.09729    405.10516    -117.4648    39359.762 
   41100    299.06325   -1268.6927    371.46817    444.40887    372.25349    39359.762 
   41200    300.17818   -1300.7095    369.72647    415.65199   -53.884832    39359.762 
   41300    291.77491   -1293.9549    379.40663    394.38875    177.05408    39359.762 
   41400    295.10502    -1267.912    390.55876    446.52303    -67.44114    39359.762 
   41500    303.02996   -1284.2944    407.73652    482.87062    69.563674    39359.762 
   41600    291.91517   -1287.9824    369.45331    391.03719   -328.21363    39359.762 
   41700     303.6822   -1266.5375    379.60868    475.42576   -76.837226    39359.762 
   41800    293.69869   -1248.8623     382.9052    451.61016   -66.093719    39359.762 
   41900    298.86848   -1325.3486    367.62254    383.03353    336.15167    39359.762 
   42000    310.53028   -1288.7543    380.98365    485.30518    79.679648    39359.762 
   42100    306.86581   -1251.3447    375.58208    500.87391    509.94311    39359.762 
   42200    297.52252   -1273.5516    403.61068    464.78055     133.3335    39359.762 
   42300    296.58058   -1334.8973    400.55587    396.15436    286.92788    39359.762 
   42400    307.49267   -1335.9101    390.61438    434.15304    386.73928    39359.762 
   42500    301.60305   -1334.6455    376.11646     394.4982    78.946262    39359.762 
   42600    301.91285   -1410.3714    387.23342    331.27898    325.93175    39359.762 
   42700    290.64707   -1355.7295    400.34242    348.49028   -43.703418    39359.762 
   42800    306.97973   -1294.2867    365.54978    448.41071   -35.636307    39359.762 
   42900    292.61122   -1380.5242    380.17875    312.34333   -113.58006    39359.762 
   43000     298.1987   -1377.9143    366.93004    326.77067   -70.822934    39359.762 
   43100    297.94136   -1332.2076    355.24757    359.64038   -294.51064    39359.762 
   43200    297.67985   -1339.7766    392.19521    387.84585   -14.308354    39359.762 
   43300    288.48037   -1354.7585    371.26908    310.66785   -52.732548    39359.762 
   43400    307.92214   -1320.9528    383.19028    443.61283      558.116    39359.762 
   43500    291.97111   -1316.1263    373.40832    367.09922   -295.30342    39359.762 
   43600     291.9038   -1320.2153    385.66812    374.96805   -590.64937    39359.762 
   43700    300.05426   -1342.5282     374.3443    377.89522   -16.812005    39359.762 
   43800    298.01775   -1295.6871      390.461    431.71703    45.312258    39359.762 
   43900    307.34295   -1258.6219    404.15973     524.3149    493.23748    39359.762 
   44000    307.71041   -1290.6934    380.33227    470.06445    71.539024    39359.762 
   44100    306.54859   -1322.1704    378.95473    431.99785    286.15676    39359.762 
   44200    307.44958   -1284.4941    399.17688    493.93826    100.08951    39359.762 
   44300     309.9206   -1311.2346    377.44507    456.55119    342.20874    39359.762 
   44400    309.46807   -1327.3179    378.39422    439.38696    788.69256    39359.762 
   44500    307.94386   -1288.9893    386.52846    479.01204    348.83964    39359.762 
   44600    294.70328   -1311.3625    391.98733    402.69882   -36.551532    39359.762 
   44700    303.85381    -1273.902    381.33646    470.55883    45.255704    39359.762 
   44800      301.316   -1303.8724    386.14445    434.01151    -61.02124    39359.762 
   44900    299.51537   -1281.4497    387.36484    449.57678   -58.528031    39359.762 
   45000    307.49444   -1295.5505    401.80315    485.70936   -387.42395    39359.762 
   45100    291.70009   -1297.4454    422.12949    433.28546   -72.249896    39359.762 
   45200    301.10735   -1311.6604    387.65901    426.80201   -373.08103    39359.762 
   45300    309.96256   -1298.7601    387.70856    479.47744   -425.19438    39359.762 
   45400    306.54977   -1264.7721    390.07494     500.5216   -528.35653    39359.762 
   45500    294.09345   -1270.9576    391.44694    439.82755   -763.43224    39359.762 
   45600    298.24849   -1323.0992    377.68167    392.56079   -535.29938    39359.762 
   45700    294.70356   -1289.8911    390.11836    422.30253    135.18437    39359.762 
   45800     292.1768   -1302.3476     394.4655    402.85785    261.51218    39359.762 
   45900    315.97888   -1342.9122    387.06311    461.66982    396.71565    39359.762 
   46000     297.1672   -1298.3587    398.32627    433.09504   -446.11649    39359.762 
   46100    293.54147   -1260.2618    391.11558    447.71576    150.57946    39359.762 
   46200    298.63714   -1241.3248    420.02233    518.41927    330.12161    39359.762 
   46300     291.0631   -1278.6809    407.28607    434.34886   -471.25783    39359.762 
   46400    300.19623   -1301.6195    375.13722    420.23378     -444.434    39359.762 
   46500    296.45378   -1266.1587    425.67115    489.43943    -565.8398    39359.762 
   46600    299.21364   -1251.4268    400.28622    491.16745    49.421333    39359.762 
   46700    306.56318   -1286.0857    389.48747    478.68068   -660.28882    39359.762 
   46800    304.40025   -1326.0005    406.03039    445.60568    383.70224    39359.762 
   46900    304.92515   -1296.2592    381.88891    453.56023   -303.43808    39359.762 
   47000    297.38769   -1306.0426     392.7234    420.79736   -547.80626    39359.762 
   47100    295.40669   -1296.6105    395.14425    423.76332   -133.66914    39359.762 
   47200    293.63485   -1316.2221    413.49327    414.55207    -381.3014    39359.762 
   47300    293.68729   -1305.8436     399.1157    410.78825    84.717736    39359.762 
   47400    303.60036   -1312.5497    397.67264    447.11036   -102.57793    39359.762 
   47500     300.6521   -1302.2767    390.37928    436.86376    242.46057    39359.762 
   47600    299.33841   -1350.9929    388.84812    380.72303    351.76029    39359.762 
   47700    300.58002   -1318.8128    396.17729     425.8023    387.32067    39359.762 
   47800     304.8483   -1330.1702    411.40903    448.82462    233.47486    39359.762 
   47900    306.58132   -1340.1431    394.18223     429.3994    82.650373    39359.762 
   48000    297.06657    -1314.317    399.27687     417.6359    84.610399    39359.762 
   48100    300.34891     -1305.26     409.2751    451.41609    128.28252    39359.762 
   48200    297.18526   -1304.9482    407.02948    435.28971     249.8854    39359.762 
   48300    308.28006   -1288.3468    421.90916    516.54346    77.415325    39359.762 
   48400    304.39288   -1299.3719    399.61103    465.78182     154.3642    39359.762 
   48500    300.75986   -1325.1146     381.1327    405.26265   -183.23731    39359.762 
   48600     293.4787   -1357.8871    402.41517     361.1085   -19.188667    39359.762 
   48700      303.207   -1336.5638    383.70547    407.36445    344.03997    39359.762 
   48800    298.44507   -1341.9199    388.36219    385.30242    69.497068    39359.762 
   48900    302.08564   -1284.5554    379.61305    450.24988   -113.98922    39359.762 
   49000    302.30561   -1318.3924    385.20197    422.98851    381.53472    39359.762 
   49100    303.38496    -1348.304    421.92664    434.64375    97.462901    39359.762 
   49200    291.39928   -1311.2763    403.83193    399.80755    42.185108    39359.762 
   49300    294.32159   -1323.7382     397.2723    393.89577    -22.99332    39359.762 
   49400    295.96766   -1319.7392    402.90207    410.90901    93.769431    39359.762 
   49500    304.28251   -1355.9029     397.1895    406.33422    248.55937    39359.762 
   49600    305.47537   -1351.8244    389.31662    407.89113    460.16574    39359.762 
   49700    294.46686   -1370.3842    400.49016     351.1194    78.460003    39359.762 
   49800    294.21467   -1357.7765    378.62696    340.73258   -5.4316039    39359.762 
   49900    295.49923   -1359.2988    373.29135    339.63724    38.118692    39359.762 
   50000    306.48732   -1372.1511    379.86126    382.64874   -201.78136    39359.762 
   50100     302.6596   -1365.8346    391.55621    383.48862   -542.26934    39359.762 
   50200    293.77508   -1346.2575    374.84089     346.4934    -329.8986    39359.762 
   50300    295.15425   -1336.1999     387.0668    374.96407    65.674402    39359.762 
   50400     304.1138   -1337.3225    404.07421     431.0424    -124.8594    39359.762 
   50500    300.08667   -1362.3584    374.08029    357.94641   -27.035896    39359.762 
   50600    312.29459   -1363.0873    377.23497    415.13839    176.57609    39359.762 
   50700    313.17684    -1347.309    394.16751    451.80715   -137.49156    39359.762 
   50800    303.42335   -1320.4542    389.30794    430.04702   -488.76417    39359.762 
   50900    310.51924   -1326.8251    384.30607    450.50725   -137.45913    39359.762 
   51000    290.08186   -1354.5367    399.91476    346.71986    152.70678    39359.762 
   51100    302.65886   -1295.4382    388.47331    450.79887    630.52979    39359.762 
   51200    296.02848   -1418.8453    393.43009    302.60383    281.49946    39359.762 
   51300    310.38359   -1365.0742    397.81516    425.15872    309.95857    39359.762 
   51400    291.31787   -1343.5388    379.38835    342.73619    248.96378    39359.762 
   51500    308.73978   -1341.3107    405.33189    449.06459    150.14669    39359.762 
   51600    308.27349   -1366.6827    414.35488    430.62378    141.44902    39359.762 
   51700    296.71506   -1329.6223    408.87292    410.34973   -337.93178    39359.762 
   51800     294.0391   -1311.5814    422.47292    429.98598   -94.436889    39359.762 
   51900    306.80152   -1348.1121    398.89816    427.13425    90.553381    39359.762 
   52000    307.91169   -1340.5467    399.14087    439.92271    355.69723    39359.762 
   52100    300.08067   -1403.7036       388.39    330.88398     271.7347    39359.762 
   52200    304.14814   -1361.4158    374.97315    378.00219    417.98248    39359.762 
   52300    297.03141   -1340.2565     388.0749    380.33673    722.81724    39359.762 
   52400    297.71218   -1349.1061    416.62497    403.09121    338.12937    39359.762 
   52500    299.81988   -1357.5309    391.64278    379.13956    490.14978    39359.762 
   52600    295.69586   -1403.7795    387.04402    309.79139   -51.057659    39359.762 
   52700    297.28528    -1376.279    411.88943    369.26764    95.935331    39359.762 
   52800    297.48916   -1395.1743    398.91068    338.30822    668.12976    39359.762 
   52900    309.19814   -1374.1635    407.15724    420.09343    669.31725    39359.762 
   53000    297.00522   -1390.4017     397.0086    339.00767    240.19649    39359.762 
   53100    299.54394   -1411.1093    398.47484    331.15532     80.95041    39359.762 
   53200    304.64404   -1335.4569     404.5012    435.71376   -401.90257    39359.762 
   53300     290.4335    -1330.461    410.61462    383.07287   -434.57083    39359.762 
   53400    293.63346   -1331.0758    394.06449    380.26339    33.533204    39359.762 
   53500     309.4562   -1365.1378    417.58657    440.70614    397.10066    39359.762 
   53600    296.36183   -1329.1468    414.08743    414.45512    240.64364    39359.762 
   53700     309.4972   -1293.6612    409.17964    503.95973    411.85479    39359.762 
   53800    292.54054   -1333.1247    415.04962    394.29666    278.75412    39359.762 
   53900    300.60443   -1322.9463    402.61466    428.21562    258.89115    39359.762 
   54000    304.92395   -1318.7771    401.90314    451.05119   -291.79557    39359.762 
   54100    297.10974   -1362.8031    396.09451    366.16107    30.666828    39359.762 
   54200    290.01315   -1386.9319    410.77543    324.87708    217.81536    39359.762 
   54300    301.39953   -1360.9574    412.38277    403.53962   -69.952205    39359.762 
   54400    296.35247   -1385.2383    385.35047    329.58464   -172.41831    39359.762 
   54500    301.32294   -1330.3218    391.48876    412.93756    326.99014    39359.762 
   54600    317.20024   -1385.8079    421.38562    458.57582    477.22301    39359.762 
   54700    298.59676   -1386.3392    400.79825    353.99972    690.59752    39359.762 
   54800    293.05311   -1380.3782    407.83075    342.12369    142.35405    39359.762 
   54900    289.59942   -1343.1389    400.18901    356.22756    75.263344    39359.762 
   55000     301.0244   -1356.9913    419.29967    412.73969    521.85257    39359.762 
   55100     301.2351   -1374.9035    410.55242    387.02548    690.28852    39359.762 
   55200    305.69925   -1318.7263    432.75116    485.42815    665.29807    39359.762 
   55300    295.57272   -1338.8702    416.45938    403.56366    -91.94538    39359.762 
   55400    298.25238   -1312.1652    406.95325    432.78371    198.94125    39359.762 
   55500    297.85816   -1309.5963    410.98304    437.61393    163.92503    39359.762 
   55600    303.13779   -1338.7381    392.33766    413.51177    359.01395    39359.762 
   55700    298.96457   -1337.5242    396.99221    400.65872   -274.30296    39359.762 
   55800    309.93714   -1326.0176    406.21069    470.60803    357.64107    39359.762 
   55900    294.30331   -1341.4103    407.62909    386.49848    155.30622    39359.762 
   56000    302.39572   -1343.2141    405.06862     418.4377    205.40408    39359.762 
   56100    298.93689   -1381.3045    426.75642     386.5184    261.06646    39359.762 
   56200    303.11804   -1336.8498    409.16876    432.14256    578.25247    39359.762 
   56300     309.1602   -1311.6424    424.32978    499.61687    802.04695    39359.762 
   56400    292.63101   -1306.6673    392.21336    398.32361     244.3497    39359.762 
   56500    305.21532   -1352.9052    402.63113    418.95818    47.432105    39359.762 
   56600    298.46751   -1358.7093    415.65576    395.90728   -108.89141    39359.762 
   56700    317.21515    -1369.976    405.67616    458.76515   -199.18415    39359.762 
   56800    306.98397    -1330.818    390.17086    436.51954     296.2811    39359.762 
   56900    292.53547    -1338.505    395.51213    369.35615    314.92423    39359.762 
   57000    298.66892    -1277.614    384.97906    447.22939    178.31196    39359.762 
   57100    302.34789   -1346.6315    429.80532    439.54243    50.260706    39359.762 
   57200    304.02481   -1322.2963    402.46104    444.05629    624.48888    39359.762 
   57300    300.65882   -1343.5226    390.91349    396.18224   -52.753603    39359.762 
   57400    298.31397   -1335.2596    401.64765    404.66008   -117.38656    39359.762 
   57500     291.9433   -1328.9698    408.23319    388.95578   -634.67703    39359.762 
   57600    299.15555    -1340.098    400.55761    402.50704   -548.49647    39359.762 
   57700    300.95678   -1330.7856    384.60879    403.95114   -497.78908    39359.762 
   57800    301.78662   -1347.1371    374.11198     380.8256   -193.95167    39359.762 
   57900      291.178   -1366.1933    403.13699    343.20292     71.28059    39359.762 
   58000    295.69023   -1324.8383    404.30656    405.96981    562.41278    39359.762 
   58100    304.79864   -1366.3854    399.13759    400.11524    991.79937    39359.762 
   58200    296.93108   -1367.5299    420.30866    384.84696   -26.662677    39359.762 
   58300    299.10037   -1374.5694    403.40542    370.63592    450.30499    39359.762 
   58400    314.76351   -1338.7754    426.08172    499.37287    544.47964    39359.762 
   58500    301.08521   -1312.1594     393.8514     432.3961    509.72115    39359.762 
   58600    297.75976   -1320.9801    419.64066    434.44634    371.53304    39359.762 
   58700    302.92021   -1360.8602    401.75947    399.83544     266.6598    39359.762 
   58800    302.44923   -1373.0066    418.46433    402.28103    3.9478633    39359.762 
   58900    314.03404   -1362.0989    422.01684    468.71206    664.20246    39359.762 
   59000    307.87887   -1354.1224    414.78488    441.84372     355.9031    39359.762 
   59100    300.70238   -1369.4261    410.32427    389.88486     533.6263    39359.762 
   59200    295.97182   -1336.7556    411.59975    402.60896    593.17652    39359.762 
   59300    303.86063    -1333.826    413.23048     442.5595    683.42863    39359.762 
   59400    295.24938   -1332.0612    396.92635    389.38906    424.26987    39359.762 
   59500     305.7968   -1288.2353    417.88208    501.48762    902.10295    39359.762 
   59600    306.05545   -1291.1258    449.28676    531.16216    441.97006    39359.762 
   59700    303.72574   -1302.5592    410.01288    470.00351     635.8721    39359.762 
   59800    295.18457   -1357.1302    403.84797     370.9509    383.00019    39359.762 
   59900    306.57575   -1327.0686    397.13555    445.40231   -74.087235    39359.762 
   60000    301.09556   -1337.6385    407.47887    420.59089    348.03111    39359.762 
   60100    311.57851     -1310.98    436.46456    523.26288    531.97169    39359.762 
   60200     306.3959   -1311.6814    414.41197    477.25907    215.69951    39359.762 
   60300    291.54817   -1321.4515    429.77685    416.24512    386.07301    39359.762 
   60400     293.9012   -1349.0181     415.0012    384.45893    643.96964    39359.762 
   60500    296.14162   -1349.7263    415.25008    394.05034    518.50447    39359.762 
   60600    300.01928   -1306.3186     423.8908    463.49448   -142.53159    39359.762 
   60700    304.62139    -1350.647    415.40221    431.32302    222.82282    39359.762 
   60800    305.78574   -1333.7502    428.17493    466.21593    87.057989    39359.762 
   60900    307.67761    -1287.826    418.65474    511.10708     323.2786    39359.762 
   61000    299.47695   -1316.8032    420.87938    447.56546    165.82133    39359.762 
   61100    311.00243   -1359.1268    417.02768    453.09483    405.35315    39359.762 
   61200    301.03671   -1320.4731    413.36143    443.37491    447.89484    39359.762 
   61300    301.01146   -1323.7451    391.29787    417.92602      395.315    39359.762 
   61400    298.69642   -1345.8869    392.51895    386.61981    152.42443    39359.762 
   61500    304.80929   -1358.5026    404.18492    413.09307   -68.277007    39359.762 
   61600    298.41122   -1360.3744    398.47012    376.80402    -286.9933    39359.762 
   61700    298.76302   -1378.7756     400.3992     361.9101    231.06133    39359.762 
   61800    297.52793   -1363.0584      427.502     399.1894   -362.19351    39359.762 
   61900    291.71131   -1412.9078    408.49135    304.23521   -640.04173    39359.762 
   62000    293.10805   -1375.5961    407.09803    346.41952   -405.19948    39359.762 
   62100    304.85383   -1361.2489    404.31428      410.676    -674.6586    39359.762 
   62200    293.77792   -1361.7528    387.16603    343.33603    -531.0953    39359.762 
   62300    302.56035   -1360.8919    410.56818    406.99802   -60.560456    39359.762 
   62400    308.58631   -1360.1313    418.83917    443.06284   -16.086302    39359.762 
   62500    298.96547   -1333.2881     422.1676    430.07418    79.452862    39359.762 
   62600    295.80061   -1380.0026    405.41715    352.41137   -72.973911    39359.762 
   62700    305.00233   -1371.5798    413.66821    410.36524    108.11002    39359.762 
   62800    300.43416   -1418.8989    408.15827    337.04277    443.17756    39359.762 
   62900    301.33931   -1411.9342    388.36932    328.27912  -0.73461249    39359.762 
   63000    295.50781    -1373.577    408.42538    360.53164    7.2709505    39359.762 
   63100     301.5085   -1395.2926    422.43319    379.74368   -278.30521    39359.762 
   63200    291.77999   -1343.6745    410.86761    376.15286   -6.9716514    39359.762 
   63300    304.56941   -1352.4492    438.75242    452.63785    157.71504    39359.762 
   63400    297.83907   -1343.6779     421.9231    414.38673    41.102797    39359.762 
   63500    307.55767   -1357.4985    428.23175    450.47365    29.519649    39359.762 
   63600    290.72728   -1290.0164    444.40926    458.63004   -320.61069    39359.762 
   63700    296.97064   -1286.5423    438.71903    484.42244    -68.66035    39359.762 
   63800     288.1314   -1294.1432    440.43677     438.8853   -291.31962    39359.762 
   63900    304.40611   -1283.0095    444.61331     527.2059    289.57952    39359.762 
   64000    306.38522   -1300.7452    442.15059    515.88597   -94.280385    39359.762 
   64100    294.05476   -1358.8333    414.77294     375.1043    -447.7633    39359.762 
   64200    297.56245   -1351.4333    434.64189    418.10918    -332.8755    39359.762 
   64300     299.9326   -1355.2886    447.43375    437.67854   -288.19824    39359.762 
   64400    296.62566   -1326.0721    443.56266    448.18859   -82.871745    39359.762 
   64500    309.74043    -1343.651    399.55213    445.43357   -199.91824    39359.762 
   64600    301.90371   -1345.4744    429.10905    438.01061   -47.956568    39359.762 
   64700    291.21269   -1414.9923    418.32228    309.74484   -486.77626    39359.762 
   64800    295.99518   -1364.4246    423.88769    387.33272   -228.58777    39359.762 
   64900    288.65418    -1408.215    422.07066    308.79271   -185.72277    39359.762 
   65000    290.64178   -1408.7123    433.81948    328.96081    394.67472    39359.762 
   65100     299.8796   -1377.0565    433.54806    401.78719    73.630582    39359.762 
   65200    298.29258   -1391.5899    448.97375    395.55996    40.730757    39359.762 
   65300    287.64838   -1436.6178    416.98593      270.793   -6.8198219    39359.762 
   65400    296.63677   -1382.0518    415.87791    364.57401   -192.41058    39359.762 
   65500    301.89299   -1352.8367    425.59006    427.08132   -35.991023    39359.762 
   65600    299.37473   -1397.6123    444.35691    389.77531   -433.83239    39359.762 
   65700    302.49367   -1429.6668    409.98647     337.3423   -296.58424    39359.762 
   65800    297.62885   -1421.8736    406.76647    320.09137    123.15081    39359.762 
   65900    299.60961   -1429.6597    421.08905    335.51378    61.758008    39359.762 
   66000     308.3035   -1377.4552     437.9438    443.57483     743.2871    39359.762 
   66100    296.93535   -1358.8466    422.35827      395.599     729.0215    39359.762 
   66200     312.2107   -1396.1192    416.70697    421.20213    352.82038    39359.762 
   66300    302.14807   -1382.6801    424.24743    397.03955     768.6121    39359.762 
   66400     303.2214   -1407.8235    428.57617    381.03996    555.14613    39359.762 
   66500    312.85537   -1373.4249    422.51734    452.59889    291.91107    39359.762 
   66600    293.75869   -1362.6495    427.10568    382.29263    254.32109    39359.762 
   66700    293.63439   -1379.8409    427.87693    365.31489    311.62085    39359.762 
   66800    298.79358   -1404.4999     425.1438    361.06747    46.394265    39359.762 
   66900    302.86802   -1421.6065    436.16637    373.26186    236.81171    39359.762 
   67000    303.02292   -1410.7054    427.37449    376.06604   -603.06811    39359.762 
   67100     300.2652   -1368.8252     445.5926    423.79287   -465.73138    39359.762 
   67200    299.26123   -1351.1115    421.52179    412.93184   -201.95779    39359.762 
   67300    302.49705   -1379.2519    428.93598    406.72183    17.113217    39359.762 
   67400    291.19929   -1393.4291    438.22804    351.15362   -905.63678    39359.762 
   67500    296.17617   -1393.0806    434.95049     370.5515   -163.00407    39359.762 
   67600    301.02414   -1395.0327      428.005     383.4024    25.786012    39359.762 
   67700    296.80143   -1447.8398    412.83208    296.47884    371.54916    39359.762 
   67800    298.42981   -1374.7985    459.07983    423.07303    482.27518    39359.762 
   67900     311.3207   -1415.2864     446.8252    428.16053    484.33912    39359.762 
   68000    297.44684   -1410.2047    436.60136    360.77862    489.57402    39359.762 
   68100    295.09497   -1404.8356    435.28626     354.2819    572.76582    39359.762 
   68200    288.33388   -1340.7119    449.57114    402.35934    559.93871    39359.762 
   68300     307.4977   -1385.9885     431.6724     425.1552    234.99241    39359.762 
   68400     313.7825    -1390.137     443.2199    460.74855   -252.56902    39359.762 
   68500     300.4233   -1399.9974    419.80589    367.54318   0.42455571    39359.762 
   68600    301.33687   -1427.2678    436.81425    361.37958    63.126605    39359.762 
   68700    310.72086    -1419.622    436.15481    410.46356    47.526725    39359.762 
   68800    292.07306   -1376.7513    450.27381    383.79705   -216.69477    39359.762 
   68900    310.19228   -1378.8931      430.639    443.30541    130.30369    39359.762 
   69000    289.55555   -1399.9531    442.64243    341.67006    296.62242    39359.762 
   69100    298.86991    -1403.183    433.37271    370.95574    104.19605    39359.762 
   69200    303.22331   -1428.1454    430.37063    362.52114    252.91861    39359.762 
   69300    304.40977   -1450.8212    434.30133     349.0986   -209.06396    39359.762 
   69400    305.11058   -1436.9434    407.29008    339.10914    -141.3146    39359.762 
   69500    296.46319   -1460.0761    420.20536    290.09849   -334.18165    39359.762 
   69600    302.09754   -1428.5282    413.37723    340.09461   -501.10996    39359.762 
   69700    289.66445   -1372.1752    431.31138    358.60542   -12.002866    39359.762 
   69800    298.75134   -1432.7756    411.68501    319.14354   -310.26023    39359.762 
   69900    298.72882   -1447.3036    417.33587    310.16534    122.79353    39359.762 
   70000    300.11013   -1396.4108    429.02199    378.94098    344.84084    39359.762 
   70100    298.79538   -1396.4748    423.76792    367.72479   -117.89336    39359.762 
   70200    300.47279    -1389.751    416.55574    374.76153    6.6770022    39359.762 
   70300    297.46628   -1420.4064    433.47337    347.53611   -395.37263    39359.762 
   70400    310.12462   -1415.7974    453.84512    429.30364   -204.13142    39359.762 
   70500    296.60746   -1370.6331    414.93399    374.91732   -270.77862    39359.762 
   70600    302.53756   -1380.8696    433.90595    410.25589   -437.03837    39359.762 
   70700    292.78387   -1398.6308    439.60527    354.43778   -762.52984    39359.762 
   70800    312.02592   -1374.9025    427.66626    452.54922   -54.627375    39359.762 
   70900    301.37755   -1408.0705    411.19061    355.13573   -306.37053    39359.762 
   71000     296.2473   -1415.5778    435.79327    349.21609   -154.38213    39359.762 
   71100    311.80943   -1408.3318    425.96162    416.44404   -87.266261    39359.762 
   71200    292.62074   -1448.3894    416.00355    280.34569   -433.98535    39359.762 
   71300    330.57953   -1435.9035    388.76828    435.88393    124.27703    39359.762 
   71400    298.80735   -1385.9884    425.86879     380.3658   -301.85334    39359.762 
   71500    301.36725   -1423.1318    444.47543      373.313   -386.82066    39359.762 
   71600    289.33283   -1410.8995    430.04175    317.12375    -454.3152    39359.762 
   71700    301.07429   -1406.6418    455.65496    399.66834   -170.04737    39359.762 
   71800    296.38287   -1382.4824    447.28889    394.41539    102.75069    39359.762 
   71900    298.01423   -1402.9427    418.29224    352.27686   -353.84453    39359.762 
   72000    297.07223   -1429.6372    421.32988    324.39408    -8.298878    39359.762 
   72100    289.80163   -1397.5913    446.99483    349.48816   -3.7379654    39359.762 
   72200    303.88168   -1412.2218    429.99662    381.02425    -45.44497    39359.762 
   72300    303.31141   -1433.1704    401.70664    329.22734   -37.145907    39359.762 
   72400      295.679    -1410.566    420.35704    336.24227   -176.86102    39359.762 
   72500    296.98785   -1393.5046    418.27781    357.09611    270.74428    39359.762 
   72600    296.46563   -1377.5507    448.61177    401.04125    200.20128    39359.762 
   72700    297.06262   -1374.6339    439.01474    397.03914    502.21221    39359.762 
   72800    307.37235   -1403.2851    433.57824     409.2021    623.06252    39359.762 
   72900    299.72396     -1422.94    425.93047    347.58784    779.21745    39359.762 
   73000    307.13259   -1394.3968     432.5462     415.9828    529.00341    39359.762 
   73100    294.52531   -1414.1134    456.39674    363.55893    367.43243    39359.762 
   73200    310.45844    -1372.865    416.77085    436.65945    465.83029    39359.762 
   73300    296.22305   -1400.8001    434.32353    362.41534    -312.1823    39359.762 
   73400     296.9015   -1382.1349    439.30765     389.1082    88.243877    39359.762 
   73500    297.18747   -1383.2478    416.65139    366.62196    234.96097    39359.762 
   73600     290.6156   -1375.9872    428.27144    356.02047    127.20298    39359.762 
   73700    303.04524   -1383.9991    435.89089    411.38889    150.47144    39359.762 
   73800    300.84203   -1396.7382    456.11511    408.99013    73.031075    39359.762 
   73900    297.76205   -1431.2593    429.75332    334.28998     363.4853    39359.762 
   74000    299.11826   -1429.4619    433.12244     345.5407     291.0268    39359.762 
   74100    293.79301   -1402.1222    443.29471    359.16292    127.54656    39359.762 
   74200    305.27846     -1392.75    422.91491    399.68048   -339.58164    39359.762 
   74300    311.89567   -1360.8563    428.10235    466.44713   -193.45592    39359.762 
   74400    312.09357   -1389.8244    422.66466    432.92915   -306.11267    39359.762 
   74500    303.86367    -1407.611    433.05584    388.61344      239.932    39359.762 
   74600    294.58223   -1410.1989    421.94826    333.28036   -467.04361    39359.762 
   74700    301.06711   -1412.7116    429.68038    367.59165   -406.16885    39359.762 
   74800    293.06352    -1416.277    418.27454    316.71534    -139.3309    39359.762 
   74900    293.58791   -1394.6942    447.68099    370.05713   -108.46543    39359.762 
   75000    304.08414   -1384.2261    423.35098    403.28255     -101.308    39359.762 
   75100    301.69842   -1396.3878     406.3838    363.45103   -168.78117    39359.762 
   75200    297.87381   -1447.5105    446.53893    335.32584   -328.01304    39359.762 
   75300    301.88694   -1407.6941    440.52594    387.13267    203.48583    39359.762 
   75400    297.85945   -1404.6059    418.14905    349.77611    68.869514    39359.762 
   75500    299.89577   -1382.6831    435.99623    398.68125   -255.89719    39359.762 
   75600    304.57103   -1389.5354      452.917    429.72356    158.33466    39359.762 
   75700    305.75531   -1378.6257    435.79112    428.82012   -1.3663193    39359.762 
   75800    312.05917   -1392.1396    429.09622    436.89126   -398.02439    39359.762 
   75900    300.70474   -1367.5651    415.43826    396.87042   -93.316827    39359.762 
   76000     308.2325   -1319.1921    453.88367    517.45923   -75.898108    39359.762 
   76100    298.83948   -1398.2584    430.58455    372.95562   -330.10763    39359.762 
   76200      304.883   -1392.8943    446.09126    420.93837   -265.26891    39359.762 
   76300     306.5373   -1409.4257    435.88399    401.62109   -134.92122    39359.762 
   76400    300.00928   -1409.4055    445.27067    381.74252    108.78071    39359.762 
   76500     307.8987   -1443.6621    423.05431    360.66249     37.33979    39359.762 
   76600    296.15292   -1448.2192    419.60891    299.96698    317.06411    39359.762 
   76700    295.05447   -1446.6178     422.4151     299.4468   -329.40699    39359.762 
   76800    293.84589   -1383.5991    432.13693    366.76549    263.70469    39359.762 
   76900    301.38652   -1388.2668    454.15593    417.94502    475.54726    39359.762 
   77000    296.76142   -1395.2715     456.8456    392.88118    10.863075    39359.762 
   77100    296.32595   -1396.1107    455.69092    388.93376    98.251366    39359.762 
   77200    297.63606    -1410.932    405.25436    329.55317   -533.34416    39359.762 
   77300    293.86023   -1401.9312     461.1021    377.46288   -185.90429    39359.762 
   77400    289.98231   -1407.2978    432.66359    326.26102    456.11826    39359.762 
   77500    298.77595   -1414.9736    436.10838    361.47927    117.69137    39359.762 
   77600    297.47068   -1418.0052    450.44084    366.92456    148.97478    39359.762 
   77700    288.70537   -1396.4885     428.2294     326.9076    395.16334    39359.762 
   77800    299.14728   -1346.8607    430.91843    426.06803    446.12251    39359.762 
   77900    307.13417   -1382.4388    446.30637    441.70803   -91.418366    39359.762 
   78000    302.81282    -1362.226    428.17595    424.40434   -204.91465    39359.762 
   78100    306.41681   -1368.6738    438.30262     444.2511    228.62508    39359.762 
   78200    299.96958   -1361.7301    444.12697    428.09618   -595.69586    39359.762 
   78300    300.58903   -1398.4638    428.64494    378.65933   -691.04194    39359.762 
   78400    293.51687   -1404.2823    409.42206    321.89135   -723.60333    39359.762 
   78500    301.14414   -1341.0427    433.04165    442.96741    204.72474    39359.762 
   78600    295.43052    -1381.753    439.25853    382.84202   -143.07135    39359.762 
   78700    305.27894   -1445.8979    450.52461    374.14437    128.35133    39359.762 
   78800    309.43248   -1428.3145    444.01109    403.84757    846.40521    39359.762 
   78900    298.62892   -1402.9725    462.93422    399.64666    618.10172    39359.762 
   79000    295.26493   -1386.8081    418.20938    355.99491    453.79541    39359.762 
   79100    290.83827   -1404.0117    431.73074    332.45419    922.67982    39359.762 
   79200    295.88755   -1399.9875    451.64696    379.04625    350.62348    39359.762 
   79300    307.15635   -1410.7697    436.21028    403.38058    655.16635    39359.762 
   79400    295.69824   -1426.5064    450.53843    350.56957    444.08021    39359.762 
   79500    305.03449    -1431.702    445.43711    382.15617    816.43735    39359.762 
   79600    305.59564   -1403.7073    435.70344    402.93457    647.55427    39359.762 
   79700    307.67325   -1429.3509    439.67419    390.58217    590.27774    39359.762 
   79800    306.02051   -1445.3937    442.29979    369.75056   -178.79121    39359.762 
   79900    304.85494   -1425.6117    428.87124     370.8751    -164.7842    39359.762 
   80000    292.13845   -1466.0306    439.11415    283.65143   -901.71778    39359.762 
   80100    304.06971   -1494.4551    433.96005    303.59789   -260.71818    39359.762 
   80200    299.13918     -1484.28    438.06211    295.75609   -359.39261    39359.762 
   80300    296.59766   -1423.3857    439.13668     346.3234    141.65131    39359.762 
   80400    304.97835   -1416.8763    436.91661    388.20954    426.70624    39359.762 
   80500    299.04527   -1409.7987    472.80249    404.55646    565.09857    39359.762 
   80600    294.81448   -1432.6345    482.23578    372.17415    538.80001    39359.762 
   80700    293.81063   -1438.2913    446.98855    326.76673    286.22811    39359.762 
   80800    308.48845   -1457.0941    432.04275    358.86463    242.40793    39359.762 
   80900    292.48142   -1439.8395    454.27719    326.54419    467.14735    39359.762 
   81000    308.33446   -1454.0421    438.10329    367.28627     699.7868    39359.762 
   81100    294.43927   -1423.9872    433.88625    330.78873    128.30702    39359.762 
   81200    299.37084   -1453.1629    441.66852    331.51891    184.74115    39359.762 
   81300    300.52229   -1421.5545    425.85071    352.47501    21.484223    39359.762 
   81400     306.3336   -1404.3704    453.11584    422.99443   -426.63269    39359.762 
   81500    308.55343   -1426.4158    446.05456    403.84618    -251.8835    39359.762 
   81600    302.45639   -1442.0487    440.65863    355.46532   -182.60068    39359.762 
   81700    302.85895   -1451.7335     440.5702    347.49803   -9.9985541    39359.762 
   81800    292.99951   -1458.9338    427.69639    283.19333    38.579669    39359.762 
   81900    294.55423   -1443.9831    416.12615     293.5484   -205.43981    39359.762 
   82000      294.648   -1434.8011     438.2033    325.22819    50.359636    39359.762 
   82100    298.83012   -1420.0552    457.66076    378.19305    22.414014    39359.762 
   82200    300.39887    -1406.208     446.5883    388.00544    83.195991    39359.762 
   82300    302.40505   -1436.1305     441.8368    362.33141    -140.1552    39359.762 
   82400    307.71181   -1466.9945    431.10134    344.53868    265.91961    39359.762 
   82500    293.30245   -1439.5031    456.35193    332.63851    60.773947    39359.762 
   82600    305.65164   -1413.5046    435.72245    393.40755     212.0267    39359.762 
   82700    308.37837   -1431.2887    434.76481    386.89827    194.37841    39359.762 
   82800     292.4572   -1400.6406    442.79553    354.15275    430.67755    39359.762 
   82900    296.94572   -1418.7544    438.26831    351.64784    78.965918    39359.762 
   83000    304.06725    -1449.721    445.11463    359.47555   -163.68195    39359.762 
   83100    292.02151   -1456.4618    469.69366     323.2751    434.42339    39359.762 
   83200    296.00663   -1404.1771    493.86542    417.60935     9.654022    39359.762 
   83300    291.20498   -1430.3766    460.98761    336.99124   -254.16724    39359.762 
   83400    321.27085    -1407.361    430.65134    464.54963    200.06264    39359.762 
   83500    313.01266   -1363.1945    483.37146      524.389    91.701738    39359.762 
   83600    305.62073   -1427.5514    455.59902    399.09866   -517.88861    39359.762 
   83700    306.96814   -1414.2536    478.44398      441.286    252.53092    39359.762 
   83800    294.78545   -1409.4852     430.7183    343.67577   -441.54655    39359.762 
   83900    297.64948    -1445.466    454.05988    343.88485    -375.7448    39359.762 
   84000    304.19111   -1428.4272    438.03342    374.24375   -372.08493    39359.762 
   84100    295.69822   -1453.5663    411.87272    284.84391   -281.92782    39359.762 
   84200    300.86384   -1467.0072    463.96043    346.66424   -216.65138    39359.762 
   84300    301.14055   -1467.7614    452.68827    335.87926   -62.706078    39359.762 
   84400    300.77243   -1479.6509    423.25345    292.90353    172.67181    39359.762 
   84500    302.68834   -1475.4561    445.50263    327.94251    357.53865    39359.762 
   84600     293.8357   -1434.5612    453.57879    337.19956    271.99569    39359.762 
   84700    303.74753   -1442.1045    447.94793    368.49105    6.3506699    39359.762 
   84800    313.23688   -1464.0103    451.53422     392.7419    367.99754    39359.762 
   84900    300.67391   -1468.5242    427.95299    308.28773    204.90996    39359.762 
   85000    307.62583   -1456.5639    455.63687     379.1191    113.36861    39359.762 
   85100    286.34928   -1462.8875    441.27368     262.9832    34.691446    39359.762 
   85200    293.59781   -1476.9111    436.01457    276.21821    202.47877    39359.762 
   85300    301.76199   -1461.4153    455.93949    348.26443    244.76222    39359.762 
   85400    298.03345    -1484.809    437.18319    289.38778    178.90364    39359.762 
   85500    286.37024   -1441.8555    457.23317    300.06867    295.37611    39359.762 
   85600    301.42606   -1463.0476    429.62586    318.81151    141.54556    39359.762 
   85700    297.58828     -1427.59    463.33539    370.76186    245.51665    39359.762 
   85800    297.25306   -1465.6612    433.44678    301.29826   -277.77369    39359.762 
   85900    307.60132   -1461.0956    443.08654    361.92706    370.22264    39359.762 
   86000    303.26259   -1453.0339    438.43066    345.86885    312.84633    39359.762 
   86100    300.59923   -1379.7854    466.46842    435.20698    212.37762    39359.762 
   86200    294.01717   -1440.2761    440.98468     319.7046   -377.53563    39359.762 
   86300    295.29033   -1416.9271    445.42346    353.20401   -121.59065    39359.762 
   86400    302.11895   -1484.8804    442.93065    313.39188   -292.50146    39359.762 
   86500    287.89114   -1493.8398    450.30334    247.97742   -546.18661    39359.762 
   86600    307.80781   -1494.1708    443.90106    330.59278   -506.39412    39359.762 
   86700    297.07509    -1486.001    437.67462    284.38787    21.707637    39359.762 
   86800    294.63654   -1490.2689    441.95418    273.45986   -33.626532    39359.762 
   86900    306.96244   -1505.9497    449.88629    321.00667    54.836103    39359.762 
   87000    297.37731    -1496.923    429.14015    266.28716   -20.922135    39359.762 
   87100    305.33255    -1477.548    433.21486    325.42511   -17.224811    39359.762 
   87200    291.32785   -1468.9474    479.33817    317.32223    30.071743    39359.762 
   87300    294.22528   -1431.7146    431.00944    319.22452   -147.52079    39359.762 
   87400    317.87937   -1465.7798    479.46099    439.72594   -223.72081    39359.762 
   87500    304.57902   -1502.9355    444.52087    307.96316   -56.508297    39359.762 
   87600    291.57513   -1510.8434    444.59412    241.79146    154.24943    39359.762 
   87700     293.0436   -1497.1932     432.8135    250.24878   -398.41608    39359.762 
   87800    292.19116   -1486.9137    447.01252    270.90315   -203.14962    39359.762 
   87900    304.63774   -1497.4333    462.90621    332.11408   -141.70357    39359.762 
   88000    303.16985    -1522.167    477.04789    314.93697    704.57694    39359.762 
   88100    290.17704   -1461.7089    463.28589    303.34576    499.86655    39359.762 
   88200     300.5082   -1456.9991    472.11542    363.23191    759.95485    39359.762 
   88300    308.17659   -1461.2283    449.54377    370.83237    617.10551    39359.762 
   88400    289.78372   -1437.8159    445.21987    307.40824     64.78623    39359.762 
   88500    292.27218   -1446.7332    478.26518    342.69978    896.60662    39359.762 
   88600    296.25315   -1424.5234    434.77086    339.27439    741.22387    39359.762 
   88700    288.89585    -1454.854    454.13985    295.30708    525.12905    39359.762 
   88800    304.73039   -1441.2308     450.4012    376.22718    498.99813    39359.762 
   88900    300.23855   -1437.7682    455.70179    364.83952    3.3688359    39359.762 
   89000    299.85297   -1454.3996    458.82143    349.59794    331.27196    39359.762 
   89100    284.96208    -1452.484    434.90353    260.79337    353.40284    39359.762 
   89200    302.74758   -1432.9644    465.48257    390.67985    110.90595    39359.762 
   89300    304.30103   -1472.9999      462.422    354.55277    886.69494    39359.762 
   89400    303.08839   -1445.9158    450.41084    364.18563    569.93445    39359.762 
   89500    293.09622   -1441.6547    479.60125    352.81109    -153.0796    39359.762 
   89600    301.48472   -1443.3007    482.48591    391.68155    300.86236    39359.762 
   89700    299.01943   -1440.3533    438.46238    339.54588    343.52646    39359.762 
   89800    307.01033   -1462.4673    456.50108    371.31876    106.81336    39359.762 
   89900    301.08522   -1480.4989    442.42523    312.63052   -340.78581    39359.762 
   90000    300.01833   -1444.9317    483.87095    384.85719    138.74441    39359.762 
   90100    307.07491   -1479.1958    456.61641    354.99522   -281.03337    39359.762 
   90200    298.69217   -1478.6231    419.36406    280.70969   -337.41955    39359.762 
   90300    305.56324   -1414.8209    461.45401    417.42624   -209.04648    39359.762 
   90400    304.17779   -1422.1545    456.73727    399.16057    190.08161    39359.762 
   90500     293.6092   -1473.8664    459.32802    302.62745    186.69562    39359.762 
   90600    296.68006   -1439.7803    439.75661    330.91834    37.723849    39359.762 
   90700     305.4047   -1428.3196    456.92266    398.68498    33.813357    39359.762 
   90800    298.34264   -1403.5775    463.34481    398.16791   -228.80407    39359.762 
   90900    305.65176    -1437.108    446.86278    380.94501    16.530846    39359.762 
   91000    306.42827   -1423.8534    491.01557     441.8359    290.06073    39359.762 
   91100     298.4795   -1458.2759    424.71053    305.44927    24.117161    39359.762 
   91200     314.0359   -1489.2493    459.61766    379.17087   -136.24974    39359.762 
   91300    305.52218   -1464.7528    440.46408    346.32014    -777.6466    39359.762 
   91400    302.63818   -1469.0463    447.60215    336.22677   -70.432953    39359.762 
   91500    307.20069   -1444.3352    441.32999    375.13372    192.56287    39359.762 
   91600    296.73376   -1473.8452    439.93165    297.26939    355.76597    39359.762 
   91700     306.9086   -1491.4944    452.85784      338.192    1130.8267    39359.762 
   91800    296.53807   -1488.5872     468.3855    310.10345    859.16906    39359.762 
   91900    303.14918   -1426.8174    452.15449    385.30038     59.93605    39359.762 
   92000    294.17833   -1473.4853    445.95365    292.18734     423.5495    39359.762 
   92100    299.12137   -1487.4649    459.59806    314.02724    255.46429    39359.762 
   92200    293.56579   -1480.6155    455.40464    291.76031    271.97662    39359.762 
   92300     301.4543   -1460.2684    457.47722    349.56869    390.27696    39359.762 
   92400    296.48462   -1468.5176    446.48607     308.0338    725.82023    39359.762 
   92500    307.87011   -1488.7599    462.36332    354.74538    228.98596    39359.762 
   92600      308.505   -1462.6979    471.84818    393.14045    226.69416    39359.762 
   92700    303.57254   -1485.5362    447.30779    323.63419   -47.460137    39359.762 
   92800    300.11416   -1461.8262    442.06831    326.59001   -162.87278    39359.762 
   92900    303.36059    -1487.225    438.48043    312.16716    40.734196    39359.762 
   93000    301.86073   -1461.9565    446.51261     338.7393   -696.61622    39359.762 
   93100    297.87213   -1430.5152    465.34663    371.12129   -78.163414    39359.762 
   93200    297.52938   -1445.2976    442.60905    332.06368   -546.89719    39359.762 
   93300    306.94052   -1423.6546    453.93157    407.24871   -353.44966    39359.762 
   93400    295.05928   -1436.1463    441.88743    329.41223   -341.78121    39359.762 
   93500    298.23168   -1419.9648    456.34627     374.2843    -138.3679    39359.762 
   93600    302.35525   -1430.5625    464.11494    389.95412   -67.142473    39359.762 
   93700     292.2069   -1433.0817    470.98559    348.77887   -72.327101    39359.762 
   93800      311.239   -1423.5905    434.62543    407.29016    595.45319    39359.762 
   93900    287.13526   -1457.9769     449.5399      279.686    175.28337    39359.762 
   94000    302.56932   -1432.1538    447.59385    372.80205    474.25842    39359.762 
   94100    305.41441   -1413.3799    448.83249    405.57801   -144.42818    39359.762 
   94200    297.17541    -1371.732    440.47236    401.90462   -516.58023    39359.762 
   94300    297.85548   -1398.9491     432.2302    369.49625   -877.63817    39359.762 
   94400    309.86428   -1477.4811    439.82619    352.43317   -725.70352    39359.762 
   94500     301.8971   -1430.1464    456.63901    380.83891   -264.52706    39359.762 
   94600    295.64472   -1422.1079    461.64398    365.83346   -359.87242    39359.762 
   94700    304.99942   -1440.5156     442.5947    370.34278    278.85994    39359.762 
   94800    302.11289   -1518.0359    465.09313    302.37168    741.35943    39359.762 
   94900    293.70165   -1457.7716    463.90085    323.70987    455.61605    39359.762 
   95000     301.9309   -1466.3304    461.32898    349.49653    588.39839    39359.762 
   95100    313.48061   -1474.7605    444.39757    375.94841    824.87282    39359.762 
   95200    311.22833   -1512.3764    445.27893    329.10988    128.95639    39359.762 
   95300    308.05786   -1475.3138    431.88765    338.55808    327.86388    39359.762 
   95400    316.60658   -1444.5349    460.23029    436.03028   -338.53116    39359.762 
   95500    298.27403   -1456.7822    446.82891     328.1395   -411.18432    39359.762 
   95600     291.8444   -1468.0486    456.33109    297.53127   -488.88083    39359.762 
   95700    298.99288   -1467.4187    452.92807    326.82699   -50.247909    39359.762 
   95800    310.03705   -1483.0057    433.21198    341.06939    -297.4187    39359.762 
   95900    301.41219   -1492.8222    466.62067    325.96945    141.00944    39359.762 
   96000    288.68337   -1459.9718    432.68181    267.77803    68.858679    39359.762 
   96100    297.57932   -1432.6095    446.00691    348.37368    113.32024    39359.762 
   96200    304.96766   -1428.6142      452.798    392.30505    58.469048    39359.762 
   96300    303.39102   -1499.7081    444.80221    306.14238    9.8471899    39359.762 
   96400    285.41597   -1505.2362    440.19025    215.36405    22.287517    39359.762 
   96500    296.54681   -1505.0514    448.22195     273.5149    330.15225    39359.762 
   96600    309.87702   -1493.2219    446.80472    343.72803   -79.575466    39359.762 
   96700    299.65824   -1467.0947    441.93574    319.14357     53.19701    39359.762 
   96800     291.7465   -1473.7413    431.74857    266.81682    473.86093    39359.762 
   96900    280.74309   -1444.0402    454.80506    270.21178   -203.65438    39359.762 
   97000    298.81005   -1420.5055    448.26459    368.25659   -325.90448    39359.762 
   97100    297.52986   -1427.3995    468.53628    375.89123   -46.001169    39359.762 
   97200    295.36714   -1467.4748    454.03304    311.61038    216.90487    39359.762 
   97300    301.62001   -1464.1853    447.66184    336.57988    22.511037    39359.762 
   97400    308.78433   -1407.9125    444.91118      422.242   -87.077973    39359.762 
   97500    301.73585   -1463.0439    458.28218    348.86124   -641.54067    39359.762 
   97600    293.03129   -1464.5479    441.88919    291.91453    74.776092    39359.762 
   97700     293.3748    -1428.148    468.58827    356.55459    115.10207    39359.762 
   97800    296.34499   -1432.7452    470.02767    366.72138    -308.2966    39359.762 
   97900    294.36204   -1462.4753    436.11308    294.18098   -136.47215    39359.762 
   98000     301.5335   -1475.1834    467.42227    344.95408     143.5059    39359.762 
   98100    305.63245   -1480.7722    448.94867    339.28005    79.288854    39359.762 
   98200    307.45619   -1464.7591    441.88689    356.41289   -136.07128    39359.762 
   98300    304.38667   -1439.7419    434.54853    360.32154    421.42188    39359.762 
   98400    300.53243   -1458.7271    470.14373    359.64093    81.777434    39359.762 
   98500    287.46894   -1451.0272    459.07133     297.6641   -58.655388    39359.762 
   98600    305.42107    -1412.334    451.70379    409.52508   -81.626472    39359.762 
   98700    291.74081   -1360.1099    487.81257    436.48676    -308.8491    39359.762 
   98800    306.10614   -1445.0845    459.75615    387.90029   -194.77977    39359.762 
   98900    302.68211   -1465.4539    446.76892    339.18302   -162.21673    39359.762 
   99000    306.21551    -1433.351    463.90372    404.27202   -227.88824    39359.762 
   99100    298.70083   -1455.5899    454.01209    338.42971   -35.415483    39359.762 
   99200    295.37398   -1437.4776    476.26759    363.87284    174.38815    39359.762 
   99300    295.08455   -1449.9217    464.96984    338.83264    732.36397    39359.762 
   99400     298.4268   -1457.5296    463.96745    345.21601    264.95272    39359.762 
   99500    302.32369   -1475.6392    450.31225    330.93312    17.855364    39359.762 
   99600    308.78076   -1415.6376    459.19609     428.7858   -292.70133    39359.762 
   99700    302.64035   -1432.8832    460.96802    385.76551   -37.140893    39359.762 
   99800    292.65532   -1415.3232    464.31329    361.87676   -5.2888347    39359.762 
   99900     303.1822   -1470.8711    459.48666    348.72701     -327.903    39359.762 
  100000    300.77397   -1452.2986    450.15979    347.16901   -559.33592    39359.762 
  100100    302.73788   -1440.3624    470.68725    388.44308    301.02654    39359.762 
  100200    295.83468   -1485.9146    439.93495    281.16996    61.015026    39359.762 
  100300    296.92822   -1478.5079    456.83407    310.38152   -146.79237    39359.762 
  100400    292.04015   -1485.1818    453.74148    278.68658   -256.63988    39359.762 
  100500    310.63878   -1491.1301    434.63426    337.06676   -198.16104    39359.762 
  100600     312.2319   -1478.0401    475.12897    397.79841    5.2297872    39359.762 
  100700    295.08885   -1496.5964    473.82487    301.03222   -3.5040779    39359.762 
  100800    306.20242   -1472.2671    457.35029    358.74376   -419.80105    39359.762 
  100900    300.01768   -1486.8057    462.71396    321.82332   -603.55693    39359.762 
  101000    287.66342   -1490.0591    435.22995    235.66324    -251.5162    39359.762 
  101100    315.52967   -1501.2569    470.41611    384.66288    -217.0803    39359.762 
  101200    304.95738   -1517.0282    456.96317    308.01009    5.0764635    39359.762 
  101300    303.96132   -1509.6169    455.76426    309.75404    155.08911    39359.762 
  101400     299.7214   -1533.6377    446.63658    257.58481    171.03018    39359.762 
  101500    294.04075   -1533.8922    440.15765    225.36733     499.9323    39359.762 
  101600    305.37846   -1501.4061    470.59172    339.14972     198.5524    39359.762 
  101700    304.67005   -1491.0574    485.52711    361.25585    957.51847    39359.762 
  101800    299.18164    -1470.205    435.95805    307.91752    558.93888    39359.762 
  101900    305.13159   -1506.5935    479.08368    341.34689    760.34401    39359.762 
  102000    296.50239   -1430.1288    481.17936    381.19558    620.90911    39359.762 
  102100    299.59584   -1468.1899    438.74864    314.58143   -148.95364    39359.762 
  102200    304.08761   -1413.1188    481.81508    432.86947    -136.8194    39359.762 
  102300    299.95243   -1443.8741    465.16268    366.91086    359.65919    39359.762 
  102400    298.03866   -1463.7003    467.12262    340.45921    -31.41589    39359.762 
  102500    299.67766   -1463.4718    470.77206    351.68998    485.20892    39359.762 
  102600    304.20364   -1436.3902    489.18711    417.49065    107.80325    39359.762 
  102700    296.06061   -1437.3784    463.72383    354.50859    252.32005    39359.762 
  102800     308.6453   -1412.2662    463.26073    435.61413    276.45232    39359.762 
  102900    292.33875   -1436.7173    479.03268    353.78179   -230.24016    39359.762 
  103000    291.26618   -1427.4227    466.18556    345.41764    473.80619    39359.762 
  103100    312.87928   -1445.1681    466.16374    424.60936    294.45031    39359.762 
  103200    298.49538    -1414.149     484.2646    409.20146    612.24171    39359.762 
  103300    305.48829   -1456.9421    468.69433    382.20905    -17.31161    39359.762 
  103400    281.55237   -1420.2764    461.65467    304.45575    33.656087    39359.762 
  103500    291.27111   -1423.9457    493.99961    376.73082    302.21123    39359.762 
  103600     298.5099   -1429.3594    434.72206    344.51364    765.28477    39359.762 
  103700    294.11297   -1397.6958    477.36682    399.09685    714.83095    39359.762 
  103800    306.97183   -1413.2677    491.01255    454.85702    922.12828    39359.762 
  103900    300.35243   -1429.7822    475.70528    393.33985    959.91259    39359.762 
  104000    295.26256   -1403.5497    496.59989    417.63324    683.79144    39359.762 
  104100    300.97247   -1390.1898    481.36025    441.36881    453.87828    39359.762 
  104200    304.66197   -1445.3343    485.85309    407.26866     187.9795    39359.762 
  104300    305.94618   -1445.7011    479.35818    406.16813    950.61744    39359.762 
  104400    305.86218   -1434.3269    470.27876    408.08602    441.34737    39359.762 
  104500    288.33856   -1419.8815    473.37191    347.01148    177.32251    39359.762 
  104600    293.83375   -1430.5757    457.74888    345.34636   -311.38488    39359.762 
  104700    305.36155   -1397.7125    481.81941    453.99522    31.645927    39359.762 
  104800    298.59873   -1417.8442    488.66372    410.36898   -193.32688    39359.762 
  104900    305.81495   -1422.5951    455.60407     404.9313    110.64631    39359.762 
  105000    294.14848   -1388.8127    462.91297    393.68539   -57.579286    39359.762 
  105100    295.91924   -1407.7895    476.20901    395.94852   -152.40709    39359.762 
  105200     301.5903   -1380.3655    476.55039    449.15494    110.83936    39359.762 
  105300    306.00768   -1383.5132    475.83971    465.11341   -290.98594    39359.762 
  105400    292.57473   -1422.1587    450.66524    341.03168   -290.88636    39359.762 
  105500    309.44803   -1410.5685    501.92212    479.57437   -739.43317    39359.762 
  105600    291.37203   -1439.0116    464.56341    332.68147   -404.34447    39359.762 
  105700    293.12072   -1478.9125    474.84531    310.90724    -116.9257    39359.762 
  105800    309.48768    -1458.055    505.30622    435.64982    -35.40975    39359.762 
  105900     294.7693   -1426.9071     481.4254     376.8885   -30.710973    39359.762 
  106000    300.25616    -1496.644    475.01707    325.35798   -55.593744    39359.762 
  106100    298.53095   -1472.9267    484.66856    350.98724   -128.18487    39359.762 
  106200    304.96405   -1432.8507    510.29104    445.54536    286.15423    39359.762 
  106300    289.80299   -1428.1425    510.85913    382.80732   -521.96751    39359.762 
  106400    303.98081   -1432.6672    484.45526    415.48221    -415.3691    39359.762 
  106500     295.7889   -1383.0204    481.07227    424.99612   -481.86598    39359.762 
  106600    297.69532   -1445.5866     453.9331    343.84318   -462.67437    39359.762 
  106700     311.6364   -1443.4862    495.29344    449.84522   -511.36571    39359.762 
  106800    298.96964   -1451.7636    442.06826    331.51805   -337.26296    39359.762 
  106900    297.26511   -1472.6955     504.1706    365.04175   -108.47019    39359.762 
  107000    298.84689   -1521.4453    446.26734    265.48475   -61.158538    39359.762 
  107100    294.97397   -1501.9942    449.80714    271.10132    413.40918    39359.762 
  107200    301.34298   -1476.8937    471.88538    346.85216   -213.98196    39359.762 
  107300     300.1668   -1458.6676    481.81449     369.7309    208.73025    39359.762 
  107400    297.10626   -1500.7671    455.54543    287.63237   -214.61301    39359.762 
  107500    303.60725   -1499.9431    464.28779    326.36303   -49.780861    39359.762 
  107600    299.21417   -1424.8608    487.58628    405.03584   -394.05059    39359.762 
  107700    295.32279   -1433.7399    470.80579    361.91906   -1.7524362    39359.762 
  107800    299.54692   -1482.3026    486.71939    348.21995    430.94061    39359.762 
  107900    291.02406   -1454.4207    455.81889    306.96681   -64.593724    39359.762 
  108000    294.20945   -1453.5399    454.57933    320.89806   -13.850216    39359.762 
  108100    299.77765   -1393.4691    465.43858    416.80772   -691.16681    39359.762 
  108200    298.01722   -1431.0739    472.18433    378.05116    78.713958    39359.762 
  108300    295.64469   -1432.0841    463.89045    358.10366    3.8999457    39359.762 
  108400    299.86944   -1443.8926    484.82995    386.18736   -213.34097    39359.762 
  108500     302.3828   -1447.2188    479.94469     389.2512    -294.2807    39359.762 
  108600    305.93727   -1445.1722    468.48961    395.78842   -19.011876    39359.762 
  108700    301.75245   -1469.4312    465.51003     349.7762    260.33861    39359.762 
  108800     294.1536   -1420.3255    499.33302    398.61563   -321.59269    39359.762 
  108900     301.0703   -1450.6974    491.66577    391.60558    8.0261809    39359.762 
  109000    296.13071   -1463.5222    461.71426    326.66976    592.31304    39359.762 
  109100    304.07306   -1439.4102    486.29902    410.99682    190.19412    39359.762 
  109200    301.82106   -1451.6162    462.52499    364.91402   -19.009762    39359.762 
  109300     296.9956   -1455.4641    469.26508    346.15865     325.4524    39359.762 
  109400    305.60947   -1457.3705    477.15908    390.78909   -176.93146    39359.762 
  109500    300.80509   -1454.6466    459.16966    353.97053    115.34247    39359.762 
  109600    284.24745   -1421.7121    491.40538    344.86117    42.222619    39359.762 
  109700    293.34865   -1412.7111    476.01437    379.30021    458.07685    39359.762 
  109800    305.07266   -1434.9461    480.40408    414.05031    663.13151    39359.762 
  109900    297.23452   -1383.0962    496.85611    447.18935    177.68459    39359.762 
  110000    301.91879   -1400.1748    478.16061    432.42945   -557.20817    39359.762 
  110100    293.26001   -1423.0038     481.6719    374.26741   -524.34242    39359.762 
  110200    296.49106   -1428.2458    482.40154    384.24999   -247.78961    39359.762 
  110300    293.17253    -1472.202    482.62142    325.62636   -100.07727    39359.762 
  110400    301.06167   -1466.7308    458.07946    341.94713   -363.22514    39359.762 
  110500    304.76602   -1483.4073    454.85637    338.66578   -66.138631    39359.762 
  110600    301.85317   -1469.6829    488.33968    372.80607   -240.87848    39359.762 
  110700    298.60327   -1457.9765    462.38522    343.97857   -225.53686    39359.762 
  110800     298.7275   -1485.2474    446.16693    301.04672   -462.80352    39359.762 
  110900    302.24986   -1505.6423    472.47009    322.75662   -240.67047    39359.762 
  111000    292.80155   -1493.3007    466.54486    286.78681    32.041357    39359.762 
  111100    296.81824   -1463.3545    479.03673    347.24419    388.09831    39359.762 
  111200    300.62999   -1483.8787    465.02689    329.81012     385.6213    39359.762 
  111300    294.01465   -1462.8466    481.54325    337.68137    498.41409    39359.762 
  111400    311.96542   -1514.4258    470.90551    355.99375    260.37382    39359.762 
  111500    298.13352   -1453.4115    473.14885    357.19984    200.35768    39359.762 
  111600    296.78157   -1440.2301    481.45123    372.61856    895.65709    39359.762 
  111700    297.34053   -1482.9117    484.20247    335.19585    840.26748    39359.762 
  111800    296.22256    -1409.629    470.52587    389.78659    775.32955    39359.762 
  111900    303.45213   -1451.5697    474.33738    384.09008    438.08771    39359.762 
  112000    311.58469   -1417.5491    479.52731    459.78421    56.851144    39359.762 
  112100    294.50629   -1466.6505    468.03085    322.57065   -81.265786    39359.762 
  112200    302.41394   -1467.1154    460.46879    350.01833   -100.63658    39359.762 
  112300    316.41252   -1488.6834     452.8634    383.64422   -229.78759    39359.762 
  112400    308.92654   -1469.2635    446.18656    362.80433   -415.20534    39359.762 
  112500    299.04071   -1486.0941    453.94112    309.37923   -147.38276    39359.762 
  112600    296.91923    -1455.047    472.88083    349.84886    256.46966    39359.762 
  112700    300.70786   -1472.4112    454.73889    331.33897    593.35963    39359.762 
  112800    299.69995   -1464.7599    483.75992     363.4897    720.77832    39359.762 
  112900    298.35498   -1480.1116    482.63769    340.98209    427.00839    39359.762 
  113000    294.43648   -1450.9926    476.80647    346.69098    628.70947    39359.762 
  113100     305.8351    -1435.792     479.3815    415.60217    257.94381    39359.762 
  113200    298.60137   -1487.6274    478.25142    330.18538    69.408475    39359.762 
  113300    291.76684   -1492.3853    477.30326     293.8187    35.291805    39359.762 
  113400    296.12919   -1458.6044    464.31989    334.18634   -313.38008    39359.762 
  113500    297.66213   -1453.3579    468.57969    350.56959   -373.09745    39359.762 
  113600    300.83131   -1459.2058    471.29414     361.6534   -325.84841    39359.762 
  113700    305.17009    -1481.747    440.35805    327.64041   -357.83924    39359.762 
  113800    295.61424   -1478.4922    468.30785    315.97642   -395.46075    39359.762 
  113900    305.11827   -1464.2239     449.3236    353.89665   -21.235802    39359.762 
  114000    302.99548   -1451.3554    474.22795    382.14635    73.139223    39359.762 
  114100    302.90281   -1449.3873    473.34619    382.81704    29.009436    39359.762 
  114200    306.23214   -1446.5582    465.21851    392.45413    94.842198    39359.762 
  114300    310.16631   -1481.4182    453.27991    363.30476    598.98661    39359.762 
  114400    299.06965   -1473.0967     457.4232    325.98857    687.20345    39359.762 
  114500     292.3376   -1448.4087    496.43673    359.48932   -218.33488    39359.762 
  114600    305.37181   -1461.3012    483.18743    391.82057   -1105.2629    39359.762 
  114700    299.56636   -1473.1164    463.42485    334.19886   -205.21268    39359.762 
  114800    298.15166   -1445.7266    480.28599    372.10324   -477.35856    39359.762 
  114900    287.16373   -1444.0869    479.41997    323.58371   -218.98519    39359.762 
  115000    293.08418   -1412.6221    469.84454      372.033   -85.077469    39359.762 
  115100    309.99516   -1467.0978    452.35095    375.92834    89.120057    39359.762 
  115200    291.82476   -1449.7549    472.41836    331.82411     180.9015    39359.762 
  115300    304.84987   -1475.2229    469.82876    362.19866   -106.73696    39359.762 
  115400    300.08865   -1455.2866     458.1279    349.07469    113.91857    39359.762 
  115500    311.05831   -1482.9433    460.51136    373.01268    531.35738    39359.762 
  115600    298.11093    -1463.184    463.17125    337.34843    277.86877    39359.762 
  115700    292.34868   -1444.2225    485.30896    352.59744    353.79757    39359.762 
  115800    288.88362   -1462.8591    449.67917     282.7864   -370.00185    39359.762 
  115900    295.18891   -1450.6528    453.22905    326.82886   -341.94341    39359.762 
  116000    306.45098   -1454.4688    453.03891    373.34565   -409.90068    39359.762 
  116100    298.94388   -1450.1391     479.5259    370.48468   -356.73337    39359.762 
  116200     276.8305   -1440.6453     504.9468    306.19613   -398.16956    39359.762 
  116300     288.2655   -1495.0644    476.27344    274.40243   -251.40623    39359.762 
  116400    301.99191   -1456.3008    480.20607    378.67691   -312.82486    39359.762 
  116500    304.60017   -1467.0305    484.40886    383.85105   -19.515413    39359.762 
  116600    293.99821   -1491.0413    495.77136    323.64109    -283.6159    39359.762 
  116700     293.3063   -1488.6842    461.43475    288.55758   -356.62253    39359.762 
  116800    306.68233   -1476.0003    475.87043    375.68362   -525.68832    39359.762 
  116900    293.29844   -1501.3334    481.77311    296.21146   -381.47459    39359.762 
  117000    294.99774   -1457.8204    486.34749    351.92208   -27.653778    39359.762 
  117100    299.88313   -1489.4808    460.08163    315.91227   -64.952256    39359.762 
  117200    301.18726   -1479.5351    454.98244    326.60929   -45.963529    39359.762 
  117300    300.88336   -1435.7838    477.88173    391.89656    115.30526    39359.762 
  117400    297.32823   -1466.5232    484.04062    351.36725    212.64879    39359.762 
  117500    304.91675   -1451.3825    492.86294    409.37336    735.86116    39359.762 
  117600    292.52728   -1468.5667    462.86381    306.60929     855.4685    39359.762 
  117700    304.64526   -1460.0599    456.49002    363.10507    153.12339    39359.762 
  117800    297.28793   -1482.2697    470.51193    321.91132     190.9867    39359.762 
  117900    293.32606   -1462.1001    492.12645    345.92203     739.2612    39359.762 
  118000    300.75363   -1491.6214    463.29093    320.88611    189.56743    39359.762 
  118100    288.45253   -1440.8961    465.51909    318.65534    14.544077    39359.762 
  118200    294.88954   -1471.0172    465.59331    317.48575   -263.72556    39359.762 
  118300    295.78944   -1468.1732    478.80825     337.5817   -327.25382    39359.762 
  118400    309.20954   -1491.7335    449.65373    345.07106    148.51387    39359.762 
  118500    301.95836   -1462.3123    499.14908    391.45795    295.56591    39359.762 
  118600    304.27031   -1452.4813    483.17294    395.68454   -155.55065    39359.762 
  118700    297.18045   -1483.3567    455.52238    305.35255   -196.46561    39359.762 
  118800    298.81115   -1481.8796    457.44654    316.06936   -686.30547    39359.762 
  118900    304.94462   -1472.8925    486.26806     381.3934   -880.88003    39359.762 
  119000    301.58617   -1478.7458     447.7204     321.9261   -446.66211    39359.762 
  119100    312.27104   -1450.4698    493.48095    443.89622    186.21736    39359.762 
  119200    296.71733   -1466.8268    503.16315    367.44561   -60.151827    39359.762 
  119300    300.77241   -1498.6346     460.7512    311.41747     362.0899    39359.762 
  119400     301.9277   -1489.1389    477.36787    342.71261    145.24062    39359.762 
  119500    292.32966   -1476.8604    452.43901    287.00426   -155.73188    39359.762 
  119600     299.0951   -1447.1124    489.47931    384.14318    21.543901    39359.762 
  119700    293.67658   -1471.3714    459.13121    305.22796   -49.318836    39359.762 
  119800    304.75106   -1489.9542    490.31881    367.51412    255.03397    39359.762 
  119900    298.32163   -1473.5649    477.08736    341.82887   -304.81661    39359.762 
  120000    305.02704   -1474.6009    457.00811    350.79487   -47.720435    39359.762 
  120100    293.39636   -1439.4126    448.36392    325.16236   -315.82928    39359.762 
  120200    300.11983   -1477.1685     476.2262    345.43106    -332.2956    39359.762 
  120300    297.05694   -1476.2562    454.56363    310.94027   -141.76808    39359.762 
  120400      301.095   -1485.4765    453.49305    318.76459    -254.6107    39359.762 
  120500    294.28245    -1516.233    465.91921    269.87232   -633.41512    39359.762 
  120600    298.02802   -1450.8456    472.49104    358.63465   -454.67104    39359.762 
  120700    297.94103    -1438.048    466.87693    365.42793   -154.40804    39359.762 
  120800    302.31529   -1456.6431    479.33745    378.91675    842.07211    39359.762 
  120900    303.06683   -1425.7554    475.37352    409.21202    632.67169    39359.762 
  121000     299.2858   -1420.3012     487.6746    410.00511    147.46116    39359.762 
  121100     315.0224   -1431.5902    489.68044    471.31828    491.69406    39359.762 
  121200    299.69271   -1491.1494    454.42829    307.73611    158.66167    39359.762 
  121300    300.57056   -1490.4559    451.92512    309.86457   -211.13442    39359.762 
  121400    301.40661    -1499.999    459.86468    312.01169   -391.07485    39359.762 
  121500    304.74181   -1457.7348    448.36406    357.73731    -54.01453    39359.762 
  121600    305.63507    -1488.886    470.47974    352.70902   -58.604492    39359.762 
  121700    295.29859   -1468.5449     430.2663    286.46608   -15.952877    39359.762 
  121800    301.41525   -1486.2095    476.14884      342.124    257.51909    39359.762 
  121900    298.37555   -1463.5865    450.70572    325.66751    183.42828    39359.762 
  122000     307.5866   -1487.4968    453.43391    345.80727    149.47815    39359.762 
  122100    296.36786   -1455.6017    480.40809    354.34795    -254.0262    39359.762 
  122200    303.28794   -1489.7259    452.19651    323.05646    276.64009    39359.762 
  122300    291.30668   -1470.4516    452.85318    289.23803   -153.98927    39359.762 
  122400    291.38189   -1526.9127    460.85527    241.11645    -618.9586    39359.762 
  122500    286.40165   -1482.6942    447.68808    249.82577    -41.07162    39359.762 
  122600    289.49796    -1465.749    468.22355     301.1969    345.60557    39359.762 
  122700    307.85866   -1500.0269    423.67219    304.73593   -289.32048    39359.762 
  122800    306.74053   -1488.3191      462.253    350.00847   -427.67898    39359.762 
  122900    297.95693   -1509.0449    474.44902    302.07443    73.748511    39359.762 
  123000    302.28901   -1520.9119    450.94745    286.14009    338.45089    39359.762 
  123100    295.48328   -1524.2226    476.00545      277.356    72.628347    39359.762 
  123200    294.81701   -1546.8079    417.95388    193.73026    119.88041    39359.762 
  123300    295.37744   -1490.0062    470.77869    305.87083   -347.48384    39359.762 
  123400    303.98767   -1474.0694    463.31341    352.96888     4.749764    39359.762 
  123500    297.00417   -1468.2672    437.98921    302.11812    219.19333    39359.762 
  123600    298.64561   -1443.8565    448.62619    344.52949   -182.68739    39359.762 
  123700    308.92286   -1487.7955    442.12437    340.19366   -155.84391    39359.762 
  123800    308.45498   -1504.7204    436.52152    315.56688   -33.834182    39359.762 
  123900    290.57619   -1465.4957    449.01343    287.07713   -71.331508    39359.762 
  124000    300.13392   -1481.3363    458.82182    323.92199    259.27269    39359.762 
  124100    288.88925   -1490.0398    467.62984     273.5816    50.280291    39359.762 
  124200    305.20398   -1473.7293    446.47416     341.9263    331.95641    39359.762 
  124300    291.39531    -1464.051    469.78361    312.96663    698.94152    39359.762 
  124400    302.63059   -1442.5791    435.96596    351.02375    780.23849    39359.762 
  124500    293.24996   -1438.6907    462.37716    339.24068   -4.4798602    39359.762 
  124600    297.09393   -1430.3331    433.70768    336.17331   -35.173089    39359.762 
  124700    301.95183   -1390.9387    480.34018    443.99332   -10.691227    39359.762 
  124800     294.2495   -1434.9711     469.0514    354.11865   -40.243995    39359.762 
  124900    307.15262   -1450.7746    507.47652    434.62518    90.520732    39359.762 
  125000    296.39908   -1491.5198    455.67243     293.8342    452.11532    39359.762 
  125100    293.47019   -1462.1354    468.14569    322.55254    890.95867    39359.762 
  125200    311.76434   -1464.4979    488.82159    422.93568    707.81675    39359.762 
  125300    299.35335   -1441.1027    444.70236    346.53444    714.58085    39359.762 
  125400    313.23953   -1484.2525    455.05803     376.0354    218.56171    39359.762 
  125500     303.6919    -1435.207    460.09763    387.28871   -160.48989    39359.762 
  125600    307.52637   -1484.0895    465.24623    360.75668   -125.06488    39359.762 
  125700    301.24492   -1463.9794    450.77162    338.21275     120.0529    39359.762 
  125800     300.3778   -1448.7048    490.99679    389.82256   -457.51747    39359.762 
  125900    291.48208   -1449.7691    457.57196    315.42621   -235.05004    39359.762 
  126000    301.17782   -1452.7199    479.05332    377.45301   -397.50619    39359.762 
  126100    304.70847   -1458.4913    465.64748    374.11466   -237.81685    39359.762 
  126200    301.13265   -1464.3124    458.04308    344.64765   -311.27803    39359.762 
  126300    303.30545    -1458.481    488.27323    390.45668   -472.10715    39359.762 
  126400    299.45767   -1428.9554    444.43987    358.88723   -77.029697    39359.762 
  126500    301.76422    -1448.176    473.06048    378.63475   -955.01348    39359.762 
  126600    288.57077   -1479.0425    459.13533    274.65569   -128.28069    39359.762 
  126700    309.58986   -1478.9462    456.96645    366.87718   -727.21671    39359.762 
  126800     283.8239   -1487.5778    463.49769    249.18774   -389.94564    39359.762 
  126900    303.18714   -1481.4906    471.78059    350.42365   -161.11056    39359.762 
  127000     304.2856   -1497.2969    447.27633    315.04083   -166.73156    39359.762 
  127100    299.11041    -1498.236    455.10079     298.7097   -84.924486    39359.762 
  127200    303.28016   -1545.7465    445.43601    260.24043   -271.88781    39359.762 
  127300    300.00208   -1552.8996    464.73152    257.67701     400.2441    39359.762 
  127400    300.74283   -1464.3618    446.55156    331.35795    344.82031    39359.762 
  127500    289.92512   -1445.1282    489.70145    345.21188     378.1381    39359.762 
  127600    289.26419   -1488.1821    459.69077    269.18231     544.9357    39359.762 
  127700    299.80196   -1482.4176    452.98367    315.51334    295.47286    39359.762 
  127800    309.41193   -1487.0147    470.50681    371.55094    117.68681    39359.762 
  127900     294.3973   -1499.5108    465.51024    286.70079   -436.30984    39359.762 
  128000    304.04611   -1468.1208    459.99799    355.86423   -163.80137    39359.762 
  128100    294.05565   -1410.1739    448.93295    357.92774   -422.03942    39359.762 
  128200    295.43122   -1433.4992    485.16984    377.01022   -256.17531    39359.762 
  128300    303.96226   -1445.2163     485.0768    403.47141   -179.63338    39359.762 
  128400    294.51181   -1447.3168    501.57174    375.47002   -38.956479    39359.762 
  128500    307.56226   -1480.0673    427.75766    327.45126   -352.02701    39359.762 
  128600    300.06023   -1492.4347    475.98647    329.65772   -85.933627    39359.762 
  128700    304.72211   -1485.5268    466.13499    347.62789    -405.5783    39359.762 
  128800     309.0492   -1507.0609    442.79046    322.16105   -347.54551    39359.762 
  128900    294.35758   -1444.9304    437.54272    313.13548    211.63267    39359.762 
  129000    304.08107   -1450.8265    485.99317    399.31061    584.63958    39359.762 
  129100    303.23876   -1493.9872    465.04791    331.42596    697.04449    39359.762 
  129200    296.82477   -1516.4849    450.35565    265.46202    273.41135    39359.762 
  129300    305.33434   -1513.4708    458.29539     314.5908     293.0895    39359.762 
  129400    303.47772   -1470.3676    457.70578    348.77538    165.14904    39359.762 
  129500    299.39612   -1469.1298     434.5047     308.5016   -268.29428    39359.762 
  129600    298.87217   -1453.8715    479.93088    366.83552    -116.9068    39359.762 
  129700    301.30078   -1504.9708    462.22941    308.92976   -210.91377    39359.762 
  129800    299.93859   -1476.1034    449.97448    319.43137    453.95504    39359.762 
  129900    295.05843   -1447.1609    472.96611    349.47247   -94.381107    39359.762 
  130000    285.54295   -1468.8841    468.59695    280.69256   -197.58388    39359.762 
  130100    297.54371   -1488.4459    466.84965    313.22024    137.68433    39359.762 
  130200    305.94439    -1523.365    427.47652    276.61447    215.34177    39359.762 
  130300    298.13821   -1479.1042    451.24617     309.6255    980.97552    39359.762 
  130400    299.57206   -1439.8892    447.84722    351.87393    472.44114    39359.762 
  130500    287.01088   -1474.6803    460.53544     273.4201    751.69941    39359.762 
  130600    293.89277   -1480.0505     441.7991    280.18665    766.49047    39359.762 
  130700    296.85516    -1508.341    467.07996    290.46658    1230.0221    39359.762 
  130800    298.80146   -1486.6981     450.4379    304.19872    1700.9019    39359.762 
  130900    307.89018    -1474.796     448.8393    355.27533    1043.2687    39359.762 
  131000    299.50255   -1500.4573    448.58734    291.73414    469.22894    39359.762 
  131100    299.29852   -1444.7964     464.6748    362.56724   -77.148145    39359.762 
  131200     301.0003   -1477.2442    431.84181    304.92084    189.16885    39359.762 
  131300    305.35433   -1457.0736    445.37035    358.15263    191.81909    39359.762 
  131400    315.37802   -1488.8168     435.4825    361.48912     620.6826    39359.762 
  131500    302.08094   -1497.8991    474.01344    331.28543    520.22053    39359.762 
  131600    311.40994   -1488.2449    454.99755     363.7747    820.52908    39359.762 
  131700    293.77838   -1497.1451    470.68589    291.46561     58.84921    39359.762 
  131800    289.51842   -1460.2821    439.37323    277.90523     232.9024    39359.762 
  131900    294.89621   -1513.0257     437.8064     247.7202    118.23787    39359.762 
  132000    295.98878   -1450.5429    447.09331    324.39134    237.01251    39359.762 
  132100    301.64191    -1441.563    479.64557    391.28408    651.06896    39359.762 
  132200    303.37726   -1445.1982    457.70355    373.49186    566.58047    39359.762 
  132300    324.27109   -1417.0483    462.06049    499.73088    360.39397    39359.762 
  132400    294.13105   -1448.0519    446.98597    318.44101    270.15364    39359.762 
  132500    316.90846   -1450.8826     470.4539    441.26039    188.39539    39359.762 
  132600      298.506   -1450.4357    485.99121    374.68899   -43.389496    39359.762 
  132700    299.19442   -1440.6296    442.69872    344.29088   -571.98169    39359.762 
  132800    301.95255   -1435.5764    464.88204    383.90071   -386.43927    39359.762 
  132900    297.35177   -1465.8559    432.95172    301.05125    134.16908    39359.762 
  133000    306.29126   -1479.4594    461.97577    356.57547    89.721992    39359.762 
  133100     300.1023    -1477.122    439.94255    309.11521   -268.95819    39359.762 
  133200    304.62167   -1474.4508    447.21884    339.33719     504.8471    39359.762 
  133300    300.87862   -1472.9666    453.36298    330.17374    53.960955    39359.762 
  133400    309.78934    -1474.642    453.68984    368.79967    257.49577    39359.762 
  133500    302.03225   -1453.5609    453.42047    354.81218     442.2192    39359.762 
  133600    301.67151   -1451.6079     501.4248    403.15127   -341.59532    39359.762 
  133700    305.60179   -1451.8888    458.63403    377.71127   -196.47053    39359.762 
  133800    297.66732   -1465.1452    460.01414    330.24001    138.48863    39359.762 
  133900    308.16367   -1459.6803    463.57475    386.35338    25.535291    39359.762 
  134000     295.2329   -1481.9431    459.78611    302.29298    68.473611    39359.762 
  134100    309.60882   -1456.3189    451.61989    384.24302    677.01833    39359.762 
  134200    303.90813   -1452.2617    467.31804    378.42446    441.28118    39359.762 
  134300      297.755   -1469.6346    432.98924    299.11908    207.80552    39359.762 
  134400    295.76932   -1448.6606    469.76413    347.95992    357.41626    39359.762 
  134500    294.71504   -1460.9695    457.90846    319.06575   -83.049557    39359.762 
  134600    309.19763   -1438.1867    441.52685    390.43753    43.839943    39359.762 
  134700    303.94865   -1421.1927    467.43934    409.79643    176.47389    39359.762 
  134800    302.89116   -1403.1519    475.51074    431.16469   -79.159062    39359.762 
  134900    304.93436   -1396.8761    468.60941     439.7052    298.24589    39359.762 
  135000    305.73532   -1461.8706    485.31238    395.00688   -119.58081    39359.762 
  135100    294.81421   -1466.1401    482.37113    338.80264    765.27669    39359.762 
  135200    295.20812    -1450.697    480.79211    354.43384   -667.07768    39359.762 
  135300    294.48696    -1464.345    451.44842    308.20694   -55.254961    39359.762 
  135400    303.99627   -1463.3729    469.16314    369.55373    264.21176    39359.762 
  135500    297.14888    -1446.092    461.76016    348.71339    210.75511    39359.762 
  135600    305.43749   -1473.7979    455.24196    351.67304    286.35687    39359.762 
  135700    295.15429   -1477.0057    474.92176    322.01338    415.28388    39359.762 
  135800    299.15019    -1469.751    456.18081    328.45322    314.23607    39359.762 
  135900    303.11171   -1462.6806    438.68514    335.79981   -141.61049    39359.762 
  136000    306.51436   -1466.0053    457.15961    366.21421    140.75598    39359.762 
  136100    293.89663   -1498.7335    462.70997    282.43178    101.05098    39359.762 
  136200    292.05849    -1471.391    450.35536    289.17358    244.36327    39359.762 
  136300    291.40194   -1466.8711    458.88168     299.2744    675.03751    39359.762 
  136400    301.09319   -1469.7786    467.59182    348.55316   -118.75674    39359.762 
  136500    303.07659    -1487.771    462.64959    334.51631    184.44857    39359.762 
  136600    299.08756    -1466.422    460.36219    335.68266    731.42705    39359.762 
  136700    308.51673   -1469.1955    457.08809    371.93534    522.13541    39359.762 
  136800    299.18728   -1506.0898     463.8628    299.96282    536.38844    39359.762 
  136900    314.90453   -1489.5516    468.85512    392.00269    736.80333    39359.762 
  137000    300.01081   -1483.4899    467.71186    330.10625    151.10331    39359.762 
  137100    297.08269   -1485.3327    481.13422    328.54984    308.89943    39359.762 
  137200    302.27482   -1474.5084    460.70245    342.23493   -118.77677    39359.762 
  137300    300.31915   -1498.4459    455.44788     304.2695   -375.15517    39359.762 
  137400    303.76264    -1506.452    484.88541    341.14874    242.45486    39359.762 
  137500    297.83957   -1476.0088     453.7109    313.84588    204.55386    39359.762 
  137600    300.52912   -1532.9595      459.564     274.8139    223.63034    39359.762 
  137700    303.62518   -1504.4981    449.88145    307.48209   -288.64036    39359.762 
  137800    291.12773   -1486.1483    469.36074    289.24615   -445.41284    39359.762 
  137900     294.3253   -1476.7039    483.50026    327.17467   -335.35548    39359.762 
  138000    302.24617   -1465.5472    434.98437    325.34955    96.140655    39359.762 
  138100    304.48645    -1502.713    497.68453    360.93399   -300.62363    39359.762 
  138200    301.51387   -1494.3211    482.19186    340.49794    827.80997    39359.762 
  138300    306.89137   -1491.8865    457.93801    342.80276    441.20312    39359.762 
  138400    300.45357   -1417.1818    483.50169    414.19043    230.71745    39359.762 
  138500    298.83942   -1461.0788    451.99727    331.54773    427.84422    39359.762 
  138600    296.87221   -1478.5868     423.8801    277.09744    530.98725    39359.762 
  138700    298.82884    -1494.778    485.38758    331.19135    349.91987    39359.762 
  138800    295.77074   -1447.4336    459.49298    338.92216    261.21315    39359.762 
  138900    300.18526   -1449.8276    503.55972    400.39895     381.6393    39359.762 
  139000    301.97205   -1466.1311    441.60905    330.16058   -135.25056    39359.762 
  139100    301.02333   -1444.7592    460.47708    366.14441    434.69013    39359.762 
  139200    297.79085   -1484.2765    442.35837    294.00706    878.83513    39359.762 
  139300     303.5022    -1449.237    463.12986    375.43989    172.85858    39359.762 
  139400    293.21777    -1421.408    481.43028    375.43214    10.304214    39359.762 
  139500    304.56069   -1439.9522     447.7379    374.08125   -373.06718    39359.762 
  139600     292.4058   -1418.1326     479.0199    372.65456   -244.28153    39359.762 
  139700     294.2348   -1444.5957    467.01361     342.3903    144.24912    39359.762 
  139800    292.30794   -1425.6645    485.96339    371.62715    197.37501    39359.762 
  139900    305.93986   -1425.6469    472.96379    419.79958    243.34626    39359.762 
  140000    293.61568   -1449.9384    481.41146    348.66795   -309.35222    39359.762 
  140100    293.92746   -1432.9436    455.12354    340.77354    366.91911    39359.762 
  140200    303.39392   -1409.6809    483.77172    435.15207    367.11216    39359.762 
  140300    306.34794   -1432.1205    458.98316    401.17597    769.90208    39359.762 
  140400    304.96572   -1459.1691    471.65574    380.59918    187.88973    39359.762 
  140500    300.18563    -1466.446    454.33981    334.56234   -33.845479    39359.762 
  140600    294.77648   -1496.4235    456.37228    282.35116     547.0899    39359.762 
  140700    299.02319   -1492.2655    425.84927     275.0374    550.80417    39359.762 
  140800    310.37373   -1485.9604     419.8016    326.21473   -185.23271    39359.762 
  140900    298.31898   -1443.5759    482.93785    377.65642    308.66389    39359.762 
  141000    297.90416   -1486.9571    439.63939     289.1158   -179.63242    39359.762 
  141100    289.83914   -1451.4023     459.4314    308.28197    9.7095424    39359.762 
  141200    291.60229   -1473.2078    466.74164    301.69647    99.710108    39359.762 
  141300    300.71126   -1482.6959    467.13522    333.46582    956.06668    39359.762 
  141400    309.26382   -1480.2242    456.83131    364.00145    940.24132    39359.762 
  141500    302.61193   -1470.1742    466.79495    354.17396       653.15    39359.762 
  141600     304.6815   -1481.2735    463.47039    349.03436    40.339007    39359.762 
  141700    297.69509   -1483.4601    464.39732    316.43283    234.78356    39359.762 
  141800    297.40889   -1530.3664    446.16899    250.01429    231.26832    39359.762 
  141900    303.30362   -1543.9151    450.74441    267.48555   -195.07893    39359.762 
  142000    294.25939   -1533.7766    453.46604    239.77214    277.94323    39359.762 
  142100    306.27155   -1510.4063     455.5558    319.12017   -5.5404138    39359.762 
  142200    284.46564   -1536.9345    454.78766    193.99992    -235.3271    39359.762 
  142300    293.56133   -1481.0612    483.58226    319.47214   -53.315887    39359.762 
  142400    295.06654   -1466.4618    466.21574    323.45757    106.10193    39359.762 
  142500    299.28302   -1492.8382    467.40193    317.18299    399.75385    39359.762 
  142600    297.87902   -1444.3933    459.00788    350.93535    455.21967    39359.762 
  142700    300.78119    -1469.362    470.04014    350.01838    295.53333    39359.762 
  142800    309.21997    -1448.897    521.15551    459.45613    39.402842    39359.762 
  142900    298.01746   -1458.8296     448.7406    326.85281   -370.18753    39359.762 
  143000    316.77101   -1465.0385    472.17267    428.20664    399.02318    39359.762 
  143100    294.25299   -1429.3583    485.51473    376.21037   -707.54061    39359.762 
  143200    301.39616   -1488.1744    462.33999    326.26465   -198.93914    39359.762 
  143300    301.20571   -1432.8009    471.05814    389.50193    259.82752    39359.762 
  143400     296.6717   -1403.6229    490.81607    418.09781    61.055143    39359.762 
  143500    295.52785   -1451.2451    468.68655    343.21456    324.14378    39359.762 
  143600    297.85107   -1448.2427    455.44863    343.40127    1044.9709    39359.762 
  143700    291.24746   -1474.1794    488.65071    321.04212    511.30276    39359.762 
  143800    289.22366   -1479.5503     478.1839    296.12541    834.69672    39359.762 
  143900     305.6582   -1468.8631    489.11389    391.46984     413.0469    39359.762 
  144000    300.14994   -1437.5821    464.33195    373.25824    328.44963    39359.762 
  144100    293.08008   -1431.0623    464.27848    348.00832   -350.59274    39359.762 
  144200     303.8899   -1412.7278    482.65593    433.21441    -295.9617    39359.762 
  144300       298.39   -1472.6581    462.03625    327.99125   -212.95195    39359.762 
  144400    297.02576   -1412.7102    503.91958    423.70237   -310.40008    39359.762 
  144500     291.4819   -1484.0869    453.43951     276.9751   -310.76844    39359.762 
  144600    303.98686   -1467.4559    475.58055    371.84589   -597.99514    39359.762 
  144700    305.90211   -1485.6365    459.97165    346.64842   -450.69828    39359.762 
  144800    303.93625   -1514.0845    444.12641    293.53607   -312.48786    39359.762 
  144900    290.72529   -1465.7429    459.68602    298.17142   -183.47125    39359.762 
  145000    302.10273   -1478.7288    443.08234    319.62236   -18.561869    39359.762 
  145100      298.787   -1537.4361    438.53421    241.49215    -375.2853    39359.762 
  145200    293.42719   -1488.8544    458.30206    285.79701   -12.662729    39359.762 
  145300    305.54518   -1476.5985    450.88452    344.99812   -101.34922    39359.762 
  145400    297.85866    -1490.975    440.44159    285.69609   -188.60008    39359.762 
  145500    301.84209   -1490.7223    451.80368    315.18101   -456.80539    39359.762 
  145600    302.05382   -1534.0789    459.70223    280.67278     -512.757    39359.762 
  145700    295.22501   -1511.3218    449.00127    262.09403   -105.62747    39359.762 
  145800    305.37077   -1481.3602    457.89462    346.46404   -348.86516    39359.762 
  145900    289.50049   -1438.5995    481.14812    341.28231   -265.12171    39359.762 
  146000    301.99853   -1430.7478    466.29718    390.35076    209.13105    39359.762 
  146100    303.59063   -1454.9248    447.02261    354.04158   -30.743092    39359.762 
  146200    303.72174   -1478.3843    458.57641    342.72395    102.77326    39359.762 
  146300    311.34683   -1425.6615    478.43655    449.51404   -25.723005    39359.762 
  146400    301.22612   -1448.0224    460.65573    363.96955   -26.771573    39359.762 
  146500    300.66004   -1408.4103    440.87068    381.25716   -168.06418    39359.762 
  146600    305.11765   -1388.6668    465.66517    445.79248    184.66481    39359.762 
  146700    294.34143   -1443.6408    484.27803    361.08799   -122.24896    39359.762 
  146800    305.15414   -1434.8824    465.87144     399.9469   -184.00333    39359.762 
  146900    289.57744   -1455.5458    489.25645    332.78956    -399.6321    39359.762 
  147000    305.15007   -1440.5886    456.84878     385.1997    363.11361    39359.762 
  147100    298.53728   -1458.9072    453.20369    333.57026   -50.788512    39359.762 
  147200    312.19037   -1438.2331    454.16919    416.45933    208.52115    39359.762 
  147300    303.41013   -1408.3244    463.36998    416.17958    213.61188    39359.762 
  147400    298.21683   -1405.9613    470.79677    402.67171    169.68806    39359.762 
  147500    302.22279   -1385.4554    472.46067    442.81269    177.44223    39359.762 
  147600    295.86172   -1415.8609    471.67376    383.08376   -24.207715    39359.762 
  147700    314.60006   -1408.5948    443.74797    446.48652    249.69346    39359.762 
  147800    294.16692   -1437.3567    476.05757    358.36869    54.800066    39359.762 
  147900    309.60636   -1457.6009    455.53346    386.86357   -225.42781    39359.762 
  148000     302.3449   -1467.8209    461.57295    350.10731    319.67032    39359.762 
  148100    298.75351   -1489.4599    465.44004    316.22392    11.398187    39359.762 
  148200    299.24735   -1454.7601    425.99473    313.69386   -12.030976    39359.762 
  148300    297.38857   -1440.2423    504.41512    398.29335    30.007266    39359.762 
  148400    311.14346   -1437.7929    459.69112    417.72487    307.05518    39359.762 
  148500    297.55644   -1463.7869    454.51737    325.60412   -6.2794637    39359.762 
  148600    311.63599   -1419.5587    458.50706    436.98451   -265.59915    39359.762 
  148700    306.11712   -1423.6319    468.96938    418.61535   -402.45668    39359.762 
  148800    301.59729   -1444.3476    440.89933    349.55312    4.2615789    39359.762 
  148900     299.0118   -1476.2077    437.66513    302.86004    86.562829    39359.762 
  149000    288.56262   -1475.1525    455.56091    274.93466   -693.21782    39359.762 
  149100    304.55359   -1430.9661    454.99626    390.29382   -22.892604    39359.762 
  149200    307.59266   -1456.1916    473.61562    397.32136    156.97127    39359.762 
  149300    293.41289   -1446.8097    469.28827    338.76377   -381.99917    39359.762 
  149400     289.5113   -1406.7685    464.97281    356.98649   -393.88551    39359.762 
  149500    292.84292   -1416.6958    465.32241    362.35481   -162.03593    39359.762 
  149600    295.11367   -1438.4573    461.49776    346.95555    244.41177    39359.762 
  149700    295.39833   -1405.7671    469.30844    388.73345   -451.05241    39359.762 
  149800    307.00962   -1391.4862    496.07884    481.87431    319.99274    39359.762 
  149900    296.98618   -1388.6802    476.72538    420.36058   -116.45766    39359.762 
  150000    301.76404   -1401.4201    452.66378    404.99312    114.82893    39359.762 
  150100    294.32871   -1405.2097    470.41361     385.5976    220.85366    39359.762 
  150200    305.47765   -1424.0005    456.08066    402.48928   -22.958043    39359.762 
  150300    300.64098   -1400.1194    466.67879    415.27065    423.81361    39359.762 
  150400    296.93345   -1454.8828    474.61317    351.80922    44.764435    39359.762 
  150500    302.56278   -1448.6969     460.8153    369.45103   -30.106609    39359.762 
  150600    302.75681    -1449.708    438.36258    346.85775   -737.70776    39359.762 
  150700    291.46735    -1436.894    459.12587    329.78914   -698.94831    39359.762 
  150800    308.13647   -1472.6267    453.92613    363.63629   -291.39195    39359.762 
  150900    296.32223   -1452.5725    461.31594    338.08027   -155.12433    39359.762 
  151000     304.0354   -1421.6861    478.70305    420.95598    -134.9231    39359.762 
  151100    302.84203   -1441.9722     453.1234    369.73663   -103.72204    39359.762 
  151200      300.866   -1427.8496    457.34277    379.21393    8.9860332    39359.762 
  151300     298.2058   -1433.1383     463.5264    368.17484    306.71929    39359.762 
  151400    294.66522   -1411.3735    469.36993    379.89967    232.55766    39359.762 
  151500     295.5497   -1438.7493    481.65441    368.77624   -446.63757    39359.762 
  151600     297.2704   -1460.6356    441.37606    314.33083    300.55488    39359.762 
  151700    298.47778   -1500.8394    430.91763    269.08508    342.36912    39359.762 
  151800     306.0744   -1461.3552     470.4235    382.15456   -226.73179    39359.762 
  151900    299.14724   -1482.3819    433.24139    292.86965   -276.61429    39359.762 
  152000    296.13142   -1463.2737    442.75997    307.96715   -176.67826    39359.762 
  152100    293.54234   -1522.6834    464.46932    258.65184    760.73395    39359.762 
  152200    297.62748   -1537.0861    463.93877      262.045    630.06872    39359.762 
  152300    312.11572   -1476.6939    452.15438    375.64877    612.07877    39359.762 
  152400    303.51318   -1522.7575    445.29987    284.13867     237.8663    39359.762 
  152500    309.74853   -1552.0473    438.07005    275.59155    103.44784    39359.762 
  152600    287.35619   -1519.2929     471.0162    240.83739    248.93174    39359.762 
  152700    296.24835   -1497.5941    473.97427    305.38555     338.7912    39359.762 
  152800    296.09616   -1491.6018    464.22128    300.94206    232.11621    39359.762 
  152900    308.34556   -1514.0971    441.18507     310.3629   -80.699462    39359.762 
  153000    296.80011   -1473.5239    459.41404    317.37083    246.82156    39359.762 
  153100    297.18017   -1497.1608    456.79747     292.8223    320.02276    39359.762 
  153200    300.63525   -1480.4211    451.14571    319.41015    322.97876    39359.762 
  153300    302.10564   -1507.9932    441.16391    288.45255    250.10579    39359.762 
  153400    303.15289   -1482.8438    482.09363    359.22982     282.6748    39359.762 
  153500    297.95089   -1516.5653    455.18027    275.25815    491.80312    39359.762 
  153600    294.60086   -1509.2251     453.3496    265.73906    317.33249    39359.762 
  153700      295.577   -1481.7313    472.58814    316.85045    379.57722    39359.762 
  153800    298.22734   -1516.4577    448.20901    269.63467   -72.440901    39359.762 
  153900     288.8073   -1531.2913    470.87948    235.21212   -361.05612    39359.762 
  154000      295.387   -1508.6413    466.39477    282.89472   -246.80887    39359.762 
  154100    300.06048    -1514.714    455.29235    286.68544   -239.92034    39359.762 
  154200        314.8   -1497.6861    450.41719    364.96143    58.687604    39359.762 
  154300    304.29545   -1490.2722    450.69939    325.53283    351.92739    39359.762 
  154400    308.51351   -1490.6704    480.18166    373.53958    549.62763    39359.762 
  154500    292.26478   -1475.1059    478.35848    314.38722    429.32043    39359.762 
  154600    307.86721   -1470.3544    469.12033     379.8949    436.52544    39359.762 
  154700    295.25461   -1482.6147    480.82233      322.755    21.909726    39359.762 
  154800    308.03726    -1458.075    463.22175    387.03857    364.47581    39359.762 
  154900    290.97346   -1459.5189    455.51065    301.33336   -615.32276    39359.762 
  155000    300.67191   -1434.6567    477.08683    391.28017   -108.50518    39359.762 
  155100    298.94036   -1467.7528    483.83975    357.16905   -71.373337    39359.762 
  155200    299.40588   -1452.1202    441.96241    333.01262   -76.237282    39359.762 
  155300    304.75893   -1456.7971    467.84379    378.23152   -253.47977    39359.762 
  155400    305.89942   -1465.1307    499.64359    406.81408   -270.32242    39359.762 
  155500    291.76013   -1445.4421    476.06945    339.49808   -11.963479    39359.762 
  155600    291.95559     -1423.67    475.91375    361.99129    122.39729    39359.762 
  155700      302.904   -1445.7165     449.2091    362.35607    107.53818    39359.762 
  155800    293.82652   -1466.6172    482.61389    334.13741   -373.96462    39359.762 
  155900    307.53428   -1442.1716     455.2709    392.73471   -26.340521    39359.762 
  156000    311.25189   -1473.5996    480.26178    402.97518   -396.59684    39359.762 
  156100    303.92056   -1505.3445    483.05046    341.12978   -152.20828    39359.762 
  156200    292.25016   -1490.8853    467.84612    288.02987    -468.1705    39359.762 
  156300    305.07297   -1477.5475    442.99372    334.03985   -251.42488    39359.762 
  156400    290.24242   -1470.3104    460.24526    291.99695   -671.90213    39359.762 
  156500    291.98283   -1471.9143    483.84941    321.80487   -113.23381    39359.762 
  156600    304.20229   -1456.1908    482.91711    391.41398    500.82044    39359.762 
  156700    303.98588    -1438.111    453.15646    378.76235    44.433968    39359.762 
  156800    304.77825   -1476.5119     462.2495    353.00912   -327.45351    39359.762 
  156900    302.91181   -1468.2338    461.67684    352.34152   -414.79844    39359.762 
  157000    302.91677   -1492.6227    471.77544    338.07345    46.732396    39359.762 
  157100    319.94454   -1460.2742    439.89042    414.92549   -121.88062    39359.762 
  157200    310.79324   -1483.2319    464.87119    375.89481   -279.31768    39359.762 
  157300    299.30407    -1436.292    483.77538    390.19708   -288.24575    39359.762 
  157400    292.99303   -1463.0089    474.07433    325.46706   -398.99044    39359.762 
  157500     297.4639    -1461.029    434.29843    307.72792   -488.42523    39359.762 
  157600    296.10602   -1436.0852    461.69533    353.97698   -70.745291    39359.762 
  157700    295.72137   -1487.2152    472.13473    311.56089    175.45847    39359.762 
  157800    304.05375   -1443.9223    450.89782    370.99688    25.552919    39359.762 
  157900    287.60844   -1458.5242     481.7595    313.48103      -789.09    39359.762 
  158000      298.449   -1474.4521    445.02412    309.44981   -729.06092    39359.762 
  158100    301.04052    -1468.429    438.15014    320.22473   -564.82556    39359.762 
  158200    301.39497   -1478.1397    445.13989    319.09391   -334.70344    39359.762 
  158300    298.17711      -1451.5    466.15931    352.31738    404.67193    39359.762 
  158400    301.35005   -1490.9122    479.77138    340.75143   -46.030566    39359.762 
  158500    301.67664   -1496.1789    496.20797    353.38641    372.33697    39359.762 
  158600    305.91782   -1509.4125    464.05139    327.02271     545.4879    39359.762 
  158700    307.37417    -1514.769    448.86543    313.01354    13.285682    39359.762 
  158800    297.90952   -1451.8377    471.20447    355.82433    588.40794    39359.762 
  158900     308.4582    -1483.147    454.34404    354.97731    508.52569    39359.762 
  159000    299.79942   -1484.0904    467.47645    328.32198    250.38049    39359.762 
  159100    297.65135   -1513.8035    458.59369    280.08958    426.22406    39359.762 
  159200    293.73972   -1475.8156    462.94367    304.87944    505.01096    39359.762 
  159300    309.58882   -1489.4508     454.3233    353.72482   -71.052394    39359.762 
  159400    297.64361   -1437.9405    480.63813    377.96229    -365.7741    39359.762 
  159500    304.32824   -1443.1706    448.26134    370.34346   -242.83414    39359.762 
  159600    300.35104   -1482.3698    445.33631    310.37703   -465.57091    39359.762 
  159700    299.53068   -1468.8054    474.21078    349.13572   -1044.9855    39359.762 
  159800    297.26212   -1466.7642    442.94401    309.73312   -656.66178    39359.762 
  159900    304.60261   -1456.0323    491.49058     401.9419   -255.43815    39359.762 
  160000    290.94957   -1449.6633    460.40699    315.97811   -280.30212    39359.762 
  160100     292.6131   -1474.6526    483.60892    321.65359   -113.16465    39359.762 
  160200    307.22142    -1490.372    453.47691    341.33685   -202.02559    39359.762 
  160300    290.21514   -1469.6993    455.14603    287.38645    198.14299    39359.762 
  160400    303.14975   -1511.1582    448.96148    297.76922    201.21185    39359.762 
  160500    301.15432   -1510.7839    454.01547    294.24571    304.78757    39359.762 
  160600    304.72501   -1487.9482    453.11277    332.19725    172.04481    39359.762 
  160700    297.70579   -1484.1404    477.38151    328.78473    102.71623    39359.762 
  160800    294.55273   -1499.1861    441.98123    264.19374    365.02147    39359.762 
  160900    296.41186   -1474.5508    460.71795    315.90609    92.617337    39359.762 
  161000    304.66225   -1474.5756    452.99317    345.16874   -48.784333    39359.762 
  161100    300.91958   -1488.0579     445.3634    307.26659    117.63754    39359.762 
  161200    307.20055   -1506.5124    460.80476    332.43061   -202.00546    39359.762 
  161300    300.57897   -1461.9437    433.99158    320.48098   -629.57994    39359.762 
  161400    290.75521   -1449.1702    454.53839    309.73071   -278.40345    39359.762 
  161500    296.79498   -1452.9251    451.07942    329.61194   -279.07048    39359.762 
  161600    301.23203   -1442.6313    485.19972    393.93119   -337.73886    39359.762 
  161700    301.76651   -1474.6224    437.66159    316.79972   -400.13755    39359.762 
  161800    307.92289   -1458.5138    470.53706    393.40199   -433.78478    39359.762 
  161900    297.51432   -1443.1483    470.16514    361.70152   -445.14413    39359.762 
  162000    295.82742   -1473.1803    463.80873     317.7455    -237.3692    39359.762 
  162100    312.25407   -1477.5886    484.09341    407.31371   -257.05534    39359.762 
  162200     286.6907   -1468.9675    467.91757    285.07868   -269.66557    39359.762 
  162300    294.51522   -1430.1613    470.51341    361.58248    57.460569    39359.762 
  162400    304.16428   -1453.4239    499.13242    410.22574     6.688495    39359.762 
  162500    287.76521   -1435.0088    471.20782    327.14802    12.825811    39359.762 
  162600    301.24114   -1441.8876    455.35823    364.87426    298.36223    39359.762 
  162700    306.93287   -1474.5896    493.70621    396.05401    473.17071    39359.762 
  162800    294.24187   -1474.2004    446.66363    292.46731     101.2434    39359.762 
  162900    309.14211   -1459.1535    465.29723    392.99205    346.01547    39359.762 
  163000    304.04481   -1440.0979      487.215    411.09837    137.34239    39359.762 
  163100     307.9345   -1428.9857    476.36418    428.80932    709.25433    39359.762 
  163200    301.57792    -1452.376    492.31144    392.84994    699.93244    39359.762 
  163300    292.42443   -1446.9303    470.02169    334.94222    569.97843    39359.762 
  163400    313.06449    -1467.284    450.35952    387.52008    63.943171    39359.762 
  163500    294.60336   -1455.0954    483.23981    349.77021   -101.38096    39359.762 
  163600    291.55645   -1444.7508    469.20203    332.40821    112.28985    39359.762 
  163700    293.99853   -1480.6972    468.31031    306.52552   -193.76228    39359.762 
  163800    296.98036   -1497.4376    467.43952     302.2912   -717.65473    39359.762 
  163900    290.44778    -1502.862    459.80292    259.92433   -1014.7832    39359.762 
  164000     300.4423   -1479.6926    455.81256    323.93987   -1112.2755    39359.762 
  164100    294.40829   -1493.1722    445.29059    272.86904   -468.29191    39359.762 
  164200    316.49556   -1476.1347    476.15622    419.85833   -183.00398    39359.762 
  164300    290.40746   -1495.7238    475.37628    282.45493    8.4700966    39359.762 
  164400    301.86712   -1500.3117    445.62167    299.52185   -126.74022    39359.762 
  164500    307.11655   -1480.6371    470.50655    367.63089    612.70925    39359.762 
  164600    306.03116   -1454.7637    468.12337     386.2519    184.03018    39359.762 
  164700     294.0191   -1500.6983    499.52018    317.82657   -432.50547    39359.762 
  164800    304.58209   -1475.4511       453.31    344.25045    138.19186    39359.762 
  164900    294.63215   -1444.1879    492.42968    369.99671    -110.3671    39359.762 
  165000    293.72319   -1478.3068    479.82042    319.19084    236.41594    39359.762 
  165100    304.77977   -1477.6757     495.7955    385.39812    992.83724    39359.762 
  165200    302.19106   -1461.6866    475.29916    369.27762    398.55443    39359.762 
  165300    291.74196   -1435.6786    480.99842    354.10897    531.75829    39359.762 
  165400    316.06376   -1464.4796    465.44433    418.86439   -48.931109    39359.762 
  165500    292.11035   -1427.8948    472.60346    355.15053    353.99764    39359.762 
  165600    298.56765   -1456.5749    483.83854    366.67368   -183.84571    39359.762 
  165700    296.88255   -1433.4732    483.88612    382.26343   -136.90563    39359.762 
  165800    310.18131   -1444.4418    481.46126    428.52983    127.10576    39359.762 
  165900    312.62413   -1499.1519    464.38442    367.70158    469.72896    39359.762 
  166000    301.35014   -1482.0997    457.93672    327.72968   -142.01222    39359.762 
  166100    298.02122   -1445.7611    479.02725    370.22482    518.59921    39359.762 
  166200    315.44397   -1460.1885    448.42399     403.3547    617.04505    39359.762 
  166300    297.73767   -1453.8255    475.31246    357.17364    399.12692    39359.762 
  166400    306.62453   -1471.3285    478.39631    382.62197   -10.560743    39359.762 
  166500    302.06602   -1419.7764    474.78429    410.11203    154.10514    39359.762 
  166600    295.32977   -1445.7424    483.08925    362.23135     319.1303    39359.762 
  166700    301.59287   -1439.2292    469.75955    383.51192     -182.823    39359.762 
  166800    308.22956   -1443.0784    476.96719    416.64331    53.815415    39359.762 
  166900    305.30848   -1440.1967    486.92832    416.38183    232.20049    39359.762 
  167000    307.10541   -1456.5965    458.68072    379.79568   -464.58404    39359.762 
  167100    290.26246   -1432.7088     477.9137    347.35693   -354.91075    39359.762 
  167200    298.98617   -1422.9369    477.50927    395.85996   -601.71363    39359.762 
  167300    293.99935   -1437.0934    498.78219    380.60485   -286.71186    39359.762 
  167400    303.90758    -1515.191    466.56569    314.74028   -260.83966    39359.762 
  167500    299.29124   -1473.4785    475.91401    345.09166   -54.129673    39359.762 
  167600    291.57271    -1482.447    464.66669    290.24957    152.51092    39359.762 
  167700    297.36523   -1488.5582    474.33139    319.78902   -253.18801    39359.762 
  167800    303.41254   -1419.1008    456.23427    398.27827    -86.70742    39359.762 
  167900    297.54088   -1437.8785    453.03549    349.96077    606.04137    39359.762 
  168000     302.8896   -1437.1336    495.46533    417.13058   -63.230247    39359.762 
  168100    303.53865   -1431.1352    472.01642    402.59177   -289.73028    39359.762 
  168200    299.35893   -1446.8745    457.74801    353.83332    -223.6651    39359.762 
  168300    301.86283   -1471.5563     466.7913    349.42767    992.80443    39359.762 
  168400    311.43874   -1503.0764    462.70981    356.78468    716.44165    39359.762 
  168500     300.9717   -1495.3755    483.71653    338.53595     775.4298    39359.762 
  168600    307.83403    -1496.956    434.32475    318.34882    176.63671    39359.762 
  168700    296.07271   -1494.3714    468.01142    301.85749    310.67055    39359.762 
  168800    297.24397   -1471.8859    448.77125     310.3572      451.805    39359.762 
  168900    303.80349   -1508.8145    460.52341    314.60752    239.02617    39359.762 
  169000    297.92456   -1459.4626    445.51731    322.57979    331.06225    39359.762 
  169100    298.99754   -1457.8677    483.63133    367.10225   -177.33225    39359.762 
  169200    297.36284   -1456.4636    453.39404    330.93552   -723.86134    39359.762 
  169300    305.80856   -1486.1919    455.54794    341.24969    -99.99822    39359.762 
  169400    295.34546   -1481.6805    479.56196    322.83641    248.51417    39359.762 
  169500    293.16926   -1494.0292    441.33299    262.49598    177.93393    39359.762 
  169600    310.21452   -1440.9018    456.31805    407.07556   -76.457373    39359.762 
  169700    303.72525   -1471.8936    447.36397    338.01797    138.00852    39359.762 
  169800    295.33533   -1438.1945    475.15164    361.86665    63.074006    39359.762 
  169900    296.46317   -1464.2844    464.24349    329.92818   -219.45256    39359.762 
  170000    307.97499   -1408.3565    488.31647    461.57248   -580.76452    39359.762 
  170100    292.01542   -1473.0132    458.56992     295.5727   -205.90295    39359.762 
  170200    301.54894   -1448.1166    463.51671    368.18461    -187.5149    39359.762 
  170300    306.76522   -1514.6937    471.75236      333.244   -658.95683    39359.762 
  170400    304.55865   -1465.2249     447.0123    348.07378   -96.244398    39359.762 
  170500    300.00419   -1493.0443    461.72805    314.53826   -74.715341    39359.762 
  170600    302.53114   -1463.9855    477.07832    370.28358    339.57934    39359.762 
  170700    308.54589   -1439.2071    488.08475    433.05129    749.19712    39359.762 
  170800    301.49166    -1459.293    488.71382    381.94827    797.74561    39359.762 
  170900    287.17808   -1438.3732    486.48562    336.42744    445.65476    39359.762 
  171000    299.20504   -1447.0844    499.26168     394.4467   -83.954956    39359.762 
  171100    291.96675   -1504.1901    453.50143    259.10893    250.30145    39359.762 
  171200    291.32763   -1502.9925    456.94211    260.88003   -27.937657    39359.762 
  171300    291.55027   -1517.6112    476.85734    267.17534   -115.79835    39359.762 
  171400     296.9662   -1534.5557    464.38064    262.05068   -52.035549    39359.762 
  171500    300.20594   -1561.6332    440.41325    225.53961    -149.1528    39359.762 
  171600    303.34575     -1516.24     486.4625    331.06761    14.563048    39359.762 
  171700    299.68857   -1507.2016    447.90625    285.14329    201.47178    39359.762 
  171800    290.43165   -1510.1107    458.69988    251.50014   -144.03636    39359.762 
  171900    297.67978    -1478.973    447.81952    304.27351    297.95203    39359.762 
  172000    308.56419   -1478.5042    444.96958     350.7211     365.8832    39359.762 
  172100     311.2432   -1514.6977    457.04301     338.6194    255.98568    39359.762 
  172200    305.88399   -1499.5357    460.69554    333.39186    257.51781    39359.762 
  172300    301.29572   -1476.8872    472.03567    346.79696    39.238951    39359.762 
  172400    299.62908   -1488.8064     457.2227    312.58804    29.639997    39359.762 
  172500    306.64591   -1522.7808     460.0635    312.93277    -250.0728    39359.762 
  172600    285.81829   -1492.1486    438.77395    228.84028    319.06848    39359.762 
  172700    296.30285   -1483.7576    461.85522    307.34746    429.32846    39359.762 
  172800    304.51438   -1486.7257    477.96072    357.32282      405.008    39359.762 
  172900    296.25359   -1474.7938    453.77853    308.01362    78.721354    39359.762 
  173000    311.50298   -1478.6224     445.2719    364.08899    68.313656    39359.762 
  173100     306.8198   -1449.1793     454.5035    381.75436    110.72772    39359.762 
  173200    296.91431   -1470.0568    453.10983    315.04602   -147.74191    39359.762 
  173300    301.26915   -1489.7858    443.60294    305.34644   -393.43011    39359.762 
  173400    304.46871   -1510.3732    439.84323    295.35298    -330.0578    39359.762 
  173500    295.88645   -1511.8475    454.05235    269.58669    100.54335    39359.762 
  173600    296.48048   -1508.0088    451.29545    273.33346    -75.92971    39359.762 
  173700    302.62214   -1468.8359    452.83589    341.59898   -368.21977    39359.762 
  173800    300.29553   -1441.3361    455.56387    361.38926    67.884986    39359.762 
  173900     306.1952   -1471.8601    427.65746    329.42553    210.65934    39359.762 
  174000    302.88916   -1477.6842    446.75644    327.86908   -205.04882    39359.762 
  174100    306.40116   -1460.7131    458.16136    372.00038    853.13821    39359.762 
  174200    305.14973   -1465.2647    469.89248    373.56587    726.83879    39359.762 
  174300    294.89038   -1460.6952    447.58798    309.80619    58.212155    39359.762 
  174400    290.28443   -1483.4397    447.76276    266.57362    353.38494    39359.762 
  174500    292.51064   -1517.9883    418.06483    212.31407   -400.18313    39359.762 
  174600    304.72471   -1476.2442    433.95528    324.74243    65.534115    39359.762 
  174700    293.52063   -1500.1523    442.22402    258.84024   -588.20855    39359.762 
  174800    316.07103   -1452.8837    451.11845    416.16703   -463.78889    39359.762 
  174900    300.16543   -1423.7582     452.3775    375.19723   -182.44888    39359.762 
  175000    295.05819   -1401.5194    494.45004    416.59679   -488.61052    39359.762 
  175100     301.9702   -1453.0271    444.37782    346.02498   -671.07423    39359.762 
  175200     307.8476    -1455.525    458.53408    384.05009   -156.32942    39359.762 
  175300    293.21501   -1448.2029    446.04064    313.23518   -269.45038    39359.762 
  175400    296.79413   -1471.7135    455.07614    314.81649   -188.88009    39359.762 
  175500    306.25082   -1453.8169    444.47826    364.53902   -283.44607    39359.762 
  175600    301.16099   -1452.1956    453.08707    351.93551   -218.01313    39359.762 
  175700    301.45754   -1495.4253    450.15488    307.10399   0.87889923    39359.762 
  175800    302.99632   -1428.5814    475.98205    406.67819    206.05915    39359.762 
  175900    309.05376   -1444.2186    457.38837    399.62174    424.26426    39359.762 
  176000    298.07392   -1483.9929     460.0792    313.28137    400.58125    39359.762 
  176100    309.42917   -1467.0618    470.65113    391.72549    676.31399    39359.762 
  176200    289.18503    -1481.607    448.83284    264.54432    435.84381    39359.762 
  176300    306.12429   -1454.1402    477.74595    396.91578    475.78419    39359.762 
  176400    298.46418   -1453.1601    468.71539    354.50114    216.78143    39359.762 
  176500    303.07188   -1442.4173    448.96084     366.1601   -136.54753    39359.762 
  176600     305.1724   -1433.4457    494.65823    430.25232    959.59294    39359.762 
  176700    297.79261   -1464.3465    472.44099    344.02761    201.49409    39359.762 
  176800    304.24704   -1466.6808    447.17652    345.38423      93.9431    39359.762 
  176900    297.34838   -1426.7256    450.06679     357.2814   -417.84297    39359.762 
  177000    303.03652   -1444.7986    482.92118    397.58048   -255.66687    39359.762 
  177100    299.23849   -1436.5354    477.27793    383.16205   -157.53798    39359.762 
  177200    305.82243   -1457.4586    472.90331    387.40062    -88.71738    39359.762 
  177300    293.75902   -1443.1363    476.95929    351.66098    148.62896    39359.762 
  177400    299.71659   -1452.2143    489.85332    382.20337    12.085539    39359.762 
  177500    304.22509   -1447.4437    432.96881    350.31508    -63.79173    39359.762 
  177600    297.94036   -1435.4026    473.00545    374.19882    6.6691978    39359.762 
  177700    289.45861   -1488.0461    464.99219    275.49189     199.6857    39359.762 
  177800    304.59548   -1426.7393    443.26629    382.97863    709.93374    39359.762 
  177900    309.28549   -1489.6848    460.93266    358.73947    630.66388    39359.762 
  178000    287.69033   -1493.1954     443.3438    240.76151    668.29304    39359.762 
  178100    296.20754   -1494.3205     459.2286    293.73044    408.12759    39359.762 
  178200    306.62518   -1510.4972    471.96191    337.02179     717.1956    39359.762 
  178300    303.70638   -1473.9003    451.18345    339.74616   -190.89705    39359.762 
  178400      293.234   -1478.6972     461.3906    298.17605   -332.25424    39359.762 
  178500    309.65239   -1486.5816    442.41338    344.96927   -137.60376    39359.762 
  178600    304.47349   -1496.4648    440.85094    310.29053    65.938953    39359.762 
  178700    287.71511   -1470.0971    443.46644    264.09354    95.581875    39359.762 
  178800    291.48008   -1459.1738    490.28157    338.72216    625.13292    39359.762 
  178900    311.67637   -1444.6439    457.40407    410.97747    619.72382    39359.762 
  179000    306.39653   -1460.7919    468.70942     382.4488    99.841848    39359.762 
  179100    297.01812   -1471.7337    468.02342    328.74841    342.80943    39359.762 
  179200    295.31994   -1477.4762    471.24759    318.61181   -204.40078    39359.762 
  179300    300.26063   -1447.3108     464.6523    364.34646      89.7871    39359.762 
  179400    311.74547   -1472.2646    469.31499     395.5777   -36.510231    39359.762 
  179500    301.69306   -1489.3457    427.71847    291.80378   -326.41375    39359.762 
  179600    311.78823   -1493.7204    428.39224    333.39104    -330.0545    39359.762 
  179700    302.31771   -1465.3641    457.14715     348.0163   -399.80426    39359.762 
  179800    300.50473    -1457.371    443.38438    334.11342    82.425162    39359.762 
  179900    298.14484   -1476.9287    459.70619    320.29076   -243.76809    39359.762 
  180000    303.73073   -1484.3173    443.05387    321.30882   -103.80285    39359.762 
  180100    308.96668   -1479.0358    447.14665    354.17216   -27.131433    39359.762 
  180200    303.28359   -1456.4888    450.33656    354.41405   -64.684534    39359.762 
  180300    296.49638   -1481.3508    421.72987    270.49714   -111.80051    39359.762 
  180400    295.03183   -1463.8894    506.54751    366.20605    116.47925    39359.762 
  180500    289.56393   -1470.7821    447.35232    275.58856    1237.8335    39359.762 
  180600     304.4527   -1494.7478    484.59465     355.6579    1114.0605    39359.762 
  180700     305.3213   -1496.7531    456.91422    329.86886    429.25354    39359.762 
  180800    299.66361   -1497.6696    467.69337    314.35046   -157.96721    39359.762 
  180900    289.05749   -1482.7165    459.52653     273.5564   -291.82742    39359.762 
  181000    309.27583   -1479.4501    459.26503    367.26315    159.08007    39359.762 
  181100    299.41031   -1448.5993    464.25602    358.84698   -5.4551752    39359.762 
  181200    301.72285   -1483.7479    452.79199    322.60874   -214.21693    39359.762 
  181300    295.39962   -1490.9358    460.36209    294.62418   -597.99849    39359.762 
  181400    309.28271   -1480.6584    442.31142    349.13211   -74.352599    39359.762 
  181500    291.85927   -1491.5493    483.08399    300.85014    23.864172    39359.762 
  181600    294.60249   -1498.3691    462.41809    285.67083    1224.9595    39359.762 
  181700    293.55429   -1431.5407    467.91465    353.29343    689.70913    39359.762 
  181800    292.12989   -1452.3757    481.57636    339.73014    725.40045    39359.762 
  181900     302.5329   -1492.9013    461.61011    325.90741    571.05404    39359.762 
  182000    301.65622    -1475.361    455.88235    333.78709    1228.8403    39359.762 
  182100    315.84876   -1464.9341    460.43807    412.43913    791.65701    39359.762 
  182200    310.85896    -1484.226    465.14001    375.46433    406.80864    39359.762 
  182300    286.46683   -1482.8762    456.70319    258.95126    -238.2351    39359.762 
  182400    283.36433   -1514.8359    520.37613    276.74634    106.44355    39359.762 
  182500    303.00353   -1493.2334    467.65139    333.72788    381.08452    39359.762 
  182600    294.56735   -1432.0065    439.85331    329.31109     -834.459    39359.762 
  182700    303.76924   -1473.8121    482.50761    371.44052   -1296.6812    39359.762 
  182800    298.84783   -1473.8467    441.97127    308.79159   -693.78147    39359.762 
  182900    309.51198   -1396.3975    504.92915    497.03924   -805.17519    39359.762 
  183000    287.80246   -1420.6787    440.72688    311.16432   -515.26407    39359.762 
  183100    292.67192   -1431.1114    468.11135    349.96105   -116.37847    39359.762 
  183200    290.82275   -1449.1113    468.24019    323.79442    89.934752    39359.762 
  183300     290.1264   -1471.6446    450.36892    280.26593    187.32384    39359.762 
  183400     313.9047   -1398.3103    473.33166    483.23521    -190.8735    39359.762 
  183500    295.53595    -1406.733    486.40265    405.47917   -263.51344    39359.762 
  183600    298.13388   -1453.8562    464.77068    348.37854    47.082104    39359.762 
  183700    299.10274   -1437.4501    486.73239    391.09279    437.46359    39359.762 
  183800    293.67646   -1441.2857     486.3702    362.55204    412.68078    39359.762 
  183900    291.99535   -1478.9542     466.6377    297.60942    730.49437    39359.762 
  184000    299.56098   -1450.6204    477.14625    370.39214    815.78762    39359.762 
  184100    293.29548   -1433.3005    487.18758    369.64554    643.65097    39359.762 
  184200    311.75733   -1480.4329    475.85978     394.0074    395.46727    39359.762 
  184300    297.65142   -1514.2237    446.81186    267.88786    13.162937    39359.762 
  184400    301.00362   -1522.2863    457.11226    285.16412    27.099365    39359.762 
  184500    293.15605   -1478.7646    475.06276    311.43117    94.819467    39359.762 
  184600    288.22326   -1464.7136    480.49963    308.78991   -541.89748    39359.762 
  184700    302.23249   -1427.4255    479.48288    407.90832   -416.37578    39359.762 
  184800    287.33499   -1452.2555    488.56275     325.3262    406.94161    39359.762 
  184900    303.07798   -1475.4048     498.9007    383.13987    177.56034    39359.762 
  185000    293.10901   -1485.9778    469.24179    298.18595    161.41892    39359.762 
  185100    296.01783   -1462.6867    478.35005    343.63455    417.87991    39359.762 
  185200    303.83671    -1469.019    479.03095    373.05961   -72.932554    39359.762 
  185300    290.09713   -1451.9396    462.34694    311.81763    -66.37204    39359.762 
  185400    293.55639   -1478.8832    468.01762    306.06341     262.1452    39359.762 
  185500    311.66761   -1473.7799    460.26274    384.66086    527.43166    39359.762 
  185600    296.00497   -1483.8487    483.16058    327.22549    924.55997    39359.762 
  185700     307.5933   -1456.7606    467.55036    390.68995    39.173419    39359.762 
  185800    299.40196   -1445.0591    466.48517    364.57892    590.65335    39359.762 
  185900    287.79545   -1460.3933    476.58598    307.27733    359.04768    39359.762 
  186000    293.95631   -1468.9342    451.87472    301.66352    902.81314    39359.762 
  186100    297.59718   -1446.6437    486.54292    374.95561    265.64494    39359.762 
  186200    307.22357   -1450.5556    504.48219    432.16813    134.52553    39359.762 
  186300    295.66102   -1467.3579    475.98291    334.99555   -289.86498    39359.762 
  186400    298.31333   -1471.1644    460.74502    327.84977   -231.37318    39359.762 
  186500     303.5933   -1414.2946    486.79385    434.45499   -838.36336    39359.762 
  186600    293.65368   -1417.1856    461.27549    361.45529   -614.22959    39359.762 
  186700    305.39244   -1445.2356    468.42009     393.2114   -526.11937    39359.762 
  186800    297.32244    -1456.704    470.74799    347.86785    -434.2134    39359.762 
  186900    296.21888   -1501.2047    494.58545    322.25398   -621.66788    39359.762 
  187000     304.7817   -1505.9948     462.5739    323.86612    -234.1967    39359.762 
  187100     304.7485    -1536.148    440.22795    271.21809   -595.99071    39359.762 
  187200    289.59197   -1517.4764      441.016    222.68368   -455.10703    39359.762 
  187300    294.32515   -1521.2367    461.60998    260.75101   -325.53078    39359.762 
  187400    311.76227   -1506.2859    479.61187     371.9287   -297.70498    39359.762 
  187500     306.8756   -1477.9349    485.49532    384.24094   -22.994533    39359.762 
  187600    294.53991   -1488.7529    482.30286    314.89104   -383.13248    39359.762 
  187700    305.30026   -1476.0655    471.34166    364.88946    9.6924344    39359.762 
  187800    299.07052   -1434.6047    460.08736    367.14868   -993.33962    39359.762 
  187900    299.65104   -1483.4334    475.68701    336.52383   -713.40372    39359.762 
  188000    295.91477   -1490.8841    483.43345    320.05821   -196.69997    39359.762 
  188100    300.83853   -1448.9603    476.77813    377.41534   -107.55633    39359.762 
  188200    306.65718   -1476.4832    478.94897    378.16636    540.65636    39359.762 
  188300    288.46674   -1470.0648    489.26365    313.29506    480.59463    39359.762 
  188400    309.09732   -1466.6572    467.48794     387.4782    647.78478    39359.762 
  188500    296.39739   -1439.5866    463.98402    354.07143      639.984    39359.762 
  188600    298.19661   -1479.2899    490.25418    348.70977    418.66459    39359.762 
  188700    304.75807   -1404.7687    481.19386     443.6062    63.308213    39359.762 
  188800    302.48338   -1421.9038    488.80223    423.87492   -146.19161    39359.762 
  188900    301.74823   -1474.1194    443.70789    323.26699    65.638853    39359.762 
  189000     303.1384   -1453.6098    493.73055    400.03571   -104.27734    39359.762 
  189100    293.53848    -1428.421    455.27572    343.70329    161.47359    39359.762 
  189200    294.96168   -1497.2525    483.33328    309.31404    615.99454    39359.762 
  189300    290.57547   -1473.0093    473.75015    304.29707    775.12726    39359.762 
  189400    308.08031   -1457.7407    478.81113    403.15541    1158.3206    39359.762 
  189500    307.08464   -1426.1296    482.64496    434.13364    893.96849    39359.762 
  189600    298.64966   -1437.7838    458.70518    360.69937    68.969609    39359.762 
  189700    301.45387   -1424.0416    480.66112    408.97744   -356.94461    39359.762 
  189800    305.95787   -1428.9506    488.60888    432.22177    207.11031    39359.762 
  189900    308.18806   -1431.6949    445.81866    396.69213   -29.670433    39359.762 
  190000    295.18782   -1423.7073    475.94169    376.48217   -298.73096    39359.762 
  190100    308.45112   -1453.3333    476.21413    406.62927   -330.19642    39359.762 
  190200    307.99083   -1446.0122    467.79794    403.46928   -291.47663    39359.762 
  190300    303.48269   -1473.2945    466.65329    354.81831   -114.05193    39359.762 
  190400    305.63003   -1443.2032    479.68355     407.5731   -9.4656734    39359.762 
  190500    296.55224   -1464.6619    455.76563    321.47238    122.46944    39359.762 
  190600    298.88344   -1458.7744    492.88644    374.93877    304.81142    39359.762 
  190700    298.18457   -1441.5618    472.27468    368.40437    333.67412    39359.762 
  190800     295.1397   -1455.3346    466.74099    335.43824   -16.632807    39359.762 
  190900    289.47185   -1459.7792    476.98408    315.81009     157.9647    39359.762 
  191000    301.50283   -1513.0126    471.24551    310.81048    -85.00245    39359.762 
  191100    300.54735   -1487.5188    459.92872    320.70108    107.90169    39359.762 
  191200    313.59956   -1469.9774    475.66537    412.53298    748.60336    39359.762 
  191300    294.80619   -1477.4901    479.25698     324.3025     45.94211    39359.762 
  191400     291.1008   -1511.1037    455.48432    250.29352    127.47153    39359.762 
  191500    301.32324   -1497.6854    454.18006    308.26662    342.90262    39359.762 
  191600    298.06356   -1486.7452    482.31903    332.72244    460.91345    39359.762 
  191700    295.10079   -1502.0056    467.39994    289.25159    132.59677    39359.762 
  191800    305.42079   -1484.7123    466.25763    351.69938    644.20993    39359.762 
  191900    294.48577   -1506.7578    466.48653    280.82698    640.99966    39359.762 
  192000    304.35494   -1469.4362    476.26634    372.20271     292.4501    39359.762 
  192100    302.60236   -1428.8709    486.87353    415.51286   -51.542526    39359.762 
  192200    303.56068   -1460.1764    475.90103    377.53396    259.85398    39359.762 
  192300    308.34852   -1489.6152    460.54357    354.21652    225.29046    39359.762 
  192400    303.31911   -1454.5767    496.96169    403.11064    426.19278    39359.762 
  192500    303.01983   -1461.0397    480.28155    378.62494    252.84029    39359.762 
  192600    293.14726   -1447.9863    472.15097    339.25823    314.71352    39359.762 
  192700    306.53937   -1459.0913    482.11248    398.19334    290.77706    39359.762 
  192800    308.08255   -1480.0264    465.58788    367.65649    276.01962    39359.762 
  192900    305.03475   -1471.9957    475.52519     371.9517    61.365316    39359.762 
  193000    305.30548    -1420.193    467.47789    416.92163   -134.38906    39359.762 
  193100    294.27704   -1420.6684    503.55452    403.04794   -220.70905    39359.762 
  193200     302.6824   -1436.3753    467.09473    388.58876   -273.25501    39359.762 
  193300    300.11467   -1409.0763    507.81117    445.08501   -419.35253    39359.762 
  193400     303.0826   -1443.7102    464.86178    380.81622   -130.49653    39359.762 
  193500    297.24931   -1462.3868    466.65095    337.75994     -177.053    39359.762 
  193600    300.19779   -1411.7834    461.89213    396.83176   -475.32504    39359.762 
  193700    308.81658   -1454.7916    467.52087    398.11724   -445.54712    39359.762 
  193800    304.82359   -1485.7436    452.58105    334.31239    65.449439    39359.762 
  193900    296.43425    -1473.009    452.54946    309.37982    524.56008    39359.762 
  194000    299.86534   -1459.5238     503.8221    389.52988    1112.7408    39359.762 
  194100    292.02597    -1470.413    495.88373    335.53406     564.7011    39359.762 
  194200    296.20683    -1442.151     457.6604    344.32848    702.95139    39359.762 
  194300    295.14761   -1449.7598    484.09864     358.4062   -70.970012    39359.762 
  194400    297.63156   -1424.0455    489.54577    400.71085   -29.051024    39359.762 
  194500    298.65196   -1434.5963    478.77963    383.97161    576.54304    39359.762 
  194600    298.60093   -1467.7356    466.78407    338.60785    77.226255    39359.762 
  194700    300.09318   -1437.4218     493.5315    402.36343   -393.03684    39359.762 
  194800    298.70535   -1418.3443    493.44318    415.12667   -11.981063    39359.762 
  194900    302.50183   -1467.3749    487.52713    377.21145   -345.32931    39359.762 
  195000    290.49925   -1464.1984    480.03238    319.04821   -221.43975    39359.762 
  195100    308.37107    -1448.322    491.05199    426.11931   -609.39761    39359.762 
  195200    294.28449   -1427.6295    460.02356    352.58931   -459.91741    39359.762 
  195300    304.66878   -1453.6326    477.64406    390.79197    59.650372    39359.762 
  195400    293.84677   -1465.6627    468.07812    320.64702  -0.45180302    39359.762 
  195500    289.80293   -1488.3918    481.96201    293.66065     223.8892    39359.762 
  195600    296.81172   -1466.4769    455.86319    320.91904    383.73742    39359.762 
  195700    290.30196   -1462.9814    489.44152     328.7893   -146.98314    39359.762 
  195800    295.60745   -1445.0684    463.58114    344.64296   -523.22942    39359.762 
  195900    303.17969   -1421.7376    478.62165    416.98422   -449.60336    39359.762 
  196000    291.01333   -1446.7031    493.48679    352.30422    210.31568    39359.762 
  196100    304.75195   -1446.7808    481.93092    402.30371    965.16245    39359.762 
  196200    301.38404   -1480.5679    445.30079    316.77764    347.69849    39359.762 
  196300     311.1307   -1479.9019    511.86025    427.72771    546.09552    39359.762 
  196400    300.88258   -1463.4289    453.50709     339.8733    308.66904    39359.762 
  196500    305.99367   -1490.0563    467.91399    350.58178   -164.70119    39359.762 
  196600    296.21255   -1444.0124    464.07742    348.90974   -109.40053    39359.762 
  196700    298.42594   -1480.9883    467.60684    325.39287   -419.67707    39359.762 
  196800    294.20875   -1506.8995    466.60821    279.56423   -426.38959    39359.762 
  196900    298.48276   -1479.7498     457.7324    317.01183   -208.45751    39359.762 
  197000    284.13673   -1490.1653    481.93344    266.43939   -308.58832    39359.762 
  197100    299.93097   -1522.6869    473.09143    295.93062   -264.20071    39359.762 
  197200    298.79649    -1445.043    507.78815    403.18181    -230.7891    39359.762 
  197300    304.64417    -1480.319    479.68899    366.04008    216.74154    39359.762 
  197400    304.82367   -1443.1914    482.11419    406.39809   -386.76042    39359.762 
  197500    300.15233   -1481.4289    465.71341    330.80358   -668.96772    39359.762 
  197600    289.47059   -1466.3547    466.06947    298.31435     -451.443    39359.762 
  197700    299.90565   -1454.6215    488.86726    379.65826   -975.28248    39359.762 
  197800    296.59357   -1465.6369    479.35203    344.26926   -880.86818    39359.762 
  197900    305.57494   -1470.7969    440.33786    340.38652     -754.899    39359.762 
  198000    301.46611   -1475.1524    457.49532    334.75579    -502.8143    39359.762 
  198100    306.88165   -1430.6583    470.48391     416.5333   -241.73901    39359.762 
  198200     297.0542   -1469.9042    490.31862    353.03495    -230.0703    39359.762 
  198300    294.32355   -1481.1873    486.06341    325.24659   -35.944488    39359.762 
  198400    317.12105   -1450.3316    506.05817     478.3694   -296.05752    39359.762 
  198500    287.41731   -1425.9959    444.69016     308.0826   -161.41797    39359.762 
  198600    287.61516   -1414.0061    488.42199    364.69177   -939.92656    39359.762 
  198700    300.08217     -1429.63    473.68981    390.26417   -640.44791    39359.762 
  198800    301.06161   -1449.7445    486.10158    386.95528    72.931741    39359.762 
  198900    304.35538   -1500.5806    471.52628    336.32018   -245.18815    39359.762 
  199000    293.55156   -1508.3482    437.96185    246.52092   -348.40515    39359.762 
  199100    307.67743   -1517.9557    453.22876    315.55071   -322.29283    39359.762 
  199200    294.88475    -1499.776    478.36719    301.47929     -239.582    39359.762 
  199300     297.1039   -1484.7548    450.97883     299.0675    455.11735    39359.762 
  199400    307.10646   -1503.6339    468.44109    342.52341    411.66634    39359.762 
  199500    298.05109   -1492.0954    457.86312    302.86045    713.38218    39359.762 
  199600     290.5766   -1466.6951    458.99899    295.86511    670.95499    39359.762 
  199700    308.40659   -1482.0208    488.03811    389.56597    668.74853    39359.762 
  199800    302.25466   -1519.9984    477.94787    313.89986    698.49124    39359.762 
  199900    291.90342   -1484.0562    466.81407    292.27139    745.95957    39359.762 
  200000    303.56864   -1490.3939    468.09082    339.54201    476.66969    39359.762 
  200100    292.61435    -1481.205    451.93654    283.43435    497.62314    39359.762 
  200200     292.8342   -1483.8672    458.53439    288.35631    370.86849    39359.762 
  200300    303.26168   -1465.9197    496.42015    390.96847   -367.99588    39359.762 
  200400    293.75861    -1462.574     446.0576     301.3197   -162.06613    39359.762 
  200500    305.27567   -1496.7144    491.45397    364.24261   -155.36873    39359.762 
  200600     292.5042   -1475.3537    453.33665     290.1916   -311.78795    39359.762 
  200700     297.8449    -1504.263    442.44332    274.34805   -410.94714    39359.762 
  200800    307.08154   -1490.8892    468.82649    355.54167    -462.7984    39359.762 
  200900    289.57358   -1451.2127    459.10421    306.95307   -303.69311    39359.762 
  201000    310.19692   -1482.8731    436.95427    345.66151   -518.22017    39359.762 
  201100    304.52547   -1481.9494    457.57428    341.76248   -588.69335    39359.762 
  201200    304.06735   -1463.7501    463.45225    363.78446   -666.73736    39359.762 
  201300    287.95175   -1480.1434    473.59019    285.23264   -613.99557    39359.762 
  201400    306.32002   -1449.2915    463.25722    388.15384    176.68367    39359.762 
  201500    288.55697   -1438.7932    437.22727    292.93504    228.00107    39359.762 
  201600    309.48202   -1426.0548    495.55161    457.87002    459.32475    39359.762 
  201700     301.8359    -1398.876    507.12653    462.32233    237.69487    39359.762 
  201800     295.8204   -1418.8074    457.00759    365.28575    118.67211    39359.762 
  201900    303.33713   -1400.2376    503.87373    464.44257   -599.73379    39359.762 
  202000    310.38447   -1384.5587    470.80858    478.67161   -162.80493    39359.762 
  202100    309.07663   -1395.1991    488.97173    480.32718   -236.83113    39359.762 
  202200    297.89078   -1422.5622    473.95901    387.77037    237.44953    39359.762 
  202300    298.14708   -1430.7979    479.53337    386.25879   -339.99608    39359.762 
  202400    303.20563   -1423.4735     477.2105    413.95361    197.15244    39359.762 
  202500    296.44826   -1439.1473    455.12934    345.88422     526.1883    39359.762 
  202600    307.77591   -1465.3924     475.7928    391.11978     621.9243    39359.762 
  202700    289.32485   -1467.8419    459.50728    289.61112    18.045791    39359.762 
  202800    302.99649   -1484.6813    467.69439    342.29145    509.94003    39359.762 
  202900    289.15327    -1451.367    475.99813    321.80715    -62.90903    39359.762 
  203000    298.72549   -1469.1214    467.27468    338.27143    -275.0388    39359.762 
  203100    295.76669   -1439.4553    484.28611    371.67538   -562.59043    39359.762 
  203200    288.15281   -1468.0557    484.56456     309.1967   -496.26633    39359.762 
  203300     297.4723   -1494.1899    471.29587    311.60218   -173.09659    39359.762 
  203400    290.77106     -1450.73    455.69031     309.3939   -469.55716    39359.762 
  203500     302.8576   -1470.2241    453.49994    341.93112   -670.85403    39359.762 
  203600    289.06032   -1426.0078    482.26795     353.0192   -539.47763    39359.762 
  203700     302.5237   -1441.5404    448.32463    363.94153   -187.62544    39359.762 
  203800    316.09205   -1436.7546    494.58581    475.85781     73.74083    39359.762 
  203900    286.80005   -1443.1552    481.22547    324.68949    805.05456    39359.762 
  204000    293.25167   -1511.4475     483.7444    287.85881    183.47754    39359.762 
  204100    299.87652   -1499.5516    477.91214    323.64235    390.45322    39359.762 
  204200    296.05019   -1483.3917    478.45312     323.1778    423.66748    39359.762 
  204300    298.04822    -1490.814    479.30699     325.5728   -454.47728    39359.762 
  204400    300.76071   -1482.3372    467.07523    333.98644   -168.06218    39359.762 
  204500    300.24214   -1485.7455    470.25241    331.42897   -382.53041    39359.762 
  204600    303.83787   -1494.0185    483.52862    352.56303   -338.48824    39359.762 
  204700    297.49503    -1479.761    480.97952    335.81665   -458.28494    39359.762 
  204800    287.86088   -1524.0604    455.16997    222.48771    -285.7982    39359.762 
  204900    301.12217   -1532.2641    478.84059    297.44647    276.56445    39359.762 
  205000     307.3022   -1542.7138    470.50524    306.38568    324.96173    39359.762 
  205100    293.94619   -1525.1258    466.38404    259.93586    320.42292    39359.762 
  205200    298.00218   -1497.6332    484.98454    324.22465    546.27958    39359.762 
  205300      306.759   -1481.0165    473.81401    368.95496   -71.187051    39359.762 
  205400    300.78116   -1471.7316    497.16563    374.77412   -292.07468    39359.762 
  205500    298.57315    -1434.126    462.24393    367.55262   -122.42643    39359.762 
  205600    291.17265   -1502.7957    472.29235    275.73184   -161.20382    39359.762 
  205700    311.83302   -1493.7549    484.62507    389.79031   -62.360159    39359.762 
  205800    290.74046   -1472.9568    488.37705    319.71662    357.76314    39359.762 
  205900    295.62904   -1500.8514    510.97077    336.34643     468.6301    39359.762 
  206000    295.30672   -1511.7114    463.83518    276.90494    326.72612    39359.762 
  206100    303.25047   -1480.0285    482.26442    362.65364   -234.06955    39359.762 
  206200    297.22107   -1459.2109    484.19287    358.35108   -46.000829    39359.762 
  206300    293.94265   -1422.9004    493.42568    389.18696    142.51926    39359.762 
  206400    304.20201   -1418.5114    473.77523    419.95027   -369.48796    39359.762 
  206500    293.45002   -1406.2066    473.80535    384.05046   -760.37292    39359.762 
  206600    300.04064   -1424.7918    491.86977    413.09601   -78.119085    39359.762 
  206700    312.70861   -1462.8051    464.23231    404.27528    -525.7941    39359.762 
  206800    288.82364   -1438.7149    479.48503    336.46742    142.03883    39359.762 
  206900    304.56407   -1420.1655    507.12009    453.26533    183.25721    39359.762 
  207000    305.47903   -1425.5135    476.56176    421.46359    77.835726    39359.762 
  207100    289.85864   -1439.6012    502.04264    362.78183   -16.801456    39359.762 
  207200    295.12929   -1441.1032     480.6308    363.51279    265.57103    39359.762 
  207300    297.87828   -1486.2191    498.22734    348.32566   -112.74989    39359.762 
  207400     297.4243   -1464.8028    471.49437    340.97239    369.36909    39359.762 
  207500    298.13169   -1397.6552    487.47186    427.27092    249.80393    39359.762 
  207600    295.62331   -1431.8629    501.82911    396.16756   -479.70753    39359.762 
  207700    308.94848     -1477.18    476.92864    385.72837   -36.466143    39359.762 
  207800    299.02703    -1435.556     490.4507    396.36554    169.81521    39359.762 
  207900    297.24961   -1487.0087    474.99338    321.48186    299.62732    39359.762 
  208000    299.50299     -1461.92    471.47733    353.16346    391.92127    39359.762 
  208100     298.9582   -1445.6517    487.98565    383.49604    -189.1579    39359.762 
  208200    307.82061   -1500.8499    482.29723    362.36724    415.53956    39359.762 
  208300    299.87962   -1475.0642     485.0413    355.27277    279.62274    39359.762 
  208400    295.19111   -1472.4648    479.43463     331.2323    501.01494    39359.762 
  208500    300.01756    -1463.621    501.94592    384.23948    1256.6104    39359.762 
  208600    305.24474   -1491.5505    484.65765    362.47142    279.06054    39359.762 
  208700    302.90932   -1418.4216    475.30199    415.76766   -185.28709    39359.762 
  208800    291.12427   -1467.7719    484.82809    323.07434   -44.654218    39359.762 
  208900    306.94071   -1404.1574     493.2617    466.07689   -136.62729    39359.762 
  209000    301.83278   -1438.6993    504.37962    419.73815   -144.50704    39359.762 
  209100    291.67345   -1447.1066    474.32774    335.70301   -268.62166    39359.762 
  209200    307.29602   -1477.2308    468.15568    369.49141    249.42832    39359.762 
  209300    295.68516   -1518.9594    452.82784    260.34732    510.57913    39359.762 
  209400    303.31516   -1498.7381    491.62716    353.59705    308.03921    39359.762 
  209500    297.81949    -1519.542    475.57665    292.08835    641.17855    39359.762 
  209600    301.62454   -1505.2923    461.37525    309.20655    377.22135    39359.762 
  209700    300.37957   -1465.3239    473.83329    356.04799   -231.26831    39359.762 
  209800    302.31933   -1453.3774    502.98529    405.84844    733.57582    39359.762 
  209900    288.89865   -1457.5285    497.45141    335.95668   -61.956481    39359.762 
  210000    308.49038   -1437.9477    484.72287    430.69974   -1.5318837    39359.762 
  210100    304.74418   -1478.8688    493.20447    381.45436     182.7325    39359.762 
  210200    308.36421   -1539.9633      482.575    325.97031     338.9132    39359.762 
  210300     301.3288   -1499.5301    494.03482    346.30158    90.469455    39359.762 
  210400    302.05754   -1520.7908    462.60271    296.87801   -80.093609    39359.762 
  210500    303.62884   -1514.3561    517.42302    365.18206    48.135166    39359.762 
  210600    296.36629   -1487.0977    456.12401    298.56076    206.27014    39359.762 
  210700    289.29016   -1465.8741    493.54928     325.4653   -424.06035    39359.762 
  210800    302.22742    -1449.496    502.47888    408.81107   -214.89091    39359.762 
  210900    295.18335   -1485.4498     461.0329    299.81081   -305.73038    39359.762 
  211000    294.31314   -1510.6658    463.14598    272.80398    235.67742    39359.762 
  211100    293.66639   -1571.9401    498.14805    243.63039   -83.519252    39359.762 
  211200     301.7557   -1524.1832    485.58244    315.11132    39.837214    39359.762 
  211300    302.70387   -1503.0493    447.97876    302.89505   -208.34817    39359.762 
  211400    301.04814   -1539.6753    477.61383    288.47637    41.562135    39359.762 
  211500    297.00642    -1463.294    481.62889    350.74102   -49.398195    39359.762 
  211600    315.16049    -1501.046    467.47026    380.27176    742.05459    39359.762 
  211700    299.33011   -1494.1287    482.38478    331.08663     311.3438    39359.762 
  211800    294.70981   -1496.1452    474.35527    300.31341    635.12776    39359.762 
  211900    303.27273    -1474.362     479.2801    365.43568    239.75668    39359.762 
  212000    304.82381   -1428.2538    508.00848    447.23062     315.6943    39359.762 
  212100    297.56924   -1468.7658    450.78161    316.94689   -247.94381    39359.762 
  212200    303.99867   -1463.4808    506.88112    407.17453    -78.20699    39359.762 
  212300     293.0749   -1483.2442    485.90816     317.4329   -86.370176    39359.762 
  212400    301.88513   -1480.3774    462.54021    336.45547    75.612403    39359.762 
  212500    307.41888   -1468.0031    471.98153    383.09613   -178.46741    39359.762 
  212600    308.74609    -1433.921     489.4209     440.5717    339.95345    39359.762 
  212700    296.45443   -1450.8135    483.18598    362.30233   -28.793854    39359.762 
  212800    308.92842   -1468.6335    469.74378    386.99999    298.29979    39359.762 
  212900    308.10753   -1443.9398    474.32979    412.59704   -66.857662    39359.762 
  213000    302.05409   -1463.8628    486.17134     377.3592    120.85155    39359.762 
  213100    304.36406   -1404.2055    506.92551    468.13348    209.20339    39359.762 
  213200    303.79503   -1436.6642    481.58785     407.7844    -141.2728    39359.762 
  213300    295.52914   -1465.0489    467.92829     328.6583   -71.918283    39359.762 
  213400    299.40151   -1465.3961    473.85597    351.61074   -202.58661    39359.762 
  213500    308.17058    -1503.056    468.18015    347.61405   -288.20257    39359.762 
  213600    300.94451    -1480.445    477.59549     347.2234   -325.61204    39359.762 
  213700    296.73826   -1468.6391     470.4444    333.00848   -170.31268    39359.762 
  213800    302.31327   -1453.3364    506.64252    409.51942    184.51186    39359.762 
  213900    299.93723   -1451.0167    499.24456    393.78199     615.0772    39359.762 
  214000     298.2735    -1475.219    480.28746    343.15885    327.70077    39359.762 
  214100    300.53462   -1497.0757    469.78037    320.93881    502.59252    39359.762 
  214200    295.02293   -1541.7504     468.7352    250.49282    492.69142    39359.762 
  214300    297.58065   -1501.9437    476.42188    309.46039     454.5091    39359.762 
  214400    303.02893   -1486.9671    458.61507     331.0719   -158.14685    39359.762 
  214500     295.4815   -1522.7795    481.66042    284.44615   -34.278712    39359.762 
  214600    301.48069    -1521.302    461.64303    292.81929    75.465682    39359.762 
  214700    306.93575   -1472.8882    472.19938    376.26156   -15.629417    39359.762 
  214800    310.75545   -1478.8892    474.81461    390.01134    -40.10739    39359.762 
  214900    295.19501   -1498.7432    465.42977    290.96658    286.56178    39359.762 
  215000    303.58385   -1516.8924    472.27596     317.2969    238.53156    39359.762 
  215100     297.3838   -1533.7013    457.30451    257.70231    817.76239    39359.762 
  215200    296.64165   -1491.3771     484.1699    323.56254    674.82757    39359.762 
  215300    300.35232   -1515.9351    475.67657    307.15772    350.44059    39359.762 
  215400    304.43254   -1481.6722    479.99455    364.04304    711.73004    39359.762 
  215500    300.83358   -1472.9495    475.93473    352.56052    452.84602    39359.762 
  215600    299.50122   -1473.2122    466.41219    336.79816    237.51538    39359.762 
  215700    305.12788   -1499.9647    450.83062    319.70594 -0.034657769    39359.762 
  215800    297.73114   -1501.4332    481.31932    315.54352   -381.72124    39359.762 
  215900    300.18719   -1526.9819    461.67409    281.36774   -256.31389    39359.762 
  216000    294.31125   -1522.6418    488.05569    285.72922   -19.280433    39359.762 
  216100    295.83429   -1530.5566    481.45608    278.04736    25.367084    39359.762 
  216200    295.54694   -1539.2822    463.71105    250.28766    289.68709    39359.762 
  216300    315.59161   -1543.1453    466.49567    339.13191     381.8406    39359.762 
  216400    291.64115   -1523.1567    458.34806    243.52827     342.4844    39359.762 
  216500    306.08637   -1488.5123      474.865    359.49261    170.74691    39359.762 
  216600     303.1253   -1519.0238    480.48489    321.31727    20.762921    39359.762 
  216700    302.86721   -1475.5529    500.23972    383.38523   -28.258176    39359.762 
  216800     293.3493   -1476.4561    501.36317    340.90698    91.913822    39359.762 
  216900    310.38467   -1471.9092    450.49967    371.01311   -222.83741    39359.762 
  217000    303.29962    -1465.909    446.13985    340.86906   -994.79129    39359.762 
  217100    291.31011   -1513.8351    480.20083     273.2176    -263.8733    39359.762 
  217200    295.10885   -1499.7258    474.28177    298.44941   -263.94034    39359.762 
  217300    308.50717    -1490.821     459.3613    352.54018   -13.743975    39359.762 
  217400    291.19287   -1462.4595    460.47025    304.33668   -218.67194    39359.762 
  217500    304.87202   -1490.8636    455.10466    331.93319   -85.550482    39359.762 
  217600    299.20142   -1470.7864    511.36674    382.83354   -217.56901    39359.762 
  217700     300.3486   -1415.9206    483.83769    415.31669   -475.66832    39359.762 
  217800    299.34947   -1454.9721    455.78732    343.73263   -1074.0199    39359.762 
  217900    295.65594   -1440.4364    497.27075    383.18216   -678.73652    39359.762 
  218000    298.35664   -1447.1038    506.48302     397.8427   -428.86487    39359.762 
  218100    305.67907   -1473.5002     483.0307     380.8432   -378.80408    39359.762 
  218200    299.57013   -1487.1064    463.23769    320.03853   -601.23463    39359.762 
  218300    310.48435   -1442.4057    487.20823    437.67229   -624.39976    39359.762 
  218400    308.10621   -1453.8475    485.03442    413.38804    221.85103    39359.762 
  218500     303.2468   -1470.3537    476.48615    366.53375    487.58934    39359.762 
  218600    283.65498   -1447.8634    495.56803    320.21468   -444.50707    39359.762 
  218700     307.3847   -1485.2388    472.86524    366.59079   -88.686184    39359.762 
  218800    304.56444   -1455.4233    474.57365    385.46276    137.92201    39359.762 
  218900    296.55155     -1478.01    491.85694    344.21253   -875.53632    39359.762 
  219000    302.36819   -1459.8443    483.99911    380.61453   -70.918959    39359.762 
  219100    298.81381   -1492.2591     466.7905    315.04573   -774.35364    39359.762 
  219200     298.3414   -1448.6126    473.72558    363.50805    96.042781    39359.762 
  219300    303.51289   -1487.1114    472.33138    346.81495   -530.19474    39359.762 
  219400    300.04287   -1512.1087     501.4427    335.36207   -487.91446    39359.762 
  219500    297.31707   -1493.8845    468.60048    308.51576    286.83883    39359.762 
  219600    299.53428   -1498.3969    507.11418    352.46371    401.40433    39359.762 
  219700    308.62221   -1497.8254    497.69621    384.38683    854.43395    39359.762 
  219800     293.7907   -1473.2861    460.59256    305.28648    405.71454    39359.762 
  219900    290.00426   -1438.5837    493.20688    355.61681    214.56807    39359.762 
  220000    311.68554   -1460.2761     482.2816    420.26398     60.66064    39359.762 
  220100    295.53737   -1492.0814    464.07888    297.81331   -113.16239    39359.762 
  220200    297.04962   -1503.1896    466.66596    296.07639    77.695909    39359.762 
  220300    294.56361   -1477.0613    473.09111    317.47731   -368.54128    39359.762 
  220400    301.89748   -1457.4748     472.0805     368.9538   -228.05001    39359.762 
  220500    303.74416   -1499.2336    440.33413    303.73297   -357.66397    39359.762 
  220600    299.55707   -1480.1221    446.96797     310.6946   -714.47923    39359.762 
  220700    307.84778   -1468.9271    485.98808    398.10277     32.19191    39359.762 
  220800    298.86858   -1521.9394    485.12162    303.94225   -17.495224    39359.762 
  220900    294.26907   -1471.8963    470.18017    318.40999   -335.13388    39359.762 
  221000    308.36403   -1475.1458    489.86156    398.07358   -283.74855    39359.762 
  221100    307.17773   -1461.6566    455.36243    371.74167   -127.02626    39359.762 
  221200    298.11719   -1477.0806    500.65804    360.96666    145.71241    39359.762 
  221300    303.14826    -1456.371    494.33577    397.92403   -290.23883    39359.762 
  221400    292.10205   -1473.5285    463.62234    300.49841   -923.18634    39359.762 
  221500    300.49547   -1470.9869    466.70885    343.78043   -868.72911    39359.762 
  221600    298.26364   -1503.9565    458.96278    293.05245   -1189.4466    39359.762 
  221700    301.89862   -1510.6008    479.25678    323.00916   -1182.0788    39359.762 
  221800    296.02057   -1467.2328     488.1968    348.94752   -552.33835    39359.762 
  221900    319.82311   -1481.4643    455.75953    409.05978   -118.91905    39359.762 
  222000    286.42562   -1496.6542    494.93054    283.21576   -292.31574    39359.762 
  222100    300.33229   -1487.9005    485.17438    344.60029    243.88796    39359.762 
  222200    303.86006   -1480.9911    474.23474    356.39613    207.85107    39359.762 
  222300    303.01728   -1490.6462    466.65782    335.38329    205.94611    39359.762 
  222400    305.07084   -1479.7219    469.95266    358.81484    829.39575    39359.762 
  222500    300.00428    -1514.484    458.92469    290.29566    426.33694    39359.762 
  222600    293.54728   -1474.5719    468.20944    310.52561     434.1824    39359.762 
  222700    304.65801   -1541.2875     479.2428    304.68747    560.99016    39359.762 
  222800    314.07896   -1519.5596    477.76137    367.19741    210.88607    39359.762 
  222900     300.4365   -1481.6311    464.77996    330.94282   -295.20413    39359.762 
  223000     306.8276    -1479.078    449.73612     347.1233   -435.05547    39359.762 
  223100    314.33027   -1462.8972    462.82188    410.04775    -759.6067    39359.762 
  223200    292.91489   -1478.3694     470.4933    306.17497   -276.71202    39359.762 
  223300    306.25459   -1495.3449    469.77771    348.32741   -570.87025    39359.762 
  223400    296.09063   -1464.7505    432.67107    296.21845   -567.04073    39359.762 
  223500    303.28438   -1489.9211    455.63868     326.2874    -355.5819    39359.762 
  223600    298.36594   -1507.8378    467.37428    298.04167    117.57193    39359.762 
  223700    295.85429   -1492.3941    440.00938    274.85284    238.01293    39359.762 
  223800     297.9981   -1470.9666    461.71885    327.60728     484.0837    39359.762 
  223900    304.75925   -1453.8821    487.52638    400.83058   -86.095199    39359.762 
  224000    298.64203   -1466.4565    445.36379    318.65102     11.96847    39359.762 
  224100    302.86712   -1498.8623    461.60688    321.44252    186.47016    39359.762 
  224200    298.59545   -1464.2211    470.24877    345.56247     301.8761    39359.762 
  224300    305.16403   -1473.7267    473.46321    368.73866    66.031227    39359.762 
  224400    295.34444   -1508.6303    458.81109    275.13114   -354.17528    39359.762 
  224500    300.84632   -1482.7587    471.52398    338.39778   -48.593788    39359.762 
  224600      306.446   -1501.9801     471.3308    344.10402   -88.874488    39359.762 
  224700    295.94102   -1495.4473    445.27196    277.45132     308.8413    39359.762 
  224800    299.62365   -1503.3454     476.0095    316.81149   -130.14438    39359.762 
  224900    290.88164   -1497.4542    452.58775    260.06327    95.374137    39359.762 
  225000    305.00211   -1472.4884    443.60124    339.38868   -582.09675    39359.762 
  225100    309.88014   -1483.9083    461.98563    368.23655    -42.07494    39359.762 
  225200    300.75693   -1485.2818    442.83424    306.78387   -499.75435    39359.762 
  225300     295.0527   -1471.4686     456.7875    308.96048   -645.41002    39359.762 
  225400    302.91748   -1449.8054     493.1283    402.24674   -698.29031    39359.762 
  225500    296.77923   -1448.0403    445.31845    328.66517   -1147.5577    39359.762 
  225600    306.52523    -1455.836    468.81447    388.08721   -600.53417    39359.762 
  225700    305.98861   -1473.8078    430.32845    329.22201   -252.12838    39359.762 
  225800    305.85437   -1458.5047    458.71802    372.31242   -119.69417    39359.762 
  225900    299.07702    -1415.963      481.202    406.93418   -91.422275    39359.762 
  226000    292.49745   -1443.8739    500.82797    369.13246    115.22676    39359.762 
  226100    295.81921   -1458.7064    464.41825    332.79201     366.7412    39359.762 
  226200    301.41218   -1471.6188    482.29447    362.84662   -14.615954    39359.762 
  226300     303.1712    -1460.037    490.38433    390.40948   -96.171725    39359.762 
  226400    299.73461   -1477.5258    477.75385    344.87325   -381.36542    39359.762 
  226500    298.20624   -1494.2644    456.90009    300.42443    127.85801    39359.762 
  226600    300.43845   -1520.6028    458.41632    285.61623   -369.57412    39359.762 
  226700    294.96886   -1466.6115    469.37218     326.0262    293.66987    39359.762 
  226800    288.30314   -1453.7847    467.67094    307.24845   -166.05169    39359.762 
  226900    296.02764   -1524.7179    475.59023    278.88756    300.27053    39359.762 
  227000    300.25784   -1536.7494    467.72313     277.9662     500.0659    39359.762 
  227100    294.48959   -1476.4751    500.35031    344.99062    790.56811    39359.762 
  227200     299.2814   -1471.3287    495.02611    366.30942    500.55625    39359.762 
  227300    303.65693   -1461.8047    484.29127     384.7277    423.95195    39359.762 
  227400    290.51803   -1476.0595    477.87423    305.11326    290.03122    39359.762 
  227500     291.9803   -1503.6009    447.85195    254.10944   -37.038713    39359.762 
  227600    300.11111   -1502.1894    466.68661     310.8314    60.771651    39359.762 
  227700    313.27278   -1466.2994    475.10278    414.18239   -185.90519    39359.762 
  227800    291.28724   -1468.6255    470.68102    308.80482   -51.830649    39359.762 
  227900    305.51709   -1506.2394    479.45258    343.79928    216.59678    39359.762 
  228000    301.42664   -1487.4521     469.7463    334.53004    401.49663    39359.762 
  228100     302.3622   -1498.2126    459.30499    317.52526    7.9213522    39359.762 
  228200     293.4629   -1479.9683      464.446    300.98723   -121.40964    39359.762 
  228300    297.56179   -1474.8957    505.53119    365.53312   -105.09187    39359.762 
  228400    298.40057   -1498.1607    497.17258    337.67234    137.36501    39359.762 
  228500    302.25875   -1491.3931    475.91863    340.49426   -48.367635    39359.762 
  228600    287.11516   -1488.3471    472.37949    272.06519   -280.24586    39359.762 
  228700    300.66891   -1481.7116    460.84745    327.97246    228.29919    39359.762 
  228800    304.63025   -1500.5202    477.31615    343.40358     484.5795    39359.762 
  228900      290.132   -1522.1246    476.60321     256.0453    187.22255    39359.762 
  229000    295.32717   -1487.1352    488.97037    326.70804    722.28905    39359.762 
  229100    310.58965   -1463.0282    479.44537    409.75935    588.00667    39359.762 
  229200    298.57401   -1522.0585    453.39047    270.77058    279.74765    39359.762 
  229300    302.63442   -1530.1637    485.92026     313.4106   -213.05467    39359.762 
  229400    302.52074   -1520.5725    457.91863    294.49021    626.43776    39359.762 
  229500    288.80412   -1496.3908    463.74952    262.96839    171.00725    39359.762 
  229600    298.82217   -1521.7226     472.1329    290.96218     317.5122    39359.762 
  229700    294.84096   -1479.1797    483.69109    327.20311    733.16648    39359.762 
  229800    296.99382   -1491.3132    475.42672    316.46316    251.96248    39359.762 
  229900    300.17547    -1508.112    471.17776    309.68868   -200.22817    39359.762 
  230000    300.60551   -1518.2819    461.79734    292.06759    72.802224    39359.762 
  230100    296.28695   -1509.7941    505.94495     325.3294   -194.70632    39359.762 
  230200    288.72968   -1522.9809    481.22574    253.52062   -471.39378    39359.762 
  230300    297.34351   -1505.2137    468.09545    296.80014   -277.17386    39359.762 
  230400    294.87167   -1490.4868    476.53866    308.88134    -351.4559    39359.762 
  230500    299.32817   -1534.5844    455.07644    263.31385    473.05975    39359.762 
  230600    300.08057   -1490.9429    469.60292    324.85723    87.269168    39359.762 
  230700    304.69839   -1512.4977    492.48691    346.90248    385.27683    39359.762 
  230800    297.68873   -1514.7287    445.20391    265.94227      269.589    39359.762 
  230900    299.95631   -1496.7075    480.28299    329.21524   -192.04884    39359.762 
  231000    304.38352   -1543.1173    466.45527    288.83875   -88.623283    39359.762 
  231100    298.21463   -1531.2217    454.51987    261.12456    -368.5577    39359.762 
  231200    305.21989    -1511.731    468.19482    325.71663    162.46398    39359.762 
  231300    290.33885   -1536.0266    466.49997    232.96804   -367.82511    39359.762 
  231400    306.45609   -1554.4901    469.77559    290.08406    86.325539    39359.762 
  231500    304.53313   -1553.5613    465.90958     278.5202   -163.17806    39359.762 
  231600    310.98727   -1548.5534    497.30749    343.88006    -176.1756    39359.762 
  231700      303.504   -1536.4511    477.02676    302.13071    137.09265    39359.762 
  231800     297.1433   -1537.0238    480.24895    276.24542    463.48951    39359.762 
  231900    296.88562   -1552.5029    482.16853    261.52989    192.64099    39359.762 
  232000    310.17211   -1546.9489    476.69553    321.21563   -86.203743    39359.762 
  232100     300.6219   -1555.8316    501.88393    294.67793   -86.023325    39359.762 
  232200    287.92851    -1530.934    479.05402     239.8016   -145.70334    39359.762 
  232300    312.91673   -1513.9144    481.75209    371.61942   -221.01893    39359.762 
  232400    294.76589   -1548.5397    464.51744    238.33263    127.85187    39359.762 
  232500    311.04136   -1563.7775    444.84711    276.43821   -272.72592    39359.762 
  232600    298.21867     -1577.11    466.61251      227.347    -326.6448    39359.762 
  232700     291.6227   -1573.1924    486.69328    221.75505    6.3240635    39359.762 
  232800    298.39473    -1565.817    457.89265    230.70991   -339.79507    39359.762 
  232900    293.66633   -1542.3719      441.969    217.01922   -272.85024    39359.762 
  233000    297.94817   -1513.1737    482.68553    306.14281   -48.871443    39359.762 
  233100     295.8887   -1510.4209    482.33832    299.30937    86.896194    39359.762 
  233200     302.6725   -1533.2793    474.03262    298.57822    305.98486    39359.762 
  233300    298.78984   -1479.2792      480.518    341.64562    -24.33853    39359.762 
  233400     296.1763   -1481.1293    512.32642    359.87931   -298.10096    39359.762 
  233500    296.70039   -1457.2573    467.94225    341.71823   -443.73112    39359.762 
  233600    298.34229   -1472.9275     463.9742    329.44576   -884.73767    39359.762 
  233700    294.40013   -1474.9808    513.37033    359.10354   -311.51128    39359.762 
  233800    298.02337   -1490.8256    503.54508    349.68787   -120.34239    39359.762 
  233900    300.59693   -1520.7301    492.99779    320.78138    502.61551    39359.762 
  234000    290.76502   -1491.0866     506.5194    319.83934    74.950641    39359.762 
  234100    300.85191   -1478.9729    487.87528    358.55991   -351.31852    39359.762 
  234200    299.46273   -1518.6513    476.11426    300.88841    3.9816673    39359.762 
  234300    309.63672   -1525.1546    441.54053    305.45318     564.0509    39359.762 
  234400     305.9022   -1485.5447    515.11312    401.88206    894.00919    39359.762 
  234500     312.3893   -1497.7571    487.70055    391.35906    888.83064    39359.762 
  234600    288.84715   -1506.5721    481.52671     270.7573    819.06356    39359.762 
  234700    298.41637   -1503.2806     494.6019    330.05271    277.91083    39359.762 
  234800    300.35493   -1480.5979    493.33698     360.1671     182.2983    39359.762 
  234900     305.6563   -1460.8232    500.02434    410.41167   -226.90616    39359.762 
  235000    312.81401   -1477.0488    463.32943    389.60157   -78.448414    39359.762 
  235100    299.29655   -1512.2334    505.42783    335.87442   -217.54625    39359.762 
  235200    290.72697   -1502.9012    490.66023     291.9949   -39.768336    39359.762 
  235300    310.19529   -1471.4582    497.42479    417.53958   -61.221939    39359.762 
  235400    314.00703   -1505.5167    476.71667    379.87291   -69.832805    39359.762 
  235500    307.27086   -1488.3887    490.98105    381.04597   -31.352964    39359.762 
  235600    297.91373    -1476.295     509.9106    370.09205      713.138    39359.762 
  235700     307.0025   -1510.2718    463.38138    330.35941    231.61641    39359.762 
  235800    287.64183   -1499.4353    514.98213    305.94232    223.32513    39359.762 
  235900    293.60046   -1516.2146    484.83476    285.74675    569.52332    39359.762 
  236000    297.73324   -1485.5819    502.65351    352.73839    302.30378    39359.762 
  236100     306.2573   -1514.5419    477.73422    337.09907    262.15271    39359.762 
  236200     290.9109   -1504.3245    468.43108    269.16748   -348.99685    39359.762 
  236300    304.05198   -1515.4865    483.25738    331.78432   -435.90168    39359.762 
  236400    294.22759   -1475.2495     490.9937    335.68424    -112.5791    39359.762 
  236500    309.44944   -1490.1645    464.04809    362.11064    156.73616    39359.762 
  236600    306.00932   -1519.2095    495.07504    348.65984   -170.92317    39359.762 
  236700    291.91851   -1494.7987    482.38082    297.16335   -296.41948    39359.762 
  236800    303.49536    -1448.499     475.4626    388.47993   -659.56397    39359.762 
  236900    304.87842   -1443.2568    499.82489    424.28898   -153.69419    39359.762 
  237000    295.19974    -1473.116    482.09643    333.28168    18.619919    39359.762 
  237100    298.53395   -1489.1274    497.26156    347.39299    401.10308    39359.762 
  237200    301.26069    -1497.982    492.99497    346.50433    255.43132    39359.762 
  237300    288.42187   -1524.6205    474.63877    243.91312    125.22747    39359.762 
  237400    306.87906   -1527.3078    498.63482    348.02308    482.21611    39359.762 
  237500    299.16086   -1524.7689    484.23437    301.53669    -108.0955    39359.762 
  237600    297.61132   -1507.4563    504.87771    332.54127   -237.78372    39359.762 
  237700    292.42751   -1468.1906    488.14161    331.81566   -380.91255    39359.762 
  237800    299.62153   -1478.1814    500.12237    366.07882    78.424601    39359.762 
  237900    298.10556   -1516.1617     507.0299    328.20525   -303.16344    39359.762 
  238000    292.37392   -1475.0783      485.222    321.76792    -118.3457    39359.762 
  238100    303.79243   -1499.7524    474.88737    337.98398   -444.88805    39359.762 
  238200    306.10987   -1496.6878    485.99438    362.55196   -620.67452    39359.762 
  238300    308.71398   -1507.3239     478.1671    355.77093   -556.72457    39359.762 
  238400    297.17512   -1524.4653    470.48728      279.185   -358.60769    39359.762 
  238500    302.85428   -1516.0358    473.79238    316.39701    245.32161    39359.762 
  238600    305.18195   -1565.6965    484.75218    288.13825    147.59731    39359.762 
  238700    306.21261   -1557.1355    465.25553    281.82625    84.877623    39359.762 
  238800    308.21121   -1509.7878    500.89222    373.77664   -191.84894    39359.762 
  238900    301.99938    -1505.201    501.96317     351.5674    138.89619    39359.762 
  239000    299.07707    -1516.538     481.9231     307.0805    96.944139    39359.762 
  239100    299.13254   -1491.7413    497.86063    348.06353   -254.95336    39359.762 
  239200    301.63564   -1547.4038     482.4576    288.22718   -71.506653    39359.762 
  239300    295.77212   -1539.8462    480.48278    267.50553   -389.58965    39359.762 
  239400    301.90381   -1527.2129    467.08278    294.24634    57.622263    39359.762 
  239500    297.94457   -1553.1561    446.45599    229.91476    32.085906    39359.762 
  239600    290.83367   -1509.5258    493.56602    288.75468   -31.859782    39359.762 
  239700    302.69245   -1549.1483    488.30837    297.07446    475.63733    39359.762 
  239800    290.19149   -1543.5218    491.79702    250.10881    178.90347    39359.762 
  239900    304.98108   -1531.5928    494.19751     330.7862   -41.776534    39359.762 
  240000     301.5026   -1524.3092    459.43554    287.70289    18.543527    39359.762 
  240100    297.77478   -1530.8084     475.0714    280.11617    429.40445    39359.762 
  240200    289.16605   -1505.8959    471.94114    263.27858    958.55476    39359.762 
  240300    293.63144   -1510.8472    485.25274    291.67113    742.60076    39359.762 
  240400    293.55993   -1485.0451    495.49408    327.39383    728.64579    39359.762 
  240500    291.13385   -1462.3623    502.19748     345.8963     610.8237    39359.762 
  240600     299.2309   -1533.1831    489.42544    298.62778    515.19986    39359.762 
  240700    300.05763   -1500.4315    484.55872     330.2215    739.82786    39359.762 
  240800    292.59658   -1468.1179    497.68074    342.18594    366.77471    39359.762 
  240900    304.96325   -1460.1262    487.12246    395.09772     279.9599    39359.762 
  241000    297.44301   -1452.8779     493.4351    374.92202   -485.98959    39359.762 
  241100    291.09648   -1481.9527    479.50944    303.45022   -206.14697    39359.762 
  241200    291.01575   -1473.9441    490.99748    322.58473   -478.61304    39359.762 
  241300    297.57083   -1444.9943    509.76033    399.70426   -233.55461    39359.762 
  241400    296.17305   -1482.3245    503.61291    349.95596   -208.97098    39359.762 
  241500    296.52777   -1470.7295    460.16962    319.69903   -221.16617    39359.762 
  241600    300.41454   -1492.8758    477.61642    332.43605   -295.73449    39359.762 
  241700    292.81232   -1472.5087    479.29602    320.37828   -520.79016    39359.762 
  241800    299.14136   -1469.2103    490.44845    363.22192   -588.87309    39359.762 
  241900    298.55494    -1452.287     509.2691     396.3351   -500.21552    39359.762 
  242000    301.66749   -1431.4913    488.71133    410.53634   -586.86472    39359.762 
  242100    298.36761   -1456.4525    473.65134    355.71147    -921.8136    39359.762 
  242200    302.40217   -1453.9228    464.44744    367.13675   -224.39218    39359.762 
  242300    307.69532   -1483.8035    489.85456    386.40893   -463.49885    39359.762 
  242400    293.86025   -1444.8966    474.12125    347.51675   -361.36908    39359.762 
  242500    292.28167   -1440.5865    499.89211    370.51604   -374.00172    39359.762 
  242600    300.97331   -1478.0161     483.9701     356.1561    -48.68302    39359.762 
  242700    293.36495   -1515.1944     489.3472    290.22292    270.23043    39359.762 
  242800    299.59313   -1541.8893    461.37146    263.49264     392.4176    39359.762 
  242900    295.28004    -1483.806    492.84548    333.70092    274.31862    39359.762 
  243000    306.39003   -1489.4204    494.67193    379.75367    567.04316    39359.762 
  243100    297.18035    -1474.434    481.73967    340.49215    323.94219    39359.762 
  243200    303.75983   -1459.6731    476.96028    379.98993    203.88263    39359.762 
  243300    312.35663   -1428.3731    480.47623    453.37217   -180.94527    39359.762 
  243400    296.86014   -1456.5908    489.96026    365.11939   -196.65719    39359.762 
  243500     289.0459   -1474.7791    513.66199    335.57725   -369.28653    39359.762 
  243600    299.39346   -1500.9077    466.34101    308.54804    300.60503    39359.762 
  243700     319.0243   -1471.8017    496.13966    455.51903    447.39339    39359.762 
  243800    295.14137   -1517.3938    489.71342    296.35902    81.625986    39359.762 
  243900    297.13241   -1511.3962    465.90244     287.4776    413.86229    39359.762 
  244000    302.20842   -1493.1835    492.00059     354.5601    569.12194    39359.762 
  244100    288.23402   -1490.7474    487.29976    289.60447    557.04195    39359.762 
  244200    300.35705   -1486.3045    478.42566    339.55865    647.84006    39359.762 
  244300    307.07528   -1504.4101    496.24059    369.40673    143.15591    39359.762 
  244400    308.34786   -1523.3638    509.97774    369.89919    409.35906    39359.762 
  244500    303.59648   -1525.6523    455.16839    291.48605    383.39798    39359.762 
  244600     293.7482   -1510.8088    470.72376    277.70439    206.54411    39359.762 
  244700    298.56926   -1470.1506     477.8566    347.12328   -130.77651    39359.762 
  244800    297.77529   -1485.5717    491.49696    341.78068    386.64655    39359.762 
  244900     298.0447   -1529.5644    460.32254    267.82213    110.22958    39359.762 
  245000    294.76021   -1530.8392    475.94191    267.43212   -271.20872    39359.762 
  245100    310.63762   -1495.0989    447.10832    345.56682   -314.92523    39359.762 
  245200    306.04677   -1469.7591    471.54627     374.7494   -129.41444    39359.762 
  245300    300.50542   -1508.6962    481.84497    321.25188   -21.800045    39359.762 
  245400    298.37163   -1519.7798    480.85334    299.60421    18.973769    39359.762 
  245500    309.86131   -1493.6988    466.36139    362.73736   -233.90658    39359.762 
  245600    305.48786   -1480.6984    487.50017    377.25674   -255.00589    39359.762 
  245700    309.53765   -1481.4562    482.32659    389.49314    -71.23812    39359.762 
  245800    288.70797   -1530.2983    453.93203    218.81204     328.8789    39359.762 
  245900    298.01634   -1482.9782     495.3377    349.29629   -227.33063    39359.762 
  246000     285.0979   -1508.4123     480.8926    251.46341   -417.40245    39359.762 
  246100    323.46568    -1490.932    465.17318     425.3467   -303.85315    39359.762 
  246200    297.12199   -1512.6455    481.69047     301.9696    348.89386    39359.762 
  246300    300.75454   -1486.8553    474.37861      336.744   -227.01851    39359.762 
  246400    301.64889    -1526.883    446.36469    272.71458   -524.48532    39359.762 
  246500    301.45176    -1495.287    493.30712    350.36864    176.44545    39359.762 
  246600    301.50803   -1513.2227    475.42518    314.80346    329.60376    39359.762 
  246700     305.5404   -1529.0566    504.04069    345.67466    432.91216    39359.762 
  246800    298.43665    -1504.578    473.63063    307.87497    398.73105    39359.762 
  246900    297.23406   -1504.5292    460.87117    289.76941    120.40472    39359.762 
  247000    304.55598   -1491.6601    486.55242    361.16678    267.51938    39359.762 
  247100    292.81403   -1557.7342    470.57614    226.44054   -225.68007    39359.762 
  247200    297.67115   -1543.2465    466.01212    258.15386   -145.40756    39359.762 
  247300    287.09295   -1533.9613    487.23568     241.2076    119.47046    39359.762 
  247400     299.6297   -1555.5887    467.22503    255.81091    695.10275    39359.762 
  247500    309.67393   -1551.7866    452.25114    289.69868    602.25591    39359.762 
  247600    301.63467   -1527.6149    450.71043    276.26462    514.02967    39359.762 
  247700    305.69744   -1508.0545      463.823    327.16366    429.29672    39359.762 
  247800    307.18553    -1508.643    499.62532    369.05316    546.02857    39359.762 
  247900    293.94196   -1548.6803    460.03741    230.01576   -290.73813    39359.762 
  248000    306.63263   -1492.4735    465.66587    348.78292    63.862127    39359.762 
  248100    295.47708   -1510.8671    495.54888    310.22714   -443.09829    39359.762 
  248200    306.74952   -1546.6604     465.6417    295.09614   -814.45487    39359.762 
  248300    298.31204   -1523.1092    466.26281    281.41701    67.128836    39359.762 
  248400    292.55963    -1514.986    472.80658    270.27796   -456.71887    39359.762 
  248500    295.51041   -1479.9751    485.95505    331.67489   -276.43133    39359.762 
  248600    291.90142   -1464.6684    477.01809    321.85425   -206.02165    39359.762 
  248700    306.26285   -1453.3341    491.55321    412.15074    148.26547    39359.762 
  248800    305.13259   -1465.9999    476.04622    378.90744     17.21686    39359.762 
  248900    300.31056   -1480.7198    503.83338    370.34258    571.97128    39359.762 
  249000    303.73626   -1500.5336    490.65469    352.71813    414.75945    39359.762 
  249100    302.70136    -1501.778    472.31534    328.49169    525.90566    39359.762 
  249200    302.31169   -1482.4823    446.16963    319.89358    511.72683    39359.762 
  249300    297.07067   -1524.8574    468.95617    276.79319   -117.24517    39359.762 
  249400    304.24481   -1485.1277    487.01373    366.76454   -32.143985    39359.762 
  249500    309.31433   -1519.4647    492.05232    360.20858   -224.82108    39359.762 
  249600    304.16118   -1496.3772     459.2263     327.3524   -501.22101    39359.762 
  249700    292.03025    -1480.497    472.27235    301.85778   -714.05547    39359.762 
  249800    304.47383   -1476.1316    486.13264    375.90694   -171.43331    39359.762 
  249900    294.33843   -1510.0504    484.01571    294.40258   -468.34243    39359.762 
  250000    300.61099   -1513.8296    466.61389    301.36104   -34.185847    39359.762 
  250100    304.01977   -1507.7239    498.71749    354.86246    473.52619    39359.762 
  250200    297.55569    -1524.362     469.3058    279.81405   -272.72611    39359.762 
  250300    296.35763   -1479.2344    508.45066    358.71187    259.19722    39359.762 
  250400    304.68153   -1535.7723    484.67686    315.74218    662.07528    39359.762 
  250500    300.52883   -1487.1792    467.80364    328.83255    240.58782    39359.762 
  250600    296.96775   -1496.0541    490.77406    326.95263   -242.02452    39359.762 
  250700    298.09631   -1452.2152    523.38293    408.46331   -270.73264    39359.762 
  250800    303.50796   -1468.1052    453.22244    346.69014   -14.277486    39359.762 
  250900    294.48296   -1477.6825    476.16417    319.56735   -111.05168    39359.762 
  251000    288.99568   -1486.8344    488.23793    297.87256    376.60049    39359.762 
  251100    291.26525   -1491.3142    485.78994    301.12632    310.72144    39359.762 
  251200    299.29069    -1476.857    491.44539    357.24207    174.97589    39359.762 
  251300     291.4534   -1529.2949    466.24729    244.44701    428.00943    39359.762 
  251400    308.89899   -1521.6007    478.29207    342.44909    16.267237    39359.762 
  251500    294.31634   -1518.7859    453.03287    254.58517    245.29764    39359.762 
  251600    302.95388     -1505.82     464.2663     317.5335    228.90189    39359.762 
  251700     304.7198   -1472.0406    472.90912    367.87785   -226.30452    39359.762 
  251800     303.8641   -1463.3528    493.23384    393.05159   -75.661467    39359.762 
  251900     303.8467   -1474.5816    469.86177    358.37261   -12.846086    39359.762 
  252000    294.81077   -1472.3644    484.51546    334.70731    240.76691    39359.762 
  252100    288.58029   -1524.8035    493.16974    262.97184    64.297592    39359.762 
  252200    304.76027    -1512.264    469.13557    324.06246     -0.87414    39359.762 
  252300    305.55905   -1526.2703    451.53434    296.03828    159.00821    39359.762 
  252400     301.2594   -1545.4834    465.63922     271.6414   -324.45421    39359.762 
  252500    302.56954   -1515.4008    474.90577    316.86801   -226.57333    39359.762 
  252600    308.72851   -1500.8206     467.0766    351.24882     249.1522    39359.762 
  252700    305.27649   -1482.2379    474.21062    361.47943    277.22284    39359.762 
  252800    295.34803   -1515.2052    467.66042    277.42169    162.74225    39359.762 
  252900    308.81284   -1490.1557    472.34787    367.56338    492.51519    39359.762 
  253000    296.80084   -1526.7242    480.88387    285.64354   -116.79076    39359.762 
  253100    301.98833   -1509.9108    470.59342    315.43823   -385.60539    39359.762 
  253200    297.70041   -1529.2358    456.89411    263.17787   -867.85422    39359.762 
  253300    299.11956   -1565.3126    465.52074    242.09412    -908.0427    39359.762 
  253400    295.29265   -1547.2823     458.0419    235.47761    -255.6176    39359.762 
  253500     296.5545   -1539.3507     472.4449    263.47305    85.984007    39359.762 
  253600    295.88921   -1515.9966    480.95017    292.34782   -387.48361    39359.762 
  253700    298.76616   -1540.9169    464.39131      263.775    354.77744    39359.762 
  253800    305.18253   -1529.5744    474.89199    314.40277    547.16663    39359.762 
  253900    299.64108   -1510.1152    465.20282    299.31321     448.1382    39359.762 
  254000     294.5496   -1481.5993    490.06198    329.84731    -197.8386    39359.762 
  254100    294.24001   -1491.2088    448.35052    277.13748    365.56612    39359.762 
  254200    312.41667   -1514.3482    461.67653     348.8667    325.24562    39359.762 
  254300      297.042   -1489.0821    505.32726    348.81101    532.31368    39359.762 
  254400    298.48295   -1528.9309    483.71036     293.8096    273.10368    39359.762 
  254500    301.69266   -1521.4462    462.11169    294.09468   -106.59611    39359.762 
  254600    298.47618   -1537.3044    452.15165    253.84699    -142.5716    39359.762 
  254700    295.59788   -1515.3077      484.352    295.13159   -262.00955    39359.762 
  254800    289.88626   -1519.6591    474.97354    255.77874    2.4266262    39359.762 
  254900    299.10017   -1555.5422    466.15435    252.41116   -152.25904    39359.762 
  255000    291.40206   -1558.6735    495.70154    244.29238    72.355897    39359.762 
  255100    290.16184   -1545.4242    468.72293    224.99932    78.097974    39359.762 
  255200    305.18964   -1553.6853    484.67304    300.10477    293.80134    39359.762 
  255300    297.72587    -1569.325     485.7385    252.04724    761.13867    39359.762 
  255400    309.58256   -1578.6274    481.32095    291.51778     972.3097    39359.762 
  255500    306.86603   -1549.5349    458.99693    286.09957    747.82859    39359.762 
  255600    300.32092   -1563.8623    459.17847    242.59162    297.07542    39359.762 
  255700    303.41298    -1550.066    471.47887    282.55963    373.36747    39359.762 
  255800    293.94555   -1552.6853    465.48451    231.47393    84.210126    39359.762 
  255900    307.28414   -1538.0166    479.29089    319.78761    12.234676    39359.762 
  256000    309.23813    -1568.509       476.18    294.95014   -137.36412    39359.762 
  256100    287.91467   -1556.2105    435.83801    171.24705   -621.20627    39359.762 
  256200    293.12888   -1554.5812    469.23172    229.66163   -348.48768    39359.762 
  256300    312.64883   -1542.7842    464.02712    323.82283    213.44851    39359.762 
  256400    296.85458   -1569.6445    459.53503    221.61557     22.10017    39359.762 
  256500    299.99315   -1530.3541    486.25509    301.70598    347.15073    39359.762 
  256600    297.11668   -1551.6601     461.5745    242.81523   -254.36287    39359.762 
  256700     301.9027   -1544.3754    472.56355    282.55964   -291.49782    39359.762 
  256800    293.96094   -1543.5558     468.9639    244.15185   -531.03058    39359.762 
  256900    299.68854   -1526.2454    477.61284    295.80593   -570.18615    39359.762 
  257000    303.67788   -1536.2362    465.65722    291.75619      -112.51    39359.762 
  257100    298.20079   -1540.7923    461.25344    258.22542   -688.50633    39359.762 
  257200    305.45923   -1569.4213    482.68981    283.59502   -932.06005    39359.762 
  257300    288.93199   -1583.1751    470.56428    183.57251   -724.70602    39359.762 
  257400     301.0099   -1576.9944    452.15289    225.52477   -740.53541    39359.762 
  257500    292.94382   -1540.9158    472.36743    245.63254    11.027439    39359.762 
  257600    307.93621   -1564.8092     466.1522    282.78156   -156.13906    39359.762 
  257700    304.17076   -1511.2425    492.53126    345.83499    853.90364    39359.762 
  257800    291.58404   -1521.0835    450.59524    237.59244    109.88719    39359.762 
  257900    304.08517   -1467.9047    447.53247    343.79007   -108.15535    39359.762 
  258000    300.73387   -1501.0158    462.55309    310.66525    139.88845    39359.762 
  258100    296.08064   -1513.3027    464.78689    279.73719   -114.59373    39359.762 
  258200    306.13699   -1527.0303    471.03035    317.36708    126.26269    39359.762 
  258300     298.5046   -1549.9149    508.82626    298.03857     850.8005    39359.762 
  258400    307.26125   -1577.8409    476.42805     276.9977    571.90478    39359.762 
  258500    292.63301   -1524.8459    477.77535    265.71595   -12.186038    39359.762 
  258600    296.13671   -1537.6666    474.93076     265.7687    488.71456    39359.762 
  258700    299.04812   -1525.4553    492.70341    308.81356    221.67562    39359.762 
  258800     287.0227   -1532.9519    483.85979    238.52591    63.857721    39359.762 
  258900    305.24979   -1509.1531    465.07794    325.31179    446.75761    39359.762 
  259000    300.38158    -1492.293    504.88259    360.13717    309.42946    39359.762 
  259100    297.21276   -1488.4515    491.13578    336.01607   -505.93705    39359.762 
  259200    308.07492   -1523.8296    472.34443    330.57562    158.11989    39359.762 
  259300    302.99898   -1533.2304    468.07982    294.13898   -55.162307    39359.762 
  259400    307.53553   -1522.6011    496.05495     353.0949    -129.3521    39359.762 
  259500    299.02298   -1564.9637    460.55378    237.04274    28.891484    39359.762 
  259600    307.88038   -1520.9086    505.25526    365.53468    257.96734    39359.762 
  259700    301.10668   -1584.4473    469.63526    235.98839   -354.00922    39359.762 
  259800    298.17955   -1610.3064    458.01988    185.38248   -546.88167    39359.762 
  259900    298.65777   -1572.9944    481.38299    248.20289   -454.00346    39359.762 
  260000    295.85857    -1568.497    476.64161    235.40137   -42.844815    39359.762 
  260100    303.67003   -1565.7672    485.89237    282.42508   -48.855394    39359.762 
  260200    292.63484   -1544.5864    471.03002    239.23833    24.508515    39359.762 
  260300    289.36376   -1574.3658     480.4517    204.20615    230.08811    39359.762 
  260400    300.48234   -1551.8292     487.4714    283.64176    90.516955    39359.762 
  260500    305.14942   -1546.4704    460.93169     283.3979    190.05156    39359.762 
  260600    303.07372   -1527.7718    490.58883    322.44184   -5.7334558    39359.762 
  260700    298.58367   -1489.0883    484.24333    334.63696      38.4262    39359.762 
  260800    297.70847   -1508.0798    495.90493    323.38081    104.91287    39359.762 
  260900    304.40777   -1560.5478    468.88241    273.94411    217.07494    39359.762 
  261000    295.07723   -1591.6341    479.34884    211.46635    21.795377    39359.762 
  261100    307.91954   -1556.9447    486.83598    311.25503    673.42804    39359.762 
  261200    293.97305    -1548.183    487.02875    257.64386    175.51341    39359.762 
  261300    305.93464   -1545.5588    468.99942    295.89982   -34.672617    39359.762 
  261400    293.33619   -1531.9344    481.20048    265.20717   -288.76723    39359.762 
  261500     290.6296   -1598.4255    476.66446    182.03796    392.22795    39359.762 
  261600    305.14527   -1591.1925    476.08119    253.80672    444.43409    39359.762 
  261700    292.93656   -1574.0174     472.2436    212.37446    178.81238    39359.762 
  261800     311.4577    -1553.483    491.48715    335.24056    433.66106    39359.762 
  261900     303.9349    -1515.136    495.35398    343.70614     627.1362    39359.762 
  262000    305.58112    -1581.663    488.26851    277.47883    164.75036    39359.762 
  262100     287.4198   -1576.1433    469.14984      182.406    531.18487    39359.762 
  262200    302.15172   -1548.2693    486.93136    294.15071    468.24557    39359.762 
  262300    309.26538   -1534.1109    470.64614    323.93659    107.75101    39359.762 
  262400    295.78037    -1529.518     495.3412    292.72921    286.92681    39359.762 
  262500    304.64021    -1533.405    481.43454    314.68175    438.15854    39359.762 
  262600    305.49051     -1514.62    481.25689    337.10374    299.80476    39359.762 
  262700    289.46013   -1503.7784    495.76944    290.54366    98.397935    39359.762 
  262800    304.42726   -1521.7856    484.11509    328.02648   -38.962304    39359.762 
  262900    308.60719   -1546.3755       466.93    305.00313    541.99351    39359.762 
  263000    304.55243   -1529.4754    489.03963     325.8227    25.043534    39359.762 
  263100    306.83878   -1556.5313     513.7871    333.77107   -163.48136    39359.762 
  263200    298.78464   -1573.5488    482.11993    248.95459   -284.48658    39359.762 
  263300    296.81946   -1541.8398    435.05647    224.78415   -641.91945    39359.762 
  263400    311.31171   -1522.9023    512.98119    386.66035   -564.20583    39359.762 
  263500    300.32822   -1527.6375     486.4713    306.14198   -465.22221    39359.762 
  263600    296.12479   -1547.2448    479.46532    260.67155    -303.5817    39359.762 
  263700    298.96369   -1556.8602    467.40013    251.72667    35.970033    39359.762 
  263800    304.94175   -1530.5438    504.79329    342.25454    -402.2012    39359.762 
  263900     306.0379   -1519.3075    497.98215    351.59715   -432.18329    39359.762 
  264000    295.23197   -1501.3987    475.42054     298.4676   -566.87999    39359.762 
  264100    294.63592    -1501.942    510.31479    330.14464   -523.09752    39359.762 
  264200    304.89227   -1523.5379    469.42883    313.67393   -363.06927    39359.762 
  264300     289.6561   -1497.6094    494.91509    296.73743   -237.44761    39359.762 
  264400    300.78063   -1481.8986    486.98576    354.42485   -756.76238    39359.762 
  264500    297.94105    -1487.141    493.64645     343.1045   -835.72619    39359.762 
  264600     300.0218   -1448.5108    496.26452    393.68721   -485.86359    39359.762 
  264700    295.00143   -1465.1553    480.06482    338.32106   -552.86848    39359.762 
  264800    299.49955   -1467.5669    505.49338    381.51719   -561.86798    39359.762 
  264900    292.83649    -1501.725    474.24839    286.22277   -150.66412    39359.762 
  265000    307.12591   -1505.7401    504.13467    376.19798    -434.0833    39359.762 
  265100    292.24884   -1467.2703    484.91205    328.70488   -434.07022    39359.762 
  265200    294.44582   -1462.0809    507.62508    366.46316    -846.8506    39359.762 
  265300    300.59267   -1459.6807    500.10627    388.92011   -858.35655    39359.762 
  265400    295.57509   -1446.4044    487.07514    366.65579   -627.36155    39359.762 
  265500    295.40658   -1478.3726    500.01544     346.8719   -156.41572    39359.762 
  265600    298.24562   -1461.0561    490.89717    367.80645   -33.885063    39359.762 
  265700    296.35505   -1493.9017    506.18211    341.76452    245.72094    39359.762 
  265800    294.40127   -1480.5358    487.11777    327.30108   -229.48729    39359.762 
  265900    300.76739   -1486.5532    512.72358    375.44868   -413.95019    39359.762 
  266000    294.50582   -1472.0644    488.76502    337.88887   -254.22087    39359.762 
  266100    301.30789   -1498.0063    486.53307    340.22983   -149.08878    39359.762 
  266200    296.73381   -1503.9211    535.66497     362.9271   -19.163636    39359.762 
  266300    290.61236   -1521.3124    500.59303    283.00232    9.5256498    39359.762 
  266400    300.19209   -1486.9729    497.10284    356.82738    120.23328    39359.762 
  266500    288.17515   -1501.1094    534.98296     326.6616   -119.57375    39359.762 
  266600    306.81382   -1555.6242    490.06314    310.84232    55.346726    39359.762 
  266700    302.96748   -1534.1349    488.86415    313.87745   -163.06675    39359.762 
  266800    298.87069   -1510.0017    512.13931    342.90715   -250.69044    39359.762 
  266900    299.43086   -1544.6122    483.19969    281.87004   -152.49597    39359.762 
  267000    303.16369   -1522.8889    477.00148    314.14097    61.898759    39359.762 
  267100    297.84126   -1576.0086     472.3594    232.50216   -112.58497    39359.762 
  267200    303.96221   -1533.8373    509.06327    338.83665    48.939572    39359.762 
  267300    295.36257   -1546.2912    526.72104    305.46155    2.1678223    39359.762 
  267400    290.83235   -1564.5213    505.50491    245.69218    516.86795    39359.762 
  267500    308.23543   -1583.3531    504.34743    303.77514    48.187776    39359.762 
  267600    296.34444   -1562.5628    498.82401    265.69766   -260.31404    39359.762 
  267700    306.45561   -1555.2998    496.04635    315.54288   -225.84814    39359.762 
  267800    295.96322   -1535.2388    520.65183    313.13926   -483.15881    39359.762 
  267900    299.10665   -1598.6341    501.15253    244.34645   -655.48429    39359.762 
  268000    292.36591   -1553.4178    496.78451    254.95498   -983.63809    39359.762 
  268100    303.88402   -1519.8092    479.52389    322.97462   -691.51771    39359.762 
  268200    298.39275   -1509.9749    528.68914    357.33961   -207.65092    39359.762 
  268300    300.84532   -1511.9314    550.44402    388.14063    87.289256    39359.762 
  268400    312.62848   -1518.5775      485.666    369.57712    6.6667429    39359.762 
  268500    302.29213   -1555.3651    493.74216    294.49555    -278.1406    39359.762 
  268600    308.49922   -1554.9544    484.35675    313.36666   -92.351012    39359.762 
  268700     287.6507   -1510.0686     497.2848    277.65151    284.10579    39359.762 
  268800     299.0651   -1497.7033     514.1907    358.12906     209.1404    39359.762 
  268900    291.73677   -1532.6378    488.73679    264.86488   -135.20317    39359.762 
  269000    295.70106   -1502.9047    510.72305    334.36857   -405.49144    39359.762 
  269100    291.16139   -1541.6618    506.52827     271.0512   -399.35817    39359.762 
  269200    292.83874    -1536.268    513.15309    290.59457   -306.37389    39359.762 
  269300    305.05847   -1524.0371    502.34153    346.83308   -451.71883    39359.762 
  269400    314.50737   -1538.0158    492.98853     365.8902   -363.68828    39359.762 
  269500    306.79883   -1545.3353    486.39112    317.39191    108.68922    39359.762 
  269600    302.05804   -1548.0421    489.90382    296.93006   -129.65944    39359.762 
  269700     294.1755   -1565.9632    458.09944    211.84259   -85.349559    39359.762 
  269800    297.56793   -1565.7818    491.19812    260.34151    490.41894    39359.762 
  269900    299.99253   -1591.3384    516.95485    271.41869   -34.538483    39359.762 
  270000    300.10626   -1587.7917    487.83326    246.35398    327.08802    39359.762 
  270100    303.63218   -1599.9144    488.99395    251.20969    24.240857    39359.762 
  270200    289.50804   -1554.6012    502.01622    246.18252    238.18772    39359.762 
  270300    303.78986   -1570.8773    480.73227    272.69244   -141.73287    39359.762 
  270400    309.01731   -1606.6557    480.07693    259.70975    177.24161    39359.762 
  270500    293.39571   -1546.7591    506.68904    276.13807   -151.41932    39359.762 
  270600     298.5639   -1589.4407    533.65153    283.60406    83.117558    39359.762 
  270700    287.47456    -1592.381    485.22584    182.48997    269.88457    39359.762 
  270800    305.93677   -1566.9976     484.4059    289.87711    420.99848    39359.762 
  270900    299.60075   -1556.4409     507.3705    294.97422   -78.754663    39359.762 
  271000    298.72455   -1570.3832    492.55029    262.28097   -304.60123    39359.762 
  271100    301.91401   -1569.7763    498.13913    282.78507   -287.10163    39359.762 
  271200    301.29594   -1521.1602    494.53446    325.02375   -515.83939    39359.762 
  271300    310.41809   -1549.1152      499.683    343.14036   -725.04405    39359.762 
  271400    295.86513   -1525.8543     490.8519    292.28384   -483.70404    39359.762 
  271500    310.49446   -1515.9743    490.18254    367.12333   -300.71961    39359.762 
  271600    292.03847    -1555.785    510.32643    264.66081    402.23927    39359.762 
  271700    301.73332   -1580.1245    494.77306    268.26015    56.401628    39359.762 
  271800    290.79955   -1556.8818    509.43728    257.11692    298.59412    39359.762 
  271900    295.27746   -1484.3231    487.41507    327.74184    -318.3325    39359.762 
  272000    303.40762   -1543.7181    483.48031     300.8849   -158.30018    39359.762 
  272100    306.98281   -1551.2249    508.97784    334.91434   -425.61132    39359.762 
  272200    303.82571   -1565.9313    506.57891    303.64589   -113.87017    39359.762 
  272300    293.80947   -1533.7817    486.92381     271.2064   -661.96683    39359.762 
  272400    303.37159   -1563.9619    496.64805    293.64728   -476.04713    39359.762 
  272500    298.31236   -1583.2606     493.9007    248.90485    689.31086    39359.762 
  272600    292.04342   -1595.2912    480.59736    195.44772    489.32722    39359.762 
  272700    296.15406   -1585.6822    505.98841    248.88856     403.7217    39359.762 
  272800    301.85145   -1576.0541    491.27567    269.36311    311.70915    39359.762 
  272900    297.42861   -1587.0355    503.85833    251.12295    714.99094    39359.762 
  273000    303.17736   -1612.4894    513.63631    261.23667    991.68733    39359.762 
  273100    295.68275    -1674.523    486.16858    138.11358    390.79148    39359.762 
  273200    300.63616   -1620.9648    490.29556    218.02037    145.65103    39359.762 
  273300    302.44371   -1579.2105     479.1479    256.73589     207.3156    39359.762 
  273400    299.70935   -1536.9472    491.89407     299.4787   -195.46132    39359.762 
  273500    308.69597   -1530.1267    492.88759    347.60775   -692.53272    39359.762 
  273600    297.10221   -1552.3932    475.94474    256.38741   -771.83116    39359.762 
  273700    302.71738   -1581.2945    474.45845    251.19016   -994.93827    39359.762 
  273800    301.08265   -1567.1094    499.35651    282.93975   -375.02031    39359.762 
  273900    307.98518   -1551.7071     488.4523    318.40342   -154.28889    39359.762 
  274000      304.233   -1558.8949    488.88979    294.82033     342.7723    39359.762 
  274100    306.35369   -1547.1015    486.12021    313.35786    469.23784    39359.762 
  274200    305.37132   -1556.9371    489.87863    302.87367    594.76628    39359.762 
  274300    317.73096   -1536.9211    519.61284     408.0707    446.31432    39359.762 
  274400     306.9785   -1542.7921    502.41867    336.76871   -22.767296    39359.762 
  274500    297.56288   -1499.2325    514.21687    349.88695    359.21843    39359.762 
  274600    301.70918   -1545.3835    496.49661    304.61644    490.43781    39359.762 
  274700     310.2218    -1510.981     483.7522    364.46316    529.98962    39359.762 
  274800    296.58244    -1534.092    513.09376    309.50591    502.93453    39359.762 
  274900     299.0221   -1516.9406    496.32894     320.8371    221.51383    39359.762 
  275000    307.64836   -1513.9842    472.77087    338.93385    64.995823    39359.762 
  275100    308.51673   -1506.3689    522.84116    400.51505     717.5907    39359.762 
  275200    305.94758   -1537.5134     486.1663    321.17015     523.1693    39359.762 
  275300     293.0948   -1564.4566    494.86064    245.26221    363.41235    39359.762 
  275400    302.88061   -1543.8393    496.99735    311.91657    297.97476    39359.762 
  275500    308.00838   -1570.7681    492.76774    303.76188   -9.8192717    39359.762 
  275600    304.25672   -1501.6974    504.17332    367.40777   -296.35154    39359.762 
  275700    296.38581   -1570.4772    470.92719    230.07203    112.63046    39359.762 
  275800    302.62449   -1530.1836    514.34463    341.77052   -26.881669    39359.762 
  275900     298.1562   -1513.8592    479.35946    303.06446    93.574412    39359.762 
  276000    300.37827    -1542.478    503.70743    308.76213    110.24441    39359.762 
  276100    299.90831   -1528.0265    483.67477    301.07264    599.45666    39359.762 
  276200    307.13466    -1527.479    508.15531    358.51901   -200.12808    39359.762 
  276300    295.28125   -1518.7459    511.41132    317.33229    19.983974    39359.762 
  276400    299.07365   -1502.6991    477.36669    316.34767   -31.345627    39359.762 
  276500    305.48817   -1523.0821    497.73663    345.11085   -217.11064    39359.762 
  276600    305.07068   -1557.6452    492.77754    303.71577   -137.72217    39359.762 
  276700    304.95604   -1535.2245     486.8057    319.65034    156.10813    39359.762 
  276800    305.60466    -1513.406    488.43929    346.01217    247.17157    39359.762 
  276900    291.47651   -1537.4479    501.24012     271.3906   -336.75412    39359.762 
  277000     304.4054    -1514.644    491.20775    342.16262    98.407137    39359.762 
  277100    299.77569   -1480.0589    531.22389     395.9945    117.41763    39359.762 
  277200    295.77867   -1528.0783    500.60927    299.42937     448.6916    39359.762 
  277300    294.71307   -1535.0874    516.06109    303.09164   -61.228419    39359.762 
  277400    309.26339   -1562.1281    500.13698    325.40129    86.974596    39359.762 
  277500     301.5547   -1588.0406    491.21189    255.98157    124.08428    39359.762 
  277600    296.37665   -1560.7383    502.50896    271.35165   -242.42244    39359.762 
  277700    302.92792   -1516.8919    517.67578    359.75464   -637.41626    39359.762 
  277800    298.89117   -1527.7515    483.25133    296.36122   -634.57176    39359.762 
  277900    291.82021   -1513.3044    507.22525    303.06107   -174.76285    39359.762 
  278000    297.77747   -1563.4844    489.08534    261.46619   -249.77335    39359.762 
  278100    303.67106   -1516.2189    500.59733    346.68301   -412.12422    39359.762 
  278200    294.80568   -1533.7719    500.24947    289.01095   -134.64276    39359.762 
  278300    302.94163   -1539.0716    480.46318    300.42386    146.92641    39359.762 
  278400     301.7449   -1520.8144    526.18659    359.03573   -247.21173    39359.762 
  278500    311.68843   -1518.1727    478.18177    358.28046   -116.73658    39359.762 
  278600    302.62637    -1540.087    511.36671    328.89769   -197.48311    39359.762 
  278700    284.25116   -1538.2673     488.5903    225.50754   -246.28298    39359.762 
  278800    297.44005   -1549.9765    486.58785    270.96289   -701.60168    39359.762 
  278900    300.37976   -1549.4936    491.96595    290.01171    -605.1625    39359.762 
  279000    299.07016   -1509.6534    518.42782    350.43878   -321.11116    39359.762 
  279100     301.2593   -1540.0953    472.88646    284.27628   -38.810883    39359.762 
  279200     304.8814   -1567.7456    506.60295     306.5916   -237.11107    39359.762 
  279300    300.07552   -1505.7546    489.27221    329.69215    123.35426    39359.762 
  279400    298.78454   -1511.1364    506.74025    335.98692   -40.443197    39359.762 
  279500    303.36356   -1520.2882    472.86361    313.50048   -339.76604    39359.762 
  279600    298.16552   -1549.4261     501.7805    289.96046   -230.05846    39359.762 
  279700    300.68426   -1535.0163    479.94014    293.82926    170.54841    39359.762 
  279800    303.27769   -1552.5941    511.65975    319.60551   -791.43317    39359.762 
  279900    300.19767   -1512.6028    487.71427    321.83403   -421.56845    39359.762 
  280000    296.28843    -1570.042    490.84623    249.98944   -969.10827    39359.762 
  280100    306.60843   -1549.0953    496.53072    322.91739   -523.66771    39359.762 
  280200    300.99754   -1541.4481    492.53137    301.39404   -324.81218    39359.762 
  280300    307.95984   -1517.8516     494.0068    357.69974    61.913976    39359.762 
  280400    310.00104   -1558.8475    485.56603    317.42016    329.62925    39359.762 
  280500    296.04953   -1534.9954    470.22086    263.33896    -605.7574    39359.762 
  280600    304.60264   -1537.2548    492.09173    321.32068   -307.65368    39359.762 
  280700    294.16129   -1489.6272    490.21951    320.23485   -386.62402    39359.762 
  280800    306.85806   -1460.3966    479.88397    396.08914   -309.99699    39359.762 
  280900    299.88711   -1458.1275    520.66017    407.86194    130.65666    39359.762 
  281000     297.6946    -1491.731     486.8487    330.61116   -239.57541    39359.762 
  281100    289.04011   -1503.5126    486.72762    279.88341   -352.72661    39359.762 
  281200    301.16912   -1511.1292    505.99619    345.94756    421.20647    39359.762 
  281300    294.08118   -1503.4208    458.26137    274.12382   -131.75238    39359.762 
  281400    298.34387   -1504.8704    502.31876    335.85454    123.16082    39359.762 
  281500    308.81036     -1498.42    492.51962    379.45967    323.37718    39359.762 
  281600    316.41799   -1534.2347    491.04615    376.30021    191.97932    39359.762 
  281700    298.91917   -1529.4299    475.33841    286.89553    52.424365    39359.762 
  281800    314.34382   -1490.1708    500.43571    420.44868    125.17181    39359.762 
  281900    308.12795   -1535.9442    468.54597    314.90049    425.86526    39359.762 
  282000    308.73846   -1514.6755    490.87481    361.23688   -96.140681    39359.762 
  282100    292.34879   -1466.4596     482.7832    327.83509   -789.66666    39359.762 
  282200    302.22705   -1497.6767    500.78626    358.93611   -750.62193    39359.762 
  282300    301.22574   -1497.6082    481.90159    335.62797   -30.355223    39359.762 
  282400    289.36459   -1493.5832    502.48183    307.02259    73.357513    39359.762 
  282500    308.13809   -1535.6537    495.15957    341.85007    511.94968    39359.762 
  282600    300.42739    -1512.171    477.66867    313.25075    248.06268    39359.762 
  282700    293.59748   -1545.7739    508.77871    280.11806   -155.56793    39359.762 
  282800    312.95519   -1547.6603     475.5511    331.84512    479.29507    39359.762 
  282900    306.72903   -1573.4855    481.75437    284.29187    288.52579    39359.762 
  283000    307.36099   -1532.2075    491.88595     338.5365    225.17084    39359.762 
  283100    297.61343   -1580.6287     470.4828    224.98339   -49.837389    39359.762 
  283200    308.47795   -1544.1659    481.51002    321.21294    20.663974    39359.762 
  283300    296.56324   -1522.0312    508.77682    317.16361   -502.81869    39359.762 
  283400    303.90786   -1528.9296    496.78201    331.21932   -287.40145    39359.762 
  283500    304.55284   -1527.5624    483.24378    321.94167   -353.50204    39359.762 
  283600    299.01891   -1495.6474    489.87322    335.66027    -543.0094    39359.762 
  283700    305.24921   -1540.5753    492.38548    321.19452   -438.59533    39359.762 
  283800    290.06581   -1505.9561    496.27215    291.58578   -231.88638    39359.762 
  283900    297.53424   -1542.5782    494.07574    286.27157   -398.25844    39359.762 
  284000    292.45281   -1514.2535    515.01889    312.74353   -281.59796    39359.762 
  284100    299.34934   -1498.1049    497.61234    342.42423    -527.0011    39359.762 
  284200    304.21832   -1505.7753    493.96392    352.94826   -655.66656    39359.762 
  284300    297.50441   -1510.0562    466.23597    290.82005   -1161.8662    39359.762 
  284400    302.04643   -1508.1218    497.35614    344.25056   -604.83077    39359.762 
  284500    287.28559   -1541.4481    495.40241    242.75167   -627.83593    39359.762 
  284600    298.78693   -1551.3118    509.83182    298.91378   -186.98233    39359.762 
  284700    296.80297   -1562.5027    507.99879    276.98959    453.53722    39359.762 
  284800      293.856   -1522.3827    503.90429    299.79464    568.84118    39359.762 
  284900    300.22505   -1597.5176    494.29148    243.61916    178.88465    39359.762 
  285000    293.68878   -1585.8383    479.55959    211.24408    55.548841    39359.762 
  285100    305.51203   -1627.9978    478.56734    221.13291    447.89979    39359.762 
  285200    299.60318   -1582.6606    488.06194    249.45691    153.98469    39359.762 
  285300    303.89304   -1576.6102    478.10157    264.79177    46.941494    39359.762 
  285400    305.88263    -1576.448     492.6126    288.39048    164.08005    39359.762 
  285500    301.49489   -1565.7249    493.88448    280.70161    49.715173    39359.762 
  285600    306.86948   -1558.0786    492.91124    311.48566   -160.30955    39359.762 
  285700      306.553   -1586.7045    494.43814    282.96694   -717.17663    39359.762 
  285800     304.9815   -1568.8774    482.15726    281.46324   -298.56126    39359.762 
  285900    295.09244   -1604.3944    503.61142    223.03682   -692.13182    39359.762 
  286000     300.1429   -1559.8224    510.38769    297.04216   -309.16276    39359.762 
  286100    304.15109   -1556.0287    485.54175    293.97108   -216.05519    39359.762 
  286200    299.53264   -1538.0768    482.33123    287.99358   -107.29489    39359.762 
  286300    297.62919   -1519.2442    515.36102     331.3168   -565.05065    39359.762 
  286400    306.99697   -1563.9781    478.61121    291.85805    309.93392    39359.762 
  286500    299.74608   -1580.1196    488.60467    253.18167    448.16768    39359.762 
  286600    296.91886   -1568.7789    484.59493    247.82941    227.86903    39359.762 
  286700    288.28052   -1527.4332    502.99747    268.82502    101.39933    39359.762 
  286800    296.91172   -1542.9639    489.60593    278.62338    547.22548    39359.762 
  286900    297.80025   -1528.9174    507.84316    314.89321   -313.02956    39359.762 
  287000    300.05123   -1576.7677    500.45975    269.75756   -398.31958    39359.762 
  287100    311.07646   -1520.3327    472.20981    347.40312   -190.64361    39359.762 
  287200    293.24504   -1524.3917    524.37097    315.51142    29.157745    39359.762 
  287300    306.55148   -1530.4532    477.68285    322.45608     293.7986    39359.762 
  287400     296.8131   -1531.4371    490.72425    290.82611    2.8844502    39359.762 
  287500    291.44241   -1533.3519    495.96457    270.05803    294.85813    39359.762 
  287600    296.90301   -1527.1778    484.22804    288.99254    263.19551    39359.762 
  287700    291.20021   -1492.0204    522.67778    337.01626    323.73891    39359.762 
  287800    308.37928   -1463.1521    496.41573    416.68976    231.48857    39359.762 
  287900    307.53752   -1503.4737    517.85322    394.02944   -26.106357    39359.762 
  288000    298.55608   -1498.3801    525.72425    366.70228    343.47981    39359.762 
  288100    293.27987   -1494.6195    504.26368     325.3326    694.88947    39359.762 
  288200    274.59537   -1505.9626    505.55113    231.45607     266.6654    39359.762 
  288300    306.91522   -1485.7723    519.35542    410.44133    220.36457    39359.762 
  288400    290.93272   -1502.7911    484.74138    287.10918   -227.42658    39359.762 
  288500    298.03496   -1496.3277    483.24557    323.93821    327.15221    39359.762 
  288600    310.98598   -1513.2498    511.16569    393.03604    -109.0245    39359.762 
  288700    300.41752   -1517.5967    480.68718    310.79922    -282.9328    39359.762 
  288800    303.88037   -1501.4061    495.56562    357.40307    131.54431    39359.762 
  288900    301.57654   -1548.7842    486.82366    290.94777   -140.62716    39359.762 
  289000    309.91062   -1553.9215    484.62476    320.99926    307.45488    39359.762 
  289100    306.50121   -1534.9894     489.9674    329.97892   -76.811554    39359.762 
  289200    301.43471   -1534.5775    491.05386    308.74843    -26.19076    39359.762 
  289300    292.21269   -1553.0055    483.07557    240.97098    379.64559    39359.762 
  289400     311.0599   -1575.9652    478.68866     298.1752    85.636651    39359.762 
  289500    291.87383   -1566.1483    485.27199    228.50443     -441.225    39359.762 
  289600     299.7631   -1519.3344    487.90642    313.34497    9.2118227    39359.762 
  289700    314.63957   -1587.7715    486.93922    310.67827    83.010738    39359.762 
  289800    296.26399   -1543.0918    459.49164     245.4754    161.24954    39359.762 
  289900    300.43377   -1507.2723    522.69753    363.20689    118.55505    39359.762 
  290000    303.15375   -1503.9597    472.59639     328.6205    174.98581    39359.762 
  290100    306.86779   -1500.1194    478.88136    355.40738    319.68836    39359.762 
  290200    299.30626   -1513.4283    514.38721     343.6824    8.5536592    39359.762 
  290300    303.76818   -1532.3485    478.00019    308.39191    75.509888    39359.762 
  290400    293.93938   -1513.3496    485.14142    290.43892     114.8131    39359.762 
  290500    306.26697   -1482.1676    519.04324    410.82576    203.19078    39359.762 
  290600    296.90613   -1487.1837    498.69118    343.46369   -337.77763    39359.762 
  290700     295.6231   -1482.7129    489.74875    333.23624    440.37973    39359.762 
  290800     304.3678   -1494.0312    498.48165    369.88072    449.29315    39359.762 
  290900    291.13128   -1452.3197    521.79545    375.52531    339.37434    39359.762 
  291000    293.24235   -1490.4511    490.33868    315.40776    455.38905    39359.762 
  291100    303.99196   -1506.6398    508.45438    365.55871    774.42735    39359.762 
  291200    287.77133   -1537.3626    475.07818    228.69204    465.18362    39359.762 
  291300    296.49795   -1521.4768    498.37042    307.01878    828.35018    39359.762 
  291400    300.19538   -1513.1302    469.90431    303.48634    914.20545    39359.762 
  291500    293.51441   -1579.1783    494.50288     232.0652    1163.9027    39359.762 
  291600    299.25666   -1515.5934    481.92212    308.82972    1330.6808    39359.762 
  291700    290.21455   -1504.3768    471.43404    268.99433     465.8227    39359.762 
  291800    295.77033   -1554.7245    484.78209    256.91854    356.91422    39359.762 
  291900    302.22326    -1484.871    477.72768    348.66624   -332.47226    39359.762 
  292000    299.20969   -1462.1073    472.62188    352.80485   -121.15081    39359.762 
  292100     301.2542   -1454.3683     481.9026    378.99655    -86.88621    39359.762 
  292200    303.57828   -1453.3075    475.83407    384.41484   -355.19002    39359.762 
  292300      298.764   -1461.8674    483.22988    361.65342    230.23616    39359.762 
  292400    292.82987   -1493.9134    477.68325    297.43949    6.6875016    39359.762 
  292500     297.3773   -1498.3502    515.39046     351.1102    638.31497    39359.762 
  292600    294.17745   -1501.3661    462.61788    280.96684    226.48213    39359.762 
  292700    313.19295   -1507.6567    482.72495    380.08909    214.97361    39359.762 
  292800    291.57945   -1533.6493    471.96099    246.37182    288.20294    39359.762 
  292900    298.37114   -1563.5438    468.49104    243.47572    220.10755    39359.762 
  293000    301.74608   -1546.8437    483.91783    290.74298    -100.1984    39359.762 
  293100     291.8483    -1544.176    458.05388    223.14409   -421.67736    39359.762 
  293200    299.37506   -1502.2562    503.24333    344.01931     79.12412    39359.762 
  293300    294.85175   -1554.0659    484.25806    252.93228    188.50295    39359.762 
  293400    302.79119   -1515.2455    485.01161    328.12347    325.23034    39359.762 
  293500    306.15747   -1553.8611    481.55886    301.15665   -15.573923    39359.762 
  293600    304.38684   -1508.9479    471.37331    327.94109   -367.91748    39359.762 
  293700    303.78532   -1552.2002    453.01525    263.63214   -148.45361    39359.762 
  293800    298.23704   -1568.5798     460.7399    230.08695   -195.71676    39359.762 
  293900    295.53828   -1552.2821    475.53735    249.07523   -253.52989    39359.762 
  294000    324.06689   -1591.2566    500.30471    362.85081    74.490362    39359.762 
  294100    305.53303   -1565.9658    479.12102    283.81283    54.767421    39359.762 
  294200    295.11486   -1579.7965    482.06676     226.1907   -184.77043    39359.762 
  294300    297.53248   -1555.3396    482.40235    261.82893    384.84479    39359.762 
  294400    305.23762   -1570.4417    472.54231    271.43292    17.747771    39359.762 
  294500    296.09646   -1570.6041    456.49479    214.21472   -457.60358    39359.762 
  294600    299.52752   -1583.7963     464.1775    224.09734    111.69302    39359.762 
  294700    298.59367   -1579.9071    499.59192    259.21161    231.69712    39359.762 
  294800    291.97007   -1558.2136    483.24601    234.84492    128.32935    39359.762 
  294900    304.72868   -1595.2854    480.55111    252.31487    406.07629    39359.762 
  295000    300.69322   -1574.5645     483.3976     257.7787   -9.9086829    39359.762 
  295100    302.92612   -1534.2375    495.32165    320.04683   -14.415519    39359.762 
  295200    297.30974   -1541.1293    489.48278    282.12043   -10.964467    39359.762 
  295300    307.41387   -1579.2797    483.50622    283.32179   -304.00856    39359.762 
  295400    299.90639   -1565.8853    493.49462    273.02512    106.21094    39359.762 
  295500    301.84342   -1577.1285    476.23977    253.21685    313.30896    39359.762 
  295600    299.06887   -1517.8132    493.76064    317.60603     126.6126    39359.762 
  295700    295.14158   -1512.1942     494.2792    306.12529    159.20256    39359.762 
  295800    295.05531   -1500.0378    481.43112    305.04663   -516.48712    39359.762 
  295900    286.18711   -1480.6538    487.75138    290.96707   -603.79686    39359.762 
  296000    299.71949   -1478.9877    510.49251     376.0821   -91.696817    39359.762 
  296100    291.33187   -1538.2671    484.68183    253.36414   -126.90465    39359.762 
  296200    293.29875   -1550.7655    511.92908    276.93666   -207.47044    39359.762 
  296300     305.1501   -1573.0327    491.27407    287.18103    137.32687    39359.762 
  296400    302.05074   -1562.6187    467.72437    260.14131   -126.88476    39359.762 
  296500    300.70087   -1561.9278    499.61772    286.66979     145.2439    39359.762 
  296600    294.38837   -1529.0205    465.70986    257.35068    334.22288    39359.762 
  296700    299.66411    -1528.369    499.66408    315.62399    422.57117    39359.762 
  296800    308.86291    -1536.074    497.78642    347.30821    722.86802    39359.762 
  296900    298.22216   -1539.9328    480.76141    278.68869   -52.814152    39359.762 
  297000      293.973   -1564.2024     482.7052    237.30074    24.699683    39359.762 
  297100    299.07008   -1569.6846     470.8831    242.86257    278.35839    39359.762 
  297200    303.86091   -1524.0406    480.73368    319.84925    388.69649    39359.762 
  297300    287.52169   -1584.8638    455.48506    160.47784   -120.53826    39359.762 
  297400    303.01267   -1544.7852    489.18318    303.74889    680.41827    39359.762 
  297500    307.57933   -1571.2945    459.22469    267.76775    218.77355    39359.762 
  297600    302.51106   -1593.1335    481.81428    245.78144   -65.941622    39359.762 
  297700    304.85185   -1597.8006    480.30676    250.10791    301.51576    39359.762 
  297800    310.84218    -1597.084     472.2008    269.59185    936.16612    39359.762 
  297900    290.88832   -1563.9425    499.34445    240.36157    499.69441    39359.762 
  298000    304.18252   -1516.8714    513.04347    360.77109    1069.1828    39359.762 
  298100    297.07251   -1520.3569    497.01932    309.36509    309.89943    39359.762 
  298200    304.15642   -1536.4551    488.26195    316.28881    380.74748    39359.762 
  298300     296.4445   -1541.2925     495.7233    284.31609    181.71056    39359.762 
  298400    303.05052   -1503.8995     505.1682     360.7895   -494.57281    39359.762 
  298500    293.13619    -1578.597    462.82283    199.26968   -150.96687    39359.762 
  298600    298.77382   -1537.2976    490.86875    293.90613    171.68124    39359.762 
  298700    305.59011   -1530.8633    489.73601    329.78635   -69.829443    39359.762 
  298800    298.36881   -1560.2775    485.23083    263.47139    147.00595    39359.762 
  298900    300.53492   -1590.1581    488.78258    246.85991    577.47045    39359.762 
  299000    297.92292    -1578.346    487.70491    245.87664    794.60624    39359.762 
  299100    309.17628   -1576.6775    467.38134    277.70544    1043.9934    39359.762 
  299200    301.89418   -1580.6816     506.0347    279.68637    491.99526    39359.762 
  299300    294.22312   -1534.8592    470.12982    255.19056    66.723158    39359.762 
  299400    295.60572   -1556.8084    496.42874    265.74277    51.457631    39359.762 
  299500    293.26058   -1561.4044    483.14499    237.34247   -229.59934    39359.762 
  299600     302.9003   -1578.9874    490.23494     270.0944   -319.06118    39359.762 
  299700    300.54526   -1583.5046    474.76484    239.54213   -229.64548    39359.762 
  299800    303.94021   -1565.8307    473.78965    271.47093   -131.67581    39359.762 
  299900    291.22525   -1551.6035    491.94929    246.81691   -469.41038    39359.762 
  300000    300.44455   -1564.0185    477.23182    261.04335   -541.73882    39359.762 
  300100    303.87922   -1544.5942    495.36019    314.00438   -584.54097    39359.762 
  300200    298.37382   -1516.1847    488.85142    311.20722   -236.87483    39359.762 
  300300    304.13981   -1550.1761    460.78184    275.01314    98.518632    39359.762 
  300400    297.90062   -1524.5187    479.24241    291.14137    387.92367    39359.762 
  300500    311.97014   -1507.2103     512.7591    405.08403   -132.52659    39359.762 
  300600    299.03912   -1537.2281    495.56263    299.85968    60.052092    39359.762 
  300700    298.83803   -1540.0636    507.55088    308.11028     831.8555    39359.762 
  300800    300.57944   -1523.3603    487.50105    312.57596    182.31604    39359.762 
  300900     293.0402   -1515.4378    503.08012    302.25555    114.98518    39359.762 
  301000    303.02489   -1502.2405    501.97581    359.14111   -143.44763    39359.762 
  301100    294.56237   -1523.9899    462.43496    259.88692   -269.34949    39359.762 
  301200    295.56958   -1516.5294    513.96135    323.39232   -757.89363    39359.762 
  301300    301.31488   -1529.5221    482.01612    304.22848   -289.33492    39359.762 
  301400    308.45686    -1525.935    477.22218     335.0614    653.06015    39359.762 
  301500    297.99467   -1504.1671    481.94875    314.62121    483.90731    39359.762 
  301600    297.32832   -1541.4749    503.52815    295.90349    308.80776    39359.762 
  301700    299.80165   -1531.2632    473.10338    286.78607    296.89932    39359.762 
  301800    312.60159   -1567.7163    475.90298    310.55467    165.34619    39359.762 
  301900    296.67719   -1554.4861    461.57086    238.01403    129.84182    39359.762 
  302000    303.96214    -1586.094    494.61355    272.12991   -59.295709    39359.762 
  302100    298.73847   -1575.4189    451.82004    216.57753   -347.75959    39359.762 
  302200    296.86503   -1514.6272    484.22526    301.36997   -388.39821    39359.762 
  302300    295.40446   -1544.1748    482.14341    263.18822   -555.99212    39359.762 
  302400    296.92131   -1509.1593    514.89339    337.75846     -119.701    39359.762 
  302500    294.49143    -1514.004    474.97191    282.09161   -543.41434    39359.762 
  302600    292.76805   -1530.4389    461.76509    244.71855    -162.6262    39359.762 
  302700    292.44866   -1532.1038    500.12533    279.98106    -602.6758    39359.762 
  302800    305.68184   -1527.5557    493.31262    337.08204   -59.384778    39359.762 
  302900    312.63067   -1571.3597     503.9525    335.09118   -139.47932    39359.762 
  303000    293.10904   -1536.0794    498.75337    277.59604    190.20469    39359.762 
  303100    300.11551   -1565.3336    514.03114    295.05144    515.42625    39359.762 
  303200     287.2352   -1494.6405     470.5691    264.49995    130.32084    39359.762 
  303300    299.87958   -1497.9209    504.19685    351.57142    180.21551    39359.762 
  303400    299.91538   -1533.8133    494.85029    306.49314    74.109561    39359.762 
  303500    305.34589   -1497.6846    487.91931    360.05274   -57.265455    39359.762 
  303600    296.10878   -1543.2578    479.18215    264.30356   -92.859812    39359.762 
  303700    294.34987   -1545.0679    507.15072    282.57142   -9.4189028    39359.762 
  303800    297.02702   -1532.1957    466.21082     266.5137   -304.70771    39359.762 
  303900    296.38456   -1523.5669    504.11693     310.1665   -421.22173    39359.762 
  304000    291.50264   -1547.5623     486.4173    246.57054   -687.50864    39359.762 
  304100    305.84552   -1543.0538    473.67788    302.68352   -203.10451    39359.762 
  304200    298.44089   -1558.6962    484.20474    264.34992   -62.447566    39359.762 
  304300    304.65271   -1549.0478    501.64941    319.30996    427.08703    39359.762 
  304400    304.54244   -1576.3557    477.79897    267.65699   -452.01141    39359.762 
  304500    295.42963   -1493.2264    473.59755    305.70367    -276.2389    39359.762 
  304600     303.4945   -1553.6827    473.32145    281.15124   -272.90761    39359.762 
  304700    309.46068   -1549.6625    488.94028    327.55523    264.73939    39359.762 
  304800    298.59838   -1572.1662    495.84733    263.22902     402.3016    39359.762 
  304900    299.55478   -1537.0671    494.71298    301.48435    672.62485    39359.762 
  305000    292.82465    -1554.618    501.33966    260.36796    685.58937    39359.762 
  305100    284.68015   -1563.4483    471.69269    185.35342   -91.422176    39359.762 
  305200    311.06053   -1535.5806    501.93189    361.80586   -107.65518    39359.762 
  305300    302.21429   -1582.9959    479.50131     252.2747    64.115486    39359.762 
  305400    290.54451   -1546.6555    496.37354    253.13533    781.32043    39359.762 
  305500    292.69604   -1530.9696    485.68339    267.78306    123.81678    39359.762 
  305600    305.29198   -1538.3482    486.09468    317.32271   -255.44357    39359.762 
  305700    305.11829   -1533.5853      486.358    321.56967    -885.7454    39359.762 
  305800    307.38717   -1501.7379     486.4436    363.68117   -35.149023    39359.762 
  305900    302.35604   -1502.3083    509.86785    363.96478    89.197527    39359.762 
  306000    304.18421    -1505.117    504.61989    364.10954    257.53883    39359.762 
  306100    309.78864   -1501.1109    489.26839    377.90627   -18.363118    39359.762 
  306200    299.07844    -1493.022    506.27036    354.94985   -459.81208    39359.762 
  306300    290.40819   -1509.6926    493.60413    286.71729    -171.5371    39359.762 
  306400    304.10297   -1511.2609     495.1489    348.13019   -195.58738    39359.762 
  306500    298.96035   -1543.3199    508.08565    305.93748   -109.29214    39359.762 
  306600    289.67265    -1534.373    500.23889     265.3719    193.11625    39359.762 
  306700    294.64393   -1492.4999    505.51506    334.82299    247.79058    39359.762 
  306800    300.41145   -1480.5609    499.73822    366.85883    419.26053    39359.762 
  306900    306.85183   -1485.5431    486.61362    377.64443    211.59359    39359.762 
  307000    306.61679   -1562.5007     489.7301    302.74883    139.87964    39359.762 
  307100    305.57886   -1529.2309    486.81786    328.45014   -247.25291    39359.762 
  307200    299.03552   -1537.1872    475.58558    279.90733   -164.24445    39359.762 
  307300      298.802   -1535.3085    491.82409    296.97692    324.47333    39359.762 
  307400    310.93521   -1532.9558    485.34938    347.28598    264.65801    39359.762 
  307500    300.27061   -1547.8048    486.15904    285.40395    800.91664    39359.762 
  307600    289.69282    -1555.055    487.05254    231.59404    248.72734    39359.762 
  307700    292.82124   -1544.1753    479.83756    249.29327    294.81105    39359.762 
  307800    301.13034   -1571.6094     495.6882    274.98538    468.35294    39359.762 
  307900    310.53934   -1549.9394    513.83807    357.01513    658.91892    39359.762 
  308000    302.79987   -1504.5695    473.85741    327.68422    424.09261    39359.762 
  308100    301.46158   -1474.3553     496.8676    374.90491    917.57437    39359.762 
  308200    297.73352   -1522.5964    517.85784    330.92946    644.22159    39359.762 
  308300    305.29403   -1563.5387    493.27839    299.32508    1399.7605    39359.762 
  308400    291.71076   -1556.8563    480.73119    232.52404    383.45472    39359.762 
  308500    300.43443   -1540.6535    475.25751    282.38865    789.98932    39359.762 
  308600    297.13831   -1541.3922    518.35188    309.95757    983.55373    39359.762 
  308700    292.88659   -1534.7421    495.35056    274.53259    958.24955    39359.762 
  308800    300.15207    -1524.285    476.90998    299.14289   -62.230725    39359.762 
  308900    291.82569   -1526.0852    487.00861    270.08818    342.70764    39359.762 
  309000    312.83228   -1547.4385    494.14113    350.10547    445.52242    39359.762 
  309100    299.65876   -1545.7697    451.12367    249.65884     272.0683    39359.762 
  309200    291.28202   -1553.8316    525.77941    278.67363    208.05665    39359.762 
  309300    291.36096   -1524.9865    484.60483    266.69834       845.63    39359.762 
  309400    304.09271   -1561.0992    492.67685    295.77381    1211.5047    39359.762 
  309500    290.36277    -1537.843    527.65246    292.41141    657.10466    39359.762 
  309600    306.67485   -1511.3884    490.61954    355.01105    604.65608    39359.762 
  309700    300.10227   -1540.4828    478.90991    284.72159   -125.30814    39359.762 
  309800     297.3946   -1532.7526    478.18222    279.57723    84.157323    39359.762 
  309900     308.3815   -1540.9727    487.73511    330.19855    261.82559    39359.762 
  310000    302.52627   -1528.5735    488.21908    316.81445    389.69546    39359.762 
  310100    305.60699   -1536.6141    472.98903    307.36428    -112.0877    39359.762 
  310200     295.0173   -1571.7282    497.79416     249.5487    327.68136    39359.762 
  310300    295.98363   -1538.2729    521.19579    310.74071   -482.22074    39359.762 
  310400    298.15553   -1520.9432    501.83524    318.45321    66.863692    39359.762 
  310500    310.16572   -1541.9857    492.18864     341.6433    473.91588    39359.762 
  310600    294.34889   -1552.4606    493.26448    261.28804    473.34003    39359.762 
  310700    300.26071   -1535.7728    518.04793    329.28049     334.4832    39359.762 
  310800    292.65543   -1561.9748    477.54869    228.46106    190.49503    39359.762 
  310900    304.02503   -1579.6122    524.69227    308.97262    107.08491    39359.762 
  311000    297.96052   -1566.2305    468.73998    239.19591    180.49518    39359.762 
  311100    300.92567   -1570.9637    516.94921    295.97389   -12.510724    39359.762 
  311200    299.21774   -1597.9638    477.06396    221.42659     17.96751    39359.762 
  311300    298.74772   -1628.0075    489.95336    202.16376    35.969587    39359.762 
  311400    313.14028   -1608.5089    459.70202    255.97771   -201.70581    39359.762 
  311500    311.54866   -1576.3042    476.12398    297.46417    -91.38314    39359.762 
  311600    304.75825   -1606.8036    487.99492    248.37309   -139.67906    39359.762 
  311700    299.00845   -1560.0508     474.9861    256.32285   -52.137229    39359.762 
  311800    305.52054   -1595.5379     481.2648     256.3284   -201.14333    39359.762 
  311900    298.11943   -1618.3957    449.97118    168.97479   -442.38682    39359.762 
  312000     293.5309   -1583.0033    480.35782    214.16914   -128.55951    39359.762 
  312100    304.78614   -1561.5636    487.33028    293.07358    310.37344    39359.762 
  312200    309.02405   -1557.7955    501.19284    329.71602    214.88399    39359.762 
  312300     298.4488   -1557.5211    473.62883    254.98458   -170.07584    39359.762 
  312400    307.91158    -1576.552    485.66883     290.4449   -410.92374    39359.762 
  312500    297.67545   -1555.7988    464.37773    243.98648   -41.380234    39359.762 
  312600    302.46281   -1551.8271    479.92405    284.98109   -199.63638    39359.762 
  312700    308.78352    -1527.011    507.07193    365.30055    415.24501    39359.762 
  312800    298.57347   -1504.7981    513.71992    348.35792    136.11218    39359.762 
  312900    302.55011    -1507.031     480.6799    330.92471   -135.77089    39359.762 
  313000    288.79319    -1439.557    490.61586    346.61957   -3.8820961    39359.762 
  313100    293.96904   -1490.9766    496.28824    324.09181     177.3257    39359.762 
  313200    295.64804   -1540.9332    498.18159    283.56073   -153.76023    39359.762 
  313300    298.17546   -1482.5763    491.48012    346.55451   -426.25365    39359.762 
  313400    303.70456   -1470.7893    498.74912    390.41468    317.33534    39359.762 
  313500    300.73115   -1508.9533    503.84539    344.00785    86.964867    39359.762 
  313600    304.51759   -1484.9842    490.24131    371.35931    54.787337    39359.762 
  313700    298.19715   -1455.4676    508.50197    390.78232    94.676583    39359.762 
  313800    295.87365   -1456.1621    501.15534     372.3177   -543.12769    39359.762 
  313900     296.9698   -1454.6251    477.13502    354.75183   -496.96186    39359.762 
  314000    307.23916   -1442.6855    490.63739    426.26338   -469.30608    39359.762 
  314100    304.07805   -1476.2536    503.58062    391.45742   -217.93539    39359.762 
  314200     304.8137   -1503.1024    460.29914    324.62736   -585.00707    39359.762 
  314300    304.10136   -1478.6439    539.58346    425.17447   -220.91469    39359.762 
  314400    293.98907   -1450.0671    505.98062     374.7835    577.03584    39359.762 
  314500    304.76101   -1442.0926    512.77033    437.87192    266.98905    39359.762 
  314600     302.6802   -1510.7226    473.39734    320.53411    733.50016    39359.762 
  314700    302.07854   -1517.0016    507.93309    346.09181    686.92513    39359.762 
  314800    291.64836   -1490.8595    506.38267    323.89241    365.02599    39359.762 
  314900    302.23125    -1493.066    509.75538    372.53481    233.89614    39359.762 
  315000    293.46466   -1527.1126    471.12439    260.52922   -11.857095    39359.762 
  315100     294.6001   -1472.9527      504.299    352.95747   -102.88668    39359.762 
  315200    301.21006   -1459.1968    475.71443    367.78191   -82.802852    39359.762 
  315300    298.59707   -1508.1597    487.20414    318.58643   -49.497411    39359.762 
  315400    304.44518    -1503.351    517.78231     380.2087    458.18706    39359.762 
  315500    297.94151   -1459.3861    498.76377    375.97875    624.26732    39359.762 
  315600    314.19323   -1509.9832     486.6135    386.13854     812.6975    39359.762 
  315700    313.29375   -1525.3696    498.62504    378.72853    569.41347    39359.762 
  315800    297.02572    -1514.366     508.3231    326.44989    37.001493    39359.762 
  315900     304.7763   -1514.6336    495.47939    348.10858    384.21082    39359.762 
  316000     299.4224    -1522.986    496.56252    316.82108   -343.40462    39359.762 
  316100    291.36049   -1503.5007    498.83513    302.41234    -442.8538    39359.762 
  316200    296.49836   -1485.1941    470.52449    315.45737   -300.82818    39359.762 
  316300    302.37649   -1500.3217    503.64879    359.82409   -352.03074    39359.762 
  316400    301.19657   -1501.8649    490.40653    339.74539   -44.312795    39359.762 
  316500    290.81846   -1480.6663    490.91998    314.89993    -493.1432    39359.762 
  316600    293.40258   -1520.3306    462.33048    258.23883   -292.61462    39359.762 
  316700     308.0015   -1518.1178    497.28845    360.90204   -851.39134    39359.762 
  316800    303.23423   -1487.3544    507.50871    380.49921   -961.44076    39359.762 
  316900    303.24872   -1494.1341     484.1823    350.45805   -609.65155    39359.762 
  317000    295.46433   -1501.1246    489.27865    313.64228   -491.49735    39359.762 
  317100    293.83614   -1499.1507    483.53477    302.56797   -632.71406    39359.762 
  317200    304.26987   -1486.5949    488.23079    366.62677    -371.0843    39359.762 
  317300    307.21408   -1513.6848    470.83244    335.34663   -253.02766    39359.762 
  317400    303.30632   -1486.1941     489.3396    363.81382   -108.30034    39359.762 
  317500    289.83644   -1495.1907    473.89508    278.94523   -499.84184    39359.762 
  317600     301.5418   -1481.9638    485.25914    356.04777   -179.74441    39359.762 
  317700     293.6265   -1519.9999    480.72736    277.97089    435.60754    39359.762 
  317800    296.66641   -1504.6824    512.45241    338.65089    185.18118    39359.762 
  317900    294.58383   -1493.3781    489.83221    317.99229    202.06359    39359.762 
  318000    299.14559   -1511.3005    486.56456    317.26679    121.02127    39359.762 
  318100    306.80715   -1478.8625    472.75554    370.26653    182.94135    39359.762 
  318200    298.59711   -1481.3497    532.08333    390.27586    465.39881    39359.762 
  318300    301.09767   -1536.7713    456.51121     270.4999    694.36869    39359.762 
  318400    300.21531   -1483.7153    546.43924    409.52559    127.53971    39359.762 
  318500    296.27059   -1495.2246    496.11989    330.00042    198.16363    39359.762 
  318600    286.89193   -1477.3833    492.00964    301.65765      22.4745    39359.762 
  318700    290.86647   -1507.6098    486.44799    283.69986    176.61727    39359.762 
  318800    297.79867   -1504.1829    512.78379    344.56116    629.13568    39359.762 
  318900     315.0803   -1490.3308    517.74363    440.90062    289.92193    39359.762 
  319000    299.61856   -1461.5312    487.08295     369.6763   -101.28525    39359.762 
  319100    301.83407   -1537.1441    443.92607    260.84554   -509.92581    39359.762 
  319200    304.41883    -1517.114    494.26197    342.80714   -1018.7933    39359.762 
  319300     299.0716   -1515.5037    481.71051    307.87767   -716.98533    39359.762 
  319400    298.01792   -1471.3115    479.27368     344.9061   -336.96087    39359.762 
  319500    294.23625    -1502.491    491.06481    308.55269   -102.20916    39359.762 
  319600    301.77364   -1490.8213    479.86965    342.84083   -121.49751    39359.762 
  319700    297.15977   -1473.5265      481.331     340.8986    154.18641    39359.762 
  319800    300.68877   -1488.0535     487.3582    348.23039      191.428    39359.762 
  319900    294.34145   -1484.3937    478.32556    314.38266    49.479853    39359.762 
  320000    282.20035   -1520.9826    474.71683    219.71864   -489.18451    39359.762 
  320100    293.77141   -1476.0502    512.90581    354.74921    229.94217    39359.762 
  320200    308.47857    -1540.262    475.85394    319.46357    550.51937    39359.762 
  320300    302.40957    -1523.255    448.57863    281.96893    89.254513    39359.762 
  320400    300.63942   -1528.0185    470.52045    291.20618    258.17438    39359.762 
  320500    297.50836   -1515.4227     486.8393     306.0746    90.189296    39359.762 
  320600     304.8965   -1484.2639    504.67787    388.21596    91.859519    39359.762 
  320700    296.96361   -1452.3482    512.41628    392.28221   -87.996456    39359.762 
  320800    299.69529    -1485.972    501.62762    360.12438    354.52946    39359.762 
  320900    299.46157   -1475.2929    495.48484    363.61224    759.83766    39359.762 
  321000    314.59204    -1487.781     478.5939    402.11032    421.56412    39359.762 
  321100    298.59022   -1445.5186    492.93117     386.9239   -82.839727    39359.762 
  321200     305.4668   -1475.3859    500.36735    395.34192   -291.15426    39359.762 
  321300    295.82733   -1490.7416    481.35565    317.73066    456.82337    39359.762 
  321400    297.85044   -1529.8635    465.31837    271.64744   -138.47302    39359.762 
  321500    299.99637   -1516.9816    485.94411    314.78192   -142.62209    39359.762 
  321600    296.63319   -1509.2906    497.14217    318.58338    220.96872    39359.762 
  321700    304.74299   -1512.6491    488.19131    342.65559    498.68194    39359.762 
  321800    303.70648   -1495.8676    484.14993    350.74577     769.4454    39359.762 
  321900    304.52064   -1555.7491    489.72179    300.08856    288.65287    39359.762 
  322000    299.85845   -1468.5057    485.43518    362.13024    812.63652    39359.762 
  322100    297.10399   -1471.9224    489.64131    350.56283   -56.495397    39359.762 
  322200    307.65428   -1514.2949    485.23764    351.11647    194.54685    39359.762 
  322300    287.12374   -1508.3129    512.33466    292.09307   -173.45807    39359.762 
  322400    294.34229   -1538.2436    461.89105    244.10206    36.517178    39359.762 
  322500    301.37206    -1501.224    489.56805    340.33506   -20.204968    39359.762 
  322600    298.97298   -1491.0445    492.81034    342.99429    211.17586    39359.762 
  322700     300.9314   -1509.0377    459.27458    300.25102    305.50857    39359.762 
  322800    302.81304   -1514.5526    483.54095    327.44367    380.05232    39359.762 
  322900    291.42069   -1504.5624    480.03564    282.82113    451.87209    39359.762 
  323000    301.99967   -1529.1854    483.85819    309.47923    195.49103    39359.762 
  323100     304.3301   -1507.7008    488.54845    346.10876    291.99014    39359.762 
  323200    289.96147   -1539.0382    498.19449    259.95798    321.36717    39359.762 
  323300    296.39084   -1540.4842    474.31757    263.47798    52.538979    39359.762 
  323400    304.62417   -1544.0815    476.57072    299.06949     586.4578    39359.762 
  323500    306.36686   -1564.0898    507.92773    318.23618    654.40536    39359.762 
  323600    295.36881   -1546.9013    465.52962    243.68794    92.152898    39359.762 
  323700    288.81448   -1502.9644    493.72052    286.41229   -467.65828    39359.762 
  323800     301.8707   -1492.2175    490.84445    352.85485   -455.32512    39359.762 
  323900    305.19576   -1522.1482    470.52168    317.51806   -269.24646    39359.762 
  324000     298.6914   -1523.2011    491.48056    308.24468   -78.509806    39359.762 
  324100    289.43219   -1523.9316    482.35213    256.84779   -369.21306    39359.762 
  324200    288.93578    -1505.585    500.61593    291.23122    62.154446    39359.762 
  324300    290.85701   -1475.7196    498.46021    327.55985   -98.847881    39359.762 
  324400    293.15309   -1514.4261    481.18497    281.87853    160.24649    39359.762 
  324500    300.34677   -1522.1837    486.43133    311.63901    633.08141    39359.762 
  324600    294.44122   -1471.1518    476.20846    325.95508    286.07144    39359.762 
  324700    299.98963   -1513.5831    507.16372     339.3698    783.92597    39359.762 
  324800    297.80028   -1466.6626    488.00826     357.3132    524.46109    39359.762 
  324900    305.85799   -1489.1039    489.43338    372.44487    127.43299    39359.762 
  325000    287.50825   -1502.6468    509.06636    296.21585    113.75818    39359.762 
  325100    303.76753   -1515.1137    487.95211    335.57569    294.01633    39359.762 
  325200    291.43541   -1521.0021    484.58851    271.00039    171.12565    39359.762 
  325300    293.69414   -1490.2994     489.1585      316.406   -322.38789    39359.762 
  325400     299.5332   -1526.1428    490.61604    308.21488   -690.25316    39359.762 
  325500    295.72648   -1502.6026    479.77724    303.83888   -631.17056    39359.762 
  325600    305.45199   -1509.8181     472.3749    332.85084   -263.56351    39359.762 
  325700    303.80017    -1484.549    490.22552    368.56029   -694.61722    39359.762 
  325800    305.82526   -1514.1933    466.23378    324.00904    342.83102    39359.762 
  325900    297.48108   -1478.5056    481.56979    337.59976    396.40644    39359.762 
  326000    302.22147   -1465.6423    489.92091    380.08009    300.18835    39359.762 
  326100    301.28065   -1510.2782    490.91484    332.21753       476.57    39359.762 
  326200    296.05906   -1514.7097    484.96556    298.41212   -79.951897    39359.762 
  326300    301.19512   -1471.5784    493.77219    373.39098   -42.467737    39359.762 
  326400    305.47526   -1497.2156    489.52487    362.70769    263.95055    39359.762 
  326500    301.37637   -1504.9517    482.95134    330.00987    32.662413    39359.762 
  326600    295.31128   -1516.3367    490.83057    299.29544    279.90518    39359.762 
  326700    306.00296   -1504.3727    479.13251     347.5255   -152.65163    39359.762 
  326800    304.23928   -1542.4831     476.2285    298.59904   -438.27544    39359.762 
  326900    294.56231   -1516.5672    460.68756    265.56202   -530.61794    39359.762 
  327000     298.4837   -1516.9123    483.76744     305.8886   -718.23375    39359.762 
  327100      297.412   -1567.8929    456.49542    222.82821   -405.71738    39359.762 
  327200    306.06539   -1480.3944    478.49401    371.14537   -753.17382    39359.762 
  327300    302.00794   -1474.1867     454.6722    335.32907   -622.62486    39359.762 
  327400    300.32011   -1450.6858    477.56461    374.15057   -551.09184    39359.762 
  327500    302.67134   -1508.0577    488.58243    338.34445   -48.414639    39359.762 
  327600    299.22691   -1480.1397     492.3256    354.55347   -629.42644    39359.762 
  327700    302.79962   -1488.9274     485.8066    355.27434    115.13941    39359.762 
  327800    298.56571   -1517.7593     476.1933    297.83532    140.73477    39359.762 
  327900    300.58924    -1496.864    457.27113     308.8863    444.38536    39359.762 
  328000    301.61702   -1473.3909     492.5372    372.23614   -306.84308    39359.762 
  328100    311.34804   -1455.5675    478.53513    419.71203     725.3842    39359.762 
  328200    294.44876   -1509.9441    499.04009    310.02821   -37.251823    39359.762 
  328300    298.23014   -1459.1093    484.57144    363.35803    -213.6462    39359.762 
  328400    302.87437   -1488.2367    469.32785     339.8217   -533.38826    39359.762 
  328500    295.07099   -1487.8854    496.26913    332.10733   -302.46919    39359.762 
  328600     304.7151   -1530.3402     467.4516    304.09967    412.28335    39359.762 
  328700     303.1181   -1498.0455    483.12032    344.89875    599.83055    39359.762 
  328800    296.22397   -1489.4897    476.78216     316.1885    488.59667    39359.762 
  328900    307.15347    -1439.076    505.90869    444.75977    74.669709    39359.762 
  329000    298.32789   -1476.0059    494.53373    356.86224   -173.34327    39359.762 
  329100    308.65341   -1464.0583    485.24702    405.84471    263.08358    39359.762 
  329200    290.08798   -1476.9058    470.12639    294.58982    216.40037    39359.762 
  329300    301.22322   -1445.8835     519.7091     425.1488      258.903    39359.762 
  329400    302.44521   -1459.0332    482.17065    379.94266    249.29944    39359.762 
  329500    295.81087   -1466.1832    468.65475    329.51438    142.78174    39359.762 
  329600     305.2318   -1447.1385    503.32778    425.49552    -209.3374    39359.762 
  329700    290.98802   -1465.4664    482.19899    322.13954   -279.65676    39359.762 
  329800    305.83741   -1435.6561     509.4266    445.79357   -400.62755    39359.762 
  329900    292.86919   -1445.1212    486.37871    355.10361   -635.81554    39359.762 
  330000    307.39296   -1451.7777    515.81762    443.04139   -396.56578    39359.762 
  330100    297.01278   -1467.8716    474.64015    339.20327   -578.68602    39359.762 
  330200    297.33847   -1488.7271    484.47543    329.64409   -689.67156    39359.762 
  330300    294.12624   -1458.5811    472.91804    333.82225    274.23528    39359.762 
  330400    296.18194   -1461.5438    496.38327    363.54693   -3.3089777    39359.762 
  330500    301.57086    -1495.565    501.11643    358.43425    208.29791    39359.762 
  330600    288.23441   -1530.7697    499.23217    261.51633    591.59072    39359.762 
  330700    296.47298   -1509.0551    464.94552    285.90355    399.65724    39359.762 
  330800    286.79492   -1470.9524    498.49786    314.14166    726.56496    39359.762 
  330900    294.29101   -1500.1469    505.03696    325.11459    194.20796    39359.762 
  331000    285.33278   -1524.0614    451.21617    207.19157    242.58516    39359.762 
  331100    294.27035   -1485.2733    487.14171    322.00031    60.052249    39359.762 
  331200    297.29466   -1512.3189    485.14621    306.52663   -380.53009    39359.762 
  331300    298.65827   -1513.6068    480.25511    306.46486    42.071825    39359.762 
  331400    297.83442   -1518.6194    482.75512     300.2564    589.62096    39359.762 
  331500    310.29082   -1517.8898    471.48495    345.59671    300.65534    39359.762 
  331600    300.65669    -1479.361    468.49307    337.91376   -315.09443    39359.762 
  331700    298.40509   -1508.8287    473.21353    303.06559   -271.71078    39359.762 
  331800    309.48024   -1529.4164    487.73572    346.68456   -158.91385    39359.762 
  331900     292.5366   -1531.1804    484.49929    265.67296   -202.72844    39359.762 
  332000    306.13963   -1515.3883    491.86863    349.85919    274.71936    39359.762 
  332100    295.07113   -1500.9211    490.01603    312.81912    287.27874    39359.762 
  332200    298.11669   -1510.6538     470.5304     297.2636    198.79915    39359.762 
  332300    302.59283     -1507.46    493.32935     343.3368    523.89317    39359.762 
  332400    295.43958   -1495.7021    487.12249    316.79755    49.638349    39359.762 
  332500    305.61797   -1498.5293    464.86866    337.37794   -390.52809    39359.762 
  332600    293.55343   -1518.0298    508.36439    307.25026   -751.14954    39359.762 
  332700    303.86422   -1564.2259    477.14578    276.09099   -425.27817    39359.762 
  332800    300.28159   -1507.3357    473.24529    313.00854       419.89    39359.762 
  332900    305.34117   -1512.4118    495.57179    352.95688   -225.04896    39359.762 
  333000    299.90984   -1509.5747    473.26093    309.11751   -445.49135    39359.762 
  333100    308.28044   -1530.5464    470.03969     322.4761   -743.11982    39359.762 
  333200    293.09165   -1528.0144    462.54114    249.37084   -266.78429    39359.762 
  333300    292.33374   -1535.0381    476.31919    252.72507   -6.8009853    39359.762 
  333400     290.6525   -1565.6831    472.90607    211.12466    243.91818    39359.762 
  333500    298.71012   -1574.5142    464.72042    230.25539   -105.71239    39359.762 
  333600    302.25347    -1583.829    475.22575    247.34179   -373.14146    39359.762 
  333700    299.18533   -1571.2492    473.42906    244.36094   -66.782154    39359.762 
  333800    300.81068   -1599.2533    456.74891     206.9681   -134.94705    39359.762 
  333900    301.24769   -1568.4952    475.98313    258.92096   -143.03749    39359.762 
  334000    309.63934   -1518.6631    477.37589    347.79182    176.91149    39359.762 
  334100    300.73236   -1529.8333    473.01133    292.29922    69.215386    39359.762 
  334200    300.22075   -1556.2609    506.08111    296.64622    403.61187    39359.762 
  334300    305.62024   -1527.6639    485.84771    329.23267    643.63244    39359.762 
  334400    304.58308   -1549.0804    478.92182    296.23741    884.64005    39359.762 
  334500    286.82527   -1588.0911    484.73653    183.37778    253.21506    39359.762 
  334600    308.64016   -1570.6994    482.98794    296.88503     228.7765    39359.762 
  334700    302.57913   -1563.9278     490.0593     283.5375     736.3425    39359.762 
  334800    303.57087   -1504.1696    477.39811    335.08362    230.67702    39359.762 
  334900    291.89822   -1555.6629    480.91266    234.73993    954.45661    39359.762 
  335000    304.53003   -1575.8493    477.87717     268.1859    631.25549    39359.762 
  335100    304.29118   -1546.7025    446.35391    264.73789    1021.4972    39359.762 
  335200    306.09479   -1573.4988    499.29365    298.97249    1017.6136    39359.762 
  335300    298.66338   -1579.1551    486.32907    247.01344    378.35416    39359.762 
  335400      295.744    -1583.829    467.33989    210.25368    763.35414    39359.762 
  335500    296.00012   -1561.4811    475.89727    242.30798    355.34974    39359.762 
  335600    292.67315   -1565.1118     474.5753    222.43009   -281.23296    39359.762 
  335700    290.75852   -1600.0925    477.19079    181.47566   -461.78274    39359.762 
  335800     304.5309   -1569.8327    480.23027    276.55951   -279.30236    39359.762 
  335900    295.24121   -1557.3683    472.26813    239.38708   -936.43252    39359.762 
  336000    298.95344   -1530.0351    487.97229    299.07797   -265.91466    39359.762 
  336100    300.97395   -1534.2476     509.3538    325.31124    331.96977    39359.762 
  336200    293.37333   -1544.6646    465.11037    236.55345    665.79413    39359.762 
  336300    302.87528   -1547.0974    467.69976    279.33693    500.38076    39359.762 
  336400    307.08928   -1488.7266    501.91274    390.82526    676.23405    39359.762 
  336500    290.19259   -1501.4922    484.82355    285.16989   -238.61416    39359.762 
  336600     303.4229   -1526.5976    482.96154    317.55518   -152.74928    39359.762 
  336700    302.89635   -1497.3626    480.80792    342.27446    27.019653    39359.762 
  336800     306.9608   -1521.7847    490.77975     346.0578    452.42766    39359.762 
  336900    301.50571   -1496.9982    476.29717    331.88948   -209.79442    39359.762 
  337000    297.21976   -1500.6552    480.46747    313.17553   -133.44962    39359.762 
  337100    304.38985   -1500.5992     511.2564    376.18631   -429.30629    39359.762 
  337200    298.14407   -1503.4933    478.38157    312.39806    -687.0885    39359.762 
  337300    304.07501   -1493.6777    497.42824    367.86729   -1001.2172    39359.762 
  337400    306.00402   -1465.7186    523.90194    430.95383   -1475.0185    39359.762 
  337500    294.39039   -1474.1693    490.32168    336.82272   -902.94948    39359.762 
  337600    296.44094   -1490.9039    462.34306    301.30853   -569.03955    39359.762 
  337700    303.55138   -1463.0589    496.58329    395.29204    -590.8219    39359.762 
  337800    307.87153   -1462.3742    496.84588    415.62002   -334.56647    39359.762 
  337900    301.40817   -1497.2136    471.30235    326.24175     157.6104    39359.762 
  338000    303.34457   -1518.6822    508.05435      350.212    325.65026    39359.762 
  338100    304.36617    -1526.884     519.8176    358.35652    553.01731    39359.762 
  338200    307.81696   -1548.3584    485.84795    318.39313    627.65034    39359.762 
  338300    305.90021   -1519.4358    492.09207    344.96109    338.52409    39359.762 
  338400    292.23889   -1501.3235    477.24684    286.94177   -75.810335    39359.762 
  338500    288.22877    -1510.256    496.68497    279.45757     107.6554    39359.762 
  338600    296.65022   -1550.8535    479.29139    259.24612      409.245    39359.762 
  338700    306.88556   -1542.1642     490.2704    324.83134   -25.800107    39359.762 
  338800    293.38466   -1586.1672    476.29782    206.28917   -167.16215    39359.762 
  338900    299.55306   -1550.3112    481.15112    274.67064     319.9913    39359.762 
  339000    299.57118   -1542.0187    477.34587    279.23913   -180.58977    39359.762 
  339100    305.86895   -1500.6563    501.11987    372.62808   -138.31257    39359.762 
  339200    293.62143   -1534.1282    507.56101    290.65354    237.90054    39359.762 
  339300    287.48534    -1500.194    480.97554    270.47504    -310.2645    39359.762 
  339400    307.39378    -1543.048    470.33782    306.29494   -81.115947    39359.762 
  339500    296.12999   -1549.8269    479.20491    257.85241    113.15916    39359.762 
  339600    307.38559   -1574.2168     488.2433    292.99483    264.23244    39359.762 
  339700    295.44848    -1515.004    480.37429    290.78743    486.69215    39359.762 
  339800    292.61056     -1570.17    501.37417    243.88999    274.77788    39359.762 
  339900    301.88825   -1567.6902    466.90931    253.52574   -6.5408116    39359.762 
  340000    305.99021   -1550.2402    500.83277    323.30113    239.95986    39359.762 
  340100    295.99763   -1554.6436    483.47792    256.71491    -290.5509    39359.762 
  340200    295.19105    -1563.761    441.83818    202.33935   -574.52928    39359.762 
  340300    299.02064   -1545.4168    472.69901    268.72445   -721.89713    39359.762 
  340400    297.07885   -1570.8618    463.54003    225.40936   -568.47285    39359.762 
  340500    310.34194   -1536.9242    476.22553    331.53226   -705.86829    39359.762 
  340600    289.07942   -1562.0964    472.00711    206.75538   -373.91286    39359.762 
  340700    309.21079   -1560.6082    462.32848    288.87671   -580.09797    39359.762 
  340800    316.60495   -1532.8318     487.0741    374.56978   -326.77357    39359.762 
  340900    300.99615   -1499.1675    490.83365    341.97078    11.281693    39359.762 
  341000    304.29032   -1492.3265    514.59789    387.35405    92.029407    39359.762 
  341100    298.44658   -1519.5789    474.43875    293.72677    41.640288    39359.762 
  341200    301.69796     -1471.53    506.31031    388.23327    439.71193    39359.762 
  341300     297.2444   -1505.7953    471.59144    299.26991    59.310619    39359.762 
  341400    300.81208   -1502.6435    504.70106    351.53643    387.30307    39359.762 
  341500    297.61363   -1509.8401    496.37617    321.66626    284.26533    39359.762 
  341600    305.40982   -1551.3676    497.60925    316.34651    298.56416    39359.762 
  341700    305.60159   -1542.5962     478.4345    306.80341   -334.64847    39359.762 
  341800    298.47895   -1525.1548    498.49694    312.35421   -297.54376    39359.762 
  341900    295.85855   -1543.4836    481.66665    265.43976   -883.63793    39359.762 
  342000    304.80738   -1533.5595    482.64673    316.48951   -1439.5858    39359.762 
  342100    300.58439   -1502.9603    494.74455    340.24164   -1132.7763    39359.762 
  342200    298.86215   -1497.1421    489.73966     333.3288   -878.81005    39359.762 
  342300    309.15474   -1534.3198    504.03062     356.6158    -461.8215    39359.762 
  342400    302.73529   -1540.5181    444.26916    261.85759   -403.38656    39359.762 
  342500    299.33734   -1549.2783    486.64651    280.23117   -127.95348    39359.762 
  342600    308.04476   -1482.2285    501.25056    400.94756      50.4538    39359.762 
  342700    291.57674   -1559.0703    468.82601    217.80366    162.72195    39359.762 
  342800    296.98861    -1531.695    484.57592    285.20723    208.37058    39359.762 
  342900    315.42146   -1572.4793    463.94034    306.47929    416.91785    39359.762 
  343000    304.01961   -1544.8193    513.05506    332.10391    165.57827    39359.762 
  343100     293.3559   -1554.4612    461.39848    222.96683   -77.776761    39359.762 
  343200    290.77018   -1572.6533    503.23771    235.01403   -167.23147    39359.762 
  343300    300.03577    -1530.233    483.88221    299.64541    141.05324    39359.762 
  343400     299.1749   -1539.2292    487.73335    290.63843   -200.73783    39359.762 
  343500    306.03725   -1558.7809     509.2321    323.37078   -292.72416    39359.762 
  343600    304.04943   -1554.2558    483.91889    293.66511    240.43494    39359.762 
  343700    304.63157   -1537.4283    468.25223    297.43741    -159.1913    39359.762 
  343800    290.09719   -1525.4306    501.20123    277.18121   -188.10249    39359.762 
  343900    301.71232   -1526.0023    476.02809    303.54322    125.28905    39359.762 
  344000    288.68118   -1529.4719    491.99016    257.57638    432.08839    39359.762 
  344100    308.38295   -1516.3689    495.69761    362.77131    275.69727    39359.762 
  344200    298.52065   -1542.8004     474.8147    271.21348    360.44758    39359.762 
  344300    306.10879   -1549.3324    485.44307    309.35118    263.34185    39359.762 
  344400    299.47081   -1513.6892    488.38936    318.16191   -188.31887    39359.762 
  344500    309.79736   -1550.5276    464.28071      303.541   -90.971016    39359.762 
  344600    293.15372   -1578.2511    474.32623    211.19767     39.87903    39359.762 
  344700    305.06162   -1550.1265    453.64119    272.05744    421.29247    39359.762 
  344800    308.65688   -1532.9207     474.5813    326.33216    118.49776    39359.762 
  344900    298.54015   -1493.6382    487.87585    333.52431   -452.55072    39359.762 
  345000    301.56491   -1512.1825    486.16817    326.84174   -9.5665873    39359.762 
  345100    300.69513   -1538.5912    468.57703    278.93998    -687.1206    39359.762 
  345200    293.44288   -1518.4994    467.27432    265.19469   -540.36744    39359.762 
  345300    304.33539   -1512.2758    469.12293    322.13197   -424.31415    39359.762 
  345400    303.58382   -1526.7564    470.76216    305.91891   -63.115743    39359.762 
  345500    292.50021   -1485.3527      510.601    337.43913    -472.1477    39359.762 
  345600      296.754   -1501.1148    493.75843    323.91745   -31.451824    39359.762 
  345700    308.44819   -1546.8516    466.18442    303.06819   -103.91766    39359.762 
  345800    295.09459   -1533.1324     465.0994    255.79651   -94.239137    39359.762 
  345900    296.52364   -1539.7893    454.78335    245.23442    71.535366    39359.762 
  346000    300.47472    -1488.909    486.37364    345.42999    291.49754    39359.762 
  346100    306.25294   -1509.0245    504.60713    369.46985    105.24714    39359.762 
  346200      290.732   -1524.4894    478.90736    258.67635   -245.72178    39359.762 
  346300    308.92872   -1472.3069    490.73422    404.31839    420.99892    39359.762 
  346400    292.68022   -1522.8505    476.42425    266.57213   -467.00512    39359.762 
  346500    295.73581   -1522.4764    477.60207    281.83175    -149.4808    39359.762 
  346600    295.22423   -1539.7865     487.7151    272.33966    -222.7026    39359.762 
  346700     293.6421   -1522.7347    463.13268    257.71139   -168.80985    39359.762 
  346800    296.75621   -1506.0032    480.42667    305.70724   -136.65881    39359.762 
  346900    302.12845   -1525.6016    489.36978     319.1524    4.0814386    39359.762 
  347000    301.55136    -1528.322    457.89142    282.36474     384.4726    39359.762 
  347100    303.54617   -1512.0692    477.60831    327.28341    66.076599    39359.762 
  347200    302.03576   -1548.2362    488.99995    295.73217    35.452046    39359.762 
  347300    295.45151   -1557.9792    494.46726    261.91871   -605.01364    39359.762 
  347400     304.3742   -1517.4259     467.9285    315.96151   -92.547632    39359.762 
  347500    298.78933   -1528.3242    476.70031    288.78066   -258.02096    39359.762 
  347600     291.0693   -1513.5362    480.39341    272.62879    44.024644    39359.762 
  347700    308.47033   -1505.5046    493.97883    372.30886   -432.18352    39359.762 
  347800    289.35543   -1462.2151    501.11319    336.98108    -730.7835    39359.762 
  347900    301.47991   -1437.4095    462.48214    377.54749   -653.25633    39359.762 
  348000     310.2842   -1475.8643    481.25189    397.35944    -567.8311    39359.762 
  348100     299.1095   -1458.6772    477.16687    360.33053   -513.54924    39359.762 
  348200    307.64062   -1496.5038     490.5975    374.20622   -145.94017    39359.762 
  348300    307.96338   -1471.4035    489.49088    399.64774    394.51333    39359.762 
  348400    296.56349   -1489.7254    495.31098    336.00476    811.31919    39359.762 
  348500    309.72338   -1474.9833    468.39854    382.87126    397.74707    39359.762 
  348600    288.09207   -1518.7456     484.9081    258.57783    228.33891    39359.762 
  348700    298.13534   -1480.5996    488.28384    345.15491     233.7918    39359.762 
  348800    291.94106   -1527.0696    479.67236    262.28512    168.79337    39359.762 
  348900    292.95419     -1528.35    455.34501    241.22245    101.55206    39359.762 
  349000    299.75565   -1503.9282    494.76671    335.57813   -540.79995    39359.762 
  349100    311.87856   -1497.0641    439.28408    341.34435   -252.56839    39359.762 
  349200    305.18867   -1494.4962    489.01277    363.62929   -119.35777    39359.762 
  349300    302.12634   -1507.0834    486.45345    334.74481   -148.94838    39359.762 
  349400    307.87741   -1497.5361    484.91764    368.55628   -288.06058    39359.762 
  349500    305.15482   -1515.2542    478.41662    332.12329   -462.57238    39359.762 
  349600    306.32758   -1558.7255     472.9401     288.4366   -208.38173    39359.762 
  349700    292.61011   -1558.3647    462.72616    217.04526   -372.90688    39359.762 
  349800    287.40349   -1530.3427    465.71961    224.70322    329.94827    39359.762 
  349900     305.6104   -1488.9345    493.35353    375.42364    162.59028    39359.762 
  350000    293.01063   -1480.1486    497.48473    331.81675   -112.69972    39359.762 
  350100    300.03867   -1515.6204    477.79568    308.18443   -3.1595698    39359.762 
  350200    306.17209   -1549.7456    475.36911    299.14797    101.76557    39359.762 
  350300    300.41197   -1466.4206    478.00396    359.26723    826.21662    39359.762 
  350400    305.65121   -1525.6129    473.46658    319.04147    359.36453    39359.762 
  350500    293.39495   -1495.9562    491.08566    311.33422    141.55254    39359.762 
  350600    302.43804   -1511.7996    472.86389    317.83734    651.73029    39359.762 
  350700     301.5939   -1583.6892    470.26021    239.55722    179.87408    39359.762 
  350800    306.95863   -1545.8723    489.16516    320.34581    217.69291    39359.762 
  350900    294.74575   -1495.9948    503.48071    329.75044    525.03922    39359.762 
  351000    294.37717   -1508.0642    473.80385    286.35074    523.40134    39359.762 
  351100     302.1331   -1526.8938    476.52319    305.03448   -272.72995    39359.762 
  351200    299.86727   -1533.5894    488.78796    300.43878   -59.587779    39359.762 
  351300    294.65233   -1518.6948    483.77955    286.93016   -213.02594    39359.762 
  351400    285.38812    -1504.061    465.50453    241.72862    -658.9405    39359.762 
  351500    298.00791   -1469.0073    500.40382    368.29552   -42.027226    39359.762 
  351600    296.09619   -1504.8688    474.43866    297.89264    76.488563    39359.762 
  351700    295.77438   -1484.6563    495.90427    338.12704    58.808703    39359.762 
  351800    304.67204   -1509.5337    481.12832     338.3897    200.30696    39359.762 
  351900    298.04164   -1514.4563    505.03793    327.63189    1.6764467    39359.762 
  352000     303.0687   -1541.5193    476.37651    294.45948    163.06488    39359.762 
  352100    299.01842   -1531.6286    512.18359    321.98718     683.3369    39359.762 
  352200    295.23593   -1510.6667    469.77925    283.57616     834.6383    39359.762 
  352300    294.89737    -1533.959    502.69877    291.68449    468.00188    39359.762 
  352400    303.35441   -1501.5586    467.42128    326.74665   -13.066928    39359.762 
  352500    311.82902   -1557.6551    498.55686    339.80389   -312.12906    39359.762 
  352600    290.06859   -1562.1418     474.8883    214.02878   -369.09227    39359.762 
  352700    301.87506   -1546.3046    486.38661    294.32951    467.66445    39359.762 
  352800    296.05751   -1581.4519    491.69041     238.3878    519.92247    39359.762 
  352900    294.33875   -1520.5525    471.40525    271.29141    172.98158    39359.762 
  353000    302.19888   -1500.2181    490.58247    346.06451    1.5371854    39359.762 
  353100    295.64502   -1526.3919    504.19369    304.10063     1.205431    39359.762 
  353200    307.10258   -1510.5136    493.45186    360.63696   -91.899295    39359.762 
  353300     299.9866   -1535.1525    466.47088    277.09397   -111.83595    39359.762 
  353400    300.61321   -1484.5596    479.52668    343.55376   -682.49124    39359.762 
  353500    293.75293   -1500.0354    482.56098    300.33618   -725.30589    39359.762 
  353600    308.12203   -1493.5617    479.86424    368.57464   -533.26583    39359.762 
  353700    306.88926   -1508.4237     473.0157    341.33382   -409.36768    39359.762 
  353800    293.59971   -1522.1975    475.65686    270.58266    67.264548    39359.762 
  353900    302.34122   -1498.8681    485.81236    343.28305   -10.817746    39359.762 
  354000    295.27252   -1499.0859    500.06767    325.60946   -391.49512    39359.762 
  354100    315.23794   -1478.8748     505.6548    440.97494   -108.56314    39359.762 
  354200    296.12975   -1523.9149    481.99371    286.55216    50.770531    39359.762 
  354300    300.52112   -1531.5806    496.29417    312.88715   -289.65322    39359.762 
  354400    294.42484    -1568.576     481.6288    233.87765    237.92131    39359.762 
  354500    302.81907   -1536.3751    486.35583    308.46311    615.94038    39359.762 
  354600     309.2374    -1519.209    490.58531    358.65215    581.46967    39359.762 
  354700    306.90774   -1547.7846    497.43888    326.47894    613.80005    39359.762 
  354800    306.42733   -1538.4698      516.065    352.26472    440.93542    39359.762 
  354900     282.3529   -1539.0235    463.57918    191.22444    210.70186    39359.762 
  355000    306.01428   -1534.4964    514.56273    352.88281   -186.00916    39359.762 
  355100    293.25984   -1514.2278    477.28987    278.66066   -127.07632    39359.762 
  355200    304.54587    -1504.504    493.54122    355.26633   -465.64407    39359.762 
  355300    299.03125    -1514.364    471.29283    298.41861      177.996    39359.762 
  355400    301.95549   -1509.7172    486.32887    331.21999   -20.519964    39359.762 
  355500    311.66705   -1527.3375     496.6494    367.48737   -423.16553    39359.762 
  355600     298.7583   -1510.3458     499.6255    329.54505   -46.543488    39359.762 
  355700    304.07369   -1487.0796    464.07185    341.10304    135.23301    39359.762 
  355800    293.37403   -1532.1187    478.10994    262.10207    93.352747    39359.762 
  355900    297.75106   -1516.2966    471.48857    290.93869    11.883774    39359.762 
  356000    289.34544   -1465.1922     507.0916    339.93755   -544.91058    39359.762 
  356100    291.18409   -1505.1165    453.04293    254.21294   -282.29993    39359.762 
  356200    307.48584   -1478.2109    504.51649    405.72374   -17.285768    39359.762 
  356300    295.87254   -1457.2104    485.40312    355.51216    198.27693    39359.762 
  356400    292.92676   -1484.6121    495.79087    325.28314    416.57639    39359.762 
  356500    295.85913   -1506.5443    494.27785    314.99283    89.517894    39359.762 
  356600    295.73218   -1493.2344    487.35677    320.81216    174.76612    39359.762 
  356700    308.32935   -1522.9702    470.54343    330.77546    419.00083    39359.762 
  356800    300.79849   -1510.5508     488.9707    327.83781    511.43614    39359.762 
  356900     300.5785   -1530.1649    489.67262    307.93867   -114.80383    39359.762 
  357000    301.04694   -1512.6813    455.07371    292.92484    -15.61633    39359.762 
  357100    297.42597   -1515.9957    488.25313    306.54572   -206.43535    39359.762 
  357200    304.42121   -1496.0702    476.39365    345.99325   -642.51918    39359.762 
  357300    305.67788   -1476.4275    492.38098     387.2609   -595.24114    39359.762 
  357400    302.47103   -1456.3775     483.6615    384.20505   -792.39929    39359.762 
  357500     305.9947   -1477.4084    477.13273    372.45305    -311.0977    39359.762 
  357600     303.5043   -1493.4386    495.30117      363.419   -709.32144    39359.762 
  357700    303.20171   -1504.5669    473.97804    329.61017   -297.88278    39359.762 
  357800    297.09001   -1494.8442    511.45642    349.39339   -310.29193    39359.762 
  357900     294.2486   -1478.1307    478.68257    320.58617   -383.99363    39359.762 
  358000    303.14573    -1489.181      490.765    361.53189   -575.08305    39359.762 
  358100    300.17287   -1496.2771    479.02824    329.36236   -491.02305    39359.762 
  358200    301.26499    -1526.466     467.5456    292.59027   -385.46099    39359.762 
  358300    289.00783   -1485.3405    467.93207    279.11519   -444.24375    39359.762 
  358400    295.70175   -1491.8621    477.08616    311.77733   -538.98342    39359.762 
  358500    301.49494   -1502.2723    486.04363    336.31351   -196.95139    39359.762 
  358600    302.42602   -1474.5117    468.35061    350.55809   -51.566516    39359.762 
  358700    304.54393   -1519.6926    470.99043    317.51815   -414.94923    39359.762 
  358800    296.94663   -1542.5043     463.5359     253.1695   -181.79866    39359.762 
  358900    300.63022   -1507.2943    475.94465    317.31334   -224.25742    39359.762 
  359000    294.97884   -1529.2155    474.52543    268.62013   -159.71146    39359.762 
  359100     298.0492   -1508.6388     485.3706    313.81601    289.25306    39359.762 
  359200    292.53716   -1505.2918    489.79978    296.86455   -310.24283    39359.762 
  359300    304.45916    -1548.344    456.25107    273.74712    217.45639    39359.762 
  359400    306.09532   -1522.2322    498.47549    349.42333    21.726847    39359.762 
  359500    291.04385   -1504.8348    464.13783     264.9604   -541.01194    39359.762 
  359600    296.18486   -1516.8298    478.92712    290.81791   -399.45392    39359.762 
  359700    294.96048   -1523.0839    475.79454    275.93848    117.16731    39359.762 
  359800    307.00538   -1498.3187    486.25883    365.20288   -44.709216    39359.762 
  359900    313.38639   -1509.2773    477.39255    374.00397    -340.7188    39359.762 
  360000    300.71685    -1523.193    483.34844    309.20708   -118.91886    39359.762 
  360100    297.90621   -1492.2175    486.09851     330.3237   -578.79831    39359.762 
  360200    293.11544   -1532.5875    462.96412     245.3274   -455.68551    39359.762 
  360300    292.36309   -1492.1491    470.91068    290.33723   -356.69256    39359.762 
  360400    292.47836   -1486.5576    493.97356    319.50874   -91.548364    39359.762 
  360500    298.52748   -1523.4899    473.13285    288.87277    -191.5323    39359.762 
  360600    292.28556   -1513.5035    490.70438    288.42876    111.38637    39359.762 
  360700    286.03749   -1534.6598    487.03086    235.56934    53.488221    39359.762 
  360800     306.3561   -1524.9565    475.79863    325.19204    368.66963    39359.762 
  360900    295.93477   -1493.4265    462.95075    297.12294   -437.23182    39359.762 
  361000    287.90574   -1473.8253    500.64831     318.4024   -215.52745    39359.762 
  361100    287.83185   -1502.1369    464.23291    253.34399   -563.17585    39359.762 
  361200    305.48719    -1504.467    501.06066    367.04558   -580.34501    39359.762 
  361300    303.18783    -1508.967    473.64561     324.8154   -642.31665    39359.762 
  361400    293.71706   -1502.3328    512.09044    327.40733   -277.08109    39359.762 
  361500    305.56864   -1472.5404     498.1129    396.38981   -359.01385    39359.762 
  361600    292.94436   -1474.8149    479.73946    319.10782   -937.79239    39359.762 
  361700    303.86369   -1472.4494    481.50419     372.2235   -547.87165    39359.762 
  361800    304.90214   -1477.2489    487.70261    378.28109   -655.27917    39359.762 
  361900    299.68473   -1445.0882     490.6767    390.00986   -521.20219    39359.762 
  362000    297.84704   -1486.0664    486.29899    336.40988   -280.09529    39359.762 
  362100     313.4895   -1533.9551    453.15611    325.55227   -28.552324    39359.762 
  362200    298.04984    -1522.821    502.48276    316.74881    402.14944    39359.762 
  362300    293.59028   -1534.0142    446.92749    229.99429    248.99135    39359.762 
  362400    301.41487   -1500.2942     503.9007    355.78952    135.68509    39359.762 
  362500    297.22763    -1506.733    502.95823    329.62375    294.27509    39359.762 
  362600     302.3693   -1526.5016    474.83486    304.79794    310.40743    39359.762 
  362700    294.49536   -1497.3139    472.55892    296.38633    656.61069    39359.762 
  362800    306.69532   -1526.8388    449.50155    298.53446    642.44879    39359.762 
  362900    295.04225   -1508.4364    477.68747    292.84578    232.33964    39359.762 
  363000    293.94217   -1546.3341    465.45851    237.78401    313.36407    39359.762 
  363100    292.95309   -1529.4572    468.22233    252.98754    396.46843    39359.762 
  363200    299.57301   -1532.7367    464.96033     276.1439   -64.723789    39359.762 
  363300    297.74541   -1514.3076    484.07883    305.49268    538.61688    39359.762 
  363400    287.41082   -1491.5222    459.33078    257.16771    549.17696    39359.762 
  363500    310.73625   -1543.6637    490.47677    340.81286    884.06389    39359.762 
  363600    308.12395     -1545.27    458.87897    295.88976     482.6829    39359.762 
  363700    313.14699   -1512.2389    463.91255    356.48832    297.79679    39359.762 
  363800    295.38451    -1509.964    487.47977    302.64587    188.98887    39359.762 
  363900    302.64478   -1554.1763    465.51713    269.04132    97.248669    39359.762 
  364000    304.37686    -1534.842    472.48462     303.1135    208.17899    39359.762 
  364100    306.26148   -1555.2171    494.18494    312.89337    149.37854    39359.762 
  364200    290.76246   -1530.4857    476.00072    249.91008    483.93475    39359.762 
  364300     296.2149   -1485.4152    478.84706    322.28718    37.833986    39359.762 
  364400    298.89266   -1473.3103    494.96602    362.52382   -338.32441    39359.762 
  364500     298.7289   -1499.2731    477.85037    318.71072    47.689497    39359.762 
  364600    307.10169   -1473.7257    484.15928     388.1284   -356.88965    39359.762 
  364700    310.13238   -1452.4974     475.3148    414.10816    47.533494    39359.762 
  364800    310.99962    -1456.783    490.11617    428.51454   -116.63199    39359.762 
  364900    292.01825   -1440.0459    470.34215    340.32486    32.103763    39359.762 
  365000    299.27154   -1473.6594    515.65042    384.55882   -103.93399    39359.762 
  365100    296.34913    -1494.934    465.83326    300.35679    326.08698    39359.762 
  365200    307.07392   -1489.5345    495.77656     383.8123   -382.35927    39359.762 
  365300    302.52894   -1458.3579    509.57503    408.39798    543.39418    39359.762 
  365400    300.66448   -1474.3475    465.78978    340.25899     318.1788    39359.762 
  365500     301.7171    -1510.151    487.36961    330.75747    170.66845    39359.762 
  365600    294.07746    -1461.919    521.68706    379.03453    -166.3171    39359.762 
  365700    303.78082   -1456.5689    470.70206    376.93007    343.98608    39359.762 
  365800    297.89528   -1443.8364    512.45399    405.01125    56.214733    39359.762 
  365900    298.86056   -1465.1105    480.35256    355.96614   -892.99196    39359.762 
  366000    304.13984   -1461.6575    467.96953    370.71964   -548.01392    39359.762 
  366100    302.30613   -1458.1739    492.89063    390.89809   -661.60789    39359.762 
  366200    305.32565   -1469.5478    467.39059    367.57006   -1221.4981    39359.762 
  366300    299.63539   -1522.2421    471.47893    293.43689   -512.03263    39359.762 
  366400     301.2654   -1496.2487    475.07138    330.33516   -851.47173    39359.762 
  366500    304.46212   -1445.0981    475.84332    396.59849    -253.1665    39359.762 
  366600    305.23494   -1465.4438    477.32219    381.19867   -549.27059    39359.762 
  366700    301.66113   -1497.0762     489.9568    346.16839   -453.08535    39359.762 
  366800     293.2053   -1507.0855    507.81222    316.08068   -413.33527    39359.762 
  366900    300.85045   -1486.3806    473.39352     336.6639   -164.06394    39359.762 
  367000     294.3389   -1527.0366    482.55679    275.95953   -10.268536    39359.762 
  367100    291.17219   -1557.0668    488.30616    237.47253    100.74309    39359.762 
  367200     304.4188   -1494.9927    503.63376    374.30001    404.32529    39359.762 
  367300     301.3011   -1494.0876    498.13398    355.71903    384.83378    39359.762 
  367400    310.46437   -1494.3992    505.84877     404.2297    464.73709    39359.762 
  367500    295.04297   -1537.1794    467.59979    254.01826    177.84399    39359.762 
  367600    302.29946   -1516.3024    486.40684    326.25581    507.06759    39359.762 
  367700    304.41977   -1498.4911    500.78423    367.95648     25.38043    39359.762 
  367800       308.97   -1509.4997    465.93957    342.51608     42.63786    39359.762 
  367900    295.96781   -1494.2723    472.44903    305.92357   -59.277881    39359.762 
  368000    295.08988   -1500.1274    472.03288    295.71378   -435.03549    39359.762 
  368100     300.6574   -1537.1253    488.03521    299.69485    115.45743    39359.762 
  368200    305.27764   -1504.9164    485.38047     349.9759   -429.25166    39359.762 
  368300    301.05355   -1544.8053    473.10692    278.86371   -133.84802    39359.762 
  368400    291.05125   -1502.0307    482.43678    286.09665    320.99732    39359.762 
  368500     302.0506   -1508.7157    465.87218    312.19138    -226.0729    39359.762 
  368600    310.40647   -1533.3917    499.45254    358.58123   -451.15843    39359.762 
  368700    298.84369   -1549.2354    466.46134    257.87434   -495.09349    39359.762 
  368800    307.46409   -1518.1427    481.45054    342.62838   -335.63565    39359.762 
  368900    306.39927   -1530.1335    479.17824    323.58831    110.19842    39359.762 
  369000    302.13406   -1567.6249    471.66013    259.44467    47.297329    39359.762 
  369100    288.49775    -1536.849    483.73274      241.119    133.14512    39359.762 
  369200    303.07934   -1550.9647    472.72206    281.40737    -252.7103    39359.762 
  369300    302.41128   -1533.3536    472.19592    295.49536    106.17267    39359.762 
  369400    301.83731   -1543.7532     490.3497    300.67464   -110.44389    39359.762 
  369500    302.93739   -1584.0702    470.74538    245.68843   -404.16521    39359.762 
  369600    305.53071   -1561.7196     496.4605    305.38805   -227.23402    39359.762 
  369700    297.02107   -1560.1408    435.99071    208.32184   -124.97443    39359.762 
  369800    296.64444   -1519.7594    473.25151    284.27439   -66.101732    39359.762 
  369900    293.38217   -1578.9366    479.57868    216.78942    124.25641    39359.762 
  370000    298.44428   -1556.5827     468.0045    250.27837    694.73114    39359.762 
  370100    291.77667   -1547.9356    490.17253    251.18182    1171.1401    39359.762 
  370200    299.54681   -1549.5269    477.63293    271.90873    435.21468    39359.762 
  370300    297.84242   -1476.4885    485.74171     345.4098    492.84493    39359.762 
  370400    287.15408    -1506.361    482.32662    264.17303    71.751183    39359.762 
  370500    297.31954   -1484.4587    483.96363    333.31575    316.98302    39359.762 
  370600    302.39242   -1476.6273    472.28272    352.22389   -214.26368    39359.762 
  370700    296.17261   -1497.6149    497.15893    328.20965   -680.09075    39359.762 
  370800    311.65811   -1484.6617    482.98831      396.462   -228.00544    39359.762 
  370900    297.33042   -1489.9127    473.88186    317.82885   -218.41741    39359.762 
  371000    307.97957   -1501.4338    464.82696     345.0262   -141.69582    39359.762 
  371100    306.13263   -1488.8427    484.60949    369.11419    20.900148    39359.762 
  371200    307.52621      -1519.1     492.0233    352.52247    257.53224    39359.762 
  371300    309.92428   -1495.5576    476.77618    371.57584    341.45221    39359.762 
  371400     293.7627   -1498.2615    452.58586    272.17885   -268.22223    39359.762 
  371500    292.08024    -1532.007    491.62788    269.92766    425.14593    39359.762 
  371600    299.50747   -1489.0307    478.33968    332.93517    696.70129    39359.762 
  371700    298.36079   -1476.6926    488.65232    350.44174    786.17677    39359.762 
  371800    300.26671   -1514.7681    492.07982    324.34392    506.41178    39359.762 
  371900    313.67514   -1516.2012    480.94311      371.926    565.96058    39359.762 
  372000    288.31026   -1498.8711    490.57264     285.0957    564.95424    39359.762 
  372100    303.91168   -1510.9186    479.31025    331.77564     405.4872    39359.762 
  372200    302.87111    -1544.536    479.17795    293.35779    16.505991    39359.762 
  372300    309.13535   -1534.6678    496.67701    348.82727    4.9497671    39359.762 
  372400    300.80141   -1521.6815    475.58906    303.33845    197.54231    39359.762 
  372500    286.95545   -1470.4982    509.27918    326.09732    8.1037739    39359.762 
  372600    295.21614   -1477.8219     480.6678    327.22066   -40.413634    39359.762 
  372700    302.08616    -1457.673    480.37538    377.89693    744.62856    39359.762 
  372800     311.2287   -1507.3283    498.18136    387.06207     522.0003    39359.762 
  372900    296.75699   -1442.7962    490.80196    379.29292    393.60641    39359.762 
  373000    299.09796   -1452.8985    514.63726    403.52786   -70.568209    39359.762 
  373100    300.29889   -1459.8254    489.51565     376.8668   -109.91673    39359.762 
  373200     295.9639   -1508.0056    465.53516    285.25883   -185.79127    39359.762 
  373300     307.9209   -1484.9504    485.12048    381.53992    307.22697    39359.762 
  373400    299.59192   -1489.8003    459.89266    314.09743    180.89579    39359.762 
  373500     306.0159   -1477.1158    473.32828    369.03621   -89.400217    39359.762 
  373600    298.85776   -1478.9371    497.89429     359.6687    213.08327    39359.762 
  373700    294.32389   -1437.4423    473.27163    356.20131    321.22785    39359.762 
  373800    296.94107    -1439.443    494.55197    387.22194    286.57062    39359.762 
  373900    307.19096   -1506.0728    459.88303    331.90546   -287.36974    39359.762 
  374000    287.67786   -1483.1025    497.86547    305.32012    542.93201    39359.762 
  374100    306.95743   -1493.8915    477.30043    360.45649    493.07434    39359.762 
  374200    300.35499   -1480.6295    509.74575    376.54445    571.85236    39359.762 
  374300    296.36071   -1521.5389    498.08865     306.0592    273.51853    39359.762 
  374400    297.93698     -1537.46    480.31496    279.43573    535.22335    39359.762 
  374500    298.65879   -1576.2627    472.49596    236.05217    299.61748    39359.762 
  374600    316.15712   -1556.4769    473.38765    335.22924    19.151021    39359.762 
  374700    293.73352   -1558.8221    477.00119     235.9027   -64.565334    39359.762 
  374800    309.28802   -1533.1285    479.18388    333.55822     440.7809    39359.762 
  374900    310.71034   -1543.5739    458.79332    309.10301     343.3213    39359.762 
  375000    302.59752    -1532.152    470.86836    296.20486    277.88731    39359.762 
  375100    309.34189   -1496.0941    499.17873    390.82918    235.63576    39359.762 
  375200    303.70999   -1511.9927    468.65706    319.14351   -21.803822    39359.762 
  375300    307.57435   -1503.1583    474.99293    351.64977   -375.09183    39359.762 
  375400    304.94947   -1470.9798    462.53442    359.59431    140.04548    39359.762 
  375500    302.39518   -1465.5889    485.98023    376.97211   -188.23308    39359.762 
  375600    295.74824   -1488.4018    462.43606    300.79606    -17.16023    39359.762 
  375700    303.03267   -1456.3536    490.05246    393.13952   -490.16875    39359.762 
  375800    293.39423   -1466.3469    485.23151     335.0861   -1145.1065    39359.762 
  375900    299.78487   -1470.6064    477.67472    351.93893   -497.16698    39359.762 
  376000    303.10717   -1504.5932    473.40718    328.58884   -413.32739    39359.762 
  376100    307.00922   -1479.0496    493.24752    391.47788   -74.512416    39359.762 
  376200    303.87386   -1486.1919    482.51549    359.53789   -49.937581    39359.762 
  376300    310.56554   -1516.2039    466.92942    343.95953    245.60522    39359.762 
  376400    298.22733   -1522.8368    489.09836    304.14495    -119.2078    39359.762 
  376500    292.86211   -1467.5356    484.43304    330.71175   -99.045167    39359.762 
  376600    291.16262   -1488.1513    475.60414    293.64301   -557.99071    39359.762 
  376700    300.04313   -1501.8769    449.86547    294.01781    4.5711751    39359.762 
  376800    306.75378   -1488.2386    520.49516     408.3905    30.814531    39359.762 
  376900    293.73375   -1480.3241    462.91346    300.31395   -24.447049    39359.762 
  377000     301.6354   -1491.8293    502.63526    363.97825    241.99002    39359.762 
  377100     308.2515   -1458.8283    495.77919    419.80388   -179.76416    39359.762 
  377200    292.97925   -1473.2594    480.17756    321.25798   -298.10485    39359.762 
  377300      293.239   -1526.1245    491.55927    280.93988   -56.544257    39359.762 
  377400    308.80914   -1508.3319    485.38375    362.40648    131.64116    39359.762 
  377500    304.89425   -1499.6322    471.18194    339.34165   -71.692652    39359.762 
  377600    312.70504   -1502.1259    481.81591    382.52205   -113.68891    39359.762 
  377700    310.08659   -1515.0504    477.69015    353.72515   -274.84408    39359.762 
  377800    300.84017   -1516.3515    462.25544    295.50878    -384.2217    39359.762 
  377900    288.66219   -1503.8122     479.4464    270.60713   -495.11186    39359.762 
  378000    307.69927   -1524.5693    465.23859    321.04484    145.82814    39359.762 
  378100    312.07582   -1514.4558     476.1236    361.67711    408.27253    39359.762 
  378200    291.40109   -1467.3811    480.91365    320.79257    401.77485    39359.762 
  378300    299.25904   -1462.4645    506.56281    386.60996    33.768625    39359.762 
  378400    300.16489   -1469.2444     453.0874    330.41851    215.62904    39359.762 
  378500    302.43445   -1457.1864    510.89994     410.4705    301.69788    39359.762 
  378600    302.49797   -1461.9756     477.3707    372.43704   -62.349359    39359.762 
  378700    296.45503   -1471.6582    515.12823    373.40265    369.01276    39359.762 
  378800    303.30254   -1472.6331    499.79994    387.81816    612.01629    39359.762 
  378900    305.73857   -1512.2459    473.07144    332.40514    335.03812    39359.762 
  379000    305.00578   -1499.8949    494.97351    363.37087    365.46197    39359.762 
  379100    298.45485   -1503.8662    455.91962    290.95745    302.86312    39359.762 
  379200     299.2795   -1515.1468    471.96296    299.41961     154.4411    39359.762 
  379300    305.39226   -1448.5707    485.30211    406.75747    632.30151    39359.762 
  379400    295.10684   -1503.3139    481.22966    301.80024    663.03934    39359.762 
  379500    296.37346   -1469.8722    487.02334    346.71777    1039.1257    39359.762 
  379600     291.5149    -1425.619    480.61186    362.76344     456.1187    39359.762 
  379700    295.81167   -1474.3534    512.80173    365.49477    516.48273    39359.762 
  379800    294.47537   -1479.1441    478.88112    320.78858    614.83351    39359.762 
  379900    297.08278    -1500.101     487.8057     320.4535    48.791697    39359.762 
  380000    304.22333    -1502.263    492.15856     354.6776    179.85295    39359.762 
  380100    292.93505   -1483.0444    477.27681    308.37394    452.07168    39359.762 
  380200    300.18415   -1473.2606    484.61938    358.02063   -144.81652    39359.762 
  380300     292.9306   -1480.8063    461.62864    294.94386   -575.18608    39359.762 
  380400    311.41187   -1462.3316    490.04118    424.74028   -373.25771    39359.762 
  380500    302.69005   -1491.2599    472.43463    339.07839    161.65101    39359.762 
  380600     306.7062   -1518.2987    485.36334    342.98522   -11.712975    39359.762 
  380700    302.32574   -1535.5247    481.51077    302.25536   -121.49657    39359.762 
  380800    300.06027   -1519.8183      449.882    276.16987   -538.52486    39359.762 
  380900    302.41648   -1497.9902    457.35076    316.03698   -532.23751    39359.762 
  381000    298.04904   -1463.8566    486.60565    359.83254   -738.32837    39359.762 
  381100    299.82303   -1492.3277    442.33379    295.04791   -487.94985    39359.762 
  381200    300.10031    -1511.132    500.01643    335.17013    5.0385767    39359.762 
  381300    295.55283   -1486.4704    458.97347    298.38828   -145.63917    39359.762 
  381400    300.39403   -1497.5421    477.52755    327.58889   -13.341872    39359.762 
  381500    290.68557   -1530.7189    474.55133    247.88248    164.68299    39359.762 
  381600    298.71113   -1517.2147    466.98232    289.82136    698.67606    39359.762 
  381700    294.68833    -1477.504    484.52741    329.03034     650.9222    39359.762 
  381800    318.62244   -1470.1448    476.66376    435.89713    672.56915    39359.762 
  381900    298.96447   -1479.1096    446.93544     309.0161   -101.86523    39359.762 
  382000    301.49283   -1483.2659    461.22679    330.49365   -215.88686    39359.762 
  382100    307.62719     -1484.65    492.84446    388.24664    57.804754    39359.762 
  382200      307.789   -1466.2044     471.6136    386.18726   -162.44953    39359.762 
  382300    292.69411   -1443.6867    496.89072    366.26464    88.720747    39359.762 
  382400    301.65798   -1466.7475    482.13732    368.66349    535.81338    39359.762 
  382500    295.31758   -1489.9894    474.47857    309.31902    527.33372    39359.762 
  382600    297.62426   -1457.0087     466.5676    344.73683    438.97737    39359.762 
  382700    296.86963   -1501.7748    478.35837    308.37608     477.0736    39359.762 
  382800    298.16611   -1493.4093    451.33157    295.53098    599.38453    39359.762 
  382900     298.4149   -1502.3356    476.19608    312.58521    880.66174    39359.762 
  383000    299.24954    -1507.176    481.34636    316.63944    858.04579    39359.762 
  383100     291.3497   -1517.6557    487.26347     276.6372    537.31284    39359.762 
  383200    299.94477   -1551.1964    471.85595     266.2475     286.1166    39359.762 
  383300    298.46431   -1543.7836    484.99958    280.16244    864.60896    39359.762 
  383400    290.59539   -1521.7263    477.65398    259.57319    254.26206    39359.762 
  383500     284.7738   -1469.6432    451.21841    259.10438    44.539628    39359.762 
  383600    307.02968   -1471.3597    461.28062    367.29268   -87.730426    39359.762 
  383700    289.51469   -1494.2362    468.03418    272.59537    67.361745    39359.762 
  383800    289.70759   -1482.2369    476.01799     293.4438    207.20751    39359.762 
  383900    300.89174   -1493.3685    464.14049    320.60816    447.99286    39359.762 
  384000    299.06394   -1495.4557    455.94353    302.12426    295.87834    39359.762 
  384100    298.02516   -1473.4443    475.69214    339.22426    555.90756    39359.762 
  384200    308.20399   -1472.9643    494.12693    403.80239    493.23193    39359.762 
  384300    295.48609   -1508.2589    495.03011    312.35698   -63.161913    39359.762 
  384400    302.57718   -1494.1874    453.17363    316.38345      148.096    39359.762 
  384500    289.23534    -1513.028    460.24853    244.76468   -236.44087    39359.762 
  384600    311.50747   -1482.7178    477.21401    391.95583    155.75997    39359.762 
  384700    308.33817   -1526.0698      448.256    305.42794    462.70586    39359.762 
  384800    303.81128   -1535.7814    454.52811    281.68029    310.38391    39359.762 
  384900    292.29827   -1472.8614     491.5723    329.99581    142.96698    39359.762 
  385000    293.39768   -1482.5514    483.05241    316.71801    101.75385    39359.762 
  385100    293.60697   -1445.3649    462.06222    333.85321   -305.78467    39359.762 
  385200    298.81627   -1468.1776    469.35027      341.698   -25.537002    39359.762 
  385300    294.18333    -1448.356    500.45701    371.84251    165.67063    39359.762 
  385400    292.50185   -1471.6955    457.53981    298.04243   -160.86024    39359.762 
  385500    308.73047   -1475.4133    493.44436    403.03275    598.90498    39359.762 
  385600    299.00585    -1494.771    461.16772     307.7726    191.16668    39359.762 
  385700    305.93346   -1513.6032      489.664    348.51472    61.302059    39359.762 
  385800    294.44199   -1473.0336    505.18626    353.05457   -883.57431    39359.762 
  385900     305.4769   -1446.3096    448.89425    372.99039   -114.44796    39359.762 
  386000    296.85958   -1413.9957    481.64678    399.39849    10.265248    39359.762 
  386100    300.71636   -1489.1589    489.80728    349.69781   -121.62611    39359.762 
  386200    308.67911   -1460.7493    487.07032    411.09231   -70.739126    39359.762 
  386300    306.95294   -1444.5042    462.02388    394.54709   -311.15933    39359.762 
  386400    299.76609   -1449.0502    488.85489    384.59104     115.6886    39359.762 
  386500    310.67621   -1440.2412    466.41783    419.90717    123.31922    39359.762 
  386600    301.46933   -1458.2056    473.02054    367.24228    377.34837    39359.762 
  386700    300.17523   -1451.7227    497.02794    391.92706    765.33223    39359.762 
  386800    297.71873   -1446.2393    457.19429    346.55672    741.34658    39359.762 
  386900    291.96328   -1490.3711    480.49766    299.90858    771.30697    39359.762 
  387000    299.31991   -1555.6171    453.59138    240.75905    92.793787    39359.762 
  387100    307.06598   -1496.0585    462.10449    343.58053   -466.27873    39359.762 
  387200    301.20743   -1466.3892    464.88129    349.74453   -356.46758    39359.762 
  387300    301.57486   -1496.1045    438.55346    295.34976   -654.64156    39359.762 
  387400    297.27906   -1476.1994    499.73021     357.1601   -734.23812    39359.762 
  387500    308.99205   -1516.9246     449.0612    318.31175   -312.75789    39359.762 
  387600    299.82086    -1495.254    452.44188    302.21996   -486.38395    39359.762 
  387700    289.61167   -1531.6372    453.10444    220.69972    66.449916    39359.762 
  387800    308.39623      -1526.1    469.06194     326.4642   -37.254432    39359.762 
  387900     296.1143   -1478.7737    485.20651    334.83681    57.631679    39359.762 
  388000    289.06654   -1489.9491    490.14165    296.97946   -308.60534    39359.762 
  388100    295.83325   -1534.5653    461.07696    253.65485   -44.911819    39359.762 
  388200    300.30758   -1526.5548    450.73388     271.3947   -52.281743    39359.762 
  388300    297.79637   -1461.2881    444.21872    318.88059   -571.27219    39359.762 
  388400    304.69634   -1430.2356    484.80399     421.4725    94.659254    39359.762 
  388500    300.28842   -1463.2997    458.70476    342.53472    95.297849    39359.762 
  388600    292.82256   -1469.2059    484.30698      328.738   -57.372494    39359.762 
  388700    305.81785   -1494.1488    479.74633    357.53286    456.04528    39359.762 
  388800    294.73783   -1543.1239    473.30125    252.40643    35.634949    39359.762 
  388900     309.3088   -1495.1678    474.88781    367.31612    409.88971    39359.762 
  389000    297.17459   -1519.8439    467.90964     281.2263    648.47211    39359.762 
  389100    308.30485   -1479.2432     493.8121    397.66121    599.41224    39359.762 
  389200    297.43673   -1463.0667    470.75424    342.02416    416.55641    39359.762 
  389300    302.73643    -1467.121    474.65412     365.6448    1337.4225    39359.762 
  389400    294.06419   -1468.3899    471.23768    322.05477    368.72933    39359.762 
  389500     307.4908   -1471.6406    488.60856    396.40831   -116.54987    39359.762 
  389600    301.70264   -1506.0602    485.20861    332.62239     345.3923    39359.762 
  389700    299.54747   -1517.7831    464.02648    290.04905   -71.044595    39359.762 
  389800    297.36419   -1494.2896    449.44206    289.16367   -462.76026    39359.762 
  389900     303.0908   -1483.0605    449.57168    326.21264   -4.3370171    39359.762 
  390000    290.83229   -1467.0625    485.29991    322.94575    188.33128    39359.762 
  390100    298.63572   -1443.1679    493.36292    389.91043   -42.094763    39359.762 
  390200    304.79758   -1453.7817    499.13044    412.70699    196.89083    39359.762 
  390300    304.47476    -1479.962     465.4973    351.44535    8.2031115    39359.762 
  390400    300.10718   -1502.1942    478.00184     322.1242    166.44444    39359.762 
  390500    301.28266   -1459.9964    463.09834    354.69182     165.1555    39359.762 
  390600     301.4024   -1467.6383    514.75864    399.24745   -27.783223    39359.762 
  390700    301.19185   -1520.3686     454.3806    285.19457    482.70492    39359.762 
  390800     290.9998   -1541.7365    462.40039    226.12365    361.74172    39359.762 
  390900    298.61585   -1541.6738    487.25997    285.21245    128.69666    39359.762 
  391000    303.55822   -1515.6947    488.28252    334.38615    268.65676    39359.762 
  391100    294.79837   -1514.5338    453.95049    261.91728    190.91671    39359.762 
  391200    293.60104   -1506.6517    485.18483    295.66241    290.47714    39359.762 
  391300     304.7819   -1523.1645    450.80258    294.92603    78.791493    39359.762 
  391400    307.90286    -1534.942    458.84583     305.1927    159.59545    39359.762 
  391500     298.5186   -1469.2283    439.91231    309.87403    252.74473    39359.762 
  391600    304.22841   -1479.2056     491.2527    376.85195   -184.29486    39359.762 
  391700    298.82015   -1482.1755    478.36268    336.72999    821.19645    39359.762 
  391800    311.35458   -1463.5667    458.38827    391.59529    167.74956    39359.762 
  391900    304.45215   -1464.2696    467.85741    369.39646    120.15232    39359.762 
  392000    298.14071   -1497.5344    456.58926    296.54962    491.52099    39359.762 
  392100    291.77894   -1491.9633    479.47527    296.46703    887.68118    39359.762 
  392200    296.39245   -1457.6901    464.07917    336.04091    453.98738    39359.762 
  392300    305.46985   -1502.5876    498.88986    366.67636    101.32526    39359.762 
  392400     308.2705   -1485.7101    463.98727    361.21533    77.151898    39359.762 
  392500    307.44107   -1488.5901    440.39552    331.02266    268.52291    39359.762 
  392600    296.97708   -1465.8786    472.32368    338.71964    -85.05769    39359.762 
  392700    299.20756   -1498.9037    462.29779    305.67483   -627.20612    39359.762 
  392800    300.40218   -1484.6665    449.08662    312.06012   -206.55997    39359.762 
  392900    298.46708   -1511.6743    467.43716    294.72171     142.9645    39359.762 
  393000    302.38303   -1487.7161    461.40083      330.211    331.23776    39359.762 
  393100    289.82603   -1522.6515    465.62877    243.17143      90.8315    39359.762 
  393200    301.57755   -1484.4469    491.13116    359.59707    505.78562    39359.762 
  393300    301.82586   -1517.7498    471.32571    307.60269    592.17307    39359.762 
  393400     292.6466   -1520.6683    479.40452    271.58375    702.13822    39359.762 
  393500    297.00352   -1527.5797    467.04678    271.86023    126.60738    39359.762 
  393600    309.67123   -1506.0716    457.66255    340.81301   -280.97633    39359.762 
  393700    311.05017   -1516.0395    462.40203    341.77064   -513.73884    39359.762 
  393800    299.10276   -1527.4317    466.88305    281.26199   -1063.0625    39359.762 
  393900    306.46721    -1500.324    468.02072    342.54514   -693.15863    39359.762 
  394000    298.14126   -1554.3177    451.07243    234.25193   -460.09149    39359.762 
  394100    296.57394    -1508.393    447.04542    269.11845   -426.50663    39359.762 
  394200    292.06254   -1486.3148    476.40762    300.32018    36.660823    39359.762 
  394300    301.42032   -1486.1327    472.94555    339.02029    145.31549    39359.762 
  394400    302.75026   -1515.7848    470.29585    312.68477    10.079277    39359.762 
  394500    289.43494   -1502.9623    453.24208    248.71942    161.45396    39359.762 
  394600    305.05988   -1496.6428    469.17047     341.0627    362.25399    39359.762 
  394700    300.29298   -1459.0649    474.40392    362.48911    336.14356    39359.762 
  394800    303.62854   -1452.4458    477.16716    386.83516   -633.26276    39359.762 
  394900    308.83579   -1485.3446    467.53597    367.66548   -524.69602    39359.762 
  395000    302.06527   -1494.8373    459.90897    320.17243   -724.15956    39359.762 
  395100    296.51993   -1477.7201    470.83775    323.34132   -62.666774    39359.762 
  395200    297.54083   -1515.0078    470.32957    290.12542     289.0661    39359.762 
  395300    301.75831   -1469.2645    476.36541     360.8246    60.560916    39359.762 
  395400    303.75794   -1480.8949    503.88567    385.68502    224.98254    39359.762 
  395500    297.69014   -1467.3437    479.60136    347.73105    70.619631    39359.762 
  395600    297.38876   -1477.7931    501.25505    357.58334   -314.27484    39359.762 
  395700    295.89879   -1461.8551    465.35207    330.93415    -672.8885    39359.762 
  395800    308.87585   -1469.4744     469.8164     385.9958   -313.54783    39359.762 
  395900    309.43264   -1463.0431    457.85146    382.96007   -806.44576    39359.762 
  396000    307.68685   -1449.0226    474.21839    405.51571   -911.66483    39359.762 
  396100    297.33968   -1498.3924    457.59745    293.10628   -512.98743    39359.762 
  396200    295.50009   -1515.2518     473.1032    283.49996   -332.23653    39359.762 
  396300    300.88439   -1482.5586    483.11877    350.36339   -660.27831    39359.762 
  396400    305.39725   -1505.5883    480.67868    345.13885   -199.25527    39359.762 
  396500    291.77135   -1551.8478    460.38819    217.46148   -422.99358    39359.762 
  396600    305.05757   -1533.9959    457.66067    292.18933   -315.27348    39359.762 
  396700    305.02791   -1514.7936    482.26311    335.86101    227.15856    39359.762 
  396800    290.59284   -1532.8712    468.54135     239.3042   -175.24405    39359.762 
  396900    304.48591   -1517.6609    476.35093    324.65011    89.155269    39359.762 
  397000    305.86583   -1541.6676    457.15175    287.63475     363.4996    39359.762 
  397100    302.64396   -1545.6145    506.26705    318.34945    752.61064    39359.762 
  397200    309.88647   -1551.9007    488.51687    326.80375    794.15151    39359.762 
  397300     295.3774   -1483.6674    500.45667    341.88753    853.95536    39359.762 
  397400    285.26454    -1476.133     499.4471    303.04484    797.28849    39359.762 
  397500    312.77931   -1528.0315    490.69397     365.8277    709.26866    39359.762 
  397600    300.82094    -1526.184    465.83491    289.16952    738.47846    39359.762 
  397700    304.29721   -1470.4274    476.11887    370.80499    993.97364    39359.762 
  397800    298.71597   -1514.8222    466.80805    292.06129     441.9705    39359.762 
  397900     295.7747   -1510.6813    483.33711    299.53634    477.44663    39359.762 
  398000    295.90831   -1476.8379    491.99848     342.6405    289.32053    39359.762 
  398100    296.86438   -1504.7325    493.00053    320.03702    298.39131    39359.762 
  398200    301.31052   -1463.4708    486.13391      374.378    264.41853    39359.762 
  398300    305.55282   -1481.4413    474.26689    363.57192     101.9893    39359.762 
  398400    305.71753    -1484.299    498.51867    385.70497     159.8708    39359.762 
  398500     303.7332   -1472.5402     494.1978    384.24089    757.47428    39359.762 
  398600     306.7569   -1533.2733    477.53797    320.41264    330.59269    39359.762 
  398700    310.53928   -1508.6957    484.70385    369.12433    135.23219    39359.762 
  398800    302.82633   -1511.2821    474.83621    322.06912    159.47714    39359.762 
  398900    299.61571   -1523.9749    484.64205    304.77894   -353.64119    39359.762 
  399000     310.4511   -1518.5417    474.77305    348.95199   -286.16495    39359.762 
  399100    295.40777   -1479.5389    477.57628    323.27181   -283.37574    39359.762 
  399200    302.34581   -1464.3326    483.19497    375.22165   -272.40832    39359.762 
  399300    308.27538   -1476.2111    465.88941    372.63841   -116.40179    39359.762 
  399400    300.88435   -1495.3126    489.27805    343.76846     -68.8873    39359.762 
  399500    296.21582   -1496.2559    471.76626    304.36979   -667.05816    39359.762 
  399600    291.53978   -1514.8019    494.62682    287.70711   -362.82872    39359.762 
  399700     304.4872   -1491.5555    478.44876    352.85905    169.79883    39359.762 
  399800    294.32123   -1546.4927     477.5733    251.44075    520.71643    39359.762 
  399900    302.42396   -1528.8449    472.32627    300.19128    568.67614    39359.762 
  400000    299.43116   -1529.6774    473.58215    287.18859    376.52603    39359.762 
  400100    298.10129    -1514.057    471.08857     294.3495   -2.2172818    39359.762 
  400200    293.75962   -1487.9937    474.08459    303.93157   -379.48395    39359.762 
  400300    312.33322   -1467.6152    471.76627    405.31511    -206.5457    39359.762 
  400400    300.93647   -1446.8009    508.63462    411.87058    268.22171    39359.762 
  400500     297.0629   -1452.7794    495.86615    375.74637   -188.09723    39359.762 
  400600    294.14669   -1477.5977    495.38031    337.35973    168.50759    39359.762 
  400700    300.18664   -1474.3622    496.18793    368.49869   -428.19019    39359.762 
  400800    304.22302   -1500.9095    479.66225    343.53344   -319.36632    39359.762 
  400900    304.87162   -1487.7307    482.45705    362.41673    494.29834    39359.762 
  401000    312.39466    -1515.588    465.36318    351.21488     -221.822    39359.762 
  401100     303.2457   -1522.2183    486.64093    324.81899    97.686433    39359.762 
  401200    299.55726   -1535.7554    482.29401    290.38815   -155.78258    39359.762 
  401300    303.90055   -1506.0564     480.8473    338.12502    565.14558    39359.762 
  401400    293.75975   -1544.7502    463.64076    236.73183     200.8815    39359.762 
  401500    298.59005   -1483.8818    482.25531    337.88404    435.69099    39359.762 
  401600    303.39867   -1523.5921    485.98377    323.47421    271.83019    39359.762 
  401700    306.98491   -1529.5223    494.66408    342.31267    599.94812    39359.762 
  401800    300.82044   -1530.4272    489.49118    308.58028    387.94407    39359.762 
  401900    297.74372   -1522.2527    489.53185    302.99293    548.10948    39359.762 
  402000    296.05538   -1531.9819     482.1753    278.33309   -45.491712    39359.762 
  402100    303.65688   -1521.6949    480.03522    320.58128    224.31297    39359.762 
  402200    289.67694    -1511.302    513.83489    302.05816    190.61098    39359.762 
  402300    301.61586   -1475.9737    466.93729    344.04831     500.8052    39359.762 
  402400    310.23459   -1502.8235    502.33045    391.25633    247.51906    39359.762 
  402500     306.3392   -1511.8043    492.38258    354.85238    322.08643    39359.762 
  402600    302.14225   -1501.7366    498.42909    352.13864    85.894836    39359.762 
  402700     297.6791   -1476.5991    486.54573    345.37052   -69.891882    39359.762 
  402800    299.49073   -1493.9791    522.54949    372.12146    40.609651    39359.762 
  402900     295.9794   -1458.2556    467.72188    337.26512    326.25046    39359.762 
  403000    299.62556   -1452.5339    489.15152    380.77357    31.067065    39359.762 
  403100    318.34014   -1487.7334    505.35496    445.73337    571.05082    39359.762 
  403200    297.81488   -1520.4001      455.257    270.88993    399.49193    39359.762 
  403300    304.53014   -1553.1156     478.3025    291.34533    270.29838    39359.762 
  403400    299.83714   -1519.1225    494.31449    320.29713    29.184224    39359.762 
  403500    312.05841   -1525.6633    464.99964    339.26754    249.03647    39359.762 
  403600    290.15084   -1532.6599    475.97039    244.96172   -228.99565    39359.762 
  403700    308.36418   -1504.7182    488.58883    367.22908   -160.89455    39359.762 
  403800    319.86226   -1499.3396    483.50565     419.1063    230.37654    39359.762 
  403900    306.85016   -1503.3584    482.25453     355.4625   -144.97481    39359.762 
  404000    303.65252   -1476.3661    490.50402     376.3593   -80.404219    39359.762 
  404100    294.79366   -1496.6302    486.55455    312.40386   -656.98069    39359.762 
  404200    300.62037   -1468.4571    512.44052    392.60216   -173.49751    39359.762 
  404300    291.56197   -1549.7118    470.51049    228.78045   -976.87783    39359.762 
  404400    292.91803   -1517.2933    484.66651    281.43834   -366.47754    39359.762 
  404500    292.13487   -1509.0741    491.37137    292.84907   -158.47376    39359.762 
  404600    306.72577   -1522.4456    491.08055    344.64331    249.94161    39359.762 
  404700    299.97318   -1506.4073    509.26091    348.56901   -219.18267    39359.762 
  404800    298.29141    -1520.466    495.54949    313.25429   -292.22422    39359.762 
  404900    301.42134   -1515.6101    509.56829    346.17026    206.55501    39359.762 
  405000    306.50671   -1564.5649    471.17084    281.63155   -441.42334    39359.762 
  405100    302.58805   -1524.2405    497.14031    330.34583   -125.43849    39359.762 
  405200    296.28619   -1574.0417    462.00438    217.13784   -412.56129    39359.762 
  405300     295.4462   -1581.6932    473.13583    216.84946   -304.47316    39359.762 
  405400     302.8843   -1511.3538    490.54778    337.96904   -384.06885    39359.762 
  405500    297.27617   -1541.1946    491.45361    283.87531   -268.11505    39359.762 
  405600    301.82674   -1545.3921    506.05211    314.69074    394.27044    39359.762 
  405700    293.52228   -1520.3384    495.82782    292.26537    209.24216    39359.762 
  405800    311.55784   -1522.6746    493.76262    368.77361    692.69221    39359.762 
  405900    310.62152   -1504.8335    502.95628    391.60789    678.16313    39359.762 
  406000    308.50621   -1552.9656    467.83117    298.86117    312.95494    39359.762 
  406100    306.33096   -1531.4648    494.65982    337.43219    99.559999    39359.762 
  406200    310.56389    -1545.536    489.31615    337.00678     166.3798    39359.762 
  406300    292.25796   -1504.3439    498.24853    305.00864    361.79365    39359.762 
  406400    301.55123   -1505.4014    468.26546    315.65883    69.727759    39359.762 
  406500    292.18165   -1540.7696     495.9731    265.96518   -147.99301    39359.762 
  406600    308.02094   -1565.1871    486.88609    303.51766    30.102374    39359.762 
  406700    299.21681   -1527.2073    461.78518    276.90016    389.67867    39359.762 
  406800     292.0715     -1481.21    498.43543    327.49296   -141.89858    39359.762 
  406900    292.96552   -1571.2092    485.41895    228.48794    377.69983    39359.762 
  407000    304.49862   -1574.0331    477.57927    269.56318    647.42964    39359.762 
  407100     291.9119   -1504.7043    488.36801    293.21531    379.54017    39359.762 
  407200    302.62094   -1486.2001     528.6696    400.06302   -259.83343    39359.762 
  407300     297.0825   -1503.1908    506.37931    335.93596    97.172411    39359.762 
  407400    301.09052   -1512.3308    489.66475    328.06193    139.01357    39359.762 
  407500    299.18134    -1531.619    482.19217    292.73633    433.57598    39359.762 
  407600    300.14122   -1488.6704    507.05878    364.85761     -327.063    39359.762 
  407700     298.2619   -1497.2507    462.71151    303.49925   -636.16844    39359.762 
  407800    301.87119   -1449.8288    521.21996    425.62126   -353.46256    39359.762 
  407900     306.8604   -1480.2951    499.59031    395.90755   -429.33991    39359.762 
  408000    296.86472   -1488.0386    492.30364    336.03553   -638.10134    39359.762 
  408100    287.44664   -1536.1536    477.36481    230.73105   -237.93902    39359.762 
  408200    293.11473   -1514.9691    493.82959     293.8081   -377.26383    39359.762 
  408300    301.81044   -1489.3316    496.02727    360.65328    226.50364    39359.762 
  408400    304.75153   -1487.3219    489.18835    369.01814    608.91623    39359.762 
  408500     299.0168   -1469.5697    494.29709    366.15237    130.17687    39359.762 
  408600     299.8412   -1496.1123    491.85972    340.87078    11.827862    39359.762 
  408700    312.42712    -1480.135    483.28844    404.73871    241.58467    39359.762 
  408800     295.7713   -1492.1279    520.22618    354.96359   -414.84393    39359.762 
  408900    300.63024   -1484.4976    489.83784    354.00331   -131.21347    39359.762 
  409000    295.84625   -1520.0193    470.81254    277.99477   -390.72194    39359.762 
  409100    297.06284   -1506.4407    473.86399    300.08262    -99.49809    39359.762 
  409200     315.1951   -1487.5032    494.66324    421.16281      26.3271    39359.762 
  409300    289.85616   -1465.5225    486.52934    321.33612    -188.2273    39359.762 
  409400    286.83123   -1474.6542    502.65889    314.76375    93.596628    39359.762 
  409500    299.71286   -1501.2118    523.11624    366.45202   -274.07594    39359.762 
  409600    304.21714   -1483.8765    477.32576     358.2036   -225.50864    39359.762 
  409700    298.16731   -1530.8187    483.33391    290.12929   -354.94168    39359.762 
  409800    300.81578    -1476.383    475.05597    348.16837   -295.47772    39359.762 
  409900    295.24264   -1451.8215    501.27772     373.9499    152.37137    39359.762 
  410000    291.55308   -1484.3963    486.81495     310.3605     198.9295    39359.762 
  410100    289.30629   -1510.1535    464.89623    252.60516   -269.29519    39359.762 
  410200    299.96445   -1504.1677    466.38752    307.89609    -46.16022    39359.762 
  410300    290.10195   -1495.3808     492.8726    298.92374    144.50509    39359.762 
  410400    303.77626   -1492.6573    484.09967    354.21886    393.56967    39359.762 
  410500    293.01535   -1476.0703    485.21025    323.64175    24.150348    39359.762 
  410600    295.18609   -1509.8712    482.79479    297.16353   -46.026927    39359.762 
  410700     298.7329   -1498.8644    494.48605      335.773    412.53751    39359.762 
  410800    297.10899   -1494.0208    469.33568    308.18123    212.46249    39359.762 
  410900    302.23469   -1539.1374    496.14187    312.86529    62.399461    39359.762 
  411000    289.43191   -1508.7699    495.71661    285.37271   -136.35815    39359.762 
  411100    296.94094   -1519.7654    490.21579    302.56278    179.84913    39359.762 
  411200    294.33591   -1490.1539     487.2835    317.55555   -124.61503    39359.762 
  411300    305.36011   -1478.5625    481.09514    372.41444    359.54564    39359.762 
  411400    295.82765   -1470.9812    507.05546    363.19237    350.29031    39359.762 
  411500     302.3193   -1468.7181    498.04029    385.56258    -66.64005    39359.762 
  411600    314.12895   -1476.9857    471.14682      403.381   -121.44938    39359.762 
  411700    305.20241   -1451.4716    505.78461     423.4874    434.19189    39359.762 
  411800    301.48981   -1441.5299    485.04015    396.02945   -190.74089    39359.762 
  411900    290.90836   -1426.4083    477.49298    356.13426    115.95811    39359.762 
  412000    301.77228   -1461.0129    495.42013    388.19364   -215.98676    39359.762 
  412100    304.60681   -1498.3865    469.75588     337.8718    101.12365    39359.762 
  412200    282.40242   -1464.4536    526.71827    329.15556    6.3436419    39359.762 
  412300    302.19731   -1481.8035    480.02671    353.91635   -157.27857    39359.762 
  412400    297.99587    -1495.443    489.57098    330.97294   -76.682193    39359.762 
  412500    309.60136   -1480.6298    492.00066    400.27944   -122.37761    39359.762 
  412600    290.76757   -1515.1867    478.77582    268.00708    -267.1311    39359.762 
  412700    308.22417   -1515.6171    503.65192    370.76516    113.72414    39359.762 
  412800    306.31827   -1523.9206    505.56943     355.8291   -168.87686    39359.762 
  412900    296.67833   -1492.6051    498.16597    336.49515     31.83022    39359.762 
  413000    298.86842   -1460.9236    499.66969    379.50538   -181.06853    39359.762 
  413100    298.32765    -1461.716    485.13794    361.75536   -119.85952    39359.762 
  413200     298.4101   -1448.9478    486.68258    376.43803   -611.17382    39359.762 
  413300    297.39444   -1457.5245    483.16577    359.78816   -562.15524    39359.762 
  413400     302.1629   -1463.1908    482.71135    375.05934   -219.23853    39359.762 
  413500    300.79612   -1484.8305    486.10636    350.68313   -219.85404    39359.762 
  413600    301.48418   -1492.1838    478.10107    338.41118   -316.71183    39359.762 
  413700    305.14683   -1502.5926     483.2651    349.59753   -157.04014    39359.762 
  413800    299.16802   -1497.7179    477.00382    321.38932   -119.98201    39359.762 
  413900    310.73235     -1530.34      487.289     350.9313   -117.64765    39359.762 
  414000     292.4051   -1496.5189    507.47968    322.72488   -584.66949    39359.762 
  414100    305.37395    -1495.703     491.3572     365.5981   -639.63822    39359.762 
  414200    307.57602   -1451.5222     507.9325    436.23301    216.66965    39359.762 
  414300    295.35982   -1481.2017    491.38063    335.19828    556.67965    39359.762 
  414400    296.91034   -1489.1373    492.62705    335.46493    591.58912    39359.762 
  414500    311.74483    -1462.502    489.70561      425.728    66.822003    39359.762 
  414600    293.03571    -1489.082    482.45854    307.96966    327.28757    39359.762 
  414700    311.23049   -1567.8897    484.37984    312.70719    401.45724    39359.762 
  414800    291.70557   -1504.3647    511.79028    316.05153    367.95973    39359.762 
  414900    304.26545   -1490.4943    483.32205    357.79879   -149.94479    39359.762 
  415000    294.81715   -1492.6678    502.03345    331.95046   -131.25249    39359.762 
  415100    304.25761   -1541.2398    481.84129    305.53739   -143.28385    39359.762 
  415200    302.88409    -1539.911    458.12251    276.98559   -378.31973    39359.762 
  415300    290.81021   -1521.6566    499.74954    282.70221   -244.12204    39359.762 
  415400    309.25402   -1527.9652    498.99519     358.3803    22.346348    39359.762 
  415500    300.33331   -1516.7737    483.91327    314.47059   -295.01611    39359.762 
  415600    298.32422   -1524.5842    495.97736     309.7112    172.40613    39359.762 
  415700    294.01877   -1527.6458    470.36429    261.72172    102.08098    39359.762 
  415800    298.75465   -1535.6628    501.69389    306.28007   -42.717879    39359.762 
  415900    316.42195   -1479.8849    487.52675    427.14844    408.24625    39359.762 
  416000    294.54982     -1519.11    471.02516    273.30074   -97.425113    39359.762 
  416100    303.78148   -1504.1598    515.95852    374.59859     440.8336    39359.762 
  416200    290.61498   -1500.8448    485.42704    288.31561     391.4516    39359.762 
  416300    294.73167   -1502.9604    474.16206    293.40305   -75.527117    39359.762 
  416400    300.45702   -1507.3206    529.11624    369.68159    202.49002    39359.762 
  416500     295.8022   -1462.5392    481.40478    345.86949    370.30194    39359.762 
  416600    308.47979   -1480.8903    496.72124    399.70802   -111.27729    39359.762 
  416700    295.54729   -1458.6729    482.20994    349.39737   -847.68006    39359.762 
  416800    298.92474   -1451.5415    492.17097    381.64144   -963.28138    39359.762 
  416900    295.22149   -1521.9227    469.36549    271.84151   -379.54777    39359.762 
  417000    308.15714   -1480.1445    461.61504    363.90017   -109.51278    39359.762 
  417100    316.57626   -1505.4626    500.41217    415.14841   -268.12918    39359.762 
  417200    308.97355   -1527.7618    480.42602    338.75636   -690.06826    39359.762 
  417300     305.4535   -1558.4686    462.85013    274.68227   -918.21366    39359.762 
  417400    308.65949   -1526.0349    464.16921    322.81755   -384.15797    39359.762 
  417500    295.13953   -1480.8581    460.72363    303.89657   -698.72679    39359.762 
  417600    302.62273   -1481.0676    519.46691    396.00091    176.66023    39359.762 
  417700    299.96063    -1516.675    448.95858    277.94269   -498.12436    39359.762 
  417800    299.96476   -1518.1884    447.92616    275.41538    -431.7555    39359.762 
  417900    304.33606   -1475.9925    488.94064    378.23593    48.903438    39359.762 
  418000    305.61418   -1457.1875    490.54941     404.3835    789.85304    39359.762 
  418100     295.5908   -1472.6205    498.40919     351.8442    459.30488    39359.762 
  418200    294.56373    -1519.269    478.78505    280.96403    173.22198    39359.762 
  418300    300.68928    -1493.947    478.45108    333.43203    46.219429    39359.762 
  418400    305.29508   -1508.2479    494.38656    355.72877   -386.18965    39359.762 
  418500    289.98708   -1487.6986    483.99384    297.21185   -89.244903    39359.762 
  418600     308.5074   -1521.7464    480.00599    342.26051     184.6437    39359.762 
  418700    293.34896   -1515.2889    489.36538    290.07482   -73.026623    39359.762 
  418800    300.70205   -1562.1156    454.20228    241.07195   -46.525484    39359.762 
  418900    298.84934   -1544.6041    480.07691    276.14656    419.87781    39359.762 
  419000    290.75004     -1550.77    475.83883    229.40817    373.61942    39359.762 
  419100    291.02299   -1542.4984    491.37045    254.43587    1143.0409    39359.762 
  419200    307.89168   -1554.4066    493.03997    319.87214    1320.3569    39359.762 
  419300    298.83584   -1496.6763    484.46014    328.39705    1203.9841    39359.762 
  419400    296.31101   -1550.6787     470.5153     249.1231    864.46143    39359.762 
  419500    301.68359   -1588.3317    445.12037    210.17724    300.88846    39359.762 
  419600    303.54695   -1518.9564    481.10648    323.89785     389.7686    39359.762 
  419700     295.0507   -1545.5967    489.30789    267.34377    379.67098    39359.762 
  419800    301.38292   -1542.5038    481.16466    290.70058    322.35151    39359.762 
  419900    297.41361   -1496.0612     510.7061    348.87782   -179.41937    39359.762 
  420000    299.30929   -1466.3769    481.59959    357.95978     300.5373    39359.762 
  420100    293.25749   -1490.6241    472.84144    297.80536    287.37055    39359.762 
  420200    297.80302   -1484.5777    496.98512     348.3872    566.86244    39359.762 
  420300    294.54712   -1489.0124    468.79554    301.15661    749.60053    39359.762 
  420400    307.84901   -1520.9098    473.41546    333.55304     721.0487    39359.762 
  420500    306.38016   -1533.8584    475.63786    316.23734    682.08427    39359.762 
  420600    305.95508   -1556.2495    464.52571    280.82719    254.88209    39359.762 
  420700    298.00936   -1541.9695    473.41191    268.34786    243.66667    39359.762 
  420800    293.24727   -1518.3188     455.7487    252.97206    222.17473    39359.762 
  420900    314.24525   -1562.9082    453.87497    300.70837    707.65341    39359.762 
  421000    294.92707   -1532.0162    472.14434    263.20609    446.82765    39359.762 
  421100    294.04935   -1516.0473    460.96652    264.05967   -36.094502    39359.762 
  421200    298.21967   -1494.9007    501.92855    344.87683    295.74785    39359.762 
  421300    309.79594   -1547.5553    451.58381    293.80994   -102.20281    39359.762 
  421400    305.40752   -1555.7385    476.96395    291.31999    297.69775    39359.762 
  421500    292.99874   -1557.3642    473.07024    230.13329   -286.84524    39359.762 
  421600    305.66296   -1541.8276    449.33665    278.74948   -131.42723    39359.762 
  421700    302.26551   -1565.2894    479.69471    270.40436    8.6829586    39359.762 
  421800    294.62265   -1576.6431    472.35012    217.41927   -204.10089    39359.762 
  421900    283.72096   -1538.6633    446.85537    180.99808    69.028827    39359.762 
  422000    306.13712   -1521.8594    451.48156    302.98978    111.98814    39359.762 
  422100    300.78873   -1536.3171    492.27542    305.33237    438.72303    39359.762 
  422200    297.42379   -1542.8824    477.19802    268.59422    508.44242    39359.762 
  422300    288.51945   -1516.6665    475.46847    253.13455    705.51798    39359.762 
  422400    292.57804   -1487.4259    484.65168    309.76572    284.18382    39359.762 
  422500    296.65054   -1562.7555    480.55278    248.60695    426.80148    39359.762 
  422600    301.99413    -1537.162      487.671    305.29067    685.42666    39359.762 
  422700    301.05536   -1565.7961    458.09809    242.87222    725.03201    39359.762 
  422800    303.86001   -1561.9498    471.90611    273.10852    287.64574    39359.762 
  422900    299.59391    -1570.102    460.37174    234.28375    96.245412    39359.762 
  423000    310.18481   -1555.8922    442.91858    278.55242    129.39514    39359.762 
  423100    295.81699   -1503.2121    490.31195    314.17013   -257.11313    39359.762 
  423200    293.37842   -1544.6638    466.11959    237.58633   -217.83441    39359.762 
  423300    308.04512     -1522.04    456.09312    315.98024   -59.505559    39359.762 
  423400    294.45736   -1526.5748    454.56436    248.96035   -520.66237    39359.762 
  423500    308.82265   -1506.2515    465.48036    344.64406   -122.78594    39359.762 
  423600    294.59826   -1501.3912    470.77165    290.98336   -66.734989    39359.762 
  423700    307.20135   -1448.8433    473.76205     403.0606   -478.68392    39359.762 
  423800    301.45171   -1471.9391    483.67085       364.08   -152.71589    39359.762 
  423900    304.82935    -1467.119    481.00325    381.38505    148.65243    39359.762 
  424000    305.18592   -1469.8224    481.88386     381.1619   -24.134079    39359.762 
  424100    300.97164   -1458.9003    482.29634    373.59061    632.28975    39359.762 
  424200    296.39793   -1441.0665    470.95173     359.5617    317.52329    39359.762 
  424300    292.76006   -1433.3594    453.98805    333.98518    383.22803    39359.762 
  424400    291.80405   -1472.5331    461.58198    298.11658    293.70711    39359.762 
  424500    298.03626   -1459.5137    486.17659    363.68903    931.58356    39359.762 
  424600    288.54546   -1462.5217    495.69982    327.62741    425.43664    39359.762 
  424700    298.49664   -1462.2092    460.83783    337.72008    651.62983    39359.762 
  424800    298.73766   -1453.8455    483.98432    370.31148    13.475263    39359.762 
  424900    301.64611   -1487.8841    460.47734    325.81361    338.78849    39359.762 
  425000    290.31477   -1438.8327    494.45171    358.00563    175.88491    39359.762 
  425100    305.80183   -1472.2994    462.16548    361.72953    559.83262    39359.762 
  425200    303.37377   -1504.1736    450.46374    307.26102    560.69254    39359.762 
  425300    305.71511   -1510.7863    491.74596    352.43408    298.29754    39359.762 
  425400    293.17102   -1462.8375    456.99977    309.36241    733.95739    39359.762 
  425500    291.25872   -1445.6881    468.61638    329.54964    474.62193    39359.762 
  425600    303.39592    -1483.106    450.02939    327.99365   -56.187928    39359.762 
  425700    294.80038   -1489.2618    470.28927    303.53712   -114.80527    39359.762 
  425800    293.63856   -1447.9378    462.97138    332.33113   -264.86691    39359.762 
  425900    302.08966   -1498.9973    468.87755     325.0905   -525.38776    39359.762 
  426000    310.65144   -1452.7471    451.09187    391.96412   -38.378249    39359.762 
  426100    300.83422   -1467.4954    456.67279    338.75551   -304.97175    39359.762 
  426200    296.85257   -1496.1266    441.54997    277.13936   -46.961084    39359.762 
  426300    305.67334    -1469.791    462.84501    364.34102   -354.54645    39359.762 
  426400    292.73883   -1434.7353     458.8091    337.33512   -614.26215    39359.762 
  426500    299.22672   -1442.9555    465.32829    364.73951   -690.81967    39359.762 
  426600    288.46874   -1475.9549    464.41026    282.56044   -438.52911    39359.762 
  426700    292.70151   -1481.0159    495.02616    327.10403   -60.150887    39359.762 
  426800    297.93712   -1491.8044    484.42239    329.19943    536.93019    39359.762 
  426900    298.05128    -1509.592    462.17072    289.67226    988.49494    39359.762 
  427000    308.41622   -1564.9875    469.44572    288.05009    824.29908    39359.762 
  427100     300.3914   -1542.0063    471.80267    277.38792    451.63667    39359.762 
  427200    298.22484   -1516.8965    468.37568    289.35135    956.77347    39359.762 
  427300     298.5189   -1514.5061    482.13793    306.82318    205.60708    39359.762 
  427400    295.48273   -1489.0716    476.25422    312.75336     349.4241    39359.762 
  427500    291.31625   -1493.7845    459.02345    272.11836    523.81231    39359.762 
  427600    296.83883   -1486.7577    470.64327    315.53988    518.20503    39359.762 
  427700    289.98318   -1482.3711    473.79398    292.32192   -100.86176    39359.762 
  427800    299.08202   -1453.1161    477.57912    366.18059    64.609846    39359.762 
  427900     303.6832   -1469.7996    463.99093    356.55034   -245.53197    39359.762 
  428000    300.88193   -1423.8749    499.09331    425.01063    14.574916    39359.762 
  428100    308.87787   -1465.8947    478.29351    398.06177   -205.90495    39359.762 
  428200    291.11007   -1439.2454    464.52556    331.23462    -539.8154    39359.762 
  428300    296.82192    -1454.661    459.23556    336.15304   -457.72437    39359.762 
  428400    289.39647   -1449.0407    482.39363    331.61991   -760.85972    39359.762 
  428500    295.53258   -1416.4376    469.55218    378.90891   -615.82931    39359.762 
  428600    296.23184   -1438.9145    480.89517    370.91196   -436.26172    39359.762 
  428700    290.29925   -1496.0317    492.78469    299.06997   -432.62529    39359.762 
  428800    302.26049   -1476.6186    488.19721    367.55512   -204.55409    39359.762 
  428900    298.13589   -1426.5715    482.21949     393.1211   -117.23134    39359.762 
  429000    294.98084    -1434.608    477.65638    366.36758    277.64192    39359.762 
  429100    306.59774   -1433.8971     494.7792    436.31608   -695.25822    39359.762 
  429200    302.93485   -1451.1403    457.01924    364.88074   -371.66609    39359.762 
  429300    303.97406    -1455.392    456.39421    364.66611   -623.98391    39359.762 
  429400    289.69193   -1473.2379    500.84974    327.20431   -239.44021    39359.762 
  429500    288.38811   -1486.1743    491.96733    299.53644   -94.951917    39359.762 
  429600    296.72047   -1488.8434    470.55633    312.83633   -255.65272    39359.762 
  429700     304.6604    -1460.902    476.84703    382.68789    61.778158    39359.762 
  429800     303.9427   -1466.4877    468.91413    365.94961   -5.0282544    39359.762 
  429900    293.70628   -1446.6374    477.79714    348.76109   -510.08914    39359.762 
  430000     294.4362   -1463.4026    481.92792    339.40119   -182.04229    39359.762 
  430100    302.69183   -1494.8388    492.87236    355.94517   -58.962509    39359.762 
  430200    290.17705   -1502.1782    486.71197    286.30259    -178.0676    39359.762 
  430300    300.27093   -1502.1405    459.15965    304.07028   -20.375046    39359.762 
  430400     298.7563   -1506.5715    455.08936    288.77424   -230.77084    39359.762 
  430500    300.57952   -1502.1301    455.34023    301.64567   -622.19814    39359.762 
  430600    295.05328   -1518.9306    455.69475    260.40834   -468.98576    39359.762 
  430700    306.74258   -1502.9281    459.88036    333.03601    -487.0106    39359.762 
  430800    301.34358   -1527.8871    459.61516    283.59126   -309.81825    39359.762 
  430900    301.04398   -1537.2593    462.86565     276.1255    449.60821    39359.762 
  431000    297.27915   -1526.7016    469.10222    276.03031    335.80224    39359.762 
  431100    287.76699   -1475.4349    474.80298    290.32505    279.25658    39359.762 
  431200     295.5697    -1464.015    483.39015    345.33604    290.32734    39359.762 
  431300    294.16131   -1466.7549    480.49524    333.38299    230.54567    39359.762 
  431400    303.45756   -1491.7516    482.70145    352.29665    93.225559    39359.762 
  431500    306.90828    -1476.533    482.71099    383.00513    317.24635    39359.762 
  431600    302.96175   -1513.1421    491.41793     337.3983    352.80393    39359.762 
  431700    302.27659   -1522.1249    460.48748    294.41135     560.2023    39359.762 
  431800    303.30204   -1497.7073    456.44199    319.38379    627.93421    39359.762 
  431900    307.56026   -1532.2977    450.07207    297.52631    595.30138    39359.762 
  432000    306.22085   -1510.7531    468.66656    331.65664     90.19051    39359.762 
  432100     288.7105    -1500.418     464.6345    259.40621   -392.61379    39359.762 
  432200    301.35099   -1480.2487    445.36043    317.00816   -162.24442    39359.762 
  432300    294.84544   -1501.3711    452.20832    273.54901   -727.06622    39359.762 
  432400    300.24874   -1515.3809    453.15097    284.72169   -538.49659    39359.762 
  432500    291.38305   -1484.6973    491.92895    314.41069   -139.46028    39359.762 
  432600     287.4573   -1510.3069    477.23279     256.4936    312.67937    39359.762 
  432700    310.02269   -1532.2312     471.3853    329.95282     336.6892    39359.762 
  432800    304.58583   -1469.7363    461.33232    358.00437    8.1029266    39359.762 
  432900    296.72487   -1488.9969    483.61286    325.75909    440.75777    39359.762 
  433000     297.6743   -1472.7422    455.31945    317.97957    40.501567    39359.762 
  433100    299.87831   -1448.1669    478.46725    375.59015    371.01239    39359.762 
  433200    303.88735   -1457.9689    478.35211    383.65812    79.037983    39359.762 
  433300    309.28337   -1469.8068    496.98312     414.6584    338.71172    39359.762 
  433400    299.08735   -1453.1459    479.37457    367.97018    46.875283    39359.762 
  433500    292.90787   -1445.4108    488.04315    356.65191    388.14356    39359.762 
  433600    297.22454   -1453.4332    496.95432    376.90574    21.617896    39359.762 
  433700    300.92648   -1460.2613    480.64655    370.37732   -30.577449    39359.762 
  433800     296.2677   -1461.4372    494.62417    362.27915    102.33065    39359.762 
  433900    293.98322   -1478.9935    495.17908    335.02939   -214.53831    39359.762 
  434000    306.71629   -1454.3568    470.36707    391.97606    48.639488    39359.762 
  434100    309.08063    -1460.604    494.64106    420.60959   -289.09588    39359.762 
  434200    295.49574   -1471.1592    470.95804    325.42797   -823.35926    39359.762 
  434300    300.47077   -1488.4541    471.22449    330.71804   -786.68604    39359.762 
  434400    312.02116   -1509.5639    451.20446    341.40464   -255.30093    39359.762 
  434500    306.76723   -1486.1845    471.96518    361.97506   -652.86746    39359.762 
  434600    298.84923   -1486.2088    458.02012    312.48457    -57.57251    39359.762 
  434700    288.32179   -1514.5231     460.9107    239.83349   -17.115181    39359.762 
  434800    291.53238   -1473.7672    470.57832    304.66013    -372.3119    39359.762 
  434900    304.53332   -1488.5088    459.50973    337.17371   -151.74862    39359.762 
  435000    298.90397   -1497.9309    488.34595    331.33383     33.59785    39359.762 
  435100    306.28996   -1525.5969    474.19594    322.65233   -387.00192    39359.762 
  435200    293.81809   -1538.7633     472.5497    251.88935    146.72615    39359.762 
  435300    299.42379   -1548.1345    462.25597    257.37224   -107.02629    39359.762 
  435400    296.23726   -1522.6812    469.43441     275.7088   -415.25939    39359.762 
  435500    298.92523   -1485.2252    483.33315    339.12216    33.619997    39359.762 
  435600    299.82257   -1495.2195    464.22041    314.04072    356.33738    39359.762 
  435700    302.43481   -1532.7362    468.14537    292.16773   -274.20182    39359.762 
  435800    304.44561   -1500.0926    475.50801    341.19463    300.98452    39359.762 
  435900     302.9564   -1521.8752    478.28485    315.50819   -68.393079    39359.762 
  436000     298.0205   -1521.2407    490.34014    306.05494    146.93967    39359.762 
  436100    312.54628   -1500.6396    474.32263    375.80284    82.312004    39359.762 
  436200    297.35337   -1510.5146    492.76284    316.21082    159.85327    39359.762 
  436300    297.00142   -1513.7698    496.00171     314.6156    356.09832    39359.762 
  436400    291.87481   -1514.4799    482.46673    277.37202   -88.073927    39359.762 
  436500    296.40422   -1562.4787    487.30189    254.52782   -338.33316    39359.762 
  436600    300.87111   -1543.6634    462.41275    268.49301    228.26722    39359.762 
  436700    304.63173   -1520.9101    502.67935    348.38354    442.69102    39359.762 
  436800    304.14345   -1525.8079    480.96614    319.58199    212.29398    39359.762 
  436900    295.49216   -1501.7941    488.44144    312.26036    267.78977    39359.762 
  437000    306.69626   -1510.3581    480.46296    345.98079    -307.8451    39359.762 
  437100    303.14333   -1559.9402    462.97944    262.97637   -382.81002    39359.762 
  437200    312.16375   -1521.7211    498.77589    377.45858   -11.787975    39359.762 
  437300    302.04247   -1528.0136    467.74206    294.72694    54.421577    39359.762 
  437400    298.12807      -1551.3    460.97151    247.10953   -398.13601    39359.762 
  437500    301.16898   -1533.8225    486.50169    303.75907    228.63442    39359.762 
  437600     307.5854   -1528.7892    465.22094    316.29649    278.82747    39359.762 
  437700    306.48628   -1554.1767    478.83455    299.59182    68.335652    39359.762 
  437800    291.23548   -1547.2501    489.70769    248.97466    27.448166    39359.762 
  437900    297.02109   -1559.1096    474.11946    247.48186     239.1997    39359.762 
  438000    298.87841   -1547.7082    483.53586    276.63184   -136.71709    39359.762 
  438100    301.92053   -1529.4636    477.37536    302.36322    65.356442    39359.762 
  438200    302.75586   -1520.1196    476.81728    314.89656    489.71117    39359.762 
  438300     300.4114    -1527.942    475.96567    295.70504    307.46269    39359.762 
  438400    292.89805   -1518.8046    486.47073     281.6417     469.6294    39359.762 
  438500    307.98372   -1556.5236     478.5059    303.63391    932.23793    39359.762 
  438600    296.32554    -1503.302    481.60127    307.65098    624.55257    39359.762 
  438700    296.39083   -1516.1836    477.06739    290.52837    650.80071    39359.762 
  438800    299.12665   -1516.5552    495.55545    320.91809     466.2787    39359.762 
  438900    295.39836   -1546.0676    502.40409    281.52866    824.37026    39359.762 
  439000    295.29041    -1521.392    472.43987    275.75578   -53.043624    39359.762 
  439100    310.22187   -1508.8237    469.26961     352.1382    83.891614    39359.762 
  439200    307.91716   -1565.9703    453.13256    268.51532    53.434745    39359.762 
  439300    296.76748   -1550.7601    474.12349    254.69765     47.09178    39359.762 
  439400    304.45109   -1514.1183    511.82601    363.51155   -122.26339    39359.762 
  439500    290.30608   -1481.6982     496.7653    317.41477    282.62368    39359.762 
  439600     295.8843   -1525.2184    465.03023    267.18409    422.54695    39359.762 
  439700     304.3737   -1536.0774    461.00315    290.38246   -339.50192    39359.762 
  439800    298.40764   -1561.6501    473.51841     250.5605   -53.909929    39359.762 
  439900    300.58055   -1542.0649    489.09132    295.46657   -40.814142    39359.762 
  440000    295.08449   -1501.8371    492.26794    314.21501    37.304258    39359.762 
  440100    306.27216   -1520.6744     483.3203    336.61936    229.76472    39359.762 
  440200    305.02502   -1509.0504    485.48364     344.8118   -271.42132    39359.762 
  440300    299.82098   -1509.8865    485.41583    320.56198   -86.814854    39359.762 
  440400     291.3472   -1506.0359    478.54659    279.52899   -258.49375    39359.762 
  440500    289.69768   -1478.1489    481.36064    302.83002   -6.3743175    39359.762 
  440600    298.95909   -1491.8584    499.80513     349.1128   -57.067835    39359.762 
  440700    293.71492    -1499.945    470.02523    287.72041    113.54146    39359.762 
  440800    292.26297   -1496.5656    513.11648    327.67737    29.785671    39359.762 
  440900    293.07576   -1487.2523    516.58837     344.1088    107.86846    39359.762 
  441000    306.53852   -1462.1607     483.0984    396.10608    364.53023    39359.762 
  441100    304.63531    -1476.526    496.60652    386.71084   -253.95483    39359.762 
  441200    309.21426   -1497.9902    476.90312    366.08494   -492.64133    39359.762 
  441300    306.96393   -1463.7341    505.54155    418.88416    181.60293    39359.762 
  441400     298.3196   -1471.3591    459.41599    326.35419   -266.09022    39359.762 
  441500    304.39186   -1441.4863    491.52469    415.57653    83.387376    39359.762 
  441600    294.96653   -1495.2555    474.03564    302.03511   -107.56168    39359.762 
  441700    304.82779     -1485.07    484.84475    367.26851     17.04706    39359.762 
  441800     303.9037   -1526.0173    487.94636    325.27724    216.93368    39359.762 
  441900     307.9276   -1514.6766    458.63181    325.35513   -349.75577    39359.762 
  442000    287.71968   -1480.5742    497.89257    308.06317   -116.95058    39359.762 
  442100    284.83893   -1499.0663    501.41825    280.17336   -549.81243    39359.762 
  442200    291.39456   -1544.7474    474.35886    236.84214    241.60686    39359.762 
  442300    298.36957   -1576.3779    461.85584    223.99943   -633.53928    39359.762 
  442400    294.98195   -1515.9962    465.59585    272.92386   -372.04989    39359.762 
  442500    296.76112   -1521.8067     482.7447    292.24373   -250.97974    39359.762 
  442600    306.60928   -1511.8597     477.3451    340.97116    267.95905    39359.762 
  442700    307.01287   -1531.1221    463.15441    309.32864    258.54503    39359.762 
  442800    289.93888   -1508.0947    480.79834    273.40401     491.7343    39359.762 
  442900    298.67717   -1553.4419    504.67854    291.13797    443.63899    39359.762 
  443000    292.89745   -1551.0144    495.25629    258.21475    237.13681    39359.762 
  443100     302.8678   -1519.3525    460.74041    300.08897    283.69431    39359.762 
  443200    305.73192   -1507.9611    474.60794    338.19665   -59.566813    39359.762 
  443300    292.29386   -1491.7916    491.38588    310.85933    -203.0152    39359.762 
  443400    294.52741   -1524.4158    473.82005    270.68934   -141.84432    39359.762 
  443500    295.20672   -1518.2768    502.54647    308.60222   -510.96558    39359.762 
  443600    312.27332   -1477.3096    497.35121    420.93691    200.05637    39359.762 
  443700     306.5963   -1502.4391    476.73091    349.71938   -583.95034    39359.762 
  443800    295.83073   -1515.9848    451.04735    262.19446   -142.51248    39359.762 
  443900    303.09804   -1534.8476     501.9549     326.8412   -406.49164    39359.762 
  444000    291.32081   -1521.5414    473.92297    259.28149   -238.44246    39359.762 
  444100    313.31209    -1506.832    512.01745    410.74082   -248.24799    39359.762 
  444200     297.0944   -1506.5642    469.32186    295.55856    11.264712    39359.762 
  444300    312.17493   -1511.2526    511.50669    400.70804    362.89715    39359.762 
  444400    301.53258   -1523.3803    472.62548    301.95619    764.43796    39359.762 
  444500    298.48403   -1553.2991    488.00438    273.74018    667.84727    39359.762 
  444600    311.37145   -1564.1857    475.40495    308.06864    595.02354    39359.762 
  444700    301.69071   -1512.2788     479.8847    321.02639    146.13832    39359.762 
  444800    297.91803   -1515.9405    474.25818     294.8134   -138.28989    39359.762 
  444900    305.42626   -1529.0424    483.29812    324.43429   -241.07554    39359.762 
  445000     310.8257   -1500.6305    468.15503    361.92565   -141.68311    39359.762 
  445100    298.58021   -1516.8016    463.36433    286.02907   -19.907042    39359.762 
  445200    295.34888   -1506.6519    478.30261    296.62095    281.81424    39359.762 
  445300    302.79409   -1515.5248    491.70018    334.54571    522.42783    39359.762 
  445400    303.51816   -1507.6008    462.66879    316.68659    298.54447    39359.762 
  445500    305.20631   -1511.3294    483.96541    341.82781     397.4396    39359.762 
  445600    292.49346   -1508.9489    482.22232    285.43391    671.17295    39359.762 
  445700    297.64442   -1508.7532    467.17281    293.68794    322.84763    39359.762 
  445800    295.68816   -1500.3466    464.56827    290.71395    593.52714    39359.762 
  445900    315.82652   -1492.7948    478.81963    402.86024   -17.170878    39359.762 
  446000    303.09227   -1481.7046    470.98447    348.98793   -412.16135    39359.762 
  446100    297.21978   -1473.4615    476.55609    336.45792   -93.339188    39359.762 
  446200    303.48194   -1462.4746    467.14581    366.12733    139.05038    39359.762 
  446300    297.49563    -1456.859    494.24755    371.98939   -706.54991    39359.762 
  446400    300.90252   -1488.9695    464.77201    325.68703   -232.48871    39359.762 
  446500    304.80278   -1466.3837    485.72375    386.72163   -160.77237    39359.762 
  446600    293.57557   -1521.6254    486.41681    281.80641   -155.86054    39359.762 
  446700    304.47351   -1489.7834    482.59531    358.71635    177.35662    39359.762 
  446800    310.27267   -1516.7776    497.35768    372.50026   -194.26371    39359.762 
  446900      304.285   -1512.8911    461.59171    313.75934    27.494398    39359.762 
  447000     296.6052   -1479.1654    450.32005    301.76086   -44.465294    39359.762 
  447100    291.05484   -1485.6325    480.37436    300.44851   -284.97274    39359.762 
  447200    293.99345   -1459.7196    463.68517    322.85519    6.2430664    39359.762 
  447300    295.37966   -1507.9721    477.56057    294.69677     141.6642    39359.762 
  447400    311.22005   -1512.5127    471.87833    355.53584    28.726677    39359.762 
  447500     300.5181   -1492.6416    468.16076    323.67921    420.28516    39359.762 
  447600     297.7409   -1490.1782    497.74067    343.26361      190.043    39359.762 
  447700    294.87568   -1503.1006    463.36212    283.10891   -316.46858    39359.762 
  447800    318.00274   -1457.0813    474.82676    444.34368    279.73208    39359.762 
  447900    307.74596   -1513.6268    474.77288    341.73111   -50.724366    39359.762 
  448000    302.32907   -1541.5754    478.78951    293.49831    110.71401    39359.762 
  448100    293.82003   -1493.9455    498.56178    322.72793    192.42039    39359.762 
  448200    291.14397   -1488.4155    477.64416    295.33512    198.24034    39359.762 
  448300    291.12529   -1505.8756    502.29005    302.43719    10.039377    39359.762 
  448400    297.43018   -1530.9968    477.07239    280.38278   -584.32159    39359.762 
  448500    304.56268    -1504.493    479.65756    341.46898   -177.30159    39359.762 
  448600    297.95004   -1512.9581    450.07618    273.75743   -449.66883    39359.762 
  448700    305.61051   -1548.0872    496.59721    319.51518   -447.20517    39359.762 
  448800    294.62239   -1503.7611    460.31927    278.26928     5.475894    39359.762 
  448900    310.50755   -1492.4672    455.37788    355.88454    596.38822    39359.762 
  449000    303.21443   -1454.8075    486.53239    391.98095   -90.317378    39359.762 
  449100    287.70018   -1467.3013    482.97203      306.328    71.763963    39359.762 
  449200    298.27169   -1539.2799    476.78098    275.58346   -165.52853    39359.762 
  449300    297.60266   -1535.0151    464.57257    264.63847   -118.76748    39359.762 
  449400      297.683   -1530.4041    455.56995    260.60726    163.43708    39359.762 
  449500    296.33031    -1493.287    463.44739    299.53347   -213.51552    39359.762 
  449600    304.95296   -1514.2184    468.56979    322.40667    -11.64601    39359.762 
  449700    313.73351   -1502.2739    469.00028    374.17231     160.7222    39359.762 
  449800    297.80473   -1451.6908    491.04536    375.34203   -177.18958    39359.762 
  449900    304.18014   -1475.7525     460.6983    349.53415    212.43845    39359.762 
  450000     289.9847   -1477.2333    476.41413    300.08676    467.25644    39359.762 
  450100    302.47075   -1437.1347    509.95654    429.74167   -67.685774    39359.762 
  450200    296.38205    -1425.668     474.0668    378.00395   -319.75843    39359.762 
  450300    300.02282   -1453.4188    489.95418    382.47347   -638.16186    39359.762 
  450400    299.89801   -1488.1194     452.0273     309.2861   -336.45787    39359.762 
  450500    298.13303   -1461.8851    498.14261    373.71781   -175.03752    39359.762 
  450600    294.90256   -1429.5153    476.52658    369.97934   -510.19039    39359.762 
  450700    297.53752   -1492.8356    467.70667    309.65978   -631.05608    39359.762 
  450800    299.85958   -1479.8215    478.53548    343.91975   -525.44889    39359.762 
  450900    298.24772    -1488.954    468.52414    317.54499   -680.03818    39359.762 
  451000    308.97556   -1489.2254    451.24113    348.11693   -316.53882    39359.762 
  451100    303.45044   -1502.8044    466.84278    325.35318   -140.35703    39359.762 
  451200    303.01602   -1520.2098    479.59974    318.75588   -465.65391    39359.762 
  451300    296.74113   -1512.2709    455.83157     274.7767   -139.01793    39359.762 
  451400    297.03988   -1485.8657    482.09442    328.78497   -166.52328    39359.762 
  451500    292.03122   -1523.6101    494.34427    280.82101    701.98087    39359.762 
  451600    302.18761   -1569.1511    454.70812     241.2067    979.13816    39359.762 
  451700    296.34084   -1517.2197    510.01611     322.2167    733.23597    39359.762 
  451800     302.9409   -1451.9776    465.79915    372.85056    787.91066    39359.762 
  451900     294.3074   -1483.4161    462.82779    299.70977    387.27847    39359.762 
  452000    300.27861   -1480.0318    486.29612    353.34997    459.97515    39359.762 
  452100    295.44437   -1506.0366     464.4545    283.81651    89.216173    39359.762 
  452200    311.20514   -1518.3595    457.15227    334.89608    378.06492    39359.762 
  452300     293.1327   -1545.5062    485.31522    254.83724    135.66944    39359.762 
  452400    295.20841   -1490.2752    477.78871    311.85357    345.65507    39359.762 
  452500    308.87695   -1483.6123    471.89851    373.94499    230.37557    39359.762 
  452600    309.08238   -1514.3305    456.62746    328.87739    192.21172    39359.762 
  452700    304.06994   -1522.7753    443.55302    284.87174   -363.97818    39359.762 
  452800    295.16498   -1506.7664    468.84565    286.22447    99.490423    39359.762 
  452900    307.04065   -1504.4521    469.13354    342.10239    37.743499    39359.762 
  453000    300.63306   -1470.3944    482.92884    361.21018    225.11316    39359.762 
  453100    303.16506   -1497.6098    475.00839    337.43312    278.43817    39359.762 
  453200    306.97068   -1475.4846    477.73486    379.35732   -569.02619    39359.762 
  453300     296.1355   -1477.9446    471.66461     322.2191    -177.5498    39359.762 
  453400    302.19075   -1530.3959    467.86448    293.13227   -29.797569    39359.762 
  453500    305.47932   -1480.5689    479.24789    369.09564   -135.65889    39359.762 
  453600    288.99812   -1474.0124    453.09213    275.55967   -542.71059    39359.762 
  453700    302.77067   -1503.7368    488.41137    342.93991   -269.38135    39359.762 
  453800    301.43372   -1493.2746    475.13689     334.1299   -83.213021    39359.762 
  453900    295.04375   -1458.3769    459.14992    324.37442   -360.07029    39359.762 
  454000    302.72815    -1456.177    488.53952    390.43705   -375.24939    39359.762 
  454100     300.1091   -1470.6524    459.89202    335.56477   -309.97598    39359.762 
  454200    296.44442   -1467.6714     455.6369     317.8505   -508.81271    39359.762 
  454300    302.02457   -1479.4548    486.66248    362.12589   -106.70109    39359.762 
  454400    308.05176    -1438.424    495.71087    439.24374   -138.49815    39359.762 
  454500    301.86852   -1460.0522    481.72752    375.89347  0.094103428    39359.762 
  454600    311.09726   -1482.4943    492.69974    405.82483    212.10993    39359.762 
  454700    309.24885   -1510.8162     456.7682    333.27914   -50.766131    39359.762 
  454800    302.89591   -1517.2941    471.20672    312.73977    229.81304    39359.762 
  454900     314.3166   -1488.7109    490.84064    412.19144    233.24984    39359.762 
  455000     295.7787   -1505.6163    478.56734    299.84954    -144.0052    39359.762 
  455100    300.21006   -1491.5124    453.26183    308.52756    357.98202    39359.762 
  455200    303.72378   -1518.3218    504.80809    349.02739    218.05071    39359.762 
  455300    307.80164   -1474.0333    458.80815    365.60964   -72.648303    39359.762 
  455400    293.66673   -1470.3272    460.02097    307.11774   -666.25109    39359.762 
  455500    289.81351     -1483.33    495.36956    312.17749   -371.30019    39359.762 
  455600     297.0113   -1518.1098    462.44784    276.76614   -655.51866    39359.762 
  455700    308.73231   -1510.9007    466.13029    340.23955   -548.51036    39359.762 
  455800    297.48721   -1508.2844     458.2937    284.57237   -325.09875    39359.762 
  455900    296.72132   -1460.6388    476.63496    347.12329   -362.04819    39359.762 
  456000     288.4116   -1478.1417    460.80921    276.51633   -58.472071    39359.762 
  456100    300.37077   -1461.2236    495.41348    381.68888   -100.11843    39359.762 
  456200    307.37579   -1463.3189    455.64885    371.25434    649.57038    39359.762 
  456300    305.65142   -1476.1473    450.54052    345.58194    235.25609    39359.762 
  456400    306.67665   -1488.1167    466.48249    354.15375    524.08045    39359.762 
  456500    299.58861   -1493.1151    474.00083    324.87591    621.24306    39359.762 
  456600    294.13295   -1509.4819     487.6019    297.63545    657.41262    39359.762 
  456700    300.34611   -1487.9216    468.79598     328.2628   -95.016577    39359.762 
  456800    293.86527   -1481.1969    456.57056    293.68826   -341.56092    39359.762 
  456900    292.99687   -1457.1019    447.54986    304.86683    193.23897    39359.762 
  457000     304.1241   -1521.2889    468.05183    311.09986   -297.32992    39359.762 
  457100    308.15747   -1485.9863    480.88737    377.33224   -357.32513    39359.762 
  457200    291.24858   -1470.6998    508.27612     344.1521     -38.6663    39359.762 
  457300    302.55449   -1478.1905    495.67292    374.77793   -542.72911    39359.762 
  457400    307.64831   -1488.4883    469.01618    360.67482   -18.172355    39359.762 
  457500    292.26672   -1510.2776    491.51215    292.37785   -6.2733558    39359.762 
  457600    314.59522   -1454.5515     464.3623    421.12241   -3.8116462    39359.762 
  457700    309.91239    -1447.299    500.13601    443.14093   -817.84243    39359.762 
  457800    303.49161   -1451.9963    481.03545    390.53873   -909.81554    39359.762 
  457900     295.7349   -1419.7933     489.7126    396.62125   -603.39788    39359.762 
  458000    293.80292   -1408.0135    484.36819    394.38953   -549.42396    39359.762 
  458100    305.16105    -1460.036    467.89808    376.85092    -121.2114    39359.762 
  458200    306.37834   -1484.9922    459.07102    348.52856   -321.51395    39359.762 
  458300    306.19438   -1484.7418    459.96402    348.84664    68.831933    39359.762 
  458400    301.74556   -1491.2805    472.00158     334.3876    132.83469    39359.762 
  458500     301.1383    -1521.398    449.12147    278.66577   -180.64555    39359.762 
  458600    303.22942   -1488.7542    481.25374    352.82279     373.5583    39359.762 
  458700    299.26743   -1439.6492     496.9241    399.82425    72.068045    39359.762 
  458800     302.4426   -1478.4597    476.99237     355.3262   -192.34434    39359.762 
  458900    291.40759   -1457.4598    472.33161    322.16097    24.930366    39359.762 
  459000    297.90059   -1469.4619    480.80397    347.75966   -205.72149    39359.762 
  459100    294.71541   -1472.2789    471.98903    321.83862    -227.2141    39359.762 
  459200    313.62016   -1472.9811    473.17333    407.12961   -63.095203    39359.762 
  459300    305.87677   -1460.9239    481.57086    392.84655   -342.56053    39359.762 
  459400    297.14574   -1478.9413    480.03384    334.12373   -997.09986    39359.762 
  459500    302.80872    -1481.368    489.70611    366.77409    18.678139    39359.762 
  459600    294.15242   -1478.1174    453.69048    295.17592    367.98314    39359.762 
  459700    300.91143   -1489.0444    500.67179    361.55191    192.40382    39359.762 
  459800    300.35657   -1491.0435    470.59618      326.988    795.68904    39359.762 
  459900    302.04149   -1532.9275     496.6098    318.67637    558.02288    39359.762 
  460000    312.83764   -1485.1962    449.51171    367.74243    285.32079    39359.762 
  460100    302.66268   -1497.2242    478.80244    339.35903   -421.71998    39359.762 
  460200    303.93825   -1500.6224    490.67646    353.55726   -179.81125    39359.762 
  460300    294.72796   -1499.0358    465.94168    289.09055    -181.9157    39359.762 
  460400    296.79922    -1498.589    495.29394     328.1816   -338.28276    39359.762 
  460500    288.28117   -1523.1072    484.23404    254.39046   -573.04164    39359.762 
  460600     301.5738   -1445.4383    486.25654    393.71426   -261.63309    39359.762 
  460700    294.08432   -1482.6712    470.82032    307.44639   -310.05443    39359.762 
  460800    294.11977   -1476.5893     504.5364    347.40347   -60.135663    39359.762 
  460900    301.04891   -1468.3962    485.68676    367.83183     386.4011    39359.762 
  461000    299.36212   -1480.2486    485.31557    348.04113   -133.36741    39359.762 
  461100    297.17832   -1502.0855    497.18908    328.28094   -78.771369    39359.762 
  461200    283.69144   -1495.1134    490.90349    268.46375   -255.09556    39359.762 
  461300    287.42652   -1482.4718    454.46836    261.42617   -380.64592    39359.762 
  461400    306.26568   -1478.4419    467.23607    362.73852   -303.60601    39359.762 
  461500    308.41677     -1477.45    464.19387    370.33831   -630.29283    39359.762 
  461600    292.78618   -1457.9015    483.15208    338.72431   -586.86621    39359.762 
  461700    299.91834   -1461.1239    476.64288    360.98842   -324.66574    39359.762 
  461800    299.56982   -1460.8467    455.80754    338.86676   -60.060933    39359.762 
  461900    303.50426   -1461.6178     479.7616     379.7001     25.99664    39359.762 
  462000    290.52366   -1476.7114    476.87345    303.48574    101.48577    39359.762 
  462100    288.42689   -1463.0506    492.00554    322.87234     297.9788    39359.762 
  462200    292.51717   -1433.5887     484.4406    363.11874   -21.219514    39359.762 
  462300    298.84161   -1446.4183    462.62854     356.8493    567.35706    39359.762 
  462400     307.0628   -1476.5128    466.33704    367.34453   -101.91701    39359.762 
  462500    302.15921   -1476.6898    494.90578    373.73814     456.9133    39359.762 
  462600    294.92163   -1472.1246    453.90024    304.82918    58.498802    39359.762 
  462700    297.39747   -1498.8066    496.95052    332.30436    117.18146    39359.762 
  462800    294.74773    -1496.475    464.08125    289.87971   -304.40398    39359.762 
  462900    305.71546    -1490.471    473.32844    354.33346   -15.761486    39359.762 
  463000    297.41892   -1475.8607    483.78201    342.17796    410.73136    39359.762 
  463100    315.31087   -1465.0209    447.67511    397.17631    314.51773    39359.762 
  463200    293.16278   -1481.6151    470.52112    304.06921   -115.37543    39359.762 
  463300    304.19595    -1501.639    474.73159    337.75188    279.18835    39359.762 
  463400    299.40749   -1447.9332    489.64778    384.89232    285.47208    39359.762 
  463500    304.07449   -1509.9291    468.45538    322.64066   -114.97735    39359.762 
  463600    292.62057   -1549.6143    458.95776    222.07416   -194.18695    39359.762 
  463700    297.24107   -1544.3643    464.98209    254.07668    125.72459    39359.762 
  463800    313.90785   -1505.8284    473.53204    375.93168    597.29767    39359.762 
  463900    297.96259   -1562.4372     479.5542    253.81266    440.45227    39359.762 
  464000    299.25892   -1499.6631    458.89542    301.74345    425.17546    39359.762 
  464100    297.41341   -1513.5586    488.64705    309.32043   -154.39379    39359.762 
  464200    302.60399    -1515.474    453.43468    295.47817   -69.359153    39359.762 
  464300    299.69111    -1533.683    495.08935    305.85637    -119.5028    39359.762 
  464400    302.25943    -1529.694    466.10008    292.37792    239.84149    39359.762 
  464500    304.02663   -1521.6616    490.35715    332.59523  -0.79348891    39359.762 
  464600    306.26941   -1492.8386    487.92907    369.05152    563.50439    39359.762 
  464700    292.14497    -1554.085    476.05298    232.56509    531.40067    39359.762 
  464800    309.51464   -1522.0355    481.04938    347.53346    241.76444    39359.762 
  464900    308.29398   -1540.0559     455.0019    297.98955    10.836932    39359.762 
  465000     294.9985   -1523.1317    462.42879     262.6955   -29.139824    39359.762 
  465100    295.09139   -1515.2757     485.6717    294.21112   -241.15513    39359.762 
  465200    291.09074   -1517.1331    497.87036    286.60499   -277.01145    39359.762 
  465300     300.9232    -1519.126    458.92387     289.7752   -476.78278    39359.762 
  465400    300.21871   -1509.3208    452.39584    289.89195    -541.8906    39359.762 
  465500    289.72256   -1506.4871    495.95249    289.19531    -382.2226    39359.762 
  465600     301.3705   -1539.9766     490.2253     302.2326   -385.54315    39359.762 
  465700    301.18449    -1524.396    474.21619     300.9697   -243.21214    39359.762 
  465800    300.51375    -1510.843    485.01803    322.31551   -76.997915    39359.762 
  465900    298.84447   -1546.6732    476.38695    270.36561    -121.6434    39359.762 
  466000     291.1605   -1512.7392    481.39471     274.8362    131.62731    39359.762 
  466100    301.09289   -1505.9372    494.92565      339.727    20.754333    39359.762 
  466200    304.25749   -1527.3124    485.85917    323.48214    98.671175    39359.762 
  466300    296.70645   -1520.2813    463.85192    274.63111   -636.55031    39359.762 
  466400    296.37178   -1476.3329    497.90759     351.1338    -575.9527    39359.762 
  466500     296.8466   -1473.9345    487.44763    345.20231    98.611185    39359.762 
  466600    305.31975    -1476.595    491.34426    384.45003    114.94572    39359.762 
  466700    286.55008   -1531.0556    484.87497    239.31721    80.210294    39359.762 
  466800    302.65641   -1515.8546    501.41088    343.30901    286.90212    39359.762 
  466900    302.47624   -1505.6242     481.5126    332.83286   -65.097479    39359.762 
  467000    302.36239   -1469.3396    490.00947    377.10354    -47.16519    39359.762 
  467100    303.49351   -1485.5685    498.76824    374.70781    70.368197    39359.762 
  467200    292.60414   -1440.9722    508.23094    379.91579   -224.51737    39359.762 
  467300    296.06043   -1470.3863    490.53777    348.31383   -215.47283    39359.762 
  467400    290.87579   -1483.3669    509.39351    330.93006   -382.62852    39359.762 
  467500    297.17799    -1475.797    527.07563    384.45454    91.453583    39359.762 
  467600    298.13901   -1479.7113    488.21058    345.98636    258.13197    39359.762 
  467700    291.50214    -1477.237    492.24644    322.72275     207.1478    39359.762 
  467800    301.37776   -1515.4133    497.32789    333.93113    327.52402    39359.762 
  467900    299.76312   -1517.4338    462.96784    290.30706    117.02098    39359.762 
  468000    301.52116   -1496.0284    476.50085    333.13229   -178.88259    39359.762 
  468100    302.78445    -1487.922    493.27837    363.68354   -44.105656    39359.762 
  468200    297.25944   -1519.2169    483.04862    297.37292    300.37443    39359.762 
  468300     306.4834   -1551.1121    495.10679    318.91571    104.87946    39359.762 
  468400    304.12775   -1536.5768    483.82499    311.60146    285.56327    39359.762 
  468500    299.40082   -1561.8062    496.53046    277.87206    271.90259    39359.762 
  468600    286.15612   -1526.2467    454.80123    212.28493   -194.24602    39359.762 
  468700    296.30021   -1534.7698    493.98951    288.45776   -20.852381    39359.762 
  468800    309.60687   -1491.2528    503.81375    401.49422   -288.56146    39359.762 
  468900    298.20521   -1498.4639    481.15079    320.47101    37.654168    39359.762 
  469000    303.00243   -1557.1916    492.32554    294.43897    185.75392    39359.762 
  469100     297.9969   -1521.4879    482.45464    297.81633     541.0998    39359.762 
  469200    298.08016   -1516.2389    477.41552    298.39971    23.530702    39359.762 
  469300     305.3761   -1509.2887    490.34712    351.01199   -250.53615    39359.762 
  469400     305.2553   -1549.8323    489.18385    308.76321    220.95027    39359.762 
  469500    306.46466   -1526.1932     492.8115    341.45528    292.97607    39359.762 
  469600    304.33066   -1535.5794    479.41586    309.10003    400.04233    39359.762 
  469700    303.12955   -1506.6716    492.80251    346.00618     301.0436    39359.762 
  469800    290.48133   -1507.7441    474.66138    270.05118     795.1663    39359.762 
  469900    301.64581   -1567.2313    490.73076    276.71848    715.20693    39359.762 
  470000    284.99248    -1530.077    492.67259    241.10579    654.68572    39359.762 
  470100    288.60361   -1548.7647    501.92143    247.86689    700.43216    39359.762 
  470200    299.94938   -1485.1634      532.374    392.81928    519.32177    39359.762 
  470300    299.62356   -1485.1464    476.17118    335.17179    193.55695    39359.762 
  470400    300.98648   -1572.4398    499.75266    277.57405   -402.85084    39359.762 
  470500    300.64532   -1499.5211    471.65906    320.86871   -485.64875    39359.762 
  470600    301.70428   -1520.1943    488.04137     321.3284   -672.74202    39359.762 
  470700    303.56269   -1541.9292    491.37756    311.26669     -684.064    39359.762 
  470800     306.4698   -1510.4321    502.40929    366.83725   -575.66368    39359.762 
  470900    299.03875   -1515.3202    475.50947    301.71273   -675.75307    39359.762 
  471000    306.72969   -1574.6585    462.64851    264.01596   -157.94351    39359.762 
  471100    297.53766   -1510.1589    504.53209    329.16258    42.038069    39359.762 
  471200    293.25824   -1574.0027    476.15793     217.7466   -235.73637    39359.762 
  471300    304.49924   -1548.2746    495.26513    313.01042     389.7505    39359.762 
  471400    293.68749   -1556.5642    517.58039    278.53327    405.97759    39359.762 
  471500    293.30682   -1545.5192    500.53427    270.82437    552.81223    39359.762 
  471600    306.09079    -1576.615    490.42855    286.97331    263.08084    39359.762 
  471700    299.31063   -1523.5479    469.84983    289.04503    422.81566    39359.762 
  471800    310.23279   -1516.7264    531.21006    406.22492    493.91421    39359.762 
  471900    298.32786   -1510.7841    489.96553    317.51573     380.5969    39359.762 
  472000    304.83735    -1536.325     502.2388    333.45044    316.09474    39359.762 
  472100    295.23894   -1525.2044    492.44413    291.71672    -105.5011    39359.762 
  472200    289.06542   -1541.7583    469.64827     224.6719    -196.1156    39359.762 
  472300    306.97659   -1563.8439    466.49169    279.78132    280.58861    39359.762 
  472400    299.83778   -1562.1143    475.47787    258.47153   -439.96816    39359.762 
  472500    283.62357   -1536.7926     504.3844    239.96096   -637.27779    39359.762 
  472600    294.11627   -1503.3303    490.37432    306.48469   -451.94157    39359.762 
  472700    299.28806   -1537.8612    510.55339    315.33403   -387.55586    39359.762 
  472800    294.92066   -1563.3949     476.0871    235.74142    -592.9921    39359.762 
  472900     295.2987   -1528.5113    494.06308    290.29694   -734.75279    39359.762 
  473000    292.71469   -1532.0115    484.20738    265.34883   -966.76638    39359.762 
  473100    302.78417   -1529.1772    477.18703    306.33574   -158.69464    39359.762 
  473200     297.4013   -1552.4985    509.19303    290.87218    499.22508    39359.762 
  473300    294.45176   -1526.0027    499.46691    294.40984    466.94897    39359.762 
  473400    297.04487   -1545.6352    506.73955    293.68303   -122.44105    39359.762 
  473500    297.82193   -1536.8907     486.8156    285.98954   -145.94287    39359.762 
  473600    308.64529   -1562.2196    488.85997    311.25989   -141.01356    39359.762 
  473700    297.72207   -1554.4365    466.54699    247.72719   -647.75899    39359.762 
  473800    313.05426   -1517.7632     514.3412    400.97675    155.62241    39359.762 
  473900     303.5153   -1524.9523    508.84327    345.49679    230.06952    39359.762 
  474000    296.36391   -1557.2581    480.59374    252.85944    282.34577    39359.762 
  474100    301.65362   -1569.9706    494.84504    278.12849    781.07997    39359.762 
  474200    301.97306   -1525.8595    506.55232    335.37991     457.3713    39359.762 
  474300    295.76496   -1510.0399    501.18917    317.98616   -19.967653    39359.762 
  474400    294.85644   -1525.3264    486.52024    283.95492   -153.39281    39359.762 
  474500    300.39639   -1536.3763    464.22813    275.46577   -3.4188475    39359.762 
  474600    310.04745   -1502.6766    504.18972    392.42295   -398.65299    39359.762 
  474700    300.36247   -1504.0061    509.46262    352.91836   -119.78577    39359.762 
  474800    300.59537   -1518.5169    482.97877    312.96857    207.24836    39359.762 
  474900     299.4444     -1547.62    506.52108    302.24435   -246.96758    39359.762 
  475000     300.6488   -1523.5364    482.76443    307.97432    114.69602    39359.762 
  475100    303.60575   -1554.6966    459.24794    266.56288     19.57313    39359.762 
  475200    307.96519   -1543.9901    483.76706    321.34546   -432.35665    39359.762 
  475300    292.55252   -1525.8125    474.07964    260.69262   -391.82107    39359.762 
  475400     302.4629   -1519.6398    506.90047    344.14524   -299.41407    39359.762 
  475500    299.55965    -1555.443    479.07594    267.49326   -33.614941    39359.762 
  475600    300.82399   -1532.6773    492.40112     309.2561   -134.12263    39359.762 
  475700    303.93061    -1543.773    503.71667    323.41258   -358.35751    39359.762 
  475800     298.6448   -1512.5436    471.62437    298.83695   -625.95592    39359.762 
  475900    300.15858   -1536.7187    489.96332    299.79174   -781.64556    39359.762 
  476000    293.93277    -1502.347    518.42361    334.69408   -611.88663    39359.762 
  476100    309.72261   -1527.5326    474.54281    336.46275   -942.76095    39359.762 
  476200    290.15188   -1551.4309    496.94321    247.16817    -1012.941    39359.762 
  476300    302.54511   -1537.6215    476.50375    296.13571   -272.58261    39359.762 
  476400    293.97598   -1536.3632    483.61181    266.05991    -651.6342    39359.762 
  476500    303.06642    -1543.762    505.41401    321.24401   -327.07212    39359.762 
  476600    294.33688   -1565.3728    499.38385    254.44133    588.65907    39359.762 
  476700     298.5729   -1508.2249     520.4963    351.70501     294.3188    39359.762 
  476800    285.86232   -1543.9927    468.22356    206.64332   -84.572664    39359.762 
  476900    312.38216   -1536.9868     475.0414    339.43823    440.81042    39359.762 
  477000    290.35716   -1514.6666    500.86173    288.77192    94.320964    39359.762 
  477100    296.42438   -1539.5177    499.40275    289.68011    389.18075    39359.762 
  477200    304.29009   -1534.7347    463.42785    293.77474    590.96089    39359.762 
  477300     296.4249   -1533.8321    493.19621    289.16155    71.404891    39359.762 
  477400    293.52072   -1557.3766     475.0471    234.43945   -60.801286    39359.762 
  477500    303.67208   -1568.7144    513.55263    307.14733    244.17881    39359.762 
  477600    298.64595   -1522.5683    490.71305    307.90606    126.22675    39359.762 
  477700    308.01769   -1470.3405    504.70511     416.1686    63.107954    39359.762 
  477800    297.66064   -1497.5632     509.7823    347.56024    166.43522    39359.762 
  477900    301.73613    -1484.284     510.4757    379.81595    348.16303    39359.762 
  478000    298.26342   -1509.6801    493.09349    321.45868    13.088014    39359.762 
  478100    302.89309   -1522.7807     519.6974     355.7312    593.39574    39359.762 
  478200    308.00105   -1527.7523    490.03819    344.01526   -121.80112    39359.762 
  478300    294.91941   -1496.4196    494.31275    320.93679    120.87461    39359.762 
  478400    292.62177   -1505.9152    485.80975    292.63065   -312.88143    39359.762 
  478500    286.57937   -1516.0073    522.00626    291.62813    178.55214    39359.762 
  478600    298.94003   -1568.4681    516.37117    288.98363    15.091588    39359.762 
  478700    300.04532   -1533.2605    481.65035    294.42884    215.17942    39359.762 
  478800    291.13172   -1539.1847    506.96012      273.827    10.360178    39359.762 
  478900    307.76419   -1523.5821    495.26976    352.35443     97.39771    39359.762 
  479000    298.52753    -1464.068    493.94539    369.10743    575.82664    39359.762 
  479100    299.44203   -1494.6336    529.17061    377.86964    221.82016    39359.762 
  479200    305.87083   -1511.9442    521.22455    381.45335    877.22219    39359.762 
  479300    303.70436   -1517.6011    504.82501    349.67785    692.99874    39359.762 
  479400    299.56771   -1495.9625    502.76016    350.69411    299.12885    39359.762 
  479500    303.07448   -1533.7992     481.4072    307.23622    32.617608    39359.762 
  479600    304.32687   -1535.0979     470.8874    301.03605   -236.94778    39359.762 
  479700    290.68184   -1481.4724    519.53046    342.09137    128.36127    39359.762 
  479800    300.96287   -1495.0157     515.7325    370.87205   -244.51782    39359.762 
  479900    300.51592   -1522.0396     491.2352    317.34585   -393.87032    39359.762 
  480000    306.51717   -1488.3819    481.85927    368.54991   -400.69409    39359.762 
  480100    300.90144   -1518.1474    508.28374    340.01602    -22.01352    39359.762 
  480200    307.83045   -1501.6905     481.9072    361.18079    425.29975    39359.762 
  480300    296.02961   -1467.1177    497.88282    358.78918    465.41884    39359.762 
  480400    306.53568   -1524.5252    501.91962    352.54996    638.73054    39359.762 
  480500    299.98076   -1538.5171    487.82365      295.056    614.12085    39359.762 
  480600    295.19952   -1525.0359    498.07469    297.33903   -96.670531    39359.762 
  480700    299.58462    -1533.738     492.3978    302.63212   -140.84538    39359.762 
  480800    308.15592   -1533.4362    481.80575    330.79377   -437.80189    39359.762 
  480900    301.41428   -1548.9402    455.74972    258.98984   -328.03541    39359.762 
  481000    303.97929   -1546.2091    496.64715    314.12531   -397.95579    39359.762 
  481100    303.06523   -1572.2111    477.58998    264.96555    97.316736    39359.762 
  481200    294.94236   -1542.8401    495.37852    275.68499     235.7725    39359.762 
  481300    300.09564   -1541.2724    485.25681    290.24918    472.17209    39359.762 
  481400    300.12611   -1543.4943     497.6111    300.51833    87.489304    39359.762 
  481500    305.96551   -1522.9511    508.05687    357.70354    394.13211    39359.762 
  481600      308.298   -1561.7107    476.33809    297.68889    618.28631    39359.762 
  481700    298.70082   -1592.1514     474.4069    222.26296    517.81591    39359.762 
  481800    303.52119   -1579.8777    482.58376    264.33822    268.62361    39359.762 
  481900    302.72729   -1564.6678     506.4565    299.85933    276.34359    39359.762 
  482000    301.58356   -1535.1478    465.63701    283.42898    582.86301    39359.762 
  482100    293.93328    -1551.921    501.66076    268.35941    122.00753    39359.762 
  482200    305.90631   -1566.9615    520.74307    326.11371     742.9662    39359.762 
  482300    304.10571   -1577.6065    482.83982    269.48781    215.58116    39359.762 
  482400     305.2061   -1588.5295    504.31088    284.97233   -425.96344    39359.762 
  482500    300.13071   -1560.4248    468.94402    254.94137    -553.4496    39359.762 
  482600    305.01756   -1486.5129    508.02732    389.85952    -226.8819    39359.762 
  482700    308.56458   -1560.2874    484.02204    307.99209   -399.04825    39359.762 
  482800    304.77488   -1559.6257    482.50438    290.13513    12.132258    39359.762 
  482900    290.47739    -1554.416    506.33881    255.03897   -556.92157    39359.762 
  483000    311.76298   -1553.4117    486.53086    331.72501    18.099124    39359.762 
  483100    287.09899   -1522.3034    485.11049    250.76741    277.99817    39359.762 
  483200    305.43691   -1551.7921    513.31363    331.74785    272.16287    39359.762 
  483300    304.79153   -1530.0235    502.70209    340.00973   -182.22606    39359.762 
  483400    289.75341   -1555.6679    482.05462    226.25503   -33.021846    39359.762 
  483500    300.82788   -1564.0485    508.02259    293.52375    403.29971    39359.762 
  483600    293.86757   -1537.6085    484.90807    265.62448     378.6166    39359.762 
  483700    303.30573   -1512.2305    503.39741    351.83252    234.42716    39359.762 
  483800    304.98975   -1576.0441    497.93647    290.11274    136.56012    39359.762 
  483900    309.22209   -1550.6693    487.04681    323.58467    378.82087    39359.762 
  484000    313.82276   -1552.0888    497.80929    353.56673     86.22844    39359.762 
  484100    310.41363   -1557.5941    499.12016    334.07858     97.78413    39359.762 
  484200    303.66692   -1542.2635    477.14024    297.16273    5.0171899    39359.762 
  484300     312.0118      -1549.9    486.70036    336.52247     39.56138    39359.762 
  484400    293.00106   -1530.5068      489.589    273.51985   -201.27558    39359.762 
  484500    313.59272   -1523.8916    506.72199    389.64467    6.8823628    39359.762 
  484600    300.74605   -1527.1814    472.05082    294.05199   -437.77019    39359.762 
  484700    296.41883   -1533.5467    474.05136    270.27482   -160.21859    39359.762 
  484800    295.78285   -1489.9899    497.60798    334.53515   -27.709285    39359.762 
  484900    302.86676   -1476.3209    472.10645    354.48194    58.223863    39359.762 
  485000    306.49647   -1519.4599    479.20206    334.72178    200.45836    39359.762 
  485100    299.09286   -1516.7363    509.74914    334.77902    392.74438    39359.762 
  485200    295.62645   -1488.8013    496.24672    333.66093    617.62657    39359.762 
  485300    294.99569   -1532.8132    495.57457    286.14711    444.78033    39359.762 
  485400     312.9328   -1501.1181    472.99512    375.73087    567.83074    39359.762 
  485500    300.35522   -1532.3068    520.17262    335.29514   -6.9815504    39359.762 
  485600     300.4269   -1532.0633    506.96458    322.65212    196.93928    39359.762 
  485700    308.18282   -1505.1284    491.03721    368.45369    44.099305    39359.762 
  485800    309.22184   -1518.1959    496.49212    365.50221    646.57326    39359.762 
  485900     305.5273   -1519.6396    504.29977    355.29198    627.00729    39359.762 
  486000    303.24384   -1558.5101     477.3642    279.24206    316.11245    39359.762 
  486100    295.68644   -1547.7561    476.47466    255.20313    57.460487    39359.762 
  486200    294.51518   -1545.8416    482.26536    257.65395   -257.36683    39359.762 
  486300    304.24043   -1508.1423    485.83217    342.54873   -236.86879    39359.762 
  486400    293.33789   -1520.0107    478.31484    274.25288    130.00184    39359.762 
  486500    299.31793   -1489.5317    512.42837    365.67254   -2.8105812    39359.762 
  486600    305.35151   -1512.8733    497.07828    354.04826    30.054677    39359.762 
  486700    295.22438    -1501.402    458.90316    281.91291   -415.38937    39359.762 
  486800    310.93038    -1525.869    484.23919    353.24095   -394.31389    39359.762 
  486900    311.85419   -1499.9798    497.68732    396.72259    146.92642    39359.762 
  487000    304.25377   -1466.9228    492.32792    390.32379   -502.51982    39359.762 
  487100    292.87767    -1476.814    474.99405    312.06416   -346.81925    39359.762 
  487200    284.14219   -1481.9605    512.27967    305.01486   -625.86815    39359.762 
  487300     306.6993   -1525.0504     489.4718    340.31094   -719.57661    39359.762 
  487400    292.77259   -1546.1967    482.94977    250.16579   -464.85174    39359.762 
  487500    297.25223   -1506.6797    486.96015    313.78933   -439.96186    39359.762 
  487600    302.59591   -1532.4498    476.89503    301.92652   -582.26703    39359.762 
  487700    297.82541   -1514.2214    468.63372    290.49259    84.855168    39359.762 
  487800    303.55092   -1502.7882    509.50472    368.48214    29.491252    39359.762 
  487900    293.65781   -1530.4748    447.98815    234.89728   -295.38818    39359.762 
  488000     314.0597   -1536.9616    493.94922    365.89686   -194.75416    39359.762 
  488100    299.15477    -1506.941    465.13333    300.23632   -426.96838    39359.762 
  488200    295.47814   -1522.8553    493.06767    295.76248    246.51073    39359.762 
  488300    305.04855   -1546.3447     493.3802    315.51968    457.83757    39359.762 
  488400    302.52665   -1515.1987    493.11184    335.08365   -25.976242    39359.762 
  488500    315.57385   -1489.3624    472.89698    399.23648    269.28864    39359.762 
  488600    302.50709   -1579.6263    468.72783    246.18437    316.62067    39359.762 
  488700    309.17458   -1526.6626    477.36605    337.69749    108.81297    39359.762 
  488800    294.59726   -1521.4643    479.74772    279.88178    80.558419    39359.762 
  488900    300.25939   -1521.9805    500.98129    326.00012    288.45013    39359.762 
  489000    300.85141   -1510.7582    505.08474    343.98181     344.2953    39359.762 
  489100    309.58981   -1505.4985    456.68218    340.04041    187.75875    39359.762 
  489200    291.58795   -1555.2985    469.49901    222.29881   -69.936163    39359.762 
  489300    304.83206   -1530.8074    482.86445    319.57002    -160.0979    39359.762 
  489400    299.07706   -1549.1841    462.93429    255.44547    304.76251    39359.762 
  489500    303.35738   -1483.3186     484.9033    362.48207   -136.29862    39359.762 
  489600    295.10745    -1546.772    479.86707    256.98228    369.93666    39359.762 
  489700    304.74664   -1561.6125    461.59427     267.1115    371.23302    39359.762 
  489800    294.35084   -1559.1015    479.82775    241.21922    412.37236    39359.762 
  489900    314.37122   -1536.5974    500.72353    374.43289    283.67811    39359.762 
  490000    303.82019   -1534.4912    474.39638    302.87871    151.17479    39359.762 
  490100    301.99639   -1495.2832     477.9182     337.4268   -179.69345    39359.762 
  490200    307.22115   -1497.8614    467.52996    347.89922   -1015.9797    39359.762 
  490300    296.36256   -1501.1247    501.95104    330.34413   -1026.1611    39359.762 
  490400    295.58582   -1475.7477    495.80226     346.0878   -820.87317    39359.762 
  490500    303.60243   -1453.5993    473.51078     381.9082   -62.491098    39359.762 
  490600    297.58542   -1465.2869      483.804    353.52077    279.35885    39359.762 
  490700    295.33515   -1473.3762    501.10451    352.63695   -103.64032    39359.762 
  490800    307.38679   -1495.7491    472.29325    355.51789   -193.72438    39359.762 
  490900    296.96519   -1502.8118     478.4005    307.80991   -148.41977    39359.762 
  491000    302.61906   -1509.8422    474.97816    322.72111   -250.30171    39359.762 
  491100     305.3808   -1514.2402     488.7791    344.51356   -382.35059    39359.762 
  491200    307.33999   -1468.0068    465.38116    376.13822   -1104.6744    39359.762 
  491300    301.25221   -1501.2463     476.1345     326.3415   -1277.5829    39359.762 
  491400    302.36769    -1498.435    476.53901    334.56147   -876.56647    39359.762 
  491500    287.96315   -1460.6311    484.54502    315.75096   -654.96643    39359.762 
  491600     298.4823   -1509.8513    467.21343    296.38933   -874.95273    39359.762 
  491700    305.85606    -1464.923    489.67974    396.86345   -792.26165    39359.762 
  491800    301.36856   -1479.9806    505.73411    377.72875   -475.72687    39359.762 
  491900    294.25241   -1516.2496    497.27043     301.0722   -106.71424    39359.762 
  492000    306.29435   -1491.2637    504.89784    387.70705    286.20086    39359.762 
  492100    292.45358   -1516.0983    473.80492    269.68823    281.48848    39359.762 
  492200     298.9219   -1516.6707    470.81251    295.14104    804.80058    39359.762 
  492300    307.29481   -1511.9049    473.82713    340.48337    177.60555    39359.762 
  492400    298.25428   -1476.0924     500.7633    362.67513    306.28516    39359.762 
  492500     293.4785   -1522.8242    474.79469    268.55003    308.07148    39359.762 
  492600    303.41377   -1514.0554    513.39082    360.48576    552.18829    39359.762 
  492700    298.15807    -1548.675      468.012    256.90962   -443.97244    39359.762 
  492800    292.81842   -1601.4301     467.3721    179.56033    75.870844    39359.762 
  492900    299.45253   -1539.6221    492.50627    296.26389    757.90966    39359.762 
  493000    292.16253   -1532.4012    467.30497     245.5797    704.07861    39359.762 
  493100    313.16285    -1534.459    511.83633    382.26319     661.9832    39359.762 
  493200    307.04541   -1538.0695    500.12019    339.49294    408.35846    39359.762 
  493300    312.72219   -1544.8264    506.25548    364.33806    683.54021    39359.762 
  493400    303.73296   -1531.4355    486.94398    318.09072      576.033    39359.762 
  493500     317.9045   -1511.1103    483.47315    398.52029    647.49028    39359.762 
  493600     302.2986   -1522.1234    476.20634    310.23049    76.949001    39359.762 
  493700    306.97045    -1570.714    485.73603    292.12799    485.28769    39359.762 
  493800    301.78126   -1514.9843     487.1029    325.94525   -58.829226    39359.762 
  493900     294.1893   -1535.6034    496.19606     280.3609   -353.78366    39359.762 
  494000    300.69122   -1514.5426    508.14999    342.54409    28.282708    39359.762 
  494100    309.33085    -1576.142    466.49598    278.04903   -653.33069    39359.762 
  494200    294.96236   -1555.2055    450.83609    218.86683   -263.32194    39359.762 
  494300    298.35947   -1560.9157    475.23452    252.79491    -205.7098    39359.762 
  494400    310.12275   -1555.9126    470.23355    305.56851    304.57711    39359.762 
  494500    303.39095   -1568.8478    482.76782    274.96794   -227.29107    39359.762 
  494600    295.24777   -1533.2245    508.57349    299.86566    31.072195    39359.762 
  494700    301.87944   -1510.0357    509.28475    353.51624   -276.98434    39359.762 
  494800    290.36234   -1556.5688    487.63061    233.66186   -519.85072    39359.762 
  494900    303.23427   -1549.0017    497.72967    309.07304   -68.675757    39359.762 
  495000    299.09746   -1565.0904    465.69519    242.39164   -120.26607    39359.762 
  495100    297.89353   -1565.5864    502.51269    273.31212   -219.13591    39359.762 
  495200    294.98012   -1529.6674    468.98822    262.63684    297.36514    39359.762 
  495300    295.60343   -1524.6066     476.9449    278.45053   -90.645236    39359.762 
  495400    308.24296   -1519.6226    500.45159    363.64362    -265.0216    39359.762 
  495500    301.50615   -1500.1336    493.32559     345.7845   -167.20586    39359.762 
  495600    296.41326   -1549.6695    473.94465    254.02038    68.906199    39359.762 
  495700    302.02706   -1537.3523    491.79237    309.36945    -408.4992    39359.762 
  495800    292.73026   -1549.3026    476.46906    240.38926   -11.986789    39359.762 
  495900     302.9278    -1554.755    506.35015    310.56535    201.53292    39359.762 
  496000    300.94342   -1611.8592    456.03919    194.24802   -309.45328    39359.762 
  496100    305.44854   -1541.2999    482.73981    311.71848   -1139.4399    39359.762 
  496200    291.78659   -1582.7485    461.38716    187.62806   -1047.1456    39359.762 
  496300    293.95331   -1598.2903    472.29706    192.71633    -392.3162    39359.762 
  496400    300.63705   -1597.3508    459.20226    210.54504   -199.17073    39359.762 
  496500    301.91052    -1565.685    457.18642      245.908    126.96173    39359.762 
  496600    290.79546   -1561.0165    483.48571    227.01228    492.76582    39359.762 
  496700    293.67265   -1530.5249    467.15849    254.08407    557.54582    39359.762 
  496800    299.98622    -1556.754    457.91186    246.93179     120.9526    39359.762 
  496900    291.79173   -1540.3966     479.9997    248.61557    216.38681    39359.762 
  497000    304.66717   -1513.1799    478.31563    331.90892    161.85704    39359.762 
  497100    302.00221   -1516.0707    524.47514     363.2223   -367.50685    39359.762 
  497200    302.59264   -1509.5406    468.77908    316.70506   -887.35693    39359.762 
  497300    300.06106   -1510.1442    465.26117    301.22663   -365.43769    39359.762 
  497400    291.90908   -1527.1791     479.5525    261.91224   -463.30825    39359.762 
  497500    294.12986   -1504.9579    483.12544    297.66917    -689.9618    39359.762 
  497600    295.75332   -1566.2191    486.51389    247.07939   -333.63062    39359.762 
  497700    306.19399   -1552.6201    484.78448    305.78707   -673.19461    39359.762 
  497800    296.02096   -1551.7764    485.45084    261.65976   -578.35186    39359.762 
  497900    308.53046   -1541.8502    480.95242     323.2066    -528.7652    39359.762 
  498000    298.97039   -1508.6225    493.09587    325.69013    -341.3472    39359.762 
  498100    291.84698   -1546.9182    461.94999    224.29209   -581.39236    39359.762 
  498200    291.84745   -1539.1133    502.05702    272.20612    78.691699    39359.762 
  498300    301.67457   -1541.8132    497.18701     308.7219    447.61817    39359.762 
  498400    301.64971   -1515.8523    497.95265    335.33685    656.18778    39359.762 
  498500     289.9042    -1519.465     490.0303    271.11008    359.29017    39359.762 
  498600    303.13385   -1512.9575    487.89994    334.83695    46.230144    39359.762 
  498700    307.44784   -1555.1757    484.49983    308.57182     -70.4399    39359.762 
  498800    299.17513   -1495.1471    478.32983    325.31803   -98.674662    39359.762 
  498900    297.14835    -1528.725    511.24129    315.55917    20.223029    39359.762 
  499000    308.55768   -1532.7154    444.77755     296.2887   -91.677898    39359.762 
  499100    312.73193   -1568.3405    470.84937    305.46158   -272.27161    39359.762 
  499200    299.82241   -1555.6006    474.21606    263.65453    132.23549    39359.762 
  499300    288.83064   -1558.3945    487.21803    224.55222   -276.67713    39359.762 
  499400    301.12839   -1555.1693    517.40453    313.13304   -270.72543    39359.762 
  499500     296.2204   -1563.1076    481.81121    247.58361   -137.12237    39359.762 
  499600    300.33085   -1560.5582    475.03214    261.79388    109.55385    39359.762 
  499700    293.49277    -1537.011    476.04307    255.67562    466.40303    39359.762 
  499800    295.88678   -1519.6313    492.22481     299.9769    979.39289    39359.762 
  499900    291.21608   -1506.9998    512.04635    311.47661   -67.374267    39359.762 
  500000    301.87245   -1480.9936    495.89616    369.13831    158.98321    39359.762 
  500100    299.61083   -1487.9485    503.84597    359.98731     -26.0089    39359.762 
  500200    295.40072   -1506.3479    485.98905    304.84401    287.36341    39359.762 
  500300     305.8162   -1555.4355    481.39587    297.88832   -348.14975    39359.762 
  500400    301.46827   -1532.8976    464.58111    284.10609     29.63446    39359.762 
  500500    303.84579   -1528.6557    482.12841    316.56112   -250.97729    39359.762 
  500600     307.8266   -1563.8058    469.22561    286.36659   -122.15324    39359.762 
  500700    303.82873   -1560.8333    476.68808    278.86665   -27.666768    39359.762 
  500800     296.8551   -1522.4229    465.14581    274.45024   -84.439241    39359.762 
  500900    303.24421   -1496.3222    493.65804    357.72546    429.01352    39359.762 
  501000    286.55368   -1541.9187    462.24942    205.84468    199.34749    39359.762 
  501100      301.337   -1530.7386      491.604     312.6991    893.15532    39359.762 
  501200    297.84671   -1539.8967    481.97888    278.25799    606.59139    39359.762 
  501300    298.92845   -1492.7723    496.43002    344.68635    574.20066    39359.762 
  501400    294.52798   -1503.0073    489.37355    307.65381    1045.6631    39359.762 
  501500    300.30105   -1523.4888    514.21894    337.91639    608.79808    39359.762 
  501600    304.95409   -1512.8689    477.64358    332.83509    669.08184    39359.762 
  501700    297.23873   -1503.6868    495.08183     324.8434    378.76723    39359.762 
  501800    300.13674   -1516.1915    484.24085     314.4985    216.02957    39359.762 
  501900    292.85961   -1494.2404    472.40883    291.97151    461.11841    39359.762 
  502000    310.47975   -1521.1898    528.66337    400.32267    325.95932    39359.762 
  502100    296.47959   -1514.5457    482.97102    298.46805   -86.396425    39359.762 
  502200    303.63419   -1470.5636     482.8347    374.41029   -489.78629    39359.762 
  502300    309.94841   -1453.0148    480.68852    418.13925   -900.44497    39359.762 
  502400    297.40329    -1468.675    476.12974    341.64134   -1225.2366    39359.762 
  502500    289.09066   -1530.0097    499.16796    266.05338   -1125.3735    39359.762 
  502600    303.03066   -1528.9672    504.50523    334.96969   -884.57442    39359.762 
  502700     301.9023   -1459.2446    487.02029    382.14534   -901.63169    39359.762 
  502800    290.97883   -1530.6376    475.65157    250.37972   -821.96508    39359.762 
  502900    301.83342   -1537.9003    484.16325    300.32363   -366.03084    39359.762 
  503000    306.28301   -1507.6438    473.35216    339.73044   -919.52522    39359.762 
  503100     303.3011   -1530.8552    469.46101    299.25066   -397.83304    39359.762 
  503200    292.74327   -1478.8829    490.09872    324.49698   -636.85973    39359.762 
  503300    303.72073   -1521.4476      488.418    329.49781   -783.69791    39359.762 
  503400    302.95949   -1542.3626    479.75052    296.50031    -1063.968    39359.762 
  503500    299.13289   -1533.2003    479.67562    288.42108   -410.40903    39359.762 
  503600    302.60132   -1546.7459    471.71145    282.47116   -708.09608    39359.762 
  503700    308.49161   -1550.7148     455.6453    288.86063   -115.03592    39359.762 
  503800    293.94854    -1576.325    490.68389    233.04705   -135.78531    39359.762 
  503900     301.5436   -1565.7491    489.14769    276.15906   -328.38357    39359.762 
  504000    308.35674   -1525.4577    486.72099    344.58835    226.73967    39359.762 
  504100    293.11061   -1538.3088    457.46856    234.08891    -302.3907    39359.762 
  504200    294.32382   -1515.6611    480.06397    284.77454   -1045.7973    39359.762 
  504300    291.35178   -1493.3966    466.33955    279.98178   -94.801568    39359.762 
  504400    301.54725   -1493.6266     480.8081    339.95839   -303.05421    39359.762 
  504500    303.13403   -1520.3007    499.05918    338.65388   -55.480901    39359.762 
  504600    293.18619   -1547.1463    465.65022    233.77204    69.812146    39359.762 
  504700    313.12836   -1557.6549     484.5205    331.59669    744.99329    39359.762 
  504800    305.45222   -1534.8132    460.44507     295.9269    648.43148    39359.762 
  504900    293.72939   -1505.6152    472.95745    285.04726     613.9667    39359.762 
  505000    298.57756   -1520.1437    519.24454    338.55533    1327.0765    39359.762 
  505100    289.85538   -1565.8449    453.56229    188.04309    679.37794    39359.762 
  505200    286.33475   -1519.3757    486.35876    251.51487    172.31235    39359.762 
  505300    296.13084   -1536.2248    463.63381    255.88727    703.83918    39359.762 
  505400    305.22945   -1552.8874    463.67664    280.08494    579.01883    39359.762 
  505500    305.60246   -1496.5039    465.32899    339.79409     266.6566    39359.762 
  505600    294.13307   -1514.6905     465.7278    270.55325    153.04741    39359.762 
  505700    302.67711   -1475.4898    466.70003    349.05582   -235.63903    39359.762 
  505800    285.50003   -1502.9502    467.42731    245.26421   -584.13067    39359.762 
  505900    292.69804   -1519.7143    468.50545    261.86943   -168.04513    39359.762 
  506000    296.79904   -1482.3741    477.98191    327.08372   -711.50928    39359.762 
  506100    298.71185   -1470.6395    483.26019     352.6776    -78.24084    39359.762 
  506200    296.68638   -1485.3889    477.38365    322.96524   -15.600262    39359.762 
  506300    302.12013   -1435.7177    457.52417    377.15339   -244.26623    39359.762 
  506400     291.5879   -1482.6273    496.85446    322.32519    54.949459    39359.762 
  506500    301.63865   -1504.6145    489.37458      337.947   -293.98869    39359.762 
  506600    300.52875   -1471.8359    483.31309    359.68493    -167.3877    39359.762 
  506700    289.77076   -1476.2104    479.60932    303.34504   -326.30596    39359.762 
  506800      309.735   -1469.3519    462.95797    383.11413   -105.78964    39359.762 
  506900    293.37147   -1516.5343    485.54634    285.11141    81.763877    39359.762 
  507000     294.1257   -1508.2513     492.7762     304.0078   -400.48747    39359.762 
  507100     298.4302   -1452.3932    459.96671    346.36689    -402.2602    39359.762 
  507200    297.43566   -1468.2874    477.23387     343.2783   -793.69581    39359.762 
  507300    296.97469   -1454.8223    481.42722    358.86876   -348.88626    39359.762 
  507400    305.45907   -1467.2059    492.60377    395.72359   -604.99294    39359.762 
  507500     294.1449   -1469.0627    487.18958     337.6959   -365.22538    39359.762 
  507600    307.99609   -1475.8477    513.86361    419.72306    86.906781    39359.762 
  507700    301.42202   -1521.4051    495.47984    326.28981    470.82599    39359.762 
  507800    308.28304   -1538.3933    454.77689    299.37804    431.18687    39359.762 
  507900    303.20446    -1518.238    495.68163    337.65498    703.71747    39359.762 
  508000    286.23702   -1507.7684    458.88837    235.21332    727.92239    39359.762 
  508100     303.8551   -1498.7851    500.44706    364.79208    697.47477    39359.762 
  508200    290.48699   -1517.5707    510.23275    295.82123    649.28293    39359.762 
  508300    295.37584   -1520.4928    477.05888    281.65729    669.04886    39359.762 
  508400    310.62751    -1502.129    460.34855    351.73155    153.35661    39359.762 
  508500    291.13568   -1534.6194    466.43519    237.88513   -154.97898    39359.762 
  508600    293.03101   -1562.0713    451.75272    204.25341   -278.10481    39359.762 
  508700    304.52402   -1546.9227    468.97794    288.18631   -82.095665    39359.762 
  508800    308.12127   -1544.2167    469.84581    307.89779    334.41511    39359.762 
  508900    296.32174     -1571.99    473.63989    230.98451    423.13999    39359.762 
  509000    299.44314   -1565.8853    478.64146    256.09381   -291.29602    39359.762 
  509100    301.41219   -1560.6554    452.86804    244.38358   -54.932623    39359.762 
  509200    313.51394   -1554.8181    448.77086    300.41366    21.918045    39359.762 
  509300    304.90338   -1533.6637    483.52942     317.6986    471.17851    39359.762 
  509400    307.35837   -1539.0156    488.69256    328.52324    198.50447    39359.762 
  509500    296.35264   -1528.6589    485.96232    286.77667    226.21751    39359.762 
  509600    304.52327   -1539.2013     466.8041    293.73046    256.83881    39359.762 
  509700    299.42807    -1505.341    486.72889    324.65793    17.932484    39359.762 
  509800    308.62876   -1500.7095    471.13139    354.96732   -44.494252    39359.762 
  509900    298.39376   -1544.2464    502.78203    297.16561   -283.42941    39359.762 
  510000    308.81729   -1518.0565    441.86646    309.20108   -315.88954    39359.762 
  510100    309.89747   -1524.0719    483.33931    349.50441   -191.50886    39359.762 
  510200    312.83225   -1519.1092     458.8494    343.14292   -377.99787    39359.762 
  510300    298.89237   -1510.8782    504.72247     334.7111   -683.18396    39359.762 
  510400    309.33222   -1479.8546    504.03539    411.88196   -461.89983    39359.762 
  510500    303.74619   -1529.5082    478.09948    311.23291   -433.28604    39359.762 
  510600    309.60216   -1547.8668    469.57284    310.61824   -17.716195    39359.762 
  510700     306.6727   -1539.6436    472.97446    309.10114     3.925069    39359.762 
  510800    298.54521   -1510.3461    469.20059    298.16392    34.210829    39359.762 
  510900     300.6204   -1527.7478    483.04178    303.91293    61.702725    39359.762 
  511000     291.7625   -1512.5829    481.23115     277.5296   -2.3459679    39359.762 
  511100     303.7669   -1524.1704    496.97557     335.5396    703.11696    39359.762 
  511200    302.77596    -1487.104    514.29793    385.48295     575.4055    39359.762 
  511300    294.60958   -1529.2319    477.01124      269.433    300.77717    39359.762 
  511400    294.90826   -1498.2503    469.51996    294.26327    132.06022    39359.762 
  511500    300.98309   -1476.4341    472.46092    346.27284    -97.04121    39359.762 
  511600    307.45565   -1484.5123    479.76776    374.53809   -477.79969    39359.762 
  511700    297.82499   -1486.1939    486.50701    336.39144     -393.918    39359.762 
  511800     304.0013    -1518.556    489.78757    335.01758    -204.6262    39359.762 
  511900    298.69831   -1539.1859    479.42846    280.23881    -269.9925    39359.762 
  512000    294.69225   -1539.5681    495.02976    277.48618   -228.94485    39359.762 
  512100    302.46725   -1507.1576    499.73031    349.47681     14.31899    39359.762 
  512200    300.45335   -1510.5938    466.31551    303.59128    448.47233    39359.762 
  512300    300.78929   -1551.6291    478.76467    276.51214   -89.666409    39359.762 
  512400    300.43122    -1515.735    468.78142    300.81667   -176.71914    39359.762 
  512500    312.42001    -1551.265    481.06378    331.35211   -352.13097    39359.762 
  512600    297.17062   -1510.4006    462.82978    285.57195     -563.504    39359.762 
  512700    308.44148   -1534.3194    455.25533    304.64118   -427.70817    39359.762 
  512800    299.11646   -1570.3837    488.71672    260.20512   -421.35055    39359.762 
  512900    301.20082   -1557.1573    466.47074    260.53625   -384.24992    39359.762 
  513000    303.45332   -1498.1462    463.03951    326.22102   -409.52629    39359.762 
  513100    299.03651    -1487.814     490.3983    344.09776   -254.70164    39359.762 
  513200    310.18072   -1506.3162    477.55199    362.74347   -687.78496    39359.762 
  513300    296.62374   -1479.8555    495.15217    345.98613   -349.10745    39359.762 
  513400    296.45807   -1512.9579    466.88166    283.86997   -458.74941    39359.762 
  513500     295.1629   -1482.5692    482.33979    323.90651   -80.380977    39359.762 
  513600    296.44403   -1504.9185    481.70752     306.6723    441.56052    39359.762 
  513700    297.78772    -1535.303     496.3882    296.99636    552.35309    39359.762 
  513800    289.31231   -1433.8194    513.14704    377.21719    595.51866    39359.762 
  513900      301.634    -1511.149    512.58603    354.60307    437.98369    39359.762 
  514000    293.28067   -1494.2255    483.15649    304.62304    444.29587    39359.762 
  514100    295.42079   -1504.9416    468.02938    288.38065    15.518792    39359.762 
  514200    303.29484   -1455.8989    522.37925    427.09715    199.93805    39359.762 
  514300    303.69652   -1482.0069    493.49305    373.90486    291.07325    39359.762 
  514400    299.67864   -1452.0745    474.30241    366.62195    223.93754    39359.762 
  514500    295.95646   -1505.4534    524.17539    346.41795    148.91066    39359.762 
  514600     299.9615   -1493.7154    499.48925    351.43689   -87.343114    39359.762 
  514700     302.6659   -1439.8882    481.64309    399.55015    213.25566    39359.762 
  514800    301.12738   -1466.4371    500.66912    385.12529    500.64372    39359.762 
  514900    301.48572   -1474.7451    473.59023    351.34599    670.14613    39359.762 
  515000    292.14802   -1502.8098    470.41494    278.21595     160.3339    39359.762 
  515100    291.77465   -1505.7226    478.42281    281.63604   -61.880346    39359.762 
  515200    290.10727   -1472.1359    501.32643    330.64633   -351.63087    39359.762 
  515300    296.66577    -1492.761    487.59081    325.70779   -618.02476    39359.762 
  515400    290.85684   -1498.5941    477.56404    283.78834    134.39745    39359.762 
  515500    297.49883   -1494.5717    480.08027    320.12372   -198.81963    39359.762 
  515600    293.66286   -1493.8379    485.67085    309.23955   -59.204089    39359.762 
  515700    309.37406   -1477.6702    467.51458    377.73323    167.15726    39359.762 
  515800    301.55492   -1496.4907     481.3005    337.62107   -343.00366    39359.762 
  515900    295.78962   -1495.0807    462.77731    294.64407   -417.79356    39359.762 
  516000    290.31973   -1492.7723    467.63343    277.27001   -450.42267    39359.762 
  516100    306.31557   -1475.1551    493.96674    392.97982    102.30096    39359.762 
  516200    299.67148   -1514.7209     481.7064    311.34749    392.21996    39359.762 
  516300    309.28471   -1511.5489    475.66308    351.60222    668.06381    39359.762 
  516400    289.84065   -1537.8875    482.18283      244.555   -195.12491    39359.762 
  516500    305.76628   -1526.3664    459.00272    304.34032   -6.8867708    39359.762 
  516600     298.5019   -1485.0464    464.06662    318.13527   -343.45271    39359.762 
  516700    311.05208   -1537.2022     514.3915    372.60602   -200.75694    39359.762 
  516800    306.18927   -1518.4165    476.39941    331.58443   -316.40104    39359.762 
  516900    294.44401   -1535.4324     482.5941    268.07265   -418.22303    39359.762 
  517000    288.12343   -1510.7224    469.17306    251.00668   -665.72147    39359.762 
  517100    303.32123   -1487.8734    473.18147    346.04323   -567.57217    39359.762 
  517200    287.92721   -1528.1691    497.88484    261.39145   -365.64892    39359.762 
  517300    307.88909   -1463.0298    500.08436    418.28168   -265.94993    39359.762 
  517400     291.2391   -1463.5647    500.38388    343.35245   -384.27507    39359.762 
  517500    295.74732   -1480.0437    481.58636    328.30037   -91.819323    39359.762 
  517600    300.73682   -1435.0999     490.0658    404.10713    240.36238    39359.762 
  517700    312.04041   -1521.4115    496.09298    374.53198    244.25484    39359.762 
  517800    295.46153   -1505.0936     467.9337    288.31569   -199.76507    39359.762 
  517900     301.5594   -1466.8124    482.13358    368.15259   -434.35949    39359.762 
  518000    294.96721   -1488.2465    507.42275    342.43425   -51.666458    39359.762 
  518100    291.81833     -1458.44    495.76513    346.45696   -217.00275    39359.762 
  518200    300.33207   -1503.5295    502.37459    346.17052   -524.63585    39359.762 
  518300    302.55192   -1528.1104    454.17823    283.35178    197.58594    39359.762 
  518400    308.68784   -1508.9463    520.12209    395.98622    -274.0842    39359.762 
  518500    302.21997   -1508.2093    495.29285    342.87838    186.32591    39359.762 
  518600    307.47176    -1517.416    487.68173     349.6207    119.33692    39359.762 
  518700     299.6381   -1480.2689     492.9343    356.87756   -215.04395    39359.762 
  518800    296.96091    -1500.141    499.99156    332.05254   -729.50429    39359.762 
  518900    302.28495   -1482.5235    478.26288    351.82566   -858.26505    39359.762 
  519000    295.63901   -1479.7743    472.36333    318.86084   -332.57129    39359.762 
  519100    303.15817   -1489.4453    478.25327    348.81163    153.91674    39359.762 
  519200    308.98547    -1493.006    483.13855    376.27823   -152.51493    39359.762 
  519300    301.72846   -1502.7867    492.36888    343.17199    420.16036    39359.762 
  519400    295.29633    -1542.358    473.11905    255.49557    368.94161    39359.762 
  519500    309.96503   -1540.0014    451.15179    301.69045    233.80026    39359.762 
  519600    290.30026   -1504.1708    486.00139    284.15209   -161.54893    39359.762 
  519700    298.14276   -1459.1332    469.22367    347.59441   -102.54842    39359.762 
  519800    309.39222   -1486.1853     473.7125    375.49759    80.177966    39359.762 
  519900    326.43968   -1506.4754    459.92609    417.89801    569.86102    39359.762 
  520000    301.38395   -1529.6592    459.95207     282.3372    435.54738    39359.762 
  520100    296.71794   -1494.0766    488.63405    325.66942     798.9635    39359.762 
  520200    312.85527   -1539.0744    461.73737    326.16902    81.416828    39359.762 
  520300    293.43181   -1525.1144    478.08341    269.33909    587.70831    39359.762 
  520400    303.40357   -1535.3378    484.48399    310.25077    45.208698    39359.762 
  520500    306.36232   -1518.6411     477.7958    333.53263    742.07053    39359.762 
  520600    297.73483   -1537.5364    508.01435    306.15186    298.44866    39359.762 
  520700    290.85412    -1501.374    487.21886    290.65108     825.2369    39359.762 
  520800    306.12696   -1512.3465    460.20141    321.17692    435.44654    39359.762 
  520900    297.63679    -1487.244    511.72331    359.71344    680.70409    39359.762 
  521000    301.36677   -1491.5188    455.85164    316.30009    33.212551    39359.762 
  521100    306.96522   -1493.3865    475.60646     359.3025   -463.67618    39359.762 
  521200    273.64953    -1443.137    450.35228    234.83962    -1074.518    39359.762 
  521300    302.69462   -1456.6788    468.09309    369.33836   -447.01525    39359.762 
  521400    305.33876   -1475.5565     487.0533    381.28284    -929.0662    39359.762 
  521500    305.53545   -1461.1767    482.15922    391.65098   -493.66911    39359.762 
  521600    299.72846   -1449.0844    477.84062    373.37378   -501.31742    39359.762 
  521700    305.62077   -1469.0809     483.1587    385.12893   -389.30712    39359.762 
  521800    303.92069   -1491.8794     468.7493    340.29436    49.498082    39359.762 
  521900    301.12048   -1558.3263    474.00246    266.53848    424.84857    39359.762 
  522000    300.39614   -1501.4558    481.37902    327.53611    311.18713    39359.762 
  522100    290.92536   -1484.5479    456.50318    277.08107    233.92804    39359.762 
  522200    299.48929   -1460.4007    470.84327    353.98719   -42.313578    39359.762 
  522300    292.75805   -1456.6137    457.49346    314.22725   -431.79772    39359.762 
  522400    305.92138   -1462.9629    466.42101    375.85787   -444.63324    39359.762 
  522500    294.05541   -1496.4925    477.02421    299.69932    48.504978    39359.762 
  522600    298.19564   -1473.6497    466.82049    330.91195   -306.28119    39359.762 
  522700    299.78369   -1533.7349     480.0403    291.17075     -398.125    39359.762 
  522800    303.91746   -1493.5885    455.06597    324.88745   -633.43672    39359.762 
  522900    301.96659   -1536.5326    437.73479    255.86025   -249.57402    39359.762 
  523000    300.65706   -1544.2574    473.85101    278.37699   -45.561031    39359.762 
  523100    300.17135   -1526.2866    443.16135    263.47919    321.13825    39359.762 
  523200    291.76214   -1528.0798    473.79897    254.59887    515.74523    39359.762 
  523300    316.72903   -1499.6422    492.39727    413.63921    734.45116    39359.762 
  523400    299.66515   -1529.9866     473.5809    287.92782    36.727364    39359.762 
  523500    292.17378   -1526.0241    452.34642    237.04872    44.773837    39359.762 
  523600    293.05957   -1478.8029    482.11165    318.00886    124.80055    39359.762 
  523700    303.66356   -1476.4563    502.55241    388.36699   -161.19745    39359.762 
  523800    306.27625   -1456.6248    480.61787    397.98478    -329.7755    39359.762 
  523900    303.23391   -1460.2031    492.57681    392.71717   -307.27494    39359.762 
  524000    302.91622    -1443.685    491.81871     407.0519   -97.623715    39359.762 
  524100    318.35211   -1448.6996    489.92832    469.39416   -73.083674    39359.762 
  524200    298.10896   -1450.8869    493.34144    379.80688    368.89865    39359.762 
  524300    292.31786   -1465.3781    495.93348    341.92805   -75.322137    39359.762 
  524400     306.0385   -1460.5646    484.36122    396.72184    -716.1493    39359.762 
  524500    302.60688   -1458.9564    467.71438    366.28848   -805.54969    39359.762 
  524600    302.96159   -1481.4053    484.08817    361.80469   -282.90403    39359.762 
  524700    291.69753    -1535.756    459.87128     232.7052   -114.52332    39359.762 
  524800    297.84611   -1519.6038    470.02805    286.59736   -342.43463    39359.762 
  524900    298.10814   -1500.1051    467.94667    305.19017   -89.644211    39359.762 
  525000    307.52941   -1483.3861    492.81215    389.03959    -203.2101    39359.762 
  525100    301.72082   -1489.6063    469.72802    333.67731   -226.56032    39359.762 
  525200    311.66861   -1473.0892    474.16378    399.25704   -230.90256    39359.762 
  525300    303.43399   -1504.7328    462.70518    319.21334   -125.99289    39359.762 
  525400    297.98936   -1507.4906    482.31611    311.64128    124.33384    39359.762 
  525500    293.98712   -1482.4657    483.12115    319.51668   -491.31231    39359.762 
  525600     304.0175   -1442.0834     502.3496    424.12496    98.798401    39359.762 
  525700    295.24074   -1476.9872    451.65038    299.14829    -176.3689    39359.762 
  525800     307.3354   -1447.9732    487.39648    418.16653    309.67411    39359.762 
  525900    292.31447   -1446.2447    511.91679    377.02962   -76.410492    39359.762 
  526000    289.39465     -1442.18    463.12106    319.19993   -119.52455    39359.762 
  526100    299.32522   -1434.7001     500.2508    408.35923   -279.46398    39359.762 
  526200    313.51129   -1448.8585     485.6513     443.2418    193.21668    39359.762 
  526300    290.78619   -1435.3026    503.18437    372.38327    186.12583    39359.762 
  526400    303.22239   -1450.4334    479.16094    389.01928   -557.96691    39359.762 
  526500    295.05677   -1482.8123     469.3956     310.2431   -36.314068    39359.762 
  526600    294.16318   -1473.8248     442.2997    288.12601   -887.50027    39359.762 
  526700    301.14347   -1440.3474    487.93819    398.55624    607.69611    39359.762 
  526800    298.56295   -1405.8399    500.94062    434.48963   -90.747038    39359.762 
  526900    290.56123   -1418.9073    492.24618    376.83119   -364.21103    39359.762 
  527000    302.95767   -1431.9277    481.16037    408.33684     343.1379    39359.762 
  527100    305.23523   -1451.9175    486.35566    403.75974    -177.1161    39359.762 
  527200    306.55456   -1417.2694    489.49089    447.46174    944.64626    39359.762 
  527300    294.61864   -1417.1692    475.89828     380.4234    499.99232    39359.762 
  527400     297.3432   -1462.0285    469.31284    341.20137    354.72519    39359.762 
  527500    308.36699   -1428.0307    488.28676    443.62713    260.69312    39359.762 
  527600    296.21704   -1453.5909    447.96323    323.23723   -30.742318    39359.762 
  527700    303.98623   -1418.7082    497.55176    442.56203    450.10738    39359.762 
  527800    302.17681   -1403.2169    477.56838    429.95269   -566.23014    39359.762 
  527900    305.16125   -1438.3028    471.57826     402.2652   -762.68623    39359.762 
  528000    297.27297   -1460.0875    496.16947    369.68395   -607.45987    39359.762 
  528100    293.49381   -1435.0575    475.33986    356.93059   -198.58772    39359.762 
  528200    291.39833   -1494.2113    497.25233    310.28872   -432.02272    39359.762 
  528300    301.90194   -1491.5944    462.64275    325.41637    94.532649    39359.762 
  528400    292.07054   -1475.7975    464.64188    299.10763   -537.14612    39359.762 
  528500    282.07805   -1443.9986    492.42323    313.86036   -519.97498    39359.762 
  528600     294.9236   -1440.2886    466.50998    349.28377   -200.58354    39359.762 
  528700     303.4576    -1434.273    451.40314    378.47713    146.68361    39359.762 
  528800    304.47957   -1476.7202    466.44891    355.66035    345.29826    39359.762 
  528900    288.94296   -1522.3064     487.2555    261.18166    498.21751    39359.762 
  529000    313.74403   -1485.3243    469.08657    391.25537    853.71985    39359.762 
  529100    304.22591   -1499.7975    463.62187    328.61807    476.78303    39359.762 
  529200    306.97693   -1551.1946    458.67579    284.61627    613.23932    39359.762 
  529300    307.49152   -1493.2618    476.11484    362.29663   -252.65884    39359.762 
  529400    301.91213   -1460.1614    483.12362    377.37598    482.57168    39359.762 
  529500    297.17992   -1492.5558     464.7257    305.35444    118.86473    39359.762 
  529600    302.58395   -1516.5842    480.55426    321.39768    257.41166    39359.762 
  529700    304.18094   -1459.3633    492.07263    397.30131    579.77794    39359.762 
  529800    297.53532   -1493.4269      451.688    293.03992    9.8970329    39359.762 
  529900    305.86225   -1485.0728    464.86321    351.92487     245.2374    39359.762 
  530000     300.6188   -1438.4351    465.27353     375.4502   -2.9401672    39359.762 
  530100     310.6628   -1493.8892    479.65049    379.43164    194.31927    39359.762 
  530200     298.6729   -1455.5291    438.75826    323.11138   -212.35761    39359.762 
  530300    298.77732   -1479.4549    456.95927    317.85505   -126.52287    39359.762 
  530400    306.59613   -1474.2972    465.57378    366.70334    126.51678    39359.762 
  530500     304.3073   -1456.4809    451.27617    359.95408    410.14437    39359.762 
  530600      296.999   -1461.2235    469.71858    340.86795    717.04667    39359.762 
  530700    295.34778   -1440.6217    490.54018     374.8838    277.20697    39359.762 
  530800    295.70831   -1421.4151    488.05286    393.22049    387.05375    39359.762 
  530900    304.18039     -1410.27    489.32646     443.6459    862.29424    39359.762 
  531000    302.14368   -1456.8662    506.71728    405.30359    413.35872    39359.762 
  531100    292.45892   -1477.7099    483.39752    317.69318    597.69587    39359.762 
  531200    296.66163   -1502.2219     472.5666    301.20406    757.16205    39359.762 
  531300      303.711   -1431.0606    506.34407    437.76722    662.33713    39359.762 
  531400    292.19055   -1440.7141     455.7363    325.82383    11.165397    39359.762 
  531500    298.54183   -1445.8738    493.51607    386.93654    137.58309    39359.762 
  531600    296.76298   -1461.0176    473.85965    344.15615   -142.45438    39359.762 
  531700    314.09918   -1453.9665    452.50901    407.62891    283.90422    39359.762 
  531800    306.27651    -1484.156    463.65999    353.49692    14.419511    39359.762 
  531900    307.37018   -1485.4313    451.06398    344.53187    327.81138    39359.762 
  532000    298.38695   -1459.7951    474.29906    353.10336   -70.897525    39359.762 
  532100    293.38787   -1455.8785    479.67035    339.96474    67.886574    39359.762 
  532200    298.19442    -1443.306    449.71728    344.14694   -14.482496    39359.762 
  532300    302.59023   -1467.2443    467.28385    357.49534   -683.97175    39359.762 
  532400    303.42824   -1473.8137    465.78942    353.19097   -979.14983    39359.762 
  532500    303.64868   -1452.0961    455.54424    365.65227   -304.77659    39359.762 
  532600    301.03498   -1464.8793    473.41633    359.01584   -634.47856    39359.762 
  532700    308.14841   -1452.9577     471.7868    401.21955   -333.85437    39359.762 
  532800    294.36919   -1487.0255    464.96371    298.51348    -639.8605    39359.762 
  532900    303.68992   -1470.4694    451.38159    343.30137   -145.92137    39359.762 
  533000     302.5188   -1456.1197    481.56597    382.58162   -266.36718    39359.762 
  533100    297.70932   -1463.4022    464.62575    336.78306    172.06068    39359.762 
  533200    292.89185   -1520.7487    482.49062    275.68966  -0.75332286    39359.762 
  533300    303.65849   -1519.4979    465.53187    308.28217    124.72174    39359.762 
  533400    294.44552   -1510.1125    438.22054     249.0257   -16.399561    39359.762 
  533500    302.72074   -1496.8104    449.28255    310.51339   -73.435462    39359.762 
  533600    296.81779   -1482.0543    484.33809    333.84378    77.751692    39359.762 
  533700    311.77892   -1477.2498    479.61913    401.04665    527.84073    39359.762 
  533800    297.26861   -1470.1202    471.42531    334.88744    300.70522    39359.762 
  533900    292.83464   -1504.3412    470.18458    279.53448    188.28333    39359.762 
  534000    304.65337   -1527.4412    453.86457    293.13468    531.31229    39359.762 
  534100    291.91171   -1507.1523    439.32753     241.7259     295.4616    39359.762 
  534200    294.85592   -1495.3928     444.5464    271.91236    33.994122    39359.762 
  534300    309.10796   -1485.2569    463.10784    364.54611      248.446    39359.762 
  534400    296.45676    -1518.131    488.51304    300.32245    403.01897    39359.762 
  534500    308.23629   -1519.8255    485.02527    347.98455    589.21391    39359.762 
  534600    307.61088   -1510.4553    475.48871    345.01244   -200.73807    39359.762 
  534700    300.80897   -1529.7463     477.7436    297.46212    255.99339    39359.762 
  534800    301.89347   -1524.7128    475.95231    305.56953    113.08021    39359.762 
  534900    308.60632   -1484.9869    463.71568    363.17346   -119.99935    39359.762 
  535000    296.45365   -1527.2971    471.28343    273.91268   -397.96095    39359.762 
  535100    297.00884    -1485.702    497.83864     344.5537   -370.45084    39359.762 
  535200    298.95282   -1459.1157    471.15672    353.17899   -296.29918    39359.762 
  535300    309.00745   -1522.7971      446.013     309.4601   -128.45742    39359.762 
  535400     289.1929   -1457.2818     478.2926    318.36456   -426.84821    39359.762 
  535500    294.15587   -1463.0179    466.60054    323.20093   -599.16456    39359.762 
  535600    302.14616   -1513.6592    458.19993    300.00445   -710.37709    39359.762 
  535700    287.68067   -1479.0983    461.12096    272.59241   -489.57178    39359.762 
  535800    293.35965   -1476.0343    452.65669    292.66879   -893.14524    39359.762 
  535900    296.17698   -1449.4625     482.5191    361.74178   -344.15744    39359.762 
  536000    295.65649    -1480.043    459.59223    305.89942   -607.08324    39359.762 
  536100    288.73402   -1510.7102    461.84812    246.43316   -853.02522    39359.762 
  536200    295.45461   -1434.0394    479.00459    370.40977    47.760728    39359.762 
  536300    303.34296   -1469.9154    465.06384    355.98106    103.39556    39359.762 
  536400    305.10692   -1425.2057     499.7535    443.29375    157.89711    39359.762 
  536500    294.86981    -1471.992       474.87    325.69903   -501.13557    39359.762 
  536600    313.05595    -1511.889     487.7078    380.22507     37.05412    39359.762 
  536700    299.78807   -1479.3123    470.60749    336.18023    496.11931    39359.762 
  536800     308.1979    -1489.053     468.8516    362.41108    115.98596    39359.762 
  536900    289.54773   -1449.2549    473.18633    322.87709     128.2855    39359.762 
  537000    302.91584   -1431.3784    495.65055     423.1887    87.481353    39359.762 
  537100    298.92365   -1443.7918    455.45186    352.66718    273.92978    39359.762 
  537200    287.65132   -1441.1155    498.01949    347.34208     165.7602    39359.762 
  537300    312.64369   -1466.3931    491.47175    427.63552   -6.1051689    39359.762 
  537400    300.84343   -1452.2712    481.18034     378.5286    65.206041    39359.762 
  537500    300.13089   -1471.6388    473.58473    348.36883   -304.02902    39359.762 
  537600    294.64997   -1511.3296    483.17277    293.67799   -603.89019    39359.762 
  537700    301.11571   -1477.9174    460.82514    333.74868   -484.80867    39359.762 
  537800    302.86963   -1451.7417    474.51488    381.48242    192.93291    39359.762 
  537900    286.52723   -1474.6379     511.2863    322.04369   -702.08849    39359.762 
  538000    307.94746   -1491.3111    457.27077    347.44864   -744.93551    39359.762 
  538100    306.95915   -1427.9663    480.99651    430.08554    -808.9804    39359.762 
  538200    301.66948   -1402.9403    482.12986    432.51478    -752.9163    39359.762 
  538300    298.09969    -1398.917     483.8303    422.22403   -507.16193    39359.762 
  538400    315.27637   -1464.8083    463.08782    412.64692     55.87774    39359.762 
  538500    305.83838    -1448.331     486.9915    410.68791   -53.337233    39359.762 
  538600    297.01272   -1458.0952     495.3806    369.71981    389.49899    39359.762 
  538700    299.88436   -1469.7906    482.02912    357.55543    476.69968    39359.762 
  538800    297.82135   -1489.5698    479.82539    326.31766     864.7427    39359.762 
  538900    304.03066   -1509.4352    461.54639    316.02896   -1.2349402    39359.762 
  539000    297.66709   -1522.0372    464.56004    277.89282   -36.643081    39359.762 
  539100    298.84509   -1529.7533    446.25554    257.15695    505.15223    39359.762 
  539200    299.57895   -1565.4526    460.96078    239.45504    53.464462    39359.762 
  539300    307.01473   -1553.9006    456.13459    279.53865    183.44115    39359.762 
  539400    291.43322   -1561.5181    455.39289     201.2789    184.97517    39359.762 
  539500    300.01868   -1512.6937     461.7619    294.98776   -124.61956    39359.762 
  539600    302.55289   -1505.1986     486.5659    338.65561    332.76092    39359.762 
  539700     305.0306   -1488.5485    458.27455    338.12969    531.93622    39359.762 
  539800    304.30858   -1512.8312    429.99091    282.32429    57.026553    39359.762 
  539900    307.45838   -1519.8296    478.13003    337.59539    217.54208    39359.762 
  540000    295.24946    -1520.193    464.71362    269.04489    89.679479    39359.762 
  540100    311.61008   -1487.2418    478.66786    389.34597    381.70339    39359.762 
  540200    298.19838   -1503.6923    440.15681    274.21799   -362.59617    39359.762 
  540300    302.03906    -1469.774    475.52567    360.73486   -617.44747    39359.762 
  540400    291.95838   -1475.2807     435.0148    269.49417   -402.28122    39359.762 
  540500    305.11659   -1470.6066    475.61869    373.80149   -221.36616    39359.762 
  540600    307.78176   -1539.5573    448.09282    289.28116     -350.522    39359.762 
  540700    298.75023   -1549.1548    433.67613     224.7505   -402.70873    39359.762 
  540800    304.95524   -1522.5734    445.85134    291.34352    67.692831    39359.762 
  540900    292.65658   -1524.1993    431.24282    219.93581    -242.4574    39359.762 
  541000    310.27484   -1490.4107     460.1041     361.6233    95.024754    39359.762 
  541100    301.65371   -1502.5915    486.45622    337.11921    37.487452    39359.762 
  541200     310.4351   -1489.7953    462.71982    365.57338    301.79862    39359.762 
  541300     309.3839   -1498.3992    473.74613    363.27995   -207.79889    39359.762 
  541400    303.07382    -1484.874    479.37657    354.12785    534.87464    39359.762 
  541500    299.71183   -1483.4796    476.56907    337.63242   -149.29398    39359.762 
  541600    300.41596   -1507.1555    449.63417    290.18047   -150.64831    39359.762 
  541700    302.04841   -1491.7885    480.78994    344.02656   -363.58139    39359.762 
  541800    292.35725   -1472.7525     446.6532    285.45018   -253.57433    39359.762 
  541900    291.42717    -1479.932    462.48244    289.92742    131.98605    39359.762 
  542000    299.13921   -1456.2568    464.74415    350.46148    188.17583    39359.762 
  542100    304.83462   -1487.7801    466.35549    346.09985    277.12387    39359.762 
  542200    303.71945   -1496.3967    467.45597    333.58095    256.59474    39359.762 
  542300    299.59766    -1493.949    465.98372    316.06555   -24.598803    39359.762 
  542400    291.55849   -1451.1578    490.89371      347.702   -198.09993    39359.762 
  542500    304.37028   -1466.5205    492.99215    391.91303    -335.4533    39359.762 
  542600    298.42049   -1458.2503    476.63999    357.13958     -66.7285    39359.762 
  542700     300.5979   -1485.9124    461.40099    324.00663   -176.05556    39359.762 
  542800    296.58418   -1531.9098    465.12675    263.72887    305.05898    39359.762 
  542900    305.16627   -1500.8643    490.25183    358.39979   -21.897184    39359.762 
  543000    307.28265   -1479.4618    480.79436    379.83916    79.962588    39359.762 
  543100    302.42529   -1489.5055    477.67619     344.8866    64.269279    39359.762 
  543200    299.51629   -1492.0317    480.38237    332.01641   -341.00257    39359.762 
  543300    297.70562   -1488.7364    461.84043    308.64687   -541.75628    39359.762 
  543400    309.23725    -1498.873    483.56299    371.96508   -442.78849    39359.762 
  543500    299.80526   -1462.8952     467.4777    349.54464    85.600838    39359.762 
  543600    291.70612   -1509.1858    460.43624    259.87891   -226.12127    39359.762 
  543700    304.42303   -1487.7345    458.16004    336.10352    13.048255    39359.762 
  543800    304.78712   -1474.3805    468.76296    361.69383    137.07104    39359.762 
  543900    302.70445    -1483.204    488.40353     363.1678    263.60096    39359.762 
  544000    299.64547   -1504.8033    487.64006    327.08205    247.07313    39359.762 
  544100    301.16719   -1502.7098    462.23275    310.59482   -240.34681    39359.762 
  544200     298.8523   -1506.0438    449.37053    284.01375    45.023039    39359.762 
  544300    298.51681     -1518.77    467.16929    287.58131   -17.928534    39359.762 
  544400    312.22566    -1524.795    444.06226    319.94875    196.51384    39359.762 
  544500    307.82124   -1521.1727    476.28995    336.03999    72.211984    39359.762 
  544600    294.78765    -1498.563    468.63393    292.52341    108.10554    39359.762 
  544700    299.55681   -1520.7668     463.7022    286.78291    155.01876    39359.762 
  544800    306.10672   -1523.4262    448.88326    298.68828    351.79907    39359.762 
  544900     309.3571   -1506.3487     475.1281    356.59219    339.61164    39359.762 
  545000    306.34899   -1508.1859    492.61425    358.74645    415.91011    39359.762 
  545100    301.00162   -1501.7829    465.79892    314.34512    555.97832    39359.762 
  545200    299.58275   -1528.5895    437.04458    252.41902    -511.7594    39359.762 
  545300    301.59664   -1513.0152    494.21224    334.19546    -642.6662    39359.762 
  545400    304.71435    -1489.913    468.53927     345.6112   -195.79301    39359.762 
  545500    293.87385    -1482.877     477.4578    312.93391   -387.14909    39359.762 
  545600    291.62081   -1497.8395    456.65916     267.0653    34.039408    39359.762 
  545700    310.04161   -1519.2776    450.33907    321.94507    155.81841    39359.762 
  545800    282.48215   -1487.0532    477.89759     258.0929    278.92183    39359.762 
  545900     306.6838   -1509.0329     478.0598    344.84698    92.435634    39359.762 
  546000    302.67804     -1486.61    478.49605    349.73576   -301.79365    39359.762 
  546100     297.6539   -1488.6188    471.64629    318.33839   -1008.3759    39359.762 
  546200    306.48427   -1514.9554    449.93103    309.90059   -357.90126    39359.762 
  546300    295.94001   -1468.5712    473.58359     332.6345   -369.89555    39359.762 
  546400    301.84063      -1490.3    476.49696       340.29   -476.67348    39359.762 
  546500    290.16128    -1493.697    448.90367    256.90469    -132.6839    39359.762 
  546600    301.23778    -1542.138    484.55801    293.80852   -625.23046    39359.762 
  546700    299.77418   -1573.0185    493.80555    265.60972    -390.8025    39359.762 
  546800    295.45068    -1528.141    469.71695     267.0029    113.67238    39359.762 
  546900    295.89113   -1498.9075    465.31117    293.80657   -117.29872    39359.762 
  547000    292.83222   -1466.6964    465.64615    312.62995    -9.155615    39359.762 
  547100    305.16199   -1466.8299    479.90108    382.06419   -640.12744    39359.762 
  547200    300.96156   -1444.0796    457.27032    363.34007   -330.19639    39359.762 
  547300    301.73707   -1457.0723    487.21625    383.77236   -539.25228    39359.762 
  547400    299.37253   -1479.1659     462.5461      326.401   -396.78265    39359.762 
  547500    294.08111    -1490.414    463.88546    292.75431   -193.99156    39359.762 
  547600     301.6069   -1477.1566    471.01295    346.90085    -375.8059    39359.762 
  547700    294.97281   -1441.8822    469.07712    350.47805   -530.41214    39359.762 
  547800    299.43145   -1424.1394    471.99185    391.13759   -321.33257    39359.762 
  547900    303.87226   -1420.5047    471.78316    414.48563   -7.8407764    39359.762 
  548000    297.95918   -1422.0963    483.98265    398.56671   -330.09165    39359.762 
  548100    308.55549   -1424.3035     460.2805    420.19373    19.703103    39359.762 
  548200    296.48516   -1416.5212    464.63961    378.18617    86.872366    39359.762 
  548300    299.38529   -1440.1634    467.84885    370.76352    236.14316    39359.762 
  548400    306.00326   -1424.5041    489.32075    437.58374    74.294328    39359.762 
  548500    298.51636   -1433.3468    486.16205    391.99525    151.03342    39359.762 
  548600    299.47785   -1444.9835    454.10886    352.61866    125.72342    39359.762 
  548700    303.47921   -1469.2074    478.15864    370.39516   -73.343528    39359.762 
  548800    305.30388   -1466.0618    502.85023    406.41794   -162.65375    39359.762 
  548900    297.87369   -1483.1482    495.01945     348.1681    -609.8823    39359.762 
  549000    296.37025   -1503.4708    472.18774    298.26914   -428.66554    39359.762 
  549100    303.67342   -1480.0504    480.02679    362.29153   -252.55389    39359.762 
  549200    302.77028   -1472.8409     484.1912    369.61386   -287.02647    39359.762 
  549300    297.18711   -1471.4237    476.87305    338.66607   -265.61474    39359.762 
  549400    314.13543   -1495.7529    461.97805    375.47416   -37.686103    39359.762 
  549500    295.54924   -1452.7301    489.13582    362.27478   -480.09502    39359.762 
  549600    295.11865   -1490.9293    460.21583    293.22398   -322.52379    39359.762 
  549700     288.7036   -1464.7504     489.4378    319.84613   -89.112808    39359.762 
  549800    302.54639   -1458.3205    490.54252    389.48113   -437.49711    39359.762 
  549900    296.44596   -1480.7817    472.29611    321.40625   -191.12719    39359.762 
  550000     308.9758    -1473.763    482.90494    395.24413   -39.152453    39359.762 
  550100    297.15076   -1472.0843    479.41019    340.37957    413.62745    39359.762 
  550200    299.63396   -1509.4247    480.99511    315.76402    128.73407    39359.762 
  550300    301.94707   -1475.4524    449.04266     328.1608    453.78334    39359.762 
  550400    293.38296   -1521.9176    479.01941    273.25277   -126.53128    39359.762 
  550500    289.92327   -1521.9506    468.73938    247.41909    72.702142    39359.762 
  550600    301.43002   -1479.2233    476.63142    349.65912   -67.571009    39359.762 
  550700     309.7653   -1471.6739    471.21454    389.18465    66.907581    39359.762 
  550800    313.68577   -1487.5169    496.31146    416.02633     329.7914    39359.762 
  550900    295.42362   -1506.8843    479.68078    298.10197   -462.95471    39359.762 
  551000    288.39501   -1478.5295    490.45497    305.69986   -207.73615    39359.762 
  551100    296.86403   -1486.8394    472.75189    317.67989   -99.574988    39359.762 
  551200    296.45403   -1510.1411    473.00259    292.78961   -273.43582    39359.762 
  551300    294.99993   -1524.2908     458.6063    257.72033    2.5419512    39359.762 
  551400    294.97186   -1462.6418    476.92995    337.56706   -33.406683    39359.762 
  551500    302.64432   -1476.2004    463.37733    344.87544    430.10976    39359.762 
  551600    302.62576   -1486.5043    457.94408    329.05502    113.99473    39359.762 
  551700    297.16369   -1501.3848    440.87118    272.59812    127.59296    39359.762 
  551800    288.28175    -1452.918    460.88278    301.23105   -213.75855    39359.762 
  551900    294.09041   -1459.1639    476.89004    337.05074   -743.19241    39359.762 
  552000    310.70346    -1450.908    482.83603    425.78075   -475.80792    39359.762 
  552100    304.74984    -1469.482    458.04854    355.71064    163.43228    39359.762 
  552200     299.0244   -1482.5973    485.57454    344.43632   -217.05498    39359.762 
  552300    300.97379   -1473.5057    479.62232    356.32089    113.67367    39359.762 
  552400    304.06803    -1449.474    441.21757    355.82893   -399.48995    39359.762 
  552500    307.09408   -1436.0553    496.42642    438.03177   -86.275417    39359.762 
  552600    298.77154   -1446.2607    487.71986    381.78384   -143.32994    39359.762 
  552700    304.52671   -1472.3591    478.38403    372.16805    -413.9114    39359.762 
  552800    296.55823    -1452.035    467.18998    345.55049    74.638362    39359.762 
  552900    297.77262   -1485.1137    451.86917    302.59894   -167.48792    39359.762 
  553000    300.74733   -1486.3005    472.43498    335.32278   -271.26593    39359.762 
  553100    301.84559   -1484.7654    470.59282    339.94268   -347.70418    39359.762 
  553200    294.15504   -1493.9747    447.99542    273.63525    201.42247    39359.762 
  553300    295.88527   -1483.7375    488.19876     331.8378   -142.43548    39359.762 
  553400    315.45166   -1480.5662    462.65964    397.24713    134.70921    39359.762 
  553500    297.07947   -1471.8342    476.42608    337.32573   -193.80276    39359.762 
  553600    298.70643   -1511.4251    463.12665    291.73423    342.71293    39359.762 
  553700    305.25913   -1485.2226    468.28019    352.48647    604.12098    39359.762 
  553800    307.19854   -1493.4483    489.98796    374.66889    834.01308    39359.762 
  553900    294.44131   -1489.9856    473.84236    304.75554     1064.336    39359.762 
  554000    298.23028   -1482.8187    478.00888    333.08672    95.277502    39359.762 
  554100    298.72288   -1443.4611    470.85434    367.49973   -194.25513    39359.762 
  554200    301.18075   -1414.7285    465.20672    401.61097   -774.68572    39359.762 
  554300     297.8386    -1451.903    468.64821     352.8847   -409.70569    39359.762 
  554400    299.69554   -1440.1369    485.87019    390.20318    67.258274    39359.762 
  554500    298.30517   -1462.1422    473.57776    349.66803   -218.58638    39359.762 
  554600    306.23976   -1500.1977    470.64596    344.27631    69.663159    39359.762 
  554700    296.57839   -1484.2279    462.36535    308.62346    363.58778    39359.762 
  554800    299.55864   -1460.4244    507.50684    390.93817    466.65147    39359.762 
  554900    308.63203   -1468.8218     462.0723    377.81054    250.54918    39359.762 
  555000    291.90035   -1500.4518    468.78693    277.83485    317.16018    39359.762 
  555100    295.70902   -1466.5761    440.31475    300.32453   -486.26164    39359.762 
  555200    302.38646   -1446.2542    487.45603    397.74347    355.61782    39359.762 
  555300    299.48189   -1472.6479    465.46533    336.32891     461.5752    39359.762 
  555400    293.19642    -1505.531    483.19069    292.97379    452.29449    39359.762 
  555500    296.74239   -1502.6892    483.81344    312.34591    1048.3638    39359.762 
  555600     296.8808    -1479.244    472.60883    325.20749    320.89318    39359.762 
  555700     296.0417   -1485.0873    464.91708    307.90807    -32.83937    39359.762 
  555800    296.86811   -1489.5888     466.7842     308.9811   -15.689904    39359.762 
  555900    307.36301   -1537.5581    456.24837    297.55733    2.2776381    39359.762 
  556000    285.35695   -1536.5383    444.08678    187.69372   -353.17936    39359.762 
  556100     299.5182   -1523.9472    464.29989    284.02695   -29.581714    39359.762 
  556200    301.47249   -1501.3254    441.02108    292.13723   -285.26659    39359.762 
  556300     305.4676   -1485.3168    499.82793    384.87512   -158.30943    39359.762 
  556400    307.57909   -1469.7248    458.72417    368.83577   -202.29478    39359.762 
  556500    297.54631   -1476.3012    468.69945    327.22651   -611.41911    39359.762 
  556600    301.34643   -1464.9679    476.02661    362.93474   -589.53039    39359.762 
  556700    301.58807    -1480.979    454.40086    326.38189   -98.738989    39359.762 
  556800     301.8789   -1522.0644    437.37385    269.57417   -290.87274    39359.762 
  556900    297.42041   -1487.0108    517.84441      365.097   -446.46365    39359.762 
  557000    291.58661   -1456.9844    459.96977    311.07759   -373.23341    39359.762 
  557100    296.22258   -1494.8937    466.76426    300.76038   -532.78264    39359.762 
  557200    291.18303   -1441.2722    480.21537     345.2249   -665.55303    39359.762 
  557300     294.2309   -1454.7063    483.57262    348.82123   -385.09217    39359.762 
  557400    311.51801   -1485.3028    483.45266    395.65677   -214.41214    39359.762 
  557500    285.81189   -1459.1487    465.68845    288.72591    481.23126    39359.762 
  557600    306.17807   -1482.9686    488.82919    379.41189    587.20476    39359.762 
  557700    303.51705   -1460.6079    483.62421    384.62993    780.05897    39359.762 
  557800    295.88836   -1468.4547    472.78696    331.72269     601.1708    39359.762 
  557900    306.90608   -1465.6466    497.06982    408.24042    572.70272    39359.762 
  558000    304.72887   -1473.5986    465.19839    358.64983    734.61374    39359.762 
  558100    301.06647   -1481.4634    475.33503    344.49165    522.62647    39359.762 
  558200    298.96939   -1458.3099    497.86562    380.76807     50.46303    39359.762 
  558300    288.41865   -1443.6869    459.61076    309.80424    270.08156    39359.762 
  558400    304.42981   -1440.5663     481.1254    406.26751    573.81488    39359.762 
  558500    311.41783    -1458.626     456.8172     395.2487    58.289333    39359.762 
  558600    303.89389   -1491.8578    449.05698    320.50342    271.19119    39359.762 
  558700    308.36122    -1486.694    470.48955     367.1407    46.427562    39359.762 
  558800     305.2819   -1477.3271    465.97391    358.17775    64.186513    39359.762 
  558900    293.50347   -1486.6498    503.36256    333.40428   -106.26985    39359.762 
  559000    298.61724   -1452.6693     498.1533    385.11651   -205.28695    39359.762 
  559100    298.28626    -1448.525    474.48085     364.1036   -668.87976    39359.762 
  559200    300.76303   -1493.2929    463.47012    319.43604   -681.02254    39359.762 
  559300    308.16289   -1446.2144    492.49731     428.7383   -62.924169    39359.762 
  559400    294.13813   -1452.7729    475.43259    342.19837   -126.77649    39359.762 
  559500    298.70518   -1491.4568    496.01542     344.5857    215.15354    39359.762 
  559600    300.93038   -1475.9976    454.71824    328.73013   -3.6852746    39359.762 
  559700    297.83704   -1449.0202    481.70456    368.81679    515.16247    39359.762 
  559800    289.70314   -1461.7513    465.47034    303.36187   -114.78949    39359.762 
  559900    302.93455   -1429.4906    457.51256    387.02246   -305.60108    39359.762 
  560000    297.42832   -1429.7527    501.91145    406.45762   -69.328979    39359.762 
  560100    304.38905   -1468.1938    445.93356    343.26532    315.50164    39359.762 
  560200    294.52507   -1521.8355    473.29197    272.73108    671.36213    39359.762 
  560300    298.00156   -1482.1069    442.18107    296.94463    142.22322    39359.762 
  560400    293.38409   -1463.1226    482.06798     335.1014    269.12512    39359.762 
  560500     299.1885   -1447.5402    481.21041    375.86543   -5.5617783    39359.762 
  560600    293.68495   -1444.9779    455.85241    328.38012    175.93833    39359.762 
  560700    302.71737   -1489.7611     457.8633    326.12841   -61.005927    39359.762 
  560800    307.77574   -1402.4682    469.67529    447.92575    56.305717    39359.762 
  560900     299.1267   -1428.3555    502.01699     415.5795    39.974214    39359.762 
  561000    301.00179   -1447.1662    452.13975    355.30346   -230.59737    39359.762 
  561100    315.74107   -1399.6607    476.49754    493.28892   -767.84911    39359.762 
  561200    305.66485   -1412.6621    469.70911    428.29595   -449.44288    39359.762 
  561300    297.31478   -1436.8794       473.08    369.99012   -703.26992    39359.762 
  561400    298.34583   -1466.4669    455.82978    327.77776   -180.88128    39359.762 
  561500    293.43972   -1484.1308    519.03191     351.3066   -559.58892    39359.762 
  561600    297.34242   -1463.2712    468.66428    339.30662   -18.191379    39359.762 
  561700    294.15569   -1486.2949    467.36357    300.68618   -156.27244    39359.762 
  561800    301.62471   -1477.8729    482.06254    357.31398   -283.97031    39359.762 
  561900    289.48214   -1454.3102    458.56387    302.90505    279.48841    39359.762 
  562000    295.20679   -1431.4691    484.60354     377.4673   -619.89619    39359.762 
  562100    300.16616   -1432.4255    473.88637    388.04204   -112.88851    39359.762 
  562200    294.23998   -1474.3934    476.53759    322.13984   -206.58324    39359.762 
  562300    297.80474   -1485.2359    449.99624    300.74794   -154.09422    39359.762 
  562400    294.61201   -1448.8699    477.74432    350.53904    206.19095    39359.762 
  562500    298.73241   -1488.7334     477.3531    328.76882    233.07768    39359.762 
  562600    300.83873   -1435.6485    479.34431     393.2942    426.94814    39359.762 
  562700    300.40046   -1476.2655    479.10642    350.47318   -550.64024    39359.762 
  562800    304.31853   -1470.5108    464.09056    358.78895   -590.74824    39359.762 
  562900    303.80047   -1481.5169    477.48441    358.85261   -237.82391    39359.762 
  563000    305.74926   -1491.0847    470.41822    350.96109   -251.28735    39359.762 
  563100    296.46834   -1493.3976    446.63017    283.22483   -388.74609    39359.762 
  563200    299.83695   -1496.7621    493.17045    341.51261    346.57563    39359.762 
  563300    298.36147   -1470.2773    469.08184    337.28961    133.77512    39359.762 
  563400    297.68767   -1484.7829    470.38325    321.06269    588.01355    39359.762 
  563500    307.02742   -1466.1455    459.01858    370.23469    302.85766    39359.762 
  563600    293.27804   -1481.8583    477.13659    310.95854    780.83057    39359.762 
  563700    307.98947   -1507.0191    425.96678    300.62511    780.31675    39359.762 
  563800    291.47122   -1505.1678    464.35384    266.76067    587.46688    39359.762 
  563900    297.81492   -1472.2689    470.36705    334.13135    414.18693    39359.762 
  564000    307.07231    -1499.584    444.75541    322.73438       193.72    39359.762 
  564100    297.33157   -1501.8418    464.14369    296.16673   -301.84801    39359.762 
  564200    293.06864     -1478.58     450.6706    286.83143   -504.50619    39359.762 
  564300    301.65194   -1504.8396    457.63418    306.04112   -549.30138    39359.762 
  564400    300.51854   -1466.5514     449.0179    330.62847   -334.19329    39359.762 
  564500    294.91076   -1490.8543    447.27347    279.42399   -174.02216    39359.762 
  564600     297.3094   -1538.6563    429.57914    224.68822   -324.47402    39359.762 
  564700    294.20358   -1508.9626    482.04012    292.90982   -156.13374    39359.762 
  564800    297.18559   -1519.3146    470.87449    284.76986   -170.95318    39359.762 
  564900    303.94419   -1526.8321    451.38389    288.08165    85.507038    39359.762 
  565000    294.04916   -1527.5408    451.86329    243.46204   -142.74417    39359.762 
  565100    305.25639   -1472.2114    463.87794    361.08306    131.64936    39359.762 
  565200    300.97006   -1503.5119    462.04125    308.71685     247.2931    39359.762 
  565300    315.27704   -1541.2373    472.58153    345.71456    619.64751    39359.762 
  565400    298.22229    -1499.069    444.72523    283.51694     342.3461    39359.762 
  565500    298.22675   -1480.3479    473.65152     331.1843    340.44483    39359.762 
  565600    301.01111   -1495.6556    465.11212    319.82819    240.99325    39359.762 
  565700    293.61102   -1520.3358    467.94293    264.78115    39.110013    39359.762 
  565800    286.78111   -1490.4113    463.49586    259.61875   -188.14582    39359.762 
  565900    305.52034   -1483.5123     447.8722    334.96055   -267.70679    39359.762 
  566000    298.97302   -1493.2057    461.88029    309.90312    -153.5671    39359.762 
  566100    306.90174   -1492.0384    464.24909    349.00844    66.159651    39359.762 
  566200    298.25511   -1502.9224     469.4204    304.50591     406.2869    39359.762 
  566300    307.24947   -1524.2525    459.75305    313.85828    809.11711    39359.762 
  566400    295.61685   -1508.6855    472.84091    290.32783    636.97255    39359.762 
  566500    306.26915   -1535.1306    462.59292    301.42217    505.12217    39359.762 
  566600    303.74662   -1478.0907    455.54173    340.09458    220.85682    39359.762 
  566700      302.816   -1466.8207    455.82064    347.46861    89.280048    39359.762 
  566800    308.51015   -1478.0865    480.70446    386.63124   -448.47075    39359.762 
  566900    303.30969   -1443.5738    503.64426    420.75382   -189.12583    39359.762 
  567000    305.12591   -1498.9851    478.22243     348.0685   -332.47907    39359.762 
  567100    306.44777   -1483.2844    468.48499    359.96174   -251.90258    39359.762 
  567200    299.31631    -1513.111    464.93282    294.59043    54.264244    39359.762 
  567300    304.67763   -1504.3644    493.66828    356.12403    131.45919    39359.762 
  567400    296.95981   -1496.8219    471.93882    307.31395    208.00504    39359.762 
  567500    304.40218   -1481.7996    480.59836    364.38313    110.19817    39359.762 
  567600    294.43713   -1478.1657    479.15239    321.86669    97.595804    39359.762 
  567700    297.60332   -1490.5364    464.30235    308.84993    341.66183    39359.762 
  567800    313.92526   -1477.8831    473.48277    403.90576    146.81341    39359.762 
  567900    311.91351   -1472.4469    482.91367    409.74789    289.68971    39359.762 
  568000    310.66073   -1476.7535    478.82052    395.72807     596.1634    39359.762 
  568100    300.91005    -1495.406    471.52657    326.03889    575.61435    39359.762 
  568200    300.50461   -1480.4982    495.21085    362.81214    567.73791    39359.762 
  568300    307.30104   -1477.5493    469.65771    370.69754    885.25239    39359.762 
  568400     291.1506   -1465.5441    487.01008    327.60228    672.14999    39359.762 
  568500    299.37146   -1485.0932    465.36955    323.29238    414.24155    39359.762 
  568600    294.21546   -1422.6204    515.32888    412.59404      431.423    39359.762 
  568700    303.57887   -1493.0647    463.92833    332.75457    349.64706    39359.762 
  568800    310.53652   -1462.7352    464.67782    395.04641    270.91341    39359.762 
  568900    303.14575    -1438.053    475.26673    397.16168     434.8082    39359.762 
  569000    285.27188   -1475.0283    487.76125     292.4966    -314.3514    39359.762 
  569100    295.39074   -1479.1421    459.92125    305.93726   -411.82983    39359.762 
  569200    296.30149   -1479.5693    483.50065     333.1751   -564.10164    39359.762 
  569300    301.28348   -1487.9428    472.96203    336.61278   -193.59745    39359.762 
  569400    292.64266   -1469.7771    491.20112    334.25383   -166.17726    39359.762 
  569500    297.99228   -1494.5837     475.1935    317.43869   -479.28498    39359.762 
  569600    299.69615   -1496.1983    463.94981    312.22413   -284.42461    39359.762 
  569700    308.77313   -1512.8094    474.99487    347.37856   -291.90586    39359.762 
  569800    306.01616   -1503.5854    466.02183    335.26137   -286.79077    39359.762 
  569900     300.0625   -1492.7693    439.25048    292.59728   -398.41338    39359.762 
  570000    301.39079   -1521.6096    483.65424    314.11963   -447.55216    39359.762 
  570100    299.79588   -1533.1562    485.08869    296.85248    252.15108    39359.762 
  570200    290.01369   -1530.0085    438.41775    209.44521   -194.96305    39359.762 
  570300    304.35263   -1508.5579    459.44424    316.24844   -139.86632    39359.762 
  570400     309.0593   -1540.4807    476.00797    322.00409    9.7606674    39359.762 
  570500    300.73488   -1531.0395     450.8652    268.95823    199.81798    39359.762 
  570600    303.61297    -1486.698    457.87268    333.21864    -288.8814    39359.762 
  570700    297.66404   -1518.5432    458.90844    275.72151    149.23586    39359.762 
  570800    305.40722   -1568.0366    437.11134    239.16791    166.11206    39359.762 
  570900    297.63872   -1538.6902    450.78894    247.34146   -106.57657    39359.762 
  571000    305.69502   -1537.2545     467.3774    301.50717   -95.393986    39359.762 
  571100    302.47147   -1534.9535    454.83824    276.80782   -279.71178    39359.762 
  571200    296.63664   -1547.3683      462.391    245.76998   -45.371347    39359.762 
  571300    298.15488   -1514.0842    469.27916    292.75324    652.99841    39359.762 
  571400    301.94403   -1515.9175    453.87548    292.51483   -335.52237    39359.762 
  571500      294.499   -1500.0762    455.45214    276.53348    254.48718    39359.762 
  571600    290.75197    -1482.017    488.78883    311.11977    65.015188    39359.762 
  571700    292.59639   -1475.0493    475.25124    312.82423    98.329697    39359.762 
  571800    284.52963   -1482.3726    491.81048    285.87173      87.9345    39359.762 
  571900    305.95002   -1487.2367    467.90347    353.19498    117.86933    39359.762 
  572000     302.2586   -1484.4248    453.50691    325.05015    105.95977    39359.762 
  572100    285.33703   -1474.6608    476.57059    281.96574   -6.7565231    39359.762 
  572200    309.36346   -1458.2045    478.46404    408.10084    493.62512    39359.762 
  572300    304.21829   -1471.1948    471.74137    365.30608    114.71491    39359.762 
  572400    301.39393    -1512.299    476.89996    316.69001    713.63692    39359.762 
  572500    300.25856   -1501.4382    467.07747    312.63497    217.39556    39359.762 
  572600     295.6257   -1490.1331    452.56204    288.64103   -184.20931    39359.762 
  572700    294.63396   -1473.0098     477.1859    325.93909    10.479026    39359.762 
  572800    304.21889   -1487.8239    467.50047    344.43875   -406.47896    39359.762 
  572900    304.97968   -1473.7639    477.15104     371.5623   -198.64369    39359.762 
  573000    298.01534   -1459.0012    479.62453    357.55559    9.7152322    39359.762 
  573100    305.99697   -1502.1747    459.29836    329.86252   -33.393184    39359.762 
  573200    297.19367   -1478.0674    457.21779    312.39657   -192.21588    39359.762 
  573300    300.74975   -1466.1466    486.14552    369.19819    100.98496    39359.762 
  573400    309.69573   -1490.8213    482.53356    381.04421     81.62415    39359.762 
  573500    294.22487   -1493.0556    475.70958    302.58183   -58.911056    39359.762 
  573600    299.37356   -1488.3722    505.98842    360.64167    668.22656    39359.762 
  573700    316.43506   -1483.7853    467.34385    403.12397   -72.021943    39359.762 
  573800    296.35582   -1475.6572    482.91228    336.74255    -114.0935    39359.762 
  573900    313.38074   -1456.5574    466.05602    415.36196   -482.55314    39359.762 
  574000    300.20839   -1477.3257    472.12669     341.5716   -89.760309    39359.762 
  574100    291.65457   -1467.3182    463.41139    304.49039   -183.12847    39359.762 
  574200    310.63518   -1461.9905    480.67278    412.22866    267.20516    39359.762 
  574300    294.97029    -1508.637    454.41328    269.04808    346.09999    39359.762 
  574400    303.01818   -1481.4522    459.94908    337.87246    59.661324    39359.762 
  574500    299.78975    -1527.651    455.71485    272.95641   -92.256681    39359.762 
  574600     300.9898   -1500.4851     484.5201    334.31116   -284.54055    39359.762 
  574700    288.00342   -1482.9665    449.09662    258.14777   -439.35214    39359.762 
  574800    291.09964   -1447.8912    458.66581    316.68232   -161.99218    39359.762 
  574900    299.19805   -1484.8072    474.27705    331.70797    16.529644    39359.762 
  575000    311.85915   -1501.4767    464.53476    362.09537   -98.018688    39359.762 
  575100    302.54425   -1489.2916    458.18184    326.13979   -549.18683    39359.762 
  575200    297.10547    -1494.712    458.52269    296.66123   -295.87567    39359.762 
  575300     301.3451   -1503.6119    482.81431    331.07247    44.194311    39359.762 
  575400    295.36317   -1497.9223    494.12836    321.24045    265.52564    39359.762 
  575500    310.16699   -1478.7032    480.96403     393.7069   -150.21948    39359.762 
  575600    289.63604   -1483.6114    484.55766    300.28803   -391.86578    39359.762 
  575700    297.04157   -1473.7197    454.58584       313.43   -558.60744    39359.762 
  575800    299.68483   -1467.5329    459.17456    336.06349    33.109126    39359.762 
  575900     302.5754    -1497.464    486.17475        346.1    95.650533    39359.762 
  576000    306.09038   -1484.1951    484.04556    373.00837    427.75063    39359.762 
  576100    305.25972   -1507.0999    468.19618     330.5277    703.82814    39359.762 
  576200    302.64693   -1506.8014    499.69256     350.6014    525.93777    39359.762 
  576300    299.58422   -1457.6322    474.01274    360.35103    487.36342    39359.762 
  576400    295.56498   -1458.1347    497.11934    364.92439    402.08034    39359.762 
  576500    300.67592   -1523.4539    480.61734     306.0314     687.7097    39359.762 
  576600    298.65973   -1500.2028    482.96713    322.58742    825.07055    39359.762 
  576700    301.30246   -1449.5796    503.87604    405.97515   -127.78109    39359.762 
  576800    288.34959   -1437.5974    479.55325    335.52645   -10.140112    39359.762 
  576900    303.49991   -1429.8416    482.54224    414.23738   -37.416442    39359.762 
  577000    292.33426   -1436.4754    456.16756    331.13846     425.8455    39359.762 
  577100     300.4903   -1467.1762    491.16421    372.02331     -472.894    39359.762 
  577200    310.51654   -1438.4515    470.89537    425.45808   -35.513761    39359.762 
  577300    285.48832   -1484.4854     462.1924    258.44163    465.54291    39359.762 
  577400    297.30114   -1489.0568    462.56613    307.23764     646.3715    39359.762 
  577500    319.31654   -1508.0857    471.40724     395.8136    867.77268    39359.762 
  577600    299.36737   -1490.5168    468.21867    320.69957    44.604085    39359.762 
  577700    303.24062   -1467.3249    471.23224    364.28095    699.48897    39359.762 
  577800    299.38036   -1471.8928    461.66111    332.82427    206.16861    39359.762 
  577900    302.45722   -1500.2574    482.84537    339.44711    164.08233    39359.762 
  578000    303.00673   -1518.4926    460.40059    301.23232    254.21099    39359.762 
  578100    293.96438   -1481.2159    473.57189    311.11524    9.3205574    39359.762 
  578200    291.69816   -1448.5686    505.85112    365.87518    163.10635    39359.762 
  578300    300.05036   -1443.7843    487.12014    389.39752     314.3035    39359.762 
  578400    302.14207   -1469.4686    460.87509    346.85181   -137.29094    39359.762 
  578500    302.48169   -1496.3381    447.68618    308.31696   -296.11235    39359.762 
  578600    302.36494   -1478.4579    463.84692    341.83413   -70.347114    39359.762 
  578700    295.04334   -1472.1606    463.82115    315.26013    124.32149    39359.762 
  578800      305.364   -1467.6709    460.80913     363.0375    205.76971    39359.762 
  578900    304.17967   -1487.2998    468.97872    346.26517    -366.8177    39359.762 
  579000    297.98675   -1470.0251    472.83544    339.61443   -143.78148    39359.762 
  579100      299.751   -1467.8527    487.87556     364.7415    25.752494    39359.762 
  579200    303.77271   -1464.9208    508.94561    406.78539     637.3678    39359.762 
  579300    299.20189   -1472.7405    447.51841    317.03325    291.72928    39359.762 
  579400    309.04946   -1468.1368     471.8896    390.18548   -482.18983    39359.762 
  579500    293.74521   -1435.3098    458.46318     340.9294    383.78518    39359.762 
  579600    291.94906   -1457.6902    476.37489    328.40296    249.21783    39359.762 
  579700    301.37911   -1439.2503    455.46302    368.23533    144.13353    39359.762 
  579800    297.53609   -1478.2122    460.16998    316.74012   -15.896481    39359.762 
  579900    290.81914    -1464.765    486.00515    325.88948    134.23626    39359.762 
  580000    299.33004   -1451.0528    465.69971     357.4772    98.208602    39359.762 
  580100    297.22202   -1477.6692    475.95903    331.66325    282.29958    39359.762 
  580200    296.42313   -1458.8566    463.13825    334.07116    70.324446    39359.762 
  580300     298.7044    -1459.322    449.38359    330.08508    315.58192    39359.762 
  580400    294.01696   -1485.4569    442.34275    275.88097    51.595913    39359.762 
  580500    313.69603   -1430.5025    490.83868    467.61398    779.34433    39359.762 
  580600    294.04298   -1443.3952    470.35844    346.07509     569.8142    39359.762 
  580700     298.4326   -1394.0217    471.13652    415.91903   -395.09194    39359.762 
  580800    301.92486   -1431.0414    494.07167    417.50119   -295.87189    39359.762 
  580900    290.18843    -1420.585     473.5096    354.74445   -503.83702    39359.762 
  581000     293.7943   -1434.7418    484.69658    367.95105   -713.47485    39359.762 
  581100    305.74039     -1474.71    461.05163    357.92943    105.26373    39359.762 
  581200    310.67867   -1455.2556    473.87941    412.36539    -594.9421    39359.762 
  581300    300.83695   -1453.5246    435.68003    331.74577   -386.91583    39359.762 
  581400     309.1704   -1477.6518     461.3382    370.66165   -87.286908    39359.762 
  581500     299.6484   -1508.6895    460.78872    296.35762   -144.21987    39359.762 
  581600    307.76263   -1442.5755     471.0912    409.17547   -71.509088    39359.762 
  581700     302.4517   -1494.1734    454.56464     317.2256   -210.25035    39359.762 
  581800    298.61391   -1443.8851    464.98336    360.71587    264.26166    39359.762 
  581900    297.25476   -1486.0289    444.96913    292.46051    186.47833    39359.762 
  582000    300.87753   -1464.6018    491.59026    376.76088   -395.58123    39359.762 
  582100    295.28222   -1467.1486    460.17421    317.69685   -759.11491    39359.762 
  582200    295.50194   -1447.3612    472.66301    350.95867   -775.33816    39359.762 
  582300    309.97002   -1435.4246    465.80583    420.94371   -252.99086    39359.762 
  582400    309.17878   -1475.0332    474.10472    386.08438   -55.080037    39359.762 
  582500    292.64292   -1452.3666    476.10409    336.56854     234.8623    39359.762 
  582600    294.82383   -1448.7496    473.12831    346.99355    77.536754    39359.762 
  582700    300.77239    -1476.089    494.87731    368.08911   -287.45443    39359.762 
  582800    303.12964   -1452.9217    490.87588    397.82982    775.28346    39359.762 
  582900    296.47618   -1438.7282    492.57371    383.87304     932.9136    39359.762 
  583000    307.45757   -1420.1608    467.93199    427.06253    478.38615    39359.762 
  583100    305.07682   -1420.5979    467.50919     415.5222   -121.83128    39359.762 
  583200    302.58616      -1423.2    482.65552    416.89305    266.90737    39359.762 
  583300    298.23753   -1465.9965    470.39579    342.32843    467.10541    39359.762 
  583400    299.23438   -1489.8683    451.07713    303.60992   -340.56742    39359.762 
  583500    304.06678   -1483.9398    455.44127    335.58124   -210.78235    39359.762 
  583600     301.9014   -1477.2325    475.69362    352.82671   -548.42567    39359.762 
  583700    299.44206   -1498.9774    439.29263      283.648   -619.96934    39359.762 
  583800    315.11019   -1517.2317    463.01887    359.40899    -418.2503    39359.762 
  583900    298.07327    -1483.004    476.67372    330.86188   -224.11316    39359.762 
  584000    309.55751   -1517.9937    457.48034    328.19852   -179.72738    39359.762 
  584100    294.76841   -1534.3262    477.21877    265.25878   -737.65239    39359.762 
  584200    288.19651   -1497.9586    489.01811    283.94334   -367.96764    39359.762 
  584300    290.72652   -1497.5224    474.15045    280.86185   -148.05313    39359.762 
  584400    299.92228   -1438.2388    483.03224    390.28046    -395.7898    39359.762 
  584500    298.46174   -1426.6819    446.19632    358.44929   -832.69139    39359.762 
  584600    302.72929   -1401.9843    500.98357    457.07891   -866.99724    39359.762 
  584700    299.81726   -1492.5874    472.03365    324.46222   -318.22908    39359.762 
  584800    299.84964    -1464.762    481.81567    362.21484    -119.3994    39359.762 
  584900     300.8369   -1507.9483    492.04854    333.69038    -454.7866    39359.762 
  585000    301.41622   -1429.0652     506.7368    429.86067   -308.33807    39359.762 
  585100    293.14717   -1475.9469    448.33426    287.48049   -839.43666    39359.762 
  585200    289.15111   -1501.4341    499.32586    295.05812   -23.781565    39359.762 
  585300     294.1626   -1455.3333    477.49911    341.81427    155.25757    39359.762 
  585400    296.40397   -1482.9704    477.63293    324.36608   -699.16916    39359.762 
  585500    292.26441   -1416.4423    474.18196    368.87263    -368.7825    39359.762 
  585600     298.8939   -1485.3221    435.22321    290.77473    159.21192    39359.762 
  585700    300.16085    -1476.742      486.397    356.21232   -107.09881    39359.762 
  585800    306.22979   -1484.9327     453.8782    342.72882   -50.669698    39359.762 
  585900    293.45402    -1475.042    476.39833    317.82601   -65.400245    39359.762 
  586000    294.74689   -1491.1556    454.78826    285.90233    233.16278    39359.762 
  586100    297.78323   -1502.2336    463.00014    296.65758    425.41828    39359.762 
  586200    312.67626   -1480.2796    487.40679    409.83015    335.30022    39359.762 
  586300    297.38476   -1465.9608    474.31879    342.46145    598.71774    39359.762 
  586400    308.30495   -1477.8213    490.98655    396.25803    417.00389    39359.762 
  586500    307.53411   -1470.1094    488.49343    398.01872     585.3491    39359.762 
  586600    295.12856   -1479.9759    449.88234    293.88827    509.41224    39359.762 
  586700     298.3587   -1498.0654    484.18273    324.58998    642.58547    39359.762 
  586800    304.80579    -1502.054    492.00005    357.34107    712.50162    39359.762 
  586900    297.87492   -1509.5059    486.69949    313.49596     633.0186    39359.762 
  587000     292.7904   -1442.7592    491.01465    361.74805    5.1637927    39359.762 
  587100    304.45872   -1451.3574    458.03858    372.51928   -606.82608    39359.762 
  587200    294.79932   -1427.8362    521.92331    416.59203   -404.15309    39359.762 
  587300    297.99067   -1457.6349    464.94284    344.12956   -388.51177    39359.762 
  587400     307.7237   -1403.9444    492.99728    469.53808   -175.37307    39359.762 
  587500    291.78378   -1454.2922    469.43847     324.1231   -657.81938    39359.762 
  587600    292.27459    -1458.769    499.39625    351.80591    -157.8397    39359.762 
  587700    304.17877   -1444.2478    469.84217    390.17656    14.692676    39359.762 
  587800    296.00437   -1484.3101    477.01696    320.61773    252.67406    39359.762 
  587900     305.5374   -1487.5443    461.78591    344.91877    152.44571    39359.762 
  588000    297.18429   -1422.5777    479.87185    390.49831    23.238697    39359.762 
  588100    309.75533   -1462.0439    473.87592     401.4313    216.04095    39359.762 
  588200    317.82505   -1453.5839    481.96316    454.18026    614.41526    39359.762 
  588300    299.42673   -1474.1551    459.79391    328.90277    383.07108    39359.762 
  588400    293.54377   -1500.7504    489.72246    305.84443   -364.16994    39359.762 
  588500    304.13332   -1493.1408    446.91244    318.14993   -598.97606    39359.762 
  588600    294.69728   -1500.6406    449.10513    270.51163    519.85742    39359.762 
  588700    297.84758   -1526.7274    474.10493    283.55729   -122.85398    39359.762 
  588800    305.24854   -1508.9365    457.98195    318.42678    424.82862    39359.762 
  588900    291.30631   -1503.7003    471.71769    274.85221    0.8950427    39359.762 
  589000    309.22133   -1491.1474    507.42262    403.47892    375.32108    39359.762 
  589100    293.13186   -1506.3903    475.41869     284.0528    266.78534    39359.762 
  589200    296.21683   -1471.0828    475.55853    333.33974   -224.52303    39359.762 
  589300    300.62015   -1478.4926    466.49041    336.61556   -341.55627    39359.762 
  589400    311.12679   -1482.2372    477.49386    391.00853   -11.691816    39359.762 
  589500    298.53214   -1492.6568    491.53408    338.12807    194.88823    39359.762 
  589600    297.09495   -1520.4899    450.50212    262.81554    227.37274    39359.762 
  589700    306.14867    -1485.459    504.77275    392.73315    454.81899    39359.762 
  589800    290.16244   -1479.9146    448.90692    270.69563    18.827635    39359.762 
  589900    308.99378   -1459.7042     498.2451    424.72383   -406.27722    39359.762 
  590000    297.36937   -1444.4628    476.36553    365.93717   -389.62817    39359.762 
  590100    304.10512    -1450.383    467.47411    381.34297    87.387394    39359.762 
  590200    303.12972   -1471.3432    475.79238    364.32521   -39.395985    39359.762 
  590300    291.69657   -1453.7998    474.70895    329.49472    611.46069    39359.762 
  590400    304.23764   -1505.9698    484.03493    342.91145    837.19661    39359.762 
  590500    304.12744   -1484.6846    492.38153    372.04883    658.51284    39359.762 
  590600    288.33844   -1486.6183    468.06511    274.96742    236.45186    39359.762 
  590700    303.27852   -1523.5161    483.75893    320.78637    201.05047    39359.762 
  590800    307.52126    -1557.338    478.78959    301.02862   -264.39033    39359.762 
  590900    300.62862   -1503.5113    479.76931    324.91378    263.93257    39359.762 
  591000    298.76379   -1497.0483    485.56319    328.80481   -787.02953    39359.762 
  591100    298.84769   -1525.8417     462.6179    277.44256   -465.95133    39359.762 
  591200    306.91646   -1500.1264    454.39994    331.13738    -271.6414    39359.762 
  591300    302.06648   -1481.2339    483.66002    357.53235   -278.95438    39359.762 
  591400    310.58409   -1496.7378    471.42817    368.00757   -633.82585    39359.762 
  591500    298.30715   -1470.7518    489.05631    356.54591   -189.81717    39359.762 
  591600    285.27863   -1525.4503    455.69379     210.0374   -272.15552    39359.762 
  591700    299.59975   -1490.3866    478.92866    332.58225   -167.58297    39359.762 
  591800     305.4371   -1484.1837    483.90455    369.94805    198.99856    39359.762 
  591900     310.4636   -1503.4423    505.03213    394.36652   -32.915802    39359.762 
  592000    290.66708   -1470.4065    479.92462    313.48521     146.4673    39359.762 
  592100    305.37654   -1493.1389    485.33385    362.15045   -57.195259    39359.762 
  592200    296.70913   -1507.1465     488.1878    312.11382    -150.8286    39359.762 
  592300    294.46373    -1523.907    463.55595    260.64834   -250.18004    39359.762 
  592400    288.78374   -1544.5093    488.19775    239.20672   -306.52029    39359.762 
  592500    310.39978   -1508.9964    463.05768    346.55163   -387.91473    39359.762 
  592600    307.33527   -1464.0348    445.59381    360.30158   -635.21929    39359.762 
  592700    305.08645   -1469.9738    516.46859    415.14899   -629.63224    39359.762 
  592800    300.79649   -1476.9567    466.51941    338.97163   -280.79632    39359.762 
  592900    302.42518   -1441.5051    491.16557    406.37586    -617.9027    39359.762 
  593000    295.40833   -1497.5321    476.37258    304.07743   -782.70975    39359.762 
  593100    292.06068    -1471.786    485.98323    324.41622   -473.70172    39359.762 
  593200    302.37629   -1476.9071    503.15178    382.74077   -400.35366    39359.762 
  593300    300.79695   -1502.1618    482.63395    329.88315   -290.03463    39359.762 
  593400    300.35407   -1511.8347    472.80803    308.39743   -88.044377    39359.762 
  593500    291.21698   -1514.8866    469.13011    260.67754   -221.20681    39359.762 
  593600    304.86432   -1514.5831    470.63782    323.71244   -30.618255    39359.762 
  593700    309.53573   -1464.0325    479.26136    403.84297   -467.34034    39359.762 
  593800    297.24257   -1499.9113    488.32115    321.87543   -882.04634    39359.762 
  593900     299.2207   -1538.7185    473.54177    277.16295   -270.13356    39359.762 
  594000    291.24027   -1514.6072    471.54179    263.47314   -775.42886    39359.762 
  594100    290.35696    -1497.329    485.31007    290.55695   -164.51194    39359.762 
  594200     292.7734   -1528.2597    452.61106    237.76776    86.104465    39359.762 
  594300      306.152   -1524.6279     502.4424    351.24887    269.67466    39359.762 
  594400    304.44888   -1520.3774    456.11868    301.53522     390.6705    39359.762 
  594500    311.96561   -1503.7114    471.46018    367.26367    794.00393    39359.762 
  594600    294.36884   -1522.6445    458.98089    256.91009    117.61232    39359.762 
  594700     305.9918   -1500.7857    517.55325     389.4832    604.24045    39359.762 
  594800    301.63311   -1501.3335    474.63245    326.46106    60.088614    39359.762 
  594900    298.64228   -1462.7855    479.67008     356.6294   -202.89824    39359.762 
  595000    289.05728   -1419.5265     509.9629    387.18179   -81.189757    39359.762 
  595100    299.38121   -1451.5348    491.58067    383.10562   -295.28414    39359.762 
  595200    298.34856   -1488.1101    479.06138     329.3785    -281.6444    39359.762 
  595300    302.70837   -1475.9259    471.60938    353.66932   -829.03201    39359.762 
  595400    298.91372   -1484.0485    482.16507    339.07913   -604.51977    39359.762 
  595500    300.41292   -1489.6957    456.81884    314.81132   -185.39208    39359.762 
  595600     311.3631   -1501.5285    477.45707    372.74055   -29.653581    39359.762 
  595700    301.98784   -1491.2964    479.76688    343.22394    71.662576    39359.762 
  595800     297.0738   -1490.9428    481.82319     323.5888    260.18461    39359.762 
  595900    304.94807   -1468.3031    469.99901    369.72926    320.02742    39359.762 
  596000    301.29883   -1513.9011    443.97645    281.73782    195.13867    39359.762 
  596100    292.74318   -1524.0462    469.01621    258.25081   -342.36208    39359.762 
  596200    298.81122   -1454.0044    483.50867    370.00698    207.35844    39359.762 
  596300    297.67206   -1502.0431    473.80735    307.15657   -83.575755    39359.762 
  596400    295.08495   -1506.3218    460.65392    278.11834    -292.9643    39359.762 
  596500    296.18808   -1491.2623    488.75795     326.2307   -381.03647    39359.762 
  596600    302.69168   -1507.3669    458.85326    309.39734   -662.84967    39359.762 
  596700    307.69864   -1536.9277    467.72274    311.16785   -385.96733    39359.762 
  596800    305.22614   -1490.7038    445.59072    324.16775   -20.413153    39359.762 
  596900     300.2686   -1485.5905    504.00399    365.45422    141.32171    39359.762 
  597000    298.11787   -1487.7901    468.12995    317.73209    472.21777    39359.762 
  597100    309.70218   -1501.2714    502.99846    391.08793    760.05992    39359.762 
  597200     311.1454   -1507.3808    472.46938    360.92393    364.46566    39359.762 
  597300    309.31383   -1518.3336    448.13036     317.4155    1006.6191    39359.762 
  597400    299.76255   -1505.9339    486.16285    324.99943    387.41507    39359.762 
  597500    301.74538   -1529.8997    472.43346    296.19947    366.63764    39359.762 
  597600    301.46859   -1492.4706    480.62206     340.5755    523.79137    39359.762 
  597700    308.02595   -1497.4831    485.49189    369.84992     237.0116    39359.762 
  597800    301.77094   -1464.1657    487.16796    376.78272   -237.28509    39359.762 
  597900    302.42575   -1443.7156    462.88596    375.88829    73.780282    39359.762 
  598000    296.17579   -1477.8783    481.67335    332.47489    26.594553    39359.762 
  598100    306.49987   -1443.2312    481.91995    413.68372    33.113106    39359.762 
  598200     302.7991   -1418.7154    492.38254    432.05998    69.080233    39359.762 
  598300     289.2182   -1427.3796    497.06949    367.15722   -179.76702    39359.762 
  598400    306.08322   -1467.8685    471.47695    376.73421   -416.51353    39359.762 
  598500     293.3437   -1438.4019    472.65047    350.22343   -587.59782    39359.762 
  598600    302.29051   -1457.0313    457.08936    356.16929   -142.01215    39359.762 
  598700    289.21413   -1455.1337    475.26692    317.58222    152.12099    39359.762 
  598800     298.7587    -1482.115    476.31749    334.46965   -92.515557    39359.762 
  598900    304.33187   -1486.9797    462.95421    341.24357    92.844873    39359.762 
  599000    293.57768   -1434.9876    479.99975    362.03659    721.08829    39359.762 
  599100    302.36954   -1449.7405    471.19186    377.91709    508.08394    39359.762 
  599200    294.51431   -1455.6514    478.32075    343.89567    719.53272    39359.762 
  599300    310.75266   -1455.2907    464.02984    402.81257    676.17604    39359.762 
  599400    293.39441   -1454.8206    467.15919    328.54085   -276.25114    39359.762 
  599500     296.5758   -1433.7232    455.66471    352.41585   -170.86145    39359.762 
  599600    309.46074   -1413.0416    493.22234     468.4585   -184.55733    39359.762 
  599700    297.46208   -1434.0386    465.64254    366.05425   -38.466221    39359.762 
  599800    301.28442   -1434.8851    472.75669    389.46935   -17.415946    39359.762 
  599900     306.6077   -1459.3071    450.68351    366.85503   -220.98377    39359.762 
  600000    310.19272   -1440.8601      462.681    413.38237   -428.19236    39359.762 
  600100    304.25641   -1443.2462    464.33686    386.02115   -519.34492    39359.762 
  600200    295.04894   -1443.1842     498.6256     379.0661   -518.48557    39359.762 
  600300    304.78999   -1450.9002    494.12571    410.54976    -456.7779    39359.762 
  600400     301.9534   -1478.3175    469.47323    345.75463   -240.40046    39359.762 
  600500    298.19217   -1474.2795    512.49082    375.93695   -492.51704    39359.762 
  600600    299.76946   -1483.1148    480.03303    341.71974    -506.3987    39359.762 
  600700    296.20428   -1464.3763    502.49856    366.92994   -914.44639    39359.762 
  600800     290.7896   -1454.4217    490.74284     340.8379   -669.03541    39359.762 
  600900    300.55848   -1431.4259    500.24238    417.15768   -669.35996    39359.762 
  601000    293.47974   -1448.0305    478.96857    347.52309    -588.4103    39359.762 
  601100    296.23587   -1419.6046    499.84731    409.19212   -290.10994    39359.762 
  601200    301.44875   -1432.2619    492.02272    412.09578   -349.03549    39359.762 
  601300    301.54372   -1424.8762    487.58778    415.47264   -828.04849    39359.762 
  601400    301.10607   -1426.0868    467.75354    392.46442   -46.515959    39359.762 
  601500    293.55808   -1457.8611    492.33255    351.40795   -469.75583    39359.762 
  601600    292.25565   -1423.2767    473.37439    361.19139    45.411765    39359.762 
  601700    306.42423   -1452.9834    512.49483    434.16704    104.41909    39359.762 
  601800    297.04491   -1488.1691    453.12332    297.53309   -141.71157    39359.762 
  601900     307.4429   -1501.4802    475.72978    353.47508    644.00009    39359.762 
  602000    305.61613   -1459.6826    459.77933    371.12708   -101.28635    39359.762 
  602100    307.96536   -1462.9634    461.00179    379.60764   -128.90032    39359.762 
  602200    301.27962   -1436.2901    481.48595    396.77206   -32.438873    39359.762 
  602300    299.89375   -1486.9412     462.9646     321.3825    -256.1713    39359.762 
  602400    293.54707   -1515.5432    500.19738    301.54126    -233.2452    39359.762 
  602500    297.55841    -1503.428    462.04576    293.50024    405.56871    39359.762 
  602600     304.7809   -1499.4778    478.03565    345.84126    246.32212    39359.762 
  602700    304.35943   -1435.5274     441.4457    371.31094   -44.131072    39359.762 
  602800    300.45363   -1458.1469    465.20458     354.9285     221.5126    39359.762 
  602900    300.55821   -1428.1664    473.46462     393.6381   -72.513048    39359.762 
  603000    297.60489   -1458.5252    479.98209     356.5479    238.43825    39359.762 
  603100    294.91276   -1426.7823    474.06607    370.29753    305.07386    39359.762 
  603200    299.39868   -1518.0582    459.97512    285.05505    347.68925    39359.762 
  603300    305.56589   -1431.2982    456.61238    396.11918   -149.44053    39359.762 
  603400    296.56949   -1476.2957    485.49601     339.6464   -526.35786    39359.762 
  603500    297.06253   -1463.7363     476.6557    345.57732    21.020914    39359.762 
  603600    307.48275   -1506.9685    463.28447    335.72019    54.474763    39359.762 
  603700    304.84717   -1482.8417    465.99928    350.73831    174.77971    39359.762 
  603800    297.59179   -1474.4502    471.81381    332.39586    452.33183    39359.762 
  603900    298.01344   -1473.6356    466.08101    329.36923    492.73781    39359.762 
  604000    304.46627   -1466.9265    476.86656    375.81203    268.70265    39359.762 
  604100      303.172   -1467.5119    478.99164    371.54544   -556.05438    39359.762 
  604200    308.24202   -1453.5721    456.08282    385.32113   -573.03354    39359.762 
  604300    297.52365   -1414.4869     485.1346    405.37426   -939.94414    39359.762 
  604400    298.25594   -1478.1457    455.66982    315.53582   -577.23112    39359.762 
  604500    296.64677   -1489.2334    456.83668    298.39604   -688.40958    39359.762 
  604600    299.85416   -1447.7349    495.94007    393.38666   -852.82601    39359.762 
  604700     303.0132   -1473.6754    449.75411    335.43206   -539.92247    39359.762 
  604800    298.17562   -1496.5766    469.26128    310.33607    -1239.862    39359.762 
  604900    300.97807   -1478.4641    489.57195    361.33127   -339.66139    39359.762 
  605000    313.09924   -1468.7742    447.59386    383.42011   -290.37264    39359.762 
  605100    300.15169   -1464.1088    482.84371     365.2511   -238.06673    39359.762 
  605200    290.74091   -1495.6333    491.39204    300.05706   -118.73271    39359.762 
  605300    297.12373    -1480.324    485.60618    338.21466   -109.93667    39359.762 
  605400    306.61438   -1455.6494       475.12    394.97918    -10.29432    39359.762 
  605500    302.64226   -1456.2853    463.79604    365.19997   -207.36871    39359.762 
  605600    297.51977   -1478.0175    489.64713    346.33873     208.1036    39359.762 
  605700    299.10223   -1524.6339     462.0189    279.19318   -418.46895    39359.762 
  605800    295.25218   -1483.9256    482.04047    322.65129    197.48646    39359.762 
  605900    297.82505   -1475.2372    499.81292    360.65437   -255.41985    39359.762 
  606000    292.34055   -1474.2725    474.42841    311.63037   -108.49515    39359.762 
  606100    308.52636   -1471.0119    483.93487    397.00898    -257.7432    39359.762 
  606200    311.32728   -1432.5053    470.35618    434.50213    -192.7396    39359.762 
  606300    306.94493     -1428.13    486.27428    435.13584   -579.96879    39359.762 
  606400     304.6685   -1467.4812    456.42798    355.72594   -67.276775    39359.762 
  606500    295.04574   -1472.5016    465.00781    316.11657    504.86124    39359.762 
  606600    290.83828   -1475.9627    497.13578    325.90824   -260.44656    39359.762 
  606700    305.40967   -1481.8858    472.17655    360.39496   -176.65512    39359.762 
  606800     294.4069   -1458.9882      463.056    324.81217   -456.44003    39359.762 
  606900    299.22876    -1491.983    454.81291    305.20577   -542.21629    39359.762 
  607000    298.83623   -1494.7719    449.36012    295.20318   -55.890218    39359.762 
  607100    304.85979   -1453.0335    482.03003    396.63388   -92.208923    39359.762 
  607200     301.1666   -1502.1004    452.54173    301.51052    273.15765    39359.762 
  607300    302.58899   -1468.4086    471.16784    360.20952    21.191556    39359.762 
  607400    304.66108    -1527.916     456.4539    295.28383    -41.55628    39359.762 
  607500     298.3809   -1500.0707    480.38935    318.89093   -163.06775    39359.762 
  607600    310.87439   -1484.4068    459.25499    369.46776   -44.056734    39359.762 
  607700    296.99838   -1477.3508    449.45464    304.47397   -256.39665    39359.762 
  607800    295.21081   -1509.1198     463.9582    279.18926   -423.68632    39359.762 
  607900    287.50763   -1499.5305    471.71038    261.97334    -374.5162    39359.762 
  608000    301.05213   -1448.8083    466.45467     368.2021     374.6113    39359.762 
  608100    307.48143   -1473.9891    461.08339    366.49261    764.99165    39359.762 
  608200    301.21612   -1522.4622    453.35722    282.18639    363.25284    39359.762 
  608300    296.60817   -1529.7988    452.23397    253.05472    575.52079    39359.762 
  608400    291.77569   -1557.1137    453.13954    204.96632    9.4302252    39359.762 
  608500     293.6397   -1509.6532    452.44576     260.0953   -86.120449    39359.762 
  608600    299.87817   -1527.5023    460.97799    278.76491    127.47971    39359.762 
  608700    305.00913   -1465.3682    485.04805    387.98715    270.46725    39359.762 
  608800    303.61703   -1451.9012    502.57072     412.7317   -150.08033    39359.762 
  608900    299.82592   -1439.8393    506.51652    411.73197     408.4931    39359.762 
  609000    299.30746   -1453.1483     466.4747    356.05536    247.07166    39359.762 
  609100    297.04313   -1479.3849    448.55356    301.73954   -17.982306    39359.762 
  609200    306.22161   -1478.6521    474.27912    369.37365      166.285    39359.762 
  609300    300.19237    -1491.141    462.63836    318.19607    228.71692    39359.762 
  609400    292.25003   -1487.8989    472.05033    295.21988   -267.83908    39359.762 
  609500    302.79239   -1502.3815    459.01026     314.9915   -69.469797    39359.762 
  609600    298.50188   -1520.4269    447.47099    266.15913   -269.87895    39359.762 
  609700    302.52458   -1527.6357    446.22311    275.74869    114.44385    39359.762 
  609800    290.43471    -1513.156    464.75551    254.52416   -211.06407    39359.762 
  609900    292.46749   -1511.4171    456.82361    257.45051    163.38705    39359.762 
  610000    312.85609   -1491.5855    473.72932    385.65354    29.068716    39359.762 
  610100    293.90138   -1491.9445    494.09834    320.63049    73.804583    39359.762 
  610200    304.29996   -1490.8267    470.31794     344.6171   -80.400049    39359.762 
  610300    303.64404   -1493.3578    482.48331    351.30884   -0.1509412    39359.762 
  610400    298.68401   -1462.6133     483.6333    360.95204   -101.85139    39359.762 
  610500     300.8776   -1465.1998    469.70361    354.27657    510.72241    39359.762 
  610600    289.12753   -1429.7049    488.79812    356.15374    81.049759    39359.762 
  610700    306.28571   -1446.9095    473.55131    400.67601    661.53711    39359.762 
  610800    297.06723   -1458.6538    476.73707    350.76223    141.59189    39359.762 
  610900    307.22947   -1445.2789     473.0317    406.02078   -265.97787    39359.762 
  611000    302.64941   -1460.4499    467.07619    364.34761    141.46573    39359.762 
  611100    303.15652   -1452.9167    453.60353    360.68303    277.74107    39359.762 
  611200    303.54324    -1432.531    506.39772    435.59788    231.11141    39359.762 
  611300    303.12201   -1427.7465    458.11528     390.2102    -547.8135    39359.762 
  611400    309.82919   -1428.4216    491.09478    452.60377   -652.73603    39359.762 
  611500    292.59283   -1496.5434     474.4433    290.50623   -408.73866    39359.762 
  611600    298.70177   -1470.5314    464.36076     333.8411    -302.8958    39359.762 
  611700    295.93057   -1444.5811    479.84111    362.83978   -255.48355    39359.762 
  611800    297.06801   -1467.5098    490.81174    355.98436   -248.59449    39359.762 
  611900    294.20749   -1455.6623    446.65617    310.84371   -404.44376    39359.762 
  612000    285.46741   -1443.7846    507.10035    343.95655   -319.34257    39359.762 
  612100    294.65938   -1427.6246    468.32222    362.57472   -415.90733    39359.762 
  612200    292.46271   -1439.9795    453.53396    325.57701   -409.04279    39359.762 
  612300    291.70954   -1461.3382    485.58055    332.88603   -353.38972    39359.762 
  612400    292.52251   -1454.3119    452.81522    310.79419   -418.57626    39359.762 
  612500     296.9589   -1451.1391    485.01562    366.06955      561.638    39359.762 
  612600    297.37923   -1462.8973    471.35677    342.53816     55.85288    39359.762 
  612700    303.14303   -1438.6035    480.37757     401.7098    628.77345    39359.762 
  612800    299.23945   -1452.5962    506.12997    395.95765    430.28921    39359.762 
  612900    298.62968   -1454.7957     507.3888    392.28147    43.869915    39359.762 
  613000    293.24916   -1454.3263    458.63478    319.85916   -254.37369    39359.762 
  613100    301.65805   -1477.7603    491.39495    366.90866   -278.49998    39359.762 
  613200    292.74873   -1503.9877    466.63372    275.95168   -1114.8313    39359.762 
  613300    297.88157   -1512.2991    462.19974    286.23284   -1027.8368    39359.762 
  613400    308.76256   -1515.8602    463.35435    332.63973   -625.82555    39359.762 
  613500    302.59233   -1533.7717    452.77746      276.471   -647.52662    39359.762 
  613600    303.17965   -1534.9149    471.65685    296.84204   -439.72293    39359.762 
  613700    299.43062   -1509.7939    478.10229    311.58985   -242.86398    39359.762 
  613800    295.77153   -1504.0932    430.84729    253.62043    92.623345    39359.762 
  613900    307.13083   -1487.3692    477.28019    367.73648     121.3386    39359.762 
  614000     301.2911   -1525.5215    483.13826    309.24452    180.59455    39359.762 
  614100     304.2095   -1555.8229    453.43136    262.32851    264.25712    39359.762 
  614200    297.08169   -1535.6645    487.08777    284.16711   -232.80912    39359.762 
  614300    285.44787   -1516.5922    456.53004    220.49098   -475.11333    39359.762 
  614400    308.21229   -1534.5102    488.43137    336.59825   -4.6968004    39359.762 
  614500    299.61218   -1554.7064    469.72193    259.11149  -0.22420511    39359.762 
  614600    298.05325   -1501.0262    505.54232    341.61849    490.97576    39359.762 
  614700    299.60052   -1548.3195    484.98569    280.70978    134.91265    39359.762 
  614800    305.11182   -1539.2357    491.82276    321.35509     237.4798    39359.762 
  614900    295.87232   -1562.3453    481.96542    246.93859   -552.36343    39359.762 
  615000     294.2343   -1538.0813    467.52921    249.41801   -899.33609    39359.762 
  615100    301.92822   -1510.7997    463.23492    306.92121   -812.34717    39359.762 
  615200     296.6161   -1485.7357    466.62067    311.54014   -556.62398    39359.762 
  615300    299.39386   -1524.6027    464.67639    283.19017   -525.39158    39359.762 
  615400    301.49001   -1532.0562    476.56386    297.02774   -656.54777    39359.762 
  615500     306.8438   -1533.4714    479.06107    322.12752   -438.95205    39359.762 
  615600    296.92803   -1544.5059    461.51981     249.0684   -331.99899    39359.762 
  615700    305.84371   -1486.5522    463.86204    349.36114   -120.85736    39359.762 
  615800    304.96555   -1470.3046    477.17502    374.98225   -182.34929    39359.762 
  615900    300.54078   -1469.4598     478.7471    357.54903    17.855007    39359.762 
  616000      293.527   -1525.9068    473.30301    264.19329   -103.95351    39359.762 
  616100    302.47827   -1498.1761    479.24559    338.02303    205.70524    39359.762 
  616200    289.89849     -1478.67    475.45972     297.3089    332.20102    39359.762 
  616300    296.26448    -1506.849    486.78988    309.01866    441.70581    39359.762 
  616400    300.14447   -1487.5864    464.19265    323.09008    355.02549    39359.762 
  616500    295.70923   -1506.7124    463.36702    283.24143    163.76238    39359.762 
  616600    306.42919   -1493.3251    466.28402    347.63677    237.27811    39359.762 
  616700    295.35481   -1507.3225    468.88958    286.56391    295.08372    39359.762 
  616800    298.50884   -1503.2894    476.58206    312.43891    726.00838    39359.762 
  616900    301.39372    -1513.384    468.02903    306.73319    587.62047    39359.762 
  617000    292.26908   -1526.7477    458.86568    243.27184   -235.07531    39359.762 
  617100    300.25259   -1514.6233    462.20825    294.55386   -358.54357    39359.762 
  617200    307.42815   -1507.0721     456.9931    329.08032   -214.56963    39359.762 
  617300     294.7823   -1506.8276    460.36558     275.9665   -726.72637    39359.762 
  617400    302.69556   -1552.4468    467.08468    272.56626    6.7650443    39359.762 
  617500     295.8841   -1518.9627    478.12489    286.53354   -277.62096    39359.762 
  617600    302.89096   -1533.3775    487.71609    313.14355  -0.54447412    39359.762 
  617700    302.24651   -1512.9294    485.74824    328.73276   -211.29235    39359.762 
  617800    298.05871   -1509.1554    478.86285    306.83431   -566.33535    39359.762 
  617900    296.18361   -1522.1887    479.03585    285.56215   -1349.1327    39359.762 
  618000    303.16773   -1510.7911    449.84911    299.10463   -779.25462    39359.762 
  618100    305.12941   -1487.1924    465.96632    347.62075   -264.42502    39359.762 
  618200    289.77242   -1506.8009    480.31707    273.46979   -213.97263    39359.762 
  618300    299.34083   -1456.5904    458.79944    345.08766    144.00386    39359.762 
  618400    313.13644   -1508.6949    478.07864    374.15115   -99.611119    39359.762 
  618500    291.06543   -1477.2408    492.61093    321.12432    201.29258    39359.762 
  618600    304.22134   -1511.5107    442.54495    295.80745    106.83619    39359.762 
  618700    302.86961   -1537.1419    490.49667    312.06387     238.0239    39359.762 
  618800    297.13975   -1511.0284     508.0235     329.9994   -41.887722    39359.762 
  618900    298.68221   -1512.6224    487.44945     314.7511   -42.622956    39359.762 
  619000    305.46645   -1517.0427    472.54787    325.86405   -475.08908    39359.762 
  619100    299.20033   -1530.2419    492.87929    304.88569   -63.585212    39359.762 
  619200    297.58374   -1502.9932    491.39511    323.39808     555.6024    39359.762 
  619300    303.94182    -1496.868    472.98591     339.6371  -0.12421086    39359.762 
  619400    298.19437   -1457.1106    472.34965    352.97451     276.4288    39359.762 
  619500    307.02829   -1499.0576    452.01796    330.32589    122.49866    39359.762 
  619600    291.18008   -1446.9917    477.00523    336.28206   -274.38033    39359.762 
  619700    301.75114   -1447.0472    497.54162    404.18599   -209.57503    39359.762 
  619800    302.73341   -1489.7157    472.75678    341.13923   -73.985929    39359.762 
  619900    289.67906   -1463.3166    477.83476    314.05295   -156.11488    39359.762 
  620000    296.09041   -1459.4446    487.77675      356.629   -397.19006    39359.762 
  620100    310.18584   -1485.9094    472.71588    378.33712   -283.44135    39359.762 
  620200    289.44974   -1450.0449    503.84961    352.31077    62.496461    39359.762 
  620300    295.27826    -1489.819    508.61783    343.45227    313.28754    39359.762 
  620400    304.91845   -1490.8087    465.79061    342.88244    157.95642    39359.762 
  620500    308.27962   -1496.1613     487.7212    374.53906    414.18576    39359.762 
  620600    298.30342   -1505.1221    480.72256    313.82513     222.0399    39359.762 
  620700    307.61228   -1523.9523    469.01561    325.04867     521.0767    39359.762 
  620800    291.74996   -1555.1889    485.06895    238.70509    114.81301    39359.762 
  620900    308.35151   -1498.0513    491.30772    376.55806    652.61354    39359.762 
  621000    305.48614   -1525.0213    495.55963    340.98559    723.10619    39359.762 
  621100    304.05239   -1524.3087    485.69658    325.40311   -45.910475    39359.762 
  621200    299.20297   -1538.3043    475.37206    279.32789    783.87154    39359.762 
  621300    296.56337   -1532.6352    477.93062    275.71406    320.75876    39359.762 
  621400    294.79045   -1534.2695    478.20321    266.39882    328.63917    39359.762 
  621500    314.65247   -1501.9329    471.49217    381.12778    397.20232    39359.762 
  621600    303.67244   -1502.3794    465.14827    325.07966    -89.94334    39359.762 
  621700    305.04324    -1489.244    493.89482    373.11113    105.68041    39359.762 
  621800    307.84692     -1499.61    494.86753    376.29548   -37.475942    39359.762 
  621900    297.26555    -1489.658    483.70807    327.61876    -173.4728    39359.762 
  622000    309.18273   -1494.5904    479.67844    372.11862   -405.71857    39359.762 
  622100    303.09862   -1479.6475    483.68795    363.77696   -533.19382    39359.762 
  622200    299.46404    -1487.465    498.01944    353.98577   -733.72989    39359.762 
  622300    302.76661   -1490.5664    474.13961    341.82031   -427.33151    39359.762 
  622400    292.90286   -1451.2839    496.84146    359.55465   -499.72208    39359.762 
  622500    309.33522    -1463.005    499.55659    424.26625   -488.51326    39359.762 
  622600    290.82588   -1475.1027    470.60116    300.17801   -967.84298    39359.762 
  622700    306.28981    -1475.228    481.56089    380.38542    -962.7807    39359.762 
  622800     291.5492   -1507.2606     488.1681    288.83191   -1010.6051    39359.762 
  622900    291.18005   -1479.2682    488.54311     315.5433    -933.7637    39359.762 
  623000    300.76944   -1452.7458    497.22158     393.7633   -784.32721    39359.762 
  623100    296.86439   -1465.8704    472.94768     338.8463   -455.66286    39359.762 
  623200    302.40563   -1493.6999    471.42922    334.35704   -601.59701    39359.762 
  623300    295.05924   -1520.5055     480.0518    283.21723   -350.54598    39359.762 
  623400    304.99098   -1473.4701    490.85311    385.60887     63.96024    39359.762 
  623500    295.81659   -1489.9336    474.49573    311.63056   -692.36874    39359.762 
  623600    287.99012   -1489.7595    487.52804    289.72647    40.162806    39359.762 
  623700    300.78946   -1486.6371    480.04113    342.78133   -120.00459    39359.762 
  623800    297.08215   -1486.9065    500.29817    346.13753   -446.99585    39359.762 
  623900    307.97666   -1471.4611    487.57821    397.73708    40.307764    39359.762 
  624000    309.66362    -1448.741    482.63927     423.0861    579.71809    39359.762 
  624100    293.08049   -1492.3926    473.45993    295.86134   -378.63387    39359.762 
  624200    311.25044   -1478.4324    491.96161    409.83572   -47.615957    39359.762 
  624300    294.25429    -1473.776    490.06815    336.35197    162.78572    39359.762 
  624400    290.74686   -1489.9324    493.42028     307.8129   -191.53479    39359.762 
  624500    286.87657   -1477.5758    482.40418    291.79085   -232.64058    39359.762 
  624600    301.83284   -1536.9213    510.40569    327.54246   -350.27093    39359.762 
  624700    301.27991     -1517.55    455.58234    289.60987   -119.19649    39359.762 
  624800     301.1847   -1526.8559    479.68481    303.97933   -84.786153    39359.762 
  624900    287.41681   -1504.0816    498.13216    283.43662   -364.81091    39359.762 
  625000    301.11301   -1499.8944     478.3527    329.28717    31.440753    39359.762 
  625100    292.62915   -1475.4504    471.36459     308.6834    468.81092    39359.762 
  625200     303.1507   -1463.7934    462.84115    359.01793    207.66751    39359.762 
  625300    314.99822   -1536.5373    484.26337    360.84561    444.34945    39359.762 
  625400    290.37358   -1498.0168    485.16994    289.80358    46.854959    39359.762 
  625500    309.29841   -1492.5025    455.28696    350.33399   -63.340364    39359.762 
  625600    298.80121   -1558.8423     476.0195      257.635   -189.73351    39359.762 
  625700    300.61899   -1530.8315    496.80726    314.58836   -114.29548    39359.762 
  625800     300.0492   -1523.1322    506.35148    329.27579   -66.192514    39359.762 
  625900    300.33816    -1530.319    491.67933    308.71312    323.60751    39359.762 
  626000    297.42208   -1519.6448    470.62522    285.25129    270.87244    39359.762 
  626100    300.79733     -1508.18    456.15605    297.38877   -75.317682    39359.762 
  626200    304.68988   -1544.6942     484.3249    306.50583   -132.61045    39359.762 
  626300     304.0262   -1526.1111    463.36364    301.15026    -495.9877    39359.762 
  626400    294.96171   -1562.7708    477.21012    237.67273    490.15494    39359.762 
  626500    302.98852   -1535.3577     494.1121      317.997      622.059    39359.762 
  626600     304.7736   -1540.7722    481.17037    307.64883    167.99386    39359.762 
  626700    300.82476    -1539.924    498.73686    308.34861    462.78726    39359.762 
  626800    307.30138   -1544.5588    467.80683    301.83865   -205.73429    39359.762 
  626900    288.91527   -1540.3458    497.67193    253.43442   -79.200827    39359.762 
  627000    293.95333   -1528.8043    464.94055    254.84593   -539.11488    39359.762 
  627100    305.86551   -1531.1762    443.84274    284.81568   -608.68272    39359.762 
  627200    305.66232   -1545.5543    479.65425    305.33749   -285.12639    39359.762 
  627300    299.93322   -1549.1829    457.83393    254.18717   -441.39013    39359.762 
  627400    297.81091   -1570.2401    485.18532     250.9605   -468.44311    39359.762 
  627500    296.10237   -1571.6081     467.8506    224.59303   -396.18412    39359.762 
  627600    312.74236   -1555.5416     465.6792    313.13709   -496.93685    39359.762 
  627700    297.63505   -1518.5855     448.4128     265.0536   -448.89453    39359.762 
  627800    299.31404   -1540.9267    475.85487    277.68656    10.163988    39359.762 
  627900    293.27591   -1537.4723    450.13719    228.33559    420.67932    39359.762 
  628000    296.81847   -1528.5136    496.12397    299.17334    68.211509    39359.762 
  628100    305.47399    -1569.552    455.64956    256.49027   -243.49247    39359.762 
  628200    302.82994   -1515.0403    481.77908       325.27   -437.90786    39359.762 
  628300    296.10294   -1483.6524    475.07296    319.77368   -660.85475    39359.762 
  628400    302.59478   -1499.1666    487.56411    345.87377   -832.76518    39359.762 
  628500    306.09293   -1538.2338    490.38363    325.31919   -393.19982    39359.762 
  628600    308.30892   -1543.9458     488.6932      327.858    -109.8258    39359.762 
  628700    292.57368   -1555.1378    478.32822    235.71079    31.953266    39359.762 
  628800    300.63506   -1509.4096    503.34227    342.61739    348.02655    39359.762 
  628900    305.29893   -1503.5726    460.29493    326.32972    779.03355    39359.762 
  629000    302.72529   -1520.7193    505.17563    342.51806    436.65764    39359.762 
  629100    293.13659   -1520.4567    479.04442    273.63333    437.90153    39359.762 
  629200    307.31351   -1525.1724    488.52273    341.99531    435.44084    39359.762 
  629300    297.37321   -1525.3714    515.60582    324.28608   -6.3338641    39359.762 
  629400    295.17939   -1526.1321    477.91286    275.99068     184.4994    39359.762 
  629500     294.3384   -1546.2199     465.1131    239.33039   -980.94847    39359.762 
  629600    291.44956    -1529.545    473.69173    251.62418   -1128.1077    39359.762 
  629700    291.68979   -1475.3729    488.05213    321.23434   -725.80167    39359.762 
  629800    306.80692   -1457.7428    487.72066    406.35026   -327.81547    39359.762 
  629900    293.79922   -1449.3816    488.41703    357.05375    -666.3479    39359.762 
  630000    301.87386   -1524.6789    472.44193    302.00517   -507.24547    39359.762 
  630100    300.04582   -1493.6083    465.42688    317.85986   -196.33753    39359.762 
  630200    295.51598   -1512.3928    495.19628    308.52337   -573.31984    39359.762 
  630300    284.11432   -1530.3779    477.75095    221.94375    123.83506    39359.762 
  630400    302.77077   -1537.4154    467.48557    288.33592    428.71735    39359.762 
  630500    294.66218   -1506.7503    487.38135     302.5207    408.43311    39359.762 
  630600    309.92325   -1531.7728    469.28776     327.8676    573.92249    39359.762 
  630700    296.32275     -1512.91    485.95944    302.38856     605.5525    39359.762 
  630800    312.30967   -1520.3165    477.07267    357.81455     425.7752    39359.762 
  630900    302.11582   -1547.9515    487.61017    294.98618    448.27632    39359.762 
  631000    292.65949    -1528.634    495.73175    280.00305   -53.974413    39359.762 
  631100    298.09057   -1520.9161    487.82509    304.17876   -60.769719    39359.762 
  631200    294.32038   -1508.9748    483.57634     294.9578   -334.43847    39359.762 
  631300    310.67624   -1512.5592    475.64666    356.81811    269.36231    39359.762 
  631400    294.87281   -1494.3808    478.55952    307.01325   -200.86744    39359.762 
  631500    300.24676   -1430.7231     503.8172    420.03687    154.38297    39359.762 
  631600    298.09259   -1475.2735    509.16074    371.16615    186.80009    39359.762 
  631700    297.09564    -1515.082    468.80814    286.53263    173.92034    39359.762 
  631800    306.28895   -1488.6813     494.6526    380.02002    198.30402    39359.762 
  631900    300.53539   -1474.5302    471.25734    344.96471   -172.95856    39359.762 
  632000    303.92317   -1507.4916    494.78997    350.73389    48.173493    39359.762 
  632100    298.91242   -1522.6866    480.94409    299.21418    162.34226    39359.762 
  632200    298.71318   -1501.4196     477.9092    316.55252    260.69528    39359.762 
  632300    301.13232   -1477.6422    491.89858    365.17188    84.021972    39359.762 
  632400    295.36455   -1456.1076    489.02356    357.95658    351.17641    39359.762 
  632500    310.21681   -1527.0552    484.29534    348.90971   -245.44266    39359.762 
  632600    302.71535   -1520.2382    491.04368    328.82257    -264.0519    39359.762 
  632700    294.41869   -1490.2256    476.10724     306.6789   -74.079919    39359.762 
  632800    308.98324   -1492.6804    479.74655    373.20175    193.98305    39359.762 
  632900    301.74872   -1512.1654    484.16305    325.67835      179.617    39359.762 
  633000    302.97056   -1500.1276    501.14758      360.182    220.99613    39359.762 
  633100    304.24519   -1480.9538     509.9674    393.89375   -555.78091    39359.762 
  633200    303.75927   -1484.2245    470.99845    349.47418   -760.47854    39359.762 
  633300    295.55823   -1486.7533    487.63524    326.79138   -691.74912    39359.762 
  633400    302.58644   -1527.9115     486.8001    316.32738   -567.85898    39359.762 
  633500    298.05935   -1489.9417     493.3354    340.52347    293.27407    39359.762 
  633600    296.43986   -1472.1205    470.15259    327.89658   -381.75088    39359.762 
  633700    278.17566   -1522.4044     521.2211    246.74586   -37.445275    39359.762 
  633800    305.62308    -1536.891    480.24574    314.41633   -592.54165    39359.762 
  633900    300.01203   -1497.1737    515.96661    364.68263   -443.44724    39359.762 
  634000    297.16577   -1490.8219    467.42233    309.72147   -909.62816    39359.762 
  634100    298.07189   -1487.0561    465.89605    316.02598   -516.19133    39359.762 
  634200    303.80167   -1568.3166    478.63628    273.21015   -425.39228    39359.762 
  634300     290.0697   -1551.1964    471.31532    221.40616  -0.42838027    39359.762 
  634400    305.24645   -1541.2116    485.32824    313.48858    427.98709    39359.762 
  634500    304.73434   -1563.3245    488.96366    292.71371    642.86284    39359.762 
  634600    303.78058   -1538.6866    486.59176    310.70101    367.89963    39359.762 
  634700    307.24525   -1560.3769    500.09967    318.06158    356.12519    39359.762 
  634800    293.35624   -1512.5439    467.24394    270.73113    23.912989    39359.762 
  634900    291.28595   -1502.0364    474.15501    278.86208   -35.471602    39359.762 
  635000    285.16763   -1529.6744    489.42975    239.05131   -301.29191    39359.762 
  635100    311.25152   -1540.1128    495.06097    351.25961   -177.92568    39359.762 
  635200    294.17143   -1506.2898    489.07767    302.47594    4.8904174    39359.762 
  635300    302.34423   -1524.7869    492.98682    324.55212   -101.58799    39359.762 
  635400    306.64456   -1537.7409    470.97964    308.88274   -233.65619    39359.762 
  635500    298.46021   -1507.2485    507.71923    339.39877   -225.90323    39359.762 
  635600    300.52349   -1504.2269    481.51379    325.47109    83.446601    39359.762 
  635700    307.63317    -1467.234    520.80583    433.65085   -109.55196    39359.762 
  635800    305.15124   -1507.0693    483.86946    345.74495    39.014378    39359.762 
  635900    300.59732   -1492.9038    508.23571    363.84727    248.27028    39359.762 
  636000     305.3993   -1512.6627    512.70659    370.10156    252.11113    39359.762 
  636100    296.45024   -1501.6145    484.11024     312.4068   -222.67761    39359.762 
  636200    291.68475   -1534.0352    471.67977    246.17711    238.47813    39359.762 
  636300     292.6762   -1518.7634    503.50589    297.72276   -190.53521    39359.762 
  636400    292.66646   -1509.7536    491.56389    294.74696   -252.94623    39359.762 
  636500    295.04519   -1509.6042    484.69064    298.69429   -160.31047    39359.762 
  636600     300.7837   -1504.0913    488.20192    333.46213   -426.95284    39359.762 
  636700    295.23115    -1503.612    478.93119     299.7613   -475.46766    39359.762 
  636800    289.91895   -1500.9752    481.35702    280.99278    36.462535    39359.762 
  636900    293.51761   -1467.9064    496.93282    345.78134    277.60909    39359.762 
  637000    302.74061   -1452.2434    511.47189    417.35895    469.79538    39359.762 
  637100    302.19574   -1449.0122    481.79813    388.47206    538.01974    39359.762 
  637200    300.76119   -1480.6054    490.83403    359.47921    645.43529    39359.762 
  637300    300.44204   -1477.8548    491.85683    361.82086    561.12046    39359.762 
  637400    297.71038   -1497.2361     481.1178    319.44595    800.24904    39359.762 
  637500    293.14655   -1508.6071    494.68787    301.17115   -114.62069    39359.762 
  637600    295.05751   -1497.1582    495.10985    321.61479    -252.7695    39359.762 
  637700    304.50153   -1525.8301     496.6363    336.83638   -616.87096    39359.762 
  637800    314.34155   -1504.9617    481.81363    387.02557   -367.07836    39359.762 
  637900     306.6623   -1464.8947    506.07979    416.90869   -360.42374    39359.762 
  638000    295.31823   -1459.9347    507.15255    372.05062   -868.61106    39359.762 
  638100    305.98751   -1528.4384    475.90696    320.16493   -330.05606    39359.762 
  638200    296.45455   -1472.5989    514.48345    371.81498   -79.193029    39359.762 
  638300    303.79463   -1487.8161    484.23087    359.27362    -2.735971    39359.762 
  638400    290.83811   -1514.7407    450.92442    240.91812    -8.710431    39359.762 
  638500    302.63006   -1531.1048    506.99639    333.52605    974.13723    39359.762 
  638600    292.29209   -1497.1799    500.81519    314.89243    204.00813    39359.762 
  638700    299.12103   -1535.9895    498.88952    304.79259    346.84169    39359.762 
  638800    302.21943   -1489.1084    468.81575    335.49966    -145.4162    39359.762 
  638900    311.81007   -1465.8605    488.70772    421.66437   -569.59451    39359.762 
  639000    303.60444   -1474.5841    499.07476    386.49634   -691.94947    39359.762 
  639100    302.67126   -1482.8867    465.55543    340.48806   -212.28554    39359.762 
  639200    305.43696   -1484.8883    489.17451    374.51277    -579.8928    39359.762 
  639300    300.19075   -1489.1629     436.5755    294.10409   -547.68983    39359.762 
  639400    303.53696   -1534.2427    497.15173    324.61197   -322.49695    39359.762 
  639500    299.89879   -1522.1697    459.68776    282.89974     110.7738    39359.762 
  639600    293.56109   -1533.6742    495.35272    278.62858    50.449899    39359.762 
  639700    293.02838   -1554.4866    464.98806     225.0617   -281.99876    39359.762 
  639800    304.47541   -1562.1473    455.75805    259.52375    119.11516    39359.762 
  639900    295.25483    -1532.945    496.81642    288.41973    251.63439    39359.762 
  640000    292.38691   -1551.6438    481.22089    241.25961    534.07291    39359.762 
  640100    293.85275   -1513.4436    480.74987    285.56466    689.79277    39359.762 
  640200    301.64151   -1499.5634    490.96166    344.59802    603.81635    39359.762 
  640300    292.26114   -1476.8419    493.50408    327.78048    797.76502    39359.762 
  640400    297.29766   -1496.7681    507.04963    343.99421    696.88621    39359.762 
  640500     299.7241   -1531.7445    481.51063    294.36413    766.77839    39359.762 
  640600    303.19452   -1489.8567    486.96353    357.27351    228.01636    39359.762 
  640700    300.65501   -1507.4508    466.33898    307.66236    641.56446    39359.762 
  640800    311.35538   -1487.6458    503.34788    412.47942   -29.059581    39359.762 
  640900     294.0196   -1493.5045     484.6923    310.19479     -496.148    39359.762 
  641000    293.21625    -1539.881    460.85066    236.37265    225.30908    39359.762 
  641100    300.83925   -1500.6026    459.24732    308.24548    87.043894    39359.762 
  641200    307.74796   -1506.5628    483.97396    358.00519    231.47734    39359.762 
  641300    299.96503   -1476.1092    481.60609    351.17575    768.55405    39359.762 
  641400    294.96006    -1524.124    470.58101    269.68304    292.94149    39359.762 
  641500    288.40897   -1564.7001    489.22334    218.36029     86.06341    39359.762 
  641600     307.5058   -1546.2978    472.98455    306.19438    605.71064    39359.762 
  641700    294.87601   -1514.6694    472.22475    280.40425    383.91778    39359.762 
  641800    307.86832   -1488.9681    477.23806    369.40389    347.32885    39359.762 
  641900    309.26357    -1495.583    480.55987    372.37012    813.63037    39359.762 
  642000    297.48079   -1526.3566    493.56287    301.74053    133.29202    39359.762 
  642100    301.23828   -1526.3887    462.01419    287.01629    -19.54827    39359.762 
  642200    307.68042   -1506.7448    474.13855    347.68478    238.77913    39359.762 
  642300    294.75519   -1534.0726    475.48366    263.71795   -307.57875    39359.762 
  642400    304.55726   -1532.2608    489.96199    323.98132   -82.309803    39359.762 
  642500    302.50624   -1514.0405    475.45726    318.49577   -463.95398    39359.762 
  642600    293.73168   -1515.2589    467.31101    269.76739   -600.46002    39359.762 
  642700    296.53571    -1484.037    477.40393    323.66148    -390.8031    39359.762 
  642800    302.09866    -1477.425    480.51239    358.33796   -293.49194    39359.762 
  642900    296.31237   -1533.0086    477.02207     273.3061   -21.398498    39359.762 
  643000    300.25118   -1539.5476    475.49168    282.90662    -432.1619    39359.762 
  643100    300.34451   -1517.0987     469.5313    299.81382   -276.99969    39359.762 
  643200    307.62976    -1557.493    488.76841    311.33916    636.39276    39359.762 
  643300    290.11221   -1612.1708    458.42496     147.7321    109.37806    39359.762 
  643400      295.627    -1541.475    470.92375    255.66673   -140.60149    39359.762 
  643500    309.69232   -1522.6758    486.17999     352.8209    318.39201    39359.762 
  643600     299.5761   -1513.7942    453.75358     283.8934    117.40242    39359.762 
  643700    303.46436   -1519.7953    487.11552    328.69745    48.980427    39359.762 
  643800    294.70937   -1534.2261    458.66918     246.5444    206.61507    39359.762 
  643900    298.68627   -1494.2276    480.68557    326.40017    23.712322    39359.762 
  644000    291.17337   -1512.3387    493.85659    287.75636    272.74249    39359.762 
  644100      302.535   -1500.4758    493.37461    350.10685    -18.51238    39359.762 
  644200    294.37375   -1478.1783    487.36326    329.78067    77.533485    39359.762 
  644300    303.89899    -1479.143    495.64344     379.8275    262.16659    39359.762 
  644400     303.9171    -1482.092    490.48224    371.79856   -42.623542    39359.762 
  644500    301.71717    -1486.892    494.04247     360.6897    249.00004    39359.762 
  644600    301.22338   -1513.5196    493.85883    331.66314    588.87545    39359.762 
  644700    292.38483   -1489.1185    502.99231    325.54699    556.47161    39359.762 
  644800    303.69916   -1513.4778    493.39172    342.34458    546.07156    39359.762 
  644900    302.76066   -1490.0294    476.18917    344.38019    200.26998    39359.762 
  645000    305.42587   -1519.3338    475.52244    326.36547    57.614555    39359.762 
  645100    291.99318    -1494.778    485.80846     300.9467    307.93067    39359.762 
  645200    285.91793   -1494.0425    498.07114    286.69053    148.63776    39359.762 
  645300    302.38283   -1476.9535    463.67437    343.24627    263.15996    39359.762 
  645400    302.76165   -1469.0371    498.17708    387.36476    68.721806    39359.762 
  645500    296.49349   -1506.5262    475.91614    299.49507    305.76039    39359.762 
  645600    301.02135   -1514.6569     488.5732     324.3339   -125.95565    39359.762 
  645700     302.5496   -1512.3412    504.86484    349.79719    487.67041    39359.762 
  645800    302.17123   -1490.4962    462.99862    328.07854   -228.25935    39359.762 
  645900    296.05542   -1469.2071    504.21832    363.15109    361.29804    39359.762 
  646000    299.77287   -1477.1988    504.10673    371.72479    583.41144    39359.762 
  646100    304.65217   -1464.7448    474.31065    376.27176    467.00038    39359.762 
  646200     300.6394   -1453.5795    497.34201    392.46673    411.27901    39359.762 
  646300    293.95949   -1459.5914    497.66465    356.81052    839.87069    39359.762 
  646400    302.56535   -1488.8839    472.97063     341.4309    52.172223    39359.762 
  646500    303.44046    -1478.195    486.13636    369.21146    189.60069    39359.762 
  646600    289.34786   -1479.4186    497.51825    316.14863   -78.199676    39359.762 
  646700    303.78725   -1495.9499    496.59625    363.47214   -156.93093    39359.762 
  646800     294.5294   -1511.7268    451.06716    260.63438   -48.911334    39359.762 
  646900    303.74637   -1493.3284    498.29883    367.61287   -257.59294    39359.762 
  647000    301.85136     -1471.35    486.70292    369.49408   0.85854867    39359.762 
  647100    310.72769   -1484.5657    469.07434    378.47008    574.56707    39359.762 
  647200    304.38604   -1480.0672    491.97664    377.42146    831.03677    39359.762 
  647300    306.46139   -1452.5814    479.56057    401.80146    434.42791    39359.762 
  647400    304.49237   -1517.4132    510.32486    358.90073    437.45308    39359.762 
  647500     303.7416   -1493.0001    460.38487    330.00581    57.553981    39359.762 
  647600    300.29365   -1467.3963    471.26857    351.02533     179.3582    39359.762 
  647700    305.92277   -1474.3265    472.73345    370.81294    612.56713    39359.762 
  647800    300.39457    -1559.208    474.75672    263.15457    262.24665    39359.762 
  647900    316.82049   -1472.5098     479.1877     427.9724    412.58811    39359.762 
  648000     304.7846   -1465.4004    477.44129    379.34084    180.04642    39359.762 
  648100    310.86583   -1476.4224    464.82724    382.98597   -94.670126    39359.762 
  648200    301.56172   -1471.6151    473.59879    354.82551    223.91063    39359.762 
  648300    306.86354   -1465.2425    474.32159    385.70548    289.23692    39359.762 
  648400    295.38915   -1466.8288    497.32554    355.64768    468.15444    39359.762 
  648500    299.11274    -1490.304    475.74016    327.29153    596.86191    39359.762 
  648600    299.37884   -1462.5408    495.86919     376.3775    264.08429    39359.762 
  648700    293.39222   -1518.9418    469.39117    266.64183    296.53442    39359.762 
  648800    293.84003    -1513.851     489.0704    293.42077    273.43595    39359.762 
  648900    306.98865   -1483.7003    484.99641    378.48375   -506.05718    39359.762 
  649000    312.01451   -1467.9931    479.06642    410.80752   -613.20936    39359.762 
  649100    294.91743   -1481.8533     460.9809    302.16229   -407.57882    39359.762 
  649200    304.45494   -1469.8268    460.84209    356.83637   -612.42629    39359.762 
  649300    293.46139   -1472.3919    477.89019    322.00108   -101.58068    39359.762 
  649400    296.26097    -1508.015    478.86855    299.91551    205.20782    39359.762 
  649500    307.55702   -1508.9633    476.44054    347.21461    206.22513    39359.762 
  649600    294.57863   -1522.6045    464.94682    263.85712    45.115899    39359.762 
  649700    305.79546    -1555.536      474.829    291.12784    67.961263    39359.762 
  649800    298.96105   -1527.9386     470.1192    283.35548   -240.17825    39359.762 
  649900     306.4537   -1536.3507    482.99972    321.43689    -57.42591    39359.762 
  650000    303.53976    -1554.867      461.259    268.10748    94.446702    39359.762 
  650100    294.75855   -1544.9848    493.26507    270.60218    528.33494    39359.762 
  650200    306.58963   -1498.4074     466.1796    343.16981     24.96174    39359.762 
  650300    306.05115   -1488.3795    494.89915    379.50155   -146.15155    39359.762 
  650400    291.86814   -1527.2803    492.85707    274.93202    181.98768    39359.762 
  650500    300.19523   -1521.7743     499.7935    324.73075   -150.59294    39359.762 
  650600    294.70189    -1514.585    501.83274    309.31548    208.55716    39359.762 
  650700    313.75291   -1516.4231    469.77839     360.8882     46.26085    39359.762 
  650800    294.66396      -1516.6    493.34908    298.64674   -600.66987    39359.762 
  650900    303.65344   -1483.0775    501.29721    380.44525    -507.7606    39359.762 
  651000    307.53526   -1464.4957    446.95364    362.09774   -236.26186    39359.762 
  651100    304.77235   -1509.5766    499.30233    356.97081   -120.48773    39359.762 
  651200    291.20443   -1456.5327    509.09484    358.93993    351.72248    39359.762 
  651300    297.39104   -1460.3739    487.13955    360.89734   -170.81964    39359.762 
  651400    289.28557   -1460.9017    485.18054    322.04834   -230.03957    39359.762 
  651500    302.75777   -1444.2577    500.36149    414.31118   -409.65488    39359.762 
  651600    310.51324    -1470.014    494.39374    417.37911  -0.92438687    39359.762 
  651700    308.18276   -1502.7467    485.52777    365.32571   -756.41814    39359.762 
  651800    296.08056    -1481.723    479.15663    325.68636   -620.47261    39359.762 
  651900    301.51326   -1504.4024    472.09098    320.31303   -219.75913    39359.762 
  652000    297.19751   -1532.1194    474.92907    276.07308   -754.68133    39359.762 
  652100    295.63713   -1483.2118    458.13686    301.18848   -559.64519    39359.762 
  652200    307.04328    -1468.159    473.18499    382.45869   -36.768909    39359.762 
  652300    309.72451   -1491.8417    460.00791     357.6273   -87.607942    39359.762 
  652400    293.75472   -1478.5414    465.90501    305.18226    277.85854    39359.762 
  652500    298.91014   -1452.6382    480.70167    369.01001    231.81024    39359.762 
  652600     301.7561    -1417.351    505.92096    442.28375    829.44204    39359.762 
  652700    291.58132   -1464.5679    469.17509    312.67577     117.1838    39359.762 
  652800    294.90191   -1503.1846    457.96629    277.74677   -183.54567    39359.762 
  652900     304.6676   -1503.7325    470.50048    333.54311   -135.84427    39359.762 
  653000    302.12215   -1527.7732     465.9204    293.50318    140.72345    39359.762 
  653100    286.41285   -1500.0331    497.32883    282.17789   -73.037514    39359.762 
  653200     302.1031   -1495.0535    482.33921    342.55619    73.014784    39359.762 
  653300    310.16943    -1517.623    472.73642    346.57047    528.26494    39359.762 
  653400    298.12385   -1457.4412    473.35763    353.33553   -131.96811    39359.762 
  653500    297.65589   -1472.8745    499.36685    361.81215   -328.10483    39359.762 
  653600    305.82942   -1463.6268    472.60976     380.9702   -202.14418    39359.762 
  653700    301.97676   -1468.6608    466.79073    352.83365    -792.0962    39359.762 
  653800    288.54464   -1496.9133    474.00773    271.54008   -823.31827    39359.762 
  653900    291.68037   -1485.7749    478.01483    300.75279   -913.20334    39359.762 
  654000    309.57137   -1492.9925     460.0634    355.84498   -679.60544    39359.762 
  654100    294.62433   -1476.6092     491.5701     336.6807   -888.78146    39359.762 
  654200    299.41579   -1485.2344    493.14224    351.12278   -377.24147    39359.762 
  654300    293.45861   -1508.7643    458.48149    266.20746   -442.98496    39359.762 
  654400    293.29921   -1517.2904    487.41003    285.89487    14.094671    39359.762 
  654500    298.24298    -1519.731    465.05518    283.27776   -193.32175    39359.762 
  654600    304.35682     -1497.84    466.78591    334.32686    85.547028    39359.762 
  654700    303.17065   -1475.3038    475.07626    359.83217    222.03295    39359.762 
  654800    294.09956   -1508.5142    486.50403    297.35554    38.367333    39359.762 
  654900    302.88829   -1531.2829    475.82075     303.3308   -479.91148    39359.762 
  655000    301.64763    -1513.673    464.60049    304.15474   -219.61721    39359.762 
  655100    299.83015   -1522.1516    475.52736    298.44951   -139.41622    39359.762 
  655200    315.32466   -1514.4741    471.79954    371.90943    356.68893    39359.762 
  655300    294.87786   -1517.8489    485.25138    290.25965   -84.958847    39359.762 
  655400    304.00146   -1515.1878    469.34606    317.94497   -12.646678    39359.762 
  655500    304.77312   -1541.5953    463.63766    289.29087   -766.33614    39359.762 
  655600    299.31677   -1523.1106     460.4209    280.08101   -75.557737    39359.762 
  655700    300.25489   -1532.0887    476.46854    291.35906   -265.87226    39359.762 
  655800    302.69445   -1476.4482    472.70758    354.18274   -498.34495    39359.762 
  655900    303.29153   -1507.2558    458.63469     311.9808    -657.5018    39359.762 
  656000    305.01726   -1506.3094    501.76798    363.80233   -186.58826    39359.762 
  656100     297.7619   -1484.9168    482.00237     332.8809    109.34803    39359.762 
  656200    304.33036   -1483.9445    493.34016    374.65795    171.73654    39359.762 
  656300    304.53837    -1539.008    504.55675    331.74415    60.718544    39359.762 
  656400    295.75578   -1564.8781    457.16914    219.08663    251.07717    39359.762 
  656500    306.41275   -1551.0518    471.67055    295.22287    536.78778    39359.762 
  656600    300.30848   -1521.7652    487.61497    313.06941    455.21791    39359.762 
  656700    283.90807   -1519.1266    481.29013    235.80897   -90.733004    39359.762 
  656800    302.60141   -1555.8632    477.90039    279.54319    241.42811    39359.762 
  656900    299.54172   -1549.2441    460.34829    254.88406    888.18407    39359.762 
  657000    300.59414   -1514.6139    468.91149    302.79869    125.61268    39359.762 
  657100    288.34383   -1521.6186    460.72441    232.65058    1023.1939    39359.762 
  657200    301.51559   -1530.9894     462.1843    283.82981    614.25169    39359.762 
  657300    306.21758   -1533.8566    446.72549    286.59741    761.46871    39359.762 
  657400     309.3987   -1532.8077    472.71475    327.90648    722.81182    39359.762 
  657500    310.25024   -1491.9423     480.3302    380.20743    290.38024    39359.762 
  657600    300.28272   -1501.1169    462.91625    308.90339    95.152086    39359.762 
  657700     302.4216   -1483.5829    485.04431    358.16075   -655.56205    39359.762 
  657800    307.07594   -1488.1609    449.15846    338.57684   -572.42759    39359.762 
  657900    287.70287   -1515.9654    494.70913    269.41313   -792.34747    39359.762 
  658000    299.90529   -1525.5465    459.53153    279.39588   -373.83229    39359.762 
  658100    299.40041   -1493.0577    468.05923    318.14745   -524.89837    39359.762 
  658200    301.51852   -1490.3437    475.21761    337.52191   -752.47767    39359.762 
  658300    292.27683   -1510.9676    462.41278    262.63389   -736.39448    39359.762 
  658400    305.63576   -1448.8893    467.40635    389.63544   -330.66457    39359.762 
  658500    301.76757   -1487.5729    488.89067    355.08307    87.525939    39359.762 
  658600    312.00948   -1473.9394    450.87091    376.64321    -109.7041    39359.762 
  658700    301.73599   -1476.3588    461.69226     338.9571    32.809858    39359.762 
  658800    303.56176   -1473.2276    497.76968     386.3563   -24.794749    39359.762 
  658900    285.97572   -1465.3316    467.75692    285.34652   -310.19411    39359.762 
  659000    299.33572   -1448.6889    485.93905    380.10583    120.77146    39359.762 
  659100    300.78399   -1482.5338    486.56146    353.38045    190.25403    39359.762 
  659200    304.51116   -1497.3999    494.86799    363.54144    227.07704    39359.762 
  659300    296.17981   -1464.6108     479.6849    343.77197    290.01115    39359.762 
  659400    301.55042   -1486.5092    479.86856    346.15049    104.42624    39359.762 
  659500    301.68118   -1495.9656    479.55342    336.96551     384.0682    39359.762 
  659600      301.427   -1480.7988    474.73401    346.17259    290.10579    39359.762 
  659700     301.7895   -1464.6549    478.63895    367.84768   -18.408344    39359.762 
  659800     295.6748   -1520.0651    463.38769    269.75496    165.09468    39359.762 
  659900    311.48569   -1502.2088     490.4303    385.58343    404.53318    39359.762 
  660000     296.6586   -1485.1297    493.66684    339.38296   -443.49931    39359.762 
  660100    302.08723   -1459.4058    476.10999    371.90347   -514.45586    39359.762 
  660200    307.83021   -1453.4159    457.18694    384.73407   -866.32479    39359.762 
  660300    292.53622   -1453.0996    472.45329    331.70605   -558.36422    39359.762 
  660400    296.98637    -1466.344     462.1592     328.1314   -333.31674    39359.762 
  660500    305.95202    -1451.073      486.367    407.83116   -225.22286    39359.762 
  660600    293.63658   -1457.9599    480.70376    340.03253   -226.80225    39359.762 
  660700    300.30928   -1455.8102    484.13828    375.55128    40.089076    39359.762 
  660800    307.73739   -1463.5357    479.74051    396.75141   -203.68868    39359.762 
  660900     289.9717    -1462.112    475.79873    314.53429     22.09536    39359.762 
  661000    306.61209   -1451.0085    491.39314    415.88298    419.58136    39359.762 
  661100    297.09741   -1436.6521    467.54102    363.70334    359.06608    39359.762 
  661200    306.92339   -1441.3175    477.92634    413.50376    256.48053    39359.762 
  661300    305.47484    -1477.162     460.9266    354.16114    356.86343    39359.762 
  661400    305.32231   -1460.2017    493.45634    402.96686    955.72771    39359.762 
  661500    294.68767   -1457.2233      494.498    359.27871    281.58303    39359.762 
  661600    304.91104   -1456.1374    485.59613    397.32598   -140.72348    39359.762 
  661700    305.18964   -1474.4201    477.58293    372.27987   -220.46208    39359.762 
  661800    306.32875   -1495.2332    480.17462     359.1687    -388.1578    39359.762 
  661900    301.15019   -1502.0848    446.76415    295.67502    88.038677    39359.762 
  662000    304.62103    -1451.176    493.80449    409.19469   -224.14376    39359.762 
  662100    295.63698   -1479.2679       447.78    294.77481   -300.46084    39359.762 
  662200    296.82657   -1479.6044    474.22723    326.22222   -417.25548    39359.762 
  662300    304.81637   -1493.3743    493.17508    367.24334    262.72831    39359.762 
  662400    297.12947   -1468.6558    472.21508    336.51748    266.99226    39359.762 
  662500    281.05033   -1419.1218    511.88703    353.59049    669.20027    39359.762 
  662600    303.06654   -1429.4466    479.83262    409.97858    828.80825    39359.762 
  662700    310.71593    -1455.242    476.79533    415.46199    863.37363    39359.762 
  662800    308.34836   -1471.6206    480.49517    392.16208     685.2003    39359.762 
  662900    303.36173   -1505.7743    490.62919    345.77175    955.42131    39359.762 
  663000    299.76665   -1499.6957     473.6831     318.7763     486.1727    39359.762 
  663100    304.02261   -1519.0519     473.3238    318.15351    350.35031    39359.762 
  663200     309.3639   -1503.7235    461.91969    346.03948    418.32411    39359.762 
  663300    289.95838   -1480.5808    464.31272    284.51977   -218.48704    39359.762 
  663400    300.09457   -1474.3213    451.90169    323.84042   -37.600422    39359.762 
  663500    312.23268   -1453.1287    476.13195    423.71622    282.72395    39359.762 
  663600    308.11322   -1483.1603    482.12472    381.19704    65.882273    39359.762 
  663700    306.78509   -1507.8205    477.36366    345.81766    612.98709    39359.762 
  663800    305.45016   -1487.6805    441.70841    324.31371    694.37311    39359.762 
  663900    304.88893   -1507.4417    485.46752    345.79386    737.76555    39359.762 
  664000     294.4168   -1511.0814    490.69565    300.40309    1237.3745    39359.762 
  664100    302.25206   -1511.4778    459.76225    304.22324    951.39467    39359.762 
  664200    300.37685   -1496.4596     523.2146    374.28138      925.975    39359.762 
  664300    297.50215   -1512.8167    444.17572    265.98907    796.52516    39359.762 
  664400    297.09467   -1476.6674    485.87258    342.00723    588.92508    39359.762 
  664500    299.12738   -1499.3394    492.98332    335.56495    359.79378    39359.762 
  664600    304.74758   -1480.1172    470.36769    357.38444    149.76682    39359.762 
  664700    294.17881   -1467.1841    464.91879    317.45591   -626.88657    39359.762 
  664800    297.63953   -1446.3147    492.41053    381.34219   -299.41707    39359.762 
  664900    298.74726   -1454.2786    457.25034    343.18757    -233.3947    39359.762 
  665000     304.9824   -1480.8304    509.35111    396.70808   -97.456468    39359.762 
  665100    307.54172    -1490.544    452.66747    341.79225   -656.72616    39359.762 
  665200    287.90316   -1503.9788    476.88887    264.47799   -88.499605    39359.762 
  665300    292.63045    -1488.757    466.56307    290.58113   -55.199243    39359.762 
  665400     291.1078   -1532.1375    457.26163    231.06844   -700.67836    39359.762 
  665500    310.80443   -1503.4082    471.27452      362.172   -118.97567    39359.762 
  665600    298.42133   -1484.7014    463.27709     317.3293   -341.93272    39359.762 
  665700    300.46528   -1463.1695    485.39636    370.14986   -341.99134    39359.762 
  665800    299.67507   -1486.4625    469.73866    327.65423   -177.06137    39359.762 
  665900     309.1879   -1495.6553    485.82203    377.22043   -278.13073    39359.762 
  666000    298.04887   -1506.9923     448.7804    278.87082    146.56195    39359.762 
  666100    303.28341    -1508.481    482.44069    334.52519    138.64824    39359.762 
  666200    298.77256    -1512.268     466.3767    294.43801    84.035739    39359.762 
  666300    295.85423   -1493.8248    464.22971    297.64226    311.87982    39359.762 
  666400    305.00462    -1552.249    440.05505    256.09314    140.34203    39359.762 
  666500    296.26698   -1553.9767    457.46058    232.57283    22.543415    39359.762 
  666600    309.99845   -1535.0066    483.71882    339.40222    184.01494    39359.762 
  666700    288.75838   -1518.8202    464.86779    241.45202    617.15447    39359.762 
  666800    308.70439   -1484.9946    478.65026     378.5403      291.075    39359.762 
  666900    306.19737   -1501.0791    495.03401    367.59276     276.1105    39359.762 
  667000    293.16328   -1506.4024    439.96361    248.72656   -170.30909    39359.762 
  667100    296.48688   -1507.4304    455.19234    277.83745   0.37145708    39359.762 
  667200    300.22286   -1515.6045    446.59721    277.82818    -310.8969    39359.762 
  667300    299.52578   -1518.7558    455.00051    279.95302    361.70801    39359.762 
  667400    303.46545   -1501.5573    484.84905    344.67392    142.35734    39359.762 
  667500    297.60249   -1518.0479     466.9356    283.96787    165.00489    39359.762 
  667600    288.41451   -1477.1512    465.98209    282.69273    224.35751    39359.762 
  667700    306.11542   -1522.4679    461.15342    311.95573    351.67259    39359.762 
  667800    296.30499   -1534.7373    477.97084    272.49302    81.591137    39359.762 
  667900    296.18868   -1536.9894    455.57778    247.32609     270.6358    39359.762 
  668000    319.38675   -1512.9096    473.76354    393.66093   -140.51279    39359.762 
  668100    300.35791   -1542.5744    464.09075    268.95769    44.960952    39359.762 
  668200    290.70515   -1492.7903    450.18606    261.53367    -266.8978    39359.762 
  668300    307.60791   -1504.3314    463.95382    339.58809    204.07106    39359.762 
  668400     295.4758   -1516.5328    467.09007    276.09694    224.62995    39359.762 
  668500    303.75471   -1543.0456    460.37693    280.01114    652.61478    39359.762 
  668600     295.3896   -1527.7167    437.40284    234.83909    513.69287    39359.762 
  668700    301.84664   -1482.1765    483.46631    355.40984   -79.577552    39359.762 
  668800    294.92963   -1501.8502    445.73262    266.97191   -396.68577    39359.762 
  668900    294.16041    -1536.008     454.3031     237.9337    175.51753    39359.762 
  669000    299.96533   -1561.1305    490.09889    274.64858    279.86898    39359.762 
  669100    298.60573   -1505.3763    455.48397    289.68855   -306.36003    39359.762 
  669200    296.91198   -1488.5007    475.75137    319.23312    -643.9926    39359.762 
  669300    310.19932   -1524.5345     466.7683    333.82492   -262.44572    39359.762 
  669400    301.17927   -1499.4626    464.29711     315.9606   -484.21291    39359.762 
  669500    299.85109   -1495.0153     496.9156    347.06796   -450.67598    39359.762 
  669600    300.22541   -1514.2904    461.38903    293.94558   -164.60952    39359.762 
  669700    295.91566   -1491.2635     465.1282    301.37763   -716.64955    39359.762 
  669800    298.00508   -1485.2983    468.45345    320.04146    -721.2043    39359.762 
  669900    303.30328   -1515.2065    473.59231     319.0404   -243.53142    39359.762 
  670000    309.09622   -1507.8005    471.65444    350.49636   -222.47467    39359.762 
  670100    301.45418   -1504.6312    473.44201    321.17015    68.033639    39359.762 
  670200    302.66348   -1485.3383    476.80963    349.25573    145.65362    39359.762 
  670300    297.94598   -1472.2214    462.29983    326.69959   -205.67584    39359.762 
  670400    309.83577   -1448.8021    494.05554    435.21362   -165.48724    39359.762 
  670500    297.84704   -1470.7961    448.44963    313.83086   -622.08824    39359.762 
  670600    299.76896   -1465.0095    468.64563    348.43534   -148.13169    39359.762 
  670700    301.53777   -1475.9482    489.42771    366.21392   -466.51925    39359.762 
  670800    302.29593   -1471.8308    476.18019    360.48493   -101.01581    39359.762 
  670900    300.65275   -1478.3927     481.9128    352.28416   -330.60034    39359.762 
  671000    305.81769   -1473.8514    472.26095    370.34415   -440.73862    39359.762 
  671100    310.06413   -1517.4441    475.25664    348.79714   -451.29069    39359.762 
  671200    294.76366   -1468.1887    453.56375    307.71995   -542.37971    39359.762 
  671300    307.40026   -1433.1579    483.75933    429.63561   -246.30577    39359.762 
  671400    298.30317    -1422.883    480.67423    396.01479   -414.89875    39359.762 
  671500    294.44196   -1458.5074    470.20085    332.59516   -678.25141    39359.762 
  671600     308.6436    -1521.062    482.07072    345.62066   -61.190367    39359.762 
  671700    297.33607   -1484.2892    482.38671    331.98254   -44.174883    39359.762 
  671800    303.33584   -1520.3864    486.53307    326.94742   -347.75794    39359.762 
  671900    304.98699   -1500.2402    458.61246    326.58027    13.768868    39359.762 
  672000    301.19027   -1507.1764    456.47483    300.47383     401.9879    39359.762 
  672100    294.09154   -1505.0785     461.9582    276.20938     247.1867    39359.762 
  672200    298.04251   -1471.1548    498.97439    364.87384    462.32091    39359.762 
  672300    301.57024   -1482.7616    459.88185    330.00034    612.77244    39359.762 
  672400    307.16325   -1504.2034    482.72772    356.49526    227.07562    39359.762 
  672500    293.77012   -1476.9833     488.6428    329.54728   -201.34497    39359.762 
  672600    296.25064   -1495.0166    450.51487    284.51398   -181.02728    39359.762 
  672700    302.74592   -1458.8151    479.34583    378.68505   -4.8815964    39359.762 
  672800     305.9956   -1461.1306    473.20267    384.80475   -469.38561    39359.762 
  672900    293.36228   -1456.7544    457.11118    316.41489   -748.64373    39359.762 
  673000    294.26605   -1472.9219    434.01591    281.20655   -832.79334    39359.762 
  673100    295.61095   -1458.6436    494.28489    361.78726   -183.90318    39359.762 
  673200     285.4633   -1424.9204    471.11496    326.81696    -389.4904    39359.762 
  673300    318.41975   -1446.5636    499.45615    481.36151   -0.9651803    39359.762 
  673400    304.55035   -1489.7087    462.57769    339.11816     92.10202    39359.762 
  673500    310.45428    -1480.963    483.95374    395.72565   -270.15797    39359.762 
  673600    304.71443   -1465.3513    520.78639    422.42028   -459.15686    39359.762 
  673700     290.3551   -1404.6975    487.20871    385.07876   -767.97229    39359.762 
  673800    302.16349   -1440.3444    495.53899    410.73603   -927.13559    39359.762 
  673900    297.31847    -1417.686    491.98148    408.10158    -443.8363    39359.762 
  674000    310.79268   -1413.0823    480.64236    461.81303   -220.24327    39359.762 
  674100    302.64802   -1447.6253    477.46094    387.55071   -364.65156    39359.762 
  674200    310.44034   -1450.6705    477.43547    419.43738   -430.97186    39359.762 
  674300    301.68842    -1382.998    517.41042    487.82262    463.29212    39359.762 
  674400    294.76156   -1396.5013    528.05363    453.88778    229.59618    39359.762 
  674500      303.678   -1431.8729     499.1286    429.59132    328.42293    39359.762 
  674600    306.06786   -1421.8999    513.95528    465.11229    753.58414    39359.762 
  674700    296.51447   -1420.1358    517.39949    427.46289    258.74961    39359.762 
  674800    302.88128   -1415.8996     480.0784    422.94028    309.89993    39359.762 
  674900    293.07484   -1412.1626    508.13714    410.74318   -23.443664    39359.762 
  675000    302.96388   -1456.2114    496.22774    399.14839   -20.535138    39359.762 
  675100    296.83305   -1440.7204     471.7613    362.66937    495.23804    39359.762 
  675200    294.00274   -1452.4845    482.24192    348.68868    2.2766898    39359.762 
  675300    310.13047   -1466.9202    488.27961    412.64163    258.49428    39359.762 
  675400    305.76493   -1448.6093     477.4203    400.50893   -106.24962    39359.762 
  675500    293.13643   -1467.2902    473.40005     321.1548   -548.49117    39359.762 
  675600    303.92972   -1517.6539    473.40965    319.22065   -785.22446    39359.762 
  675700    295.00177   -1511.1973    455.41442    267.63026   -637.22673    39359.762 
  675800    305.08736   -1520.3261     472.5963    320.92845    49.362586    39359.762 
  675900    298.07645   -1519.7937    516.84376    334.25655   -124.95068    39359.762 
  676000    295.18367   -1483.6725    481.45063    322.00722   -256.88601    39359.762 
  676100    306.31345   -1507.5307    487.55214    354.18002   -853.73157    39359.762 
  676200    303.79253   -1454.2439    448.24613    356.85176   -716.44006    39359.762 
  676300    300.26626   -1431.0465    510.46967    426.45344     -211.413    39359.762 
  676400    300.85861   -1424.1347    494.07833    419.63119   -232.55284    39359.762 
  676500    297.17701   -1448.8393    471.13854     355.4707   -558.09179    39359.762 
  676600    292.89877   -1449.9786    476.81231    340.81252     -273.486    39359.762 
  676700    289.30677   -1472.5244    472.46644    297.80666    -351.2623    39359.762 
  676800    266.81339   -1443.7666    540.83541    294.02548   -969.52333    39359.762 
  676900    299.98917   -1480.5273     467.9957    333.25558    -721.0597    39359.762 
  677000    297.46322   -1470.5876    495.69377    359.56158   -478.41186    39359.762 
  677100    293.81662   -1482.9973       487.24     322.3391   -425.47567    39359.762 
  677200    305.92255    -1455.683    494.19298    410.91496   -305.34784    39359.762 
  677300    302.12722   -1486.5484    497.63021    366.46049   -78.367935    39359.762 
  677400    296.89988   -1486.7073    468.63212    313.85308    18.318334    39359.762 
  677500    302.84773   -1459.7856    496.28893    395.11431    189.77361    39359.762 
  677600     296.0111   -1479.8766    490.96361    339.02805   -51.410532    39359.762 
  677700     302.2765   -1450.3314    491.48592    397.20288    67.503155    39359.762 
  677800    290.56763   -1464.3312     490.2294     329.4192   -261.29515    39359.762 
  677900    311.07625   -1460.1565    479.86134    415.22994    57.738772    39359.762 
  678000    308.44924    -1461.659    495.78618    417.86724    272.52534    39359.762 
  678100    296.29019   -1488.3333    476.04382    316.90358    23.682097    39359.762 
  678200     303.7666   -1517.0169    490.32648    336.04278    131.62013    39359.762 
  678300    292.58543   -1505.3867    490.11503     297.3014   -153.59438    39359.762 
  678400    299.08316   -1515.3893    453.49508    279.82852   -432.70945    39359.762 
  678500    296.81206   -1489.7857    493.04631    334.79489   -1008.1996    39359.762 
  678600    303.64072   -1497.1706    485.35778    350.35567   -629.63676    39359.762 
  678700    289.38139   -1471.5888    485.82311    312.43365   -557.05954    39359.762 
  678800    285.52201   -1536.8111    480.91628    224.99096   -431.28769    39359.762 
  678900    299.27175   -1548.1262    440.12855    234.57103   -669.68897    39359.762 
  679000    303.55863   -1512.7983    477.55564    326.55752 -0.013786558    39359.762 
  679100    303.80314   -1501.7996    482.78571    343.88317    211.29506    39359.762 
  679200    295.41136   -1491.9586    497.81528    331.10718   -17.043651    39359.762 
  679300     290.9952   -1470.1669    469.39776    304.66995     443.2595    39359.762 
  679400    304.74372   -1471.5567    498.65199    394.21187   -11.464784    39359.762 
  679500     304.1933   -1468.2155    473.55996    369.99186   -301.40095    39359.762 
  679600    294.25554   -1503.3139    476.38577    293.13728    201.47417    39359.762 
  679700     299.2426    -1463.688    503.17989     381.9299   -369.07669    39359.762 
  679800    300.87392    -1478.059    492.87569    364.57296   -760.87951    39359.762 
  679900    294.98663   -1461.1314    503.74983    365.96357   -207.05067    39359.762 
  680000    295.80657   -1486.5785     479.9178    320.36278   -195.60279    39359.762 
  680100    300.30551   -1489.0331    486.09329    344.26644    499.92497    39359.762 
  680200    292.21738   -1511.8449    452.29453    251.37165    5.1620023    39359.762 
  680300    313.62082   -1517.2762    480.22734    369.89146    342.63643    39359.762 
  680400    294.07079   -1510.8625    478.83243    287.20652    413.21156    39359.762 
  680500    291.39454   -1482.5187    488.05665    312.76863    779.70725    39359.762 
  680600    292.57062   -1487.5577    443.95971     268.9087    261.76799    39359.762 
  680700     293.8516   -1503.3045    494.69335    309.64216   -459.76931    39359.762 
  680800    296.61709   -1471.4401    460.50854      319.728   -77.215886    39359.762 
  680900    293.31483   -1522.4662    481.16259    274.54165   -717.34996    39359.762 
  681000    305.80957   -1514.4976    473.97895    331.37947   -414.98336    39359.762 
  681100    298.06218   -1510.8503    485.56666    311.85885   -326.15651    39359.762 
  681200    308.88265   -1469.9342    480.90249    396.65259   -761.66921    39359.762 
  681300    291.43922   -1481.9369    479.90938    305.40356   -561.93256    39359.762 
  681400    301.80135   -1501.4615    475.32542    327.78076   -665.09916    39359.762 
  681500    287.97757   -1487.1416    463.95971    268.71982   -432.33043    39359.762 
  681600    298.12221   -1440.3887    465.01962    362.04269   -76.221056    39359.762 
  681700    305.48285   -1488.0834    501.72022    384.06929   -79.097936    39359.762 
  681800    306.26534   -1471.0227    491.52217    394.44231   -76.961317    39359.762 
  681900    308.41477   -1528.8276     474.1025    328.86031    429.23381    39359.762 
  682000    299.10505   -1470.8142    503.14007    374.14675    936.11001    39359.762 
  682100    304.42085   -1465.2187     458.9157    359.36516    466.65025    39359.762 
  682200    314.12355   -1489.9036    481.36717    400.65927   -73.720136    39359.762 
  682300    293.67077   -1502.1118    472.40673      287.737    183.61087    39359.762 
  682400    297.16428   -1560.3912    490.65374    263.37686    324.07507    39359.762 
  682500      303.527   -1519.5947    484.64372    326.70726    -42.95084    39359.762 
  682600    305.72116   -1521.1636    451.77024    302.10815   -289.21855    39359.762 
  682700    299.78557   -1537.8529    473.48493    280.50583    211.81874    39359.762 
  682800    296.75545    -1518.255    487.57689    300.60222    37.216737    39359.762 
  682900    297.31992   -1512.0673    480.19931    301.94455    373.41381    39359.762 
  683000    302.32288   -1548.7291    461.20091    268.72827    23.533348    39359.762 
  683100     305.4049   -1525.4808    502.32218    346.92418    31.151436    39359.762 
  683200    294.75563   -1511.4336    474.71853    285.59378   -143.11237    39359.762 
  683300    297.05324   -1524.1897    472.66405    281.09058    179.13869    39359.762 
  683400    300.66193   -1551.2545    461.79014    259.34088    535.30322    39359.762 
  683500    297.26959   -1519.8082    498.60279    312.38141   -54.916193    39359.762 
  683600    305.40492   -1505.1073     505.4468    370.42232     118.4675    39359.762 
  683700     307.8691   -1557.2418    466.74614     290.6418   -159.10521    39359.762 
  683800    313.59322   -1556.3913    458.99196    309.41723   -137.36425    39359.762 
  683900    293.32031   -1522.8196    483.69031    276.74061   -508.23175    39359.762 
  684000    302.17202   -1485.3984    491.13976    361.32101   -690.39781    39359.762 
  684100    295.95239   -1508.2474    461.77921    281.20948   -167.39463    39359.762 
  684200    287.23865   -1473.2764    489.07379    304.38417   -159.86766    39359.762 
  684300    293.97837   -1451.7951    470.53607    337.56299    135.78778    39359.762 
  684400    305.86265   -1493.4491    492.10748    370.79464    186.31666    39359.762 
  684500    300.23824   -1478.3392    493.89359    362.45892     50.10955    39359.762 
  684600    299.40456   -1463.0104    483.78223    363.93635    59.435688    39359.762 
  684700    292.79886   -1500.9811    480.64512    293.19455    41.908114    39359.762 
  684800    310.88253   -1510.5232    448.21381    332.34673   -298.16602    39359.762 
  684900    295.44992   -1511.6038    476.84708    290.66684   -353.03785    39359.762 
  685000    289.52034   -1503.9584    468.58583     263.4501   -631.23128    39359.762 
  685100     302.0914   -1498.7376    473.54168    330.02211   -366.81825    39359.762 
  685200     310.0921   -1510.5729    471.35149    351.88864    99.104056    39359.762 
  685300    310.94616   -1486.9431    500.98141     408.9798    376.74279    39359.762 
  685400    307.06202   -1489.5448    470.70231    358.67428    451.74327    39359.762 
  685500    288.45991   -1537.6813    516.87951    273.26368    510.82595    39359.762 
  685600    308.60405   -1554.4188    427.28644    257.30214     111.4782    39359.762 
  685700    303.09414   -1553.3614    483.19723    289.55222    59.501762    39359.762 
  685800    294.75475    -1549.289    458.88643    231.90233   -56.988792    39359.762 
  685900    299.77305   -1520.9258     487.7633    311.65515    785.15942    39359.762 
  686000    298.76504   -1522.8334    466.98322    284.44544     363.5557    39359.762 
  686100    310.44855   -1520.5195    478.90217    351.09185    469.11349    39359.762 
  686200    296.54626   -1502.7813    444.94569    272.50624   -32.283613    39359.762 
  686300    310.54553    -1522.684    480.32805    350.78827    9.8142238    39359.762 
  686400    308.48129   -1478.4357    514.17331    419.62143    413.40883    39359.762 
  686500    285.00005   -1461.6341    460.94991    277.85996    320.41702    39359.762 
  686600    301.39796   -1458.5575    479.27861    372.82831    86.724176    39359.762 
  686700    301.17717   -1482.2123    486.32603    355.23038     121.9187    39359.762 
  686800    301.09213   -1479.3486    482.14045    353.52702    330.79011    39359.762 
  686900    300.39023   -1467.2683     485.3643    365.68238   -147.28624    39359.762 
  687000    303.38398   -1447.0133    479.40995    393.41335   -696.04319    39359.762 
  687100    293.20902   -1495.0847    476.92076    297.20663   -974.79567    39359.762 
  687200    304.64978   -1468.2606    473.00921    371.44377   -757.37934    39359.762 
  687300    307.77506   -1478.6492    480.61569     382.6821   -294.91768    39359.762 
  687400    302.49574   -1473.0513    471.95382     355.9344   -629.37144    39359.762 
  687500    286.98206   -1472.9794    484.89593    299.35224   -157.33608    39359.762 
  687600    295.06398   -1516.6628    486.50036    293.52974    17.237885    39359.762 
  687700    310.86941   -1533.1592    471.10259    332.54056    229.63965    39359.762 
  687800    297.72277   -1496.5922    456.91104     295.9386   -261.26645    39359.762 
  687900    305.28064   -1495.7879    464.23852    337.97595   -341.50907    39359.762 
  688000    307.94966   -1523.2311    457.62273    315.89051    315.52566    39359.762 
  688100    314.85923   -1496.2669     473.4574    389.68651    251.34948    39359.762 
  688200    308.15077   -1513.4823    441.43533    310.35406   -91.336278    39359.762 
  688300    303.65685   -1476.6687    499.24138    384.81349   -355.87566    39359.762 
  688400    294.69814   -1525.7918    472.69942    268.95856   -39.537908    39359.762 
  688500    296.67285   -1507.4426    479.45276    302.91988   -104.82669    39359.762 
  688600    298.64897   -1483.1674     478.0511    334.65853    566.86851    39359.762 
  688700    295.74232   -1526.9209    477.22705    277.04143    126.93209    39359.762 
  688800     299.7301   -1509.5261     465.1676     300.2664    183.82965    39359.762 
  688900    302.86331   -1492.0812    470.38944    336.98912    145.31975    39359.762 
  689000    293.43134   -1532.1632    464.42761    248.63238    264.29297    39359.762 
  689100    302.30204   -1522.0931    467.63013    301.69998    380.41958    39359.762 
  689200    303.83212   -1562.4278    459.37817    259.97743    598.14861    39359.762 
  689300    310.12391   -1540.1457    490.82342    341.93058    565.48059    39359.762 
  689400    292.60129   -1490.8365    485.30303     307.1108   -165.64105    39359.762 
  689500    304.99006   -1531.5035    466.93471    303.65294    218.73362    39359.762 
  689600    295.99142   -1528.9479    460.07668    258.98153   -408.07007    39359.762 
  689700    292.86498   -1529.3922    480.11819    264.55318    200.41187    39359.762 
  689800    294.00261   -1574.9222    470.17776    214.18634   -217.74506    39359.762 
  689900     302.0555   -1540.3493    462.68553    277.39315   -353.59859    39359.762 
  690000    284.27538   -1515.1725    479.21718    239.33787   -616.28176    39359.762 
  690100    296.80084   -1521.9797    463.55407    273.05826    2.4282901    39359.762 
  690200    291.82436   -1508.7595    453.98543    254.38476    71.040465    39359.762 
  690300    305.69068   -1534.8452    490.62701    327.14668    423.94538    39359.762 
  690400    290.94813   -1485.6078     508.0786    327.69877    212.55216    39359.762 
  690500    297.57029    -1480.435    470.22999    324.73075   -593.89516    39359.762 
  690600    309.73424   -1539.4386    474.75553    324.82165    108.11396    39359.762 
  690700    294.85789    -1573.679    449.63597    198.72457   -793.86054    39359.762 
  690800    290.14896   -1570.6824    492.43708     223.3975   -329.67802    39359.762 
  690900    302.86509   -1498.5894    463.35572     323.4552   -689.30141    39359.762 
  691000    299.41929   -1517.6637    463.63482    289.20174   -998.71667    39359.762 
  691100     299.1073   -1543.0924    470.76372    269.50233   -530.79325    39359.762 
  691200    319.05653   -1519.0286    507.08314    419.38013   -994.48681    39359.762 
  691300     295.9946   -1486.7326     471.9011    313.03552   -1026.4773    39359.762 
  691400    285.02879   -1483.1187    486.73279    282.28725   -465.53643    39359.762 
  691500    301.21648   -1508.3269    475.78339    318.74945    50.546255    39359.762 
  691600    297.73406   -1513.0692    506.54029    329.14156   -55.024198    39359.762 
  691700    292.01335   -1540.9779    498.94411    267.97288    193.72313    39359.762 
  691800    302.17925   -1504.0833    481.14779    332.67659    679.87124    39359.762 
  691900    301.24288   -1510.5115    496.37832    337.27823    282.22863    39359.762 
  692000    296.25149   -1479.0786    496.59947    346.54038    387.90799    39359.762 
  692100     303.4091   -1493.2078    487.80908    355.73061    275.77559    39359.762 
  692200    300.22967    -1489.289    489.88815    347.46518    38.172224    39359.762 
  692300    316.89373   -1458.5828    453.71324    416.75351    238.32825    39359.762 
  692400    295.47688   -1489.9614     502.1226    337.70562   -280.46661    39359.762 
  692500    297.50769   -1482.3447    468.34139    320.65165   -589.88623    39359.762 
  692600    298.87739   -1480.9633    481.65196    341.48824   -132.16692    39359.762 
  692700    298.13515   -1466.1448    488.41043    359.73542   -351.62538    39359.762 
  692800    298.99124   -1530.8546    479.66553    290.12123    33.050574    39359.762 
  692900    303.99993   -1538.5937    475.97325    301.15944    -527.5849    39359.762 
  693000    302.16991   -1544.1084    487.90807    299.36986   -257.73787    39359.762 
  693100    306.61005   -1538.7302    449.86301    286.62205    240.98932    39359.762 
  693200    307.59797   -1574.5768    471.10098    276.44533    503.12772    39359.762 
  693300    298.95015   -1621.9819    471.94863    191.09266    677.57731    39359.762 
  693400    309.87646   -1550.4337    471.74958    311.45857    319.61568    39359.762 
  693500    305.04139   -1537.6616    479.87451    310.66494   -147.54881    39359.762 
  693600     310.3844   -1503.1245    480.93549    370.23238    42.102316    39359.762 
  693700    300.06406    -1501.861     472.4832    316.74532    269.27774    39359.762 
  693800    307.29318   -1563.8746    504.82564    319.50488    113.34974    39359.762 
  693900    294.84646   -1518.4329    479.19511    283.47857    241.69152    39359.762 
  694000    301.51421   -1476.2369    500.85524    377.24705    59.555126    39359.762 
  694100    294.52603   -1500.1776    510.38174    331.48299   -73.054767    39359.762 
  694200    304.19661   -1520.1475    504.44322    348.95791    266.53543    39359.762 
  694300     312.3051   -1476.4383    496.01567    420.61529   -148.05333    39359.762 
  694400    298.32564     -1493.28    493.45946     338.5038   -405.26714    39359.762 
  694500    297.07046   -1518.6113    466.55282    280.63501    -448.4748    39359.762 
  694600    300.47867    -1455.319    520.69338    413.35744   -390.74332    39359.762 
  694700    308.61503    -1517.441    489.19195    356.23472   -46.483199    39359.762 
  694800    309.45412   -1509.6147    468.59719    347.23048   -524.77711    39359.762 
  694900    296.76005   -1497.2333    474.84057    308.90819   -144.45385    39359.762 
  695000    304.76611   -1515.0457    488.16764    340.33906   -119.39673    39359.762 
  695100    297.48046   -1481.0744    469.94979    323.40814   -534.52071    39359.762 
  695200     296.9632   -1519.1354    476.08731    289.16417   -586.75179    39359.762 
  695300    307.81973   -1481.2662    454.84939    354.49916   -664.03218    39359.762 
  695400     301.1811   -1487.3252    504.68975     368.4989   -210.96387    39359.762 
  695500    299.48842   -1480.5287    470.12921    333.14129    -209.1927    39359.762 
  695600    312.46473   -1488.9164    471.75043    384.58802    -493.9558    39359.762 
  695700    301.32879   -1479.8241    479.45521    351.42791   -454.80143    39359.762 
  695800    301.18272    -1513.369     488.9536    326.72613     28.92009    39359.762 
  695900    294.19129   -1512.6299    487.19081    294.33813   -246.40575    39359.762 
  696000    290.91406   -1483.4006    477.42306    299.09761    20.702631    39359.762 
  696100    301.38412   -1507.7496    491.47829    335.77373   -304.67137    39359.762 
  696200    293.17128   -1481.6106    469.78282     303.3735   -143.82166    39359.762 
  696300    307.19133   -1457.2364    504.30127    425.16173    636.63626    39359.762 
  696400     299.1476   -1484.4523    499.58204     357.1415    401.30683    39359.762 
  696500    311.23204    -1492.728    459.72483    363.22086   -288.93626    39359.762 
  696600    290.33176   -1481.1503    491.79145    313.10402     26.65451    39359.762 
  696700    308.89737   -1439.9489    472.56847    418.36995   -477.60433    39359.762 
  696800    307.26899   -1416.3864    488.14282    450.20168   -634.69999    39359.762 
  696900     301.3325   -1468.8646    494.96761     377.9165   -513.02456    39359.762 
  697000    301.76737   -1464.4348    482.15701    371.48661   -222.70556    39359.762 
  697100     304.8865   -1474.6305    467.00409    360.13073   -29.906181    39359.762 
  697200    295.95489   -1495.1603    487.87292    320.40148   -515.24112    39359.762 
  697300    295.00262   -1527.0545    464.92075    261.28318   -218.30186    39359.762 
  697400    302.90921    -1518.433    479.16875    319.62255   -348.75364    39359.762 
  697500    298.82428   -1490.3295     444.4316    294.66343   -66.393694    39359.762 
  697600    305.20794   -1518.7048    464.42653    314.92093   -153.22394    39359.762 
  697700    295.49431   -1574.7731    480.50118    231.35071    188.50035    39359.762 
  697800    302.10965   -1564.3218    459.11524    250.09335    272.10411    39359.762 
  697900    287.90338   -1567.5405    463.29622    187.32462    145.80168    39359.762 
  698000    290.69849   -1561.7925    460.73094    203.04651    67.017248    39359.762 
  698100    296.52067   -1533.4031     459.7331    256.55701   -320.41867    39359.762 
  698200    307.99057   -1547.5884     479.4988    313.59278   -667.61694    39359.762 
  698300    305.05149   -1494.6634    453.93391    327.76785   -594.32902    39359.762 
  698400     301.3761     -1471.58      463.666    344.09504   -216.24815    39359.762 
  698500    300.85023   -1523.2278    472.53681    298.95896   -297.37411    39359.762 
  698600    295.81139   -1503.1671    464.93626    288.81431    362.79391    39359.762 
  698700    303.05203   -1494.1876     463.6375    328.97743   -23.715837    39359.762 
  698800    304.02849   -1508.7006    505.19986     360.4073     113.0772    39359.762 
  698900    300.51471   -1493.5346    476.69538    331.30561     44.73996    39359.762 
  699000    292.03286   -1486.2766    462.49576    286.31332   -116.27897    39359.762 
  699100    304.40819   -1508.9333    505.42948    362.10758    11.757344    39359.762 
  699200    303.01432   -1495.3875    482.65331    346.62418   -311.72247    39359.762 
  699300    300.78101   -1487.5043    477.67793    339.51306   -931.50094    39359.762 
  699400     291.9768   -1477.3019    464.78067    297.32152   -914.72571    39359.762 
  699500    311.38879   -1535.0541    488.21694       350.09   -1263.5033    39359.762 
  699600     293.6101   -1476.0203    455.92655    297.07617   -891.11594    39359.762 
  699700    298.07441   -1485.4553    456.58237     308.3244   -379.66704    39359.762 
  699800    305.33759   -1506.3529    460.18522    323.61308   -222.38688    39359.762 
  699900    307.80336   -1519.6163    479.88182    341.10812     295.0795    39359.762 
  700000    307.89491   -1481.3393    487.68099     387.5949    54.561991    39359.762 
  700100    303.76728   -1468.3481    464.29447    358.68261   -238.29168    39359.762 
  700200    294.61563   -1475.5768    464.22276     310.3268   -18.015576    39359.762 
  700300      309.618   -1478.8454    487.55276     397.6906    21.748824    39359.762 
  700400    297.57103   -1518.6372    482.78267    299.08455   -143.87245    39359.762 
  700500    292.36187   -1468.2609     493.3133    336.62257    443.23801    39359.762 
  700600    289.54813   -1484.5795    464.11722    278.48512    32.881846    39359.762 
  700700    304.30126    -1502.745    465.19147    327.57816   -214.66751    39359.762 
  700800    304.40315   -1494.7542    490.20811    361.04271    32.818377    39359.762 
  700900    296.74719    -1500.692     468.6068      299.158   -313.45493    39359.762 
  701000    295.74063   -1447.7538    468.76747    347.74138      -300.71    39359.762 
  701100    302.46985    -1469.917     492.7297     379.7285   -196.85452    39359.762 
  701200    296.85683   -1450.9613    474.03009    354.80392   -540.35833    39359.762 
  701300    298.80649   -1416.5306    473.90165    397.85259   -286.30071    39359.762 
  701400     290.8462   -1476.6388    503.05896    331.19083   -266.02047    39359.762 
  701500    309.34781   -1466.2319    463.74595    385.28516   -686.00392    39359.762 
  701600    304.33476   -1451.7706    473.44055     386.9519   -273.71497    39359.762 
  701700    310.16886   -1456.3671     501.4559    436.54325   -373.44128    39359.762 
  701800    294.28194      -1446.1    483.46178     357.5456   -441.17333    39359.762 
  701900    310.69065   -1501.7699    484.71555     376.7409      -11.543    39359.762 
  702000    290.87413   -1447.2025     489.1399    346.83342    113.29718    39359.762 
  702100    309.57044   -1470.9887     485.5908    403.37202    245.86668    39359.762 
  702200    303.40062   -1467.3957    482.30064    375.99623   -203.50359    39359.762 
  702300    303.56794   -1474.8758    464.27115    351.23729   -475.00041    39359.762 
  702400    303.82989   -1469.9679    480.44156    373.49074    379.45513    39359.762 
  702500    292.40175   -1511.4661    470.63772    270.92073    603.17951    39359.762 
  702600    298.27232   -1527.7111    470.66752    281.04153     2.165626    39359.762 
  702700    294.06138   -1512.3869     495.9464    302.75391   -140.18609    39359.762 
  702800    305.75134   -1539.7597    495.24704    327.12427    434.79711    39359.762 
  702900    299.60216   -1560.9953    448.66661    231.72235    131.64744    39359.762 
  703000    304.05952   -1509.0634    463.07559    318.05944    285.65671    39359.762 
  703100    297.11342   -1476.8399    460.54214    316.58844   -240.45247    39359.762 
  703200    303.60275   -1481.0508    480.25705    361.20436   -328.49839    39359.762 
  703300    299.90373   -1483.0406    471.75863    334.12193   -307.78206    39359.762 
  703400    298.11671   -1486.5007    464.75524    315.64164    196.06725    39359.762 
  703500    302.45865    -1491.644     489.0791    354.30065   -52.773524    39359.762 
  703600    294.05708   -1483.1764    482.64869    318.64735    168.73683    39359.762 
  703700    294.70503   -1508.0299    457.02019    271.07216    189.45166    39359.762 
  703800    309.38683   -1489.4856    493.53043    391.99101    699.70621    39359.762 
  703900    299.23771   -1505.0381    454.60629    291.98419    130.43262    39359.762 
  704000    299.78643   -1504.2855    458.42075    299.01294   -121.74626    39359.762 
  704100    303.04154   -1491.2202    479.40393    347.66418   -390.24899    39359.762 
  704200    291.38814   -1486.6677    461.20835    281.74252   -126.82921    39359.762 
  704300    306.27259    -1477.352    482.04764    378.67094    165.10894    39359.762 
  704400    294.12059   -1480.0317    480.83859    320.26685   -79.372013    39359.762 
  704500    292.73322   -1464.4497    440.99231    289.77871    129.92946    39359.762 
  704600    292.19637   -1477.6473    481.98962    315.17001   -248.24233    39359.762 
  704700    297.58504   -1503.4422     449.2041    280.76381   -623.04981    39359.762 
  704800    297.76155    -1475.701     482.9951    343.08787   -609.74448    39359.762 
  704900    309.17992   -1483.8538    473.86148    377.02561    86.427155    39359.762 
  705000    295.47049   -1499.6022    466.07873    291.99241   -65.594697    39359.762 
  705100    299.89628   -1491.3122    473.11485    327.17307   -434.89933    39359.762 
  705200    301.11837   -1516.8906    458.81515    292.77745   -183.54837    39359.762 
  705300    299.22819   -1481.3916    464.03655    325.01826   -548.20268    39359.762 
  705400    296.26673   -1474.2335    499.50797    354.36232    69.677852    39359.762 
  705500    292.60526   -1462.0909    452.23564     302.8068   -171.73209    39359.762 
  705600    307.16878   -1478.2057    488.48557    388.27557   -55.554493    39359.762 
  705700    293.08822   -1460.3445    484.70789    339.19205   -263.75598    39359.762 
  705800    306.20637   -1469.8105    465.97923    369.84703   -217.70118    39359.762 
  705900    297.91794    -1447.059     447.7765    337.21281   -286.53261    39359.762 
  706000    303.03005   -1479.8894    481.59507    361.13457    -475.1525    39359.762 
  706100    301.30466   -1477.5263    483.50403     357.6663   -365.51918    39359.762 
  706200    298.35284   -1501.5793    461.84832    298.71545   -78.462642    39359.762 
  706300    297.98674   -1533.9886    462.90236    265.71774   -43.568398    39359.762 
  706400    290.93262   -1521.7104    466.69869    250.14665    452.08162    39359.762 
  706500    300.97975    -1515.686    470.24754    304.79252    494.93758    39359.762 
  706600    302.28474    -1521.583    448.65686    283.15919    802.92278    39359.762 
  706700    309.97289   -1494.5779    488.65413    384.65157    265.20687    39359.762 
  706800    290.34862   -1505.8066    468.00457    264.73643    408.50451    39359.762 
  706900    290.38362   -1498.3505    476.77288    281.11792    201.99362    39359.762 
  707000    296.50446   -1498.1375    473.82424    305.84105    279.59551    39359.762 
  707100    306.61664   -1473.6689    468.69913    370.54899    218.53519    39359.762 
  707200    297.55444   -1516.4188    499.86173     318.3076    553.42903    39359.762 
  707300    294.02496   -1493.6177    442.96108    268.37439    773.46428    39359.762 
  707400    299.84132   -1468.7542    506.55047    382.92017     702.6929    39359.762 
  707500    300.98426   -1491.1637    467.49007     326.5776    196.57102    39359.762 
  707600    296.88031   -1489.3534    455.51942     298.0065    518.90474    39359.762 
  707700    302.87149   -1498.9467    480.64424    340.41519    235.29775    39359.762 
  707800     288.4293   -1478.1862     476.8597    292.60173   -81.013075    39359.762 
  707900    297.36794   -1496.6677    477.96065    315.32095   -300.74834    39359.762 
  708000    302.97781   -1475.5852    449.34068    332.95006   -15.422956    39359.762 
  708100     300.7622   -1495.2009    461.03144    315.08555   -286.39668    39359.762 
  708200    291.81818   -1477.2971    474.53773    306.37178   -106.52492    39359.762 
  708300    306.92641   -1485.3191     481.5475    373.13689   -865.89661    39359.762 
  708400    300.35196   -1474.1609    474.22866    347.48246   -610.65628    39359.762 
  708500    295.49475   -1502.7063     441.5375    264.45586   -558.35225    39359.762 
  708600    301.79581   -1480.8996    464.80428    337.79667   -466.93639    39359.762 
  708700    301.80835   -1502.8943    477.22705    328.28091   -83.597267    39359.762 
  708800    304.94734    -1497.086    457.78104    328.72517   -129.94306    39359.762 
  708900    292.42144    -1503.508    494.97029     303.2997   -13.119568    39359.762 
  709000    289.03068   -1489.8261    484.07493    290.87484   -257.75074    39359.762 
  709100    302.46599   -1471.6894    470.79147    356.00055   -252.53596    39359.762 
  709200    297.92758   -1452.5538    472.17527    356.16007   -218.12999    39359.762 
  709300    298.68934   -1450.8086    495.88691    385.03421    73.807557    39359.762 
  709400    296.61911   -1456.4837    448.13974    322.32472    551.87564    39359.762 
  709500    308.21324   -1480.7875    486.18037    388.07413    321.53355    39359.762 
  709600    294.35106   -1443.7709      483.704    360.42698   -453.34172    39359.762 
  709700    307.28037   -1455.6334    472.96701    395.82993    163.35877    39359.762 
  709800    297.77088   -1471.1801    465.83377    330.48928   -327.58325    39359.762 
  709900    285.67449   -1477.6551    479.93026    283.84499   -334.14691    39359.762 
  710000    296.17542   -1421.3224    499.81352    407.16931   -402.20894    39359.762 
  710100    304.35557   -1456.7828    475.48999    384.08257    286.34347    39359.762 
  710200    309.96434   -1439.9536    463.40944    413.99281    303.93638    39359.762 
  710300       293.54   -1457.2113    483.57073    343.21482    269.66441    39359.762 
  710400    292.63901    -1433.412    479.83887     359.2403    192.31469    39359.762 
  710500    302.78984   -1457.7401    458.94484    359.55605   -311.51161    39359.762 
  710600    308.93182   -1415.6122    475.63317    445.92591   -53.141415    39359.762 
  710700    302.52169   -1466.3715     454.4065    345.18337   -42.315062    39359.762 
  710800    293.73981   -1479.0002    493.27115    332.02269   -87.142319    39359.762 
  710900    306.82553   -1454.7683    479.91725    401.60482   -105.81292    39359.762 
  711000    305.49794   -1487.3248    483.90984     367.0852    139.68445    39359.762 
  711100    304.76491   -1485.5659    456.03728    337.68301    48.964695    39359.762 
  711200    298.98939   -1471.6735    455.21352    324.84199    71.568758    39359.762 
  711300    310.61282   -1504.1551    463.93165     353.2227    535.50707    39359.762 
  711400    298.13046    -1511.817    468.68861    294.32038     59.03891    39359.762 
  711500    292.54714   -1471.2296    471.60497    312.77669   -458.98878    39359.762 
  711600    297.28602   -1474.0119    466.41554    326.06413   -639.06382    39359.762 
  711700    297.14132   -1422.9915    490.71791     400.7378   -721.83591    39359.762 
  711800    303.12401   -1441.8752    449.93351    367.90869    -177.9564    39359.762 
  711900    306.36781   -1461.4658    465.87079    378.80748   -71.071538    39359.762 
  712000    297.66349   -1482.1734    487.26444    340.44494    109.77416    39359.762 
  712100    298.18668   -1479.7684    472.79834    330.73089    413.00499    39359.762 
  712200    304.41527   -1531.8509    462.57076    296.36305    102.44389    39359.762 
  712300    314.03382    -1526.588    467.44788    349.65296   -396.53654    39359.762 
  712400    304.95956   -1496.5266    478.76166    350.31997   -300.55272    39359.762 
  712500    297.96197   -1470.1761    471.35413     337.8709   -205.40879    39359.762 
  712600    298.34844   -1497.4627    474.03192    314.99588     -262.199    39359.762 
  712700    298.33251   -1519.3111    465.38207    284.42618   -717.76395    39359.762 
  712800    300.05767   -1539.4483    476.95082    283.59694   -310.15926    39359.762 
  712900    300.81084   -1517.1807     487.3501    319.64266    -201.2589    39359.762 
  713000    292.09132   -1512.9508     480.3595    277.76516    566.75276    39359.762 
  713100    297.10785   -1532.9752    475.96459    275.85059    584.04153    39359.762 
  713200    289.64395   -1508.1773     485.4841    276.68402   -48.016752    39359.762 
  713300    298.24098   -1471.5024    471.51554    337.95773    140.22639    39359.762 
  713400    307.79763   -1495.9611     479.3281    364.18388   -196.10189    39359.762 
  713500     302.6311   -1513.2173    468.45426    312.87613   -1001.1823    39359.762 
  713600     301.9069   -1490.4092    467.12037    331.10152   -500.29656    39359.762 
  713700    294.80468   -1487.0239    481.63918    317.14421   -453.95385    39359.762 
  713800    301.47548   -1498.6403    459.17675    312.99137   -471.14093    39359.762 
  713900    300.66682   -1483.2103    497.26753    362.88442   -160.74937    39359.762 
  714000    297.66586   -1498.4362      497.065    333.99331    164.30232    39359.762 
  714100    305.09119   -1533.0911    467.04785    302.63221    183.19955    39359.762 
  714200    302.79527   -1484.4559    496.42241    370.34219   -126.28214    39359.762 
  714300    308.21494   -1458.9866    473.39673    397.09909      212.372    39359.762 
  714400    307.48255   -1478.1247    470.54561    371.82423   -253.61899    39359.762 
  714500    303.39944   -1471.8848    506.65772    395.85898   -55.841596    39359.762 
  714600    307.58388    -1498.474    452.66608    334.05004    28.726846    39359.762 
  714700    301.65581    -1454.938    486.63542    384.96128    48.477064    39359.762 
  714800    303.37321   -1469.2535    459.38832    351.10317   -130.94344    39359.762 
  714900    299.95036   -1478.1149    465.85519    333.35335   -775.50294    39359.762 
  715000    302.16676   -1480.1708    458.14873    333.53398    11.420017    39359.762 
  715100     306.2478    -1502.088    463.43418     335.2103    158.75812    39359.762 
  715200    293.15877   -1484.1126    476.24932    307.28186      346.973    39359.762 
  715300    295.86378   -1484.7373    479.66468    322.20757    508.63839    39359.762 
  715400     304.2063   -1470.4155    471.05225     365.3424    221.75754    39359.762 
  715500    307.79035   -1490.8702    484.41269    374.32666   -72.069053    39359.762 
  715600    301.23384   -1490.2023    447.63701    308.80557    255.51586    39359.762 
  715700    297.67645   -1474.4008    478.12256    339.13378   -136.07198    39359.762 
  715800    292.86204   -1446.0804    502.32666    370.06029   -130.06188    39359.762 
  715900    296.28108   -1496.1698    484.10868    317.09116   -495.69079    39359.762 
  716000    293.07356   -1425.5217    524.76548     414.0067   -233.83237    39359.762 
  716100    296.99327   -1443.5075    446.93054     335.7702   -188.08719    39359.762 
  716200    306.79632   -1479.7717    506.33213    402.88525     396.1631    39359.762 
  716300      303.844   -1429.8418    492.83117    426.06973    731.20612    39359.762 
  716400    307.61184   -1490.4329    473.08535    362.63585    396.10877    39359.762 
  716500    290.20597   -1512.2161     495.7245    285.40693    224.05037    39359.762 
  716600    301.93587   -1508.4717    507.96088    354.00942   -29.894464    39359.762 
  716700    308.66084   -1522.8806    467.12676    328.93547    155.75666    39359.762 
  716800    307.12597   -1512.5601    479.50432    344.74796   -69.192401    39359.762 
  716900    296.79572   -1525.4087    487.89886    293.95113    10.000407    39359.762 
  717000     298.0864   -1519.3386    484.17324    302.08579    384.38281    39359.762 
  717100    306.35925   -1481.8568    503.05421     395.5615    425.53948    39359.762 
  717200    296.91458   -1494.5638    491.93687    329.36728    310.44684    39359.762 
  717300     303.9442   -1459.5662     469.4714    373.43507  0.025775948    39359.762 
  717400    299.85935   -1503.6352    459.20456    300.77407   -391.13078    39359.762 
  717500    302.18954   -1497.9405    479.29984     337.0176    454.63602    39359.762 
  717600    304.29986    -1510.245    469.73379    324.61425   -161.81427    39359.762 
  717700    307.03101   -1557.3181    489.14654    309.20611   -16.287997    39359.762 
  717800     304.0869    -1520.869    464.19101     307.4921   -33.986123    39359.762 
  717900    297.53273   -1492.7477    464.04667    306.06623   -464.05013    39359.762 
  718000    306.10428   -1492.0802    490.27397    371.41401   -538.63487    39359.762 
  718100    293.93877   -1506.9398      448.573    260.27755   -128.63626    39359.762 
  718200    299.90326   -1498.0595    483.71902    331.06128   -174.37738    39359.762 
  718300    304.13049   -1477.7463    506.08414     392.7035     289.3262    39359.762 
  718400    296.03258   -1514.8074    459.93934    273.16929   -308.30029    39359.762 
  718500    300.93198   -1485.0626    487.84439    352.79851    -164.4367    39359.762 
  718600    307.00834   -1493.6352    471.22326    354.86404   -241.49195    39359.762 
  718700    303.53148   -1509.0646    480.13906    332.75279   -427.08773    39359.762 
  718800     290.3495   -1495.0937    485.56899    293.01768   -154.96964    39359.762 
  718900    310.60121   -1515.7061    475.09823    352.78614    238.13777    39359.762 
  719000    305.63945   -1527.8798     447.6743    290.92946   -78.549865    39359.762 
  719100    297.82426   -1569.2185    457.06468    223.92132    567.57995    39359.762 
  719200    300.08652    -1554.544    468.14427    259.82409    489.75883    39359.762 
  719300    290.15497   -1494.8974    454.85156    261.62395   -280.10492    39359.762 
  719400    318.06117   -1494.1252     482.4743    415.20939    -216.3405    39359.762 
  719500    296.24509   -1477.6265    482.11088    333.47517   -250.87593    39359.762 
  719600    303.14835   -1468.5562    493.37643    384.77982   -444.76388    39359.762 
  719700    295.57561   -1448.5865    500.24344    377.64431   -87.141919    39359.762 
  719800    291.48229    -1499.884    441.45457    249.19482   -650.39452    39359.762 
  719900    307.41772   -1442.9857    482.35932    418.48614    431.37073    39359.762 
  720000     304.1234   -1475.9754    495.21175    383.57016   -73.764066    39359.762 
  720100    294.06351   -1478.0629     485.5633     326.7043   -177.23797    39359.762 
  720200    300.90737   -1445.3212    483.12476    387.70981    119.88401    39359.762 
  720300    289.22434   -1529.2088    479.42089    247.70693   -862.82588    39359.762 
  720400    312.33509   -1486.9612    484.86814    399.07937   -319.54487    39359.762 
  720500    289.53624   -1486.2885    496.69034     309.2959   -398.10393    39359.762 
  720600    312.84657   -1490.8066    485.86709    398.52749   -714.11915    39359.762 
  720700    291.97127   -1511.3697     492.9826    291.43083   -294.75453    39359.762 
  720800    297.40988   -1507.4618    483.33991    310.09424   -150.98751    39359.762 
  720900    288.61724   -1533.2419    497.42489    258.95427   -426.30813    39359.762 
  721000    286.14975   -1515.3692    488.90736    257.24006   -811.72226    39359.762 
  721100    295.26733   -1534.8898    478.44312    268.15776   -499.91143    39359.762 
  721200    286.84937   -1561.2799    456.56394    182.12452   -691.48023    39359.762 
  721300    305.53144   -1522.1285    497.64885    346.17079   -352.49375    39359.762 
  721400    298.22634   -1542.8375    473.36981    268.41122   -797.05904    39359.762 
  721500    300.02748   -1520.5926    491.04801    316.41446   -164.08009    39359.762 
  721600    310.99383   -1545.2312     482.0774    332.00152    29.536532    39359.762 
  721700    301.15971   -1570.9803    477.34806    257.40611   -463.15586    39359.762 
  721800    301.13969   -1544.3735    492.77196    299.34702   -294.68468    39359.762 
  721900    298.49616   -1531.3928    481.08482    288.78135   -435.64662    39359.762 
  722000    304.59955   -1552.2581    473.13401    287.34579   -217.61428    39359.762 
  722100     298.6575   -1505.5367    498.17046    332.44687   -316.59889    39359.762 
  722200    293.34659   -1486.8084    462.62166    291.80099   -534.68852    39359.762 
  722300    309.45054   -1539.7417    470.52237    319.01266    95.273352    39359.762 
  722400    313.56174   -1574.8015    497.88688    329.76067    413.34441    39359.762 
  722500     295.7326   -1575.6661    452.10607    203.13167    48.019633    39359.762 
  722600    296.14907    -1570.917    460.97311     218.6161    52.689035    39359.762 
  722700    307.90711   -1571.1949    492.12848    302.24158    6.7536161    39359.762 
  722800    293.09885   -1580.2921    504.55083    239.13515     517.3728    39359.762 
  722900    300.39905   -1499.8687     485.1121    332.86935   -41.222248    39359.762 
  723000    288.95351   -1538.2936    484.08032     242.0666   -312.07828    39359.762 
  723100    301.43627   -1556.1509     471.3472    267.47527    237.46163    39359.762 
  723200    303.84129    -1539.086    483.89248    307.87476   -596.96993    39359.762 
  723300     295.6767   -1544.0548    461.81248    244.19859   -645.91847    39359.762 
  723400    306.20962   -1569.5463    472.53309    276.67962   -227.53462    39359.762 
  723500    304.98033   -1496.1474    467.36482    339.39554    162.07431    39359.762 
  723600    287.53153   -1596.5602    470.70075    164.04125   -313.02323    39359.762 
  723700    309.53359   -1564.6689    456.55967    280.49531   -62.751919    39359.762 
  723800    297.25675   -1575.2135    460.10011    218.41582   -117.21613    39359.762 
  723900    296.00868   -1575.6457    477.59131    229.87576    -538.4187    39359.762 
  724000    309.81031   -1515.4814    500.80642    375.17098   -242.45911    39359.762 
  724100    298.40464   -1583.2501    484.31715    239.74583   -56.543045    39359.762 
  724200     289.1881   -1576.0277    478.27357    199.57818   -475.83121    39359.762 
  724300    296.11806   -1573.9208    464.92102    219.42106   -550.96941    39359.762 
  724400    304.45183   -1540.1145     476.5644    302.25706   -280.29349    39359.762 
  724500    295.82003   -1550.3659    467.35139    244.06938   -239.67114    39359.762 
  724600     310.8587   -1523.0185     479.1055    350.63622   -116.20074    39359.762 
  724700     300.3068   -1576.6418    450.13662    220.70688   -249.07043    39359.762 
  724800    300.45396   -1577.7884    477.64752    247.73143    -257.0378    39359.762 
  724900    307.75649   -1533.8478      488.545    335.32947   -60.177453    39359.762 
  725000    304.89955   -1545.9451    493.84131    315.71193   -370.09408    39359.762 
  725100    293.76076   -1519.1842    492.41834    291.07991   -367.07251    39359.762 
  725200     300.0741   -1527.9657    477.54879    295.75122   -338.11863    39359.762 
  725300    299.83188   -1538.5276    494.47204    301.02591    19.518157    39359.762 
  725400    309.92838   -1516.9277    493.04202    366.48994    47.388902    39359.762 
  725500    303.12028   -1550.9229    478.31018    287.22094    228.65275    39359.762 
  725600    305.89949   -1502.3527    486.96021    356.90902   -15.709688    39359.762 
  725700    308.42265   -1525.5361    453.06357    311.14817   -289.27917    39359.762 
  725800    299.49627   -1537.1092    459.28098    265.74776   -372.54499    39359.762 
  725900     302.7058   -1563.3055    488.12515    282.79388   -568.89163    39359.762 
  726000     299.6837   -1569.0492    480.49658    255.86413   -710.69876    39359.762 
  726100    289.45719   -1530.2455    475.77539    244.06927    383.94838    39359.762 
  726200     302.1018   -1528.7594    496.42049    322.92576    336.83506    39359.762 
  726300    296.70402   -1512.3408    480.52595    299.23478    204.58818    39359.762 
  726400    307.16387   -1522.9657    479.71774    334.72576    74.795694    39359.762 
  726500    292.80269   -1570.7719    488.42594    231.20174    112.60811    39359.762 
  726600    297.98025   -1572.5233    472.73602    236.98762    -607.7075    39359.762 
  726700    308.58993    -1538.845    477.92437    323.45052    348.34987    39359.762 
  726800    310.98393   -1523.7542    470.47217    341.82894   -171.73603    39359.762 
  726900    293.18149   -1555.2349    468.48403    228.49622   -1080.0241    39359.762 
  727000    300.98205   -1563.3187    465.32201    252.24464   -177.64802    39359.762 
  727100    302.79202   -1557.9893    467.22511    267.59692   -87.628882    39359.762 
  727200    314.82421    -1555.391    481.53136    338.47926   -712.75999    39359.762 
  727300    305.93073   -1519.8433    464.57882    317.17717   -472.91231    39359.762 
  727400    301.01986   -1582.6731     465.6229    233.36075   -717.17729    39359.762 
  727500    298.81809   -1558.1749    466.14138    248.50004   -348.19836    39359.762 
  727600    295.62048   -1563.9936     471.5022    233.69726     -700.182    39359.762 
  727700     297.9321   -1545.9293    497.40773    288.03736    -453.6317    39359.762 
  727800    304.62932   -1555.5499    492.20566    303.25914    47.555061    39359.762 
  727900    301.53438   -1548.5894    472.47985    276.60967   -205.95586    39359.762 
  728000    301.32303   -1577.5213    456.20067    230.45033   -45.530242    39359.762 
  728100     301.5174   -1589.8007    475.91323     238.7555   -450.78569    39359.762 
  728200     301.9235   -1562.6759    473.91184    265.70077   -342.00678    39359.762 
  728300    293.87834   -1577.4663    467.19971    208.10662     -570.833    39359.762 
  728400    295.10014   -1563.4098    473.13255    233.57709   -387.96507    39359.762 
  728500    309.66693   -1538.7228    496.24916    346.72908   -117.65218    39359.762 
  728600     296.6634    -1572.504    458.01258    216.37593   -73.927418    39359.762 
  728700    298.61981   -1566.9808     460.6012    233.26446    338.12459    39359.762 
  728800    290.19182   -1561.1224    481.95621    222.66887   -59.436504    39359.762 
  728900    303.82221   -1571.7552    468.27741    259.50486   -122.13638    39359.762 
  729000    289.02336   -1535.9143    450.55152    211.23043   -357.01339    39359.762 
  729100    299.22371   -1571.6876    478.79646    249.46204    272.38804    39359.762 
  729200     307.2271   -1590.1417    473.28867    261.40433   -74.387379    39359.762 
  729300    290.31708   -1535.1989    463.63412    230.83226   -180.72136    39359.762 
  729400    306.02641   -1556.3365    461.58727     278.1217    216.04597    39359.762 
  729500    300.70187    -1598.744    448.33029    198.57072   -28.932554    39359.762 
  729600    299.00398    -1538.287    462.80992    265.89033    209.10821    39359.762 
  729700    298.45905   -1554.4023    468.15724    252.67779    56.189113    39359.762 
  729800    299.32534   -1528.9368    436.68605    250.55834    188.42838    39359.762 
  729900    305.31728    -1520.584    468.55062    317.65632    369.74364    39359.762 
  730000    312.57031   -1494.3504    501.45188    409.32916    588.98584    39359.762 
  730100    304.71819   -1514.5934    473.16306    325.57176    230.10616    39359.762 
  730200    302.10547   -1475.9955    486.03551    365.32115    512.20834    39359.762 
  730300    303.31523   -1517.9465    475.23149    317.99322    64.825979    39359.762 
  730400    309.75464   -1526.1943     453.4625    316.86444    506.85165    39359.762 
  730500    297.38366   -1498.1466       465.95    301.90193    481.28473    39359.762 
  730600    296.95628   -1482.6313    496.93017    346.48016    164.74448    39359.762 
  730700    310.31876   -1525.5502    451.34884    317.92555    6.3932234    39359.762 
  730800    288.29874   -1497.8592    476.71828    272.20155    202.34065    39359.762 
  730900    286.91324    -1517.496    486.07169    255.70266    240.80211    39359.762 
  731000    307.80885   -1531.0665    460.99948    310.80012    108.38576    39359.762 
  731100    289.08996     -1492.53    490.63034    294.99232   -96.930305    39359.762 
  731200    298.80013   -1501.2923    479.27703    318.43774     116.8683    39359.762 
  731300    292.49639   -1503.1366    472.30095    281.33803    411.17888    39359.762 
  731400    307.12962   -1505.6569    503.64734    375.81047      81.2241    39359.762 
  731500    307.45168   -1526.3873    476.29752    329.17509     390.0283    39359.762 
  731600    307.19666   -1551.3398    470.88178    297.66279    515.38566    39359.762 
  731700    309.12089   -1546.8959    468.60448    308.46177   -278.27106    39359.762 
  731800    296.30259   -1544.5255    487.39099    272.11426   -604.27974    39359.762 
  731900    307.85743   -1523.6053    454.40549    311.88528   -271.55524    39359.762 
  732000    290.13432   -1514.1201    484.71759     272.1746   -321.51753    39359.762 
  732100    304.79088   -1506.3249     471.3265    332.32982   -770.45877    39359.762 
  732200    283.41774   -1535.6447    480.27979    216.08083   -129.21121    39359.762 
  732300    304.72151   -1518.6222    468.13511     316.5299   -33.099501    39359.762 
  732400    296.64895   -1533.3759    468.10596     265.5326   -234.74381    39359.762 
  732500     294.1238    -1534.037    480.62475    266.06215   -452.46597    39359.762 
  732600    299.51228   -1512.3406     461.8574    293.16452    255.80979    39359.762 
  732700    297.87832   -1473.2756    443.63142    306.67342    276.82494    39359.762 
  732800     307.5785   -1499.5395    468.25855     348.5528    -215.9495    39359.762 
  732900    305.08011   -1497.6174    479.33179    350.34013    195.84942    39359.762 
  733000    296.43856   -1510.5439    481.22565    300.54048    534.10374    39359.762 
  733100    295.57046   -1525.0759    494.26354    295.15197    500.73198    39359.762 
  733200    301.01314   -1531.8324    454.98879     273.5372    255.63114    39359.762 
  733300    293.37879   -1578.5167    450.54386    188.15938    389.57565    39359.762 
  733400    292.92666   -1562.8949    461.85324    213.06225      254.945    39359.762 
  733500    305.80516   -1527.8661    476.05374    320.06599    325.50047    39359.762 
  733600    300.03748   -1498.5102     453.5356    301.02924   -288.40161    39359.762 
  733700    292.92207   -1489.0637    483.93315    308.95271   -639.00373    39359.762 
  733800    296.40312   -1530.1989     481.0665    280.56734    89.004644    39359.762 
  733900    295.42241   -1496.9216    468.18685    296.56533   -493.99304    39359.762 
  734000    303.16288    -1499.198    486.80464    347.63143   -242.99448    39359.762 
  734100    305.40832    -1549.551    454.42329    274.97037    -260.0365    39359.762 
  734200    303.72077   -1556.9509    433.65265    239.22933   -323.58672    39359.762 
  734300    312.10879   -1575.3706    464.89016    289.67674   -2.6583004    39359.762 
  734400    293.91858   -1577.2327    463.88309    205.20414   -467.14736    39359.762 
  734500    298.03625   -1565.0122    479.37833    251.39227   -597.43869    39359.762 
  734600    292.55749   -1529.2389    460.84031    244.04916   -351.99121    39359.762 
  734700    300.60301   -1532.1743    456.21141    272.57805   -142.05078    39359.762 
  734800     290.7052   -1506.2204    451.85228    249.77009   -291.54903    39359.762 
  734900    312.02975   -1521.8354    448.99925    326.96651   -212.28647    39359.762 
  735000    302.70323   -1491.1178    492.73883    359.58373     653.6965    39359.762 
  735100    286.76262   -1520.5029     478.7193    244.66769    368.40861    39359.762 
  735200    306.72088   -1501.5175    460.95328    335.42218    567.01854    39359.762 
  735300    298.55705   -1530.5246    481.71748    290.55541    330.13005    39359.762 
  735400    299.36691   -1529.4726    446.71613    260.23915    405.73327    39359.762 
  735500    296.26356    -1533.215    501.02904    296.88764    297.32675    39359.762 
  735600    306.04082   -1511.8583    485.63019    346.70746     161.4227    39359.762 
  735700     302.3346   -1525.5498    459.87758    290.63685   -408.07313    39359.762 
  735800    294.23312   -1482.2397     469.0545    306.77964   -550.48863    39359.762 
  735900     311.5658   -1501.0295    494.09616    390.78798   -21.191763    39359.762 
  736000    308.85536    -1481.216    486.06884    390.41475    446.00762    39359.762 
  736100    309.01095   -1514.5038    453.82112    325.57721     247.8293    39359.762 
  736200    304.87839   -1500.2381    470.06327    337.54593    210.14573    39359.762 
  736300    310.24675   -1520.6825    470.40966    341.53104    216.04287    39359.762 
  736400    310.62412   -1476.9943     460.1803    376.68276    413.69144    39359.762 
  736500    299.49061   -1497.0902     442.2521    288.71248    299.47095    39359.762 
  736600    304.72406   -1498.1012    486.19084    355.11807     238.2117    39359.762 
  736700    300.29048   -1482.1741    471.65571    336.62046    605.56643    39359.762 
  736800    295.22317   -1474.9483    483.27707    332.73513   -348.24221    39359.762 
  736900     299.3021    -1446.637    492.53423    388.60211   -343.07976    39359.762 
  737000    308.01512   -1494.5906    472.37806    359.57992   -330.36918    39359.762 
  737100    306.18189   -1502.2194    466.01148    337.36051   -518.77974    39359.762 
  737200     305.7183    -1506.932    464.05982    328.61653   -94.630028    39359.762 
  737300    288.85482   -1497.7128    488.46352    286.58787    -877.9932    39359.762 
  737400      303.879   -1440.5195    478.47014    401.18804   -660.56176    39359.762 
  737500    287.18694   -1466.4933    478.38285    300.24436   -222.06427    39359.762 
  737600     290.2012   -1478.0187     447.0649    270.92339   -624.10059    39359.762 
  737700    305.69423   -1502.1344    493.65673    362.90309   -588.61525    39359.762 
  737800    291.71877   -1489.0475      488.959    308.59667   -352.51598    39359.762 
  737900    296.20177    -1475.633    506.03526    359.19865   -54.939734    39359.762 
  738000    298.56702   -1501.5447    460.61678    298.47923    125.52117    39359.762 
  738100    302.45775   -1519.7829    482.07707    319.15561   -549.02217    39359.762 
  738200    291.68225   -1485.0207     440.4103    263.91089     -288.471    39359.762 
  738300    292.51152   -1508.9698    483.75912    287.03087   -688.31715    39359.762 
  738400    313.40927   -1481.9938    478.44662    402.44413    -227.2896    39359.762 
  738500    290.28281   -1518.8952    488.97019     272.3183   -47.760186    39359.762 
  738600    299.40289   -1536.8552    482.47669    288.77848    630.44946    39359.762 
  738700    300.22688   -1533.5286    485.22811    298.55302    377.95469    39359.762 
  738800    296.19397   -1525.0908    469.57583     273.2465    577.49678    39359.762 
  738900    287.18774   -1506.1192    478.02916    260.26839    29.555284    39359.762 
  739000    296.86991   -1524.8431     441.9877    248.93839   -60.512399    39359.762 
  739100    287.00059   -1522.8271     470.9681    235.65985   -48.038222    39359.762 
  739200    303.92515   -1550.9489    447.95995    260.45541   -766.66577    39359.762 
  739300    292.88671   -1527.2444    461.14263    247.82285    -719.3188    39359.762 
  739400     295.9491   -1493.2395    477.32312    311.74659    -738.5296    39359.762 
  739500    296.45342   -1507.7998    467.51594    289.64145    95.172859    39359.762 
  739600    306.04786   -1541.2228     464.0732     295.8176    136.85605    39359.762 
  739700    287.47074     -1525.18     483.1319    247.57984   -170.25089    39359.762 
  739800    295.91064   -1493.0168    471.92198    306.39553    252.78229    39359.762 
  739900    295.73872   -1501.3813    479.83437    305.17221    236.53132    39359.762 
  740000    301.66863   -1483.1376    468.70872    338.89246   -108.06153    39359.762 
  740100    307.87351   -1485.8629     457.5769    352.87127     391.6568    39359.762 
  740200    301.73174   -1516.5194    476.10901    313.19417    110.99771    39359.762 
  740300    297.24902   -1507.1904    459.96868    286.27277    130.22418    39359.762 
  740400     299.7785   -1505.1305    489.01561    328.72724    439.29075    39359.762 
  740500    301.76605   -1569.3084    445.71704    230.16714    384.49562    39359.762 
  740600    299.12013   -1494.4559        461.9    309.33262   -50.551434    39359.762 
  740700    300.05486   -1456.0695    504.07003    394.08238   -553.97786    39359.762 
  740800    296.40411   -1519.8579    459.94301    269.78931   -397.55768    39359.762 
  740900     308.0381   -1493.9861     457.7666    345.67608   -239.07077    39359.762 
  741000    311.15246   -1536.3554    456.21849    315.73005   -214.29544    39359.762 
  741100    314.19685   -1504.5033    477.61762    382.63881     313.3347    39359.762 
  741200    303.78172    -1532.164    478.55809    309.19506    370.60422    39359.762 
  741300    309.22067   -1548.5661    455.73369     294.3683   -380.64677    39359.762 
  741400    286.60165   -1467.4678    479.51335    297.77473   -14.964715    39359.762 
  741500    305.99449   -1493.3226     461.5944    340.99954   -333.20695    39359.762 
  741600     295.4388   -1517.5186    480.71439    288.56949    317.07462    39359.762 
  741700    299.07696     -1519.68    483.28202     305.2969    550.06918    39359.762 
  741800    299.86061   -1535.3556    490.24404    300.09885    545.75501    39359.762 
  741900    299.04185   -1526.7938    456.89677    271.64036    -147.5672    39359.762 
  742000    297.88266   -1557.7325    473.47632    252.08092    202.91593    39359.762 
  742100     303.9828   -1501.4079    451.17374    313.46884    123.11192    39359.762 
  742200    308.96067   -1552.3697     479.0176    312.68224    656.56934    39359.762 
  742300    302.19516   -1546.6589    491.16574    300.19033    633.71297    39359.762 
  742400    301.36286    -1527.276    450.54166    275.21531    459.43059    39359.762 
  742500    294.28332   -1555.9722    467.19835    231.41616   -16.144971    39359.762 
  742600    297.96939   -1566.5518    465.91605    236.09044   -45.208724    39359.762 
  742700    303.50469   -1527.4489    461.04407     295.1534    269.12784    39359.762 
  742800    294.23092   -1534.5602    466.24364    251.63843    123.14111    39359.762 
  742900    303.84509   -1565.8179    474.11065    271.37806    660.70197    39359.762 
  743000    302.12348   -1560.1203    454.78681    250.02844    196.92576    39359.762 
  743100    306.60361   -1544.8365    480.45701    311.08079     345.9074    39359.762 
  743200    298.33658   -1477.3078    470.51195    331.57753    690.61758    39359.762 
  743300    307.59886   -1495.4834     479.8321    364.27388    283.25779    39359.762 
  743400    301.73022   -1491.2668     451.0545    313.38542    634.20382    39359.762 
  743500    291.38606   -1496.9975    486.61032     296.8054    510.78285    39359.762 
  743600    302.94548   -1500.5341    480.57951    339.09497    403.79999    39359.762 
  743700    298.41526   -1538.0534     465.1164    265.78939   -225.42083    39359.762 
  743800    295.79055   -1497.5483     441.7066       271.11   -156.61277    39359.762 
  743900    311.63298   -1539.7184     467.5532    325.85752    298.21515    39359.762 
  744000    293.71017   -1499.1924    486.15951    304.58595    813.35134    39359.762 
  744100    308.15126   -1515.4486    445.56999    312.52462   -59.765557    39359.762 
  744200    294.94305   -1498.6564    472.57326    297.06654    177.87321    39359.762 
  744300    307.20494   -1497.8613    491.55212    371.84881    321.82019    39359.762 
  744400    301.41977   -1483.0371    448.17253    317.34045   -262.46197    39359.762 
  744500    294.71991   -1480.4973     476.0232    317.67447   -148.39084    39359.762 
  744600    298.70554   -1475.3942    468.60866    333.24304    213.30093    39359.762 
  744700    302.29309   -1497.9036    473.73122    331.95041    257.34291    39359.762 
  744800    290.97037   -1507.3505    467.95317    265.93045    -3.395594    39359.762 
  744900    291.08823   -1519.4117    464.35212    250.79692    151.76892    39359.762 
  745000      308.842   -1491.8463      470.856    364.51172     22.97364    39359.762 
  745100     297.6785   -1526.9583    466.22567    274.68859    261.86834    39359.762 
  745200    302.10326   -1533.6881     469.6004    291.18352   -140.07679    39359.762 
  745300    303.71425   -1548.9508    444.86956    258.41709    355.77816    39359.762 
  745400    303.84514   -1487.4395    453.48145    329.12747   -126.92514    39359.762 
  745500     301.9376   -1513.9145    474.35588    314.96942   -267.45949    39359.762 
  745600    294.12863   -1499.1397    460.41447     280.7708     43.63856    39359.762 
  745700    301.80889   -1528.2518    447.94489    273.64366   -238.87347    39359.762 
  745800    302.24417   -1539.0671    465.34716     282.1834   -400.46041    39359.762 
  745900    295.48476   -1539.7593    469.56056    255.38108    -354.3299    39359.762 
  746000    300.42391   -1532.0128    455.56618    271.29082   -314.76292    39359.762 
  746100     296.0181   -1570.7466     458.0186    215.24444   -349.83429    39359.762 
  746200    305.11863   -1519.3747     448.0419    297.46574   -253.60033    39359.762 
  746300    310.13232   -1553.6989    471.75572    309.34737   -193.24058    39359.762 
  746400    310.29744   -1540.8615    456.94013    308.10987    51.447231    39359.762 
  746500    287.73219   -1553.5752    431.73963    168.96533   -197.18796    39359.762 
  746600    310.67323   -1520.1853     488.7499    362.28171   -422.50915    39359.762 
  746700    293.94986   -1525.5016    448.66079    241.85329   -655.21455    39359.762 
  746800     301.8305   -1508.1535    461.65415    307.54823   -396.55158    39359.762 
  746900    303.68009   -1492.7067    446.57452    316.21293    -189.8297    39359.762 
  747000    298.82842   -1504.7622    453.27541    289.09311   -561.29471    39359.762 
  747100      290.459   -1485.9104     471.4746    288.59789   -202.71116    39359.762 
  747200    296.12297    -1503.768    443.42493    268.09987    140.74928    39359.762 
  747300    301.97031    -1512.556    478.71808     320.8368    151.77449    39359.762 
  747400    294.50376   -1499.2929    485.85234    307.73842   -476.21981    39359.762 
  747500    299.06778    -1528.566    470.09485    283.18255    320.93279    39359.762 
  747600    299.59622   -1564.9454    450.10256    229.18152    214.16261    39359.762 
  747700     293.9774   -1558.7209    466.26882    226.36561   -208.81747    39359.762 
  747800    305.04157   -1536.6671    465.42292    297.20861   -8.9210944    39359.762 
  747900    300.65384   -1530.6287    478.45756    296.59775   -445.89562    39359.762 
  748000    291.64764   -1511.8911    470.40642    266.88142     81.78458    39359.762 
  748100    300.87078   -1504.6684    464.48882    309.56256    18.534098    39359.762 
  748200    307.03955   -1554.9792    462.93906    285.37586    553.83438    39359.762 
  748300    294.88637   -1512.2036    498.93961    309.63138    743.78731    39359.762 
  748400    300.29172   -1562.2174    477.24465    262.17163    798.28361    39359.762 
  748500    313.04898   -1547.9573    448.16855    304.58623    239.24077    39359.762 
  748600    292.38529   -1521.4908    466.20426    256.38871   -218.52694    39359.762 
  748700    306.43653   -1503.9654    464.44252    335.18788   -113.88433    39359.762 
  748800    302.03629   -1541.1978    461.74189    275.51489    166.07884    39359.762 
  748900    297.22263   -1468.8465    467.42476    331.95436    208.06903    39359.762 
  749000    293.55012   -1503.1011    450.88438    264.68406   -78.745331    39359.762 
  749100    297.85031   -1496.3073     447.0648    286.94949    5.3998399    39359.762 
  749200     300.8874   -1533.9262    478.49403    294.38451    194.48176    39359.762 
  749300      296.253   -1528.7835    453.59794    253.84063    398.09672    39359.762 
  749400    309.22745   -1521.3167    458.88214    324.79663    57.571878    39359.762 
  749500    298.22328   -1514.1344    453.40527      277.136   -83.873545    39359.762 
  749600    284.56024   -1530.9692    463.88893    209.49088    466.27559    39359.762 
  749700    294.80401   -1528.9348    467.51189    261.10304   -7.6484905    39359.762 
  749800    293.75398   -1497.2898    467.37472    287.90025    649.82799    39359.762 
  749900    305.40766   -1488.4365    490.61756    372.27621    513.30492    39359.762 
  750000    308.66058   -1518.7518    462.46824    328.40451    153.53944    39359.762 
  750100    289.79999    -1549.138    441.29796    192.23722   -388.70583    39359.762 
  750200    299.99044   -1516.7007    477.35223    306.44441   -337.74682    39359.762 
  750300     305.4663   -1503.4688    437.23066    304.12009   -260.83023    39359.762 
  750400    292.99823   -1485.8612    474.00069    302.56439   -329.66214    39359.762 
  750500     303.2519   -1471.8246    465.51339    354.11297   -532.87265    39359.762 
  750600    300.43016   -1466.8049    504.73967    385.70022     152.8217    39359.762 
  750700    287.10479   -1492.7843    484.95109    280.15308    41.353414    39359.762 
  750800    299.94261     -1523.72    459.05514    280.91345    555.37496    39359.762 
  750900    304.11938   -1493.9648    485.68929    356.04026    129.15672    39359.762 
  751000    292.88309   -1515.8561    469.97406     268.0264    338.79703    39359.762 
  751100    313.28524    -1508.105    440.57061    337.90049    326.13554    39359.762 
  751200    307.02545   -1523.2904    490.08418    344.14656    418.80861    39359.762 
  751300    295.60026   -1512.3291    473.46739    287.23627  -0.93656217    39359.762 
  751400    297.84934   -1451.8537    478.10297    362.43686    349.16122    39359.762 
  751500    306.32887   -1463.5521    478.62973    389.30541    546.55027    39359.762 
  751600    293.24171   -1482.5984    477.25467    310.17353    689.39426    39359.762 
  751700    312.70325   -1516.2436    487.33166    373.91211    796.93743    39359.762 
  751800    289.23265   -1451.5954    478.81877    324.75544     360.3598    39359.762 
  751900    308.92894   -1463.7532    464.09369    386.23253   -531.76135    39359.762 
  752000    305.93174   -1497.6544     444.7853    319.57708   -803.80046    39359.762 
  752100    291.64661   -1484.8135    490.42756    313.97553   -9.1372363    39359.762 
  752200    303.50204   -1467.1842    476.40667    370.76873    59.788253    39359.762 
  752300    305.46975   -1470.7194    472.88516    372.53946    149.50299    39359.762 
  752400     297.0512   -1536.4608    484.91634    281.06261    32.437658    39359.762 
  752500     297.8483   -1496.0922    458.01913    298.10985     317.7848    39359.762 
  752600    303.10312   -1482.3393    479.03485    356.45221   -155.50924    39359.762 
  752700    305.69271   -1466.6943    495.17128    399.85095   -215.55258    39359.762 
  752800    298.29438   -1473.7413    469.13563    333.57845    -204.0243    39359.762 
  752900    303.44054   -1447.8528    479.56724     392.9849    219.55113    39359.762 
  753000    304.71438   -1487.4123    457.79717    337.36988    101.78232    39359.762 
  753100    309.38379   -1470.8446    472.27838    389.36634    58.551549    39359.762 
  753200    305.96413   -1484.5149    463.54606    351.62271    105.48172    39359.762 
  753300    296.84046   -1493.7806    485.47582    323.35686    280.60005    39359.762 
  753400    298.90342   -1478.9835    471.12416      333.057    512.47376    39359.762 
  753500    302.09138   -1475.3615     479.5457    359.40216   -179.14397    39359.762 
  753600    309.44614   -1433.5031    485.54947    440.25863   -95.210093    39359.762 
  753700    295.87069    -1452.219    484.70338    359.79556    44.202657    39359.762 
  753800    295.89258   -1467.4383    479.35812    339.32916    48.206033    39359.762 
  753900    303.02426   -1524.5862    481.93362    316.75032    460.18587    39359.762 
  754000    298.65655   -1478.9502    484.02804    344.88667    32.989161    39359.762 
  754100    294.67758   -1479.0935    471.44178    314.30698     282.1251    39359.762 
  754200    304.30747   -1467.0008    478.00752    376.16626     344.7284    39359.762 
  754300    302.77148    -1486.537    465.45388     337.1858     402.1976    39359.762 
  754400     304.1588   -1503.4851    482.50269    343.51023   -333.06637    39359.762 
  754500    299.42426    -1513.793    488.29663    317.75649   -202.60524    39359.762 
  754600    304.90815   -1505.4207    470.23773     332.6713    126.04922    39359.762 
  754700    296.93331   -1531.3942    439.64294    240.32692    142.53857    39359.762 
  754800    299.59085   -1482.3823    501.77836    363.39631    29.387424    39359.762 
  754900    296.96521   -1477.3516    491.61509    346.48479   -61.274203    39359.762 
  755000    296.29949    -1458.414    492.30917    363.12998    216.98956    39359.762 
  755100    298.20718   -1497.7541    511.18782    351.22664    414.28872    39359.762 
  755200    298.87162   -1510.5378    485.63709    315.87297    463.96369    39359.762 
  755300    307.68482    -1500.006    467.68956    347.99431    201.40706    39359.762 
  755400    299.60049    -1520.043      467.504    291.50444   -128.63299    39359.762 
  755500    292.88401   -1513.3276     482.2747    282.85969   -12.616145    39359.762 
  755600    307.16307   -1519.1901     465.7413    324.52132    -11.04606    39359.762 
  755700    297.56782   -1500.7575    471.71357    305.88076    -10.72845    39359.762 
  755800    297.24786   -1538.7311    475.94372    270.70196   -171.76896    39359.762 
  755900    304.76045   -1527.5671    457.39505    297.01957    294.57904    39359.762 
  756000     305.6735   -1501.7611    502.71177    372.23837    331.15229    39359.762 
  756100     293.0573   -1525.5734    478.57805    267.69462    61.478571    39359.762 
  756200    296.29928   -1528.7613    492.98137    293.45392    357.93567    39359.762 
  756300    304.77547   -1485.6889    479.56134    361.13145    487.20921    39359.762 
  756400    300.79812   -1467.7877    483.86885    365.49739    301.93587    39359.762 
  756500     293.3814   -1456.9961    484.72116    343.86894    61.873515    39359.762 
  756600    291.59555   -1435.7216    479.44076    351.85157    188.32693    39359.762 
  756700    297.15478   -1449.3437    495.27367    379.00174   -55.230589    39359.762 
  756800    298.35064   -1477.8306    470.74306      331.349   -253.84144    39359.762 
  756900    303.73971   -1436.8598    522.91849    448.67121   -416.95191    39359.762 
  757000    307.57846   -1446.1026    442.17541    375.90643   -83.707751    39359.762 
  757100    303.27882   -1512.0602    450.07819    298.56289   -261.78433    39359.762 
  757200    293.06593    -1512.722    486.04795    288.05467    -506.2526    39359.762 
  757300    295.35536   -1536.8345    487.53506    275.69984   -130.16068    39359.762 
  757400    306.22774   -1470.2758    450.83818    354.33649    498.08546    39359.762 
  757500     308.7869   -1515.2242    489.75143    359.78201    172.48234    39359.762 
  757600    303.02364   -1456.8715    457.80682    360.33545   -81.801987    39359.762 
  757700    294.15965   -1503.3598    477.20315    293.47855   -226.57178    39359.762 
  757800    304.63432   -1467.7514    466.76777    365.64219   -386.56567    39359.762 
  757900    306.34336    -1488.787    453.10014    338.60593   -642.79007    39359.762 
  758000    293.15602      -1488.8    481.93154    308.26441   -221.58566    39359.762 
  758100    298.12395   -1478.0819    463.21656    322.55423    363.33099    39359.762 
  758200    298.20218   -1485.9756    480.17485     331.9697    612.14104    39359.762 
  758300    299.87642   -1463.6081    462.13113    343.80433    586.54879    39359.762 
  758400    301.17268   -1467.2149    449.97956     333.8612    18.423439    39359.762 
  758500      296.316   -1459.2891    448.81402    318.83377    327.04234    39359.762 
  758600    304.27971    -1424.866    489.27988    429.44897    125.31746    39359.762 
  758700    293.67804   -1450.9622    463.94254    330.45505   -503.45726    39359.762 
  758800    304.62462   -1475.1444      479.598    371.03591    349.38274    39359.762 
  758900    294.65995   -1477.9672    489.96611    333.87859    41.559225    39359.762 
  759000    292.83738   -1507.8525    470.74973    276.60061   -42.725713    39359.762 
  759100    298.32685   -1485.8681    460.22288    312.68454   -31.462477    39359.762 
  759200    291.97198   -1521.7709    444.54311    232.59333    202.36533    39359.762 
  759300    306.19714    -1485.645    466.80674    354.79854    87.371191    39359.762 
  759400    304.85411   -1493.2494    484.37233    358.73477   -13.515286    39359.762 
  759500    298.47741   -1473.4842    467.43386    332.95493   -208.60526    39359.762 
  759600    305.41552   -1509.4434    456.35584    317.04287    63.609037    39359.762 
  759700     298.8803   -1522.8897    447.22523    265.14813   -322.80969    39359.762 
  759800    300.38861   -1498.9158    442.78103    291.44428    28.212067    39359.762 
  759900    298.92658   -1514.0377    445.78535    272.76792   -98.859773    39359.762 
  760000    302.60545   -1536.2045    451.07584    272.39543   -340.54288    39359.762 
  760100    298.10066   -1507.5545    469.78555    299.54613   -37.403375    39359.762 
  760200    292.63825   -1499.7333    449.93932    263.01607   -19.833114    39359.762 
  760300    297.62533   -1509.3177    467.59304    293.45796   -225.94052    39359.762 
  760400    294.20645   -1492.5371     478.6924    306.00047   -301.60549    39359.762 
  760500    301.45231   -1529.8638    455.06176    277.54896   -38.266466    39359.762 
  760600    298.65176   -1500.9091    459.86977    298.74809   -74.879051    39359.762 
  760700    298.13312    -1519.698    467.63276     285.3954    310.93556    39359.762 
  760800    299.50873   -1508.1365    481.60294    317.09825    318.39674    39359.762 
  760900    298.53691   -1499.0621    453.49322    293.70324    377.67909    39359.762 
  761000    296.16682   -1485.6916     467.9104    310.85838    326.64239    39359.762 
  761100    304.28083   -1495.8492    489.89054    359.08143    93.935116    39359.762 
  761200    297.96094   -1522.2414    440.06051    254.50742    468.32101    39359.762 
  761300    295.79443    -1557.228    458.53897       228.28     165.9813    39359.762 
  761400    302.75046   -1528.4735    468.09149    297.79266    211.87288    39359.762 
  761500    290.78816   -1483.1449    479.87211     301.2375    416.71689    39359.762 
  761600    293.93721   -1542.7544    467.10544    242.98831    456.35372    39359.762 
  761700    297.82372    -1557.501    463.28718    241.85889    700.87822    39359.762 
  761800    302.71251   -1513.6238    482.35845    326.73899    148.71784    39359.762 
  761900    300.84564   -1491.7752    459.76234    317.61651   -130.85687    39359.762 
  762000    298.90052   -1511.3737    456.27779     285.8074   -294.27588    39359.762 
  762100    303.73384   -1482.6619    492.68416    372.60841    31.777139    39359.762 
  762200    294.08955   -1512.8347    476.70149    283.18758    611.31446    39359.762 
  762300    285.81462   -1524.2747     466.4911    224.41483    878.93183    39359.762 
  762400    293.99748   -1509.8669    477.29852    286.33928    833.21187    39359.762 
  762500    301.61795   -1508.5274     470.1573    314.72398    785.01409    39359.762 
  762600    303.20291   -1515.4417    455.79292    300.55565    634.08199    39359.762 
  762700    297.51711   -1469.2461    465.56052    331.01159    283.07741    39359.762 
  762800    296.59294    -1494.851     497.6248    333.32506    51.179508    39359.762 
  762900     299.8568   -1508.6497    474.72901    311.27266   -271.16593    39359.762 
  763000    302.42033   -1490.0265    466.41598    333.08308   -474.46041    39359.762 
  763100    302.62054   -1502.0848      471.167    326.67401   -474.10603    39359.762 
  763200    294.08889   -1476.9116    477.09453    319.50075   -676.18556    39359.762 
  763300    309.24516   -1491.0333    483.92713    380.20447   -257.99069    39359.762 
  763400    298.80004   -1551.2508    455.34784    244.54964    -182.3868    39359.762 
  763500    308.08082   -1491.2369    464.21684    355.06721   -83.133445    39359.762 
  763600     309.6545   -1486.8727    504.08494    406.35921   -189.67455    39359.762 
  763700    304.25049   -1531.9796    463.75193    296.67624   -283.86168    39359.762 
  763800    299.16852   -1507.5559     468.4631    303.01279    387.03413    39359.762 
  763900    291.10526    -1501.458    473.87221    278.34715   -150.94206    39359.762 
  764000    297.33581   -1484.0702    478.04811    327.86177    518.53558    39359.762 
  764100    314.03126   -1470.3246    469.36563    407.82265     509.8616    39359.762 
  764200    302.48647   -1467.9972    474.68776    363.68092    132.92732    39359.762 
  764300    302.55934      -1475.2    465.48173    347.59894   -484.78075    39359.762 
  764400     299.6249   -1472.6363    470.10093    341.61764   -244.13677    39359.762 
  764500    296.26093   -1448.9618    458.77187    338.87185   -854.19145    39359.762 
  764600    305.73762   -1422.0125    476.37219    425.93507   -1053.3739    39359.762 
  764700    304.35872   -1440.3717    449.18863    374.20642   -409.01364    39359.762 
  764800    301.53119    -1455.819    481.93075    378.81664   -593.56612    39359.762 
  764900    301.76368    -1464.692    481.79888    370.85468    -157.3124    39359.762 
  765000    294.57454   -1471.6309    442.74932    292.61484   -206.06369    39359.762 
  765100    312.24988   -1472.1892    448.04634     376.6473   -72.878152    39359.762 
  765200    310.73008   -1496.3524    469.12977    366.74949    153.11987    39359.762 
  765300    299.84357    -1522.632    461.96969    284.47164    20.933459    39359.762 
  765400    303.92264   -1475.7291    453.07923    340.78331   -168.64305    39359.762 
  765500    302.21396   -1540.6643    474.12961    289.23315    703.66852    39359.762 
  765600    303.68542   -1518.9105    456.38216    299.84057    433.08487    39359.762 
  765700    301.48168   -1487.9912     481.2803    345.77186    516.35736    39359.762 
  765800     305.5278   -1490.5202    432.09021    312.20416    153.10076    39359.762 
  765900    303.50442   -1499.7031    462.92044    324.77435    308.78706    39359.762 
  766000    299.10046   -1541.0167    458.66282    259.44635    483.62674    39359.762 
  766100    313.82987   -1485.2104    476.18696    398.85473    629.80806    39359.762 
  766200    299.95988   -1480.9514    462.60507    327.30939    184.42698    39359.762 
  766300    304.45169   -1480.9347    478.24982    363.12169    27.491502    39359.762 
  766400    299.39236   -1496.2234    469.99034    316.87669   -517.17117    39359.762 
  766500    293.63056   -1445.1337     493.8615    365.98948   -728.72486    39359.762 
  766600    309.72494   -1436.7214    443.90593    396.64753   -850.71856    39359.762 
  766700    302.62028   -1455.2367    507.42972    409.78364   -551.57077    39359.762 
  766800    291.58668   -1487.5014     446.6526    267.24383    98.272582    39359.762 
  766900    306.80208    -1525.597    482.35836    333.11204   -39.677675    39359.762 
  767000    300.24465   -1492.6118    457.62725    311.94877   -447.38662    39359.762 
  767100    302.43107   -1460.0653    463.26709    359.94365   -539.90674    39359.762 
  767200    295.96373   -1484.9027    489.09615    331.92198   -419.83025    39359.762 
  767300    301.92981   -1461.3688    457.30849    350.43277   -566.38547    39359.762 
  767400     295.4202   -1488.6447    452.61284    289.25837   -20.131322    39359.762 
  767500    306.45447   -1500.0619    496.42415    371.15347    63.870285    39359.762 
  767600    299.71331   -1497.5129    468.64149    315.67819    236.24757    39359.762 
  767700    306.67025   -1482.4486    461.44908    354.75973    459.85789    39359.762 
  767800    300.41459   -1489.2454    462.28806    320.73825    317.37915    39359.762 
  767900    300.46398   -1452.5229    474.73151    370.12576    38.583529    39359.762 
  768000    302.53197   -1458.4224    467.93419    366.70628    16.360187    39359.762 
  768100    303.08295   -1485.4376    466.37016    340.59879    436.17334    39359.762 
  768200    306.50319   -1497.8176     470.1211     347.3133    77.915921    39359.762 
  768300    294.29827   -1486.5258    474.39774    308.12907      -215.14    39359.762 
  768400    297.88468   -1508.9948    468.80742    296.15879   -32.577989    39359.762 
  768500    301.54549   -1539.4949    471.02099    284.29505    515.67319    39359.762 
  768600    293.42432    -1519.696    490.82122    287.46164    285.70422    39359.762 
  768700    298.93199   -1503.8263    472.57376    309.79194    326.92684    39359.762 
  768800    297.54065   -1509.0778    470.39705    296.12204    134.81303    39359.762 
  768900    290.38045   -1490.4492    489.21553    301.44763   -203.60757    39359.762 
  769000    299.44729   -1521.6183    468.86887    290.60677    250.85481    39359.762 
  769100    294.15023   -1539.0245    462.62287    243.19141    262.64474    39359.762 
  769200    306.43751   -1503.9629    502.83935    373.59157    385.39749    39359.762 
  769300    300.11865   -1522.8724    461.40051    284.89611    34.873721    39359.762 
  769400    300.76584   -1500.1376    465.80952    314.94329   -119.55851    39359.762 
  769500    305.01107   -1486.2376    494.66249     376.7409   -50.606854    39359.762 
  769600    293.37979   -1500.2336    450.94856     266.8517    16.122562    39359.762 
  769700    302.69269   -1503.4991    470.43469    324.85107   -92.788611    39359.762 
  769800    293.37146   -1505.1279    476.20067    287.17203   -75.749135    39359.762 
  769900    298.85767   -1525.1439    437.67673    253.24393    -204.9731    39359.762 
  770000    299.59405   -1481.1324    463.36189    326.24413   -534.17947    39359.762 
  770100      310.076   -1499.2092    465.44485    357.27357    54.042576    39359.762 
  770200    305.08167   -1519.7684    444.33374    293.19808    340.58847    39359.762 
  770300    299.11675   -1502.4181    467.58858    307.04386    368.23704    39359.762 
  770400    303.74811   -1493.1081    491.67408    361.21615    683.57779    39359.762 
  770500    296.15143   -1460.1101    455.96733    324.42787    631.97927    39359.762 
  770600     308.0128   -1444.0113    503.26358    441.03436    82.887664    39359.762 
  770700    293.34152   -1451.5624    448.38997    312.79259    730.35132    39359.762 
  770800    302.28533    -1448.345    488.51922    396.26226    364.85747    39359.762 
  770900    304.21119   -1467.0144    473.70395    371.41716   -15.108422    39359.762 
  771000     298.8481   -1491.6284    457.41095    306.45071   -324.52548    39359.762 
  771100    289.37004   -1482.5297    483.75018    299.36898   -229.16844    39359.762 
  771200    298.52158   -1459.1372    490.37483    370.44099    340.36823    39359.762 
  771300    294.34965   -1470.8433    464.62829    314.27257   -370.30179    39359.762 
  771400    304.50213   -1437.5407    487.27151    415.76363    324.66371    39359.762 
  771500    299.27286    -1461.128    465.57605    347.02178    289.49411    39359.762 
  771600    303.56223   -1445.9087    499.80431    415.71198    614.41225    39359.762 
  771700    295.83433   -1475.7747    472.23884    323.61219     747.7926    39359.762 
  771800    295.15367   -1483.0593    488.83347    329.86876    480.06276    39359.762 
  771900    296.16793   -1503.3986     467.4753    292.72134    515.33284    39359.762 
  772000    305.69084   -1478.5249     456.5696    349.41022     337.7091    39359.762 
  772100    301.94464   -1447.4275    490.01255    397.14463    402.42611    39359.762 
  772200    295.55943   -1473.7958    476.47575    328.59481    170.39938    39359.762 
  772300    296.57487    -1456.508    471.52145    345.48368   -324.11739    39359.762 
  772400    306.15018   -1440.1338    470.10509    403.39752    100.44438    39359.762 
  772500    302.76359   -1454.7574    490.34348    393.81964   -184.83499    39359.762 
  772600    304.35766   -1442.7483    484.94458    407.58104    411.03809    39359.762 
  772700    299.27383   -1471.2884    500.21901    371.50861    87.250436    39359.762 
  772800    301.30404   -1501.8462    467.73791     317.5775    206.03207    39359.762 
  772900     299.2278    -1449.937     501.4344    393.86896    555.07729    39359.762 
  773000    303.32386    -1503.689    471.30738    328.36529    141.94253    39359.762 
  773100    297.12885   -1488.0845    467.98143    312.85232    364.02399    39359.762 
  773200    305.26234   -1444.7491    497.97237    422.66655    612.43258    39359.762 
  773300    305.39825   -1456.1422    481.92825    395.83899   -69.046156    39359.762 
  773400    292.62132   -1473.0848    476.17339    315.82265    75.476089    39359.762 
  773500    311.38095   -1445.3598    459.82487    411.35714   -233.77535    39359.762 
  773600    305.87079   -1444.9468    467.31338    394.53937   -961.80612    39359.762 
  773700    310.88164   -1414.1623     466.1468    446.63655   -559.42217    39359.762 
  773800     294.7552   -1398.8135    497.50938    421.00283   -570.91481    39359.762 
  773900    286.35486   -1437.6038    477.15361    324.17187   -652.76175    39359.762 
  774000    293.03324   -1431.8668    487.77526    370.49051    123.55205    39359.762 
  774100    307.63369   -1428.3385    463.07639    414.81925   -427.89527    39359.762 
  774200    308.98004   -1443.6994    479.99805     422.4199   -223.88094    39359.762 
  774300    296.65662    -1431.179     471.6148     371.2727   -464.59681    39359.762 
  774400    312.16459   -1438.6238    477.94689    439.73062   -115.38988    39359.762 
  774500    311.43021   -1453.1735    456.15266    400.09217    218.04184    39359.762 
  774600    301.11701   -1446.8275    486.64457    390.66384     5.898844    39359.762 
  774700    298.71287   -1435.3754    482.17783    386.86394   -223.41815    39359.762 
  774800    308.57042   -1449.8172    478.47361    412.94008    81.020116    39359.762 
  774900    305.76665   -1439.2589    471.51912    403.96579    181.06271    39359.762 
  775000    300.07781   -1427.2587    472.12676    391.05287   -155.30804    39359.762 
  775100    309.64115   -1408.2541    468.42388    449.25686    142.42034    39359.762 
  775200    301.81068   -1407.2159    469.49465    416.23742    147.95893    39359.762 
  775300    301.02165    -1458.303    473.93551    366.05153    409.69608    39359.762 
  775400    297.30877   -1474.9378    467.84009    326.66484    161.85586    39359.762 
  775500    302.47348   -1482.1449    461.13931    335.92649    101.40675    39359.762 
  775600    300.95838   -1451.5892    467.83417    366.38013   -232.45017    39359.762 
  775700    294.53328   -1496.4206    452.14385    277.03464   -261.07823    39359.762 
  775800    303.07108   -1500.2967      484.315     343.6313   -52.196411    39359.762 
  775900    297.53493    -1476.896    477.15047    335.03158    293.35248    39359.762 
  776000    299.04691   -1480.1846    467.62872    329.00419    703.96068    39359.762 
  776100    293.45537   -1444.1116    468.36386    340.72797    438.59637    39359.762 
  776200    308.09841   -1473.1235    484.36036    393.40302   -80.514806    39359.762 
  776300    301.85586   -1464.3414    480.50669    370.32665   -2.7606074    39359.762 
  776400    293.37675   -1407.5863    508.14602    416.68275    301.49035    39359.762 
  776500    288.12227   -1423.1608     470.4324    339.82241    10.556675    39359.762 
  776600    290.82745   -1488.4382    480.66725    296.91559    113.51354    39359.762 
  776700    307.81318   -1494.4783    479.09806    365.50641     372.5763    39359.762 
  776800    295.47958   -1494.3095    446.02485    277.27196   -21.283596    39359.762 
  776900    294.32512   -1527.7304    454.81691    247.46411   -459.79758    39359.762 
  777000    295.28438   -1524.0327    463.55591     264.2041    68.157627    39359.762 
  777100     302.1368   -1519.3867    447.30065    283.33567   -330.09257    39359.762 
  777200    296.50681   -1469.7165    473.05646    333.50478   -119.25636    39359.762 
  777300    293.20251   -1494.3696    487.59521    308.56698   -192.09943    39359.762 
  777400    289.88461   -1467.1478    484.17551    317.48466   -621.92789    39359.762 
  777500     312.0083    -1483.061    469.51924    386.16462    28.891514    39359.762 
  777600    297.23856   -1489.6696    450.47097    294.24893   -131.15145    39359.762 
  777700     296.4322   -1499.2908    472.99398    303.53339    215.94405    39359.762 
  777800     305.7207   -1490.5424    459.74655    340.70364    580.59926    39359.762 
  777900    312.74719   -1491.1369    471.87208     383.7563    289.48976    39359.762 
  778000    299.80494     -1512.78    468.63967     300.8203    144.03309    39359.762 
  778100     293.8015   -1464.9759    500.40091    353.45356    391.00826    39359.762 
  778200    297.61918   -1446.3034    473.90367    362.75538    178.39463    39359.762 
  778300    302.05549   -1466.0279    452.11936    341.14838    526.53141    39359.762 
  778400    310.21154   -1466.4183    463.77241    389.00007    129.81671    39359.762 
  778500    294.02693   -1444.7572     454.4067    328.68937   -22.454257    39359.762 
  778600    313.70679    -1475.069    472.41181    404.66887    84.203349    39359.762 
  778700    307.98688   -1457.4485    485.02763    409.24503    138.90609    39359.762 
  778800      303.801   -1476.2417    466.75689     353.4026   -235.39217    39359.762 
  778900    290.69712   -1474.1754    479.27746    309.20402   -608.26412    39359.762 
  779000    301.16505   -1457.5314    482.17292     375.7038   -116.27004    39359.762 
  779100    294.59672   -1492.8661    464.26859    292.99847     56.17988    39359.762 
  779200    297.19108   -1481.8283    483.15457    334.56088   -458.01493    39359.762 
  779300    297.12021   -1442.8643    489.91797    379.97032    19.953956    39359.762 
  779400    293.01736   -1461.5499      490.238    343.19886     -204.169    39359.762 
  779500    299.14976   -1492.7745    469.35714    318.60408   -338.39042    39359.762 
  779600    301.93652   -1462.0855    465.82914    358.26684   -512.18239    39359.762 
  779700    298.12753   -1463.8658    447.98172    321.55156   -488.28039    39359.762 
  779800      299.369   -1460.4597    464.86467    347.40997   -407.88277    39359.762 
  779900    307.60321   -1448.4013    461.95726    393.50064   -565.86957    39359.762 
  780000    298.05037   -1410.3723    446.37917    373.09636   -641.08112    39359.762 
  780100    298.88367   -1486.8545    453.79433     307.7676    173.64983    39359.762 
  780200    311.52364   -1441.1546    468.07479    424.45234    440.72103    39359.762 
  780300    303.54785   -1442.4247    456.21154    375.53865     428.8871    39359.762 
  780400    302.22157   -1457.6304    459.88113    358.05263    257.40279    39359.762 
  780500    295.79647   -1416.7116     491.0158     401.2824    117.08177    39359.762 
  780600    293.29147   -1409.4002    472.27715    378.61737   -266.35029    39359.762 
  780700      302.964   -1428.0419    449.04232    380.13302    72.557537    39359.762 
  780800    301.43866   -1378.4061    472.83858    446.72227   -47.396402    39359.762 
  780900    293.42969   -1393.6218    505.74352    428.48222   -38.734786    39359.762 
  781000     290.6092   -1452.6831    477.94744    328.97182   -423.34522    39359.762 
  781100    298.41518   -1391.9654    491.42089    438.18158   -307.13219    39359.762 
  781200    315.60705   -1417.0579    465.81686    464.60982   -100.26388    39359.762 
  781300    296.28246   -1437.6101    436.78747    328.33582   -451.77407    39359.762 
  781400    293.11373   -1449.1943    492.46309    358.21185   -229.93348    39359.762 
  781500    296.07949   -1412.8337    492.20091    407.61503   -130.01896    39359.762 
  781600    296.01921   -1420.3774    469.79416    377.39422   -802.59837    39359.762 
  781700    293.92892   -1406.0911    476.15867    388.66771    -381.2378    39359.762 
  781800    295.93726   -1381.4386    471.72374    417.89491   -616.75552    39359.762 
  781900    312.18493   -1463.0632    477.73825    415.17383   -942.78854    39359.762 
  782000    293.71448   -1452.5908    455.21635    320.26372   -802.41747    39359.762 
  782100    307.77618    -1438.377    493.29589    435.63955   -656.77102    39359.762 
  782200    301.55329   -1417.1261    446.34853    382.02637   -785.52173    39359.762 
  782300     293.7898   -1452.7673    467.29557    332.50432   -245.11589    39359.762 
  782400    305.91671   -1411.2671    458.76364    419.87536    -121.7295    39359.762 
  782500    308.62623   -1467.4605    475.74685    392.82041    555.49003    39359.762 
  782600    300.23559   -1459.2401     471.9746    359.62711    604.70521    39359.762 
  782700    292.54921   -1474.6026    464.12662    301.93465   -17.090412    39359.762 
  782800    292.24407    -1441.363    474.83822    344.51695    -583.6738    39359.762 
  782900    300.91385   -1454.6009    468.79078    364.12527   -581.41949    39359.762 
  783000    311.63709   -1428.2698    461.55451    431.32587    -665.6122    39359.762 
  783100    305.30896   -1424.6841    473.25136    418.21959   -608.97722    39359.762 
  783200    294.81127   -1434.3346    468.48277    356.70662   -863.82714    39359.762 
  783300     304.9019    -1439.327    505.87991    434.37917   -367.81693    39359.762 
  783400    289.64917   -1469.0549    460.15826    290.50404   -482.32975    39359.762 
  783500    294.04973   -1469.2388    483.72784    333.63118   -223.08582    39359.762 
  783600    290.51926   -1457.9325    450.50842    295.87994   -441.42363    39359.762 
  783700    299.14518    -1488.283    474.35024    328.06816   -354.81352    39359.762 
  783800     296.0755   -1440.5354    458.85959    346.55414    6.5586578    39359.762 
  783900     304.4209   -1458.1835    463.29875    370.78374    51.077481    39359.762 
  784000    301.13304   -1552.7411    475.10679    273.28437   -115.86567    39359.762 
  784100    301.62285   -1536.3857    442.33889    259.06923      106.843    39359.762 
  784200    296.02945   -1494.3372    467.77866    301.46483    178.99883    39359.762 
  784300    306.23296   -1507.0321    466.79982    333.56522   -210.79487    39359.762 
  784400    297.03268    -1480.976    443.08267    294.63068    53.044728    39359.762 
  784500    309.53523   -1479.3376    478.58217    387.85651    218.85133    39359.762 
  784600    296.87029   -1511.9915       464.71    284.51396     82.26947    39359.762 
  784700    305.50139   -1492.3871    454.49198    332.62049    220.19395    39359.762 
  784800    308.16764   -1489.8143    455.07053    347.73295   -322.15799    39359.762 
  784900    301.13141   -1457.6499    446.62816     339.8896   -87.583218    39359.762 
  785000    303.15045   -1498.6366    462.27962    323.61201   -466.28523    39359.762 
  785100    298.28313   -1481.2531    478.47764    335.35819   -275.99289    39359.762 
  785200    300.19883   -1516.4593    449.22451    279.49288    -504.0237    39359.762 
  785300    294.90277   -1497.5406    463.74945    289.17786    -490.5188    39359.762 
  785400    296.55792   -1500.6874    458.58171    288.28844    32.836089    39359.762 
  785500    298.56676   -1494.1391    460.75988    306.02684   -400.11397    39359.762 
  785600    309.27762   -1456.0806    453.42479     384.8004   -228.84547    39359.762 
  785700     298.0569   -1490.7803    462.74951    309.08794   -160.90877    39359.762 
  785800    305.08135    -1507.337      469.644    330.93828    9.1095818    39359.762 
  785900    310.12035   -1497.0375    449.09114     343.2905   -54.832683    39359.762 
  786000    305.56992   -1497.0346     481.8977    355.68612    356.20872    39359.762 
  786100    299.60853   -1483.0777    462.36023    323.36202    374.08447    39359.762 
  786200    301.16339   -1496.8142    482.25738    336.49796    199.94033    39359.762 
  786300      309.547   -1470.3628    459.14873    377.45068    603.80262    39359.762 
  786400     301.4534   -1495.5822     480.6962    337.46986    122.22866    39359.762 
  786500    291.54734   -1478.0149    459.08207    288.98324   -109.84405    39359.762 
  786600    290.26399   -1520.8283    476.42359    257.75416   -35.416344    39359.762 
  786700    282.61541   -1485.4896    444.88158     227.2384    301.33506    39359.762 
  786800    305.65397   -1515.7664    473.26518    328.69887   -262.93744    39359.762 
  786900    304.37169   -1503.6377    467.63562    329.44553   -40.207996    39359.762 
  787000    298.24786   -1509.5844    425.42155    253.81262   -301.83505    39359.762 
  787100    308.34258   -1525.1971    492.03744    350.10186    214.67673    39359.762 
  787200    302.39709   -1506.3045     476.8409    327.12572    75.214602    39359.762 
  787300    299.78704   -1507.9597    477.07722    313.99791   -511.97415    39359.762 
  787400    289.73305   -1477.5818    469.96194    292.15707   -241.89875    39359.762 
  787500    295.24972   -1436.3271    482.90888    371.10721   -327.35074    39359.762 
  787600    292.52451    -1458.534    467.49754    321.26337   -339.17795    39359.762 
  787700    301.08675   -1482.2227    477.60345    346.09179   -36.665304    39359.762 
  787800     298.5022    -1478.932    462.54447    322.72891   -329.96392    39359.762 
  787900    294.82341   -1448.4791    471.81798    345.95185   -60.961371    39359.762 
  788000    290.23646   -1420.8266    492.69861    373.90732    34.755027    39359.762 
  788100     304.9604    -1462.637    447.85298    353.30467    180.43153    39359.762 
  788200    290.51022   -1485.0525    485.20824    303.41916    -233.3768    39359.762 
  788300    300.30735    -1490.002     463.1406    320.35317   -291.69442    39359.762 
  788400    313.91219   -1475.3674    467.68075    400.56081    -106.3123    39359.762 
  788500     301.8659   -1450.4647    472.54406    376.28573   -51.302253    39359.762 
  788600    303.03862   -1527.9776    474.46404    305.95376   -14.449131    39359.762 
  788700    300.83478    -1488.997    469.82052    330.40419   -294.52115    39359.762 
  788800    302.71901     -1505.84    454.57331    306.76684   -591.60357    39359.762 
  788900    302.78881   -1513.2877    447.44548    292.50443   -186.11568    39359.762 
  789000    298.02855   -1487.2597    469.51757    319.24945   -893.17623    39359.762 
  789100    305.80534   -1495.9391    499.75475    375.69478    31.397657    39359.762 
  789200    297.67045   -1487.2542    458.59558    306.72648   -691.35778    39359.762 
  789300    300.11773   -1505.4258    464.53474    305.47279   -134.12692    39359.762 
  789400    305.18385   -1504.6252    479.68795    344.15387    119.56346    39359.762 
  789500    301.89109   -1450.6474    460.03249    363.70449   -177.37718    39359.762 
  789600    286.90519   -1492.6927    477.79127    272.18943     126.7576    39359.762 
  789700    294.21509   -1501.0859    456.99515    275.79321    456.15302    39359.762 
  789800    300.90313   -1495.1083    462.13271    316.91166    269.66437    39359.762 
  789900    296.65352   -1485.1083    475.28212     320.9969    236.87788    39359.762 
  790000    301.25469    -1536.382    458.00508    273.08751    469.40105    39359.762 
  790100     305.5735   -1509.6783    472.19458    333.35544    710.91723    39359.762 
  790200    293.92903    -1530.107    463.75075    252.24444    430.61313    39359.762 
  790300    308.54471   -1546.2182    473.56689    311.51698    46.839412    39359.762 
  790400    294.52951   -1538.2826    488.19135    271.20321   -100.03824    39359.762 
  790500    292.53583   -1505.8428    455.24272    261.75055   -265.70382    39359.762 
  790600    292.66654   -1512.6173    472.92981    273.24946   -321.72273    39359.762 
  790700     298.6025   -1515.6052    492.68331    316.64448   -229.24757    39359.762 
  790800    293.08049    -1508.044    470.65077    277.40079   -482.04868    39359.762 
  790900    304.57101   -1523.1479    463.41507    306.60899   -258.22056    39359.762 
  791000    301.15428   -1519.9306    449.07211    280.15548   -441.66079    39359.762 
  791100     304.9324   -1535.4751    439.57963    272.06757    297.71304    39359.762 
  791200    295.68566    -1538.904    470.20657    257.78361    531.51417    39359.762 
  791300    296.64914    -1517.564    492.62029    305.85971    799.87314    39359.762 
  791400    301.19168   -1482.2744    463.03807    331.94543    534.12873    39359.762 
  791500    301.65863    -1472.947    458.79186    339.12141    343.28982    39359.762 
  791600    286.19149   -1477.3661    484.16353    290.68657    876.52539    39359.762 
  791700    307.48699   -1498.4549    468.55422    349.52255    498.33508    39359.762 
  791800    302.50052   -1440.3187    485.03118    401.76586    1078.8846    39359.762 
  791900    301.81371   -1463.9741    472.82146     362.8196    1005.3176    39359.762 
  792000    293.74083   -1491.3727    477.22207     303.6057    1082.7074    39359.762 
  792100    297.71074   -1497.0178    479.57617    318.12421    851.43294    39359.762 
  792200    298.75923    -1509.816    459.50339    289.95691    287.23859    39359.762 
  792300    298.17181   -1488.0742    455.34917     304.9092    5.9939061    39359.762 
  792400    298.50318   -1518.6251    479.77142     300.2671   -59.358387    39359.762 
  792500    298.16186    -1492.494    474.33176    319.42736     188.2595    39359.762 
  792600      301.617    -1481.741    478.85348    350.20225    203.53358    39359.762 
  792700    291.54932   -1457.5647    480.58807     330.9484    137.28322    39359.762 
  792800    293.07461   -1491.0877    460.60821    284.28811    84.468445    39359.762 
  792900    292.49503   -1459.0795    483.22147    336.30952    201.10084    39359.762 
  793000    302.17092    -1509.881    450.61131    296.30506    -278.7537    39359.762 
  793100    315.07122   -1479.1783    498.86443    433.13316   -270.92393    39359.762 
  793200    295.89989   -1485.5125    472.94663    314.87622    792.29509    39359.762 
  793300     288.8479   -1477.6516    490.65763    308.81215    385.55801    39359.762 
  793400    305.53187   -1471.5192    469.74537    368.87854   -464.15871    39359.762 
  793500    310.12287   -1444.7604    459.16722    405.65496   -740.74192    39359.762 
  793600    299.51136   -1468.9511     475.3135    350.00602    -423.5777    39359.762 
  793700    305.06078   -1454.2072    451.67653    366.00833   -678.02795    39359.762 
  793800    306.81723   -1474.0982    468.42259    370.74303   -350.04346    39359.762 
  793900    295.06757   -1434.1757    490.69476    380.22734   -400.49387    39359.762 
  794000    300.64162   -1427.8234    485.09532    405.98606   -666.98814    39359.762 
  794100    292.77285   -1440.7357    492.07014    364.74827   -236.58631    39359.762 
  794200    298.40156   -1462.3246    496.82848    373.16885   -237.22858    39359.762 
  794300    301.28422   -1434.0013    492.39277    409.98842   -167.49762    39359.762 
  794400    295.22052   -1455.2282    468.77735    337.94363   -218.41312    39359.762 
  794500    301.84546   -1478.7903    472.20753    347.53193   -361.68016    39359.762 
  794600    298.33601   -1432.3194    493.06603    399.11751    204.81911    39359.762 
  794700     299.0445   -1480.2009    454.02081    315.36923   -16.401279    39359.762 
  794800    304.16691   -1479.4848    469.16732    354.21151   -183.00353    39359.762 
  794900    290.59749   -1482.6126    489.29721    310.33955   -4.7439895    39359.762 
  795000    295.88051   -1479.7807    472.71486    320.28938    432.15218    39359.762 
  795100    294.22225   -1442.4953     457.5441    334.96487    473.19846    39359.762 
  795200    308.59574   -1490.9689    468.97333    362.40165    829.16064    39359.762 
  795300    300.67666   -1436.9904    479.85481     391.7357    405.27931    39359.762 
  795400    295.77427   -1435.3627    472.83978    364.35567    72.908186    39359.762 
  795500    291.29883   -1449.1085    460.81253    318.50528   -140.28915    39359.762 
  795600    309.34515   -1441.8208    457.53227    403.47068    495.34462    39359.762 
  795700    290.64773   -1483.3209    457.45907    278.01857   -140.41596    39359.762 
  795800    305.79803   -1451.4536    469.06416    389.45694    139.88054    39359.762 
  795900    309.24981   -1464.6205    475.74807    398.45911     -107.426    39359.762 
  796000    299.77788   -1442.8376    471.28217    373.28382    349.16138    39359.762 
  796100    298.85338   -1485.9341    457.54934    312.30708   -26.697245    39359.762 
  796200    286.03346   -1506.2275    456.81431    233.76702     47.95701    39359.762 
  796300    295.86625   -1483.1862    493.18512    337.29018   -186.37055    39359.762 
  796400    291.99772   -1457.4105      474.275    326.80104   -166.88715    39359.762 
  796500    307.32727   -1471.0789    452.64492    360.27276   -550.02141    39359.762 
  796600    299.86577   -1494.5853    442.94892    293.59725   -680.15948    39359.762 
  796700    299.61302   -1410.9129    493.86918    427.05598   -76.035482    39359.762 
  796800     298.9248   -1434.9829    486.46237     392.4917    622.04882    39359.762 
  796900    314.77919   -1442.4658    456.88207    426.55316    425.59472    39359.762 
  797000     307.2769   -1464.5045    486.57076    400.54703    1104.9807    39359.762 
  797100    301.49858   -1455.0953    473.90888    371.37217    960.54674    39359.762 
  797200    299.38115   -1440.3134    461.60804    364.35415     374.3555    39359.762 
  797300    289.59736   -1447.0345    471.86607    323.99979   -36.688555    39359.762 
  797400    289.09429   -1473.6103    469.30359    292.60472   -90.759569    39359.762 
  797500    294.47003   -1526.2627    473.23943    268.00434    242.00965    39359.762 
  797600    291.04292    -1493.465    455.29165    267.47986    230.61803    39359.762 
  797700    298.48874   -1517.2874    470.86428    292.63294   -229.47995    39359.762 
  797800    308.63692   -1470.7532    456.16964    369.99841    273.13445    39359.762 
  797900    295.52183   -1500.6282    452.39118    277.50915   -71.670453    39359.762 
  798000    294.58634   -1484.8483    458.00909    294.71024   -39.006398    39359.762 
  798100    314.61573   -1513.9755    456.24938     353.6775   -369.57418    39359.762 
  798200    296.24631   -1474.8389    482.76548    336.92277   -479.92694    39359.762 
  798300    301.76493   -1465.4217    489.25028    377.58202   -169.94976    39359.762 
  798400    302.42048   -1438.1232    451.17319    369.74425   -195.33697    39359.762 
  798500    286.32286   -1463.3803    476.05422    297.15236   -154.05785    39359.762 
  798600    288.67927   -1447.1307     468.8688    316.78764    514.25571    39359.762 
  798700    305.25663   -1478.9645    466.67863    357.13175    120.19914    39359.762 
  798800    301.53754   -1490.1173    443.10888    305.72491   -47.250234    39359.762 
  798900    293.55278   -1461.5674    456.89746    312.24284    -200.7176    39359.762 
  799000    294.52805   -1443.0957    475.87303    354.06526   -139.92331    39359.762 
  799100    306.83472   -1482.8594    445.06617    338.70389   -611.00078    39359.762 
  799200    300.25182    -1458.597    461.05933    349.42773   -292.10417    39359.762 
  799300    299.51165   -1527.0223    457.47643    274.09904   -178.12098    39359.762 
  799400    294.43663   -1482.2172    448.11227    286.77286   -91.471877    39359.762 
  799500    305.20933   -1511.0193    444.68052    302.86668    121.65092    39359.762 
  799600    294.72674   -1477.4689      484.187    328.89741  -0.51031884    39359.762 
  799700    303.56217   -1506.0303    452.20843    307.99422   -77.827059    39359.762 
  799800    293.40631   -1493.8464    446.61411    269.02332   -31.286352    39359.762 
  799900     291.7661   -1476.9308    451.01887    282.98555   -147.04172    39359.762 
  800000    304.97008   -1440.0023    460.40718    388.53694   -282.41589    39359.762 
  800100    305.92579   -1438.3778    492.19299    426.23469   -293.07354    39359.762 
  800200    293.69687   -1436.0734    478.68291    360.16864    173.01027    39359.762 
  800300    307.49005   -1446.9953     459.3875    391.82924    217.73244    39359.762 
  800400    296.39599   -1475.5713    445.22946    299.32592    570.47796    39359.762 
  800500    295.77958   -1412.9017    482.90578    396.90655   -328.91568    39359.762 
  800600    300.86615   -1439.4774     450.9425    361.18651   -246.46646    39359.762 
  800700    311.17347   -1415.3414    466.22631     446.8462   -173.58346    39359.762 
  800800    297.22348   -1421.4457    481.11609    393.05037    201.97767    39359.762 
  800900    294.79912   -1477.9336    463.25444    307.82478    267.04463    39359.762 
  801000    304.57572   -1450.1749    487.06442    403.25248    288.23359    39359.762 
  801100    307.79744   -1456.0674    456.70553    381.45413   -326.93754    39359.762 
  801200    295.38558   -1447.5731    476.02002    353.58176   -363.85179    39359.762 
  801300    295.62409   -1464.1552    467.30822    329.35787    33.543466    39359.762 
  801400    310.44261   -1439.2288    487.50557    440.95931   -344.71667    39359.762 
  801500    294.75937    -1440.655    498.96948    380.64009     -660.007    39359.762 
  801600    296.67909   -1435.3219    456.87829    352.49414   -311.10465    39359.762 
  801700    293.20912   -1396.2198    450.95983    370.11109    -631.5752    39359.762 
  801800    303.51997   -1412.7681    448.13683    396.99544   -823.68765    39359.762 
  801900    305.99232   -1460.1768    443.08768    355.62888   -282.91471    39359.762 
  802000    297.86418   -1471.6382    450.11357    314.72953    189.31448    39359.762 
  802100    302.28726   -1464.0722     464.9176      356.942   -219.46589    39359.762 
  802200     307.7194   -1487.9347    442.27674    334.80799    93.523944    39359.762 
  802300    294.29382   -1462.3987     465.5181    323.35653    -174.1102    39359.762 
  802400    302.02297   -1470.0304    457.85582    342.73647    129.00411    39359.762 
  802500    298.96286   -1458.2218    483.22012     366.1813   -779.16236    39359.762 
  802600    306.56187   -1482.6182    465.48717      358.142   -50.233936    39359.762 
  802700    301.35424   -1442.6589    445.42325    354.67538     134.7945    39359.762 
  802800    302.39637   -1431.6006    488.93638    413.92188    94.301683    39359.762 
  802900    294.26567   -1452.3921    430.75997    298.47871   -109.68979    39359.762 
  803000    308.25398   -1463.7883    485.99636    405.07217    445.98974    39359.762 
  803100    305.80735   -1456.3672    477.77702    393.29807    336.22656    39359.762 
  803200    298.09106   -1492.6024    436.56515    281.23473    -164.8743    39359.762 
  803300    298.84022   -1481.5005    499.81907    358.95139   -275.65856    39359.762 
  803400    300.03018   -1442.8932    459.03934    362.11726    361.71799    39359.762 
  803500    290.52901   -1464.4905    459.91577    298.77303    515.46809    39359.762 
  803600    295.91066   -1440.6564    476.55901    363.39307   -320.15781    39359.762 
  803700    303.33754   -1460.8947     457.4916    357.40518    511.68844    39359.762 
  803800    308.74677    -1469.739    465.29682    380.63264    80.573266    39359.762 
  803900    301.11369   -1480.0474    464.75421    335.53872    266.84834    39359.762 
  804000    298.92174   -1468.3355     466.3008    338.96385   -25.404127    39359.762 
  804100    301.58623   -1467.0924    476.60581    362.46511    -277.7633    39359.762 
  804200    311.15232   -1476.2961    444.24418    363.81445   -239.83266    39359.762 
  804300    290.17563   -1468.3623    475.25033    308.65046    291.11158    39359.762 
  804400     298.7226   -1484.0697    472.66623    328.70167    171.11355    39359.762 
  804500    313.03964   -1431.5002    473.58243    446.41537    486.90688    39359.762 
  804600    293.96716   -1462.4294    447.11844    303.46073   -237.84093    39359.762 
  804700    306.08026   -1478.2058    481.01409    375.92085    -759.3441    39359.762 
  804800    295.62557   -1454.7938    466.84104     338.2588   -325.99959    39359.762 
  804900    296.67823   -1406.5798    496.02156    420.37564    42.576655    39359.762 
  805000    292.39491   -1391.3491    495.83186    416.20119    13.385014    39359.762 
  805100    306.01202   -1429.9906    461.66263    404.47845   -183.33467    39359.762 
  805200    307.24735   -1458.6399    464.73094    384.43929   -659.96047    39359.762 
  805300    296.39363   -1494.9245      453.359    288.09159    -383.4993    39359.762 
  805400    305.37065   -1463.3759    490.16057    396.71375   -64.662112    39359.762 
  805500    307.42978   -1499.7652    487.52493    366.92634   -403.63043    39359.762 
  805600    301.07474   -1476.4705    469.96883     344.1555     273.6843    39359.762 
  805700     296.5727   -1486.8645    510.45006    354.04599    516.19299    39359.762 
  805800    295.76451   -1468.4143    458.57298    316.99353    338.74333    39359.762 
  805900     305.0792   -1511.8647    483.22249    339.97937     402.4716    39359.762 
  806000    301.06043   -1504.8686    475.78736    321.51166    252.75755    39359.762 
  806100    300.86375   -1476.8741    468.38756    341.22406   -200.75199    39359.762 
  806200    299.69227   -1515.0089    462.65756     292.1039    202.79401    39359.762 
  806300    302.09934   -1473.0925    488.02852    370.18958    425.49102    39359.762 
  806400     300.0413   -1461.0874    472.69046    357.62409    70.366532    39359.762 
  806500    307.70305    -1439.527     470.0465    410.91208    144.94519    39359.762 
  806600    298.91619   -1469.1808     470.3403    342.13312    454.97264    39359.762 
  806700    300.77571   -1504.0054    479.96422    325.27444    87.905095    39359.762 
  806800    304.64202    -1487.588    461.17449    340.24692    368.40648    39359.762 
  806900     285.6203   -1501.0302     468.3254    248.62182    253.24204    39359.762 
  807000    297.93518   -1456.0934    487.91242    368.39171    376.69443    39359.762 
  807100    304.40534   -1445.5851    476.39477    396.40836    305.75598    39359.762 
  807200    301.98441   -1466.3808    482.04817    370.40542   -69.059102    39359.762 
  807300    295.69116   -1467.8657    473.59551    332.23555    -297.4414    39359.762 
  807400    302.09022    -1494.794    473.31037    333.72906   -522.55616    39359.762 
  807500    315.61885   -1497.8194    491.38043    409.46476    882.57937    39359.762 
  807600    295.93931   -1454.5402    491.96174    365.04057    675.52215    39359.762 
  807700    303.06425   -1486.1823     481.4515    354.85154     700.5964    39359.762 
  807800     312.0613   -1487.8838    470.68964    382.75001   -95.439701    39359.762 
  807900    306.20876   -1432.4586     510.2802    451.51056   -285.20469    39359.762 
  808000    310.48884   -1429.9914    479.60593    442.50448   -155.01056    39359.762 
  808100    290.16113   -1453.1493    497.10863    345.65667   -404.94425    39359.762 
  808200     297.2796   -1423.6726    507.34003    417.29914    -414.9966    39359.762 
  808300    292.40538   -1426.0595    489.18394    374.88984   -513.24522    39359.762 
  808400    309.49879   -1460.2949     482.5989    410.75244   -350.27274    39359.762 
  808500    302.50397   -1478.5407    490.06116     368.5893   -360.04248    39359.762 
  808600    300.26749   -1477.1746    485.61877    355.47989    -492.1111    39359.762 
  808700    293.10575   -1440.3417     499.4976    374.06322   -226.14432    39359.762 
  808800    292.88736   -1470.4866    485.86813    329.30911    153.58587    39359.762 
  808900     294.4294   -1463.7762    478.04036    335.10948   -285.19812    39359.762 
  809000    298.26774   -1476.4913     484.0079    345.58119   -352.69356    39359.762 
  809100    306.48565   -1481.9807    489.83642     382.7869   -396.50952    39359.762 
  809200    303.84814   -1462.5668    487.15036    387.68251   -340.24943    39359.762 
  809300    293.33095   -1496.7139    482.99122    302.19489   -312.95779    39359.762 
  809400    299.53536   -1497.0906    456.76401    303.42468   -473.78703    39359.762 
  809500    295.80648      -1450.5    490.11805    366.64113   -231.88221    39359.762 
  809600     307.4178   -1490.3758    476.84638    365.58345   -541.58261    39359.762 
  809700    311.90883   -1444.5971    489.94397    444.60706     202.2549    39359.762 
  809800    291.32799   -1453.7331    501.45839    354.65737   -158.92849    39359.762 
  809900    299.54101   -1450.4619    477.08339    370.39812    425.09327    39359.762 
  810000    298.14541   -1441.1934    508.07386     404.3963    751.73777    39359.762 
  810100     301.4376   -1416.6337    489.09131    424.74263    822.31884    39359.762 
  810200    304.06209   -1402.7649    515.07696    476.37085    202.69454    39359.762 
  810300    298.90766    -1423.949    502.65424    419.64067    244.08985    39359.762 
  810400    297.42665   -1419.5066    476.88612    391.67095   -113.13247    39359.762 
  810500    310.53407   -1427.5916    461.69441    427.19561   -449.37388    39359.762 
  810600    295.58547   -1440.8526    502.60102    387.78003   -238.16993    39359.762 
  810700    298.01472    -1456.911    491.48748    371.50606   -758.86071    39359.762 
  810800    303.91244   -1441.4033    470.17644     392.1605   -192.96267    39359.762 
  810900    301.18956   -1460.7086      494.117    384.58062   -591.34666    39359.762 
  811000     296.2922   -1447.5005    489.57985     371.2815   -423.96066    39359.762 
  811100    302.51286   -1449.1754    471.56719    379.50056    -35.46915    39359.762 
  811200     308.7577   -1408.1811    480.02102    456.96375     250.1955    39359.762 
  811300    312.84891   -1422.7812    487.45251    468.14874    370.56453    39359.762 
  811400    296.88207   -1457.0065    458.71881     333.5606   -395.76403    39359.762 
  811500    305.13832   -1435.5486    480.12499    413.46324    239.23399    39359.762 
  811600    305.40137   -1420.3301    463.51955    413.25636    -145.1904    39359.762 
  811700    298.47508   -1419.6119    495.55088    414.93373   -184.42091    39359.762 
  811800    301.10878   -1416.0965    485.80539    420.51873   -712.38465    39359.762 
  811900    305.88103   -1458.4559    477.31292    391.07579   -147.16569    39359.762 
  812000    300.66145   -1460.4526    480.02994    368.38041   -228.41892    39359.762 
  812100    304.13508   -1482.1699    479.54648     361.7628   -208.61223    39359.762 
  812200    309.42361   -1458.5352    472.57669    402.15271   -386.76012    39359.762 
  812300    292.52304     -1447.83    481.03869    345.50184   -607.19877    39359.762 
  812400    300.30983   -1430.1039    495.49617    412.61793   -651.38235    39359.762 
  812500    290.65475   -1424.1921    491.35255    371.07231    -225.3209    39359.762 
  812600    304.97034   -1429.5491    494.70492    433.28909    177.97262    39359.762 
  812700    313.03192   -1455.4514     495.5689    444.41594   -39.619847    39359.762 
  812800    307.00626   -1464.6725    484.35924    396.95336    774.14578    39359.762 
  812900    298.58888   -1442.0251    494.15671    391.63694    354.19158    39359.762 
  813000    296.42305   -1456.9231    495.77168    368.63772    328.81525    39359.762 
  813100    290.14215   -1432.8759    491.39722    360.13357    328.82292    39359.762 
  813200    304.36957   -1427.6537    483.22008    421.00449    190.14123    39359.762 
  813300    290.27205   -1460.4743    470.41039    312.13108   -298.90718    39359.762 
  813400    298.90879   -1477.6771    471.53297    334.79634   -278.28019    39359.762 
  813500    292.91947   -1468.1384    461.67645    307.60971   -57.644652    39359.762 
  813600    297.97462    -1463.975    489.11862    361.89326    71.079719    39359.762 
  813700    291.21754   -1493.4793    468.65719    281.61444    261.48142    39359.762 
  813800    310.26314   -1465.0973    465.66129    392.44143   -367.42121    39359.762 
  813900    291.32015   -1457.5845    459.39491    308.70726   -341.55404    39359.762 
  814000    311.31475   -1486.6774    478.76513    388.68277   -602.22447    39359.762 
  814100    302.02612   -1467.2139    499.11109     386.8223    38.776714    39359.762 
  814200    299.62086    -1447.443     480.6402    377.33213   -237.90559    39359.762 
  814300    300.96116     -1441.69    468.62975    377.08742   -754.17188    39359.762 
  814400    311.18757   -1485.5688    468.25168    378.70741   -944.66732    39359.762 
  814500    306.93615   -1529.6772    460.48798     307.7629   -496.57067    39359.762 
  814600    301.39064   -1546.0548    451.59095    257.61046   -319.84722    39359.762 
  814700    302.64706   -1519.6604    470.35709    308.40742   -212.45183    39359.762 
  814800    295.81466   -1471.2596    485.29918    341.09942   -68.326669    39359.762 
  814900    304.08396   -1492.6477      463.459    334.96813    428.26131    39359.762 
  815000    304.40124   -1476.9521    471.17058    359.79874     33.43477    39359.762 
  815100    291.23538   -1446.2987    496.25993    356.47783   -504.07577    39359.762 
  815200    307.17344   -1450.4891    489.56364     417.0912   -120.00112    39359.762 
  815300    303.29068    -1438.377    479.82065    402.04177   -304.74233    39359.762 
  815400    290.65747    -1443.373    497.79642    358.34742   -255.65457    39359.762 
  815500    306.40937   -1447.1741    474.86746     402.2823    323.11093    39359.762 
  815600    295.11795   -1484.6654    481.73351    321.00238    600.30762    39359.762 
  815700    304.01556   -1421.5495    479.06034    421.36087    458.97505    39359.762 
  815800     300.4327   -1468.0062    464.30836    344.07907    875.29568    39359.762 
  815900      304.211   -1460.0899    495.06395    399.70081    607.88764    39359.762 
  816000    294.92096   -1464.1914    449.79916    308.65831    294.95419    39359.762 
  816100    305.07482   -1467.0348    508.35685    409.92409    247.22602    39359.762 
  816200    304.85146   -1454.7113    464.53658    377.42526   -161.49458    39359.762 
  816300    321.94866   -1451.7117     487.9134    480.50176    -314.3842    39359.762 
  816400    311.67055   -1423.2607    486.40848    461.33901   -397.62416    39359.762 
  816500    296.61921   -1460.0723    483.36299     353.9598    -175.8267    39359.762 
  816600     302.0212   -1461.3161    463.92401    357.51104   -542.54098    39359.762 
  816700     301.9667   -1478.8383    467.38122    343.20153   -342.39782    39359.762 
  816800    295.73709   -1462.4522    452.35331    316.61296   -569.35724    39359.762 
  816900    296.63888   -1443.7799    487.10365    374.08109   -877.92657    39359.762 
  817000    290.67456   -1445.3424    494.29045     352.9487   -82.178701    39359.762 
  817100    298.95096   -1468.0301    463.89006    336.98957    25.656158    39359.762 
  817200    292.23496   -1465.0963    491.34549    337.25007    243.67349    39359.762 
  817300    300.49568   -1479.1107    506.98235    375.93101    292.93569    39359.762 
  817400    301.89965   -1515.1302    477.78047    317.00812    103.43124    39359.762 
  817500    299.88105   -1449.4811    477.63838    373.45936   -196.72136    39359.762 
  817600    316.52094   -1468.8975    453.66856    404.72164    201.93107    39359.762 
  817700    300.80767   -1467.2694    486.90997    369.09962   -80.132847    39359.762 
  817800    308.08111   -1469.6292    504.74699    417.20636    8.6187199    39359.762 
  817900    307.50857   -1438.9896    462.09668    402.62712    282.03706    39359.762 
  818000     299.1037   -1409.6315    497.93455    430.11787    297.76717    39359.762 
  818100    292.88784   -1427.9351    502.92491    388.91958   -25.005586    39359.762 
  818200       304.83   -1461.4621    499.62748    405.66909    500.08868    39359.762 
  818300    291.51585   -1444.4081    470.26617     333.6329      321.763    39359.762 
  818400    296.32601   -1445.5316    489.13423    372.95636   -596.45356    39359.762 
  818500    293.32447   -1439.0084    487.53699     364.4171   -1026.6064    39359.762 
  818600    294.64617   -1450.2791    483.16705    354.70576   -418.95337    39359.762 
  818700    299.66536   -1437.3349     470.4312    377.43084   -426.22289    39359.762 
  818800    306.17839   -1442.6337    483.28537    414.20444    291.11236    39359.762 
  818900    296.35573   -1506.3727    483.93636    307.05074    170.40813    39359.762 
  819000    299.37078     -1476.71    474.35457    340.65751    181.21986    39359.762 
  819100    309.61605   -1450.8037    499.64875    437.81948   -29.344611    39359.762 
  819200    302.05252    -1462.956    478.86817    370.95575    41.348242    39359.762 
  819300    304.23833   -1517.6026     474.6257    321.87249    7.7127309    39359.762 
  819400    302.66336   -1477.6105    473.05966    353.23306    236.18844    39359.762 
  819500    302.27816   -1466.1013    502.51548    392.46998     360.2575    39359.762 
  819600    298.18237   -1472.5278    473.67892    338.83277    396.82439    39359.762 
  819700    307.67643   -1445.3387    500.75767    435.69209    654.84907    39359.762 
  819800     303.7907   -1488.5619    478.07046    352.34988    210.27394    39359.762 
  819900    308.43245   -1469.9715     466.9849    380.67811    719.49725    39359.762 
  820000    314.74957   -1479.2172    449.53377    382.32064    978.15065    39359.762 
  820100    307.48244   -1497.2134    490.75499    372.94442    1123.9954    39359.762 
  820200    292.82895   -1500.3625    486.34429    299.64736    574.71849    39359.762 
  820300    294.71394   -1493.6035    471.40047     299.9188     496.7918    39359.762 
  820400    303.05295   -1494.5743    463.92781    328.88516     472.6595    39359.762 
  820500    306.09661   -1505.6562    503.02655    370.55616   -146.47108    39359.762 
  820600    298.84924   -1494.3837     480.0607    326.35024    74.931332    39359.762 
  820700    291.83586   -1510.7841    467.11565    265.54204    478.06873    39359.762 
  820800    291.23088   -1470.7449    506.35212    342.10364    559.66282    39359.762 
  820900    299.21717   -1490.8152    462.39364    313.90234    365.19712    39359.762 
  821000    290.43917   -1454.9247    512.82496    360.84496   -97.309928    39359.762 
  821100     298.2635    -1482.321    473.46768    329.19226   -132.14165    39359.762 
  821200    301.11181   -1534.2819    480.38228    296.92379    313.48909    39359.762 
  821300    302.80301   -1527.5118    448.57646    279.47505    377.97491    39359.762 
  821400    310.29184    -1505.531     462.8788    349.35393    203.19708    39359.762 
  821500    309.94057   -1462.3801    466.65822    394.70841   -25.225554    39359.762 
  821600    315.51077   -1494.6502    502.39572     423.1644   -23.078461    39359.762 
  821700    308.42528   -1483.6055    470.18469    370.21169    285.82776    39359.762 
  821800    296.50149   -1450.3626    462.02549    341.80387    238.95319    39359.762 
  821900    282.86455   -1464.0303    498.69376    303.62757   -612.98579    39359.762 
  822000    304.14104   -1477.3389    457.76865    344.84267   -380.87012    39359.762 
  822100    288.67427   -1477.7893    487.16625    304.40407   -19.350094    39359.762 
  822200    294.72513   -1433.3857    452.01976    340.80616    -168.0015    39359.762 
  822300    301.46977   -1428.6845    469.79109     393.5359    -143.1169    39359.762 
  822400      305.292   -1507.4665    464.39959    326.50931    128.28055    39359.762 
  822500    299.09879   -1529.3602    465.01151    277.44413    64.876572    39359.762 
  822600    303.10986   -1568.5881    478.99386    270.19275    2.9337758    39359.762 
  822700    297.57617   -1485.6612    443.68247    292.98346   -435.38281    39359.762 
  822800    302.03811   -1483.1586    465.84697    337.66731   -162.57896    39359.762 
  822900    302.25313    -1468.837    495.33506    382.44165    19.136639    39359.762 
  823000    297.37888   -1470.9564    451.82069    314.94141    204.99966    39359.762 
  823100    299.37728   -1469.4535    464.83904    338.42765    -452.4966    39359.762 
  823200    296.34254   -1454.6091    453.66469    328.48358   -653.00024    39359.762 
  823300    299.63807   -1473.2782    500.03429    370.96815   -445.80139    39359.762 
  823400     308.8774   -1480.9885    439.79424    344.46651   -373.59475    39359.762 
  823500     298.2114   -1467.9193    465.98285    335.87541   -371.16909    39359.762 
  823600    303.39242   -1468.6552    489.30689    381.70623   -298.47916    39359.762 
  823700    303.93283   -1523.7789     444.4284    284.12839   -460.70757    39359.762 
  823800    303.39568   -1475.8479    477.48024    362.70154   -278.36654    39359.762 
  823900     294.5271   -1493.4498    465.26859    293.10246    173.01099    39359.762 
  824000    299.74967    -1486.809    459.44146    317.34524    469.94975    39359.762 
  824100    299.81469   -1507.9869    479.03781    316.05529    633.18586    39359.762 
  824200    296.04236   -1481.7328    443.14437    289.49285   -78.546362    39359.762 
  824300    301.47661    -1475.318    479.56623    356.70824    569.26443    39359.762 
  824400    298.65581    -1445.755    466.47757    360.52806    315.66336    39359.762 
  824500    302.69417     -1475.59     492.6695    375.00167    251.84888    39359.762 
  824600    299.94149    -1483.181    449.94628     312.3386   -196.03621    39359.762 
  824700     299.8424   -1414.8769    467.61008    397.86192   -46.179625    39359.762 
  824800    302.07846   -1410.3473    505.99629    450.80891   -56.002255    39359.762 
  824900    298.45988   -1446.7206    464.90113    357.10709   -502.71522    39359.762 
  825000    309.52898   -1438.1583    495.78864     446.2142   -100.29915    39359.762 
  825100    302.75266   -1487.1292    479.30389    350.35916   -3.9975508    39359.762 
  825200    301.14019   -1497.9808    463.74424    316.71419    189.98212    39359.762 
  825300    299.65758   -1447.1351    455.36939    352.53386    221.38378    39359.762 
  825400    297.84193   -1483.7599    476.54196    328.93648    480.01359    39359.762 
  825500      289.126   -1459.0522    458.53385     296.5353   -177.16128    39359.762 
  825600    299.30848   -1475.9302    471.67984    338.48314   -27.866365    39359.762 
  825700    300.97855   -1475.1459    451.08607    326.16585    364.97978    39359.762 
  825800    296.07086   -1498.9714    467.47274    296.71052    261.75596    39359.762 
  825900    306.43038   -1503.1328    428.44061    299.99096    -183.6275    39359.762 
  826000    299.77873    -1484.081    456.19896    316.96105   -211.03296    39359.762 
  826100    307.81991    -1513.009    464.01553    331.92333   -85.343716    39359.762 
  826200    297.38581    -1472.103    472.64415    334.64928   -78.993758    39359.762 
  826300    291.51051   -1459.7704    472.20815    320.18863    120.18237    39359.762 
  826400    288.73941    -1447.719    470.41089    318.01127    765.50489    39359.762 
  826500     294.1775   -1448.4872    476.86761    348.09567    146.15838    39359.762 
  826600    300.96281    -1451.749    461.86041    360.26639    96.259884    39359.762 
  826700    294.60085   -1469.2064    455.69327    308.10137    77.787759    39359.762 
  826800    302.81189   -1468.0701    485.72794    376.10806    621.35859    39359.762 
  826900    299.29791   -1439.5405    476.88367    380.02923   -23.539556    39359.762 
  827000    293.89786   -1458.7011    481.98237    341.74207   -570.79861    39359.762 
  827100    308.76224   -1504.9978    474.25246    354.39883   -631.72569    39359.762 
  827200    301.34488    -1460.307    464.77877    356.34081    -315.5064    39359.762 
  827300     299.6605   -1445.4605    457.85311    356.70532   -392.53037    39359.762 
  827400    301.51512   -1436.4119    499.21068    415.43155   -82.515287    39359.762 
  827500    304.02908   -1451.7791    497.52492    409.65648    232.82103    39359.762 
  827600    292.90334   -1460.6201    456.77625    310.15544    176.84662    39359.762 
  827700    298.22312   -1454.5146    474.58636    357.93622   -155.41281    39359.762 
  827800    299.86204   -1470.7894    485.70793    360.13532   -332.51701    39359.762 
  827900    304.82277    -1491.595    450.42264    326.29894   -433.81725    39359.762 
  828000    301.47936   -1472.4136    459.40222    339.46094    49.492484    39359.762 
  828100    305.72243   -1472.9505    471.71494    370.27168    226.86526    39359.762 
  828200    304.23093   -1420.4348    471.53331     415.9147   -48.317612    39359.762 
  828300    308.37308   -1422.8187    499.37637    459.95605   -88.425166    39359.762 
  828400    303.77946   -1453.9409    448.43791     357.2879   -110.02104    39359.762 
  828500    294.62212   -1454.1047    478.19537    345.80058    227.47441    39359.762 
  828600    297.97492   -1499.8409    477.90545     314.8155    695.76397    39359.762 
  828700    304.31524   -1468.3841    481.31471    378.12508    879.36536    39359.762 
  828800    299.74974   -1444.4343    461.32451    361.60323    3.7776721    39359.762 
  828900    294.19306    -1447.076    488.50062    361.20973   -140.45513    39359.762 
  829000    298.39962   -1460.7317    468.60494    346.52947    5.8861153    39359.762 
  829100    296.34842   -1452.5161    490.42279    367.36105   -179.20233    39359.762 
  829200    300.60695    -1460.293     456.5957    344.86125   -439.28045    39359.762 
  829300    306.51948   -1459.7442    486.77667    402.11534    25.218408    39359.762 
  829400      300.278   -1434.3992    478.92497    391.60863    -185.8623    39359.762 
  829500    299.79478   -1446.4634    451.79324    350.24494   -212.39243    39359.762 
  829600     289.7607   -1442.1785    482.50503    340.22755   -453.56173    39359.762 
  829700    287.95937   -1465.4216    472.86688    299.26529   -805.51894    39359.762 
  829800    298.75358   -1464.1377    471.12709    347.23349   -173.05014    39359.762 
  829900    287.98648   -1493.9993    486.57346    284.51584   -94.149947    39359.762 
  830000    304.62339   -1502.1103    456.52832    320.99481    174.01087    39359.762 
  830100    292.94876   -1535.4178    474.39098     253.1762    598.96582    39359.762 
  830200    293.57524   -1503.1741    478.92754    292.76693     200.0124    39359.762 
  830300    305.88038   -1487.3977    459.71399    344.53209    192.91055    39359.762 
  830400    299.71062   -1514.1847    458.30819    288.66106     280.3841    39359.762 
  830500    288.00277   -1524.3174    469.81564    237.51298    469.12119    39359.762 
  830600    304.58802   -1536.0994    467.56903    297.88771    580.30201    39359.762 
  830700    301.10375   -1579.1606    471.40748    243.03419    194.82425    39359.762 
  830800    298.20745   -1496.4334    459.83924    301.19997    25.049849    39359.762 
  830900     301.3091   -1519.6332    483.00275    315.07806   -29.284171    39359.762 
  831000    317.69189   -1518.7048     447.1385     353.6374    51.064198    39359.762 
  831100    296.19884   -1455.5712    481.99431    355.20637    209.24168    39359.762 
  831200    306.90882   -1483.8369     461.5205    354.51313    250.36227    39359.762 
  831300     304.7191   -1482.6159    475.49745    359.88776   -447.39895    39359.762 
  831400    296.17525   -1469.3541    476.59405    335.91742   -120.29248    39359.762 
  831500    299.42216   -1539.6588    439.86389    243.44854    -178.5587    39359.762 
  831600    302.42027   -1504.2321    448.45656    300.91779   -269.71096    39359.762 
  831700    296.62148   -1456.8341    480.36113    354.20631   -198.87813    39359.762 
  831800    293.78968   -1468.8167    500.51633     349.6751   -373.93241    39359.762 
  831900    301.72728   -1482.5489    474.20038    345.23599    173.03019    39359.762 
  832000    288.97771   -1472.5398    479.02498    302.87365    48.490575    39359.762 
  832100    298.22997   -1437.8823    490.66304    390.67595    477.89643    39359.762 
  832200    291.32461   -1401.7767    504.98549     410.1257   -41.052495    39359.762 
  832300    301.65549   -1465.9451    455.29417     342.6115    218.48944    39359.762 
  832400     293.1344   -1494.8431    466.52857    286.72131    297.46429    39359.762 
  832500    292.02665   -1503.4821     462.1944    268.77867    199.62671    39359.762 
  832600    301.09368   -1500.7704    460.91321    310.88488   -23.521625    39359.762 
  832700    297.85592   -1477.0016     455.0071     314.2227   -71.517281    39359.762 
  832800    300.68152   -1501.4868     443.9382    291.34453     366.4117    39359.762 
  832900    303.79641    -1509.444    463.02104    316.44388    418.99189    39359.762 
  833000    298.73189   -1501.8061    478.53076    316.87148    545.91909    39359.762 
  833100    300.20261    -1500.517    475.53324    321.76093    341.51176    39359.762 
  833200    305.05518   -1507.0706    455.17026    316.61354    -68.16359    39359.762 
  833300    297.90157   -1489.9115    476.59651    323.10695   -374.67603    39359.762 
  833400     295.2417   -1529.4113    461.55281    256.63096    384.98058    39359.762 
  833500    291.02202    -1505.442     485.8159    285.93333   -414.85419    39359.762 
  833600    310.30412    -1489.656    435.35045     337.7557   -263.35982    39359.762 
  833700    305.66632   -1477.3873    490.37243    384.24063   -304.61401    39359.762 
  833800    292.01722    -1508.124    455.64252    257.54257   -457.62056    39359.762 
  833900    302.56475   -1498.4825    452.04034    310.89935   -313.26553    39359.762 
  834000    307.21691   -1484.9367    466.93961    360.21453   -250.87142    39359.762 
  834100    297.93286   -1491.9315    457.42803    302.05888   -97.660601    39359.762 
  834200    293.75349    -1477.659    478.65417    318.80832   -350.66638    39359.762 
  834300    298.06701   -1499.7219     492.7805    330.22271   -584.35189    39359.762 
  834400    303.86036   -1480.5763      453.031    335.60847   -292.85435    39359.762 
  834500    298.79322   -1500.1436    480.65368    320.93203   -311.43185    39359.762 
  834600    301.58699   -1475.8308     466.9689    344.09325   -231.79226    39359.762 
  834700    299.61749   -1487.1201    455.21901    312.21871    324.30259    39359.762 
  834800    300.59209   -1500.1187    468.85824    317.23142   -24.942054    39359.762 
  834900    301.94113   -1500.9195    481.46545    335.08979   -361.50195    39359.762 
  835000    291.96746   -1524.6068      448.736    233.93002   -446.88534    39359.762 
  835100    301.63558   -1521.2701    456.98818    288.89124   -896.40302    39359.762 
  835200    304.23334   -1488.2012    486.63546    363.26129   -389.44691    39359.762 
  835300    298.10171    -1486.049    476.73997    328.01071   -254.10034    39359.762 
  835400    291.75894   -1469.9135    475.71763    314.66948   -305.70019    39359.762 
  835500    301.58486   -1529.3139    456.17835    279.81007   -428.91918    39359.762 
  835600    304.43886   -1499.0289    471.91806    338.63818   -21.686028    39359.762 
  835700    310.82184    -1498.493    480.52342    376.41422   -90.689446    39359.762 
  835800    301.26918   -1508.3432    465.72891    308.91516   -151.14973    39359.762 
  835900     291.7212   -1523.3408    478.49749     263.8527   -110.45688    39359.762 
  836000    307.33237   -1521.1609    478.90336    336.47205   -17.683829    39359.762 
  836100    301.14416    -1515.758    475.10696    310.31756   -199.96859    39359.762 
  836200    294.86291   -1525.2645    471.35611    268.88175   -223.57935    39359.762 
  836300    296.07955   -1544.7731    437.61862    221.09368    -446.4704    39359.762 
  836400    299.95192   -1551.3177    454.44198    248.74437    302.03973    39359.762 
  836500    296.15456    -1565.894    468.00667    230.69735    560.13445    39359.762 
  836600    304.75066   -1547.0137    481.94456    302.07862    588.10767    39359.762 
  836700    293.94448   -1564.1177    478.18927    232.74154    642.24515    39359.762 
  836800    299.62026    -1559.913       467.16    251.37922    219.86016    39359.762 
  836900    303.02434   -1511.7088    443.80603    291.50056    169.15014    39359.762 
  837000    296.70527   -1519.8367     461.6516    272.87002   -47.220615    39359.762 
  837100     295.3815   -1508.6013    471.99149    288.50675    357.15038    39359.762 
  837200    298.83526   -1512.7342    473.60221    301.47861    580.50403    39359.762 
  837300    301.21756   -1474.1947    489.88704    366.99022    223.80285    39359.762 
  837400      298.663   -1492.4254    471.00612    318.41855   -246.32396    39359.762 
  837500    298.81251   -1458.2293    489.09325    371.37246    -305.1469    39359.762 
  837600     298.2395   -1477.7467    461.96942     322.1606     82.56605    39359.762 
  837700     311.0319   -1478.7853    468.31406     384.8549    462.77713    39359.762 
  837800    289.76171   -1482.4665    477.55317     294.9922   -99.100654    39359.762 
  837900    305.31796   -1472.3201    485.11184    382.48442    85.523005    39359.762 
  838000    298.83815   -1472.0164    462.42322     331.0303   -61.732876    39359.762 
  838100    290.52094   -1465.2997    513.92304    351.93485    289.87993    39359.762 
  838200    294.16506   -1450.2892     485.1415    354.51179    337.94836    39359.762 
  838300      305.068   -1444.4658    510.76978    434.87536    635.58142    39359.762 
  838400    301.92765   -1452.1611    463.30274    365.62507    218.62744    39359.762 
  838500     305.2168    -1458.646    483.85869    394.45155    41.032941    39359.762 
  838600     309.1087   -1454.6741    488.60165    420.62598    77.153286    39359.762 
  838700     301.8864   -1443.4338    484.60239    395.46692    300.26827    39359.762 
  838800    303.80776   -1415.4142    478.81639       426.32   -113.93755    39359.762 
  838900    285.98752   -1445.5797    484.12035    321.51468   -532.61184    39359.762 
  839000     308.1787   -1461.8011    471.09703    391.82229   -548.57976    39359.762 
  839100    301.44088   -1487.8454    473.96632    338.42067   -232.00216    39359.762 
  839200    308.03335   -1497.3736    477.59611    362.09681   -187.12739    39359.762 
  839300    303.28178   -1484.5238    488.91837    364.95279    -320.4713    39359.762 
  839400    294.29348   -1477.8621    476.96171    319.33524     -485.459    39359.762 
  839500    295.97764   -1494.2193    476.81171    310.38337   -507.42872    39359.762 
  839600    303.83823   -1496.5465    495.51125    362.01921   -704.25827    39359.762 
  839700     291.0984   -1489.2261    480.28022     296.9562   -646.53116    39359.762 
  839800    315.54855   -1508.2329     507.6424    414.99784    54.225745    39359.762 
  839900    297.83637   -1549.7842    449.68596    236.03119    476.08334    39359.762 
  840000    294.77943   -1548.9002    480.24198    253.75744    191.16659    39359.762 
  840100    294.43398   -1521.1958    478.28804     277.9581    351.61524    39359.762 
  840200    300.21582   -1546.6903    468.18109    268.29474     552.2394    39359.762 
  840300    305.65177   -1505.2123     508.7552     374.7332    46.020529    39359.762 
  840400    299.89282   -1488.2018    458.92172     316.0748   -74.994576    39359.762 
  840500    296.14153   -1516.0653     475.0496    287.51049    -508.2551    39359.762 
  840600     308.3512   -1495.2011    481.55087    369.64995   -479.50934    39359.762 
  840700    288.01173   -1489.5927    466.11276    268.57501   -141.95039    39359.762 
  840800    290.06689    -1437.254    486.27244    350.29304   -677.11662    39359.762 
  840900    297.55975   -1490.7551    482.70231    326.83564   -514.51012    39359.762 
  841000    295.22063   -1474.2322    469.99582    320.15848   -97.013216    39359.762 
  841100    309.63442   -1450.7947    481.47957    419.74171   -133.74689    39359.762 
  841200    307.58708   -1434.9275    486.49087     431.4357   -213.20564    39359.762 
  841300    289.84126   -1498.7899    479.30421    280.77672   -192.66887    39359.762 
  841400    288.09253   -1492.1037    489.86854    290.18222   -111.32584    39359.762 
  841500    288.02876   -1489.0914    493.26001    296.29997    241.81471    39359.762 
  841600    303.71961   -1520.0573    465.01415    307.47922    375.06919    39359.762 
  841700    297.21391   -1521.0589    470.32952    282.60767    102.74213    39359.762 
  841800    291.79456   -1509.0109    494.99039    295.00459    287.64068    39359.762 
  841900       301.66   -1480.9413    482.94775     355.2891    701.40073    39359.762 
  842000    305.96614   -1502.7863    475.48574    345.30004    768.56581    39359.762 
  842100    308.74129    -1475.435    493.99749    403.61267    716.28565    39359.762 
  842200    296.69613    -1466.219    494.48974    359.28494     847.1219    39359.762 
  842300    295.98106   -1532.4202    497.05587    292.44193    398.30717    39359.762 
  842400    303.24312   -1481.2373    477.88345    357.03094    446.98392    39359.762 
  842500    296.78488   -1527.0507    462.88805    267.24963   -314.68213    39359.762 
  842600    294.00222    -1468.752    494.12416    344.30117   -217.65503    39359.762 
  842700    309.06699   -1472.2152    507.68567    421.98183   -424.93445    39359.762 
  842800    298.01989   -1506.4362    453.45769    283.97425    212.03007    39359.762 
  842900     290.5269   -1496.4409    485.37231    292.26972    705.90026    39359.762 
  843000    295.47957   -1477.5319    486.97867    335.00325    112.17211    39359.762 
  843100    292.41653   -1492.9366    466.73995    285.61877    305.17067    39359.762 
  843200    303.40086   -1482.0925    480.15448    359.15438    157.11052    39359.762 
  843300    312.05082   -1462.6653    490.76956    428.00143    588.21979    39359.762 
  843400    302.61666   -1523.7733    475.18263    308.98369    939.63989    39359.762 
  843500    296.92861   -1523.6214    472.86193     281.2976     462.3711    39359.762 
  843600    294.97055   -1526.3387    475.18942    272.12371    293.64882    39359.762 
  843700    297.50146   -1522.3468    478.64715    290.92737    346.65051    39359.762 
  843800    294.42071   -1515.7676    461.72489    266.76365    41.145835    39359.762 
  843900    305.92215   -1536.2269    496.96175    333.13806    340.33994    39359.762 
  844000    316.44837   -1527.2756    446.20228    338.55172    541.46287    39359.762 
  844100    309.74283   -1541.2306    486.07555    334.38821    72.855635    39359.762 
  844200    302.81265   -1517.1532    473.99377    315.29419   -68.888096    39359.762 
  844300    299.67496   -1476.4316    458.10283    326.04886   -379.50721    39359.762 
  844400    297.95619    -1518.161    468.83964    287.34564   -454.60486    39359.762 
  844500    299.71594   -1487.8336    496.21558    352.94337    168.22088    39359.762 
  844600    299.54763   -1458.5731    475.45974    360.69298   -76.171421    39359.762 
  844700    304.55703   -1469.8214    494.22216    390.67986   -234.02422    39359.762 
  844800    291.90132   -1435.9473    462.15572    335.71254   -248.06345    39359.762 
  844900    303.75667   -1454.5893    488.06233    396.16166    307.53393    39359.762 
  845000    296.36027   -1483.2772    476.49136    322.72165    100.30779    39359.762 
  845100    306.16507   -1464.5064    501.33343       410.32   -356.41883    39359.762 
  845200    283.19608    -1471.358    489.40181    288.49518   -353.71443    39359.762 
  845300    297.50722   -1518.5439    484.86448    300.97345   -513.02769    39359.762 
  845400    305.41294   -1527.4293    467.61903    310.30859    139.51064    39359.762 
  845500    298.19469   -1512.0865    476.73129    302.38176   -70.278931    39359.762 
  845600    304.99378   -1478.3611    474.57484    364.45216   -199.10803    39359.762 
  845700    302.23713   -1485.4265    466.72114    337.16643   -82.612557    39359.762 
  845800    310.42832   -1463.4879    478.36659    407.49706   -499.42981    39359.762 
  845900    313.01561   -1513.9322    457.19997    347.49306    208.49604    39359.762 
  846000    289.76633   -1502.8088    482.90809    280.02556    55.397253    39359.762 
  846100    311.37572   -1505.4441    459.71551    351.14003   -658.37991    39359.762 
  846200    302.35246   -1495.1286    464.21441    325.47498   -522.96602    39359.762 
  846300    295.70099   -1472.1332    474.45354    328.87021   -849.71323    39359.762 
  846400    291.15901   -1476.5287    475.05585    304.70109   -274.63835    39359.762 
  846500    306.66963   -1458.0381    458.75152    376.46987   -778.84868    39359.762 
  846600    305.21294    -1447.385    490.81849    412.65509   -647.35249    39359.762 
  846700    287.41147   -1478.6567    487.16459    297.87002   -393.18686    39359.762 
  846800    302.67775   -1502.6232    478.01946    333.24467   -206.04113    39359.762 
  846900     308.5096     -1515.77    476.19471    344.43555   -575.93729    39359.762 
  847000    311.81714   -1531.6474    471.10614    338.30757   -88.003502    39359.762 
  847100    314.62583   -1475.6429    482.74835    418.55444   -192.12601    39359.762 
  847200    288.57796   -1471.1574    480.83933    304.27707   -678.00701    39359.762 
  847300    293.08885   -1472.0348    483.61487    326.41163   -442.43943    39359.762 
  847400    304.18843    -1501.195    475.93433    339.36489   -352.89684    39359.762 
  847500    302.66128   -1480.1536    478.49241    356.11335   -30.688717    39359.762 
  847600    301.22756   -1502.8475    473.08524    321.58045   -173.37161    39359.762 
  847700    302.73329   -1495.5818    476.61371    339.12953    119.30081    39359.762 
  847800       295.73   -1476.1553    465.63786    316.16255   -208.84356    39359.762 
  847900    300.22863   -1458.6914    491.78894    379.95897    113.99118    39359.762 
  848000    306.37107   -1473.0499    472.51176    373.87894    96.132171    39359.762 
  848100    311.24874   -1464.9429    510.88178    442.23781    407.10017    39359.762 
  848200    295.98098   -1522.8497    462.67505    267.63127    95.542935    39359.762 
  848300    297.98552   -1511.7846    483.19191    308.20583   -30.401491    39359.762 
  848400    296.53367   -1531.6249    497.44255    296.10308    288.55338    39359.762 
  848500    298.43948   -1533.7068    462.17856    267.30681   -380.24643    39359.762 
  848600    290.49098   -1490.9246    487.06606    299.31854   -141.91033    39359.762 
  848700    297.94992   -1566.5027    456.08388    226.22007    209.96298    39359.762 
  848800    306.29199   -1561.3172     476.5555    289.30061     344.7636    39359.762 
  848900    301.59619   -1540.3213    474.91669    287.59181    400.31863    39359.762 
  849000    295.57816    -1516.624    476.72157    286.09646    382.59293    39359.762 
  849100     294.1003   -1526.5252     495.4249    288.26869   -102.86852    39359.762 
  849200    303.67233   -1519.1779    487.15103     330.2834    94.291343    39359.762 
  849300    295.08949   -1520.8918    477.16977    280.08459    122.28957    39359.762 
  849400    295.05977   -1568.1682    474.94681    230.45188     361.9383    39359.762 
  849500    301.63035   -1535.9602    459.65556      276.845    667.40788    39359.762 
  849600    307.78635   -1512.1455    481.04404    349.66482    130.54494    39359.762 
  849700    297.66182    -1490.418    491.14612    336.07446    156.15976    39359.762 
  849800    300.01688   -1531.1775     468.7298    283.46378    29.868432    39359.762 
  849900    311.07738   -1468.9492    513.40012    439.98115    145.05113    39359.762 
  850000    295.01561   -1503.3671    478.27218    298.38028   -206.97947    39359.762 
  850100    304.91848   -1469.6552    485.98243    384.22788      -335.54    39359.762 
  850200    306.06169   -1471.5193    470.51561    372.02548    -392.5086    39359.762 
  850300    311.24855   -1433.5741    477.54651    440.27046    258.81158    39359.762 
  850400    305.55426   -1480.5891    490.46949     380.6332     180.8894    39359.762 
  850500     296.0556   -1497.2747    469.37794    300.24388   -100.22604    39359.762 
  850600    302.97553   -1515.1279    495.32303    339.37942    -405.1508    39359.762 
  850700    305.72613   -1487.5294    485.43893    369.43342   -66.039854    39359.762 
  850800     305.2373   -1455.1356    501.45252    415.64783   -93.301462    39359.762 
  850900    316.40383   -1477.6055    511.38257    453.20232    79.186163    39359.762 
  851000    287.42885   -1465.9576    494.32741    317.80989    60.362144    39359.762 
  851100     304.8971   -1496.8762    489.46705    360.39556   -173.43177    39359.762 
  851200    305.83707   -1478.9586    451.94783    345.01078   -632.58423    39359.762 
  851300    304.52336   -1454.5795     472.2524    383.80095   -941.18661    39359.762 
  851400     292.7124   -1438.1572    504.68435    379.66982   -660.02274    39359.762 
  851500    292.48595   -1543.8481    460.73494    229.01365   -555.82949    39359.762 
  851600    291.98627   -1511.7433    484.71526    282.85718   -993.61762    39359.762 
  851700    304.76801   -1505.5701    470.77538    332.43087   -394.87372    39359.762 
  851800    307.04645    -1491.707    491.88647    377.62642   -641.41904    39359.762 
  851900    308.13026   -1489.9825    487.39234    379.71889   -473.05711    39359.762 
  852000    297.37564    -1483.989    481.15641    331.23001   -363.08061    39359.762 
  852100    297.55403   -1488.2921     461.9955    308.56623   -407.69071    39359.762 
  852200     297.9677   -1513.8539    495.84983     318.7145   -240.89315    39359.762 
  852300    303.98321   -1489.5027    466.91551    341.11771   -418.71174    39359.762 
  852400    298.34624   -1494.2943    489.20529    333.32776   -197.61891    39359.762 
  852500    306.42188   -1520.0545    479.34617    333.93666   -726.40121    39359.762 
  852600    290.68929   -1521.7366    493.42822    275.75838   -437.75028    39359.762 
  852700    294.19951   -1506.1157    467.27983    280.97815   -529.80405    39359.762 
  852800    299.61346    -1494.908    505.20335    354.39701    456.73595    39359.762 
  852900    296.76301   -1512.9209    478.73639    297.12971    296.84673    39359.762 
  853000    292.11779   -1519.5565    486.89205    277.81078    806.35211    39359.762 
  853100    307.56803   -1495.7839    491.12112     375.1241    597.41263    39359.762 
  853200    307.37359   -1517.8998    468.78334    329.79808    656.17897    39359.762 
  853300    301.17067   -1524.5681     475.8888    302.40816   -126.73315    39359.762 
  853400    292.26502   -1480.7645    489.54115    319.91236    -404.5418    39359.762 
  853500    297.01726   -1489.2536    486.62907    329.83025   -19.288344    39359.762 
  853600    296.96722    -1493.256     501.6098    340.58412   -587.26627    39359.762 
  853700    293.30559   -1469.4314    471.66168    318.03408   -25.826772    39359.762 
  853800    304.71517   -1520.9994    498.49396    344.48307   -189.23949    39359.762 
  853900    296.82166   -1541.7024    445.91697    235.79187    353.29061    39359.762 
  854000    306.54095   -1561.6883    473.76822    287.25909    152.39261    39359.762 
  854100    298.12146   -1528.0026    465.56907    274.97492    620.59874    39359.762 
  854200    307.86911   -1533.7553    498.41693    345.79916    974.80552    39359.762 
  854300    306.35976   -1539.4137    490.78532    325.73798    953.48096    39359.762 
  854400    298.84376   -1501.5907     488.4854    327.54344    288.93274    39359.762 
  854500    304.70231   -1493.3319    490.00133    363.60026   -115.15389    39359.762 
  854600    286.44929    -1507.619    479.82956    257.25616   -431.37636    39359.762 
  854700    301.88945   -1510.8681    484.54761    327.99157   -487.28593    39359.762 
  854800    294.85338   -1494.0281     479.5878    308.30713   -444.34894    39359.762 
  854900    308.69086   -1533.6378    490.68858    341.87472    -519.5893    39359.762 
  855000    290.88347   -1527.4253    462.09785    239.61045   -530.97326    39359.762 
  855100    291.38966   -1461.1009    474.97964    321.08749   -559.04304    39359.762 
  855200    301.40566   -1503.8661    480.63817    328.91378   -361.83061    39359.762 
  855300     296.4989   -1492.0826     473.2179    311.26471   -224.64878    39359.762 
  855400    300.44021    -1526.958    463.80932    284.66193   -554.31399    39359.762 
  855500    308.61486   -1534.3789    478.77764    328.88173   -188.47743    39359.762 
  855600    302.78634   -1530.0928    476.34685     304.5896    86.053658    39359.762 
  855700    289.45652   -1532.7106    492.47651    258.30236   -479.99968    39359.762 
  855800     297.5581   -1532.3782    476.13819    278.64102   -43.534344    39359.762 
  855900    289.29291   -1539.1433    469.66573    228.32492     361.6288    39359.762 
  856000    305.21737   -1529.8688    472.45956    311.83221   -18.572805    39359.762 
  856100    306.71467   -1547.8661    461.11143    289.20392    -341.5372    39359.762 
  856200    293.79797   -1559.2104    448.86105    207.66331   -360.05756    39359.762 
  856300    305.20288   -1542.3913    480.32963    307.11482   -714.30027    39359.762 
  856400    292.87486   -1508.8492    458.36655    263.38883   -270.98803    39359.762 
  856500     307.5349   -1553.7567    504.65954      330.541   -159.93416    39359.762 
  856600    294.60031   -1505.4805    471.97617    288.10773   -525.53256    39359.762 
  856700    305.80428   -1511.9449    468.72765    328.65713   -203.75218    39359.762 
  856800    301.84241    -1514.055    498.17775    338.22369   -525.04812    39359.762 
  856900    308.31758   -1497.1941    489.60718    375.56249   -173.00389    39359.762 
  857000     298.8109   -1483.0139    474.48177    331.96913    -27.17831    39359.762 
  857100    290.18593   -1481.5036    486.38941    306.69448   -350.36368    39359.762 
  857200    295.94036   -1484.1492    496.32268    339.79722   -296.43051    39359.762 
  857300    302.04032    -1524.439    469.60401    300.15382    37.939622    39359.762 
  857400    305.99708   -1488.6215     458.0737    342.19152    4.6429295    39359.762 
  857500    293.04828   -1515.2706     474.9559    274.33473     181.8953    39359.762 
  857600     297.7769   -1504.6557    487.83234    319.03924    66.046122    39359.762 
  857700    294.62344   -1537.9754    481.45345    265.19393    357.79634    39359.762 
  857800    294.22156   -1538.8315    489.46168    270.54314    212.99598    39359.762 
  857900    306.20317   -1510.8507    474.20225    337.01548   -174.49865    39359.762 
  858000    302.56176   -1523.1471    482.29413    316.47509    93.611158    39359.762 
  858100     295.2342   -1501.0242    471.95732    295.38894    558.75209    39359.762 
  858200    295.81684   -1493.6113    482.50806    315.96632   -146.45257    39359.762 
  858300    303.44579   -1484.1507    482.90623    360.04947    165.94501    39359.762 
  858400    298.26533   -1522.3999    473.23473    288.88861   -793.83594    39359.762 
  858500    301.11171   -1508.8955    464.48129    306.40875   -964.15399    39359.762 
  858600    308.27455    -1484.194     458.3665    357.12887   -255.33906    39359.762 
  858700        304.8   -1522.0936    481.47294    326.74847    -202.9559    39359.762 
  858800    294.96437   -1535.1237    466.64621    254.76783    200.57614    39359.762 
  858900      300.596   -1492.5726    467.09282     323.0297    427.79458    39359.762 
  859000    310.34156   -1517.0053    491.22026     366.4442   -123.80154    39359.762 
  859100     297.6148   -1500.7859    476.46736    310.81693   -177.40965    39359.762 
  859200    287.48828   -1480.3296    484.56321    293.94024   -379.48851    39359.762 
  859300    310.84544   -1509.8134    460.95707    345.63337   -599.49302    39359.762 
  859400    306.47337   -1531.5358    488.67452    332.01476    35.486182    39359.762 
  859500    292.47194   -1538.8701    469.50581    242.69966    342.44829    39359.762 
  859600    299.75695   -1531.2329    497.95551    311.46801    380.50746    39359.762 
  859700    305.80977   -1500.5396    476.54717    347.90664    168.44115    39359.762 
  859800    293.01969   -1519.1118    473.82693    269.23637   -257.21046    39359.762 
  859900    301.33013   -1498.2562    460.66092    314.20753    95.167981    39359.762 
  860000    293.15699   -1485.4846    479.60501     309.2576   -368.39307    39359.762 
  860100    306.53907    -1520.521    474.81402    329.46382    111.94646    39359.762 
  860200    294.72233   -1542.3675    467.86739    247.65937   -6.6021555    39359.762 
  860300    295.14863   -1491.3236    462.33176    295.08004    269.31167    39359.762 
  860400     300.6433   -1498.7441    474.58909     324.5667   -45.220653    39359.762 
  860500    300.50392   -1485.9737     497.7084    359.83106   -81.050664    39359.762 
  860600    305.38331   -1482.7722    465.69995     352.9137     235.4972    39359.762 
  860700    296.35323   -1494.8491    503.94556    338.57232   -108.84104    39359.762 
  860800    301.91651   -1502.9867    482.14953    333.59629    98.327271    39359.762 
  860900    290.18616    -1506.343    504.71121     300.1779     97.62706    39359.762 
  861000    291.11188   -1511.3241    461.11263    255.75112   -211.98868    39359.762 
  861100     303.9856   -1492.5443    488.72274    359.89406    235.71451    39359.762 
  861200    301.06949   -1430.7501    492.14373    412.02717   -605.30243    39359.762 
  861300    303.71449   -1476.8002    497.96171    383.66086   -505.95945    39359.762 
  861400    291.11182   -1460.9083      472.979      318.033   -351.58187    39359.762 
  861500    308.31965    -1452.345    482.85647    413.67009   -260.65219    39359.762 
  861600    303.33444   -1450.2265      483.685    394.25292    127.15056    39359.762 
  861700    295.01375   -1413.8189    501.28983    410.93778     31.37912    39359.762 
  861800    303.20298   -1422.7205    490.72161    428.20574     39.64361    39359.762 
  861900    295.32916   -1410.2685    519.14114    433.75446   -188.24873    39359.762 
  862000    299.93393   -1424.7012    464.25661    385.09479   -39.887298    39359.762 
  862100    298.94368   -1460.1001    466.08121    347.07804   -473.35851    39359.762 
  862200    306.21957   -1444.4334    493.21598    422.52011    96.898881    39359.762 
  862300    306.65113   -1444.7866    480.56546    411.45241    482.64452    39359.762 
  862400    291.63886   -1445.7197    507.55902    370.16597    37.696943    39359.762 
  862500    295.16228   -1423.4318     485.2921     385.9935    231.77698    39359.762 
  862600    313.28153   -1445.6907    500.18056    459.90807    529.24123    39359.762 
  862700    282.77132   -1489.1235    473.30492    252.72727    178.97593    39359.762 
  862800    301.32834   -1481.9984    481.73865    351.53511   -113.77012    39359.762 
  862900    297.45113   -1448.8773    492.17067    377.69452   -218.10989    39359.762 
  863000    307.39558   -1472.5904    495.09131    401.51414    391.79986    39359.762 
  863100      297.856   -1475.8104     481.0739    341.48104    247.63997    39359.762 
  863200    293.50469   -1500.1292    442.24934    258.81712   -196.77211    39359.762 
  863300    306.52752   -1484.4949    513.16445    403.78856   -553.72872    39359.762 
  863400    299.11504   -1461.1191    475.56769    356.31434    230.37871    39359.762 
  863500     299.3711   -1488.5798    497.88568    352.32032    533.23532    39359.762 
  863600    295.81073   -1465.9733    470.56315    331.63202    63.043736    39359.762 
  863700     308.4414   -1491.3298    466.78576    359.16077   -58.673269    39359.762 
  863800    308.49344   -1524.2095    477.14281    336.87169    427.76981    39359.762 
  863900    297.49589   -1523.6224    478.11436    289.09395   -205.44998    39359.762 
  864000    294.18737   -1490.9149    491.28957    320.13427    176.33808    39359.762 
  864100    305.12691   -1481.3253    461.27149    348.78187   -386.10512    39359.762 
  864200    295.36079   -1492.3722    457.49057    290.14203    210.15382    39359.762 
  864300     302.7384   -1455.7393    471.46194    373.84312   -282.67624    39359.762 
  864400    291.56656   -1444.3681    486.15265     349.7869    -130.7525    39359.762 
  864500    289.67422   -1494.6061    503.20781     308.1148   -168.44734    39359.762 
  864600    294.43606   -1470.2961    478.81923    329.39837     583.9733    39359.762 
  864700      296.643   -1474.8701    492.18194    348.08771    442.08492    39359.762 
  864800    291.59068   -1455.2495    491.65753    344.51863    280.12775    39359.762 
  864900    300.63622   -1496.9099    478.65359     330.4336    144.57863    39359.762 
  865000    295.63879    -1469.038    495.20665    352.43953   -462.98525    39359.762 
  865100    296.07443   -1411.2403     483.3345    400.31938   -906.04118    39359.762 
  865200    306.27812   -1441.0685    460.12632    393.05794   -373.88355    39359.762 
  865300    309.91268   -1450.3875    508.37081    448.28851   -381.68499    39359.762 
  865400    301.81211    -1434.221    479.11819    398.86225   -838.03451    39359.762 
  865500    293.47893   -1381.3264    491.26424     426.5193    112.44016    39359.762 
  865600    290.19507   -1442.6046    498.48624    357.73131   -341.61061    39359.762 
  865700    298.23505   -1475.4733    466.96658    329.41128    184.39686    39359.762 
  865800    294.95339   -1460.9481    474.99088    337.23881    66.161531    39359.762 
  865900    292.84554   -1455.5545     480.2316    338.41706    301.53722    39359.762 
  866000    302.18216   -1464.6855     472.5473    363.48699    436.39598    39359.762 
  866100    294.20572   -1473.1538    484.24241     330.9305    167.96497    39359.762 
  866200    296.53555   -1469.9047    482.00708    342.39621    165.65024    39359.762 
  866300    300.65502   -1494.5526    454.25485    308.47645   -105.98857    39359.762 
  866400    292.05514   -1466.3504    467.65238    311.49616   -80.154749    39359.762 
  866500    298.97893   -1464.6786    468.73261    345.30908   -857.17462    39359.762 
  866600    316.39141    -1481.624     455.1092    392.85476   -363.08686    39359.762 
  866700     298.1783   -1469.0014    493.58863    362.25055   -277.13305    39359.762 
  866800    293.62224   -1459.8826    477.53263    334.87437   -142.01784    39359.762 
  866900    309.92197   -1465.9354    480.24052    404.65199   -287.40468    39359.762 
  867000     288.8762   -1463.0111    475.69682    308.61878    41.131557    39359.762 
  867100     297.0857   -1466.3057    492.68188    359.13807   -171.34501    39359.762 
  867200    305.31644   -1458.6119    478.74006    389.81408   -386.71564    39359.762 
  867300    300.30042    -1418.847    464.85787    393.19431   -270.76259    39359.762 
  867400     291.1983   -1429.9235    494.20507    370.63182   -413.71422    39359.762 
  867500    306.88197   -1440.6364    488.57536    424.64803   -126.12432    39359.762 
  867600    304.73933   -1449.0494    473.96556    392.01306    321.74793    39359.762 
  867700    295.19839   -1416.7877    483.84499    391.35244   -304.71611    39359.762 
  867800    306.61232   -1438.9724    497.02205    433.54901    56.467024    39359.762 
  867900    301.68418   -1475.1984    473.33272    351.52548     285.1373    39359.762 
  868000    305.42633   -1448.1268    463.31952    385.37165    88.780596    39359.762 
  868100    299.10994   -1455.9371    509.85839    395.76416     425.4175    39359.762 
  868200    307.79081   -1471.1003    476.32554    386.01149   -112.53916    39359.762 
  868300    291.58476   -1497.8082    481.38231    291.65812   -68.401113    39359.762 
  868400    293.23003   -1455.6686    498.95076      358.747   -594.86328    39359.762 
  868500    295.05001   -1426.6822    468.21041     365.1577   -794.12887    39359.762 
  868600    296.46952   -1483.8669    464.25848    310.38921   -150.16803    39359.762 
  868700    309.58439   -1465.4574    483.64388    407.01892   -281.37884    39359.762 
  868800    306.10776   -1494.3587    446.55275    325.42988   -230.19655    39359.762 
  868900    309.58081   -1497.3764    477.92218    369.36211    96.437835    39359.762 
  869000    307.01895   -1513.5498    476.81782    340.59161     139.0018    39359.762 
  869100    294.91753   -1510.7017    458.41049    270.74393    199.99234    39359.762 
  869200    309.06895   -1485.4051    487.15348    388.26852   -139.06531    39359.762 
  869300    314.04273   -1505.6445    455.18984    358.37841    95.143624    39359.762 
  869400    307.41272   -1476.5274    473.58881    376.15148   -531.18036    39359.762 
  869500    301.97012   -1484.8533    426.23925    296.05989   -356.45054    39359.762 
  869600    302.76223   -1488.2343    480.73979    350.73292   -287.14141    39359.762 
  869700    296.69402   -1434.6715    470.87669    367.20994    24.940163    39359.762 
  869800    299.32447   -1467.6422    488.56859    363.73159   -391.98703    39359.762 
  869900     301.2507   -1409.3915    464.37298    406.42801   -171.43294    39359.762 
  870000     302.9935    -1384.803    477.99192    452.45384   -55.596135    39359.762 
  870100     304.5522   -1445.6188    492.92047    413.55914    88.772602    39359.762 
  870200    296.78919   -1437.6959    475.62346    369.35919   -156.90144    39359.762 
  870300    306.67475   -1464.6739    515.37648    426.48207   -54.956591    39359.762 
  870400    286.75874    -1452.707    467.20726    300.93409   -629.91293    39359.762 
  870500    294.46228    -1487.366    480.20893    313.83574   -181.16043    39359.762 
  870600    296.28324   -1464.1677    488.65651    353.65075    112.10824    39359.762 
  870700    307.64661   -1447.6424    455.41963    387.91659    284.78943    39359.762 
  870800    299.80099   -1439.2509    468.22421    373.91626   -529.30602    39359.762 
  870900    305.19331   -1448.8669    474.76464    395.03128   -325.72228    39359.762 
  871000     308.8782   -1454.4915    462.32342    393.49633   -137.30356    39359.762 
  871100    290.46371   -1470.8284    472.33678    304.56317    356.64756    39359.762 
  871200    295.83765   -1453.3898    454.83226    328.60537   -76.830571    39359.762 
  871300    301.31021   -1456.9612    506.48657    401.23892   -43.273924    39359.762 
  871400    306.66442   -1454.5773    469.06758    390.22343    80.513514    39359.762 
  871500    293.63735   -1450.7448    488.24396    354.79132   -242.64404    39359.762 
  871600    286.77946   -1445.5415    473.02673     314.0121    69.493014    39359.762 
  871700    305.08183    -1465.093    485.24733    388.78773    108.80734    39359.762 
  871800    300.63011   -1438.5746    464.56897    374.65686    182.11149    39359.762 
  871900     292.6377    -1444.485    475.36694    343.68949   -10.919586    39359.762 
  872000    306.10743    -1450.324    442.84604    365.75644   -11.349445    39359.762 
  872100    299.00684   -1428.1764     473.6498    386.85374   -55.908965    39359.762 
  872200    296.38839   -1449.9526    461.68969    341.37074     189.5805    39359.762 
  872300      297.713   -1433.4809    443.92612    346.02116   -66.629538    39359.762 
  872400    310.45877    -1496.779    447.85002    343.82609    120.31971    39359.762 
  872500    295.85658   -1489.6449    447.42462    285.02756   -129.98423    39359.762 
  872600    301.67142   -1451.6205    470.97091    372.68435    109.53499    39359.762 
  872700     299.5557   -1454.9376    466.73302    355.63795    525.89097    39359.762 
  872800    299.37647   -1446.8937    477.77671    373.92154     925.9621    39359.762 
  872900    294.89857    -1471.277    469.66412    321.33723    804.23476    39359.762 
  873000    300.84492    -1487.531     440.0477    302.14284     -109.059    39359.762 
  873100    308.95369   -1442.1644    459.52174    403.36035   -213.48245    39359.762 
  873200    300.56423   -1451.1016    467.14194    364.40731   -713.38305    39359.762 
  873300    303.58785   -1446.9499    449.42692    364.40831   -80.818743    39359.762 
  873400    306.29158   -1466.2471    468.37212    376.18553   -259.01635    39359.762 
  873500    295.46521    -1516.361    454.11565    263.24672    206.98609    39359.762 
  873600    303.05161   -1494.6602    439.51318    304.37864    300.25144    39359.762 
  873700    294.05648   -1468.9441    479.52452     329.7528    530.33511    39359.762 
  873800    301.35249   -1507.0866    482.24645    327.06302   -10.456129    39359.762 
  873900    301.05089   -1485.3335    483.24226    348.45894    22.329459    39359.762 
  874000    291.65281   -1455.8452    477.62418    330.16822   -250.33229    39359.762 
  874100     308.7398   -1467.3884    469.20087    386.85598     -307.534    39359.762 
  874200    303.43677   -1496.5905    445.19042    309.85346    -433.5313    39359.762 
  874300    287.17516   -1466.3194    484.48709    306.46965   -85.415546    39359.762 
  874400    309.76276   -1446.3812    451.21878    394.47017   -450.89532    39359.762 
  874500    294.68409   -1440.9838    470.04685      351.051   -184.15517    39359.762 
  874600    307.97069   -1404.6121    497.76888    474.74997   -41.922698    39359.762 
  874700    292.92454   -1415.0642    474.97839    374.00862    59.723642    39359.762 
  874800     289.9165   -1461.1798    460.56459    299.98479    -250.9278    39359.762 
  874900    309.94992   -1428.9578    473.91343    435.42788    258.67103    39359.762 
  875000    289.16711    -1461.928    489.14925    324.45934    497.54894    39359.762 
  875100    290.89333   -1459.2604    486.01515    331.73692      226.824    39359.762 
  875200    294.45133   -1447.2992    492.52852    366.17306    834.81295    39359.762 
  875300    297.44943   -1467.2485    484.16271    351.30774     624.1013    39359.762 
  875400    298.71343   -1458.8419    467.23751     348.4596     496.1068    39359.762 
  875500    306.30175   -1460.9932    483.17178    396.28469   -39.572539    39359.762 
  875600    290.82595   -1467.3264    475.39466    312.74808    137.11936    39359.762 
  875700    307.58959   -1425.8309    472.54711    426.59975     84.88199    39359.762 
  875800    286.45003   -1437.0941    467.36803    315.32292    41.103425    39359.762 
  875900    302.18638   -1431.0392    484.98579    409.59073   -135.53472    39359.762 
  876000     305.7908   -1409.4464    475.18321    437.55079   -652.81252    39359.762 
  876100    291.46387   -1429.4278    466.94766    345.06152   -552.45066    39359.762 
  876200    293.45664   -1412.8793    450.31739    353.91949    203.69635    39359.762 
  876300    306.90979   -1458.9129    464.10446     382.0254    75.514478    39359.762 
  876400    306.41302   -1432.4971    454.59257    396.70081    237.94839    39359.762 
  876500    300.48544   -1422.4706    475.00894    400.55181     260.4789    39359.762 
  876600    301.11911   -1397.8642    467.82272    420.81474   -199.48792    39359.762 
  876700    294.70775   -1423.8921    481.39056     379.5925    34.444542    39359.762 
  876800    292.36316   -1475.0969    465.72744    302.20648    252.80418    39359.762 
  876900    307.32175   -1418.5044    467.09631    427.27386    164.08148    39359.762 
  877000    298.71743   -1485.5502    478.47717    333.00891    351.19176    39359.762 
  877100    297.80059   -1405.3413    484.80315    415.43084    11.799728    39359.762 
  877200    291.21414   -1457.5807    457.84368    306.68432   -533.00439    39359.762 
  877300    309.31231   -1445.9313     497.9704      439.651    -424.8524    39359.762 
  877400    303.95688    -1437.341    459.27334    385.51911   -345.42356    39359.762 
  877500    292.95955   -1497.1162    424.38039    241.51566   -243.22166    39359.762 
  877600    302.80706   -1451.4395    464.01391    371.00295   -89.070492    39359.762 
  877700    289.57365    -1460.112    459.83114    298.78103    230.88918    39359.762 
  877800    299.91958   -1465.6692    459.05371    338.85948    215.17731    39359.762 
  877900    304.47679    -1494.516    469.28476    340.68787    530.68236    39359.762 
  878000      295.151   -1485.6159     486.5692    325.03587    305.75061    39359.762 
  878100    294.64565   -1485.6901    443.53202    279.65743    260.63322    39359.762 
  878200    291.18705   -1462.1792     512.8789     356.9995      476.001    39359.762 
  878300    302.70812   -1477.7359    464.39576    344.64454    257.45228    39359.762 
  878400    296.12466   -1477.9639     469.4814    319.96803    278.41946    39359.762 
  878500    298.92502   -1473.5207     475.0221    342.51459   -133.24856    39359.762 
  878600    293.85821    -1458.939     453.2692    312.61316    -81.69984    39359.762 
  878700    302.10875   -1456.2996    481.60571    380.60196    323.13837    39359.762 
  878800    302.84777   -1462.2323    458.08268    354.46157    45.554253    39359.762 
  878900    291.41871   -1474.0136    471.06524    304.39071   -810.46013    39359.762 
  879000    299.96799   -1443.5313    467.12951    369.29031     27.39397    39359.762 
  879100     300.5151   -1443.1282    484.77106    389.78942    379.36261    39359.762 
  879200    292.72829    -1441.831    486.64534    358.02832    292.73872    39359.762 
  879300    290.98823   -1443.3133    452.71627    314.81085    253.59357    39359.762 
  879400    288.11909   -1458.8849    477.82856    311.48022   -86.678087    39359.762 
  879500    304.94698   -1460.8692     469.7493     376.9086   -109.17915    39359.762 
  879600    302.60386    -1432.767    466.55647    391.30644    251.19539    39359.762 
  879700    301.37639   -1452.5161    477.92977    377.42407    705.08915    39359.762 
  879800    298.70492   -1436.0382    457.84367    361.83135    182.73434    39359.762 
  879900    302.12456   -1456.0494    486.67928    385.99663    28.986939    39359.762 
  880000    294.08552   -1453.1044    469.11428    335.31254   -240.10158    39359.762 
  880100    295.56454   -1415.4996    462.56701    373.00519   -561.33513    39359.762 
  880200    288.91223   -1431.3679    481.02664    345.75344   -581.02072    39359.762 
  880300    293.51029    -1457.555    468.56978     327.7369   -777.43427    39359.762 
  880400    305.00694   -1446.6932     462.2376    383.84189   -271.47749    39359.762 
  880500    295.53421   -1464.4833    462.37971    323.69807   -484.89037    39359.762 
  880600    297.15928   -1483.7651    472.06298    321.38984   -528.87058    39359.762 
  880700    303.98666    -1476.716    466.50731    353.51167   -129.14363    39359.762 
  880800    292.39314   -1470.6649    473.35763    314.40317   -145.19823    39359.762 
  880900    288.36886   -1485.4143    456.44307    264.68582   -664.75465    39359.762 
  881000    301.21232   -1484.8125     472.3794     338.8413   -520.46823    39359.762 
  881100     307.4109   -1500.0267    448.01423    327.06946    -272.4025    39359.762 
  881200     300.2535   -1480.6674    479.27099    345.57658    248.61266    39359.762 
  881300    293.47225   -1464.2273    457.22603    309.55025    377.61052    39359.762 
  881400    293.42089   -1491.2646    457.10357    282.16009   -555.43197    39359.762 
  881500    297.04976   -1497.0508    468.34058    303.89035   -288.33003    39359.762 
  881600    298.84646   -1503.2946    447.33791    284.70415    12.406803    39359.762 
  881700    318.61843   -1488.1483    466.37607    407.58796    142.97116    39359.762 
  881800    292.19158   -1504.8727    452.22768    258.16116   -477.16541    39359.762 
  881900     307.7812   -1442.8629    468.11901    405.99923   -123.97568    39359.762 
  882000     307.1088   -1496.3257    447.23873    328.63968    31.273406    39359.762 
  882100    300.75936   -1485.0912    457.95033    322.10147   -42.661251    39359.762 
  882200    299.41915   -1454.0335    454.45526    343.65167   -307.74148    39359.762 
  882300    293.32051   -1487.6897    485.52216    313.70322    318.04598    39359.762 
  882400    298.20965   -1490.1486     457.7343    305.38973   -331.51004    39359.762 
  882500    309.62422   -1507.6767    443.39268    324.72706   -75.522818    39359.762 
  882600    292.53889   -1468.5632    477.44979    321.25089   -273.71574    39359.762 
  882700    296.93452   -1484.2064    464.29554    312.17279   -144.84918    39359.762 
  882800    298.40488   -1494.8408    460.13996    303.97898    407.59259    39359.762 
  882900    295.32828   -1475.5169    476.47725    325.83817    271.98235    39359.762 
  883000    304.17265   -1498.9987    441.19405    306.75004   -91.968181    39359.762 
  883100    307.09698   -1440.6231    475.82868    412.87924   -106.63011    39359.762 
  883200    302.72908    -1484.961    455.90917    329.02689   -202.20932    39359.762 
  883300    300.79336   -1455.1668    498.26311    392.49119   -127.57138    39359.762 
  883400    289.13697   -1485.4461    448.62467    260.28151   -366.62065    39359.762 
  883500    295.45952   -1454.6646     505.9953     376.7973   -365.95501    39359.762 
  883600    296.17035   -1432.7784    483.86255    379.73965   -249.71848    39359.762 
  883700    304.54454   -1449.5935    466.56458    383.19418    385.17204    39359.762 
  883800    309.38928   -1442.2901    499.65264    445.31966    164.51483    39359.762 
  883900    296.60474   -1431.1606    478.34543    377.78906    614.70154    39359.762 
  884000    304.36318    -1417.421    478.16064    426.14907    768.98735    39359.762 
  884100    300.00343   -1423.6019    485.86154    408.11081     486.7094    39359.762 
  884200    306.93407   -1436.4729    459.90271    400.37264    542.73427    39359.762 
  884300    305.56967   -1484.8215    462.90173    348.90219    497.96677    39359.762 
  884400     292.1116    -1426.392    476.92389    360.97937    151.55001    39359.762 
  884500     298.9726   -1424.8735    481.19832    397.55154   -81.664058    39359.762 
  884600    306.63032   -1431.7644    484.95393    428.76967    95.553991    39359.762 
  884700    294.86466   -1434.9609    471.66917    359.50627    215.96054    39359.762 
  884800    294.98816   -1436.8874    471.23605    357.70073    42.665478    39359.762 
  884900     297.0329    -1420.906    480.34702    391.96598    -9.562772    39359.762 
  885000    306.66948   -1444.5317    486.45722    417.68136   -4.1350588    39359.762 
  885100    303.49345   -1432.9369    478.88242    407.45329   -396.83713    39359.762 
  885200    288.84391   -1411.2958    493.87151     378.3639   -238.71912    39359.762 
  885300    288.72417   -1431.7352    483.52816    347.04398   -99.418824    39359.762 
  885400    287.71542   -1485.8241    456.89576    261.79729    233.47166    39359.762 
  885500    305.51869   -1455.9667    486.17828    400.80481   -118.05966    39359.762 
  885600    302.90319   -1422.4905     475.7522    412.12152   -433.93812    39359.762 
  885700    295.98864   -1394.0241    440.86775    374.68395   -489.53617    39359.762 
  885800     305.3109   -1464.2413    436.15723      341.577    -282.9134    39359.762 
  885900    304.77683   -1525.8814    483.85042    325.23414    -137.4038    39359.762 
  886000    294.50186   -1485.8917    445.33654    280.61526   -669.73056    39359.762 
  886100    295.73597   -1499.2891     446.1788    273.59652    -593.1639    39359.762 
  886200    298.25293   -1539.2318    450.54844    249.31484   -192.95554    39359.762 
  886300    297.34575   -1507.7464    446.70024    272.88232    87.526688    39359.762 
  886400    303.86373    -1466.846    473.96429    370.28723    255.24126    39359.762 
  886500    295.54038   -1441.4085    466.95616    351.37705    480.24134    39359.762 
  886600    305.52684   -1435.2284    463.95542    399.35686    632.43717    39359.762 
  886700    309.99132   -1445.5973    470.11759    415.17833   -20.158834    39359.762 
  886800    292.60214   -1446.9755    448.27367     313.9462    333.26049    39359.762 
  886900    307.61074   -1468.4726    467.82219    379.32804    235.89993    39359.762 
  887000    294.77638   -1448.3655    459.02283    333.05928    228.18114    39359.762 
  887100    298.37849   -1470.5164    471.57901     339.6241    563.47901    39359.762 
  887200    293.26324   -1484.1137    460.35762    291.85779     920.1516    39359.762 
  887300    298.78377   -1498.7807    482.17973    323.77865    117.88585    39359.762 
  887400     310.0077    -1486.868    480.29729    384.16076    38.753371    39359.762 
  887500    306.93139    -1433.573    468.22279    411.58054   -237.12641    39359.762 
  887600    292.92226   -1459.0394     451.6693    306.71407   -24.934413    39359.762 
  887700    305.67012   -1491.2524    489.95192    369.97209   -32.624676    39359.762 
  887800    288.53247   -1494.1388    475.30709     275.5593    153.79411    39359.762 
  887900    293.61938   -1491.2016    462.19213    288.20202    392.71229    39359.762 
  888000    280.33141   -1509.7257    449.68995    197.56437   -28.933735    39359.762 
  888100    307.16513   -1500.0757    456.75812    334.66185    450.85973    39359.762 
  888200    292.77443   -1479.8957    484.11664    317.64197    155.80948    39359.762 
  888300    299.58225   -1496.9466    432.59083    279.60588   -62.998397    39359.762 
  888400     297.2177   -1527.1102    487.84253    294.08639     67.40299    39359.762 
  888500     294.4853   -1484.2027    482.88791    319.78136    392.91112    39359.762 
  888600    292.90977   -1509.5187    463.37039    267.87982      526.233    39359.762 
  888700    307.88447   -1487.5454    467.75468    361.41569    391.93494    39359.762 
  888800    302.97811   -1465.7272    451.61741    345.08604     212.2284    39359.762 
  888900    294.98675   -1496.8948    453.02176    279.47264    476.82251    39359.762 
  889000    301.15044   -1502.0884     465.5346      314.443     1136.618    39359.762 
  889100    297.18976   -1521.7354    481.93661    293.42992    704.50187    39359.762 
  889200     303.4064   -1510.9157    455.65189    305.85345    650.03445    39359.762 
  889300    304.06258   -1545.1095    439.08972    258.04117    246.46402    39359.762 
  889400    284.21843   -1530.3956    472.19377    216.83587    417.72973    39359.762 
  889500    302.56388   -1570.1666    448.18449    235.35551    779.96077    39359.762 
  889600    302.18464   -1557.5481    454.63892    252.72716    474.42995    39359.762 
  889700    300.13515    -1537.118    455.49684    264.82083    805.26606    39359.762 
  889800    301.26587   -1558.2298    458.49745    251.78227    253.68818    39359.762 
  889900    297.06897   -1562.3349    448.55865    218.91056    444.94872    39359.762 
  890000    298.50851   -1540.3978    437.07106    235.81799    765.53036    39359.762 
  890100    301.49499   -1508.7931    448.04735    291.79672    88.918133    39359.762 
  890200    289.79525    -1541.575    453.10489    211.58589   -234.04858    39359.762 
  890300    296.39693   -1526.4953    410.40089    213.57751    462.03247    39359.762 
  890400     292.6129   -1541.1115    469.94301     241.5279    610.09816    39359.762 
  890500    305.11902   -1539.4441    453.44758    282.80374    303.80041    39359.762 
  890600    294.32983   -1493.9711    456.85883    283.28645    96.398062    39359.762 
  890700    290.36337   -1560.3827    436.22303    178.44495    184.63499    39359.762 
  890800    302.57176   -1530.9905    463.64426    290.02673    145.88982    39359.762 
  890900    299.14851   -1502.3014    429.67001    269.38445    134.36441    39359.762 
  891000    308.50909   -1494.1524     456.5994    346.45555    -117.1654    39359.762 
  891100    307.83289   -1518.4365    447.48568    310.02416    368.44828    39359.762 
  891200    294.90586   -1499.0081     449.6241    273.59879    251.55165    39359.762 
  891300    296.05932   -1486.4466    456.77804    298.48881   -413.94737    39359.762 
  891400    306.19043   -1478.6422    450.35217    345.31669   -530.72848    39359.762 
  891500    303.98458   -1480.2572    464.45462    347.90843   -231.89505    39359.762 
  891600    302.22517   -1487.2837    454.94329    323.47775   -136.25241    39359.762 
  891700    297.56175   -1515.9269    450.82604    269.79655    53.157441    39359.762 
  891800    303.57659   -1507.5892    457.68615    311.97771    219.57742    39359.762 
  891900    295.40936   -1463.8097    468.01275    329.44462     341.5532    39359.762 
  892000    293.60242   -1440.0883    478.79092    355.83804    305.75401    39359.762 
  892100     304.4399   -1514.7437     445.3216    296.33151    56.292089    39359.762 
  892200    295.10034   -1477.4658    470.40561    316.79506   -222.05061    39359.762 
  892300     297.3604   -1506.9474    466.72739    293.77411    211.50457    39359.762 
  892400    311.21531   -1513.3814    467.88253     350.6501   -182.26029    39359.762 
  892500    289.49096   -1515.1151    444.99568     228.5715    97.704127    39359.762 
  892600    287.39688   -1513.9906    471.10326    246.40932    -283.5935    39359.762 
  892700    306.29558   -1539.7849    430.24426    264.53777   -433.25886    39359.762 
  892800     293.0049   -1535.8892    448.49138    227.05706   -423.51817    39359.762 
  892900    293.77149   -1497.9666    448.64266    268.56996   -435.46619    39359.762 
  893000    296.46932   -1505.9292    451.00361    275.07112   -458.47669    39359.762 
  893100    299.93054   -1489.9059    441.91336    297.53156    144.11267    39359.762 
  893200    295.91737   -1481.8464    464.43377    310.10795    119.72278    39359.762 
  893300    293.70729   -1466.4239    470.44593    321.62793    319.44585    39359.762 
  893400    299.45821   -1480.5471    458.97737    321.83542    44.699846    39359.762 
  893500    300.02856   -1452.5815    454.33779    347.72012   -392.02263    39359.762 
  893600    301.41727   -1460.8472    459.16425    350.51076   -257.27786    39359.762 
  893700     310.8604   -1465.7283    456.29575    385.12427    93.917718    39359.762 
  893800    296.09071   -1474.7774    440.66796    294.18877   -120.48225    39359.762 
  893900    295.24135   -1517.6448    469.86588     276.7089    120.59885    39359.762 
  894000     293.7164   -1486.9857    461.20961     291.8707    189.99283    39359.762 
  894100    302.75837   -1466.2612    453.26597    345.21485   -27.140896    39359.762 
  894200    296.15473   -1494.1934     461.0885    295.48052   -150.58702    39359.762 
  894300    298.50858   -1481.7702     462.9252     320.3001    -488.9428    39359.762 
  894400    295.30505   -1492.8424    447.36235    279.29361    319.25509    39359.762 
  894500    304.21565   -1454.3423    473.87692    384.28228    307.68562    39359.762 
  894600    302.25176   -1470.6909    466.65195    351.89847    454.00601    39359.762 
  894700    294.28391   -1449.4783    486.06587    356.78031    888.18196    39359.762 
  894800    298.74687   -1473.4538    460.12386    326.88404    1053.1895    39359.762 
  894900    301.28745   -1454.6441    461.86915     358.8364    1170.5457    39359.762 
  895000    305.16648   -1509.7949    444.88068    304.09897    215.29826    39359.762 
  895100    303.98302   -1494.6306    427.18457    296.25804   -347.85998    39359.762 
  895200    302.87011   -1483.2674    465.94907    341.39301    75.982478    39359.762 
  895300    308.86511   -1464.1348    445.30043    366.77129   -53.709035    39359.762 
  895400    297.73857   -1470.4412    443.63328    308.88275    84.370583    39359.762 
  895500    302.02892   -1461.5125    448.00931    341.43452    228.86293    39359.762 
  895600    305.35498   -1460.9054     459.9492    368.90266    698.20173    39359.762 
  895700    305.93863   -1525.1008    470.61719    317.99352    364.36158    39359.762 
  895800    298.62028   -1495.1541    455.32256    299.81459    509.88778    39359.762 
  895900     301.6943   -1467.6235    453.42072     339.2338    147.76476    39359.762 
  896000    293.04659   -1418.9519    456.72074     352.4107   -590.71522    39359.762 
  896100    297.09078   -1409.7072     473.9578    397.03525   -281.26719    39359.762 
  896200    310.38795   -1488.2752    455.76119    359.92327    168.74285    39359.762 
  896300    294.11258   -1485.1445    467.22338    301.50288   -186.00187    39359.762 
  896400    299.38412   -1489.5179    467.21387    320.76884    94.991812    39359.762 
  896500    298.11074   -1469.5016    464.40044     332.2591   -43.490271    39359.762 
  896600    297.32607   -1480.7142    473.14362    326.26958   -397.46654    39359.762 
  896700    298.75195   -1423.4849    459.14493    375.89692   -163.38636    39359.762 
  896800    314.11673   -1439.1453    459.35956    429.37934   -350.50672    39359.762 
  896900    298.94038   -1469.6849    433.46568    304.86299   -816.25279    39359.762 
  897000    309.06466    -1463.849    475.23112    397.88295   -773.89381    39359.762 
  897100    300.40618   -1432.3692    432.89117    348.17992   -581.95917    39359.762 
  897200    294.82292   -1432.3696    432.47583    322.71693    4.6257429    39359.762 
  897300    307.14174   -1451.3927    434.51895    361.00069   -293.89726    39359.762 
  897400    305.58781   -1456.9696    474.49123    388.42491    175.41519    39359.762 
  897500    308.00346   -1431.6197    463.30828    413.42885    210.88804    39359.762 
  897600    293.10816    -1424.956    474.20341    364.16549    674.79294    39359.762 
  897700    295.75612   -1470.3189     464.8788    321.35712    367.82127    39359.762 
  897800    299.79343   -1487.8396    464.87414    321.94359    498.09253    39359.762 
  897900    294.04178   -1453.6232    485.13166    350.61492    9.2940415    39359.762 
  898000    292.52358   -1467.7009    448.49293    293.08765    -427.3882    39359.762 
  898100    296.80014   -1500.7942    482.98688    313.67348   -130.14175    39359.762 
  898200    301.96208   -1450.6853    439.38047    343.33305   -572.65298    39359.762 
  898300    309.40064   -1466.1277    455.58065    377.46113     59.49275    39359.762 
  898400    293.57284   -1440.5495    471.95079    348.40403   -982.37219    39359.762 
  898500    300.75151   -1422.7621    470.25938     396.7044    -548.8595    39359.762 
  898600    305.88991   -1402.2666    483.45944     453.4514   -138.30233    39359.762 
  898700    285.54659   -1428.2264    491.27626    344.04582   -350.96832    39359.762 
  898800    309.71318   -1417.4984    458.66485    430.57664   0.13594758    39359.762 
  898900    301.50113   -1456.2727    453.48688    349.78415   -523.97741    39359.762 
  899000    310.58287   -1468.2236    456.67125    381.75935   -649.84459    39359.762 
  899100    317.76374   -1452.7846    453.69037    426.43172   -480.27028    39359.762 
  899200    289.72982    -1480.857    430.41422    249.31971    -620.9583    39359.762 
  899300    305.49586   -1515.8183    468.15463    322.82718   -474.58035    39359.762 
  899400    293.88314   -1502.3579    453.84289    269.87973  -0.81906771    39359.762 
  899500     299.0601   -1441.6364    441.34646    341.32935   -277.32816    39359.762 
  899600    295.55203   -1472.5467    461.76967    315.10456    -652.6831    39359.762 
  899700    296.54167    -1451.892    449.65467    328.08396   -233.28694    39359.762 
  899800    298.65884   -1484.2775    464.58627    320.12788   -393.84151    39359.762 
  899900    302.08101   -1466.7416    470.39908    358.82889   -256.98449    39359.762 
  900000    294.86902    -1468.876    476.66246    330.60405   -23.828323    39359.762 
  900100    302.37919    -1450.115     475.6571     382.0512    468.25209    39359.762 
  900200     293.2241   -1442.8259    470.22235    342.83467   -509.85843    39359.762 
  900300    298.37953   -1466.5201     443.9426     315.9886   -605.34477    39359.762 
  900400      304.123    -1472.127    432.49979    324.70479   -608.76885    39359.762 
  900500    290.44547   -1418.4513    466.39645     350.9181   -721.93292    39359.762 
  900600     296.2522   -1425.7318    435.68789    338.97868   -537.65493    39359.762 
  900700    302.55106   -1447.3637    467.70317    377.61954   -373.34553    39359.762 
  900800    296.80201   -1411.3761    460.17923     380.2923   -453.68954    39359.762 
  900900    300.72031   -1419.9457    468.96953    398.09099   -120.20088    39359.762 
  901000    309.97458   -1415.2333     464.8851    440.23473   -591.64363    39359.762 
  901100    296.98522   -1409.1623     435.3181    358.46682     -559.452    39359.762 
  901200    299.63187   -1410.0674    461.88319    396.00007   -533.48243    39359.762 
  901300    297.20587   -1449.8902    466.03116    349.44192   -555.39225    39359.762 
  901400    290.91686   -1467.6682    473.60195    311.02149   -107.68259    39359.762 
  901500    297.90826   -1432.7917    473.57094    377.23115   -74.386088    39359.762 
  901600    305.85891   -1444.7773    472.22435    399.56652   -659.53669    39359.762 
  901700    313.77788   -1430.3563    476.74739    454.03609      297.832    39359.762 
  901800    299.81598   -1452.3313     442.5225    335.20137    146.20606    39359.762 
  901900    289.56845   -1415.2567    465.59268     349.3746    213.07626    39359.762 
  902000    306.81662   -1443.7785    468.28423    400.92166    312.55223    39359.762 
  902100    290.47533   -1434.0581    460.76066    329.80951   -35.625035    39359.762 
  902200    298.68679   -1453.3261    467.07936     353.6978    110.18839    39359.762 
  902300    306.87177   -1420.2459    457.26946    413.68693    88.313813    39359.762 
  902400    298.87423   -1427.6197    473.80729    386.97304   -424.97918    39359.762 
  902500    294.67932   -1450.4886    470.48458    341.96253    210.75069    39359.762 
  902600     301.1922   -1457.7181     440.7973    334.26328      147.104    39359.762 
  902700    297.41113   -1442.1214    446.44493    338.54529     500.4474    39359.762 
  902800     299.6336   -1428.5977    479.00428    394.59861    40.679026    39359.762 
  902900    301.72519   -1470.4258    445.40001     328.5494   -74.326227    39359.762 
  903000    295.68395   -1440.6347     463.8043    349.64304    -44.97888    39359.762 
  903100    301.69505   -1415.1791    441.23448    379.49536     340.0931    39359.762 
  903200    310.33536   -1471.6686    465.79013    386.32293    831.24938    39359.762 
  903300    290.88511   -1494.9421    439.49034     249.4935    373.95602    39359.762 
  903400    304.30137    -1463.283    465.34826    367.19748    -137.6926    39359.762 
  903500    296.40186   -1423.9475    432.60971    338.35624   -331.54361    39359.762 
  903600    291.64226   -1442.0062    447.28429    313.62003    -803.4882    39359.762 
  903700    306.04569   -1454.8535    437.99868    356.10259   -824.22317    39359.762 
  903800    308.78773    -1484.629     457.2544    357.88391   -347.58142    39359.762 
  903900    303.07081   -1488.9073    461.75957    332.46406   -132.20093    39359.762 
  904000    291.44666   -1468.8629    455.74725    294.34882    286.92241    39359.762 
  904100    303.69607   -1485.8052    453.14032    329.75185    448.29218    39359.762 
  904200    298.45255   -1498.5977    461.77365    302.06965    861.80814    39359.762 
  904300    305.38129   -1488.8016    463.97838    345.15357    1098.6072    39359.762 
  904400    300.69122   -1484.3666     477.4902    342.06019    484.54287    39359.762 
  904500    292.94418   -1479.3559    445.16196    279.98859     502.4355    39359.762 
  904600    297.18202   -1487.5846    468.07732    313.68665    398.60501    39359.762 
  904700    314.31947   -1519.0876    456.61328    347.60027    341.82453    39359.762 
  904800    304.22246    -1519.277    457.09172    302.59294    287.92193    39359.762 
  904900    284.71078   -1509.4908    458.38047    226.13616    46.245879    39359.762 
  905000    299.13506   -1503.1291    468.41801     307.2444    90.238623    39359.762 
  905100    302.61129    -1469.801    496.81735    384.56663    260.81962    39359.762 
  905200    300.15209   -1430.0027    451.54012    368.05548    134.43681    39359.762 
  905300     301.8203   -1442.0776     450.3494    362.27365    279.86737    39359.762 
  905400    302.99509   -1502.0577    457.99007    315.20443   -116.41147    39359.762 
  905500    298.47501   -1470.7158    436.33334    304.61197      139.352    39359.762 
  905600    297.41223   -1445.1568    459.96058    349.03045   -906.28093    39359.762 
  905700    309.60276   -1439.0291    444.62654    394.51234   -768.40301    39359.762 
  905800    293.09601   -1444.4884    448.36184    318.73713   -926.61681    39359.762 
  905900    292.46598   -1476.8873    460.19268     295.3426   -663.86033    39359.762 
  906000     303.3796   -1482.4231    439.44801    318.02195   -364.76139    39359.762 
  906100    306.07598   -1470.4642    442.66005    345.28914   -320.55539    39359.762 
  906200    299.92241   -1483.7144    471.56487    333.33818   -265.33183    39359.762 
  906300    303.46041   -1474.5576    441.06584    327.86786    256.49605    39359.762 
  906400    300.48438   -1494.2174     455.6671    309.45846    191.09776    39359.762 
  906500     291.3307   -1444.2358    457.29513    320.00356   -340.69629    39359.762 
  906600    300.77317    -1471.308    454.27548    332.27175   -1072.3485    39359.762 
  906700    307.99735    -1462.083    454.34457    373.97437   -951.17321    39359.762 
  906800    302.40155   -1440.2554    477.21885    393.57278    -780.7454    39359.762 
  906900    313.56935    -1438.576    457.84775    425.98124   -139.12304    39359.762 
  907000    304.87699   -1437.1392    447.69735    378.27268   -474.72753    39359.762 
  907100    306.38034   -1453.8141    463.76437    384.40892   -5.5978656    39359.762 
  907200      309.082   -1450.3019    453.24074    389.51745    -225.1347    39359.762 
  907300    294.83943   -1401.4492    456.43356    377.66914    85.748759    39359.762 
  907400    300.06345   -1355.3156    430.09963    420.90441   -86.236739    39359.762 
  907500    293.10734   -1397.7743     454.0237    371.16382    105.41259    39359.762 
  907600    298.25261   -1436.7925    463.80966    365.01386    370.45489    39359.762 
  907700    305.05711    -1388.415    447.17621     427.2838     298.0571    39359.762 
  907800    293.40558   -1416.7012    440.67406     340.2253   -52.282048    39359.762 
  907900    298.98739   -1455.6487    464.67344    350.31776    382.88248    39359.762 
  908000    308.67408   -1434.7502    471.29192    421.29039   -143.68279    39359.762 
  908100    304.19365   -1421.8198    490.07394    432.90312   -171.03404    39359.762 
  908200    310.62464    -1468.448    461.50319    386.55432   -180.58748    39359.762 
  908300    303.51741   -1482.3688    443.09065    322.33706   -182.98585    39359.762 
  908400    300.00197   -1429.4944     426.5352    342.88535   -43.714395    39359.762 
  908500     295.3622    -1467.782    477.84774    335.09578   -810.49396    39359.762 
  908600     306.5586   -1467.6164      458.352      365.994   -577.13304    39359.762 
  908700    305.24518   -1417.0564    438.48849    390.79835   -376.75003    39359.762 
  908800    297.37026   -1419.1566    477.78907    392.67091    201.78326    39359.762 
  908900    293.69422   -1423.6096    463.79453     357.7322   -133.93743    39359.762 
  909000    289.39816   -1455.4937    476.42723    319.20816    578.94564    39359.762 
  909100    298.11467   -1460.3221    465.81782    342.87367    738.91774    39359.762 
  909200    295.67934    -1467.829    459.76273    318.38649    236.93825    39359.762 
  909300    289.70884   -1432.8474    460.53846    327.35948    387.78719    39359.762 
  909400    301.92606   -1472.2777    465.26934    347.46792     689.2953    39359.762 
  909500     300.2954   -1470.1358    469.32458    346.34969   -162.27138    39359.762 
  909600     302.9943   -1426.6907    463.42404    396.00186    206.93554    39359.762 
  909700    306.69005   -1454.5798    445.53767      366.806     273.2913    39359.762 
  909800    299.53533   -1426.6045    474.67616    391.82287    180.78464    39359.762 
  909900    308.14915   -1433.7319    499.00532    447.66724    386.65638    39359.762 
  910000    298.06541   -1449.6551    430.37553    317.87732    113.76362    39359.762 
  910100    305.10463   -1452.5935    488.82146     404.9637    373.90474    39359.762 
  910200    298.58208    -1460.501    464.55011    343.52391    561.21706    39359.762 
  910300    310.61444   -1418.8299    451.66738    426.29085    131.29592    39359.762 
  910400    293.66007   -1413.0126    472.31387    376.69533   -143.57554    39359.762 
  910500    295.08971   -1433.3572    469.86366    360.31404   -475.86379    39359.762 
  910600    299.15691   -1464.1447     457.4376    335.34642   -152.34397    39359.762 
  910700     295.2026   -1467.5893    458.29879    315.02354    391.43833    39359.762 
  910800    304.84018   -1485.8776    465.42915     347.1009    437.39767    39359.762 
  910900    290.60414   -1495.8581    454.13305    261.95971    -75.75697    39359.762 
  911000    299.81344   -1468.1026    477.29892    354.19513    118.40622    39359.762 
  911100    297.00131   -1474.3833    437.02299    295.02292   -39.410568    39359.762 
  911200    307.06331   -1433.3124    468.95727    413.16742     328.6871    39359.762 
  911300    299.91089   -1448.8087    484.61788    381.24509    -219.0961    39359.762 
  911400    301.19438   -1442.5923    443.98422    352.58585    62.207232    39359.762 
  911500    301.07927   -1461.3273    476.58867    365.93881    157.23921    39359.762 
  911600    298.08261    -1500.754    462.88549     299.3656    162.81985    39359.762 
  911700    296.24218   -1488.5999    456.74837    297.12613   -442.91715    39359.762 
  911800    296.89031   -1458.1882    483.39945    357.09651   -84.623961    39359.762 
  911900    292.86006   -1450.7069    455.03633    318.13453   -206.00343    39359.762 
  912000    295.80724    -1413.485    465.73602    379.27749   -200.50904    39359.762 
  912100    301.51402   -1414.9196    476.78002    414.48825    -307.2397    39359.762 
  912200    303.44152   -1456.7861    477.42501    381.91372    292.62185    39359.762 
  912300    296.74705   -1445.0186    498.92669    385.15067    214.29551    39359.762 
  912400    302.95805   -1447.0088    445.78314    357.88023    458.20884    39359.762 
  912500    295.51789   -1494.8113    452.17364    283.09075    149.05879    39359.762 
  912600    298.59757   -1445.8758    486.44261    380.11104    519.82181    39359.762 
  912700    296.16361   -1445.8823    466.32338    349.06629    865.85991    39359.762 
  912800    299.73464   -1459.8595    469.90792    354.69376     459.3828    39359.762 
  912900    300.81401   -1450.3223     474.2852    373.45036    291.55508    39359.762 
  913000    306.96654   -1465.1993    488.12224    400.01144    476.14441    39359.762 
  913100     304.1812   -1476.2891    452.99555    341.29958    398.06582    39359.762 
  913200    292.63169   -1459.4431    452.84294    306.18047    139.20846    39359.762 
  913300    298.66389   -1434.4263     448.4945    353.90993    55.314971    39359.762 
  913400    306.81961    -1465.955    496.30965    406.78399    242.25344    39359.762 
  913500    296.91703    -1501.439    468.42597    298.99215   -866.35434    39359.762 
  913600    295.50059   -1512.4362    439.65547    252.87016   -444.79777    39359.762 
  913700     304.2698   -1478.0586    489.49781    376.42982   -502.83204    39359.762 
  913800    300.37373   -1411.1159     483.9805    420.37691   -152.70808    39359.762 
  913900    295.55239    -1453.497    461.66576    334.05199     64.81605    39359.762 
  914000     307.1496   -1461.9326    462.66933    378.64645     306.8795    39359.762 
  914100    293.15696   -1453.4087    478.08197    339.81037    281.04471    39359.762 
  914200    298.78463   -1424.7473    463.06229    378.69841    489.82021    39359.762 
  914300    301.07414   -1454.7238     467.7563    363.68698    501.80329    39359.762 
  914400    300.43473     -1466.79    465.51539    346.51134    709.15808    39359.762 
  914500    297.13781   -1486.3386    469.71574    316.37277    461.23007    39359.762 
  914600    303.11686   -1469.8316    464.26261    354.24931    604.55856    39359.762 
  914700    294.09031   -1435.5737    473.24677    356.99727    226.23306    39359.762 
  914800    285.32145   -1480.6748    463.39795     262.7092    423.74449    39359.762 
  914900    310.98131   -1487.6394    459.43017    366.88994    370.88131    39359.762 
  915000    307.84881   -1449.1967    480.15925    412.00899     560.7781    39359.762 
  915100    299.56205   -1436.1621    460.47725    368.18623    688.24967    39359.762 
  915200    304.56289   -1408.9412    471.18177      428.546     856.9013    39359.762 
  915300    302.27361   -1417.8225    434.92147    373.13438     370.6821    39359.762 
  915400    303.66317   -1458.7534     468.3531    371.86887    272.29332    39359.762 
  915500    310.20393   -1442.4841    436.79365    385.92136    692.92076    39359.762 
  915600     298.9161   -1455.8142    452.34312    337.50219    117.08295    39359.762 
  915700    300.47103   -1443.0435    443.52767    348.43299   -311.39845    39359.762 
  915800    302.23125   -1444.9095    475.85578    386.79171   -39.816924    39359.762 
  915900    298.31666   -1459.4665    470.83268     349.6502   -745.37241    39359.762 
  916000    295.80312   -1467.2483    442.46514    302.22486   -211.77393    39359.762 
  916100    298.20014   -1438.8348    464.55546    363.48205     2.283437    39359.762 
  916200    303.72759   -1410.9549    472.77677    424.37997   -18.566128    39359.762 
  916300    296.83439    -1434.471    443.72439    340.88782    263.40583    39359.762 
  916400    297.94986   -1425.5842    475.35341    386.40774   -69.152765    39359.762 
  916500    288.24208   -1430.7261    477.57469     339.9369    85.419755    39359.762 
  916600    303.01959    -1460.994     470.0446    368.43261    504.26315    39359.762 
  916700    300.83022   -1442.3349    493.10335    400.32862    75.132306    39359.762 
  916800    291.74681   -1444.8697    464.42419    328.36541    137.16956    39359.762 
  916900    299.45761   -1416.3949    471.26368    398.27134   -188.84826    39359.762 
  917000    293.19073   -1466.9459    479.32161    327.66426   -411.75516    39359.762 
  917100    300.52162   -1478.2797    460.98745     330.8835   -219.38621    39359.762 
  917200    306.71104   -1430.0511     476.6515    422.54267   -11.313604    39359.762 
  917300    310.94139   -1434.4968    459.39836    419.82169   -233.74226    39359.762 
  917400    294.96956   -1430.6537    455.04202    347.65686    -255.2896    39359.762 
  917500    286.80047   -1408.0058    471.83644    350.45175    203.04434    39359.762 
  917600    299.44915   -1457.6144    465.13988    350.89008    473.75861    39359.762 
  917700    296.79777   -1469.0028    452.26742    314.73476    298.35722    39359.762 
  917800    298.39145   -1458.9371    469.25582    348.93826    675.22423    39359.762 
  917900    310.97486   -1480.4419    499.40325    414.03158    719.82905    39359.762 
  918000    303.44263   -1490.6308    439.13544    309.78448    417.68081    39359.762 
  918100    298.23849   -1447.1499    477.36824     368.1517    708.94886    39359.762 
  918200    294.03258   -1462.2816    450.71014    307.49367   -285.40819    39359.762 
  918300     304.3713   -1470.9834    472.91742     367.3799    84.818829    39359.762 
  918400    304.14786    -1457.208    445.27006    352.50556   -266.90087    39359.762 
  918500    309.64677   -1496.6366     469.0422    361.51784   -578.67253    39359.762 
  918600    297.65473   -1494.1348    450.14657    291.32638   -539.42599    39359.762 
  918700    296.63591   -1473.7136    451.92077     308.9512   -404.91688    39359.762 
  918800    302.22292    -1433.966    477.36958    399.21164    95.476912    39359.762 
  918900    303.22997   -1448.6999    466.02491    377.65074    -331.8253    39359.762 
  919000    295.58273   -1450.4227    460.99974    336.59637   -39.508469    39359.762 
  919100    302.70834   -1483.8792    454.63223    328.73872   -98.594392    39359.762 
  919200    296.87689   -1456.0064    448.23162    324.05032    -409.4378    39359.762 
  919300    313.00221   -1408.4014    482.01813    477.78196   -124.84926    39359.762 
  919400    302.15898   -1420.6967     468.2928    403.11725    232.84548    39359.762 
  919500    299.78222   -1425.8507    482.92144    401.92946    525.49617    39359.762 
  919600    287.23379   -1436.9878    463.17941    314.75661    741.53542    39359.762 
  919700    291.36194   -1500.4313    462.62346    269.27653    797.81624    39359.762 
  919800    300.02776   -1498.0952    476.25417    324.11928    492.20592    39359.762 
  919900    301.94065   -1433.7038    445.72507    366.56293    82.058559    39359.762 
  920000    307.15609    -1427.784    450.74241    400.89726    502.14365    39359.762 
  920100    289.70534   -1448.0157    449.67699    301.31399    332.78746    39359.762 
  920200    322.95727   -1479.3362    438.89184    408.38042    389.60185    39359.762 
  920300    287.57993   -1474.3775    454.89691    270.63728    81.885069    39359.762 
  920400      296.261   -1466.1521    465.73028    328.64036   -213.04194    39359.762 
  920500    306.41783   -1442.4082    442.02656    374.24521    455.14061    39359.762 
  920600    301.44306    -1458.937    453.87869    347.25112   -7.6217512    39359.762 
  920700    300.39346   -1461.6226    464.07643    350.05464    255.77815    39359.762 
  920800    294.30423   -1454.7615    463.17338    328.69569   -550.05734    39359.762 
  920900    294.62118   -1442.2248    453.12707    332.60798   -298.22192    39359.762 
  921000    295.34481   -1457.9232    452.44919    319.47802   -264.38545    39359.762 
  921100    293.38697   -1428.8311    469.99375     357.3315   -227.33208    39359.762 
  921200    298.83848   -1446.7241    473.16413    367.06504   -845.73036    39359.762 
  921300    307.45361   -1459.3864     479.3364    399.22357   -477.09762    39359.762 
  921400     298.5662   -1454.6896    486.24543    370.95934   -311.51925    39359.762 
  921500    297.19487    -1485.933    472.02222    319.34081   -110.68943    39359.762 
  921600    295.51131   -1464.3212    476.77825    338.15601   -148.99851    39359.762 
  921700    304.84151   -1458.4373    449.13826    358.25633   -155.77127    39359.762 
  921800    307.35239   -1464.7784    479.00181    393.04285    285.17464    39359.762 
  921900    301.52628   -1472.7967    473.39477    353.28085    101.43799    39359.762 
  922000    298.75616   -1462.5742    448.64079    326.32231   -163.45286    39359.762 
  922100    301.21675   -1493.9011    439.63092    297.02401   -145.00239    39359.762 
  922200    292.56085   -1490.2902    470.24535    292.41795    116.55012    39359.762 
  922300    296.62791   -1467.4588    454.12823    317.37754   -190.36795    39359.762 
  922400    303.28263   -1493.3731    447.34742    314.53633   -16.626086    39359.762 
  922500    301.96309    -1508.966    438.91251    284.58895   -143.23821    39359.762 
  922600    290.07344   -1467.8903    451.00905    284.42278   -492.13864    39359.762 
  922700    308.14026     -1468.98    459.20882    372.58272   -918.69972    39359.762 
  922800    302.24268    -1484.733    437.91543    309.07912   -323.99029    39359.762 
  922900    301.76496   -1492.0807    462.91661    324.58951   -1005.4813    39359.762 
  923000    283.86587   -1445.6168    461.15878     288.9981    -417.7769    39359.762 
  923100    306.14162   -1443.2665    467.84985    397.97115   -328.17055    39359.762 
  923200    304.41489   -1456.0865    457.09493    366.64991   -555.62904    39359.762 
  923300    303.44029   -1460.7566     462.2626    362.77528    17.246191    39359.762 
  923400     296.0657   -1439.1207    469.28506    358.35032   -487.53653    39359.762 
  923500      299.606   -1446.5891    484.43979    381.91891    73.059193    39359.762 
  923600    295.79519    -1471.045    468.88951    324.81702    448.25024    39359.762 
  923700    295.31351   -1485.0974    477.40595     317.1202    499.31207    39359.762 
  923800    311.57095    -1487.445    455.51505    365.81448    627.07842    39359.762 
  923900    301.47667      -1469.9    437.31231    319.87252    709.82806    39359.762 
  924000    300.48402   -1440.3172    452.51672     360.2066    624.24825    39359.762 
  924100    292.44951   -1474.4579      442.106    279.61144    490.73256    39359.762 
  924200     296.2353   -1495.0778    451.82459     285.6936    543.66815    39359.762 
  924300     291.9388   -1464.9024    479.55582    324.32562    881.30544    39359.762 
  924400    297.94148   -1459.2779     476.3663    353.68936    587.96935    39359.762 
  924500    307.94439   -1427.9522    432.44283    385.96586    909.03724    39359.762 
  924600    304.71376   -1452.5763    475.69446    390.10039    517.07196    39359.762 
  924700    300.03167    -1402.919    467.33323    410.39203    403.89243    39359.762 
  924800    302.15707    -1416.577    485.50038    424.43598    939.90173    39359.762 
  924900    301.78401   -1438.1076     474.3273    390.05877    898.25782    39359.762 
  925000    299.85472   -1459.8961    474.09693    359.38484    688.07322    39359.762 
  925100    305.03914   -1436.4943    468.77667     400.7243    336.86325    39359.762 
  925200     288.4015   -1451.9897    489.23991    331.05367    395.96346    39359.762 
  925300    302.03988   -1453.9839    482.81825    383.82123   -194.44488    39359.762 
  925400    304.72629   -1422.9568    460.79736    404.87898    119.34199    39359.762 
  925500    299.60864   -1408.7233    457.62475    392.98145   -46.704831    39359.762 
  925600     293.1126   -1427.9165    469.60828    356.62982   -103.25262    39359.762 
  925700    291.93012   -1413.9849    475.30879     370.9572   -101.69717    39359.762 
  925800    307.34586    -1423.886    460.07738    414.98157   -863.73036    39359.762 
  925900    292.12358   -1427.3957    448.72675    331.83219   -63.295524    39359.762 
  926000     308.4009    -1402.853    464.46381    445.13398   -35.514508    39359.762 
  926100    294.16686   -1397.6271    498.92306    420.96356   -246.76112    39359.762 
  926200    314.31041   -1447.0107    463.93762    426.96088    340.07142    39359.762 
  926300    292.27124   -1434.5407    457.92411    334.54701   -46.180908    39359.762 
  926400    286.82295   -1418.6274    475.40788    343.50242   -148.66992    39359.762 
  926500    306.00266   -1437.8228    476.62975    411.57129     18.66422    39359.762 
  926600    300.42475   -1427.8925    468.51784    388.36653   -489.97351    39359.762 
  926700    297.44645   -1425.0921    462.67324    371.96138   -556.56549    39359.762 
  926800    297.65184   -1439.7935    477.82241    373.33058    -143.5718    39359.762 
  926900     300.1616   -1477.3077    443.40943    312.66247     -679.283    39359.762 
  927000    301.80357   -1483.5335     444.5294    314.92268    402.88563    39359.762 
  927100    302.72234   -1468.4419    483.13658    372.74311     54.71313    39359.762 
  927200    302.28742   -1476.0261    451.01046    331.08174    454.80884    39359.762 
  927300    295.76345   -1454.8013    460.63396     332.6627    436.90737    39359.762 
  927400    291.51475   -1460.3724    455.79059    303.18812   -107.73407    39359.762 
  927500    292.57104   -1475.3418    458.80789     295.9746   -310.78358    39359.762 
  927600    297.37336    -1468.163    469.76419    335.65344   -339.52848    39359.762 
  927700    294.93673   -1447.9738    443.62255    318.77008   -324.67425    39359.762 
  927800    297.37854   -1475.5628    458.36979    316.88251    -248.2573    39359.762 
  927900    295.74794   -1484.8411    453.31443    295.23382   -352.51707    39359.762 
  928000    303.39126   -1450.1322     481.9163     392.8335    31.629139    39359.762 
  928100    301.88777   -1456.0026    495.22383     393.5257     126.4502    39359.762 
  928200     314.7098   -1454.1191    468.99391    426.70047     73.39301    39359.762 
  928300    306.65341   -1481.1583    454.61947    349.14496    583.00048    39359.762 
  928400    300.04277    -1489.751    452.06707    308.34368    201.06288    39359.762 
  928500    307.29374   -1465.2492    476.88306    390.19016    230.93125    39359.762 
  928600    299.80821   -1433.6314    486.10587    397.44987   -362.12642    39359.762 
  928700     302.4507   -1434.4687    496.62579    418.98699   -284.03179    39359.762 
  928800    296.29738   -1463.4391     456.0689    321.85521   -547.17579    39359.762 
  928900    302.70297   -1446.4499    467.95525    379.46694    -508.7972    39359.762 
  929000    299.99967   -1436.9285    466.37254    375.27826     99.27498    39359.762 
  929100    295.85637   -1485.1546    446.16447    288.25679     266.0099    39359.762 
  929200    309.78277   -1458.4566    443.56534     374.8312    348.10938    39359.762 
  929300    299.20732   -1442.9612    484.70707    384.02557    255.77099    39359.762 
  929400    299.21811   -1463.4549    470.12749    349.00062   -129.58173    39359.762 
  929500    306.37095   -1500.4457    459.94818    333.91908      219.687    39359.762 
  929600    297.66175    -1483.744    455.31176    306.91385    553.37417    39359.762 
  929700    300.25948   -1487.3339    462.01479    321.68068    294.07303    39359.762 
  929800    309.34267   -1531.2436    450.65292    307.15744    490.90749    39359.762 
  929900    304.74988    -1508.259    457.27694    316.16221    963.52257    39359.762 
  930000    302.44189   -1516.6381    458.21684     298.3691    496.68517    39359.762 
  930100    290.59864   -1463.0635    462.57343    303.17001   -277.77581    39359.762 
  930200    313.30881   -1461.1614    444.73339     389.1126   -386.72397    39359.762 
  930300    283.00497   -1450.1022    469.81575    289.30754    14.979677    39359.762 
  930400    301.56239   -1433.7547    466.92923    386.01935    -375.1165    39359.762 
  930500    294.15359   -1440.2516    456.60243    335.95889    132.82969    39359.762 
  930600    299.27451   -1481.9199    455.59254    316.25373   -82.579427    39359.762 
  930700    309.23375   -1500.4042    463.88037    350.73565   -583.44178    39359.762 
  930800    298.40498   -1464.6216    471.65258    345.71126   -266.20973    39359.762 
  930900    298.39775   -1448.9673     453.0516    342.73213    317.76479    39359.762 
  931000    300.01903    -1462.927    481.77085    364.76495   -204.26179    39359.762 
  931100    293.57913   -1505.1947    445.92086    257.75715   -213.37498    39359.762 
  931200    304.31945   -1470.1908    464.17603    359.19851    285.92995    39359.762 
  931300    292.38454   -1509.5231    488.08714    290.23594    174.91402    39359.762 
  931400     309.6637   -1476.0908    465.18849    378.28593    915.18099    39359.762 
  931500    304.42203   -1459.5326    455.34397    361.48487     530.8404    39359.762 
  931600     311.3713   -1511.9904    496.52895    381.38727    667.48007    39359.762 
  931700     293.5739    -1481.402    461.71618    297.32169     499.9316    39359.762 
  931800     293.4521   -1526.1341    457.82315    248.15009    477.36494    39359.762 
  931900    301.57505   -1493.2952    481.71479    341.32117    614.47661    39359.762 
  932000    302.09696   -1476.4621    468.89868    347.67953    71.583178    39359.762 
  932100    291.00565   -1510.4058    477.00296    272.08316    173.88885    39359.762 
  932200    302.21539   -1475.4933    472.73861    353.01949    6.4284711    39359.762 
  932300    288.91569   -1473.8244     468.6504    290.93618   -379.47534    39359.762 
  932400    303.37645   -1467.8436    461.67855    354.81785    378.00728    39359.762 
  932500    307.61702   -1524.7316    485.81856    341.09353    459.84308    39359.762 
  932600     306.9883   -1514.9699    483.76506    345.98123    88.614474    39359.762 
  932700    307.18067   -1517.6927    457.49382    317.85018   -227.39847    39359.762 
  932800    291.69694   -1481.1326    478.78589    306.24057   -50.478626    39359.762 
  932900    295.25755   -1474.1574    490.08364     340.4868   -112.82308    39359.762 
  933000    299.47804   -1526.6225    463.22812    280.09975    56.937154    39359.762 
  933100    301.20474   -1594.6029    448.51393    205.15133    35.524109    39359.762 
  933200    295.84497   -1532.2438    464.19722    259.14918    126.77133    39359.762 
  933300    295.81056   -1533.6958    454.40013    247.74579    85.774622    39359.762 
  933400    306.09245   -1516.8537    454.28805    310.60154    295.38789    39359.762 
  933500    299.69076   -1532.9393    444.13877     255.6479    80.583358    39359.762 
  933600    303.01298   -1478.4944    458.99737    339.85533   -302.20724    39359.762 
  933700     304.8824    -1499.134    450.79706    319.40182    87.881901    39359.762 
  933800     307.2452   -1505.4097    472.05426    344.98315    236.56379    39359.762 
  933900    303.44408   -1484.8467    472.30959    348.74919   -180.06203    39359.762 
  934000    300.70917   -1458.1256    484.19299    375.08456    196.01117    39359.762 
  934100    306.39389   -1487.7247    475.73117    362.52599   -3.1736328    39359.762 
  934200    301.68621    -1487.062    500.64324    366.98155   -153.06577    39359.762 
  934300    294.55923   -1542.0864    473.55621    252.89757   -99.176705    39359.762 
  934400    300.41003   -1544.3523    477.31925    280.64212    -250.1488    39359.762 
  934500    302.63941   -1525.5643    482.50347    314.61564   -368.93424    39359.762 
  934600    311.93763   -1521.3628    457.54131    335.56786   -416.37022    39359.762 
  934700    311.11321   -1511.2942    490.00202     374.3987   -1070.6207    39359.762 
  934800      307.086   -1542.7955     445.3055    280.13433    -567.7013    39359.762 
  934900    293.20613   -1542.2789     451.0952    224.17393   -503.08933    39359.762 
  935000    304.67286   -1524.2325    467.01527    309.58151   -382.21367    39359.762 
  935100    302.68133   -1510.1456    470.04539    317.76429   -573.73595    39359.762 
  935200     301.0556   -1440.0922    468.24302    378.72205    -306.2777    39359.762 
  935300    293.09677   -1468.1325    475.90264    322.63716    98.821695    39359.762 
  935400    307.96207   -1451.6716    510.78662    440.66958    624.64903    39359.762 
  935500    296.26926   -1436.6242    473.43137    365.90638    658.48551    39359.762 
  935600    294.06075   -1440.4656    468.74164     347.4676    333.36016    39359.762 
  935700    297.43677   -1406.3602    524.69523    452.67183    458.31189    39359.762 
  935800     286.8264   -1461.3211    454.37003    279.78634    99.122464    39359.762 
  935900    302.13984   -1423.0222    493.42639    425.83954    415.20222    39359.762 
  936000     304.2684   -1478.5034    458.32454    344.80545    183.81281    39359.762 
  936100    291.98571   -1450.0242    484.20225    344.06073     262.8717    39359.762 
  936200    295.20491   -1446.1316    468.78715    346.97995    185.44754    39359.762 
  936300    292.31179   -1466.0709    506.32622    351.60085    598.77375    39359.762 
  936400    287.48555   -1450.1445     514.7142    354.26414     499.7363    39359.762 
  936500    294.67997   -1527.1306    481.76508    276.60389    499.65996    39359.762 
  936600    301.30086   -1502.5518    493.91793    343.03771    1167.2999    39359.762 
  936700    297.57469   -1483.4765     477.2809    328.75985    224.08559    39359.762 
  936800    297.90115   -1442.1751    506.24722    400.49214   -206.95478    39359.762 
  936900    307.16127   -1459.3686    463.70642    382.29987   -119.21773    39359.762 
  937000    299.98459   -1483.2656    481.75535    344.25641   -69.087349    39359.762 
  937100    301.51186   -1473.8593    484.32401    363.08282   -151.56728    39359.762 
  937200    303.62849   -1522.4393    490.84806    330.52233   -156.06504    39359.762 
  937300    289.58276   -1508.1327    450.26514     241.2352   -380.52053    39359.762 
  937400    297.36564   -1464.1704    499.83604    369.68333   -362.66261    39359.762 
  937500    303.83893   -1477.0084    480.33616    366.38544    32.120081    39359.762 
  937600    307.84083   -1491.5141    491.21564    380.71222    260.15592    39359.762 
  937700     292.0804   -1516.6316    484.01424    277.69014    137.72963    39359.762 
  937800    291.23778   -1526.3552    484.29451    264.46671    166.54184    39359.762 
  937900    311.29194   -1491.9298    453.06194     357.6249   -166.02858    39359.762 
  938000    294.82733   -1505.2726    457.23012    274.58801   -99.269594    39359.762 
  938100    305.31563   -1499.9656    452.66404    322.38073   -166.50695    39359.762 
  938200    294.50567   -1456.3614    493.36765    358.19378   -368.41458    39359.762 
  938300     295.1352   -1506.9894    494.93023    311.95256    675.58384    39359.762 
  938400    300.28959   -1471.3532    472.38927    348.17093    552.32784    39359.762 
  938500    300.05909   -1482.3756    488.77799    352.50319    711.19212    39359.762 
  938600    293.79365   -1461.3359     500.0972    356.75463    84.149433    39359.762 
  938700    292.30924    -1466.195    493.57918    338.71828    717.96272    39359.762 
  938800    296.74851   -1469.5964    479.36611    341.01888    361.63022    39359.762 
  938900    292.25339   -1483.2494    476.91518     304.7493    333.42205    39359.762 
  939000    307.29195   -1502.5414    466.62345    342.63036     161.4231    39359.762 
  939100    305.60939   -1501.0754    489.81905     359.7438   -193.42977    39359.762 
  939200    293.89919   -1464.0997    491.51349    345.88058   -201.29556    39359.762 
  939300    307.57752   -1467.1412    469.91051    382.59876   -699.44694    39359.762 
  939400     292.1064      -1482.3    470.05035    298.17446   -486.04578    39359.762 
  939500    302.39503   -1454.9319    507.05363    408.70192    173.85962    39359.762 
  939600    306.46876   -1446.0969    473.80914    402.56765   -19.045248    39359.762 
  939700     302.7771   -1453.4288    486.76434    391.62971    207.85645    39359.762 
  939800    307.74376   -1468.6733    477.79793    389.69976     715.8165    39359.762 
  939900    303.47277   -1477.1748    473.14063    357.38083    239.05121    39359.762 
  940000    303.87516   -1469.5406    471.22882    364.90839   -46.203552    39359.762 
  940100    303.95561    -1480.819    457.51716    340.27919   -58.917329    39359.762 
  940200    306.53922   -1486.4183    479.47171    368.22484   -480.13317    39359.762 
  940300    284.19969   -1526.2962    452.29865    200.95613   -120.21409    39359.762 
  940400     299.5512   -1515.4906    469.54299    297.87475    390.25906    39359.762 
  940500    299.79695   -1524.1248    468.62118     289.4212   -37.613333    39359.762 
  940600     295.0586    -1499.208    472.20346    296.66351     115.1986    39359.762 
  940700    306.14808   -1537.3438    484.84812    320.92107    320.40918    39359.762 
  940800    293.74299   -1556.2061    440.46918    202.02912   -280.36181    39359.762 
  940900    306.78618   -1520.0563    487.62895    343.85198    39.142955    39359.762 
  941000    304.80652   -1519.3148    453.79119     301.8748    219.65067    39359.762 
  941100    297.95525   -1557.0529    469.80736    249.41727    27.731183    39359.762 
  941200    297.84927   -1557.8939    467.19633    245.48975    -277.1744    39359.762 
  941300    303.48691   -1557.3104    449.64529    253.81329   -176.59489    39359.762 
  941400    293.67061    -1527.857     467.1903    256.77469   -152.33773    39359.762 
  941500    305.44261   -1487.8665    475.60422     357.9896    163.88554    39359.762 
  941600    295.63654   -1533.9621    453.58943    245.88802   -127.38712    39359.762 
  941700    289.95354   -1546.3822    458.01217    212.39604   -300.32817    39359.762 
  941800    290.12485   -1547.4076    472.98876    227.11583   -35.568664    39359.762 
  941900    290.99773   -1545.3221    464.15919    224.28759    177.00646    39359.762 
  942000    297.65765   -1519.7251    474.66175    290.26433      215.094    39359.762 
  942100    307.07557   -1542.6573      480.558    315.47833    38.570161    39359.762 
  942200    283.22783   -1529.3723    480.42727    221.64877   -249.90226    39359.762 
  942300     295.0116    -1534.298    474.94814    264.10728   -175.87464    39359.762 
  942400    303.58303    -1521.373    450.83376    291.37041    310.42537    39359.762 
  942500    308.12167    -1536.146    496.37238    342.49687     226.5532    39359.762 
  942600    295.78107   -1505.2422    492.80878    314.47575    32.253989    39359.762 
  942700    305.52762   -1538.0131    453.37462    285.99486   -354.90471    39359.762 
  942800    296.45064   -1526.1013    479.74168    283.55329   -336.42468    39359.762 
  942900    298.00209   -1555.0971    457.62137    239.39712   -974.52907    39359.762 
  943000    301.36048   -1517.8658    490.03588    324.10915   -734.86337    39359.762 
  943100    298.82575   -1514.6182    473.22119    299.17095   -791.10229    39359.762 
  943200     293.4351   -1482.4009    480.98315    314.96703   -659.73632    39359.762 
  943300    307.26362    -1525.167    473.44632     326.7005    -219.9688    39359.762 
  943400    302.82901   -1523.9508    460.52361    295.09984   -488.64343    39359.762 
  943500    295.40181   -1555.1446    474.91581    244.97889   -534.75448    39359.762 
  943600    294.60897   -1571.1426     453.6946    204.20289   -636.14834    39359.762 
  943700    301.90037   -1604.3477    500.14844    250.16176   -188.84166    39359.762 
  943800    290.32029   -1568.2659    480.16312     214.3086    161.74974    39359.762 
  943900    301.83705   -1564.5038    486.91827    276.49141     188.4099    39359.762 
  944000    289.05242   -1544.2023    445.04902    197.57034     485.3464    39359.762 
  944100    295.10454   -1581.4367    486.41155    228.84895   -93.192861    39359.762 
  944200     291.8569   -1618.0196    472.88414    164.16938    -35.76659    39359.762 
  944300     306.3299   -1543.5461    476.81782    307.50417    216.44866    39359.762 
  944400    305.89482   -1570.2799    487.80676    289.80751    306.15435    39359.762 
  944500     290.1013   -1567.1952    457.60034    191.83407    138.83938    39359.762 
  944600     292.8699   -1559.5721    462.32991    216.60702    100.20741    39359.762 
  944700    302.65502   -1529.9895      489.812    317.56899    692.87718    39359.762 
  944800    290.54808    -1560.521    460.86678    203.77914    78.925198    39359.762 
  944900    309.00616   -1550.4355    455.03311    290.83605     117.1574    39359.762 
  945000    295.79706   -1512.1935    476.77185    291.55922     300.2022    39359.762 
  945100    287.83053   -1548.9921    479.27389    221.52385    1.3878189    39359.762 
  945200    306.95129   -1572.8025    470.18682     274.4044    496.70859    39359.762 
  945300    295.95316   -1534.6999    478.28109    271.26233    434.86999    39359.762 
  945400     312.4142   -1517.8872    474.63477    358.27486     360.1115    39359.762 
  945500    292.51508   -1492.5234    494.77308    314.50716    448.03083    39359.762 
  945600     290.9099   -1501.1129    495.19748    299.14099    313.69748    39359.762 
  945700    304.26726   -1512.2238    482.78787    335.54327    144.45591    39359.762 
  945800    300.91859   -1483.9407    496.41368     362.4296   -140.90159    39359.762 
  945900    290.17582   -1559.5294    495.43064    237.66451   -341.07076    39359.762 
  946000    294.62733   -1580.7589     497.6418    238.61621    399.11835    39359.762 
  946100    303.33946   -1510.1867    482.09926     332.7295   -235.01868    39359.762 
  946200    297.48465   -1551.9255    463.92425    246.55034   -271.42214    39359.762 
  946300    300.37087   -1498.1668    489.13439     338.4671    200.25457    39359.762 
  946400     289.7685   -1511.0016    477.03989    265.97425     405.3547    39359.762 
  946500    297.97075   -1565.4755    479.05115    250.30792    80.876102    39359.762 
  946600    308.80858   -1543.4601    517.02204    358.91399    858.38246    39359.762 
  946700    293.35637   -1524.8861    493.81129    284.95682    221.25419    39359.762 
  946800    298.42095   -1540.2383    472.31436    270.82794   -26.731978    39359.762 
  946900    297.92685   -1549.2192    479.84946    267.16556   -130.41848    39359.762 
  947000    306.70309   -1531.0427    467.32563    312.18951    -423.1219    39359.762 
  947100    293.10901   -1499.1548    469.56596    285.33314    -576.1084    39359.762 
  947200    303.80922   -1487.7653    463.14646     338.3055   -300.77964    39359.762 
  947300    303.21348   -1565.9164    469.50124    263.83663    294.10631    39359.762 
  947400    310.63861   -1572.6548    492.80793    313.71494    80.720172    39359.762 
  947500    298.71814   -1536.3554    480.02262    283.75244   -19.173296    39359.762 
  947600    294.94969   -1535.2224    467.10439    255.06144    -274.8022    39359.762 
  947700    299.48354   -1519.7399    478.46332    302.24221    92.388315    39359.762 
  947800    309.07099   -1522.3583    470.70123    334.87222    261.61749    39359.762 
  947900    306.49731   -1545.6747    485.93433    315.24306    283.18264    39359.762 
  948000     293.8083   -1555.8906    481.28224    243.45068    271.94777    39359.762 
  948100    304.18575   -1501.0239    471.97212    335.56169   -464.43778    39359.762 
  948200    291.84638   -1526.9629    470.16865     252.4634   -694.94932    39359.762 
  948300    294.68087   -1525.0572    474.19681    271.11315   -4.7000984    39359.762 
  948400    305.29128   -1510.9585    487.34729    345.96183   -425.08896    39359.762 
  948500     305.8662   -1477.4088    485.62093    380.36429    304.11749    39359.762 
  948600    305.92806   -1480.3719    468.17887    360.23669    171.15529    39359.762 
  948700    294.41058    -1435.615    501.66431    386.81027   -166.81131    39359.762 
  948800    300.57211   -1451.1166    494.42181    391.70752   -297.80912    39359.762 
  948900    301.34645   -1472.4262    486.51099    365.96087      94.0421    39359.762 
  949000    302.27657   -1490.5202    509.84696    375.37552     87.56977    39359.762 
  949100    302.69861   -1502.0558     466.3584    322.24465   -359.18387    39359.762 
  949200    309.72686    -1537.871    468.66113     320.2617   -56.100391    39359.762 
  949300    307.46414   -1492.3585    475.60702    362.56929   -132.43034    39359.762 
  949400    303.07673   -1505.5479    495.71336    349.80376   -125.25693    39359.762 
  949500    304.94316   -1500.2786    465.99611     333.7289   -108.80989    39359.762 
  949600    301.83087   -1480.0348    519.81392     393.8284    289.98764    39359.762 
  949700    297.36858   -1517.0427    474.47693    291.46509    168.72081    39359.762 
  949800    294.58685   -1458.8122    510.39967    373.13914    361.46581    39359.762 
  949900    294.43784   -1446.1176    486.32363    361.08929     588.2019    39359.762 
  950000    292.58169   -1501.4779    504.36168    315.44006    -143.1624    39359.762 
  950100    297.74348   -1482.2446    510.18579     363.6539    42.196384    39359.762 
  950200    304.44392   -1486.1434    451.66726    331.29561   -642.59564    39359.762 
  950300    289.58881   -1476.6635    469.17783     291.6442   -321.74262    39359.762 
  950400    297.85074   -1501.8112    465.84967     300.2324   -356.06762    39359.762 
  950500    302.09696   -1473.5934    530.41294     412.0625   -678.82712    39359.762 
  950600    294.06876    -1482.701    479.18829    315.71475   -995.59843    39359.762 
  950700    298.07017   -1519.8804    480.05988    297.35778   -139.50633    39359.762 
  950800    312.73957   -1506.6752    487.85109    384.16286    37.100857    39359.762 
  950900    297.97867   -1493.7662    516.92713    359.92878    209.77138    39359.762 
  951000    292.21789   -1521.6082    483.21078    272.52687     183.6981    39359.762 
  951100    304.78338   -1533.4606    505.01269    338.84666    144.40353    39359.762 
  951200    295.30757   -1502.0988    510.87748    333.56356   -36.216935    39359.762 
  951300     295.6328   -1478.0165    484.51713    332.74455    44.746094    39359.762 
  951400    295.18941   -1471.4099    492.07581    344.92075   -256.07891    39359.762 
  951500    307.23142   -1484.4487    517.49779    411.32582   -72.708716    39359.762 
  951600    285.60268   -1488.7118    477.23935     269.7752    135.73257    39359.762 
  951700    297.36169   -1494.2536      513.531     353.2774   -408.64419    39359.762 
  951800    296.39476   -1463.2948     504.3922     370.7596   -656.90746    39359.762 
  951900    289.92268   -1469.7528    515.19486    346.06971   -397.50554    39359.762 
  952000    304.07852   -1436.3031     486.6139    414.44323   -617.92024    39359.762 
  952100    308.65587    -1480.982    494.76715    398.45217   -571.26498    39359.762 
  952200    304.71304   -1471.5419    493.98216    389.41926   -434.27045    39359.762 
  952300    303.97083   -1432.5555    493.94652    425.04042   -363.91008    39359.762 
  952400    307.07344   -1470.2783    506.73335    414.02308    29.187191    39359.762 
  952500    302.18791   -1481.5296     477.2016    351.32293     162.6203    39359.762 
  952600    292.94581   -1445.8748    488.12026    356.43529   -105.87284    39359.762 
  952700    301.00742   -1453.0358    495.58766    392.90695     183.5383    39359.762 
  952800    308.54423    -1454.483    499.39478    429.07794    562.19248    39359.762 
  952900    288.67124   -1475.3395    504.89248    324.56659    503.25919    39359.762 
  953000    300.05185   -1463.9325    512.71094    394.84677    450.14755    39359.762 
  953100    308.69465   -1491.0299     507.2018    401.01291   -40.883071    39359.762 
  953200    304.67886   -1479.4947    499.09672    386.42765   -555.02642    39359.762 
  953300    298.78331   -1411.2946    506.56729    435.65025   -965.90553    39359.762 
  953400    304.54667   -1460.2118    492.91219      398.933   -384.92332    39359.762 
  953500    304.66495   -1466.1789    499.97193    400.55632   -250.71526    39359.762 
  953600    301.81082   -1479.5994    479.68691    354.04676    228.29231    39359.762 
  953700    299.20827   -1434.9487    520.66926    428.00449    277.45908    39359.762 
  953800    304.74893   -1464.4747    490.84187    393.50717    502.48482    39359.762 
  953900    299.56445   -1491.3844    488.00063      340.498    370.96648    39359.762 
  954000    292.94969    -1498.105    510.76775       326.87    525.95922    39359.762 
  954100    306.88076   -1477.1239    505.64601    405.22575      375.141    39359.762 
  954200    301.93385   -1483.1878    504.87166    376.19509    98.227278    39359.762 
  954300     304.3155   -1482.5896     463.2192    345.82516   -9.4473356    39359.762 
  954400    298.68866   -1458.9404     511.0876    392.10007   -268.66232    39359.762 
  954500    293.97723   -1466.5143    498.37179    350.67434    94.644695    39359.762 
  954600    299.11317   -1469.6087    464.19163    336.44024   -209.09987    39359.762 
  954700    311.42072   -1517.3099    497.68752    377.44804   -131.84632    39359.762 
  954800    296.40439   -1522.1693    483.90265    291.43874    141.04086    39359.762 
  954900     301.9414   -1513.8701    498.74834    339.42336   -205.17059    39359.762 
  955000    297.53296   -1484.0146    508.64134    359.39509    22.281313    39359.762 
  955100    296.51575   -1506.1687    481.86652    305.90274   -223.41462    39359.762 
  955200    296.12876   -1492.6991    502.26543    338.03527   -129.73106    39359.762 
  955300    304.58508   -1500.2741    485.60707    351.73796    30.339778    39359.762 
  955400    308.46881   -1503.1217    500.73994    381.44609   -13.821704    39359.762 
  955500    305.98592   -1476.2092     455.9263    352.40638    430.68927    39359.762 
  955600    295.61325   -1492.6881    506.85356    340.32175    332.55001    39359.762 
  955700    296.09471   -1495.5358     506.9795    339.75986   -250.49423    39359.762 
  955800    299.64119   -1472.5248    479.07752    350.77878   -321.91524    39359.762 
  955900    308.63469   -1487.2986    497.89198    395.16534   -30.936234    39359.762 
  956000    298.30997   -1483.2212    477.57659    332.60942   -265.21193    39359.762 
  956100    299.20262   -1491.3244      492.685    343.61921    80.068079    39359.762 
  956200    305.67259   -1484.5717    495.91067    382.62269    253.05668    39359.762 
  956300    307.04027   -1493.9356    494.33623    377.81982    -56.25595    39359.762 
  956400    298.69659   -1493.7708    487.87007    334.08779   -429.50952    39359.762 
  956500    296.30222   -1450.5764    493.61526    372.28594   -234.40095    39359.762 
  956600    298.99645   -1513.7914    476.13081    303.67317   -392.16465    39359.762 
  956700    299.33336   -1493.8365    483.73079    332.73942   -387.91359    39359.762 
  956800    308.39451   -1505.7519    494.48416    372.22672    252.29473    39359.762 
  956900    301.25472   -1452.5796    518.81655    417.70153    407.76222    39359.762 
  957000     307.4554   -1458.3505    484.84082    405.77186    104.35907    39359.762 
  957100    288.58977   -1470.0082    471.23749    295.87741    69.364844    39359.762 
  957200    299.24752   -1488.9026    492.40331    345.96071   -14.181503    39359.762 
  957300     302.6728   -1466.5611    495.62952    386.89461   -287.63983    39359.762 
  957400    314.18828   -1509.8521    498.61349    398.24746   -22.924902    39359.762 
  957500    304.61612    -1477.509    488.77254    377.80774   -20.896545    39359.762 
  957600    299.77612   -1480.5776     457.0643    321.31809   -482.77346    39359.762 
  957700    305.40622   -1488.6403    491.90655    373.35488   -611.44471    39359.762 
  957800    302.30816   -1477.9571    453.89251    332.12582   -344.09798    39359.762 
  957900    297.36232   -1493.2201    485.71913    326.50179    -236.9254    39359.762 
  958000    295.18647   -1467.9215    476.46933    332.78948   -410.30597    39359.762 
  958100    295.61142   -1477.4809    479.98853    328.65571   -312.02427    39359.762 
  958200    296.98079    -1442.561    506.56845    396.29861   -399.95815    39359.762 
  958300    301.81707   -1452.2798     488.5369    390.24443    232.17836    39359.762 
  958400     312.5903   -1500.3263    498.29047     400.2815    587.94134    39359.762 
  958500    287.53616   -1505.0261    477.88979    262.78518    438.15892    39359.762 
  958600    312.81776   -1510.9978    492.55894    384.89886    694.58776    39359.762 
  958700    295.70025   -1488.8722    492.22749    329.90188    961.21209    39359.762 
  958800    303.52911   -1500.7348    498.07002    359.00295    853.38889    39359.762 
  958900    304.32572   -1509.0629    496.22482    352.40338    879.19782    39359.762 
  959000    300.43472   -1531.6635    487.10979     303.2322    530.26949    39359.762 
  959100    293.19267    -1512.572      511.135    313.86021    0.3343267    39359.762 
  959200    304.46319   -1483.4444    504.97545    387.38914    58.586375    39359.762 
  959300    299.16574   -1475.0698    478.13874     345.1621   -181.25437    39359.762 
  959400    299.57489   -1487.5375     492.9041    349.29528   -529.25958    39359.762 
  959500    306.92799   -1476.3403    466.14013     366.7154   -323.55614    39359.762 
  959600    293.76702   -1498.4033     499.2582    318.72874   -489.66693    39359.762 
  959700    304.67438   -1539.9101    468.78713    295.68257   -403.71409    39359.762 
  959800    299.07278   -1516.1043    505.43333     331.0052   -291.19876    39359.762 
  959900    316.29891   -1518.5548    505.28461    405.68438    648.18572    39359.762 
  960000    296.10305   -1527.6436    464.22196    264.93193   -143.01143    39359.762 
  960100    300.05111    -1493.471    504.14649    356.74056   -147.29126    39359.762 
  960200    303.30629   -1463.7488    491.37783    388.29714   -108.07714    39359.762 
  960300     308.1256   -1480.0746    482.89424    385.10783   -536.74663    39359.762 
  960400     300.1017   -1502.1292    465.25216     309.4149   -304.64162    39359.762 
  960500     313.7142   -1483.4183    486.91725    410.85825   -432.30389    39359.762 
  960600    299.73557   -1488.4383    476.44386    332.65505   -697.29672    39359.762 
  960700    317.12651   -1482.7489    490.16286    430.08128    -843.9237    39359.762 
  960800    308.37609   -1522.5325     479.4576    340.33697   -350.14211    39359.762 
  960900    289.90017   -1488.0619     523.9517    336.41649   -110.33639    39359.762 
  961000    296.19404   -1523.4749    477.81084    283.09769    -450.9328    39359.762 
  961100     290.2051   -1489.3057    482.64969    295.23866   -433.12743    39359.762 
  961200    305.64055   -1491.1854    515.22874    395.18327   -464.25245    39359.762 
  961300    305.10991   -1441.8872    485.27214    412.14435   -311.94178    39359.762 
  961400    305.07064   -1472.7689    479.31147    375.12582    17.120984    39359.762 
  961500     310.2128    -1497.271    471.70072    366.08129    483.77475    39359.762 
  961600     296.9043   -1486.9199    497.26831    342.29644    7.6910216    39359.762 
  961700    300.42429    -1476.324    499.51225    370.92737    160.86256    39359.762 
  961800    296.09355   -1476.7373    477.69888    329.27249    446.54417    39359.762 
  961900    282.62162   -1481.4148    500.03214    286.49161   -75.152214    39359.762 
  962000    308.39318    -1487.571    510.32564    406.24317    371.66042    39359.762 
  962100    293.23633   -1527.0547    475.67355    264.11191   -68.220607    39359.762 
  962200    298.37349   -1535.5672     483.3883    286.36009    113.40836    39359.762 
  962300    302.00713   -1487.2166    488.90889    356.53226   -322.50448    39359.762 
  962400     310.5317   -1507.9174     476.7269    361.89173    -947.5029    39359.762 
  962500     307.3594   -1521.9312    487.79771     344.7174    -885.6253    39359.762 
  962600    294.13404   -1506.1379     477.4413    290.82379   -592.19843    39359.762 
  962700    298.67189   -1515.9077    471.63602    295.60597   -88.015992    39359.762 
  962800    313.99928   -1475.1053    490.72466    424.25752    38.919437    39359.762 
  962900    296.34341   -1504.7832    498.24055    322.88921     132.6083    39359.762 
  963000    298.85503   -1520.0139    473.36513    294.05051   -30.101176    39359.762 
  963100    307.28654   -1527.2566    485.58035    336.84776    237.34348    39359.762 
  963200    305.68542   -1495.3156     478.5347    354.56026    453.95807    39359.762 
  963300    293.54119   -1519.9839     462.9895    259.86637    614.91298    39359.762 
  963400    302.39654   -1488.1989    512.08847    380.47648   -44.699013    39359.762 
  963500    285.38787   -1489.8346    472.61251    263.06189   -216.12345    39359.762 
  963600    296.87133   -1509.6609    489.67975      311.819   -136.25618    39359.762 
  963700    298.72489   -1541.6833    475.61209    274.04423   -684.28695    39359.762 
  963800    303.20947    -1495.239    500.84407    365.83884    -230.2026    39359.762 
  963900    302.39218   -1474.8986    475.59178    357.26052   -232.09489    39359.762 
  964000    299.17356   -1529.6702    478.58788    291.04592   -479.59519    39359.762 
  964100    301.80984    -1526.916    467.57397    294.61281   -106.72165    39359.762 
  964200      300.532   -1540.5593    474.87545    282.53855    534.96834    39359.762 
  964300    294.07531   -1538.0631    480.72415    261.91793    579.51056    39359.762 
  964400    306.11176   -1527.4554    500.26039    346.05881    378.98747    39359.762 
  964500    290.58008   -1516.3444    476.46107    263.69351    -117.6755    39359.762 
  964600    296.24922   -1527.0889    469.39107     271.3114    52.718107    39359.762 
  964700    293.36454   -1498.0047    484.88472    302.94829    404.22999    39359.762 
  964800    301.74048   -1541.5368    452.06374     264.1707    194.95424    39359.762 
  964900    307.82058   -1500.1865    485.41511    366.14842   -26.369153    39359.762 
  965000    296.04826   -1501.9795    475.39315    301.52136   -606.69803    39359.762 
  965100    304.70911   -1473.3025      477.007    370.66586   -222.06434    39359.762 
  965200    293.21743   -1461.0716    500.46326    354.80002  -0.89265601    39359.762 
  965300    311.60535   -1487.7481    482.06064    392.21125   -315.91838    39359.762 
  965400    297.34924   -1519.0754    472.44949    287.31816   -277.82589    39359.762 
  965500    296.70686   -1493.5613      478.124    315.62496    143.62358    39359.762 
  965600      310.959   -1515.6179    480.43854    359.81969    30.654862    39359.762 
  965700    293.40185   -1518.3297    449.24201    247.14793    429.46719    39359.762 
  965800     290.9122   -1488.2328    499.52604    316.36002   -209.55642    39359.762 
  965900    295.94176   -1514.1405    468.69773    282.18723   -151.26438    39359.762 
  966000    304.56761   -1488.8344    483.40284    360.89498   -20.141735    39359.762 
  966100    307.06272   -1520.3279    460.18386    317.37596   -342.21148    39359.762 
  966200    290.15463    -1552.463    483.21982    232.42508    137.20791    39359.762 
  966300    294.91481   -1548.6947    491.60143    265.92975    812.04563    39359.762 
  966400    312.40975   -1503.8722    462.40752    360.04268    550.05974    39359.762 
  966500    298.23177   -1510.3616    464.89574    292.43734   -434.00605    39359.762 
  966600    302.32571   -1493.5514    482.90112    345.61887   -623.54898    39359.762 
  966700    294.65162   -1512.7666     464.5762    273.65186   -202.01916    39359.762 
  966800    300.76635   -1516.0952     491.4707    324.64919   -436.70378    39359.762 
  966900    295.26379   -1495.8885    500.91311    329.61314   -214.93316    39359.762 
  967000    293.25048   -1489.0475    459.93852    286.44762   -502.35473    39359.762 
  967100    298.45987   -1473.6347    499.39927     364.6911   -727.44573    39359.762 
  967200    295.99348   -1502.4381    475.11003    300.53396   -603.28471    39359.762 
  967300     308.1889   -1504.2551    486.05054    364.36755   -6.8340255    39359.762 
  967400    290.19053   -1500.0311    506.59956    308.39772   -144.45157    39359.762 
  967500    298.98186   -1490.5792     484.1723    334.86137   -422.92226    39359.762 
  967600    304.30108   -1474.5726    463.75232    354.31062    -412.4243    39359.762 
  967700     291.6846   -1487.6694    501.33184    322.19428   -465.55619    39359.762 
  967800    301.55004   -1518.6547     468.0553    302.18995   -328.28522    39359.762 
  967900    298.72511   -1528.0482    489.53327    301.60146    -481.7274    39359.762 
  968000    303.59765   -1514.8392    489.47744    336.61346   -451.09783    39359.762 
  968100    314.13259   -1524.3533    458.57882    343.46178   -684.41906    39359.762 
  968200    302.15923   -1512.8749    460.50927    303.15671   -395.56931    39359.762 
  968300    293.32534   -1484.6349    480.83736    312.09491   -598.65053    39359.762 
  968400    303.31473   -1529.7617     466.3703    297.31465    -486.4195    39359.762 
  968500    298.91767   -1541.4698    470.38909    269.89955   -131.23463    39359.762 
  968600    310.11172   -1512.8836    470.13661    348.45112   -242.13778    39359.762 
  968700    302.41132   -1514.6541    483.47458    325.47372   -744.34424    39359.762 
  968800    295.65534   -1487.6369    466.29856    305.00678   -312.65236    39359.762 
  968900     291.9212   -1477.1783    489.70736     322.1223    7.8888722    39359.762 
  969000    300.26408   -1450.8553    491.95995    388.12511   -647.81033    39359.762 
  969100    300.29716    -1461.343    507.10728    392.93307    -26.61732    39359.762 
  969200     304.0919   -1455.4074     462.8896    371.67466   -100.38831    39359.762 
  969300    301.44912   -1443.5116    504.56002     413.3851   -142.84742    39359.762 
  969400    298.24588   -1463.6159    460.91533    335.26595    224.72634    39359.762 
  969500    307.03698   -1464.6615    468.78204    381.52501    195.43104    39359.762 
  969600    299.18117   -1495.3003    485.36781    332.22992   -305.11449    39359.762 
  969700    292.75362   -1532.0855    488.59228    269.83444   -28.844646    39359.762 
  969800    303.38132   -1530.5933    476.68157    307.09302    340.64096    39359.762 
  969900    307.81561   -1511.0374    495.73102    365.59108   -438.21408    39359.762 
  970000    298.53388     -1515.72    504.87567    328.41424   -349.62647    39359.762 
  970100    294.84745   -1529.4343    468.64862    261.93505    -252.9881    39359.762 
  970200    303.85349   -1528.2468    492.91891     327.7951   -196.31496    39359.762 
  970300    292.21586   -1460.8681    488.79271    338.83979    33.112005    39359.762 
  970400    303.13846   -1546.4404    473.06034    286.53518    168.70047    39359.762 
  970500    298.82827   -1543.2567    468.68934    266.01182   -264.82757    39359.762 
  970600    304.39548   -1471.7098    504.20619    398.05079    229.54992    39359.762 
  970700    292.37698   -1509.0123    472.78243    275.40817   -162.45429    39359.762 
  970800    298.73734   -1506.7288    486.20249    319.64496     56.50462    39359.762 
  970900    300.20596   -1536.7471    476.09691    286.10952   -42.049071    39359.762 
  971000    302.45342   -1493.6014    478.98423    342.22486    411.60785    39359.762 
  971100    301.65479   -1466.5016    499.19523    385.95301    52.217252    39359.762 
  971200    297.07538    -1471.509    499.41136    360.61795    468.05168    39359.762 
  971300    301.76226   -1487.1489    483.92131    350.51389    433.38627    39359.762 
  971400    297.31081   -1468.9499    490.10672    354.92857    444.01382    39359.762 
  971500    300.82554   -1517.2121    456.89589    289.22297    415.24694    39359.762 
  971600     287.7967   -1494.8421    481.65332    277.90156    169.86513    39359.762 
  971700    296.39814   -1478.1494    512.94104    364.46896    67.583389    39359.762 
  971800    303.11277   -1490.7983    479.92443     348.9261    417.95528    39359.762 
  971900    296.57605   -1483.1553    506.02928    353.34944    829.55374    39359.762 
  972000    294.61796   -1518.8209    470.33385    273.20422    819.35485    39359.762 
  972100    292.45329    -1522.034    485.98645    275.93276    387.71001    39359.762 
  972200    306.50872   -1486.7528    472.74758     361.0294    435.27588    39359.762 
  972300    309.76487   -1517.2293    479.57227     351.9851    210.31986    39359.762 
  972400    300.49173   -1527.8034    504.48237    324.72067    659.90307    39359.762 
  972500    302.64334   -1531.3019    466.54737    292.93961    90.949056    39359.762 
  972600    292.17831   -1508.1838    478.59423    281.15713   -204.60758    39359.762 
  972700    297.53764   -1497.7504    497.02217    334.06106   -60.222509    39359.762 
  972800    293.55456   -1541.5798    468.00474    243.34567    138.14304    39359.762 
  972900    311.65233   -1485.2015    492.69435    405.60228    275.99045    39359.762 
  973000    296.74083   -1508.9569    486.47881    308.73669    237.90124    39359.762 
  973100    298.46187   -1483.8141    467.33123    322.45261    338.20005    39359.762 
  973200    297.00474   -1491.0496    469.10912    310.45814    142.78072    39359.762 
  973300    298.06544   -1545.7841    514.87419    306.24714   -159.40932    39359.762 
  973400    302.68787   -1505.9899    469.02514    320.92914   -56.564715    39359.762 
  973500    295.05786    -1496.957    471.93548    298.64324    -801.6044    39359.762 
  973600    303.49821   -1509.1973    458.14925    310.48111   -1080.1155    39359.762 
  973700    288.67467   -1521.2164    480.28349      254.096   -813.05201    39359.762 
  973800     301.1552   -1522.4604    472.21038    300.76809    -627.2005    39359.762 
  973900    302.03797   -1529.2236    468.33229    294.08696   -203.78491    39359.762 
  974000    299.88039   -1538.7771    497.30954    303.83162   -214.58064    39359.762 
  974100     298.9791   -1523.8143    515.74421     333.1858   -185.11286    39359.762 
  974200    306.32824   -1574.8367    487.42273    286.81095    204.26474    39359.762 
  974300    310.60192   -1563.4736     467.2813    297.20487   -113.19107    39359.762 
  974400    307.04696   -1563.0494    472.55439    286.95422    188.29053    39359.762 
  974500    298.52725   -1523.0346    496.44179    312.63604    653.19425    39359.762 
  974600     292.4424   -1513.7642    497.36952    295.53675    231.41997    39359.762 
  974700     291.2499   -1589.0832    456.66524    174.16381    410.02476    39359.762 
  974800    296.35102   -1561.4248    500.95856    268.99971    304.63034    39359.762 
  974900    293.47745   -1539.2054    483.44922    260.81864    427.47121    39359.762 
  975000    305.33371   -1532.5625    481.54332    318.74423   -180.41776    39359.762 
  975100    298.08623   -1529.4642    468.61887    276.40503    60.234495    39359.762 
  975200     304.4168   -1527.6446    484.16554    322.17094    -55.05033    39359.762 
  975300    301.44693   -1475.5896    528.19954    404.93677    105.55475    39359.762 
  975400    306.27636   -1460.5845    498.93274    412.34052   -437.60174    39359.762 
  975500     303.3706   -1445.2514    471.60065    387.30587   -206.73309    39359.762 
  975600     296.0044   -1447.7771    515.80347    395.93741   -369.98489    39359.762 
  975700    290.41094   -1451.5438    465.91314    317.18741   -546.92604    39359.762 
  975800    306.85366   -1441.3604    507.97112    443.19277    143.54607    39359.762 
  975900    296.77357   -1456.4159    490.96167    365.90732   -48.508597    39359.762 
  976000    309.74652   -1459.4109    500.87231     431.0212    221.47179    39359.762 
  976100    286.10972   -1438.6368    489.83517     334.7207   -687.05363    39359.762 
  976200    309.37169   -1463.5417    499.01778    423.35436   -195.45394    39359.762 
  976300     286.1739   -1480.4944    477.73228    281.04815   -304.90054    39359.762 
  976400    305.68029    -1457.499    493.93035    407.74954    385.06792    39359.762 
  976500    290.49897   -1456.9423    499.42592    345.69661    358.14776    39359.762 
  976600    297.68326   -1484.5386    521.21899    372.12294    225.90369    39359.762 
  976700    296.47303   -1464.2667    487.69197    353.43858    276.32603    39359.762 
  976800    301.92594    -1483.432    517.08278    388.12648    223.97406    39359.762 
  976900    297.07846   -1480.9413    472.47584    324.26389    307.83746    39359.762 
  977000    285.50718   -1502.4411    482.99855    261.37666    403.92607    39359.762 
  977100    305.26157   -1471.7733    519.31138    416.97785   -63.864351    39359.762 
  977200    304.12705   -1478.7519    446.89905    332.49732   -297.40199    39359.762 
  977300    305.27323   -1497.3917    484.70901    356.80942   -435.45431    39359.762 
  977400    285.48564   -1482.5749    488.02636    286.17408    228.53677    39359.762 
  977500    306.54981   -1494.2494    491.49489    372.46443   -24.740579    39359.762 
  977600    303.20824   -1518.6674    477.91808    319.47895    372.66786    39359.762 
  977700    306.74883   -1519.6117    478.65121    335.15133    332.68274    39359.762 
  977800    293.58956   -1534.4769    480.07086    262.67165   -126.39664    39359.762 
  977900    297.04163   -1547.1821    479.61123    264.99321   -206.49605    39359.762 
  978000    293.90662   -1535.9273    480.34956    262.92232    347.24771    39359.762 
  978100    298.83574   -1529.4094    500.96732    312.17069    136.78282    39359.762 
  978200    298.41258   -1512.4455    471.88455    298.15344    389.30162    39359.762 
  978300    310.54631   -1523.0232    475.44368    345.56825    362.70312    39359.762 
  978400    299.94516    -1509.227    491.39654    327.75929    307.01573    39359.762 
  978500    300.19574    -1470.074    481.48798    358.12782   -75.991672    39359.762 
  978600    306.94082   -1492.2591    479.71395      364.428   -37.995153    39359.762 
  978700    294.29178   -1471.0745    485.32222    334.47575   -461.24977    39359.762 
  978800    300.87117   -1522.2942    499.15231    326.60203     108.2643    39359.762 
  978900    296.93415   -1457.0533    474.72421    349.75288   -298.69176    39359.762 
  979000    304.44689   -1424.2907    536.12502    477.61935    -88.26508    39359.762 
  979100    292.10549   -1454.0201    493.02756    349.42749    107.15131    39359.762 
  979200     296.2212   -1446.1883    495.55264    378.24794    249.73854    39359.762 
  979300    298.00314   -1469.8967     516.2697    383.25061    792.94935    39359.762 
  979400    285.41604   -1478.7175    461.79131    263.48419    275.16349    39359.762 
  979500    307.97297   -1466.1975     481.7664    397.17231    48.566531    39359.762 
  979600    310.51996   -1449.0789    489.93175    433.88235    470.13294    39359.762 
  979700    300.85444   -1480.1756    483.89563    353.38891    -220.3571    39359.762 
  979800    294.75672   -1517.5385    470.64756    275.42279    322.50776    39359.762 
  979900    304.86523   -1499.5018    503.82821    371.98816     161.3736    39359.762 
  980000    296.43062   -1523.4621    474.33297    280.69392    495.06229    39359.762 
  980100    299.43295   -1457.3692    476.88841    362.81111     543.7269    39359.762 
  980200    290.34894   -1494.5883    509.30292     317.2545    981.88456    39359.762 
  980300    300.67633   -1514.2048    497.68476    332.34974    283.04217    39359.762 
  980400    303.88637    -1531.946    476.90344    308.22789    951.67875    39359.762 
  980500     311.9312   -1547.9023    482.05838    333.51664    487.53128    39359.762 
  980600    290.06184   -1549.5318    514.79397    266.51413   -56.459714    39359.762 
  980700    301.74858   -1514.3305    482.61151    321.96107   -344.47624    39359.762 
  980800    285.99203   -1486.0404    495.54413    292.49807   -542.92699    39359.762 
  980900    307.27308    -1465.256    502.24164    415.44928   -436.79675    39359.762 
  981000     304.4348   -1532.7433    497.26356    330.25106   -311.32302    39359.762 
  981100    305.39306   -1514.5941    500.07067    355.50618   -59.976493    39359.762 
  981200    300.91347   -1512.7203    496.70625    333.91965    35.752281    39359.762 
  981300    303.59565   -1488.1529    480.10066    353.91402   -289.32915    39359.762 
  981400    296.38223   -1490.7904    501.19713    340.01273   -908.10509    39359.762 
  981500    304.63914   -1495.3264    502.98178     374.3029   -580.35792    39359.762 
  981600    296.35785    -1450.604    538.03176    416.92442    -319.4098    39359.762 
  981700    290.82842   -1492.2448    498.10789      310.554   -238.72465    39359.762 
  981800    299.01343   -1508.4905    513.78669    346.70608    302.68706    39359.762 
  981900    308.68044   -1492.8488    505.09708    397.02547   -156.11115    39359.762 
  982000    290.22258   -1498.7352    468.42426     271.6621   -491.74981    39359.762 
  982100    300.33114   -1536.1841    481.51608    292.65322    408.11313    39359.762 
  982200    302.39642   -1541.1636    495.18609     310.6089      619.712    39359.762 
  982300    299.95735    -1540.999    487.69545    292.34081    86.658978    39359.762 
  982400    295.12282   -1564.7161    510.49043    269.73043   -342.68872    39359.762 
  982500    295.39163   -1553.0294     505.8068    277.93941    146.18899    39359.762 
  982600    291.88242   -1522.2501    498.14202    285.31125   -19.547064    39359.762 
  982700    297.63163   -1537.2896    493.86717    291.78852    465.18249    39359.762 
  982800    309.26049   -1522.5943    487.82923    352.61431     224.0811    39359.762 
  982900    304.46355   -1538.4885    509.90487    337.27614    700.34003    39359.762 
  983000    303.80587   -1528.4606    496.94323    331.39195    427.70259    39359.762 
  983100    310.44749   -1519.6205    483.88848    356.97239    123.82908    39359.762 
  983200    296.86345   -1584.2621    512.90224     260.4049     219.9949    39359.762 
  983300    300.64091   -1515.8401    503.83157    336.70244    559.01816    39359.762 
  983400    289.88422   -1563.6559     500.5177    237.31697    246.39736    39359.762 
  983500     313.3359   -1575.4111    462.38814    292.63917     546.9703    39359.762 
  983600    301.54154   -1561.2676    487.43833    278.92204    127.01237    39359.762 
  983700    292.86833   -1561.7058    491.10336    243.23975   -239.42345    39359.762 
  983800    307.82287   -1584.7848    488.37942    284.52463   -5.4788812    39359.762 
  983900    283.04439   -1599.1859    491.83758    162.42253   -200.44852    39359.762 
  984000    292.71696   -1552.9104     470.6075    230.86029   -580.16153    39359.762 
  984100    294.21237   -1556.3045    484.12566    247.69297   -770.05452    39359.762 
  984200    302.67941   -1551.1023    493.25154    300.00514   -329.61024    39359.762 
  984300    296.72955   -1540.4956     472.0789     262.7474   -429.76424    39359.762 
  984400    300.71455   -1537.8117    489.34005    300.56964   -59.649269    39359.762 
  984500    302.72014   -1531.7207    485.00653    311.32444   -317.41401    39359.762 
  984600    307.75293   -1541.1494    468.14282    307.60975    -529.7026    39359.762 
  984700    295.35323   -1532.1148    494.56518    287.44016   -119.51212    39359.762 
  984800    293.41537   -1519.3888    483.76938    280.67685   -235.89895    39359.762 
  984900    309.73756   -1574.2382    465.63313    280.91456   -164.85034    39359.762 
  985000    298.98012   -1539.0755    455.01568    257.20058    159.63952    39359.762 
  985100    294.27743   -1524.5194    472.97712    268.62128   -43.232047    39359.762 
  985200    305.10527   -1532.4265    464.65364    300.96574   -269.86286    39359.762 
  985300    300.94578   -1548.0559    497.00428    299.02698   -33.071912    39359.762 
  985400    295.76158   -1508.6584    483.86479    302.02809    110.47252    39359.762 
  985500    299.32681   -1520.6586    472.99004    295.14719    414.47046    39359.762 
  985600    301.16853   -1537.5958    496.20234    309.68445    235.73152    39359.762 
  985700    299.83503   -1495.2372    461.18861    311.04702    195.96793    39359.762 
  985800    298.82001   -1524.1938    453.18056    269.52888   -6.6603766    39359.762 
  985900    297.56297   -1543.8962    516.38611    307.39285   -375.21676    39359.762 
  986000    303.09861   -1513.2716    484.23534    330.70025   -66.556428    39359.762 
  986100     287.6882   -1504.4122    516.84053    303.03184   -544.40632    39359.762 
  986200    300.33578   -1470.5064    485.09376     361.9295   -97.356824    39359.762 
  986300    297.90971   -1498.4205     462.0959    300.13381   -308.37786    39359.762 
  986400    304.00351   -1509.4528    508.35802    362.70121    151.27407    39359.762 
  986500    310.29143   -1539.0558    515.65255    368.60106    463.94287    39359.762 
  986600    307.81364   -1517.0473    498.04527     361.8866    449.78108    39359.762 
  986700    295.13889    -1509.003    461.11884    276.14411    176.01867    39359.762 
  986800    303.75537    -1514.543    503.51537    351.65518    567.39692    39359.762 
  986900    291.30376   -1526.6533    467.31392      247.484    134.16336    39359.762 
  987000    304.54507   -1512.2857    481.49706    335.43687   -361.63621    39359.762 
  987100    298.97178   -1504.6302    462.59997    299.19272   -366.73843    39359.762 
  987200    298.53011   -1473.4439    470.29072     336.0885    -461.7567    39359.762 
  987300    294.63311   -1492.0135    493.20135    322.94703    200.86534    39359.762 
  987400    304.06416   -1479.2171    484.76984    369.62079    218.04694    39359.762 
  987500    298.29545    -1471.236    486.45785     353.4108    88.769743    39359.762 
  987600    313.66977   -1457.9774     509.0133     458.1958    -596.4556    39359.762 
  987700    303.07333   -1493.2035    494.04991    360.46949   -72.236423    39359.762 
  987800    293.24061   -1505.3606    481.01762    291.16938    84.931992    39359.762 
  987900    302.45127   -1488.1378    500.94393    369.63856   -274.98483    39359.762 
  988000    299.59773   -1444.1308    466.32434    366.22465    47.128895    39359.762 
  988100    306.11878   -1453.3355    492.73795     412.6878    665.56423    39359.762 
  988200    304.46976   -1507.3732    487.06266    345.57705    581.92515    39359.762 
  988300    307.36678   -1499.9974    501.29397    380.18059   -237.54962    39359.762 
  988400    306.96203   -1501.3962    482.35168    358.02368    277.60181    39359.762 
  988500    321.35508   -1494.2373    498.74461    446.14448    664.05814    39359.762 
  988600    305.34535   -1481.8334    500.79309    388.77529   -497.43565    39359.762 
  988700    295.91015   -1499.9242     478.7986    306.36253   -295.15795    39359.762 
  988800    292.84507   -1507.5025     511.7159    317.95123   -564.87088    39359.762 
  988900    312.16852   -1495.8017    476.59213    381.21564   -516.49904    39359.762 
  989000    307.54558   -1478.5169    479.42979    380.59903   -446.71102    39359.762 
  989100     303.2085   -1491.0455    478.77532    347.95928   -551.25446    39359.762 
  989200    297.35855   -1492.9099    477.38951    318.46553    -337.4443    39359.762 
  989300    293.24449   -1493.3717    503.74267    325.90065    19.240135    39359.762 
  989400    297.02754   -1452.1334    482.43345    362.80097    -46.04722    39359.762 
  989500     294.8502   -1471.0805     500.5729    352.22555   -723.63964    39359.762 
  989600    296.51689   -1487.8194    478.22292    320.61358    50.491904    39359.762 
  989700    304.85769   -1483.5763    517.81071    401.86239   -652.52804    39359.762 
  989800    302.96386   -1506.9208    514.40376    366.61491   -12.807189    39359.762 
  989900    292.08307   -1531.8568    459.83427    238.29689    272.60809    39359.762 
  990000    296.58215   -1504.2594    524.93301     351.1765    181.15786    39359.762 
  990100    295.05799    -1505.197    454.07153    272.53977    359.10764    39359.762 
  990200     303.3696   -1524.7116    474.35761    310.59822    279.31893    39359.762 
  990300    301.06512   -1524.4143    485.81353    312.01318    17.092825    39359.762 
  990400     305.3212   -1488.3868    481.69749    363.01794   -142.57721    39359.762 
  990500    295.19582    -1476.928    470.23598    317.59162   -476.47641    39359.762 
  990600    303.79056   -1519.0195    505.32446    349.14561   -610.75876    39359.762 
  990700     297.3872   -1539.6205    468.67825    263.17217    -547.5571    39359.762 
  990800    311.94681   -1495.4722     488.6875    392.64582    270.60112    39359.762 
  990900    292.17661   -1530.7254    467.46345    247.47711    217.15266    39359.762 
  991000    296.49422   -1558.8824    458.37776    229.60382    294.93153    39359.762 
  991100    298.54776    -1506.279    503.32714    336.36889    234.22139    39359.762 
  991200    305.55509   -1499.0742    510.20774    381.89012     722.1058    39359.762 
  991300    300.74746    -1528.223    493.10995    314.07584   -202.43947    39359.762 
  991400    295.30944   -1522.3244    497.21154    299.68053   -318.69216    39359.762 
  991500    299.45275   -1529.1809    471.74547    285.94528    163.96761    39359.762 
  991600     295.4038   -1510.7154    500.47142    314.97265    9.4841408    39359.762 
  991700    300.12946   -1536.8454    470.29938     279.8705    -59.33242    39359.762 
  991800    291.52566    -1505.725    471.60857    273.70244   -486.69873    39359.762 
  991900    300.89897   -1494.6405    494.12324    349.35138    -6.268739    39359.762 
  992000    297.94455   -1492.2046    511.93228    356.34237   -132.34361    39359.762 
  992100    305.37262   -1515.5529    497.81358    352.19865    257.73239    39359.762 
  992200    303.16683   -1481.5067    490.14427    368.68007      115.536    39359.762 
  992300      291.242   -1496.2214    481.19334    291.51826   -536.34174    39359.762 
  992400    305.49607   -1500.3914    472.22017    342.32056   -26.344644    39359.762 
  992500    309.48248   -1533.4667    471.58225    326.49081    27.957302    39359.762 
  992600    301.95145   -1541.3439    476.45245    289.69869    433.82872    39359.762 
  992700    287.52776   -1511.0903    490.57172    269.36518    869.39557    39359.762 
  992800    298.95756   -1469.9935    473.41059    344.57634    542.31801    39359.762 
  992900    306.00633   -1488.6546    488.51683    372.64305   -17.673978    39359.762 
  993000    306.60088   -1480.1289    476.18473    371.50388   -233.72722    39359.762 
  993100    292.37838   -1480.2734    493.52121    324.89202      77.6786    39359.762 
  993200    299.20658   -1471.6775    487.60226    358.20113    404.55023    39359.762 
  993300    300.52158   -1453.1776    504.39881    399.39682    217.62075    39359.762 
  993400    308.39002   -1477.4737     503.6066    409.60728    47.921368    39359.762 
  993500    297.38094   -1502.6017    468.52489    300.00953   -284.03335    39359.762 
  993600    303.80423   -1522.4639    502.89848    343.33651    -259.4611    39359.762 
  993700    298.49897   -1521.0709    488.44794    306.47901   -622.27696    39359.762 
  993800    302.43309   -1515.7971    482.98914    323.94284   -523.18179    39359.762 
  993900    304.75169   -1515.0974    476.08756    328.14253    128.17583    39359.762 
  994000    310.29504   -1586.3809    477.56523    283.20485   -438.72528    39359.762 
  994100    282.89392   -1525.0969    452.25586    196.25476    133.99707    39359.762 
  994200    302.82658   -1557.0295    494.19949    295.68612    695.84503    39359.762 
  994300    286.44246   -1562.9189    485.06188    207.15795    210.10685    39359.762 
  994400    292.12478   -1591.5777    473.74069    192.66957   -32.269489    39359.762 
  994500    296.96864   -1550.2594    475.43772    257.41505    19.142543    39359.762 
  994600    296.31898   -1515.1015    442.95917    257.17992    152.38195    39359.762 
  994700    303.97566   -1524.7692    482.16845    321.07023   -240.46188    39359.762 
  994800     295.9114   -1534.3917     463.2913    256.39342   -70.838834    39359.762 
  994900    296.07856   -1515.9418    482.98276    295.28468    103.75474    39359.762 
  995000    305.57228   -1507.6099    505.37165    368.59543   -261.92829    39359.762 
  995100    304.90722   -1508.1793    493.27428    352.94507    66.736253    39359.762 
  995200    303.31155   -1498.1171    478.73943    341.31405   -586.96262    39359.762 
  995300    297.53316   -1508.9547     485.8389     311.6534   -175.88454    39359.762 
  995400    303.22629   -1522.8478    508.94168    346.40315   -101.59401    39359.762 
  995500    294.97647   -1528.6548    484.60065    279.24539    415.23703    39359.762 
  995600    306.82684   -1556.0319    465.95669    286.38661    569.31769    39359.762 
  995700    288.11092   -1495.9265    503.37753    299.95091    543.67574    39359.762 
  995800    298.55775   -1481.3372    489.91577    347.94421    239.42164    39359.762 
  995900    300.00344   -1498.4212    475.91363    323.34358   -141.54231    39359.762 
  996000    295.45998   -1533.3057    464.95812    257.12114   -47.630296    39359.762 
  996100    300.04726   -1494.6476    468.97168     320.3719   -465.45317    39359.762 
  996200    302.61732   -1489.5866    473.15547     341.1462    313.15381    39359.762 
  996300    294.78279   -1536.6615    487.28389    273.05311    110.65332    39359.762 
  996400    293.76814   -1526.4199    466.80888    258.26783   -86.874581    39359.762 
  996500    294.86364   -1542.7643    479.30571     259.3348   -161.46001    39359.762 
  996600    298.53801   -1532.2555    449.53521    256.55679    429.71434    39359.762 
  996700    302.43615    -1513.076    488.04963    331.73825    345.15761    39359.762 
  996800    299.61081   -1540.3033    498.10436    301.89086    519.35934    39359.762 
  996900    287.24174   -1534.9263    476.81969    230.49406    158.09464    39359.762 
  997000    296.28795   -1543.6907    465.19824    250.69062    331.32069    39359.762 
  997100    300.13245   -1500.9292     500.8051    346.30582     682.5819    39359.762 
  997200    291.50411   -1480.7794    480.94721    307.89003    83.875534    39359.762 
  997300    305.34232   -1508.5532    482.37947    343.62824    283.70274    39359.762 
  997400    292.61327   -1472.7534    487.65258    327.59721   -87.104333    39359.762 
  997500    303.61123   -1491.9016    487.57106    357.70559   -245.27175    39359.762 
  997600     300.3865   -1546.5714    472.59126    273.58949   -941.47654    39359.762 
  997700    299.16088   -1508.8863     481.1008    314.28582   -857.71204    39359.762 
  997800     301.4566   -1535.0569    451.41358     268.7269   -568.70888    39359.762 
  997900    295.35304   -1477.4459    450.95029    298.49325   -219.35907    39359.762 
  998000    299.99946   -1511.1262    473.16916     307.8763   -208.78155    39359.762 
  998100    313.03438   -1486.7845    472.88186    390.40688     82.05859    39359.762 
  998200    297.81742   -1490.8592    475.74908    320.93427   -413.77312    39359.762 
  998300    308.02841   -1472.1633    464.84933    374.53822     39.56302    39359.762 
  998400    299.63675   -1476.3493    474.70887    342.56576   -334.69212    39359.762 
  998500    304.09529   -1487.0893     488.0562    365.17459   -438.28753    39359.762 
  998600    294.80703   -1504.9483    448.71016     266.3013   -601.13126    39359.762 
  998700    305.58401   -1436.5593     489.8676    424.19457   -606.68609    39359.762 
  998800    296.71104   -1456.2667    448.20969    323.02406   -618.68563    39359.762 
  998900    309.34909   -1455.6304    451.80877    383.95527   -184.24437    39359.762 
  999000    302.84246   -1469.1863    467.07294    356.47404   -243.47309    39359.762 
  999100     307.1411   -1482.6753    472.93925     368.1355    533.36685    39359.762 
  999200     294.3355   -1494.6495    471.08871    296.86336     77.18105    39359.762 
  999300    299.83918    -1479.173    472.69828    338.63953    221.69642    39359.762 
  999400    290.13231   -1443.9515    473.63594    331.25259   -739.34949    39359.762 
  999500    303.04466   -1472.3106    466.58961    353.77347   -363.47094    39359.762 
  999600     293.8984    -1429.265    478.31661    367.51485   -676.18153    39359.762 
  999700     300.3563   -1438.7742    477.39861     386.0586   -197.84378    39359.762 
  999800    314.03309   -1437.6214    478.21508    449.38357    162.53861    39359.762 
  999900    296.30934   -1469.0954    481.90736      342.091    20.382296    39359.762 
 1000000    303.06175   -1481.0812    477.21089    355.70075    -83.07541    39359.762 
 1000100    308.77528   -1454.2911    485.20908    416.12073    278.67318    39359.762 
 1000200    298.29191   -1474.1086    475.76094    339.82535    49.955829    39359.762 
 1000300    299.37286   -1475.6761    455.80545    323.15167    349.61312    39359.762 
 1000400    302.92839   -1511.5809    472.05655    319.44846     881.1533    39359.762 
 1000500    291.25316   -1515.4187    466.20269    257.38039   -95.958099    39359.762 
 1000600    300.28206   -1490.7664    462.97384    319.30853    52.870292    39359.762 
 1000700     301.1187   -1485.6422    482.27419    347.48638   -78.458105    39359.762 
 1000800    292.91837    -1484.676     464.1125    293.50319   -87.520463    39359.762 
 1000900    304.49676   -1503.5222    464.28151    326.76802    209.34053    39359.762 
 1001000    301.94607    -1508.395    480.02083    326.19182   -62.064554    39359.762 
 1001100     296.6129   -1523.9873     444.5529    251.20641   -71.737108    39359.762 
 1001200    305.52818   -1535.9767    467.71958    302.37864   -310.93863    39359.762 
 1001300    306.17619   -1550.0635    442.24984    265.72925   -9.4279902    39359.762 
 1001400    292.18131   -1502.3609     467.3523    275.75159   -630.23324    39359.762 
 1001500    291.57343   -1492.2117    470.93072    286.75217   -306.65173    39359.762 
 1001600    307.11772   -1522.3694    455.04682    310.44413    15.796695    39359.762 
 1001700     305.3397   -1480.2211    467.85358    357.42274    189.77338    39359.762 
 1001800    300.58186   -1516.5104    445.14666     277.0823    -279.1717    39359.762 
 1001900     297.3842    -1494.883    465.77288    304.99079     330.2065    39359.762 
 1002000    297.34977   -1478.5434    443.94705    299.35017    439.25618    39359.762 
 1002100    288.53632   -1492.5295    455.39368     257.2725    621.03415    39359.762 
 1002200    306.94847   -1502.1993    479.18586    353.99396    249.65437    39359.762 
 1002300    306.78208   -1529.7207    459.35518     305.8954     364.2189    39359.762 
 1002400    300.27523   -1467.3102    483.16474    362.92498    103.38313    39359.762 
 1002500    265.10521    -1465.334    510.80863    234.76811   -521.92966    39359.762 
 1002600    297.66484   -1454.2384    453.41645    334.53799   -149.83211    39359.762 
 1002700    293.33987   -1469.5845    492.17394    338.54702   -700.77218    39359.762 
 1002800    303.81562   -1455.2932    469.29457    376.95449   -344.52453    39359.762 
 1002900    303.77271   -1457.6177    480.77457    385.91739   -295.71108    39359.762 
 1003000     298.2285   -1459.1249    471.26099    350.02471    66.373721    39359.762 
 1003100    299.80481   -1437.5153    477.10403    384.54882   -249.15513    39359.762 
 1003200    297.21548   -1473.9859    469.33505    328.69319   -322.53552    39359.762 
 1003300    310.47393   -1428.4396    476.07398    440.45737   -244.18489    39359.762 
 1003400    306.63235   -1383.9065    489.98192    481.66465   -43.423339    39359.762 
 1003500    295.05652   -1404.9726    488.11899    406.80512    19.311422    39359.762 
 1003600    304.28339    -1361.675    512.69676    516.07329    98.376257    39359.762 
 1003700    302.57253   -1449.2942    464.32365    372.40583    215.22865    39359.762 
 1003800    297.11208   -1453.9367    472.74276    351.68624    301.46834    39359.762 
 1003900    295.77725   -1439.8096    464.80938    351.89172    50.684871    39359.762 
 1004000    286.86107   -1458.4174    473.93159    302.40717     115.6696    39359.762 
 1004100     309.9096   -1437.0937    500.99038    454.18809    138.70282    39359.762 
 1004200    300.45823   -1413.6404    453.31261     387.5636    -201.9121    39359.762 
 1004300    295.92129   -1451.3212     500.3427    376.55969   -417.67786    39359.762 
 1004400    297.60869    -1476.737    482.11906    340.49013   -294.39604    39359.762 
 1004500    297.81406    -1455.077    464.57662    345.52896   -211.09414    39359.762 
 1004600    303.28368   -1461.3429    489.48298    388.70684    1.2837373    39359.762 
 1004700    315.03074    -1484.776    460.00289    388.49236   -91.317542    39359.762 
 1004800    301.87892   -1528.6615    483.21426    308.81758    530.99968    39359.762 
 1004900    302.60975    -1513.882    461.32156    304.98294    321.20113    39359.762 
 1005000    300.50507   -1498.2022    480.64093    330.54033    1001.5949    39359.762 
 1005100     300.6482   -1475.4981    474.05813    347.30372    135.28312    39359.762 
 1005200    303.92783   -1461.7993    483.15716    384.81427   -285.08999    39359.762 
 1005300    303.25822   -1421.8068    473.37113    412.01682     98.84413    39359.762 
 1005400     300.8991   -1455.0035    487.18557    382.05134    308.10279    39359.762 
 1005500    297.43603   -1454.9058    477.84849    357.27616     391.2832    39359.762 
 1005600    301.18723   -1473.6315      481.239    358.76931    362.87531    39359.762 
 1005697    286.04557   -1445.4625    495.83272    333.60468   -427.92264    39359.762 
Loop time of 599.991 on 32 procs for 1000000 steps with 1506 atoms

Performance: 144.002 ns/day, 0.167 hours/ns, 1666.693 timesteps/s
100.0% CPU use with 32 MPI tasks x no OpenMP threads

MPI task timing breakdown:
Section |  min time  |  avg time  |  max time  |%varavg| %total
---------------------------------------------------------------
Pair    | 224.44     | 265.19     | 300.45     | 101.6 | 44.20
Bond    | 1.4026     | 1.4957     | 1.6179     |   4.6 |  0.25
Neigh   | 39.128     | 39.187     | 39.245     |   0.6 |  6.53
Comm    | 246.58     | 281.8      | 322.18     |  98.4 | 46.97
Output  | 0.38838    | 0.40346    | 0.80704    |  11.4 |  0.07
Modify  | 8.6751     | 8.8697     | 9.3649     |   5.1 |  1.48
Other   |            | 3.047      |            |       |  0.51

Nlocal:        47.0625 ave          81 max          21 min
Histogram: 6 1 3 3 4 4 7 1 2 1
Nghost:        1892.97 ave        1980 max        1801 min
Histogram: 3 9 4 0 0 0 0 3 5 8
Neighs:        4981.16 ave       10384 max        1701 min
Histogram: 6 2 1 8 4 7 0 3 0 1

Total # of neighbors = 159397
Ave neighs/atom = 105.84130
Ave special neighs/atom = 2.0079681
Neighbor list builds = 49793
Dangerous builds = 0

# Output the system volume
variable v equal vol
print 'The system volume is $v'
The system volume is 39359.762476408

# Outputs
variable A equal xhi-xlo
variable B equal yhi-ylo
variable C equal zhi-zlo
variable D equal xy
variable E equal xz
variable F equal yz
print 'Lattice vectors'
Lattice vectors
print '$A 0 0'
34.0160715473484 0 0
print '$D $B 0'
0 34.0160715473484 0
print '$E $F $C'
0 0 34.0160715473484
Total wall time: 0:10:04
