LAMMPS (29 Sep 2021 - Update 1)
# Test LAMMPS input file for single DeFDe

# Initialize simulation

clear

units real
atom_style full
boundary p p p
dielectric 1
special_bonds dreiding

bond_style harmonic
angle_style harmonic
dihedral_style harmonic
improper_style umbrella
pair_style hybrid/overlay hbond/dreiding/lj 4 9.0 11.0 90 lj/cut 8.50000

# Read data file
read_data frag5.dat
Reading data file ...
  triclinic box = (0.0000000 0.0000000 0.0000000) to (15.000000 15.000000 15.000000) with tilt (0.0000000 0.0000000 0.0000000)
  2 by 4 by 4 MPI processor grid
  reading atoms ...
  1506 atoms
  scanning bonds ...
  3 = max bonds/atom
  scanning angles ...
  3 = max angles/atom
  scanning dihedrals ...
  4 = max dihedrals/atom
  scanning impropers ...
  1 = max impropers/atom
  reading bonds ...
  1005 bonds
  reading angles ...
  506 angles
  reading dihedrals ...
  4 dihedrals
  reading impropers ...
  2 impropers
Finding 1-2 1-3 1-4 neighbors ...
  special bond factors lj:    0        0        1       
  special bond factors coul:  0        0        1       
     3 = max # of 1-2 neighbors
     2 = max # of 1-3 neighbors
     5 = max # of special neighbors
  special bonds CPU = 0.002 seconds
  read_data CPU = 0.017 seconds

# Dreiding potential information

bond_coeff 1 700 1.22
bond_coeff 2 700 1.275
bond_coeff 3 350 0.935
bond_coeff 4 350 0.99
bond_coeff 5 350 0.98

angle_coeff 1 50 120
angle_coeff 2 50 120
angle_coeff 3 50 104.51

dihedral_coeff 1 5.625 -1 2

improper_coeff 1 40 0

pair_coeff 1 1 lj/cut 0.0957 3.4046
pair_coeff 1 2 lj/cut 0.0860649754545948 3.53100349192691
pair_coeff 1 3 lj/cut 0.0953995283007206 3.64309650983885
pair_coeff 1 4 lj/cut 0.0030935416596516 3.29710294046152
pair_coeff 1 5 lj/cut 0.0381397430510485 3.29813538230316
pair_coeff 1 6 lj/cut 0.0957 3.4046
pair_coeff 2 2 lj/cut 0.0774 3.6621
pair_coeff 2 3 lj/cut 0.0857947550844456 3.77835472527395
pair_coeff 2 4 lj/cut 0.00278208554864871 3.41951536039831
pair_coeff 2 5 lj/cut 0.0342998542270955 3.42058613398347
pair_coeff 2 6 lj/cut 0.0860649754545948 3.53100349192691
pair_coeff 3 3 lj/cut 0.0951 3.8983
pair_coeff 3 4 lj/cut 0.00308382878902186 3.52806914614779
pair_coeff 3 5 lj/cut 0.0380199947396104 3.52917391183829
pair_coeff 3 6 lj/cut 0.0953995283007206 3.64309650983885
pair_coeff 4 4 lj/cut 1e-04 3.193
pair_coeff 4 5 lj/cut 0.0012328828005938 3.19399984345648
pair_coeff 4 6 lj/cut 0.0030935416596516 3.29710294046152
pair_coeff 5 5 lj/cut 0.0152 3.195
pair_coeff 5 6 lj/cut 0.0381397430510485 3.29813538230316
pair_coeff 6 6 lj/cut 0.0957 3.4046
pair_coeff 1 2 hbond/dreiding/lj 4 j 9.50 2.75 4 9.0 11.0 90
pair_coeff 2 2 hbond/dreiding/lj 4 j 9.50 2.75 4 9.0 11.0 90
pair_coeff 2 6 hbond/dreiding/lj 4 i 9.50 2.75 4 9.0 11.0 90
pair_coeff 1 6 hbond/dreiding/lj 4 j 9.50 2.75 4 9.0 11.0 90
pair_coeff 2 6 hbond/dreiding/lj 4 j 9.50 2.75 4 9.0 11.0 90
pair_coeff 6 6 hbond/dreiding/lj 4 j 9.50 2.75 4 9.0 11.0 90

neighbor 2 bin
neigh_modify every 2 one 10000

# Gemoetric relaxation
fix 1 all box/relax iso 1.0 vmax 0.001
minimize 1.0e-4 1.0e-6 10000 10000
WARNING: Using 'neigh_modify every 1 delay 0 check yes' setting during minimization (../min.cpp:188)
Neighbor list info ...
  update every 1 steps, delay 0 steps, check yes
  max neighbors/atom: 10000, page size: 100000
  master list distance cutoff = 13
  ghost atom cutoff = 13
  binsize = 6.5, bins = 3 3 3
  3 neighbor lists, perpetual/occasional/extra = 3 0 0
  (1) pair hbond/dreiding/lj, perpetual, skip from (3)
      attributes: full, newton on
      pair build: skip
      stencil: none
      bin: none
  (2) pair lj/cut, perpetual, half/full from (3)
      attributes: half, newton on
      pair build: halffull/newton
      stencil: none
      bin: none
  (3) neighbor class addition, perpetual
      attributes: full, newton on
      pair build: full/bin
      stencil: full/bin/3d
      bin: standard
Per MPI rank memory allocation (min/avg/max) = 11.69 | 12.03 | 12.61 Mbytes
Step Temp E_pair E_mol TotEng Press Volume 
       0            0 4.2956816e+17    269.86096 4.2956816e+17 3.4909402e+19         3375 
    5042            0   -920.82119    15.751133   -905.07006    89.696445    41402.763 
Loop time of 5.16984 on 32 procs for 5042 steps with 1506 atoms

100.0% CPU use with 32 MPI tasks x no OpenMP threads

Minimization stats:
  Stopping criterion = energy tolerance
  Energy initial, next-to-last, final = 
    4.29568160136246e+17  -904.435305806115  -904.515459449198
  Force two-norm initial, final = 8.0664067e+19 99.143508
  Force max component initial, final = 4.7385700e+19 69.664924
  Final line search alpha, max atom move = 1.5077514e-05 0.0010503738
  Iterations, force evaluations = 5042 5043

MPI task timing breakdown:
Section |  min time  |  avg time  |  max time  |%varavg| %total
---------------------------------------------------------------
Pair    | 1.2085     | 2.4808     | 4.4714     |  47.5 | 47.99
Bond    | 0.0058195  | 0.010223   | 0.017249   |   2.5 |  0.20
Neigh   | 0.099615   | 0.099846   | 0.10005    |   0.0 |  1.93
Comm    | 0.25605    | 2.2475     | 3.5175     |  49.9 | 43.47
Output  | 0          | 0          | 0          |   0.0 |  0.00
Modify  | 0          | 0          | 0          |   0.0 |  0.00
Other   |            | 0.3315     |            |       |  6.41

Nlocal:        47.0625 ave          78 max          27 min
Histogram: 4 5 1 4 4 10 2 1 0 1
Nghost:        1851.94 ave        1894 max        1799 min
Histogram: 1 1 6 2 4 2 3 7 2 4
Neighs:        4522.34 ave        9849 max        2099 min
Histogram: 5 6 5 6 6 2 1 0 0 1

Total # of neighbors = 144715
Ave neighs/atom = 96.092297
Ave special neighs/atom = 2.0066401
Neighbor list builds = 89
Dangerous builds = 0

# MD simulation
velocity all create 300.0 12345 rot yes dist gaussian
timestep 1.0
fix 2 all nvt temp 300.0 300.0 1

# Compute interaction energy
group WAT molecule <> 2 501
1500 atoms in group WAT
group MOL molecule 1
6 atoms in group MOL

compute w WAT group/group MOL pair yes
fix 3 all ave/time 10 5 100 c_w file outa

# Outputs
thermo 100 # Output thermodynamic data every nth step
#dump mf1 all xyz 10000 mol_*.xyz

# Run
run 1000000
Neighbor list info ...
  update every 2 steps, delay 10 steps, check yes
  max neighbors/atom: 10000, page size: 100000
  master list distance cutoff = 13
  ghost atom cutoff = 13
  binsize = 6.5, bins = 6 6 6
  4 neighbor lists, perpetual/occasional/extra = 3 1 0
  (1) pair hbond/dreiding/lj, perpetual, skip from (4)
      attributes: full, newton on
      pair build: skip
      stencil: none
      bin: none
  (2) pair lj/cut, perpetual, half/full from (4)
      attributes: half, newton on
      pair build: halffull/newton
      stencil: none
      bin: none
  (3) compute group/group, occasional, copy from (2)
      attributes: half, newton on
      pair build: copy
      stencil: none
      bin: none
  (4) neighbor class addition, perpetual
      attributes: full, newton on
      pair build: full/bin
      stencil: full/bin/3d
      bin: standard
Per MPI rank memory allocation (min/avg/max) = 10.54 | 10.61 | 11.08 Mbytes
Step Temp E_pair E_mol TotEng Press Volume 
    5042          300   -920.82119    15.751133    440.76568     1575.617    41402.763 
    5100    293.48714   -991.86112    195.99554    520.75271    685.89266    41402.763 
    5200    300.46939   -991.25234    172.02948    528.71862    1040.9742    41402.763 
    5300     310.6775   -1035.8951    142.85831    500.69946    1168.9505    41402.763 
    5400     296.4382   -1011.5938    149.88218    468.14547    570.11655    41402.763 
    5500    301.43564   -1083.9176    167.69115    436.04968    938.37302    41402.763 
    5600    301.29148   -1057.7357    162.20584    456.09957    978.72496    41402.763 
    5700    304.09557   -1069.7743    165.23468    459.66935    806.97763    41402.763 
    5800    304.12842   -1026.1833     173.6853    511.85834    715.37048    41402.763 
    5900    300.49361   -1024.2927    174.61336    498.37076    503.37162    41402.763 
    6000    294.38014   -1010.2883    177.20753     487.5436    365.21978    41402.763 
    6100    302.61469   -1030.3966    170.24586    497.41486    660.07807    41402.763 
    6200     309.1918   -1030.0363     172.7094    529.74436    416.50167    41402.763 
    6300    304.96219   -1026.5443    189.11777    530.67014   -45.795365    41402.763 
    6400    289.17207   -1031.0029    184.76334    451.02079   -159.81611    41402.763 
    6500     297.7472   -1053.8019    179.61479    461.54235    276.70784    41402.763 
    6600    307.11341   -1080.2227    184.07876    481.60339    337.43446    41402.763 
    6700    294.31705   -1019.9883    179.89003     480.2431    457.13447    41402.763 
    6800    302.22169   -989.15654    187.11753     553.7635    497.99289    41402.763 
    6900    297.77874    -1026.733    188.82147    497.95938    705.28197    41402.763 
    7000    300.09954   -1005.3324      190.894    531.84391    482.41874    41402.763 
    7100    301.38151   -1022.3543    190.51677    520.19586    178.38524    41402.763 
    7200    302.91891   -1036.0948    184.75881    507.59433    272.84877    41402.763 
    7300    293.50634   -1047.4457    189.33952    458.59822    317.74987    41402.763 
    7400    297.68034   -1046.4458    193.29499    482.27868    190.29627    41402.763 
    7500    303.74157   -1077.3195    189.12393     474.4253    401.73676    41402.763 
    7600    307.77642   -1010.4093    193.11573    563.42814    376.54962    41402.763 
    7700    305.97875   -1034.1522    203.00792    541.51287    269.70829    41402.763 
    7800    295.20538   -1042.3573    206.25825     488.2275   -62.295115    41402.763 
    7900    313.94162   -1022.4647    201.22511    587.13995    449.75555    41402.763 
    8000    303.53403   -1065.7234    201.71361    497.68001    145.49933    41402.763 
    8100    292.98355    -1074.878    216.09385    455.57497    431.28242    41402.763 
    8200    304.34207   -1094.8219    195.04765     465.5405   -29.533352    41402.763 
    8300    302.64308   -1047.7824    199.97335    509.88389    261.52184    41402.763 
    8400    298.38295   -1094.4534    213.34681     457.4749     386.8161    41402.763 
    8500    303.17329   -1107.5369    202.84611    455.38067    233.86864    41402.763 
    8600    293.54361    -1126.392    194.21802    384.69764    258.12245    41402.763 
    8700    308.77841   -1084.7007     204.9361     505.4521    678.65405    41402.763 
    8800    299.10361   -1075.1452    202.94261    469.61183    126.72638    41402.763 
    8900    295.82994   -1059.1857    225.48547    493.42817    694.12864    41402.763 
    9000    302.03788   -1085.6315    197.02356    466.36997    420.84438    41402.763 
    9100    287.99812   -1052.5962     226.3741    465.77183    248.05414    41402.763 
    9200    301.20747   -1045.8304    213.26644     518.6886    418.24535    41402.763 
    9300    286.67585   -1143.5624    201.22623    343.72589    286.79378    41402.763 
    9400    294.07393      -1122.2    203.71197    400.76265     870.7988    41402.763 
    9500    302.29197   -1123.0483    209.44128    442.51075    431.39883    41402.763 
    9600    300.40311   -1060.1626    206.45725    493.93877    414.29723    41402.763 
    9700    292.80575    -1074.516    209.27736    448.32282    351.80457    41402.763 
    9800    293.36831   -1041.2964    233.15187    507.94064    756.84457    41402.763 
    9900    292.41599   -1009.6775    214.56881    516.70426    440.10534    41402.763 
   10000    298.23007   -1008.8888    226.06081    555.06767    148.38926    41402.763 
   10100    300.46135   -1023.7043    212.53535    536.73648    275.26858    41402.763 
   10200    302.27105   -1017.8049    203.09551    541.31456    457.31993    41402.763 
   10300    306.56194   -1063.5049    232.68006    544.44856    412.19696    41402.763 
   10400    305.58748   -1090.6216    200.89339    481.17363    493.90149    41402.763 
   10500    309.49997   -1098.0604    224.95294    515.34622    538.81704    41402.763 
   10600    300.71226   -1083.7079    208.34182    473.66498    218.82487    41402.763 
   10700    301.31598   -1068.0232     229.3235    513.03963    311.86099    41402.763 
   10800    304.00089   -1075.4049    214.32091    502.70022    265.35307    41402.763 
   10900    310.73673   -1086.2668    232.43896    540.17413    320.17909    41402.763 
   11000    305.53366   -1077.0768    212.51102    506.09458    550.66826    41402.763 
   11100    302.09614   -1104.4021    225.44579    476.28295    639.23561    41402.763 
   11200    299.65445   -1080.4948    228.11651    491.90726    636.64685    41402.763 
   11300     306.1551   -1082.1191    229.00993    520.33904    529.07187    41402.763 
   11400    298.12757   -1063.8016    235.12917    508.76342     265.0805    41402.763 
   11500    295.76459   -1090.4169    234.51475    470.93301    54.424541    41402.763 
   11600    297.44859   -1038.5518    241.26153    537.09956    499.93182    41402.763 
   11700    298.85833   -1050.2891    241.26314    531.68812    372.07751    41402.763 
   11800     302.7372   -1044.1218    225.49982    539.49318    299.87642    41402.763 
   11900    292.86774   -1081.7126    243.80182    475.92881    170.84408    41402.763 
   12000    301.73847   -1090.6737    236.86304    499.82403    268.43603    41402.763 
   12100    296.43955   -1127.7453    226.71038    428.82822    5.3211063    41402.763 
   12200    305.66805     -1139.46     236.0817    467.88505    343.07689    41402.763 
   12300    290.83714   -1105.0327    241.03632     440.7337    123.84833    41402.763 
   12400    288.32241   -1080.3988    241.46878    454.51868    449.04127    41402.763 
   12500    299.14352   -1081.6861    246.59752     506.9049    135.12529    41402.763 
   12600     298.7374   -1089.9044    236.30145    486.56859    362.88029    41402.763 
   12700    303.30932   -1111.8809    243.85729     492.6581    317.57352    41402.763 
   12800    292.44692   -1101.7261    256.96722    467.19283    396.79391    41402.763 
   12900    296.28357   -1091.9326    247.06577    484.29651    135.48079    41402.763 
   13000    291.86493   -1078.6226     249.9619    480.68015    60.967229    41402.763 
   13100    294.86193   -1079.9036    240.08143    482.96355    263.33609    41402.763 
   13200    308.23602   -1081.1731    249.86951    551.47992    505.73916    41402.763 
   13300    303.92953   -1057.7931    249.36354    555.03449    431.94023    41402.763 
   13400    302.57157   -1116.0089    256.74069     498.1039    513.19174    41402.763 
   13500    306.21122   -1098.5726    253.32851    528.45596    212.83048    41402.763 
   13600     299.8941   -1122.2529    241.64045    464.74819    79.836976    41402.763 
   13700    295.88118   -1109.1272    251.42937    469.66036     511.3728    41402.763 
   13800    302.49976   -1097.1339    258.47207     518.3881    366.72057    41402.763 
   13900    296.81073   -1126.2666    258.91777    464.17947    454.97426    41402.763 
   14000    298.13263    -1106.862    256.76725    487.36373    405.82171    41402.763 
   14100     291.6549   -1136.4022    265.24801    437.24438      337.536    41402.763 
   14200    312.93524    -1128.734    259.50975    534.64055    740.01729    41402.763 
   14300    302.92373   -1080.1513    252.66905    531.46969    626.43086    41402.763 
   14400    294.63378   -1079.0245    271.00066     513.7384     488.2343    41402.763 
   14500    294.68318   -1127.3091     261.4723    456.14702    382.80944    41402.763 
   14600    296.78163   -1082.3298    264.47216    513.54012    824.72986    41402.763 
   14700    294.55151   -1085.0912    264.84341    501.14536    156.70826    41402.763 
   14800    294.21672   -1129.9601    251.79536    441.72652    458.91886    41402.763 
   14900    301.48096   -1103.2914    263.80786    512.99594    399.36187    41402.763 
   15000    302.71112   -1145.1065    262.81865    475.71029     223.6182    41402.763 
   15100    294.15841   -1151.8242      258.479     426.2845    134.21644    41402.763 
   15200    305.84841   -1164.1607    272.34116    480.25289    30.907975    41402.763 
   15300    302.16348   -1128.1017    250.86721    478.30691    105.65171    41402.763 
   15400     305.1053   -1199.3475    263.58357    432.97474    88.711026    41402.763 
   15500    296.97733   -1173.8732     260.0484    418.45089   -19.242558    41402.763 
   15600    307.76398   -1138.1978    252.53731    495.00543    129.39115    41402.763 
   15700     311.0833   -1125.1876    259.08322    529.45233    588.79861    41402.763 
   15800    299.96619   -1154.3986    257.65709    448.94257     228.1405    41402.763 
   15900    297.43222   -1159.9514    252.14906    426.51399    461.16204    41402.763 
   16000     305.4664   -1182.5426    264.57892    452.39497    915.32098    41402.763 
   16100    301.71809   -1150.1919    263.88306    467.23443     333.4791    41402.763 
   16200    302.24954   -1108.3852    264.58213    512.12436    101.48715    41402.763 
   16300     308.1942   -1127.1842    256.39597    511.80766    262.88317    41402.763 
   16400    307.93223   -1125.9094    268.29748    523.80877   -24.717781    41402.763 
   16500    296.40887   -1142.1237    254.21811    441.81992    55.134702    41402.763 
   16600    297.89399    -1143.876    261.56423    454.07615   -162.11257    41402.763 
   16700     299.8397   -1135.6254    268.53323    478.02449   -171.39533    41402.763 
   16800    291.38652     -1118.68    251.00039    439.51503   -80.613578    41402.763 
   16900    299.55415   -1106.3452    272.70828    510.19873   -121.16387    41402.763 
   17000    296.12558   -1103.2469    266.10253    491.31022    191.52009    41402.763 
   17100    296.46092   -1111.1654    270.59255    489.38613    118.92881    41402.763 
   17200    298.69753   -1112.8847    280.38668    507.49471      717.996    41402.763 
   17300    296.23071   -1159.1928    256.51055    426.24399    456.23597    41402.763 
   17400    301.53039    -1121.321     267.2208    498.60104    903.17687    41402.763 
   17500    299.71005   -1124.8881    264.68757    484.33443     716.5622    41402.763 
   17600    306.38161   -1110.6983    276.88351    540.64964    439.63907    41402.763 
   17700    309.13256   -1151.2401    263.51918    499.08456    877.95862    41402.763 
   17800    294.47248   -1143.6932    271.61916    448.96456    883.72059    41402.763 
   17900     289.4479   -1161.5935    280.99558    417.89984    866.83291    41402.763 
   18000    313.05982   -1135.7344    277.85561    546.54481    391.77367    41402.763 
   18100    299.82782   -1125.0758    264.88232    484.86979     675.1968    41402.763 
   18200    302.33368   -1128.3783    294.67078    522.59742    567.75001    41402.763 
   18300    304.09923   -1129.5951    280.57878    515.20906     65.59955    41402.763 
   18400     292.1917   -1153.0592    286.59267    444.34021     189.3319    41402.763 
   18500    307.08826   -1164.8668    272.77099    485.53872    440.68312    41402.763 
   18600    298.14028   -1190.8623    272.36405    418.99458   -36.236736    41402.763 
   18700    296.18964   -1205.8862    276.09277    398.94855   -133.46772    41402.763 
   18800    289.79872   -1191.3802    274.51335    383.20471   -447.14588    41402.763 
   18900    290.96315   -1175.2743    266.30646    396.32748    361.64068    41402.763 
   19000    297.58196   -1154.4589    285.18767    465.71689   -271.29117    41402.763 
   19100    305.23591   -1180.3732    273.53138    462.48279    162.07885    41402.763 
   19200    301.09596   -1187.5479    265.84656    429.05104    135.90816    41402.763 
   19300    295.13371   -1156.7377    278.39174    445.65906   -14.364273    41402.763 
   19400    294.50042   -1160.9039     272.4239    432.68398   -221.98737    41402.763 
   19500    302.98043   -1164.9085    286.19441    480.49219    283.01965    41402.763 
   19600     304.5416   -1164.6537    279.65898    481.21521   -9.5462004    41402.763 
   19700    297.61672   -1168.1813    287.34774    454.31056   -10.819528    41402.763 
   19800    297.63765   -1143.6638    270.73518    462.30933    109.99625    41402.763 
   19900    305.03949   -1153.4247    278.26917    493.28796     454.7496    41402.763 
   20000     307.5527   -1142.1561    272.62617    510.18816    276.82625    41402.763 
   20100    288.94829   -1142.6223    286.97242    440.60658    440.34477    41402.763 
   20200    300.17042   -1155.6303    282.64737    473.61738    486.91432    41402.763 
   20300    306.45326   -1157.7095    272.34364    489.41999    557.83358    41402.763 
   20400    295.38539    -1167.181    262.50521    420.45823    612.65699    41402.763 
   20500    296.98192   -1156.9911     287.9469    463.25208    620.89325    41402.763 
   20600    301.89473   -1154.1355    284.51707    484.71727    520.36952    41402.763 
   20700    293.58242   -1119.6894    297.09778    494.45406     643.1178    41402.763 
   20800    294.98262   -1100.0893    286.05073    509.28863    448.78947    41402.763 
   20900    302.37339   -1092.2973    282.58454    546.77025    621.02501    41402.763 
   21000    294.53271   -1132.7458    282.45651    471.01958    593.73691    41402.763 
   21100    303.93659   -1113.9442    296.84238    546.39388    516.79886    41402.763 
   21200    299.55263    -1153.615    282.76939    472.98316    366.89934    41402.763 
   21300    300.57188   -1080.7361    284.39835    552.06347    333.18198    41402.763 
   21400    302.87868   -1124.0776    295.04096    529.71323     453.4879    41402.763 
   21500     290.5056   -1092.7128    297.09518    507.62515    346.11656    41402.763 
   21600    294.27882   -1093.4996    282.83447    509.50477    516.44621    41402.763 
   21700    310.26666   -1116.1459    293.99506    569.74232    324.78611    41402.763 
   21800    300.39699   -1062.0995    291.64107    577.15824    272.44479    41402.763 
   21900    296.62504    -1057.188    287.81392    561.32123    309.19092    41402.763 
   22000    297.27215   -1079.1432    290.70464    545.15968    206.19377    41402.763 
   22100    307.91703   -1079.2047    287.96901    590.11677    91.017865    41402.763 
   22200    294.97268   -1047.1199    301.28131    577.44397    376.06824    41402.763 
   22300    315.03509   -1083.7366    289.96375    619.51204    823.74921    41402.763 
   22400    288.02405   -1060.4862     304.0808    535.70477    233.71307    41402.763 
   22500    299.46946   -1067.8219    301.70608    577.33983    201.49257    41402.763 
   22600    300.58171   -1120.2685    276.20362     504.3805   -168.43756    41402.763 
   22700    286.64875   -1109.6505    305.64161     481.9315     298.0162    41402.763 
   22800    300.56295   -1110.5945    294.62737    532.39411    463.75446    41402.763 
   22900    296.82496    -1122.069    303.79899    513.32207    179.02021    41402.763 
   23000    306.41808   -1114.1195    284.79984    545.30833    379.10452    41402.763 
   23100    299.05172    -1138.017    298.42611    501.99076    566.38491    41402.763 
   23200    306.20332   -1131.0967    292.25355    534.82139    432.88449    41402.763 
   23300    303.45958   -1137.1402    286.75265    510.96831    285.94901    41402.763 
   23400    304.36317   -1203.5928    284.88981    446.70646    201.28628    41402.763 
   23500    305.36098   -1225.2038    275.35004    420.03199    467.61699    41402.763 
   23600    302.66929   -1193.5582    285.20925    449.46154     433.9907    41402.763 
   23700     309.9642   -1175.5829    287.33865    502.29207    325.90045    41402.763 
   23800     294.9408   -1185.7505    290.05591    427.44493   -212.74723    41402.763 
   23900    302.75165   -1165.2776    303.53756    496.43989   -297.60554    41402.763 
   24000    302.35081   -1216.3625     288.9018    428.92102    211.34428    41402.763 
   24100    299.88195   -1164.4337    294.61975    475.49217    182.38625    41402.763 
   24200    300.84121   -1186.1166    282.17935    445.67228    58.288458    41402.763 
   24300    302.13991   -1173.3803    283.87583    465.93112     252.1951    41402.763 
   24400    290.27724   -1163.7207    308.80717    447.30471    366.85147    41402.763 
   24500    307.77827   -1173.4093    310.53976    517.86045    463.95297    41402.763 
   24600    292.41755   -1183.5552    295.30276    423.56748    298.12259    41402.763 
   24700    303.10807   -1179.8836    307.37417    487.26946    313.55363    41402.763 
   24800    294.71589   -1158.0939    308.90253    472.93927    66.082538    41402.763 
   24900     294.4274   -1174.0375    308.96209    455.76103    442.83768    41402.763 
   25000    306.34408   -1127.1227     301.8961    549.06945    118.07403    41402.763 
   25100    307.58712   -1130.3197      314.251    563.80377    274.30456    41402.763 
   25200    289.94361   -1175.0584    303.49024     429.1534    164.70902    41402.763 
   25300    307.32259    -1146.969    297.08775    528.80453    141.20199    41402.763 
   25400    301.76226    -1173.522    299.13485    479.35425    353.78259    41402.763 
   25500    289.09787    -1126.675    311.33929    481.59178    166.96381    41402.763 
   25600    289.05354   -1172.5345    322.37095    446.56513   -113.42014    41402.763 
   25700    305.18128     -1156.24    323.80525    536.64477   -213.89231    41402.763 
   25800    295.02644   -1142.4293    332.23236    513.32689   -192.12496    41402.763 
   25900     298.6597   -1132.6361    305.27803    512.46492   -374.22381    41402.763 
   26000    305.99799   -1135.6997    316.60567    553.64939    57.587768    41402.763 
   26100    294.11643   -1158.3308    315.76004    476.87059   -146.33389    41402.763 
   26200    298.77156   -1185.5698    326.99389    481.74891   -392.84346    41402.763 
   26300    303.74315   -1147.7631    320.70594    535.57081    183.11924    41402.763 
   26400    295.30423    -1156.375    330.95178    499.34667   -224.92102    41402.763 
   26500    303.41104   -1149.2402    310.03134    521.92924   -34.970735    41402.763 
   26600    284.90903   -1185.6357    329.03071    421.53082    91.324036    41402.763 
   26700    292.91549   -1224.9542    307.67319    396.77276    381.74123    41402.763 
   26800    306.43788   -1163.3344     333.9715    545.35393    537.02116    41402.763 
   26900    301.22446   -1151.7111    327.86439    527.48211    698.71565    41402.763 
   27000    291.19918    -1153.737    319.81687    472.43409    430.38722    41402.763 
   27100    293.79187   -1157.8312    329.22137    489.37549    427.26936    41402.763 
   27200    301.28962    -1209.818    322.01589    463.81896    251.78713    41402.763 
   27300    294.30326   -1216.1101    311.26058    415.43001    85.828736    41402.763 
   27400    293.50153   -1226.4401    315.93319    406.17592    225.56726    41402.763 
   27500    294.19827   -1208.4924    309.60389    420.92001    45.398562    41402.763 
   27600    304.63501   -1224.8909    314.93481    456.67287   -296.86556    41402.763 
   27700    295.61964   -1174.6311    321.30644    472.86029    156.07244    41402.763 
   27800    297.38167   -1155.4598    313.83265    492.46251   -134.47939    41402.763 
   27900    305.51139   -1208.2946    330.52538    492.79123    219.77348    41402.763 
   28000    304.26068   -1188.6122    326.23454    502.57196   0.80076733    41402.763 
   28100    295.39163   -1159.6594    327.52405    493.02662    171.36629    41402.763 
   28200    286.46751   -1221.4632    330.31601     393.9802    132.75208    41402.763 
   28300     293.9251   -1201.8198    311.95313    428.71636    403.04053    41402.763 
   28400    303.82458   -1212.1905     317.4835    468.28631    275.62514    41402.763 
   28500    292.97225   -1193.9368    312.62633    432.99796   -30.414891    41402.763 
   28600    302.02267   -1173.2417      332.914    514.58204    484.72072    41402.763 
   28700    292.97205   -1164.4504     335.8642    485.72135   -53.795269    41402.763 
   28800    311.42788   -1181.6027    336.81824    552.31812    546.68107    41402.763 
   28900    292.73354   -1219.5082    326.25727    419.98662   -43.960482    41402.763 
   29000    299.06889   -1238.7219    335.56344    438.50018    90.294929    41402.763 
   29100    305.70312   -1230.5532    322.63627    463.50372   -168.74994    41402.763 
   29200    291.92812   -1221.3321    343.37507    431.66723    -37.43608    41402.763 
   29300    297.18944   -1243.1445    315.61007    405.69282   -740.56705    41402.763 
   29400    296.92938   -1206.5079    331.78656     457.3393   -203.53996    41402.763 
   29500    297.73269   -1199.5214    335.81353    471.95644    -216.1504    41402.763 
   29600    299.88601   -1235.2365    326.86801    436.95589   -21.760623    41402.763 
   29700    300.74425   -1180.1084    333.41252    502.47861   -179.68884    41402.763 
   29800    303.02879    -1189.022    330.89271    501.29399   -77.981185    41402.763 
   29900    299.86435   -1220.5096    326.64006    451.35767   -615.23033    41402.763 
   30000     306.3215   -1197.5475    341.01059    517.65778   -177.13504    41402.763 
   30100     310.4176   -1195.1834    332.40791    529.79482    104.76521    41402.763 
   30200     299.1865   -1185.8654     339.9721    496.29296    385.48349    41402.763 
   30300    305.13018   -1233.1152     307.7015    443.43663    352.02429    41402.763 
   30400    294.79109   -1257.4933    320.50178    385.47645    1007.9676    41402.763 
   30500     297.7159   -1254.1406    347.59711    429.04551    354.04123    41402.763 
   30600    305.79178   -1206.6608    369.22471    534.38221    539.12726    41402.763 
   30700    306.05992   -1192.7256      339.831    520.12664    599.60112    41402.763 
   30800    291.99976     -1184.15    336.48781    462.28355    172.77331    41402.763 
   30900    298.16566   -1193.8062    324.10289    467.90338    144.71206    41402.763 
   31000    294.63981   -1189.8515    331.98596    463.92375    406.95394    41402.763 
   31100     306.5045   -1238.4503    336.52414    473.08958     461.3661    41402.763 
   31200    303.58081   -1225.1317    353.15975    489.92778     349.2226    41402.763 
   31300    306.82485   -1255.4624    331.16291    452.15333    245.60397    41402.763 
   31400    303.64191   -1259.7677    336.19579    438.60186    434.95744    41402.763 
   31500    294.09802   -1231.6288    311.02154     398.7515   -192.34932    41402.763 
   31600    291.71544   -1247.1518    330.11809    391.63647    165.98275    41402.763 
   31700    300.36228   -1257.7199     343.8949    433.63599   -93.517837    41402.763 
   31800    285.76069   -1255.8296    335.37568    361.50259   -342.09384    41402.763 
   31900    293.76343   -1290.6023     357.9522     385.2076    191.16189    41402.763 
   32000    304.96809   -1262.9116    332.57117    437.78281    -377.7361    41402.763 
   32100    315.26496   -1231.1282    341.11594    524.30392   -151.33195    41402.763 
   32200    295.67211   -1233.5386    348.21786    441.09962    -59.40175    41402.763 
   32300    299.32298    -1292.107    341.66603    392.35758    459.58357    41402.763 
   32400      284.849   -1237.6633    345.17975    385.38303    342.89218    41402.763 
   32500    289.32024   -1245.2999    358.76421    411.38943    223.07769    41402.763 
   32600     297.9822   -1237.0987     361.3402    461.02518    365.04053    41402.763 
   32700    305.48268   -1254.1426    347.32829    463.61742    266.70674    41402.763 
   32800    297.34724   -1277.3418    336.30027    392.89359    425.75589    41402.763 
   32900    301.40663   -1289.1179    330.28358    393.31173    359.54431    41402.763 
   33000    302.01787   -1229.3699    334.31662    459.83488    121.80506    41402.763 
   33100    295.88057   -1183.6684    351.17197    494.85906    425.50043    41402.763 
   33200    299.03883   -1187.3491    346.99904     501.1737   -96.166612    41402.763 
   33300    299.84124   -1213.4068    354.17417    485.89093   -171.86232    41402.763 
   33400    302.60991   -1210.9871    347.75279    494.30978   -44.832481    41402.763 
   33500    309.83744   -1231.2468    348.71673    507.43764    567.24361    41402.763 
   33600    286.88404   -1249.2386    351.07209    388.82942    134.69788    41402.763 
   33700    297.71508    -1204.092    352.24102    483.73429    349.09177    41402.763 
   33800    294.10277   -1249.5542    358.58171    428.40757    292.64266    41402.763 
   33900    288.35369   -1238.8908    340.48288    395.18105    147.73205    41402.763 
   34000    296.69012    -1238.422    350.10943    442.67463   -81.539528    41402.763 
   34100    295.21505   -1210.3428     343.3889    457.41595    305.82712    41402.763 
   34200    297.83472   -1205.1731    351.17226    482.12122    338.54771    41402.763 
   34300    301.50574   -1187.4992    356.21013    521.30158    150.69567    41402.763 
   34400    293.69315   -1178.6071    363.05479    501.99015    46.462098    41402.763 
   34500    297.90181   -1192.2852    341.81242    485.95021     339.5453    41402.763 
   34600    295.46507   -1171.6112    360.98137    514.86167    352.04647    41402.763 
   34700    302.47322   -1182.6596    340.15818     514.4295     578.8386    41402.763 
   34800    308.29853   -1205.9875    372.40118    549.47756    643.78331    41402.763 
   34900    297.47641   -1190.7364    361.56364    505.34187    346.17397    41402.763 
   35000    301.67355   -1242.6986    367.43071    478.07561    483.10294    41402.763 
   35100    303.60433    -1181.349     354.3191    534.97534    506.59465    41402.763 
   35200    297.88779   -1204.3614    357.18796     489.1867    253.00772    41402.763 
   35300    296.62425   -1216.5887     345.3469    459.44987    368.05454    41402.763 
   35400    304.10976   -1211.9586     355.0491     507.3631    510.20515    41402.763 
   35500    292.78256   -1218.1072    389.60904    484.95923    146.29307    41402.763 
   35600    303.47294    -1257.802     343.5781    447.19189    172.84883    41402.763 
   35700     302.0204   -1252.2554    343.89537    446.53951   -79.951757    41402.763 
   35800    294.45183   -1201.7745    341.97452    461.14597    14.556239    41402.763 
   35900    307.13891    -1263.252    343.42256    458.03233    214.39069    41402.763 
   36000    301.66628   -1212.9925    352.10898    492.42735   -51.777199    41402.763 
   36100    294.12492   -1231.6534    366.27356    454.09955   -123.32716    41402.763 
   36200    292.99462   -1199.2137    360.80497    476.00003    167.61419    41402.763 
   36300    289.97129   -1219.8591    372.87265    453.85936    85.527365    41402.763 
   36400    298.29947   -1264.9465    352.87161    426.13203   -151.55692    41402.763 
   36500    295.65618    -1258.861    351.63835    419.12623   -488.30491    41402.763 
   36600    299.02571   -1243.0746    348.33143    446.72175   -38.335146    41402.763 
   36700    294.50357   -1271.8859     366.6915    415.98369    181.59969    41402.763 
   36800    295.64852   -1278.8331    354.10767    401.58904   -45.707985    41402.763 
   36900    308.38171   -1277.1398    345.78302    452.08032   -96.949943    41402.763 
   37000    295.19247   -1274.2738    355.32964    405.32447   -400.00678    41402.763 
   37100    299.76192   -1247.4986    368.33693      465.606   -304.87445    41402.763 
   37200     290.3439    -1270.551    361.72494    393.69129   -106.41847    41402.763 
   37300    301.18898   -1266.2729    367.05188    451.94859    -157.2457    41402.763 
   37400    313.86417   -1291.7804    361.19658    477.44827    109.11224    41402.763 
   37500    291.08375   -1311.4958    367.70868    362.04929    213.08548    41402.763 
   37600    304.78016   -1282.1185    347.30932    432.47094    423.73617    41402.763 
   37700    300.22881   -1256.1371    366.34025    457.06538   -55.790236    41402.763 
   37800    292.22708   -1284.7789     364.7871    390.97364   -102.98463    41402.763 
   37900    297.01878   -1244.6121    364.98291    452.83242   -62.625812    41402.763 
   38000    307.17322   -1278.8365      369.736     468.9151   -127.84498    41402.763 
   38100    298.13671   -1244.5042     351.7256    444.69815   -134.79972    41402.763 
   38200    294.85179   -1227.3625    375.42868    470.80646   -122.22618    41402.763 
   38300    301.45762   -1227.1471    353.84345     479.0711   -400.23139    41402.763 
   38400     296.9659   -1242.9715    348.03581    437.28868    147.76489    41402.763 
   38500    299.39035   -1218.7841    354.97508    479.29179    306.12541    41402.763 
   38600    292.64897    -1245.894    383.39986      450.364   -203.51859    41402.763 
   38700    291.02107   -1242.2955    361.14833    424.40798    18.895334    41402.763 
   38800    292.13815   -1189.1767    383.27309    504.66298   -429.93635    41402.763 
   38900    288.52761   -1215.0878    366.77863       446.06    72.650523    41402.763 
   39000    302.40062    -1190.153    365.54944    532.00164    544.40482    41402.763 
   39100    298.70047   -1216.0102    378.37139    502.36708    804.79941    41402.763 
   39200     300.6925   -1246.2411    351.89653    454.59782    730.72224    41402.763 
   39300    299.66661   -1214.2289    377.27792    507.38919    526.21986    41402.763 
   39400    311.45721   -1215.8508    372.40366    553.78696    590.16152    41402.763 
   39500     294.8377   -1215.6114    374.85007    481.91578    512.46789    41402.763 
   39600    297.82198    -1218.665    355.66029    473.06012     309.8371    41402.763 
   39700    301.77556   -1196.2603    362.51649    520.05734    308.76175    41402.763 
   39800    304.55577   -1219.1462    373.21023    520.33743    97.954975    41402.763 
   39900    294.72393   -1196.5158    365.01113    490.66197    541.21085    41402.763 
   40000    301.85902   -1198.6322    377.32654    532.86988    242.51975    41402.763 
   40100    301.17335   -1191.0602    353.47223    513.51157   -13.829738    41402.763 
   40200     297.0704   -1206.0387    361.21746    487.87194   -46.787757    41402.763 
   40300    297.81495   -1222.3197    348.09788    461.81149    51.042619    41402.763 
   40400    300.00966   -1186.5753    356.82953    516.13327    343.64885    41402.763 
   40500    308.83509   -1227.6879    349.52965    507.31277    232.69051    41402.763 
   40600    302.10017   -1245.6344    389.45438     499.0773     207.7738    41402.763 
   40700    301.36433   -1283.7078    335.81785    404.06627    290.71392    41402.763 
   40800    291.66472   -1260.5293    365.10522     413.0186     44.53816    41402.763 
   40900    301.70115    -1239.452    373.95081    487.96612    -108.2055    41402.763 
   41000    304.62677   -1266.8445    376.39756    476.14503   -604.72929    41402.763 
   41100    299.58464   -1224.1465    354.31798    474.14387   -97.028897    41402.763 
   41200    293.57703   -1250.3178    346.97418    413.67792   -397.23182    41402.763 
   41300     293.3705   -1273.5277    345.10115    387.66849   -268.53841    41402.763 
   41400    303.97649   -1275.1965    393.15544    481.63365    106.65908    41402.763 
   41500    304.80612   -1252.4692    387.04643    501.97379    205.97656    41402.763 
   41600    295.09539   -1214.3445    389.88403    499.37266    122.57463    41402.763 
   41700    302.51831   -1224.5907    402.05111     534.5936    337.08277    41402.763 
   41800    296.99937   -1272.0003    391.07147    451.44575    434.50554    41402.763 
   41900    304.34272   -1241.9805    364.18225    487.51944    149.36362    41402.763 
   42000    294.14715   -1199.2583    354.61884    474.93969   -151.37085    41402.763 
   42100     298.1754   -1233.3791    364.47547    468.74668   -49.488398    41402.763 
   42200    304.30647   -1230.2444      362.605    497.51564   -84.829803    41402.763 
   42300    319.11642   -1216.4356    373.03924    588.19795     484.4416    41402.763 
   42400    290.62164    -1207.586     366.4045    462.58184    238.88091    41402.763 
   42500    306.10192   -1214.6979    364.41513    522.92692    545.18476    41402.763 
   42600    289.38254    -1220.642    380.74365    458.30622    356.59918    41402.763 
   42700    306.69713   -1259.6015    372.67875    488.95714    224.73931    41402.763 
   42800     312.3164   -1215.2198    398.41132    584.28003    440.55679    41402.763 
   42900    305.21798   -1276.8005    362.28951    454.73319    257.00743    41402.763 
   43000    293.77563   -1255.1644    400.37064    463.11871   -201.53757    41402.763 
   43100    299.11375   -1254.3942    391.72958    479.19531    -322.2743    41402.763 
   43200    287.33616   -1306.7732    354.88199    337.13308   -407.15844    41402.763 
   43300    306.34556   -1279.9834    377.99653    472.31577   -348.35245    41402.763 
   43400    301.14277   -1260.6857    368.05266     458.3293    -405.5301    41402.763 
   43500    304.74507   -1251.8971      376.702     491.9276   -94.087029    41402.763 
   43600    306.58035   -1228.2147    400.76771    547.90901    234.20463    41402.763 
   43700    299.53551   -1257.9343    390.89462    476.71234    163.55341    41402.763 
   43800    305.74221   -1269.0082    370.62477    473.21259    455.06816    41402.763 
   43900    294.58808   -1286.5012    379.25978    414.31581    295.22465    41402.763 
   44000    311.71175   -1268.2658    375.40914    505.51944    364.29423    41402.763 
   44100    301.22613    -1309.691    374.83959    416.48484    89.618034    41402.763 
   44200    288.71322    -1257.904    376.75333    414.05119   -230.67236    41402.763 
   44300     300.4444   -1250.5624    390.72039    487.98735     216.6642    41402.763 
   44400     308.3772    -1272.318    374.44531    485.54418   -170.69952    41402.763 
   44500    294.89464    -1282.397    378.26468    418.80018   -138.19874    41402.763 
   44600    302.24185   -1235.9464    395.62113    515.56768   -161.21106    41402.763 
   44700     308.1772      -1263.7    376.56376    495.38337     77.22391    41402.763 
   44800     298.4837   -1237.0005    382.13885     484.1718   -388.29724    41402.763 
   44900    295.31638   -1238.4722    375.10824    461.46047   -5.1501993    41402.763 
   45000    303.40804   -1205.6148    379.32143    534.83122   -76.297514    41402.763 
   45100    302.54888   -1226.2561     386.5341    517.54834    71.657543    41402.763 
   45200    290.51671   -1234.2994    378.74803    447.74124    -244.4825    41402.763 
   45300    301.66345   -1213.8154    404.59707    544.07981    -350.3019    41402.763 
   45400    302.64414   -1279.0321    409.55252    488.21805   -204.74369    41402.763 
   45500    307.30224   -1257.1479    378.17736    499.62388   -103.58057    41402.763 
   45600    297.94925   -1232.2484    363.77916    468.16663     -334.856    41402.763 
   45700    301.96341   -1285.1006    381.77407    451.31725   -132.14863    41402.763 
   45800    298.51801   -1241.3519    359.38893    457.22437    60.731207    41402.763 
   45900    298.49702   -1270.5892    374.34228    442.84625   -404.71299    41402.763 
   46000    306.01017   -1269.1051    366.09524    469.78822    40.583364    41402.763 
   46100    295.02243   -1204.5614     385.2956    504.23994   -157.69768    41402.763 
   46200    296.71844   -1213.7505    400.46812    517.83189    95.044367    41402.763 
   46300    300.09182    -1209.168    379.78611    516.86579    468.83165    41402.763 
   46400    298.30965   -1210.8397     387.6928    515.10572    152.71505    41402.763 
   46500    313.71507   -1210.1527    389.15836    586.36887    523.49191    41402.763 
   46600    302.62138   -1222.5193    392.65593     527.7322    461.59932    41402.763 
   46700    302.62768   -1225.9096    397.23756    528.95175    237.82135    41402.763 
   46800     295.4634   -1243.1478    394.02278    476.35898    116.80244    41402.763 
   46900    312.58223   -1248.7365    372.00589    525.55053    258.88337    41402.763 
   47000    305.73639   -1282.6049    386.00915    474.97415   -120.78406    41402.763 
   47100    297.08939   -1286.3814    380.11063    426.50758   -280.97096    41402.763 
   47200     288.8302   -1264.3569    377.16035    408.53018   -203.94903    41402.763 
   47300    304.94912   -1271.4499    383.48381    480.07198   -108.61443    41402.763 
   47400    307.88141   -1255.6689    370.43156    495.95531   -77.384865    41402.763 
   47500    302.51778   -1249.9013    377.15204    484.38152   -208.77694    41402.763 
   47600    285.92599   -1246.8021    380.71982    416.61572    511.30562    41402.763 
   47700    302.07354   -1201.2358    370.87341    524.77551    151.20256    41402.763 
   47800    297.15773    -1287.325    374.47145     420.2314    304.54914    41402.763 
   47900    290.20938   -1258.1478    373.23465    417.00068    378.96698    41402.763 
   48000    294.87765   -1267.4051    377.11965    432.57079   -92.532325    41402.763 
   48100    294.78202   -1259.0591    389.48526     452.8534    125.71602    41402.763 
   48200    307.41512   -1240.0732    374.21236    513.23998    451.30914    41402.763 
   48300    285.22584   -1271.1869    402.44872     410.8189    251.63355    41402.763 
   48400    295.33556   -1302.3904    397.61216    420.13231    546.46115    41402.763 
   48500    298.52804   -1296.1076    383.75545    426.88022    8.5095756    41402.763 
   48600    299.15383    -1296.926    393.75299    438.86672   -411.96081    41402.763 
   48700    291.54871    -1255.235    391.47849    444.16574   -595.16576    41402.763 
   48800    304.81373   -1238.3933    370.41017    499.44761   -152.89847    41402.763 
   48900    297.39269   -1256.8901    378.28052    455.52947   -188.57214    41402.763 
   49000    305.93904   -1244.6843    387.68614    515.48088    74.892281    41402.763 
   49100    289.38385   -1292.9752    394.66823    399.90343   -170.13406    41402.763 
   49200    309.73104   -1292.6125    373.60385     470.4817    75.267819    41402.763 
   49300    294.81401   -1297.5814    380.91168    405.90103   -266.85807    41402.763 
   49400    300.67864   -1291.3576    369.28407    426.80668     -236.354    41402.763 
   49500    297.05562   -1260.4968    374.99791    447.12795   -184.22206    41402.763 
   49600    290.64182    -1262.961    357.71329    398.60613    29.000458    41402.763 
   49700    291.35512   -1209.0603    384.42139    482.41485   -75.814762    41402.763 
   49800     298.1681   -1275.3869    376.47226    438.70294   -221.74477    41402.763 
   49900    290.36491   -1276.5113    382.72559     408.8259   -137.57828    41402.763 
   50000    299.56806    -1275.908    379.35265    447.34264   -13.151861    41402.763 
   50100    294.44185    -1284.851    391.93431    427.98451   -165.61228    41402.763 
   50200    297.18696   -1249.9827    379.85743     463.0908   -106.80918    41402.763 
   50300    293.98073    -1274.126    396.46963    441.17616   -333.65455    41402.763 
   50400     288.3147   -1257.6001    360.03327    395.84722    39.153055    41402.763 
   50500    297.17811   -1258.7409    400.92628    475.36184   -270.77828    41402.763 
   50600    297.00192   -1265.6775    378.79432     445.5028    243.71632    41402.763 
   50700    292.28829   -1300.2606    365.36235    376.34177   -107.93299    41402.763 
   50800     299.3944   -1268.1834    361.92404    436.85952    426.75946    41402.763 
   50900    296.70786   -1245.8229    408.34443    493.58836    75.781663    41402.763 
   51000    289.50494   -1272.1668     378.9194    405.50629   -587.74898    41402.763 
   51100    306.23641   -1317.8011    407.94715    463.95908    63.902669    41402.763 
   51200    302.88965   -1289.5623    404.94205    474.17882   -279.06602    41402.763 
   51300    300.88314    -1304.641    403.55935    448.71591      311.944    41402.763 
   51400    299.75242    -1307.155    353.04692    390.61697    311.87016    41402.763 
   51500     301.5029   -1281.6196    385.84085    456.79918    249.66795    41402.763 
   51600    302.45956   -1302.1595    400.61665    455.32681   -73.748663    41402.763 
   51700    298.45579   -1268.2153    363.66598     434.3589   -290.62965    41402.763 
   51800    301.31944   -1232.8367    382.31325    501.23144    104.81869    41402.763 
   51900    298.36254    -1256.437     383.7786    465.83147   -21.281064    41402.763 
   52000    302.94838   -1271.9536    388.19257    475.30153    -90.76116    41402.763 
   52100    304.61225   -1277.8864    378.50017    467.14066   -643.12827    41402.763 
   52200     302.4363   -1256.1338    394.60328    495.23477   -534.42191    41402.763 
   52300    310.08274   -1295.1444    385.25627    481.17997    -482.6455    41402.763 
   52400    308.41642    -1307.538    384.85869    460.91351   -372.43961    41402.763 
   52500    298.90664   -1256.8387    389.06727    473.15934   -341.21344    41402.763 
   52600    294.65858   -1294.1626    361.74603    389.45693    -144.9794    41402.763 
   52700    296.30807   -1308.0462      401.967    423.19409    -364.5444    41402.763 
   52800    313.13743   -1273.4989    396.70582    527.97878     334.0814    41402.763 
   52900    300.79181    -1275.642    384.61515    458.36102    192.13955    41402.763 
   53000    305.33522   -1268.7875    415.77333    516.75601    479.85523    41402.763 
   53100    298.30913    -1288.606    374.85185    424.49612   -111.47938    41402.763 
   53200    291.51328   -1282.5171    392.25192    417.49813    104.59962    41402.763 
   53300     303.0715   -1265.2007    423.98493    518.39909    149.06368    41402.763 
   53400    305.54459   -1271.3374    386.39954     485.7716    174.75839    41402.763 
   53500     291.5259    -1293.497    405.60861    419.93156    415.65214    41402.763 
   53600    300.09829   -1284.5635    418.75135    480.46458    -275.9669    41402.763 
   53700    304.14798   -1277.8739    381.29851    467.86872   -59.725182    41402.763 
   53800    295.82797   -1299.3224    380.55023    408.34738    92.176223    41402.763 
   53900    307.61184   -1317.5237    379.03708    441.49671   -398.31972    41402.763 
   54000    294.74081   -1323.0925    392.28963    391.43954     184.2468    41402.763 
   54100    310.45811   -1296.4037    397.62707    493.97541    324.46809    41402.763 
   54200    298.33454   -1280.6691    387.19316    444.88837   -200.88881    41402.763 
   54300    291.66274    -1230.586    395.40117      473.249   -121.00972    41402.763 
   54400    296.31353   -1260.2961    406.57548    475.57717   -470.87302    41402.763 
   54500    293.10141   -1248.2174    416.25742    482.92783   -417.36645    41402.763 
   54600      302.143   -1252.0767    391.02305    494.39584   -188.41125    41402.763 
   54700    297.43924   -1298.7175    405.27909    440.90944   -271.92627    41402.763 
   54800    308.87149   -1270.1002    405.92049     521.4546   -381.51553    41402.763 
   54900    307.33895   -1239.0137    395.37885    535.12432    -185.6944    41402.763 
   55000    298.19479   -1247.4644    393.22101    483.49393   -39.411235    41402.763 
   55100    290.34605   -1194.9679    395.69037    503.24946    361.57739    41402.763 
   55200    299.43616   -1225.0412    397.47314    515.73824    196.96308    41402.763 
   55300    299.79411   -1297.7262    400.26315    447.44904    28.781448    41402.763 
   55400    303.22216   -1272.5759    390.82151    478.53636    215.91366    41402.763 
   55500    313.36847   -1297.8448    386.21579    494.17928    445.32451    41402.763 
   55600    296.58583   -1283.8688    393.60687    440.25742    272.35644    41402.763 
   55700    301.41739    -1282.164    397.18176    467.21207    372.47766    41402.763 
   55800    302.49549   -1263.9387    379.53806    472.63022     297.1234    41402.763 
   55900     304.2119   -1261.9277    404.75873    507.56184    21.735142    41402.763 
   56000    302.13646   -1272.9144    391.30536    473.81107    61.232572    41402.763 
   56100    296.84052   -1235.6455    392.43998    488.45639    238.47356    41402.763 
   56200    302.74193   -1247.9503    415.03223    525.21825    368.92826    41402.763 
   56300    297.93073   -1267.9286    374.95288    443.57704   -76.675182    41402.763 
   56400    309.43016   -1262.2591    385.82011    511.70157    360.27636    41402.763 
   56500    300.94631   -1280.2665    404.88876    474.70324    15.988748    41402.763 
   56600    311.43956   -1284.5187    416.19187     528.8281    570.27892    41402.763 
   56700    305.22985   -1272.4921    388.76574    485.57115   -183.86321    41402.763 
   56800    296.93865   -1211.7737    419.22087    539.54926   -128.95571    41402.763 
   56900    300.41758   -1235.0129    418.92937    531.62554    171.44777    41402.763 
   57000    302.93209   -1300.0888    412.73192    471.63253    19.812595    41402.763 
   57100     289.7466   -1303.5939    394.84357    391.08742    266.13881    41402.763 
   57200    311.82552   -1302.5527    390.72202    487.05577    367.12293    41402.763 
   57300    294.35651   -1269.5789     382.9183     433.8578    143.35368    41402.763 
   57400     296.8531   -1262.9004    385.34811    454.16609    313.32998    41402.763 
   57500    304.84304   -1261.4194    414.12098     520.2638    340.16501    41402.763 
   57600     299.3797   -1269.6277    395.72428    469.14954    471.06229    41402.763 
   57700    305.89806   -1275.9821     390.4371    486.75017    453.81381    41402.763 
   57800    293.88198   -1261.7071    395.58429    452.26677   -339.29008    41402.763 
   57900    302.55119   -1278.6544    384.22933    462.85566    286.25055    41402.763 
   58000    298.06263   -1247.5893    417.51695    507.07212    -82.12896    41402.763 
   58100    298.41117   -1313.2178    419.60436    445.09456   -100.08182    41402.763 
   58200    292.36151   -1278.7609    391.07423    423.88184   -438.92206    41402.763 
   58300    294.47706   -1287.7276    410.50663    443.83822   -351.80836    41402.763 
   58400    297.96802     -1339.35    388.91054    386.28056    315.57332    41402.763 
   58500    296.88739   -1338.0492    387.07219    380.89519    218.43418    41402.763 
   58600    299.30585    -1321.574    404.93806    426.08575    210.66166    41402.763 
   58700    301.64706   -1313.7329    403.47494    442.96663    746.07284    41402.763 
   58800    292.02064    -1284.738    396.44029    421.74163     337.5172    41402.763 
   58900    304.33925   -1287.7635    410.36384    487.90246    341.69406    41402.763 
   59000    300.41246   -1312.3759    397.12142    432.43164   -33.108289    41402.763 
   59100    302.74844   -1300.1778    412.86215    470.84996   -192.18736    41402.763 
   59200    307.31501   -1239.6497    421.61115    560.61323   -34.842655    41402.763 
   59300    301.68601   -1297.8063    404.10443    459.69749    313.26872    41402.763 
   59400      290.431   -1323.9908    413.60097    392.51828     102.5485    41402.763 
   59500    309.90217   -1314.5815    419.31653    494.99306    90.260891    41402.763 
   59600    304.10129   -1333.0619     378.9852    410.15786      10.3799    41402.763 
   59700    304.94655   -1307.8796    388.39712    448.54408   -277.45669    41402.763 
   59800    306.70335   -1304.8714    397.02253    468.05889   -553.10287    41402.763 
   59900    297.72123    -1286.583    406.42011       455.45    -380.0392    41402.763 
   60000    304.62753   -1281.8606    395.53066    480.26549     84.33899    41402.763 
   60100    298.73823   -1292.7597    421.53527    468.95082   -190.44103    41402.763 
   60200       300.81   -1303.3845    396.23746    442.32245     7.744745    41402.763 
   60300    302.66643   -1308.7427     405.9301    454.98509   -181.09538    41402.763 
   60400    292.53661   -1296.5841    413.76817    429.53813   -276.15019    41402.763 
   60500    301.26379   -1298.0594    393.32413    446.76991    178.28038    41402.763 
   60600    304.74772   -1242.9794    407.18298    531.33813   -14.842996    41402.763 
   60700    303.48889    -1249.898    400.83847    512.42782   -63.167073    41402.763 
   60800    298.83147   -1246.8018    425.68082    519.47263    9.0372298    41402.763 
   60900    300.51891   -1302.7219    405.88833     451.3301   -213.94698    41402.763 
   61000    306.73288   -1295.8728    432.63207    512.79955    279.95043    41402.763 
   61100    290.97652   -1256.0605    424.34977     473.6446    450.12361    41402.763 
   61200    287.21005   -1263.7267    425.56847    450.30029    238.98547    41402.763 
   61300    291.92718   -1256.5193     398.5512    451.65201   -53.422275    41402.763 
   61400    300.26206   -1309.9901    408.26464    445.28587   -91.803577    41402.763 
   61500    299.42558   -1353.3598    407.35102    397.25005     -1.13116    41402.763 
   61600    301.88306   -1314.1507    422.65903    462.79172   -78.627574    41402.763 
   61700    298.28171   -1268.7946    431.35097    500.68365   -132.83462    41402.763 
   61800    298.43134   -1318.1591    405.72657    426.36603   -133.23662    41402.763 
   61900    295.51939   -1317.1111    387.91684    396.54089   -256.09532    41402.763 
   62000    302.11982   -1298.9929    393.81509    450.16767    50.263428    41402.763 
   62100    306.98198   -1302.7753    423.03007    497.41245  -0.76065847    41402.763 
   62200    298.93715     -1367.82    400.60683    373.85452   -266.26424    41402.763 
   62300    302.29797   -1331.9204    403.08854    427.31285    -95.77286    41402.763 
   62400    314.06621   -1311.9749    397.83256    494.79604   -469.37269    41402.763 
   62500    309.83988   -1330.5093    427.07283    486.54214    309.14755    41402.763 
   62600    303.50572    -1339.068    413.09622      435.591    602.57644    41402.763 
   62700     307.0387   -1328.4441    412.05723    461.02535   -91.481353    41402.763 
   62800    305.24046   -1302.1969    430.91388    498.06203    193.65029    41402.763 
   62900    304.53586   -1338.7844     391.4539    418.85367    200.49287    41402.763 
   63000    293.58808   -1310.9133    410.52144    416.67921    39.609282    41402.763 
   63100    293.84974   -1324.3423    409.25663    403.15926   -339.25643    41402.763 
   63200    297.83902   -1264.1028    394.22574    466.26421   -51.596555    41402.763 
   63300    288.01354   -1282.6702    417.34668    426.73956   -447.16712    41402.763 
   63400    285.74801   -1307.5103    389.35161    363.74099   -332.71122    41402.763 
   63500    312.16794   -1328.7978    380.81986    452.44458   -593.89271    41402.763 
   63600    305.46235   -1309.9582    409.43353    469.81584    76.687916    41402.763 
   63700    305.49736   -1350.8825    403.95547    423.57055   -152.16345    41402.763 
   63800    297.77109   -1354.2236    404.73682    386.34976   -69.030001    41402.763 
   63900     305.5531   -1277.9788    412.85142    505.62023    207.99898    41402.763 
   64000    290.40467   -1291.1614     393.0722    404.70071     338.5781    41402.763 
   64100    302.28053    -1273.167    431.59063    514.49014    504.85726    41402.763 
   64200    309.18128   -1303.1276    427.68067    511.57712    353.18852    41402.763 
   64300    292.72102   -1331.4996    420.72474    402.40656    65.340873    41402.763 
   64400    302.45966   -1294.2806    425.92413    488.51362   -70.645852    41402.763 
   64500    304.68212   -1310.8989    424.51932    480.46074    177.89201    41402.763 
   64600    298.18352   -1373.9523    386.69664    350.43109   -119.43988    41402.763 
   64700    290.73003   -1340.4278    414.70033    378.52212    449.96317    41402.763 
   64800    294.89698   -1386.0581    395.53136    332.41619    112.24546    41402.763 
   64900    281.75181   -1398.4494    406.33627    271.85902   -10.858178    41402.763 
   65000    297.95994   -1356.0613    388.72326    369.34581   -156.76522    41402.763 
   65100    298.27704   -1324.8947    412.05207    425.26373   -51.105745    41402.763 
   65200    289.14471   -1343.5813    395.81357    349.36987   -80.629948    41402.763 
   65300    300.86554   -1353.4895    412.32648    408.55561   -361.88548    41402.763 
   65400    296.79842   -1317.9264    420.20187    433.74848   -342.99714    41402.763 
   65500    305.02781   -1328.6523    403.36679    443.10557   -348.19141    41402.763 
   65600    286.66792   -1309.5941    405.32949    381.76187   -34.809809    41402.763 
   65700    305.05203    -1332.421    409.64563    445.72439   -203.10354    41402.763 
   65800    290.48276   -1317.5157    419.53005    405.15463    154.12237    41402.763 
   65900    291.05542    -1293.473    418.38147     430.6178   -24.789145    41402.763 
   66000    308.02639   -1280.5196    425.44495    526.76842    185.01488    41402.763 
   66100       305.37   -1302.9173      402.892    469.90095   -123.98937    41402.763 
   66200    303.79235   -1315.2395    401.68437    449.29356    145.22129    41402.763 
   66300    294.29922   -1312.6844    412.65527    420.23224   -46.890857    41402.763 
   66400    300.71578   -1346.2145    413.74115    416.57353    816.63699    41402.763 
   66500    309.27458   -1334.6499    435.84104    488.63376     1090.808    41402.763 
   66600    293.53977   -1405.1215    407.97283    319.70571    667.87321    41402.763 
   66700    302.42478   -1371.7787    410.13015     395.0651    374.77729    41402.763 
   66800    297.76562   -1377.2007    421.03566    379.64699    174.21196    41402.763 
   66900    306.17803   -1329.4906    405.31224     449.3727    554.85266    41402.763 
   67000    295.40658   -1324.3688    417.86975    418.72999    129.68218    41402.763 
   67100    293.12856    -1303.571    420.45566    431.89429    266.04913    41402.763 
   67200    292.49209   -1325.3479    415.72965    402.53608    474.60767    41402.763 
   67300    304.85051   -1345.0042    419.33505    441.92659    526.82045    41402.763 
   67400    302.07511   -1300.7489    444.54013    498.93614      408.872    41402.763 
   67500    295.49425    -1274.375    418.07395    469.32139     339.0689    41402.763 
   67600    298.48036   -1326.1929    405.72519    418.55074    668.92644    41402.763 
   67700    296.85467   -1317.5626    407.46346    421.62629    852.63734    41402.763 
   67800    295.73884   -1315.4766    410.47285    421.71592    316.76096    41402.763 
   67900    304.93848   -1372.7599    406.78211     402.0125     674.3947    41402.763 
   68000    311.96812   -1360.4886     422.3831    461.42068    903.75907    41402.763 
   68100     292.9094   -1349.5803     410.4951    374.94126    517.56834    41402.763 
   68200    298.70389   -1345.0264    416.61121      411.606    136.70683    41402.763 
   68300    295.50307   -1308.7658    418.18433    435.08053   -297.20322    41402.763 
   68400    305.62994   -1306.8399    397.82136     462.0738    42.739992    41402.763 
   68500    301.07959   -1324.9986    400.70081    426.38115    40.953015    41402.763 
   68600    307.60296   -1309.8629    421.78253    491.86314    102.25244    41402.763 
   68700    310.15826   -1357.1243    418.33691    452.61954    -281.1611    41402.763 
   68800    308.19059   -1333.7937    410.85488    459.64088   -767.41184    41402.763 
   68900    297.94457   -1325.7812    400.45007    411.28375   -508.57454    41402.763 
   69000     299.1228   -1316.4217    414.67639    440.15524   -548.08038    41402.763 
   69100    298.77173   -1285.2851    433.56335    488.60381    179.98767    41402.763 
   69200    301.60493   -1299.5893    417.09954     470.5459    317.72635    41402.763 
   69300     292.0072   -1276.2685    430.74626    464.45684    366.05353    41402.763 
   69400    296.62901   -1334.4006    415.93805    412.25054    192.62302    41402.763 
   69500    306.30483   -1346.6277     410.3554    437.84762    115.69754    41402.763 
   69600    290.73326   -1307.2566    430.75107    427.75851     54.88685    41402.763 
   69700    301.01442   -1318.3685    418.83759    450.85565     279.7927    41402.763 
   69800    300.33656   -1342.2802    408.73366    413.79901    743.42231    41402.763 
   69900    298.65769     -1300.33    416.25093    455.73493    289.12058    41402.763 
   70000    295.28413   -1286.5505     445.9361    484.06538    253.08662    41402.763 
   70100     298.4295   -1303.5741       450.55     485.7662   -219.22048    41402.763 
   70200     298.8157   -1327.0172    409.36217    422.86778    54.006219    41402.763 
   70300     290.9959   -1318.8847    433.37699    419.93454   -146.28904    41402.763 
   70400    294.25284     -1349.99    413.08107    383.14434   -449.11039    41402.763 
   70500    304.14247   -1331.0532    428.50968    461.87583   -551.19526    41402.763 
   70600     294.4326   -1351.4877    413.46146    382.83344   -784.11024    41402.763 
   70700    301.83875    -1301.358    429.88137    482.60795   -716.66339    41402.763 
   70800    292.23167   -1323.8859    414.04127    401.14146   -817.48746    41402.763 
   70900    297.00214    -1285.358    434.59909    481.62807   -139.12554    41402.763 
   71000    289.33021   -1297.1729    428.45596    429.25285   -261.67472    41402.763 
   71100      297.605   -1324.2923    424.40024    435.19943   -144.35172    41402.763 
   71200    302.64494   -1361.4347    402.32857    398.59509    37.447233    41402.763 
   71300    308.92707   -1356.5175    399.99341     429.3596    525.62734    41402.763 
   71400    298.26297   -1368.4304    430.04438     399.6572   -77.349884    41402.763 
   71500    291.82515   -1346.5342    420.74883    383.37701    51.401745    41402.763 
   71600    312.15389   -1321.3415    441.61256    520.63062    143.89967    41402.763 
   71700    306.20897   -1359.5265    419.88106     434.0445    367.10954    41402.763 
   71800    298.15959   -1368.1738    433.24497    402.65064    494.83308    41402.763 
   71900     307.9527   -1404.8264    422.01406    398.70014    131.76136    41402.763 
   72000    293.95819   -1352.2871    414.69827    381.14261    330.50618    41402.763 
   72100    305.63427    -1384.006    406.43751    393.54322   -209.97661    41402.763 
   72200    287.71229   -1354.3263    426.10542     362.4907   -393.12329    41402.763 
   72300    294.71463   -1392.7635    418.13901    347.50042   -69.684203    41402.763 
   72400    300.39815   -1405.1849    439.51013    381.94711   -538.39514    41402.763 
   72500    287.72648    -1366.505    443.02632    367.29661   -501.91364    41402.763 
   72600    298.54016   -1384.2272    439.26998    394.32953    212.70457    41402.763 
   72700    297.42528   -1412.6858    413.72499    335.32444    353.05405    41402.763 
   72800    305.06878   -1393.7788    419.24334    394.03948    508.34739    41402.763 
   72900    299.95944   -1367.5579     411.8251    389.92101    437.30856    41402.763 
   73000    306.37568   -1405.2002    409.35471    378.59228    350.89943    41402.763 
   73100     303.8312   -1384.7875    425.92565    404.16116   -90.837772    41402.763 
   73200    303.38533   -1391.7739    429.97225    399.22111   -863.46247    41402.763 
   73300    304.01071   -1369.7749    425.77792    419.83126   -855.79488    41402.763 
   73400    295.10396    -1347.579    424.41675    400.70925   -754.61278    41402.763 
   73500    302.59243   -1338.4943    427.20352    446.17486   -445.68643    41402.763 
   73600    298.55574   -1350.1136    425.83378    415.07676   -423.25252    41402.763 
   73700    305.05516   -1351.0696    427.62078      445.065   -251.74663    41402.763 
   73800    293.19243   -1391.3225    417.15564    341.12927   -181.33558    41402.763 
   73900     287.9595   -1390.0739    422.44461    324.19139   -356.29505    41402.763 
   74000    301.50844   -1337.5676    483.60609    498.64126   -139.54731    41402.763 
   74100    297.18931    -1358.341    431.43554    406.32124   -224.87328    41402.763 
   74200    304.11898   -1350.1737    428.95834    443.09854    397.67133    41402.763 
   74300    295.44548   -1347.9495    433.71615     411.1703    192.38562    41402.763 
   74400    299.68308   -1343.1514    443.80085    445.06348    89.102352    41402.763 
   74500    295.33341   -1392.1147    417.73051    350.51667   -72.700631    41402.763 
   74600    285.22478   -1398.5055    421.82836    302.87522    180.63519    41402.763 
   74700     298.7028   -1367.6257    428.38449    400.77517   -320.37518    41402.763 
   74800    309.97919   -1309.5039    423.90401     505.0037    318.16307    41402.763 
   74900    304.83302    -1364.924    422.80298    425.39627      424.959    41402.763 
   75000    300.13692   -1350.4913    418.82229      414.781    64.162451    41402.763 
   75100    305.12643   -1330.9081    439.41186    477.33724    424.81198    41402.763 
   75200    302.08978   -1349.9958     421.3953    426.61027    118.52097    41402.763 
   75300    291.11605   -1339.9947    419.64655    385.63312   -46.806498    41402.763 
   75400    299.31335   -1365.0994    420.09118    397.74712   -458.68316    41402.763 
   75500     296.9849   -1365.7672     439.2186    405.76108    132.68291    41402.763 
   75600    301.32018   -1337.5568    438.42111    452.62248    264.45288    41402.763 
   75700    298.83783   -1384.6609    447.72516     403.6864    50.241405    41402.763 
   75800    290.04018   -1429.0424    429.01145    301.12384    788.41088    41402.763 
   75900    303.76548   -1394.0093     413.4174    382.13629    946.13801    41402.763 
   76000    294.19967   -1406.9378    435.05122    347.92818    656.91636    41402.763 
   76100    302.56152   -1393.7599    417.53998    381.10703    925.13824    41402.763 
   76200    306.75244   -1410.7181    450.21969    415.62952    514.11514    41402.763 
   76300     280.7222    -1364.898    454.89631    349.35159    373.28085    41402.763 
   76400    304.74726   -1371.3962    412.77533    408.51171   -389.08122    41402.763 
   76500    311.10804   -1337.8004     440.0297    497.89698   -686.66345    41402.763 
   76600    304.77268   -1323.2606    420.20647    464.19237   -141.90612    41402.763 
   76700    298.30864    -1298.753    438.77843    478.27347   -21.913863    41402.763 
   76800    307.15235   -1367.6417    432.57798    442.85833   -240.46051    41402.763 
   76900    296.22861   -1364.9934    444.07506    407.99853    436.03638    41402.763 
   77000    308.50468   -1348.7998    439.61016    474.79906    117.92861    41402.763 
   77100    308.26893   -1370.2405     438.6248    451.31542    372.09285    41402.763 
   77200    301.79777   -1375.6934    415.78374    393.99103    520.35512    41402.763 
   77300    298.56483   -1385.6879    437.92414    391.63358    242.28671    41402.763 
   77400    308.46711   -1418.8282    422.60653    387.59856     504.1547    41402.763 
   77500    299.40876   -1382.4205    440.48262    401.24547    437.97379    41402.763 
   77600    306.58178   -1415.3985     431.4855    391.44937    201.47874    41402.763 
   77700    290.57306   -1404.1843    433.19735    332.55838    562.86347    41402.763 
   77800    296.76679   -1370.4341     443.4613    404.35836    710.35774    41402.763 
   77900    315.99371   -1368.7975    448.60527    497.39318    1027.6662    41402.763 
   78000    295.64601   -1365.9091    446.34145    406.73557    599.40689    41402.763 
   78100    307.92644   -1368.1376    448.10353    461.36063    130.30169    41402.763 
   78200    299.82987   -1360.1092     441.5974    426.56076   -132.56879    41402.763 
   78300    300.18216   -1371.5995    425.44404    400.49753    32.939984    41402.763 
   78400     304.0689   -1399.4636    449.70371    414.32937   -100.60988    41402.763 
   78500    300.93549    -1394.406    449.70414    405.33058   -180.28259    41402.763 
   78600    288.38287   -1370.8468    429.03662    351.90976   -336.39613    41402.763 
   78700    300.00457   -1390.6944    413.93665    369.09844    170.15099    41402.763 
   78800    297.84272   -1376.8812    422.64262    381.91934   -70.289343    41402.763 
   78900     294.1972   -1369.2413    437.09555    387.65792     110.0475    41402.763 
   79000    313.29348   -1376.9104    427.89839    456.45987   -102.45868    41402.763 
   79100    296.63114    -1398.275    425.07536    357.52297   -113.90347    41402.763 
   79200    300.04901   -1445.4594    424.72887    325.32505   -77.006819    41402.763 
   79300    294.66568   -1397.3826    427.88935    352.41207   -157.10204    41402.763 
   79400    303.44278   -1431.0682    438.02864    368.24093   -662.12866    41402.763 
   79500    308.64095   -1399.5765    434.93735    419.96092   -335.97914    41402.763 
   79600    318.79359   -1394.8766    394.32429     429.5937   -32.206036    41402.763 
   79700    293.10047   -1381.1143    430.62732    364.39664    450.34117    41402.763 
   79800    297.84758   -1373.4897    418.45424     381.1442   -158.47024    41402.763 
   79900    297.87066   -1361.7964    426.98803    401.47488    29.094158    41402.763 
   80000    297.99878   -1367.4404    422.62852    392.04617   -91.354636    41402.763 
   80100    300.01676   -1371.6692    438.45492    412.69664   -114.95133    41402.763 
   80200    289.67892   -1377.5428    426.89168      348.883   -625.34605    41402.763 
   80300    299.41661   -1352.9726    452.57986     442.8258   -457.12035    41402.763 
   80400     310.1847   -1348.1056    431.16851    474.58844    -390.0953    41402.763 
   80500    303.84593   -1405.5249    428.38291    385.94706   -142.91066    41402.763 
   80600    292.35985   -1400.5401    422.05045    333.07149    101.82432    41402.763 
   80700    304.61622   -1394.1076    418.91598    391.35301    315.30866    41402.763 
   80800    301.59862    -1381.316    439.48761    411.17895    756.46126    41402.763 
   80900    319.27916   -1366.7128     415.5003    481.11188     630.8449    41402.763 
   81000    280.63902   -1376.4054    444.18817    326.76281    310.20034    41402.763 
   81100    297.47022   -1366.4662    435.79267    403.81333    458.78419    41402.763 
   81200    305.88405   -1367.9997    441.58196    445.81458    565.12893    41402.763 
   81300    296.27784   -1340.6822    426.44786    414.90336   -96.261898    41402.763 
   81400    303.22121   -1324.4274    450.13033    485.98936   -263.37354    41402.763 
   81500    295.94225   -1341.1922    418.99672    405.43675   -222.59524    41402.763 
   81600    310.52896   -1367.0875    439.40486    465.38729    149.88007    41402.763 
   81700    301.71313   -1375.8612    426.18121    403.84104   -109.40166    41402.763 
   81800    294.47324   -1335.2838    432.09752     417.8557   -690.24661    41402.763 
   81900    303.01664   -1338.3357    453.84695    474.87997   -921.21292    41402.763 
   82000     297.1052   -1363.7091    421.75642    390.89663   -308.32061    41402.763 
   82100     294.4765   -1339.5729     449.0018    430.48552   -373.85218    41402.763 
   82200    299.16219   -1327.9027    450.98249    465.15699   -584.58761    41402.763 
   82300    306.62573   -1348.0147    452.76501    480.30987   -611.67374    41402.763 
   82400    299.60751   -1364.2418    455.74598    435.57914   -266.45807    41402.763 
   82500    307.22789   -1366.4443    423.16383    434.98046   -181.69496    41402.763 
   82600    295.01037   -1374.0965    443.60187    392.95704    250.38224    41402.763 
   82700    292.06352     -1393.16    436.28265    353.35442     154.9189    41402.763 
   82800    303.72066   -1384.0469    425.01013    403.49022    -43.58294    41402.763 
   82900    299.13676    -1386.248    441.13719    396.85232   -113.34478    41402.763 
   83000    301.71352   -1381.3092    421.00942    393.22306    125.21394    41402.763 
   83100    295.20422   -1402.8325     440.2976     361.7864   -807.02985    41402.763 
   83200    294.49552   -1402.9228     466.0201    384.23927   -674.10886    41402.763 
   83300    302.36329   -1407.5807     475.9684    424.82539    433.38302    41402.763 
   83400    289.01321   -1391.0224    454.79312     360.3184    66.871094    41402.763 
   83500     298.9894   -1416.3897     432.8173    357.72969    82.590881    41402.763 
   83600    303.17341   -1414.8906    466.27637    411.45776    568.58514    41402.763 
   83700    298.57773   -1387.8106    452.49147    404.13615     219.9831    41402.763 
   83800    294.50466   -1412.5967    444.27845    352.86468    321.96142    41402.763 
   83900    301.05246   -1356.7963    448.56272    442.32358   -241.02946    41402.763 
   84000    295.91513   -1353.1263    451.77358    426.15785    174.31807    41402.763 
   84100    299.48269   -1331.6245    458.44996    470.34047   -26.544393    41402.763 
   84200    297.97542   -1382.9185    439.77346    393.60823   -69.969063    41402.763 
   84300    290.88361    -1403.102    428.81049    330.64695    199.47424    41402.763 
   84400    298.15623   -1377.7955    432.49982    392.26865    375.19167    41402.763 
   84500    297.85039   -1346.2816    464.52296    454.43369    132.76742    41402.763 
   84600    301.04401   -1361.8149    437.93184    426.63622    113.09949    41402.763 
   84700    313.70037   -1329.4588    464.70088    542.53927    184.80949    41402.763 
   84800    313.58317   -1334.4597    432.08508    504.39683   -61.121429    41402.763 
   84900    297.04859   -1394.3833    454.21848    392.43051   -570.85937    41402.763 
   85000    291.43181   -1352.9112    461.43806    415.92469   -317.53004    41402.763 
   85100    302.49908   -1301.3499    452.94493    508.64198   -475.74667    41402.763 
   85200    301.05057   -1350.2085    464.99022    465.33049   -622.25227    41402.763 
   85300    293.70219   -1381.5094    451.73397    387.80751    -688.4607    41402.763 
   85400    298.25232    -1388.334    440.74221    390.40368   -592.45755    41402.763 
   85500    301.82998   -1409.3681     444.3757    389.05281   -164.97763    41402.763 
   85600    303.43155   -1377.9528    463.78685    447.06414   -136.82525    41402.763 
   85700    295.95626   -1365.5751    459.26327    421.38322   -342.45073    41402.763 
   85800    305.31531   -1361.2314    457.61567    466.06507    219.45777    41402.763 
   85900    302.24724   -1374.8602    479.44265    460.49954    820.12234    41402.763 
   86000    288.97653   -1436.8022    445.35714    304.93804    905.15273    41402.763 
   86100     300.3426   -1383.5434    438.62485    402.45418    712.71216    41402.763 
   86200    303.26263    -1364.196    480.87392    477.15021    582.88161    41402.763 
   86300    294.61805   -1397.9509    417.43135    341.17209    717.56804    41402.763 
   86400    303.34744   -1367.7805    446.37747    439.44977      765.746    41402.763 
   86500    307.81022   -1385.5047     442.4085    437.77717    574.00293    41402.763 
   86600    294.33814   -1403.3017    434.29001     351.4243     95.82919    41402.763 
   86700    299.76501   -1421.9705     446.1851     368.9961    107.41945    41402.763 
   86800    301.47705   -1354.0101    468.19941    466.65127    703.96979    41402.763 
   86900    309.19389   -1355.6278    472.70615    504.15902    232.91843    41402.763 
   87000    304.08613   -1386.2424    452.45644    430.38062    506.69143    41402.763 
   87100    298.03736   -1390.4328    459.58255    406.18088    579.62883    41402.763 
   87200    308.46283   -1378.5735      458.149    463.37648     915.0731    41402.763 
   87300    294.81834   -1326.3093    471.28293     467.5638    517.09405    41402.763 
   87400    309.32839   -1340.9706    450.42012    497.13349    648.80152    41402.763 
   87500    294.71016   -1389.3081     441.3958    374.19264     795.5692    41402.763 
   87600    308.52314    -1398.639    438.44922     423.8818     606.2441    41402.763 
   87700    304.30797   -1387.2465    467.24863    445.16393    365.05605    41402.763 
   87800    301.74611   -1385.1912    455.01873    423.49649     629.6648    41402.763 
   87900    291.16794   -1400.2115    452.94771    358.95024     536.9808    41402.763 
   88000    303.79144   -1396.5183    462.74128    429.06752    924.28865    41402.763 
   88100    298.29939   -1350.7316    467.63946    455.11445    171.19432    41402.763 
   88200     296.7024   -1375.3253    468.87169    424.58875     160.8832    41402.763 
   88300    317.16209   -1395.4421     430.0428    457.42763   0.54363007    41402.763 
   88400    301.35715   -1379.5668    445.56726    417.92451   -206.29501    41402.763 
   88500    302.46408   -1358.5454    429.61882    427.96325   -127.23299    41402.763 
   88600    302.13079   -1357.6308    454.81702      452.581   -738.17432    41402.763 
   88700     309.4807   -1358.5363    420.72148     450.5525   -479.34336    41402.763 
   88800    299.25264   -1435.2045    433.71442    340.99294   -576.97399    41402.763 
   88900    295.41633   -1383.3434    465.63206    407.56149    109.50839    41402.763 
   89000    303.35974   -1389.6505    467.42854    438.68602   -274.08713    41402.763 
   89100    291.87785   -1415.6301    438.91007    332.67877   -221.47661    41402.763 
   89200    289.20552   -1391.3468     424.4395    330.50315   -300.93188    41402.763 
   89300    299.26942     -1385.92    453.59282    410.23109   -278.05194    41402.763 
   89400    305.16711   -1388.7538    448.32007    428.58233   -341.95135    41402.763 
   89500    303.94826    -1365.378    450.88812    449.05827    43.386341    41402.763 
   89600    292.14038   -1359.0209    448.70688    400.26248   -102.58583    41402.763 
   89700    309.56609   -1374.3414    449.05794     463.4669    229.64258    41402.763 
   89800    298.81707   -1376.4626    453.80493    417.87128   -7.3236163    41402.763 
   89900    295.91997   -1360.0263    448.77993    416.28587    339.98593    41402.763 
   90000    300.40874   -1377.0371    448.62651     419.2588   -384.85301    41402.763 
   90100    302.60832   -1370.4131    436.45726    423.58111    242.45127    41402.763 
   90200    292.58458    -1389.725    435.75547    358.59971    252.60764    41402.763 
   90300    300.27239   -1376.4455    438.91007    409.52228   -202.58857    41402.763 
   90400    295.12306   -1370.0318    420.50795    374.43333   -528.18886    41402.763 
   90500    309.45348   -1394.6474    469.35434    462.95214   -123.01928    41402.763 
   90600    297.77569   -1372.7427    464.79332    427.90784   -353.30126    41402.763 
   90700    304.54825   -1405.3717    448.07431    408.94233   -178.10067    41402.763 
   90800    303.04073   -1402.0764    453.37905    410.77944   -184.42799    41402.763 
   90900     302.8849   -1342.6841    444.52461    460.61825    49.123123    41402.763 
   91000    301.01164    -1348.579    455.84475    457.63982    74.705174    41402.763 
   91100    298.86335   -1344.1455    421.42181    418.01289    665.11344    41402.763 
   91200     306.2562   -1326.6846    444.70077    491.91798    268.74198    41402.763 
   91300    300.24408   -1368.8609    418.50288     396.5727    372.31732    41402.763 
   91400    294.69591   -1344.5363    464.48495    441.98959     582.2393    41402.763 
   91500    297.99136   -1398.0809    443.43705     382.1809    569.19298    41402.763 
   91600    292.96212   -1408.0076    440.09463    346.35004    754.13692    41402.763 
   91700    298.48686   -1417.5108    440.97828    362.51511    117.84905    41402.763 
   91800    301.74359   -1405.2507    446.15335    394.56035   -197.06641    41402.763 
   91900    306.14606   -1390.6613    448.65478    431.40116   -465.81366    41402.763 
   92000     300.6446    -1385.099     432.7698    396.39831   -553.82846    41402.763 
   92100    288.27492   -1358.6643    446.51786     381.0892   -366.15951    41402.763 
   92200    302.40942    -1383.367    448.28554    421.56322   -334.51663    41402.763 
   92300    315.28176   -1371.4311    435.78086     478.7413    304.10685    41402.763 
   92400     290.4164   -1383.0886    440.37758    360.13153    -166.5214    41402.763 
   92500    298.88117    -1381.547    429.16125    388.43083    -316.7233    41402.763 
   92600    299.21259   -1370.9507    437.30089     408.6535   -293.23802    41402.763 
   92700    296.73972   -1361.4252    434.08396    403.86848    77.455641    41402.763 
   92800    298.04155   -1421.9953    437.28062    352.33528   -152.66547    41402.763 
   92900    294.42387   -1389.8876    482.71916    413.65212   -118.63815    41402.763 
   93000    296.95302   -1363.5549      463.104    431.71571     23.51092    41402.763 
   93100    297.49684   -1370.2613    460.09414    424.43915    -58.19438    41402.763 
   93200    299.77896   -1358.0228    472.93676    459.75806   -21.172116    41402.763 
   93300    302.81136   -1372.5126    458.11675    444.05201    384.37383    41402.763 
   93400    302.51121   -1433.9065    439.55858    362.75338    177.56921    41402.763 
   93500    307.28436   -1403.7613    456.46507    431.21796    674.12007    41402.763 
   93600    300.11215   -1378.4941    443.17845    411.02319    517.65699    41402.763 
   93700    305.58757   -1410.4772    460.17435    420.59938    388.52736    41402.763 
   93800    299.88457   -1406.5526    480.68196    419.44726    851.13158    41402.763 
   93900    289.75759   -1440.3557     432.3494    291.88072    406.18031    41402.763 
   94000    302.12416   -1444.2283    477.57631    388.71298     387.0063    41402.763 
   94100     305.0449   -1417.2642    484.71576    435.91929    400.75412    41402.763 
   94200    290.41122   -1441.0191    436.00203    297.80228    504.17321    41402.763 
   94300    290.12458   -1433.8118    469.66171    337.38336    233.89309    41402.763 
   94400    304.31379    -1434.358    440.45814    371.28802    166.24879    41402.763 
   94500    303.85024   -1445.4496    440.65606    358.31487    28.897644    41402.763 
   94600    288.78452   -1408.3945     473.4567    360.58397   -62.426859    41402.763 
   94700    301.97888   -1402.6993    453.81669    405.83066   -252.99802    41402.763 
   94800    303.41232    -1398.339    478.03004    440.83489   -88.215213    41402.763 
   94900     303.2383   -1376.2531    458.76524    442.87523   -333.96551    41402.763 
   95000    302.97324   -1367.3032    450.03002    441.90082    495.78654    41402.763 
   95100    308.43522   -1418.2223     452.3902    417.84507    196.56542    41402.763 
   95200    296.29192    -1410.457    459.83235    378.57618    72.021573    41402.763 
   95300    298.38832   -1383.4142    433.33846    388.52981    46.078712    41402.763 
   95400    305.00681   -1402.1531    451.54715    417.69097   -328.13515    41402.763 
   95500    293.80292   -1420.5776    452.08002    349.53733   -320.83412    41402.763 
   95600    308.01247    -1401.948    460.69308    440.52574    14.571975    41402.763 
   95700    298.84239   -1399.8855    469.08522    409.84232   -75.185231    41402.763 
   95800    302.23122   -1433.4312    462.09981    384.51386    130.28466    41402.763 
   95900    288.67697   -1427.0859    454.47972    322.43307    47.018322    41402.763 
   96000    294.22363   -1375.1614    458.51757    403.27836    611.22268    41402.763 
   96100    306.92597   -1408.7192    458.37094    426.55822    350.63228    41402.763 
   96200    297.93153   -1392.4091    468.93943    413.08665    223.21693    41402.763 
   96300    299.48005    -1413.826    470.75805    400.43529    -53.82652    41402.763 
   96400    295.19197   -1400.1246    447.58056    371.72229    33.916878    41402.763 
   96500    292.08508   -1418.0626    446.46899    338.73485    105.16707    41402.763 
   96600    311.27988   -1417.6962    448.51575     427.2582    -83.08144    41402.763 
   96700    301.79811   -1379.6932    464.90253    439.11163   -237.42068    41402.763 
   96800    300.98526   -1455.2194    462.03386    357.07016   -215.59993    41402.763 
   96900    299.69619   -1449.5813    462.50444    357.39598    115.31875    41402.763 
   97000     300.2953   -1467.4487    471.25151    350.96335    597.81966    41402.763 
   97100    306.84293   -1466.4103    449.52902    359.65267    218.15144    41402.763 
   97200    300.45106   -1436.6791    433.82586    345.00595    136.61958    41402.763 
   97300    302.84309   -1445.4498    456.78641    369.92685    376.69767    41402.763 
   97400    288.34311   -1438.8123    454.33112    309.06038   -20.791211    41402.763 
   97500    309.74519   -1438.9787    439.05903    389.63414    -76.44216    41402.763 
   97600    291.28768   -1433.1234    457.09229    330.72014   -374.50638    41402.763 
   97700    302.38467   -1448.6089    460.72828    368.65304   -388.37422    41402.763 
   97800    306.46584   -1439.5297    458.90864    394.22121   -252.36731    41402.763 
   97900    289.27507   -1434.6806    485.19924    348.24102   -399.26775    41402.763 
   98000     312.0008   -1423.2549    451.63562    428.05347    202.34323    41402.763 
   98100    300.56162   -1433.5862    431.90109    346.67012    -512.7034    41402.763 
   98200    294.89762    -1422.703    441.03407    341.27694   -591.48899    41402.763 
   98300    296.12361   -1446.8791    433.33611    314.90279   -390.11416    41402.763 
   98400    300.13287    -1419.643    440.14874    366.93761   -102.03621    41402.763 
   98500     300.4108      -1442.9    469.14481    373.92341     384.9807    41402.763 
   98600    286.11101    -1415.786    466.63344    334.37554   -174.39291    41402.763 
   98700    296.99689   -1402.2587    446.66988    376.77459   -71.901924    41402.763 
   98800    292.77076   -1409.5374    465.47002    369.33715   -314.22736    41402.763 
   98900    293.25959   -1366.2992    443.44416    392.74245    91.229287    41402.763 
   99000    302.06846    -1380.746    461.88489    436.25398    123.49055    41402.763 
   99100    291.30778   -1368.3123    473.64113    412.17026    -613.9001    41402.763 
   99200    302.76519   -1377.3892    450.90298    431.75445   -46.874625    41402.763 
   99300    298.66957   -1385.9663    467.41356     421.3145   -67.823531    41402.763 
   99400    308.00812   -1415.9301    455.66154     421.4926   -139.63798    41402.763 
   99500    292.81749   -1393.6296    471.75507    391.73961   -79.043032    41402.763 
   99600    296.80749   -1385.2682    456.93363    403.17921    150.75256    41402.763 
   99700    292.93568   -1396.5426    465.26782    382.86956    104.81735    41402.763 
   99800    296.26416   -1416.8376    471.36171    383.60049    444.64038    41402.763 
   99900    295.94539   -1436.6103    454.73328    345.76922    42.894483    41402.763 
  100000    313.55677   -1411.4571    505.47155    500.66749    93.053153    41402.763 
  100100    303.80366   -1391.3486    441.10858    412.65943   -29.431692    41402.763 
  100200    294.26982   -1377.0016    460.83507    403.96296   -312.59072    41402.763 
  100300    309.88343   -1430.7315    437.05358    396.49606   -149.59948    41402.763 
  100400    291.64925   -1470.9149    428.73334    266.19178   -708.63248    41402.763 
  100500    295.73416   -1423.3712    446.22049    349.54798   -538.62632    41402.763 
  100600    296.91266    -1374.657     480.1699    437.49853   -279.26963    41402.763 
  100700    294.26476   -1419.7372    468.24056    368.61014    56.314166    41402.763 
  100800     308.8608    -1414.022    471.85779    443.42211    366.41425    41402.763 
  100900    297.31889   -1441.6806     460.1971    352.32447    166.77511    41402.763 
  101000    301.15272   -1459.8985    463.44491    354.55339     286.7673    41402.763 
  101100    292.02926   -1452.7347    488.27499    345.61837    381.73852    41402.763 
  101200    307.62088   -1437.1884    461.03983    403.87539    71.267844    41402.763 
  101300     302.1759   -1382.3164    469.41134    442.69202     226.1398    41402.763 
  101400    303.52388   -1411.5045    473.49345    423.63319    420.93186    41402.763 
  101500    288.10228   -1419.2334    478.09696    351.32472   -90.152775    41402.763 
  101600    298.33806    -1433.025    469.01539    374.37046   -47.192278    41402.763 
  101700    305.51307   -1426.5373    446.03475    390.06548   -377.07656    41402.763 
  101800    296.12007   -1439.5433    463.87087    352.75746   -173.82755    41402.763 
  101900    306.85658   -1457.9498    431.99051     350.6359   -203.00288    41402.763 
  102000    293.43187    -1433.806    454.36697    336.93131   -276.19111    41402.763 
  102100    300.96382   -1392.6886     487.6746    445.14559   -392.75505    41402.763 
  102200    307.18519   -1408.6801    458.27531    427.66459   -231.26841    41402.763 
  102300    308.64887    -1414.931    462.38565    432.09024   -565.16226    41402.763 
  102400    295.09496   -1443.1293    454.46873    335.17059   -402.59381    41402.763 
  102500    302.36154   -1434.1485    472.29862    394.58002   -33.079797    41402.763 
  102600    293.62759   -1469.5867    460.32794    307.98955    660.95909    41402.763 
  102700     299.1515   -1490.8102    451.90887    303.12794    496.55377    41402.763 
  102800    289.05585   -1476.9325    436.38606    256.19254    343.56142    41402.763 
  102900    308.42503   -1479.6291    428.41527    332.41757    22.080025    41402.763 
  103000    292.91395    -1440.414    457.58615    331.21909   -175.61109    41402.763 
  103100    304.34536   -1437.0879    448.45635    376.69798      62.0736    41402.763 
  103200    292.25957   -1443.6731    440.28323    307.72137    371.65521    41402.763 
  103300    302.72486   -1448.7714    461.27638    370.56479    331.85637    41402.763 
  103400    297.40476   -1480.7788    462.25826    315.67263    810.36107    41402.763 
  103500    294.65513   -1478.1845    457.48398    301.15747    706.92805    41402.763 
  103600    300.82832   -1507.6234    446.23392    288.16222    854.71446    41402.763 
  103700    306.24831   -1484.9871    442.56121     331.4405    616.80311    41402.763 
  103800     291.1412   -1504.4508     443.2182    244.86155    357.43595    41402.763 
  103900    300.95562   -1460.6819    441.88894    331.32984   -87.917555    41402.763 
  104000     293.6805   -1444.4761    453.45024     326.4599    -267.1207    41402.763 
  104100    296.64167   -1461.4847    457.18679    326.47199   -718.61621    41402.763 
  104200    292.01138   -1436.1778    454.77363    328.59365   -836.09187    41402.763 
  104300    307.95192   -1421.3755    448.04653    408.18003   -1002.6037    41402.763 
  104400    298.25392   -1458.5483    472.77274    352.22711   -298.54015    41402.763 
  104500    297.02789    -1476.403    453.17175    309.27124    -45.34506    41402.763 
  104600    300.58087   -1436.3619    460.27543    372.35509   -298.73735    41402.763 
  104700    306.94928   -1425.5931    468.18742    419.60536    412.14582    41402.763 
  104800    295.85205   -1435.9121     463.2268    354.54223    159.07739    41402.763 
  104900    294.53927   -1408.1482    477.50258     390.6926    773.38767    41402.763 
  105000     294.1917    -1461.617    448.95122    307.11324    819.55813    41402.763 
  105100    308.93625   -1422.8809    457.95739     421.0013    469.61404    41402.763 
  105200    308.29115   -1432.6943    457.65833     407.9949    156.87485    41402.763 
  105300    293.81935   -1473.2416    434.46099    279.32797    196.51615    41402.763 
  105400    305.61027   -1455.5915    455.95967    371.37226    -364.3343    41402.763 
  105500     302.4576   -1454.0955     452.1939    354.95924   -189.34273    41402.763 
  105600     298.2155   -1447.7343    434.28573    324.38174    391.79036    41402.763 
  105700    302.63505   -1445.8018    448.38641    360.24148   -111.41167    41402.763 
  105800    315.51942   -1427.7456    447.00438    434.71643    273.28294    41402.763 
  105900     295.7887   -1456.5972    459.68001    330.02614    245.96129    41402.763 
  106000    303.50507   -1423.0813    468.09871    406.57728    644.80464    41402.763 
  106100    299.38064    -1431.813    436.58295    347.82713    124.54195    41402.763 
  106200    304.12326   -1416.3224    467.59365    415.60436      321.354    41402.763 
  106300    303.33971   -1420.8807    441.89805    381.83542     855.7822    41402.763 
  106400    297.58164   -1376.2402    468.30464    427.05113     215.8187    41402.763 
  106500    315.77739   -1435.8863    440.39054    421.11921   -178.21696    41402.763 
  106600    303.41325   -1432.1495    460.18558    389.18407    115.83972    41402.763 
  106700    293.16517   -1480.5804    439.69278    274.28622   -37.362687    41402.763 
  106800    306.17239   -1462.2192    427.00688    338.31349    175.95571    41402.763 
  106900    300.07433   -1453.4083    485.95294    378.71384   -105.93066    41402.763 
  107000    306.80973   -1445.0645    456.65345    387.97398   -64.930289    41402.763 
  107100    297.84639   -1464.6139    452.20725    323.76772   -356.50614    41402.763 
  107200    287.32976   -1439.6437    457.40888    306.76069   -318.30374    41402.763 
  107300    301.05423    -1442.246    440.50065    348.81985     136.8537    41402.763 
  107400    307.17542   -1433.9898    451.23587    395.27163    1.8400702    41402.763 
  107500    297.09241   -1433.5929    449.88098    349.08003    -185.5868    41402.763 
  107600     302.0064   -1408.3594    453.73137    400.20872     318.6016    41402.763 
  107700    294.62277   -1410.8198    462.13336    373.02644    131.58719    41402.763 
  107800    296.97261   -1462.3969    447.01209    316.86966    493.74872    41402.763 
  107900     292.5751   -1468.8065    460.57374    304.29399    603.15298    41402.763 
  108000    294.11816   -1385.1583    467.51087    401.80165    1066.5886    41402.763 
  108100    310.97349   -1407.6257    454.26006    441.69843    1353.5984    41402.763 
  108200     298.2047   -1401.9878    461.40114    397.19512    188.60808    41402.763 
  108300    297.69325   -1394.1665    428.85845    370.17936    272.40248    41402.763 
  108400    304.05626   -1412.7239    452.96177    404.27045   -18.271285    41402.763 
  108500    307.46427   -1435.1625    451.77128    395.93014    398.38866    41402.763 
  108600     304.2308   -1431.3325    457.17758    390.66072    82.024703    41402.763 
  108700    303.94944   -1419.8777    454.42388    398.09955   -353.64212    41402.763 
  108800    318.97926    -1414.768    445.54605    461.75701    200.18104    41402.763 
  108900    300.86665   -1406.5114    467.66896    410.88118   -366.66067    41402.763 
  109000    301.92968   -1387.3445    464.61837    431.76634   -25.901104    41402.763 
  109100    306.27994   -1406.7543      462.004    429.25802   -101.39691    41402.763 
  109200    312.22557   -1450.3445    440.64786    390.98448    271.50008    41402.763 
  109300    307.53485   -1378.0462    440.89569    442.48751    291.09598    41402.763 
  109400    305.31328   -1396.3421     488.7489    462.07855    648.88371    41402.763 
  109500    290.08089   -1407.3452    466.59769    360.58987    90.000838    41402.763 
  109600     304.2154   -1408.7065    458.80298    414.84304    569.64289    41402.763 
  109700    286.91392   -1431.9521    482.25773    337.43568    507.60832    41402.763 
  109800    299.46986   -1410.2575    457.56912    390.76911    391.69048    41402.763 
  109900    308.32461   -1416.0353    463.01451    430.16016    150.32247    41402.763 
  110000    298.36203   -1432.7399    463.36598    369.11367    -25.12836    41402.763 
  110100    303.66513   -1443.1329    455.28062     374.4257    -122.1823    41402.763 
  110200    294.72384   -1475.0799    426.08467    273.17103   -740.40603    41402.763 
  110300    294.25293   -1453.4163    460.08099    326.71845   -397.15507    41402.763 
  110400    313.71293   -1445.4197    460.51732    422.45113    -47.02393    41402.763 
  110500    301.71082   -1469.8149    436.69253    320.38834    26.407792    41402.763 
  110600    298.46063   -1480.9336    453.97836    311.97473    244.07872    41402.763 
  110700    305.09564   -1421.1295    458.19778    405.76367     312.4319    41402.763 
  110800    297.62786   -1476.5088    471.25179    329.93701     6.597578    41402.763 
  110900    296.46906   -1463.7576    449.12982    315.36771    170.78985    41402.763 
  111000     292.3224    -1443.891    436.86283     304.3649    -167.5911    41402.763 
  111100    296.81266   -1452.5126    466.60307    345.62739   -574.17695    41402.763 
  111200     300.0409   -1452.8876    455.60174    348.73341   -467.81574    41402.763 
  111300    298.93639   -1482.9155    422.28249     280.4313   -253.78128    41402.763 
  111400    306.30346   -1431.8268    445.24051    387.52754    242.08823    41402.763 
  111500     293.6187   -1478.8898    450.57702    288.89572   -24.339603    41402.763 
  111600    304.08252   -1462.7764    459.68444    361.05842   -270.31973    41402.763 
  111700    295.52209    -1452.746    443.50732    316.50864   -105.74113    41402.763 
  111800    300.76656   -1449.0077    454.08414    354.35105   -295.26938    41402.763 
  111900    308.26054   -1473.4771    478.31864    387.73503   -38.407957    41402.763 
  112000    298.75589   -1434.2573    411.65887    317.65606   -199.60033    41402.763 
  112100    305.02286   -1430.7146    469.12188    406.77614    -531.5721    41402.763 
  112200    300.94851   -1471.6573     457.9034    336.33699   -816.93441    41402.763 
  112300     296.7955   -1476.0746    474.93481    330.32023   -881.52264    41402.763 
  112400    303.58781   -1463.8385    450.74298    348.83552   -416.63731    41402.763 
  112500    293.40849    -1454.952    457.43818    318.75161   -49.775631    41402.763 
  112600    302.36908   -1469.4544    465.91693    352.92622    286.61545    41402.763 
  112700    299.83511    -1465.338    438.45029    318.20832   -195.06466    41402.763 
  112800    296.64854   -1447.5252    444.26709    327.54262    119.02825    41402.763 
  112900    292.93019   -1498.0105    463.61752    279.72671    368.56316    41402.763 
  113000    302.14754   -1439.6143    457.40413    373.25964    342.79083    41402.763 
  113100    300.13182   -1488.3217    427.64206    285.74744    315.23075    41402.763 
  113200    302.89709   -1538.4431    459.98994    280.37928    269.26653    41402.763 
  113300    305.10607   -1545.6525     441.9011    264.99081    305.40649    41402.763 
  113400    306.26306    -1446.019    469.54957    397.46313    123.68076    41402.763 
  113500    296.41835   -1464.2136    454.47783    320.03226    102.90246    41402.763 
  113600    304.01137     -1472.54    465.97746    357.26869    258.81241    41402.763 
  113700    296.84787   -1487.5289    461.41411    305.58009    64.749765    41402.763 
  113800    293.22565   -1479.6737    467.03386    302.80542    433.54819    41402.763 
  113900    304.48843   -1453.1548    464.81187    377.62839    221.91184    41402.763 
  114000    306.16911   -1490.0756    485.94442    369.37991    138.53279    41402.763 
  114100    308.81508   -1440.5453    473.46435    418.30029   -153.68738    41402.763 
  114200    294.62259   -1432.6693    440.48568    329.52844   -240.89082    41402.763 
  114300    297.27741   -1405.4664    475.18639    403.34191   -464.44956    41402.763 
  114400     300.1451   -1466.0047    474.30157    354.78353   -273.39364    41402.763 
  114500    295.74019   -1433.6885    459.38992    352.42715    112.84596    41402.763 
  114600    299.67154   -1402.7417    473.99687     415.6174    179.44386    41402.763 
  114700    289.85598   -1413.0585    487.90611    375.17605   0.57429895    41402.763 
  114800    305.97963   -1404.6136    461.72863     429.7761   -387.15965    41402.763 
  114900    285.69532   -1430.3425    442.05544     293.3762   -77.954261    41402.763 
  115000    304.25844   -1405.9747    482.48467    441.44957   -144.09058    41402.763 
  115100    294.60507    -1439.556    454.36731    336.44476   -320.07166    41402.763 
  115200    309.96412   -1460.7049    442.85714    372.68819    209.74727    41402.763 
  115300    298.27442   -1455.3087    453.24634    336.03223    -85.53743    41402.763 
  115400    308.29975    -1465.207    466.06583    383.92824    128.33321    41402.763 
  115500    290.48984   -1510.5216    431.40944     224.0599    94.489525    41402.763 
  115600      309.245   -1480.0642    433.43813    340.68383    265.00299    41402.763 
  115700    310.98045   -1465.5237    438.60143    368.17311    396.03387    41402.763 
  115800    294.12108    -1475.688    467.81022    311.58439    427.50736    41402.763 
  115900    317.91983   -1516.6784    463.79328    373.34106    224.47042    41402.763 
  116000    292.42338   -1494.5596    460.24755    277.53405    507.16993    41402.763 
  116100    309.64859   -1475.3484    447.77152     361.5436    199.44755    41402.763 
  116200    304.18546   -1446.7735     457.2946    375.13335   -598.64435    41402.763 
  116300    296.35742   -1440.9959    482.75511    371.25394   -154.31368    41402.763 
  116400     296.6544   -1497.5589    455.55541    288.82349   -372.33904    41402.763 
  116500    290.04433   -1479.0685    450.35531     272.4602   -279.46964    41402.763 
  116600    299.01456   -1492.1838    445.52628    294.75738   -701.90609    41402.763 
  116700    301.69564   -1466.8331    460.20936    346.81885   -574.50622    41402.763 
  116800    302.12675   -1518.0216    480.45485    317.80984   -356.46016    41402.763 
  116900    311.17944    -1519.994    430.50838    306.50243   -279.57515    41402.763 
  117000    316.42776    -1515.016    442.23957    346.75622     259.9702    41402.763 
  117100    308.52068   -1470.5544    439.35555    352.86169   -397.86867    41402.763 
  117200    292.28947    -1457.788    451.62726     305.0846   -382.54747    41402.763 
  117300    309.30724   -1460.9904    434.21346    360.81217   -119.85214    41402.763 
  117400    293.24513     -1472.84    471.48756    314.18015   -374.95647    41402.763 
  117500    286.94026   -1495.2964    479.03275    270.98459    136.67009    41402.763 
  117600    296.84483   -1483.7338    441.69991    289.64734     157.5584    41402.763 
  117700    298.11673   -1484.5549    455.37632    308.20852    283.56897    41402.763 
  117800    295.72783   -1491.3801    472.55136     307.8415    61.707787    41402.763 
  117900    304.88915   -1491.5546    471.36071    347.57513   -71.785533    41402.763 
  118000    291.59365   -1492.3124    448.98721    264.79872    271.08371    41402.763 
  118100     300.8593   -1481.4287    460.96353     329.2255   -264.69515    41402.763 
  118200    287.88635   -1448.9481    469.80536    312.34968   -621.73942    41402.763 
  118300    292.60936   -1465.3139    450.66258    298.02908   -844.84529    41402.763 
  118400    291.84304   -1481.9717    441.77048    269.04148   -839.63388    41402.763 
  118500    311.13208   -1451.2004    457.90444    402.47956   -465.53931    41402.763 
  118600    297.87685   -1471.9871    474.51923    338.84318    127.78867    41402.763 
  118700     290.4633   -1426.2077    452.23145    329.07679    58.444645    41402.763 
  118800     307.7242   -1396.0234    471.88679    456.35082   -109.33659    41402.763 
  118900    306.11322   -1447.2797    466.34834    392.32906     -2.59857    41402.763 
  119000    307.91965   -1494.9555    465.96557    352.37423   -156.49545    41402.763 
  119100    305.54539   -1457.3644    464.60217    377.95081   -44.519508    41402.763 
  119200     297.8305   -1483.9693    478.94976    331.08355   -528.64614    41402.763 
  119300    299.68083   -1477.0331    440.11981    307.49065    103.02558    41402.763 
  119400     309.7858   -1435.6694    471.87515    425.94179    529.67301    41402.763 
  119500    303.29149   -1494.8404    494.72039    360.48175    580.84861    41402.763 
  119600    294.91421   -1471.0694    464.17527    316.12613    552.40381    41402.763 
  119700    304.88408   -1442.9382    480.00946    404.81754    738.23074    41402.763 
  119800    304.33866   -1408.6233    479.88117    436.55732    273.26615    41402.763 
  119900    285.98897   -1438.2561    447.99117    292.71562    73.183495    41402.763 
  120000    310.94502   -1436.8192    474.85919    432.97636     140.9318    41402.763 
  120100    300.12434   -1440.7248    495.22031      400.889   -346.28584    41402.763 
  120200    295.33601   -1428.4884    502.86735    399.29142   -430.73659    41402.763 
  120300    296.49104   -1418.8202    474.88235    386.15625   -1.2807005    41402.763 
  120400    312.72147   -1464.9959    482.27295    420.18276    638.46054    41402.763 
  120500    293.48963   -1417.8229    484.44385     383.2504    331.51442    41402.763 
  120600    302.13996   -1421.1341    490.56139    424.86315    591.86204    41402.763 
  120700    292.45609   -1424.8803    464.91978     352.0323    218.62436    41402.763 
  120800    300.20362   -1421.4251    490.33215    415.65622    237.39849    41402.763 
  120900    297.51615   -1450.0917    495.75591    380.35713   -50.090584    41402.763 
  121000    292.66946   -1434.3285    463.05341    341.67493    -244.4081    41402.763 
  121100     302.0723   -1442.9793    468.21179    380.36479   -291.28823    41402.763 
  121200      290.114   -1435.9522    470.11283    335.64658   -613.81389    41402.763 
  121300    291.61628   -1433.9734    471.86071    346.11271   -849.10977    41402.763 
  121400    295.35397   -1464.3188     474.1011    334.77546   -264.55354    41402.763 
  121500    302.21717   -1493.4646    452.12348    314.44112   -241.01009    41402.763 
  121600    301.61873   -1470.1666    493.78933    376.72029    281.62088    41402.763 
  121700    297.17593   -1491.5657    474.02638    315.62733   -231.33177    41402.763 
  121800    289.53101   -1479.1639    462.10742    281.81411   -14.008802    41402.763 
  121900    305.31361   -1479.0566    480.44834    371.06494    86.055772    41402.763 
  122000    300.58371   -1505.7375    462.70241    305.41927    255.17016    41402.763 
  122100    302.51133   -1462.2199    457.47493    352.35692    478.37154    41402.763 
  122200    301.65102   -1451.3206     498.2919    400.21375   -110.32773    41402.763 
  122300    305.88735   -1467.9615    480.58014    384.86577    218.83971    41402.763 
  122400    312.41121   -1439.3913    464.04028    426.16288    320.19038    41402.763 
  122500    289.34188   -1420.6623    477.44159    354.80142    63.586031    41402.763 
  122600    298.36015   -1444.2095    497.84646    392.11619     559.8933    41402.763 
  122700    299.47911   -1418.6061    486.65235    411.54517    418.91293    41402.763 
  122800    320.47506   -1414.7923    488.17965    511.07663    383.79278    41402.763 
  122900    300.56457   -1387.3288      494.869    455.90866    228.73834    41402.763 
  123000    296.89966   -1440.8179    481.18008    372.28942   -346.01239    41402.763 
  123100    305.81991   -1450.1266    475.32189    397.13982    364.27053    41402.763 
  123200    302.14728   -1464.6348    459.50368    350.33758    526.50422    41402.763 
  123300    308.49629   -1452.8688    501.01763    432.09989    194.11586    41402.763 
  123400    303.35592   -1435.1008    490.23426    416.02423    276.52052    41402.763 
  123500    303.22704   -1442.3719    489.44264    407.38333   -226.91205    41402.763 
  123600    306.33132   -1473.3256    504.53309    405.44629    346.27328    41402.763 
  123700     286.5232    -1454.814    464.99253    295.55577   -104.08793    41402.763 
  123800    300.60769   -1429.0421    471.60253    391.12239   -581.69426    41402.763 
  123900    300.70922   -1451.8843    479.14806    376.28113   -426.64721    41402.763 
  124000    301.14468   -1446.9973     476.4329    380.40646    473.38271    41402.763 
  124100    314.42469   -1478.3185    496.49216    428.72023    372.43484    41402.763 
  124200    300.97507   -1437.2438     493.4894    406.45557    186.84363    41402.763 
  124300    291.17656   -1454.1443     480.3324    332.44081    420.11666    41402.763 
  124400    284.66552     -1433.77    495.45431    338.72771    835.36743    41402.763 
  124500    297.29199   -1440.5882    508.52181    401.62082    407.29477    41402.763 
  124600    305.35367     -1439.55    493.72897    424.03188     895.9608    41402.763 
  124700    308.00481   -1452.4412    509.39612    438.70122    956.09202    41402.763 
  124800    311.16379    -1472.946    490.84238    413.81423    640.11779    41402.763 
  124900    298.56409   -1460.8916    477.67882    356.18128    237.34379    41402.763 
  125000    290.63529   -1407.3929    470.98212     367.4138    -114.2223    41402.763 
  125100    290.73573    -1424.241    483.62645    363.66057   -294.14835    41402.763 
  125200    301.58024   -1435.2555     470.6313    388.30068     436.8169    41402.763 
  125300    309.09265    -1446.059     461.0885    401.65592    400.83118    41402.763 
  125400    314.01068    -1448.669    465.62526    425.64561    413.08172    41402.763 
  125500    291.98844   -1484.2874    475.89431    301.50181    373.32568    41402.763 
  125600    304.97216   -1471.6913    525.04322     421.4934    169.65457    41402.763 
  125700    303.04662   -1488.3763    466.05841     337.1854    304.13019    41402.763 
  125800    306.46816   -1465.4194     502.5952    412.02843     122.7277    41402.763 
  125900    297.35115   -1403.0016    462.61786    393.56891    65.554918    41402.763 
  126000    308.46945   -1427.6524    497.91536    454.09369   -428.50834    41402.763 
  126100    308.09746    -1479.506    493.75444    396.41035    -260.0161    41402.763 
  126200    294.48078   -1457.9367    459.37939    322.51852   -573.17009    41402.763 
  126300    287.57313   -1457.9653    486.38788    318.50989   -753.10595    41402.763 
  126400    292.04983   -1492.9843    480.29077    297.47683   -688.16714    41402.763 
  126500    298.38763   -1512.4709    483.91026    310.04186   -305.30493    41402.763 
  126600    305.75173   -1511.0239    448.67165    309.28646    131.55404    41402.763 
  126700    304.53879   -1457.6357    454.21638      362.778    299.71612    41402.763 
  126800    307.13145   -1497.3569    470.80782    351.27917    -40.61335    41402.763 
  126900    294.85927   -1499.9717    453.93797    276.74008    78.347788    41402.763 
  127000      297.418   -1537.9977    492.57199    288.82687    168.89229    41402.763 
  127100     290.5708   -1525.3012     478.2632    256.49717    562.66048    41402.763 
  127200    302.09015   -1469.9345    442.89894    328.17682    292.29778    41402.763 
  127300     293.4139   -1511.7254    467.69265    272.25701    253.82405    41402.763 
  127400    301.09188   -1464.8137    463.01533    348.93564   -205.69405    41402.763 
  127500    308.28794   -1444.0244    484.82212    423.81418      143.838    41402.763 
  127600    295.59805   -1486.2583    470.32629    310.15604    266.48627    41402.763 
  127700    293.15379   -1490.3338    482.47306    307.26209    719.36042    41402.763 
  127800    307.87609   -1503.8734    485.29167    362.58702    508.36389    41402.763 
  127900     296.4566   -1539.1473    469.01686    259.80914    584.30738    41402.763 
  128000    300.77239   -1504.7696    466.00202    310.53319    259.56431    41402.763 
  128100    312.07775   -1542.8591    461.82336    318.98225    299.65877    41402.763 
  128200    310.10855   -1481.6431    477.83823      387.379    229.15918    41402.763 
  128300      308.057   -1454.0925    473.68261     401.5705   -32.320552    41402.763 
  128400    303.80321   -1473.6955    481.97136    371.17328    496.28415    41402.763 
  128500    298.02452   -1507.2834    497.59014    327.28022    60.708151    41402.763 
  128600    303.81247   -1482.0366    473.34384    354.24618   -417.56803    41402.763 
  128700    305.29456   -1461.8968    445.54047    353.23145   -188.30749    41402.763 
  128800    295.03427   -1496.6994    477.02605    303.88556   -517.47992    41402.763 
  128900    297.19762   -1504.6228    462.24431    290.88544   -441.97714    41402.763 
  129000    311.06875   -1526.9723     467.2579     335.7771   -87.720921    41402.763 
  129100    294.48003   -1523.2132     474.6324    272.49168      133.659    41402.763 
  129200    298.88158   -1534.3081    461.33506    267.84537   -95.653544    41402.763 
  129300    294.20801   -1541.6574    471.60992     249.8047   -163.93581    41402.763 
  129400    291.00382   -1522.5639     471.5795    254.49338   -180.86724    41402.763 
  129500    299.28134   -1487.2292    468.25863    323.64123   -134.98725    41402.763 
  129600    302.75302   -1484.3465    466.11869    339.95827   -266.93303    41402.763 
  129700    299.14815   -1534.6036    469.75291    277.16357     23.98034    41402.763 
  129800    293.16289   -1534.1487    486.56635    267.58134    397.04269    41402.763 
  129900    291.65902   -1506.1855    490.29715     292.5287    465.38038    41402.763 
  130000    301.32364   -1515.8953    468.23827    304.11666    81.115684    41402.763 
  130100    302.66779   -1506.0335    453.85596    305.62622   -258.65401    41402.763 
  130200    296.26949   -1494.7125    485.02639    319.41411   -161.42545    41402.763 
  130300    306.30561   -1481.3586    471.90722    364.67203    232.48805    41402.763 
  130400    290.34089   -1480.3253    480.43035    302.60892    226.03733    41402.763 
  130500     301.6932   -1449.1872    474.75948    379.00391   -209.41288    41402.763 
  130600    302.09402   -1418.0348    485.44178    422.63675    259.80287    41402.763 
  130700    318.82387   -1391.7993    489.26674     527.7493    265.88048    41402.763 
  130800    302.60168   -1470.1033    463.52936     350.9332    17.292925    41402.763 
  130900    301.57718   -1420.1348    478.43073    411.20706    445.06419    41402.763 
  131000    285.81169   -1450.5523    494.72147     326.3545    245.22542    41402.763 
  131100     300.5426   -1441.3084    460.15279     367.1143   -156.86883    41402.763 
  131200    297.62133   -1460.8709    505.38384    379.67767   -473.16056    41402.763 
  131300    295.89553   -1443.3491    477.27996    361.35342   -400.61686    41402.763 
  131400    313.00811   -1495.6754    468.07411    376.59037   -117.35007    41402.763 
  131500    298.45961   -1449.3291    484.05099    373.64722    -315.9623    41402.763 
  131600    294.59501    -1465.104    458.20359    314.68793   -221.57268    41402.763 
  131700    294.44041     -1442.22    478.67509    357.34982   -428.29848    41402.763 
  131800    304.57961   -1431.9272    478.89295    413.34614    -767.0334    41402.763 
  131900    296.26394   -1446.0281     490.3144    373.36167   -13.273576    41402.763 
  132000    305.00653   -1420.4154    474.56077    422.44097   -80.751504    41402.763 
  132100     305.5236   -1438.4551    481.81188    413.97206    494.09429    41402.763 
  132200    302.83846   -1465.2737    463.80912    357.10479   -266.23346    41402.763 
  132300    304.89975   -1446.9406    467.34635    388.22238    17.209383    41402.763 
  132400    299.05101   -1429.8282    472.33229    384.08259   -408.01635    41402.763 
  132500    306.70229   -1426.4098    495.90214    445.39531   -575.50999    41402.763 
  132600    295.23404   -1417.8046    495.23952    401.89002   -328.28764    41402.763 
  132700     293.0907   -1476.3618    476.58236    315.06036   -230.91824    41402.763 
  132800     293.0455   -1432.7635    496.00752    377.88106   -131.81791    41402.763 
  132900    287.24535   -1406.0026    501.99329    384.60752    341.95643    41402.763 
  133000    295.08396   -1412.3901     472.9833    384.37503    293.75726    41402.763 
  133100    298.18261   -1395.3347     505.6637    448.01174    625.19849    41402.763 
  133200      303.562   -1420.2514    482.18683    423.75072    589.57771    41402.763 
  133300    307.35747   -1381.9989    481.81531    478.65867    1134.1681    41402.763 
  133400    302.63476   -1386.8306    494.18646    465.01142     516.0547    41402.763 
  133500    299.97376   -1392.9651    495.71039     448.4633    161.71355    41402.763 
  133600     305.2128   -1437.4777    459.66591    391.40917    75.330847    41402.763 
  133700    303.44642   -1424.5928    499.36842    436.07237    151.85456    41402.763 
  133800    304.96615   -1408.0462    502.57116    462.63942    85.328222    41402.763 
  133900    303.64802   -1471.3296    450.01398    340.88563   -60.709949    41402.763 
  134000    297.55512   -1434.0403    463.00334    363.83073   -40.287576    41402.763 
  134100    306.30739   -1453.5504    479.23765    399.81869   -307.61737    41402.763 
  134200     312.1082   -1424.7571    482.92792    458.32541    53.705506    41402.763 
  134300    303.43079   -1412.6038     485.9561    434.57898   -152.37864    41402.763 
  134400    295.12379     -1463.47    464.52613    325.01662   -242.96056    41402.763 
  134500    301.91985   -1429.0536    517.60079    442.99567   -64.811953    41402.763 
  134600    298.17964   -1369.5353    500.81693    468.95097    36.064976    41402.763 
  134700    306.48497   -1409.8655    500.93317    465.99576    45.861077    41402.763 
  134800     291.9522   -1423.4771    490.76527    377.02055    587.12694    41402.763 
  134900    302.46778   -1471.4812    471.52776    356.95302   -293.69634    41402.763 
  135000    289.82615   -1475.0443    465.72369    290.87399   -172.26626    41402.763 
  135100    305.50876    -1472.536    474.87976    372.89249   -237.59871    41402.763 
  135200    307.53362   -1484.2864    483.91147     379.2575   -64.252007    41402.763 
  135300    310.27929   -1477.1852    458.77585    373.54054    226.96764    41402.763 
  135400    292.33944   -1478.1261     464.3015    297.64501     137.9059    41402.763 
  135500    299.77242     -1478.28     502.3888    368.92358    44.694564    41402.763 
  135600    295.95301   -1491.6174    464.01432    300.07742   -77.682922    41402.763 
  135700    309.02703   -1510.0567    492.16799     368.4434    274.57542    41402.763 
  135800    294.09574   -1476.6917    477.91148    320.56832    77.182503    41402.763 
  135900    298.91053   -1508.9729    480.29067    312.26603   -145.25813    41402.763 
  136000    298.18375   -1501.7128     472.6129    308.58791    269.70489    41402.763 
  136100    308.55385   -1517.4828    469.76049    336.48707   -14.346529    41402.763 
  136200    290.62103   -1527.7303     483.0452    259.07545   -43.202945    41402.763 
  136300     299.9781   -1492.9771    487.04637    339.80676    104.93197    41402.763 
  136400    292.06664   -1458.0236    483.49472    335.71685   -39.727865    41402.763 
  136500    304.56151   -1461.4217    490.54065    395.41819    223.93328    41402.763 
  136600    297.47989   -1443.0791    460.89989    352.35098    270.12992    41402.763 
  136700    300.42577   -1461.9414    455.84598    341.65043    -755.1139    41402.763 
  136800    304.43667   -1488.7229      480.688    357.70425    -151.5934    41402.763 
  136900    295.45021   -1450.0044    453.08372    328.50412   -62.727222    41402.763 
  137000    298.60565   -1486.1675    510.71569    364.12877   -423.71678    41402.763 
  137100    290.59709   -1471.7839    491.61143     323.4807   -115.91154    41402.763 
  137200    295.80967   -1457.6465    482.29564    351.68658   -104.54272    41402.763 
  137300    310.74082   -1449.8477    493.72525    437.89785    57.475106    41402.763 
  137400    294.42911   -1454.0183    489.16505    355.99083   -126.00137    41402.763 
  137500    295.78544   -1445.0569    487.08167    368.95351    6.9663377    41402.763 
  137600    304.76398   -1472.7432    464.48795     358.9522    520.87229    41402.763 
  137700    292.62121   -1446.6159    454.22529    320.34296   -44.327482    41402.763 
  137800    300.78069   -1457.0961     494.5952    386.83716    31.268233    41402.763 
  137900    302.47455    -1463.958    465.66955    358.64837    307.93675    41402.763 
  138000    299.68515   -1438.8107    476.46353    382.07617    578.78658    41402.763 
  138100    300.12285   -1400.4386    492.04236    437.99058    86.165996    41402.763 
  138200    293.68805   -1447.3717    470.23338    340.38126     246.8819    41402.763 
  138300    302.19589   -1452.1528    465.81779    369.35176   -377.51336    41402.763 
  138400    298.01252   -1433.1564    469.52882     373.2921    -453.0806    41402.763 
  138500    294.00535   -1422.3228    503.74865    400.36884   -1068.0231    41402.763 
  138600    302.34612   -1462.2144    451.26009    345.40639   -607.36483    41402.763 
  138700    301.96669   -1451.7958    489.53044    392.39318   -602.88651    41402.763 
  138800    297.85489   -1471.8834    473.18221    337.51137   -597.24551    41402.763 
  138900      306.651   -1475.9834    469.87002    369.55954   -373.34859    41402.763 
  139000    299.03229   -1459.0207    466.84088    349.31469   -589.09358    41402.763 
  139100    304.93335   -1466.4583    469.07842    370.58745    73.884407    41402.763 
  139200    307.49412   -1461.5002    497.95696      415.912   -26.113547    41402.763 
  139300    300.52333    -1491.043      479.029    336.16946   -600.43595    41402.763 
  139400    299.18638   -1479.7782     481.7062     344.1137   -29.689188    41402.763 
  139500    307.12454   -1474.6872     485.5646    388.67466    213.46154    41402.763 
  139600    311.39783   -1483.7349    501.09984    414.33275   -67.647725    41402.763 
  139700    290.83917   -1460.9079    472.87134    316.70256    260.30095    41402.763 
  139800    303.81325   -1487.2597    509.79841    385.48108    -61.52434    41402.763 
  139900    296.90912   -1487.0183    444.01434     288.9657    9.5640695    41402.763 
  140000    301.24062    -1469.674    484.51675    366.24403   -36.410161    41402.763 
  140100    286.38224   -1445.6151    495.32602    334.45572    -190.5355    41402.763 
  140200    305.47342   -1447.2531    464.72848    387.86552   -66.853418    41402.763 
  140300    306.24642   -1448.3537    512.60703    438.11132    46.818562    41402.763 
  140400    295.57913   -1445.9076    484.84852    364.94411    255.06756    41402.763 
  140500    335.81033   -1417.5819    480.03827    568.94152      508.249    41402.763 
  140600    302.29856   -1475.4245    483.63421    364.35702    64.205995    41402.763 
  140700     293.8398   -1481.4815    462.78582    299.50465    117.13303    41402.763 
  140800    300.90991   -1460.7203    485.57631    374.77374   -29.181097    41402.763 
  140900    300.99325   -1439.4175    467.64254    378.51665   -256.55323    41402.763 
  141000    306.12447   -1485.7999    475.63268    363.14363   -42.876887    41402.763 
  141100    303.91027    -1430.675    498.86176    431.56442   -206.45549    41402.763 
  141200    307.15027   -1459.5269    485.63565    404.02143    234.43276    41402.763 
  141300    298.55652   -1480.2882    493.96249     353.0344    60.914949    41402.763 
  141400    289.62661   -1472.4728     483.0528    309.87943   -288.75215    41402.763 
  141500    298.98479   -1496.7446    493.89724    338.43402   -289.87723    41402.763 
  141600    289.30903   -1460.3766    476.62663    314.12478   -173.54356    41402.763 
  141700    296.03002   -1475.3419    487.51324    340.19725   -158.25935    41402.763 
  141800    307.57704   -1479.2438    464.56284    365.14632    62.127754    41402.763 
  141900    296.86318   -1439.3269    466.60917    359.04587   -272.59122    41402.763 
  142000    308.27703   -1460.6856    489.59095    411.87278    -155.4891    41402.763 
  142100    301.86444   -1507.3555    475.88635    322.73073    305.55789    41402.763 
  142200    292.66382   -1494.3103    479.80427    298.41875   -193.57738    41402.763 
  142300    294.17987   -1493.8084    480.16755    306.08503    44.800543    41402.763 
  142400    305.94658    -1540.218    467.09536    299.39018    -76.16364    41402.763 
  142500    292.02434   -1517.7279    489.41104    281.73909     535.8802    41402.763 
  142600    304.99616    -1496.904    485.23639    356.58152    741.35648    41402.763 
  142700    308.19032   -1517.5864      480.614    345.60604    701.66599    41402.763 
  142800    297.73761   -1512.7085    494.23292    317.21078    370.31357    41402.763 
  142900    303.70097   -1507.9012    466.91218    321.44973    288.00252    41402.763 
  143000    305.46927   -1491.1056    510.68101    389.94697    342.53049    41402.763 
  143100    293.88492    -1482.953    487.49585    322.94563    102.26792    41402.763 
  143200    305.93672   -1453.5389    485.91742    404.84712    102.26569    41402.763 
  143300    303.27271   -1479.9677    481.20539    361.75516    -113.5696    41402.763 
  143400    293.91231   -1465.2215    478.28751     331.5916   -244.91571    41402.763 
  143500    305.23688   -1499.9175    458.34316    327.75468    470.38894    41402.763 
  143600    305.22361   -1466.0866    487.97459    391.15748    625.67429    41402.763 
  143700    289.59371   -1422.6987    496.87993    373.33314    376.29596    41402.763 
  143800     298.2755   -1442.1964    512.89219    408.79526    599.93932    41402.763 
  143900    299.28396   -1445.3469     489.2481    386.52468    338.23194    41402.763 
  144000    300.26321   -1458.4981    493.51815    382.03656    408.12495    41402.763 
  144100    307.42682   -1507.4697    473.07522     344.7589    344.85997    41402.763 
  144200    304.42103   -1469.0649    484.99715    381.60132   -216.71551    41402.763 
  144300    301.91255   -1527.0371    461.18513    288.56373   -250.30364    41402.763 
  144400    303.30412   -1511.1945    481.12295    330.58685   -490.74113    41402.763 
  144500    303.92195   -1490.0689    497.93879    371.30002   -621.91812    41402.763 
  144600    303.69594   -1472.6657    508.03416    397.78464     -399.545    41402.763 
  144700    285.84142   -1428.1644    482.01709    336.17141   -529.48172    41402.763 
  144800    297.71396   -1448.9011    466.34266    353.02185   -500.10192    41402.763 
  144900     302.1995    -1455.745    508.93335    408.89131    99.809179    41402.763 
  145000    300.84295     -1446.16    491.48936    394.94673    3.2863257    41402.763 
  145100    305.21626   -1470.2186    488.77637    387.79433   -170.44722    41402.763 
  145200    302.85067   -1455.5716    481.70237    384.75493   -124.45339    41402.763 
  145300    298.49726   -1441.3179    476.92602    374.70239   -581.74584    41402.763 
  145400    308.79189   -1496.9174    494.70914    383.06897   -273.52524    41402.763 
  145500    304.28061   -1443.6407    488.20642    409.60482    191.88146    41402.763 
  145600    296.45384   -1480.4817     491.2481    340.69362   -118.43203    41402.763 
  145700    301.09372   -1436.5573    481.95198    396.13702   -204.71273    41402.763 
  145800     300.2229   -1421.6788     487.6329    412.78983    -303.0413    41402.763 
  145900    289.66413   -1469.9162    472.06344    301.61504   -730.48912    41402.763 
  146000    299.83241   -1456.5371    499.00798    387.55477   -205.74717    41402.763 
  146100    305.65968    -1467.779    482.86329    386.31009    207.31576    41402.763 
  146200    310.67007   -1468.2889    487.93024    413.34427    285.65771    41402.763 
  146300    303.62173   -1427.2858    468.24352    403.04098   -245.97007    41402.763 
  146400    292.86525   -1430.8816    480.00562    362.95247   -236.74674    41402.763 
  146500    306.28033   -1440.2887    500.41273    434.13406   -434.67872    41402.763 
  146600     304.5284    -1444.776    465.42745    386.80219    -383.7106    41402.763 
  146700     296.3343    -1430.867    497.98117    396.50517   -175.88839    41402.763 
  146800      304.221   -1487.7317    476.29078    353.33073   -93.521237    41402.763 
  146900    302.53918   -1459.5329    474.66099     372.3549   -252.76072    41402.763 
  147000    294.21858   -1459.0672    478.18657      339.019   -194.55704    41402.763 
  147100     294.5467   -1473.8503    479.86912    327.39046   -360.75371    41402.763 
  147200    296.34778   -1490.5125    470.38127    309.32021   -253.64814    41402.763 
  147300    306.03486   -1492.9896    454.87627    334.79551   -257.03565    41402.763 
  147400    297.33359   -1441.8396    483.06708    375.10139   -466.83126    41402.763 
  147500    302.77213   -1450.7036    488.26663    395.83483   -81.338807    41402.763 
  147600    296.99724    -1432.067    516.40752    416.70551   -17.728434    41402.763 
  147700    303.76921   -1478.9324    457.03095     340.8434    50.971436    41402.763 
  147800    302.90971   -1444.6783    496.14823    410.35902   -204.25853    41402.763 
  147900    288.93789   -1456.3226    506.29903    346.18619   -234.16238    41402.763 
  148000    309.53056   -1490.4059    480.25333    378.43846   -412.04509    41402.763 
  148100    309.14928   -1444.8718    482.56971    424.57844   -75.712862    41402.763 
  148200    289.22327   -1440.8824    501.41916     358.0268   -332.69416    41402.763 
  148300    298.36165   -1389.0361    490.01213    439.46195   -527.97661    41402.763 
  148400    297.14086   -1417.4295    491.79587    407.37567   -740.36004    41402.763 
  148500     291.7249   -1477.5283    475.22017    306.40457   -569.99574    41402.763 
  148600    311.13146    -1450.148    507.72894    453.35376   -151.25639    41402.763 
  148700    301.14362   -1478.6986    458.35829    330.62582    249.28923    41402.763 
  148800    299.11542   -1480.1961    516.28236    377.95369     845.2307    41402.763 
  148900    295.52045   -1433.6111    461.03613      353.165    722.12022    41402.763 
  149000    286.58856   -1450.4642    511.88331    347.08953    944.62596    41402.763 
  149100    303.82337   -1461.8911    482.88802    383.98475    1120.6746    41402.763 
  149200    290.67889   -1461.6708    500.05576    342.40511    770.92453    41402.763 
  149300     305.4082   -1448.1337     503.2095    425.17342    569.02353    41402.763 
  149400    308.26281   -1383.7375    496.01036    495.17651    651.22109    41402.763 
  149500    299.25698   -1382.9309    503.60097    463.17247    247.43777    41402.763 
  149600    304.35964   -1407.2088    507.54819    465.73299    477.96824    41402.763 
  149700    300.18957   -1402.2082    506.76904    451.24703     172.0376    41402.763 
  149800    311.18016   -1415.7732    476.51894    456.73704   -260.12909    41402.763 
  149900    296.66231   -1398.6727    509.10918    441.29894    -247.3073    41402.763 
  150000     308.6449   -1466.4474    444.38287    362.55325   -482.54609    41402.763 
  150100    297.02141   -1463.2734     495.4914    364.69137   -105.82464    41402.763 
  150200     295.8058   -1447.2647    475.49791    355.25332    16.855725    41402.763 
  150300    301.48974   -1479.9778     463.7754    336.31647    -83.97555    41402.763 
  150400    307.24092   -1458.3531    477.47974    397.44598   -211.56153    41402.763 
  150500     295.1323   -1483.6688     496.5899    336.91975   -105.94685    41402.763 
  150600    298.61152   -1451.7515    470.01318    357.86851   -221.42944    41402.763 
  150700    299.91926   -1472.1092    465.05927    338.42357   -16.868408    41402.763 
  150800    307.62735    -1461.717    451.18762    369.52351    85.662845    41402.763 
  150900    299.62871   -1449.4418    491.37427     386.1025    45.947145    41402.763 
  151000    300.38246   -1426.0956    485.52937    406.98523    93.323241    41402.763 
  151100    295.35117   -1426.2725     478.8007    377.50877     673.1252    41402.763 
  151200    300.12583   -1404.6951    492.23722    433.94235    592.22466    41402.763 
  151300    294.62397   -1424.7378     488.6134    385.59382    537.17066    41402.763 
  151400    293.46629   -1411.2122    474.01353    379.32602    532.72902    41402.763 
  151500    295.89636   -1441.3322    503.59518    389.68931    251.84153    41402.763 
  151600    316.23901   -1474.0174    476.45442    421.12286     194.4908    41402.763 
  151700    306.15112   -1456.6634    466.87031    383.63727    198.75228    41402.763 
  151800    299.71156   -1386.3865    495.82539    453.98062    11.766466    41402.763 
  151900    298.91974   -1417.9407    480.02795    403.07681   -341.39728    41402.763 
  152000     298.0217   -1394.0655    490.03308    432.92845   -711.25758    41402.763 
  152100    292.46124   -1438.0626    455.19398    329.14738   -573.83643    41402.763 
  152200    307.86783   -1418.3484    492.22647    455.00987    41.792225    41402.763 
  152300    297.28949   -1388.0482    460.26276    405.89064   -240.18669    41402.763 
  152400    292.37911   -1401.9162    479.19435    388.92561   -264.25603    41402.763 
  152500    292.19325   -1391.4348    470.16713    389.54604   -659.60027    41402.763 
  152600    297.08631   -1398.3618    495.53286    429.93558   -389.90705    41402.763 
  152700    293.16661   -1428.2446    473.90167    360.83744   -151.76075    41402.763 
  152800    296.86829   -1435.0543    437.18275      333.915    336.04905    41402.763 
  152900     306.8916    -1421.723    491.67895    446.70822    591.26821    41402.763 
  153000    293.67673    -1405.665    486.19031    397.99405     203.2396    41402.763 
  153100    303.30818   -1421.2092    475.33682    414.80425    83.319499    41402.763 
  153200    292.94792   -1443.6891    473.35267    343.86284   -431.86481    41402.763 
  153300    290.19724   -1425.8303    468.91844    344.94755   -570.88827    41402.763 
  153400    303.77065   -1411.6389     485.1988    436.31119   -115.85984    41402.763 
  153500    296.01956   -1387.7451    491.17446    431.40836   -492.08394    41402.763 
  153600    294.91253    -1409.001    451.59028    365.60201   -742.56197    41402.763 
  153700    302.91895   -1441.4793    497.63363    415.08481   -138.73507    41402.763 
  153800    291.52838   -1446.2024    478.62382    340.25247   -12.010672    41402.763 
  153900    304.97494   -1434.9599    487.71724    420.91128    167.83014    41402.763 
  154000    301.90714   -1422.2995    483.55447    415.64638    341.69412    41402.763 
  154100      289.056    -1443.434    461.02303    314.32865    119.84068    41402.763 
  154200    290.24752   -1443.9825    479.54805    337.65052    239.09855    41402.763 
  154300    313.45989   -1431.3489    499.89576    474.76529    549.95772    41402.763 
  154400    299.65266   -1422.4592    471.02472    392.84309     257.1135    41402.763 
  154500    298.25091   -1428.3709    465.13922    374.75744   -231.86675    41402.763 
  154600    298.86267   -1430.0698    469.41831    380.08207   -240.10298    41402.763 
  154700    307.45233   -1407.1951    489.32418    461.39684    177.11582    41402.763 
  154800    297.72959   -1421.5913    472.06287    386.12196    374.83905    41402.763 
  154900    308.64378   -1428.8865    508.31176    464.03808    297.81035    41402.763 
  155000    293.75194   -1480.5604    462.84295    300.08875   -92.925654    41402.763 
  155100    289.12146   -1459.3176    457.58767     295.3034   -406.59991    41402.763 
  155200    298.69601   -1479.3032    486.36733    347.04998   -223.53499    41402.763 
  155300    296.68509    -1466.299     452.9724    317.63806   -342.51654    41402.763 
  155400    314.57686   -1429.8855    498.60541    479.94912   -518.98036    41402.763 
  155500    310.05596   -1426.8418     436.6537    400.75991   -341.23419    41402.763 
  155600    293.87307   -1447.9056    479.25169     349.6957   -38.215841    41402.763 
  155700    298.63825   -1428.6344    497.82217    408.91457   -1.3144141    41402.763 
  155800    299.24885   -1401.8148    464.12018     404.7714   -58.835941    41402.763 
  155900     295.5505   -1439.7513    513.30802    399.43152   -33.178998    41402.763 
  156000     309.5737   -1394.9343    480.88963    474.73979   -396.09049    41402.763 
  156100    308.41426   -1396.8528    497.59071    484.32099   -429.37538    41402.763 
  156200    287.63895   -1443.5947    492.22803    339.01596   -528.32553    41402.763 
  156300    309.75755   -1411.0798    495.97021    474.49963    343.92503    41402.763 
  156400    308.43263   -1447.2183    474.10234    410.54955   -122.66151    41402.763 
  156500    294.15308   -1421.2224    480.90936    379.29271    142.82786    41402.763 
  156600     299.6433   -1423.0767    497.46461    418.62344    222.45822    41402.763 
  156700     303.4656   -1409.6892     457.7447    409.43833   -158.55135    41402.763 
  156800    295.85589   -1375.1396    485.42269    437.52779   -254.39106    41402.763 
  156900    308.23923   -1422.4032    486.66033      447.055   -106.97717    41402.763 
  157000    307.63907    -1461.587    476.57158    395.09009   -89.489464    41402.763 
  157100    309.37478   -1462.5939    476.89051    402.18869    361.50398    41402.763 
  157200    304.58707   -1462.6212    492.43447    396.22714    218.97696    41402.763 
  157300    290.66252   -1448.0671    482.46118    338.34078    -262.5481    41402.763 
  157400    304.29336   -1415.4069    500.91923    450.60856   -191.58185    41402.763 
  157500    300.26129   -1456.0692    484.25276    375.19145    133.82656    41402.763 
  157600    302.09492    -1433.728     476.2199    397.72564    364.19997    41402.763 
  157700    295.98233   -1444.9517     493.6538     376.5141    85.582279    41402.763 
  157800    299.86832   -1420.1107    468.18318    393.31749    -456.5129    41402.763 
  157900    295.95867   -1430.1942    496.58863     394.1003   -167.95844    41402.763 
  158000     304.7926   -1442.3663    477.38019    402.34984    75.147586    41402.763 
  158100    296.84424   -1479.9611    471.88011    323.59761   -239.76279    41402.763 
  158200    314.41329   -1443.4083    514.58756    481.67468    34.496634    41402.763 
  158300    299.89509   -1426.8539    472.15057    390.66173   -37.228519    41402.763 
  158400    299.26435   -1423.4155    489.51523    408.63526    136.01626    41402.763 
  158500    298.64553   -1478.5649      467.901     329.0955   -367.35292    41402.763 
  158600     291.3131   -1444.4199    518.12151    380.56689   -165.89664    41402.763 
  158700    300.66164   -1435.3321    488.57245     402.0443   -459.09642    41402.763 
  158800    310.50253   -1443.9664    450.82573     399.8107    180.78789    41402.763 
  158900    296.02877    -1452.733    473.35197    348.63928     582.8387    41402.763 
  159000    305.55422   -1505.4654    470.20739    335.49465    106.63829    41402.763 
  159100    295.10574   -1481.1224     463.1412    305.89831    1134.5908    41402.763 
  159200    294.70235    -1492.915    482.32387    311.47874    999.76625    41402.763 
  159300    315.09162   -1462.7653    475.83316    426.60641    660.56561    41402.763 
  159400    309.85306    -1504.252     479.7995    365.58527    836.31058    41402.763 
  159500    296.64606   -1445.0291     476.8719    362.63232    43.657938    41402.763 
  159600    295.40433   -1501.0137    485.41379    309.61912   -247.68127    41402.763 
  159700    297.27331   -1479.7353    482.95892    336.82712   -385.42789    41402.763 
  159800    301.65088   -1475.2373    460.15846    338.16296   -84.317228    41402.763 
  159900    300.31758   -1527.2967    482.13716    302.10089   -101.12208    41402.763 
  160000    304.73095   -1485.4662    472.03605    353.62916    93.517473    41402.763 
  160100    294.54002   -1481.2335    512.17147    352.27959   -44.303754    41402.763 
  160200    311.06955   -1474.7301    468.52775    389.29267    337.92708    41402.763 
  160300     295.1799   -1493.9672    491.93181    322.17678    -237.1956    41402.763 
  160400    293.04659   -1438.5191     470.0978    346.22061    1.9593758    41402.763 
  160500    299.70484   -1478.1339    506.10333    372.48109   -45.784298    41402.763 
  160600    290.89235    -1500.925     483.6306    287.68335    8.0972955    41402.763 
  160700    300.83874   -1525.5829     457.4593    281.47484    -111.2918    41402.763 
  160800    303.89158   -1488.8589    483.76665    358.20164   -123.70224    41402.763 
  160900    296.70115   -1473.5015    482.72772    340.26294    91.872234    41402.763 
  161000    301.24605   -1475.6295    475.92977    351.72599   -56.657085    41402.763 
  161100    294.46967   -1448.9013    475.35544    347.48016   -369.54571    41402.763 
  161200    304.15622   -1454.7325    487.06216    396.81064   -626.67229    41402.763 
  161300    293.85517    -1494.462    499.30477    323.11201    -378.7592    41402.763 
  161400     315.8971   -1482.7113    471.39274    405.83341    376.43682    41402.763 
  161500    299.85961   -1482.5694    465.13154    327.76806    223.64883    41402.763 
  161600    309.10417   -1493.4452    491.06139    384.29428    249.32246    41402.763 
  161700    296.55595   -1454.3313    475.86639    351.92046    258.42652    41402.763 
  161800    291.24402   -1450.2962    491.40213    347.66133   -291.25924    41402.763 
  161900    299.36056   -1464.2194    512.84918    391.59685    321.58188    41402.763 
  162000    304.94359   -1481.7452    493.05646    379.32448    380.70454    41402.763 
  162100    310.32925   -1482.0631    465.23786    375.34879      357.542    41402.763 
  162200    296.53566     -1427.92    491.68795    394.06222   -154.24351    41402.763 
  162300    292.01831   -1433.3377    477.83099    354.52227   -545.39514    41402.763 
  162400    295.48645   -1429.4516    484.14297    380.27884   -312.83175    41402.763 
  162500    307.17702   -1453.1555    490.38329    415.26045   -861.23459    41402.763 
  162600    302.01374   -1453.8091     470.1807    371.24121    287.48525    41402.763 
  162700    311.94834   -1480.8829    472.68429    391.23881    161.05078    41402.763 
  162800    282.95343   -1493.9599    490.28893    265.69183    528.74468    41402.763 
  162900    300.02552   -1473.7553    472.91912      345.114    420.00737    41402.763 
  163000    305.27282   -1492.6606    476.92853    353.75818    639.69208    41402.763 
  163100    290.03818   -1477.6998    477.53375    300.97974     370.0487    41402.763 
  163200    295.22111     -1470.92    499.17257    352.64965   -359.56763    41402.763 
  163300     300.9933   -1453.0414     464.4316    361.68202   -208.61399    41402.763 
  163400    309.12897    -1501.159    453.39072    339.02105   -264.88849    41402.763 
  163500    307.85435   -1504.9111    448.25991     324.4201   -561.61577    41402.763 
  163600    309.20568   -1500.2621    486.62008     373.4915   -242.83001    41402.763 
  163700    300.08794   -1489.0905    459.97456    317.11435    181.80127    41402.763 
  163800    295.45578   -1505.1878    458.62528    278.88737   -335.22899    41402.763 
  163900    293.29171   -1483.6513    476.55448    308.64476   -235.46557    41402.763 
  164000    292.38206   -1484.9407    478.07721    304.79731   -195.27318    41402.763 
  164100    294.57955   -1419.2081     456.4522    358.76301   -351.88055    41402.763 
  164200    303.11846   -1469.0019    501.72726    392.55085     -893.132    41402.763 
  164300    288.31161   -1483.0997    459.61958    269.92015   -387.65572    41402.763 
  164400    300.92923   -1447.0516    478.86831    381.82104   -275.45467    41402.763 
  164500    298.85774   -1440.0487    490.85044    391.51316   -547.72502    41402.763 
  164600    302.08768   -1451.2113    476.35147    380.34147   -90.569363    41402.763 
  164700     293.8816   -1406.9702    472.29116    383.70884    57.365292    41402.763 
  164800    299.02591   -1438.1537    509.67293     412.9851     278.1791    41402.763 
  164900    296.83788   -1415.5425    487.40497    403.51262    341.31565    41402.763 
  165000    307.81602   -1444.3596    511.77285    448.31259   -191.98002    41402.763 
  165100    310.65836   -1450.8728    473.85487    416.63248   -137.99107    41402.763 
  165200    300.08474    -1459.958    495.03496    381.29278   -314.56653    41402.763 
  165300    285.78907   -1465.2342    460.34321    277.19276   -626.14464    41402.763 
  165400    288.07825   -1476.6101    486.70106     302.4443   -443.58745    41402.763 
  165500    289.26387   -1497.6836    474.63615    274.62474    -582.8185    41402.763 
  165600    303.47012   -1502.1081    450.08488    309.37988    87.283502    41402.763 
  165700    305.45276    -1493.543     478.0275    354.78195   -43.775907    41402.763 
  165800    299.57295   -1500.9059     464.8612    307.87527   -480.83708    41402.763 
  165900    288.08741   -1497.1376    476.10292    271.35975    592.71297    41402.763 
  166000    293.24649   -1489.8365    488.43234    314.13455    360.67461    41402.763 
  166100    310.93022   -1478.4517    473.61436    390.03266    488.55138    41402.763 
  166200     306.9825   -1497.2479    474.26963    354.18183    690.55609    41402.763 
  166300    312.89784    -1538.987    483.40425    348.11424    292.98837    41402.763 
  166400    311.71166   -1536.5804    458.42566    320.22094    626.63947    41402.763 
  166500    288.94802   -1556.5795    476.05142    215.72715   -81.639945    41402.763 
  166600    307.97655   -1537.9625    462.48923    306.14621   -243.51019    41402.763 
  166700    296.50523   -1558.9796    436.51062     207.6888   -458.98666    41402.763 
  166800    306.47729   -1514.1332    464.66634    325.42677    -127.2456    41402.763 
  166900    315.59141   -1513.2003    472.60056    375.18092   -75.589946    41402.763 
  167000    305.72353   -1525.5213    456.56317    302.55404    602.75751    41402.763 
  167100    306.89522   -1519.5284    488.97191    346.21205    251.28394    41402.763 
  167200    306.07165   -1507.5423    477.67358    343.20516    404.55352    41402.763 
  167300    294.82957   -1478.9133    456.96638    300.69363    321.03344    41402.763 
  167400    302.88022     -1500.11    470.87722    329.52397    217.01112    41402.763 
  167500    297.46518    -1542.418    470.34168    262.38794   -231.34027    41402.763 
  167600     305.3535   -1456.3627     487.6584    401.14783   -17.580275    41402.763 
  167700    306.87863   -1478.5875    477.28907    375.39565    170.77963    41402.763 
  167800     307.1158   -1421.3365     512.4896    468.91114   -235.53331    41402.763 
  167900    293.20194   -1452.4226     485.6891    348.60535   -235.74087    41402.763 
  168000    301.38473   -1456.0823    483.03526    379.00077   -56.038225    41402.763 
  168100    304.44889   -1498.4555    473.39911    340.73763    106.54415    41402.763 
  168200    292.61213   -1466.6822     477.4979    323.50855   -538.28206    41402.763 
  168300    290.87619   -1496.6133    462.87934    271.17123    68.541773    41402.763 
  168400     293.6995   -1468.2635    488.58462    337.89204   -129.16812    41402.763 
  168500    290.31182   -1467.2861    475.44068      310.528    555.21855    41402.763 
  168600    304.49996   -1502.8566    462.18681    325.35333    428.10921    41402.763 
  168700    298.73953   -1482.3937    467.55991    325.34726    16.075778    41402.763 
  168800    302.91054   -1506.0727    474.28236    327.10244   -398.38392    41402.763 
  168900    297.69968   -1498.0593    457.96672    295.42362   -618.28151    41402.763 
  169000    301.55563   -1467.0599    465.17877    350.93339   -520.78109    41402.763 
  169100    306.14607   -1492.0472    469.74688    351.10737   -584.50482    41402.763 
  169200    300.34941    -1493.862    483.97256    337.51376   -85.523554    41402.763 
  169300     302.4343   -1466.9136    484.09755    373.94023    33.128112    41402.763 
  169400    291.21644   -1472.9152    480.65494    314.17141   -625.14254    41402.763 
  169500    296.69002   -1509.6226    462.25467    283.61882   -247.23367    41402.763 
  169600    302.12814   -1476.2527    463.04305    342.17312   -590.74603    41402.763 
  169700    297.81961   -1499.3598    461.74687    298.44125    387.12783    41402.763 
  169800    303.50459   -1450.7871    495.28526    406.05593    333.49032    41402.763 
  169900     298.1463   -1419.8477    493.05516    410.72725    351.31572    41402.763 
  170000     298.0991   -1482.2934    455.16284    310.17755    221.15771    41402.763 
  170100    295.99191   -1473.1228    494.04944    348.78164    506.35038    41402.763 
  170200    306.13662   -1467.4633    463.38888    369.29089    469.38451    41402.763 
  170300    307.18776   -1528.5071    492.15007    341.72382    547.85142    41402.763 
  170400    294.18523   -1496.0918     473.8483    297.50646   -27.737279    41402.763 
  170500    298.69939   -1463.0812    496.95335    373.87325    47.743556    41402.763 
  170600     295.7569   -1452.3069     464.3235    338.81725    568.00431    41402.763 
  170700    296.63126   -1504.7415      487.142     313.1237    616.94459    41402.763 
  170800    303.16281   -1524.4234     477.5565    313.15754    571.21168    41402.763 
  170900    309.58043   -1515.9515    467.69417    340.55737    235.04048    41402.763 
  171000    303.90909   -1512.2498    460.90015    312.02274   -71.567186    41402.763 
  171100     311.4037   -1515.2965     477.5072    359.20481   -58.984764    41402.763 
  171200    290.20827   -1491.9391     468.2097    278.17943    279.08891    41402.763 
  171300    289.62586   -1496.9813    511.28927    313.60414    240.69624    41402.763 
  171400    301.86836   -1526.9846     477.6894    304.92221    544.04717    41402.763 
  171500    296.59273    -1473.196    483.72169    341.07603    460.91697    41402.763 
  171600    314.21253   -1475.9424    468.83247    402.48489    751.86625    41402.763 
  171700    297.51163   -1486.6622    480.98179    328.99225    508.05728    41402.763 
  171800    298.97678   -1493.1464    471.98161    320.08069   -219.08467    41402.763 
  171900    290.43218   -1509.8846    488.95885    281.98763    290.14236    41402.763 
  172000    300.80617   -1477.6107    481.43623    353.27787   -105.04079    41402.763 
  172100    297.89996     -1468.74    489.46363    357.13833   -296.01345    41402.763 
  172200    290.27441   -1490.1259    474.30347    286.38318   -117.84658    41402.763 
  172300    305.40086   -1505.7908    490.48153    354.75535   -405.55576    41402.763 
  172400    297.54934   -1492.5539    458.99463    301.28256   -321.36858    41402.763 
  172500    304.12348   -1500.0676    477.08532    341.35184    9.4449245    41402.763 
  172600    302.28844     -1468.83    471.75526    359.02724    205.10681    41402.763 
  172700    300.68982   -1500.9183    480.47006    328.48204    597.91799    41402.763 
  172800    306.27394   -1540.6593    485.50792    318.82997    721.58943    41402.763 
  172900    292.60825   -1474.1788    506.23954    344.73616    597.16636    41402.763 
  173000     300.4434   -1513.1885    474.68213     309.3185    435.64469    41402.763 
  173100    300.78745   -1503.8854    493.46061    338.94354    189.03278    41402.763 
  173200    295.92457   -1517.1569    475.96637    286.36236   -268.25274    41402.763 
  173300    294.21398   -1498.0092    485.27833    307.14807   -330.20539    41402.763 
  173400    299.38783   -1456.9745    471.56386    357.67878   -572.59932    41402.763 
  173500    307.25618   -1450.6297    476.80863    404.56676   -354.76121    41402.763 
  173600    295.43263   -1502.2703    480.89823    303.97391    541.71966    41402.763 
  173700      290.542   -1488.0176    452.13259    267.52103    510.74613    41402.763 
  173800    298.12585   -1500.0415    477.07888    314.46549    467.86292    41402.763 
  173900    300.19378   -1518.6882     473.2781    301.29495     294.1689    41402.763 
  174000    305.93929   -1514.7897    459.43408    317.12445    707.69082    41402.763 
  174100    298.49134   -1522.8977    473.88888    290.05895    648.30108    41402.763 
  174200    299.81903   -1484.2208    495.08749    355.89061    422.68859    41402.763 
  174300    288.05569   -1511.7197    471.95599    252.48843   -316.61584    41402.763 
  174400    300.27423   -1516.4996    465.87989    296.44623   -600.90133    41402.763 
  174500    318.22429   -1510.4649    460.13326    377.26046   -558.82745    41402.763 
  174600    295.98787   -1479.4963    480.66239    329.00295   -533.33136    41402.763 
  174700    300.96272     -1483.39    464.40796    331.17257   -470.34445    41402.763 
  174800    306.04594   -1522.5175    476.54967    326.99074   -330.20062    41402.763 
  174900    295.92787    -1536.552     447.5114    238.52709    -596.9062    41402.763 
  175000    298.52548   -1512.7539    468.67729    295.14422   -201.48844    41402.763 
  175100    299.51973   -1513.2235    469.42061    299.87832   -420.63815    41402.763 
  175200     295.1974    -1546.021     482.3675    260.63723    -309.1828    41402.763 
  175300    300.01015   -1525.0393    486.09593    306.93791   -304.75947    41402.763 
  175400    291.00735   -1546.0202    467.38348    226.85691   -756.96034    41402.763 
  175500    304.02097   -1503.8967    464.94649    324.92402   -401.52676    41402.763 
  175600    293.79981   -1514.6895    439.43614    242.76756   -526.22291    41402.763 
  175700    290.05982   -1521.0054    458.79209    239.02956   -250.33206    41402.763 
  175800    306.40096   -1493.3974    508.55089    389.70474   -377.78366    41402.763 
  175900    305.34809   -1531.1506    471.35819    310.03551   -582.39471    41402.763 
  176000    314.55215   -1499.1468    486.81613    398.78773    237.80141    41402.763 
  176100    298.21171   -1515.1882    465.69547    288.32055    11.855784    41402.763 
  176200    293.50959   -1493.0238     494.7845    318.47966    507.22666    41402.763 
  176300    298.81153   -1476.9132    480.52003     344.1109    74.206965    41402.763 
  176400    300.40728   -1501.0939    492.62144    339.19043    434.17754    41402.763 
  176500    300.66509   -1487.7007    465.71467    326.83336    433.55641    41402.763 
  176600    307.09516   -1518.7818    465.79306    324.67678     133.4161    41402.763 
  176700    309.62869   -1493.9266    465.92176    361.02641    75.847308    41402.763 
  176800    300.14604   -1540.8174    467.60222    273.27572    366.46636    41402.763 
  176900    290.10273   -1516.3298    493.12895    278.23454    119.76847    41402.763 
  177000    291.32268   -1559.4469    479.47492     226.9363    576.67474    41402.763 
  177100    304.18117   -1475.2549    469.11626    358.45431    172.15929    41402.763 
  177200    307.30584   -1492.4214     481.0568    367.24598    182.20831    41402.763 
  177300    309.34565   -1549.4477    472.99875     311.3125   -106.76744    41402.763 
  177400    296.33309   -1545.0572    480.04929    264.37762   -159.82745    41402.763 
  177500     290.7686   -1509.8427    480.82718    275.40707    38.773336    41402.763 
  177600    290.04943   -1561.1893    472.58451    212.59154     108.7565    41402.763 
  177700    301.54652    -1484.347    469.40275    337.82931   -118.22502    41402.763 
  177800    298.77704   -1514.8023    478.59921    304.14629     235.7415    41402.763 
  177900    308.53647   -1539.9217    481.57254    325.78223    493.52957    41402.763 
  178000     292.1872   -1576.4412    496.41736    230.76276    615.58517    41402.763 
  178100    301.31127   -1566.3955      472.426    257.74879     205.3904    41402.763 
  178200    301.70775   -1569.8146    480.43746    264.11971   -99.895073    41402.763 
  178300    301.74693   -1556.9017    450.01802    246.78903   -582.68424    41402.763 
  178400    294.52385   -1506.1622    483.23291    298.33976   -591.42733    41402.763 
  178500    295.23637   -1499.3561    456.48037    281.58985    85.539535    41402.763 
  178600    298.62575   -1568.3478    445.46251    216.78542   -249.32503    41402.763 
  178700    293.77679   -1543.8625     464.3229    238.37811   -455.49671    41402.763 
  178800    301.72046   -1512.6125    464.52762    305.46907   -473.03879    41402.763 
  178900    300.44632    -1548.211    472.84472    272.47171   -303.91749    41402.763 
  179000    301.64085   -1498.6241     471.9891    326.56179   -77.849361    41402.763 
  179100    292.80442   -1463.2516    460.58669    310.89058   -336.47657    41402.763 
  179200    304.35931   -1498.6961    511.95468    378.65071   -158.66505    41402.763 
  179300     291.3991   -1496.8964    486.82168    297.17633   -174.67662    41402.763 
  179400    302.24086   -1536.2671    481.84791    301.46928    767.54823    41402.763 
  179500    302.56696   -1509.8153    499.99046    347.52655     195.8053    41402.763 
  179600    296.09015   -1492.2035    452.91737    289.00958    197.85641    41402.763 
  179700    295.95865   -1539.0667    459.28976    247.92876    171.59671    41402.763 
  179800    296.17834   -1561.4175    468.69477    235.96854    667.52741    41402.763 
  179900    292.95048    -1500.769    481.69183    295.13361   -113.38355    41402.763 
  180000    297.40631   -1487.1115    482.72185    329.81047   -523.76053    41402.763 
  180100     303.2212   -1471.4096    446.07432    334.95117    116.64763    41402.763 
  180200    307.22739   -1455.3784    509.91819    432.79846   -405.59637    41402.763 
  180300    297.63171   -1487.1212    490.57735    338.66743    220.33736    41402.763 
  180400     300.0059   -1516.1802    463.78985    293.47182    105.35486    41402.763 
  180500    310.28005   -1495.4685    470.71544    367.20018   -151.70302    41402.763 
  180600    306.24124   -1520.0058    442.44891    296.27774   -133.27395    41402.763 
  180700    294.62302    -1498.731    491.53419    314.51713   -403.91591    41402.763 
  180800    295.57125   -1506.1084     484.8981    304.75757   -153.25323    41402.763 
  180900    307.07933   -1520.6841    480.37669    337.28707     62.21602    41402.763 
  181000    293.59678   -1518.6628    482.89983    281.34716   -190.89755    41402.763 
  181100    306.89801   -1488.6024     486.0817    374.26029   -370.45397    41402.763 
  181200    297.14592   -1479.0995    480.29398    334.22643    39.906778    41402.763 
  181300    299.98635   -1516.9569    505.86797    334.68555   -486.93235    41402.763 
  181400    297.31058   -1530.1884    450.64281    254.22513    141.12033    41402.763 
  181500     305.9305   -1504.6416    474.52977    342.32885    99.302494    41402.763 
  181600    288.76487   -1500.3312    500.30669    295.40904   -358.53722    41402.763 
  181700    304.47201   -1510.9828    472.12377    327.03863   -234.15647    41402.763 
  181800    290.19745   -1464.0274    482.14948    319.98242   -231.63864    41402.763 
  181900    298.47205   -1508.5272    495.44967    325.90359   -427.76661    41402.763 
  182000    294.71783   -1498.0303    487.47203    311.58098   -14.533439    41402.763 
  182100    307.37891   -1520.7733    479.64756     337.8127   -247.81313    41402.763 
  182200    295.29617   -1473.2155    487.11496    338.63328   -447.68447    41402.763 
  182300    304.01969   -1539.2563    477.97212    302.58436    -253.9865    41402.763 
  182400    290.32271   -1534.1182    500.66766    268.97173    -13.52005    41402.763 
  182500    299.41601    -1536.724    475.77282    282.26468   -675.80067    41402.763 
  182600    298.03763    -1494.375    473.72763    316.38492   -193.15221    41402.763 
  182700    287.59763   -1510.0382    481.96205    262.12107   -168.48519    41402.763 
  182800    288.94895   -1564.1542    498.51118    230.61641   -43.325266    41402.763 
  182900    295.63348   -1535.6286    477.49597    268.11434    241.51186    41402.763 
  183000    310.68553   -1568.1077    483.57427    309.23888   -612.01249    41402.763 
  183100    290.24303   -1594.9875    478.33389    185.41121   -654.88889    41402.763 
  183200    301.13989   -1538.1388    467.46465    280.27528   -610.58746    41402.763 
  183300      307.791   -1525.3277    494.00097    349.46029   -520.06063    41402.763 
  183400    301.86026   -1560.8617    474.79041    268.10974   -489.11196    41402.763 
  183500     311.4491   -1573.4607     470.1135    293.85056   -200.15003    41402.763 
  183600    293.63261   -1521.2538     499.2467    295.26382   -384.41669    41402.763 
  183700    298.99593   -1538.4692    463.63981      266.502   -104.63244    41402.763 
  183800    291.79607    -1536.669    468.51554    240.87848    84.270411    41402.763 
  183900    292.06039   -1544.2119    495.67709    261.68295   -314.44995    41402.763 
  184000    296.21669   -1534.1062     449.9854    244.74253   -54.496456    41402.763 
  184100    299.02669   -1536.6047    507.87733    312.74199   -251.50881    41402.763 
  184200    291.98883   -1507.2304    508.51046    311.17676   -76.879881    41402.763 
  184300     300.6232   -1488.5351    475.16035    335.25678    200.82744    41402.763 
  184400    299.53558   -1464.3476    511.64785    391.05255    447.74233    41402.763 
  184500    291.37841   -1542.7962    470.87656    235.23859    30.078466    41402.763 
  184600    303.60656   -1498.6553    493.27895    356.63891   -69.933474    41402.763 
  184700    298.22944    -1500.779     506.7359    343.84966    181.06359    41402.763 
  184800     292.9986   -1493.6405    480.03682      300.823   -14.720606    41402.763 
  184900    305.94037   -1486.8034    475.10178    360.78331   -580.47707    41402.763 
  185000     311.1821   -1497.6142    465.17325      363.559   -372.32237    41402.763 
  185100    306.62971    -1487.697    494.71366    382.59405   -77.347727    41402.763 
  185200    293.68899   -1477.3952    505.32062    345.44924    335.61912    41402.763 
  185300    305.71942   -1489.6804    479.63576    361.44908    221.43653    41402.763 
  185400    288.92779   -1509.9174     483.8902    270.13727    50.373316    41402.763 
  185500    296.94034   -1501.7797    491.74262    322.07267   -122.83908    41402.763 
  185600    301.15796   -1545.4782    470.80077    276.35304   -76.017563    41402.763 
  185700    301.41769   -1616.4766     486.8264    222.54547    72.400793    41402.763 
  185800    299.30948   -1586.0436    470.72872    227.42307    76.201621    41402.763 
  185900    301.00636   -1586.7786    472.53655    236.10834   -219.66456    41402.763 
  186000    295.87768   -1612.7105    469.56682    184.19884     124.4358    41402.763 
  186100    293.45407   -1587.2047    489.00438    218.26958    362.89604    41402.763 
  186200    301.22748   -1594.2609    480.66235    237.74383    503.26089    41402.763 
  186300    295.49967   -1587.3035    501.38246    239.72566    193.37913    41402.763 
  186400    304.58552   -1553.2649    508.83234    321.97439    603.71936    41402.763 
  186500    289.83223   -1506.1238    498.66871    292.76684    269.41018    41402.763 
  186600    315.00638   -1556.4429    476.99102    333.70423    63.745797    41402.763 
  186700    307.31284    -1543.057    471.35198    306.93699    102.33472    41402.763 
  186800     306.1881   -1513.7827    497.24883    357.06242    556.74928    41402.763 
  186900    304.22085   -1495.8552    501.87967    370.79542   -2.0290353    41402.763 
  187000    298.57122   -1522.4681    494.03698    310.99498   -50.751834    41402.763 
  187100    304.51177   -1492.4073    475.17926      348.848    291.63726    41402.763 
  187200    297.41177   -1502.8086    492.57446     323.9905   -122.90932    41402.763 
  187300    288.88772   -1521.9608    502.39558    276.41951    -216.7752    41402.763 
  187400    302.77373   -1523.9837    488.37525    322.67057   -175.02349    41402.763 
  187500    294.14468   -1544.1278    461.42802     236.8683   -264.36759    41402.763 
  187600    301.21533   -1524.7106    475.88309    302.46039   -135.51552    41402.763 
  187700    300.29269   -1495.2843    513.38518    365.24961   -287.06233    41402.763 
  187800    299.18113   -1479.5753    495.08457    357.67146    345.55066    41402.763 
  187900     301.3377   -1528.8858    516.98332    339.93437    532.10417    41402.763 
  188000    295.93416   -1561.4753    463.36902    229.48961     534.9313    41402.763 
  188100    300.88743   -1540.3592    498.37275    307.83044    170.74891    41402.763 
  188200    314.45277   -1528.5132     470.3235    352.48283    521.86695    41402.763 
  188300    307.74803   -1502.6112    499.99597     377.9791    604.36456    41402.763 
  188400    307.44173   -1531.9678    479.56596    326.81844    408.50104    41402.763 
  188500    293.60194    -1477.665    484.94074    324.40898    141.23157    41402.763 
  188600    303.10548   -1496.0395    491.28613    355.01393   -311.15945    41402.763 
  188700    307.25808   -1497.7577    495.98702    376.62564   -230.68204    41402.763 
  188800    295.93113   -1493.4021    506.92097    341.10115   -36.873047    41402.763 
  188900    303.08425    -1482.126    525.12848    402.67455     71.42091    41402.763 
  189000    286.15343   -1533.0963    503.77206    254.39415    169.54409    41402.763 
  189100    296.76565    -1499.767    483.96671    315.52571    203.15348    41402.763 
  189200    306.91262   -1529.1298    477.44345    325.16018   -246.24259    41402.763 
  189300     288.8964   -1595.2759    476.89239    177.64017   -75.055999    41402.763 
  189400    299.73351   -1544.5399    476.17698    276.27735    45.110501    41402.763 
  189500    301.07266   -1538.3336    481.50086    293.81505    305.52928    41402.763 
  189600     306.0179   -1504.1336    490.92694    359.62609    207.92564    41402.763 
  189700    294.09605   -1515.6233    476.83194    280.55852     121.1433    41402.763 
  189800    303.08413   -1504.2544    495.22956    350.64672    115.56795    41402.763 
  189900    300.07972    -1500.115     505.7048    351.78318    553.84549    41402.763 
  190000    302.20885   -1511.0395    481.08572    325.79115    689.57601    41402.763 
  190100     296.6413   -1481.7244    517.98608    367.02995   -63.602844    41402.763 
  190200    294.23126   -1513.5463     479.1396    285.54982    -59.95394    41402.763 
  190300    301.53225   -1522.8649    482.06928    311.91392    169.64153    41402.763 
  190400    299.54486   -1506.4793    514.88683    352.20152   -155.63776    41402.763 
  190500    305.73454   -1491.7287    489.94094    369.77383    295.86038    41402.763 
  190600    304.14557   -1498.0057    483.92957    350.35712    153.28605    41402.763 
  190700    303.43895   -1489.4084    500.21513    372.06999   -340.89625    41402.763 
  190800    291.43984   -1518.5303     487.8793    276.78285   -455.46413    41402.763 
  190900    293.58474   -1525.4738    493.45102    285.03328    -458.3367    41402.763 
  191000    303.96297   -1539.2003    471.80522    296.21898   -44.093378    41402.763 
  191100    307.88173   -1542.3815    488.06006     326.8727     75.36902    41402.763 
  191200    298.10717   -1551.1291    466.13813    252.35324   -507.07297    41402.763 
  191300    301.76575   -1493.9858    472.11363    331.88487   -271.55817    41402.763 
  191400    291.41299   -1468.9889    508.01452    346.33901    665.67395    41402.763 
  191500    303.05581   -1533.8578    504.17594    329.86256    608.70599    41402.763 
  191600    311.27304   -1532.1435    464.40086    328.66527    610.64073    41402.763 
  191700    299.84998   -1550.8942     477.6949    271.96344    870.61218    41402.763 
  191800    308.30353   -1497.5859    478.54213    364.04258   -4.3207831    41402.763 
  191900    286.61186   -1494.3472    484.42606     275.8538    96.859417    41402.763 
  192000    303.42306   -1460.9984    483.67354    383.86716   -649.78875    41402.763 
  192100    304.73227   -1487.9614    483.57143    362.67524   -527.98323    41402.763 
  192200    304.05885   -1491.0887    476.83744    349.79297   -373.10329    41402.763 
  192300     299.6352   -1505.9314    466.17621    304.44399   -583.85888    41402.763 
  192400     308.6448   -1493.8693    505.75598    396.50399    128.27706    41402.763 
  192500    293.25191   -1487.8192    504.39107    332.13491    432.22765    41402.763 
  192600    305.93856   -1524.2176    494.25086    342.51008    526.24098    41402.763 
  192700    292.26458   -1448.8096    502.10461    364.42868   -84.046759    41402.763 
  192800    303.17637   -1477.5824    462.38745    344.89035   -295.67095    41402.763 
  192900    302.91831   -1481.4029    492.35816    369.88289   -335.00419    41402.763 
  193000    305.98069   -1491.7543    492.96832    373.87986   -247.16905    41402.763 
  193100    305.19808   -1497.0034    487.08198    359.23346   -407.72425    41402.763 
  193200    307.67065   -1438.9581    483.79898    425.08806   -698.46226    41402.763 
  193300    294.98403    -1466.136    493.92895    351.12644   -827.14838    41402.763 
  193400    308.89785   -1468.3755    482.45144    399.82847   -126.85687    41402.763 
  193500    307.20999   -1522.7293    489.65907    345.11039    157.55048    41402.763 
  193600     303.9905   -1529.7945    501.76853    335.71165    272.41702    41402.763 
  193700     296.8583   -1498.8628    499.44753    332.32643    786.45545    41402.763 
  193800    304.86724   -1495.8154    492.84059    364.69594    379.17371    41402.763 
  193900    293.65541   -1514.2149    476.87063    280.02882    159.23928    41402.763 
  194000    300.76471   -1539.7574    467.72688    277.23576    219.86717    41402.763 
  194100    295.49021   -1492.5748    475.61212    308.64158   -179.80926    41402.763 
  194200    295.31827   -1509.1224      486.965    302.67551   -173.98571    41402.763 
  194300    302.89908   -1492.2257    465.34291    331.95861    206.93563    41402.763 
  194400    312.27918   -1538.4731    497.47664    359.92517    264.14431    41402.763 
  194500    302.21887   -1497.0635     489.2211    347.94744    639.87974    41402.763 
  194600    316.42761   -1469.4075    495.77132    445.89572    648.65069    41402.763 
  194700    308.16075   -1478.7647    513.02445    416.70559    526.00846    41402.763 
  194800     305.2848    -1497.225    473.81323    346.13226    590.24745    41402.763 
  194900    302.20054   -1477.8219    484.18623    362.07197    397.19262    41402.763 
  195000    288.98183   -1503.6009    468.16077     260.9668    5.3804287    41402.763 
  195100    291.74192   -1471.9553    529.18963    366.02338    -400.0297    41402.763 
  195200    290.43828   -1450.5632    475.43918    327.81674   -634.40166    41402.763 
  195300    319.26574   -1462.3843     480.5915    450.47134   -314.70985    41402.763 
  195400    304.48496   -1479.4083    491.74357    378.29112   -100.31191    41402.763 
  195500    299.40628   -1452.4341    510.49649    401.23463    600.08481    41402.763 
  195600    299.17719   -1451.4417     476.3752      367.078    551.65976    41402.763 
  195700    295.24384   -1483.3914    486.00407    327.11172    206.02677    41402.763 
  195800     306.0761   -1486.7345    516.09556    402.45494    735.79134    41402.763 
  195900    299.48739   -1509.8496    478.86015    312.54661    495.00681    41402.763 
  196000    291.67614   -1522.1982    497.08448    283.38015    659.60858    41402.763 
  196100    314.43716   -1506.6258    507.57615    411.55292    453.20915    41402.763 
  196200    302.24406   -1468.1154    501.43499    389.22245    605.87015    41402.763 
  196300    310.67707   -1535.5377    481.85427    340.05098    534.11026    41402.763 
  196400    297.59977   -1510.4512    460.73656    285.35337    511.99641    41402.763 
  196500    293.76855   -1505.5268    484.79268     297.1466    302.90388    41402.763 
  196600    298.46566   -1512.0233    494.26374    321.19294    454.99856    41402.763 
  196700    303.64652   -1503.9091    521.21974    379.50509   -114.82409    41402.763 
  196800    293.76716   -1501.6491    467.06695    283.29237   -63.966863    41402.763 
  196900     301.9722   -1491.8588    498.79814     361.6226    299.35962    41402.763 
  197000    296.38386   -1458.0331    475.33221    346.91239   -176.45128    41402.763 
  197100    288.20446   -1430.9473    502.92396    364.89621   -69.414739    41402.763 
  197200    285.38314   -1436.3024    499.16948    343.12981   -124.81047    41402.763 
  197300    312.92708   -1476.3522    488.65379    416.12979    -181.3119    41402.763 
  197400    295.53633   -1477.7623    476.95937    325.00826   -372.33897    41402.763 
  197500    308.21683    -1424.591    506.24175    464.34812   -373.04293    41402.763 
  197600    297.56185   -1442.9586    477.30933     369.2486    373.46126    41402.763 
  197700    301.46876   -1455.2883    499.02968    396.16621    32.171102    41402.763 
  197800    287.82681   -1502.5768    486.17267    274.82123   -181.90083    41402.763 
  197900    307.75528    -1468.463    479.08899    391.25283    408.34142    41402.763 
  198000    305.89843   -1448.3017    492.36336    416.35843     260.6013    41402.763 
  198100    304.35541   -1472.4677    475.00365    367.91062    314.97722    41402.763 
  198200    306.38465   -1454.4541     489.0131    409.03703   -150.67863    41402.763 
  198300    298.92534   -1477.8886    484.41507    347.54111   -2.6966206    41402.763 
  198400    295.87077    -1453.002    466.86937    341.17892    14.637186    41402.763 
  198500    296.85915   -1501.9641    514.43569    344.21705   -284.83002    41402.763 
  198600    288.46317    -1463.933    483.92164    314.06875    156.62157    41402.763 
  198700    296.81172   -1445.4692    508.42032    394.48386    22.240096    41402.763 
  198800    304.67945   -1488.0504    481.37122    360.14915    242.28523    41402.763 
  198900    294.58212   -1502.8121    472.90119    291.61959   -445.37275    41402.763 
  199000    298.61104   -1516.3183    501.00222    324.28857   -202.62863    41402.763 
  199100    289.53937   -1484.5178      457.967    272.35725    21.507862    41402.763 
  199200    301.41965   -1568.4985    482.22388    265.92987    57.148055    41402.763 
  199300    297.78248   -1529.8755    452.03409    258.04623    181.04207    41402.763 
  199400    292.92107   -1483.0225    484.69217    315.74844    531.63202    41402.763 
  199500    294.22303   -1485.1779    486.05136    320.79305    224.85906    41402.763 
  199600    303.74593   -1491.1509    462.99858    334.48816    340.79453    41402.763 
  199700    310.09256   -1486.7543    485.10809    389.46598     571.7624    41402.763 
  199800     297.6796   -1479.7249     501.2574    356.95867    329.56707    41402.763 
  199900    302.03562   -1459.6672    467.51562    362.81619    475.61133    41402.763 
  200000    286.69629   -1501.7126    476.43189    260.87304    305.52046    41402.763 
  200100    298.01178   -1491.7146    488.93789     334.1396    298.99748    41402.763 
  200200    294.46873   -1465.2142    472.74714    328.55477    158.31845    41402.763 
  200300      307.119   -1493.0148    468.04611    352.80377    264.60884    41402.763 
  200400    286.10892   -1490.1896    477.48773     270.8168   -92.501254    41402.763 
  200500     290.2422   -1490.6072    458.55023     270.0041      122.984    41402.763 
  200600    302.90281   -1489.2572     484.8802    354.48113    71.442784    41402.763 
  200700    298.06722   -1444.8231    463.39304    355.73496   -322.06301    41402.763 
  200800    300.32735   -1471.5717    472.40617    348.13872     7.745865    41402.763 
  200900    295.74781   -1433.4783    466.89731    360.17892   -235.55107    41402.763 
  201000    304.44445   -1432.6751    481.64496    414.74396    68.113884    41402.763 
  201100    311.13998   -1466.2261    484.10145    413.68635    20.938838    41402.763 
  201200    306.59781    -1468.512    463.96176    370.88412    237.72753    41402.763 
  201300    297.44365    -1478.697    475.97707    331.64769    398.22934    41402.763 
  201400    306.48541   -1483.4772      481.599    373.05187    31.732912    41402.763 
  201500    299.24152   -1486.3252    447.17193    303.27985    191.27307    41402.763 
  201600     301.2139   -1511.0049    471.87338     312.1499    733.56812    41402.763 
  201700    311.89552   -1483.8679    464.62809    379.96069   -44.976675    41402.763 
  201800    301.20307   -1474.1677     500.7294    377.79452    286.81553    41402.763 
  201900     308.5815   -1475.8585    462.53209    371.00694   -53.543968    41402.763 
  202000    309.66679   -1487.6476    474.86538     376.4199   -4.4935201    41402.763 
  202100    299.10943   -1482.5552    468.48461    327.76995    48.675017    41402.763 
  202200    301.26403   -1544.4367    475.14451    282.21416   -351.08677    41402.763 
  202300    294.87307   -1500.1162    429.28782    252.00731   -177.27988    41402.763 
  202400    297.64318   -1502.4212    461.57728    294.41887   -488.43967    41402.763 
  202500    295.39395   -1515.1164    446.47411    256.53019    -549.5238    41402.763 
  202600    310.21393   -1501.7207    474.25217     364.1881   -269.96966    41402.763 
  202700    307.98631   -1516.3996    463.25078    328.51445   -63.760853    41402.763 
  202800    299.36253   -1532.3056    483.47304    294.14342   -274.62756    41402.763 
  202900    296.19442   -1512.3107    453.69914    270.15195   -598.10971    41402.763 
  203000    297.43154    -1495.498    456.78897    295.60425   -971.67088    41402.763 
  203100    313.50863   -1549.7935    459.65545    316.29905   -180.61484    41402.763 
  203200    307.71826   -1511.6836    470.18686    338.96401   -32.733682    41402.763 
  203300    297.23108   -1548.5865    484.61127    269.43876    335.34618    41402.763 
  203400    310.59307   -1533.7102    472.07677    331.72413     470.4841    41402.763 
  203500    304.17325   -1503.4536    475.71428     336.8181    26.814412    41402.763 
  203600    304.95226   -1509.0634    473.15257    332.14131   -52.326624    41402.763 
  203700     296.0168   -1487.1502    474.76495     315.5814     259.9262    41402.763 
  203800    288.30239   -1513.0359    455.89748    236.22043   -197.90758    41402.763 
  203900    301.57418   -1505.7749    495.24916    342.37195   -203.19238    41402.763 
  204000    291.32552   -1484.0024    473.10187     296.0204   -205.49678    41402.763 
  204100    295.63469    -1522.821    504.53973    307.97115      182.082    41402.763 
  204200    291.01897   -1507.2156    469.24542    267.57562   -94.274975    41402.763 
  204300     297.7626   -1499.9156    479.03259    314.91545    299.42021    41402.763 
  204400     294.2573   -1491.9388    477.63887    305.77338   -394.61019    41402.763 
  204500    297.49545   -1446.8101    473.47059    361.26054   -219.55554    41402.763 
  204600    294.40986   -1476.5816    486.91981     331.0959   -398.81127    41402.763 
  204700    305.15036   -1479.3317    462.57699    352.18618    -378.0089    41402.763 
  204800    294.32359   -1470.5481    480.99574    330.81832   -526.99621    41402.763 
  204900    307.70865   -1429.0472    491.56885    442.93933   -205.66589    41402.763 
  205000    306.21018   -1448.7646    473.30748    398.23822   -290.58589    41402.763 
  205100    301.13341   -1468.1344    467.18177    349.96773    -508.1509    41402.763 
  205200    304.87592   -1423.6286     502.7046    446.78575     -243.088    41402.763 
  205300    307.33693   -1476.7897    457.86171    359.82212   -510.73796    41402.763 
  205400    296.31916   -1459.6059     492.5795    362.29659   -613.98038    41402.763 
  205500    299.36895   -1421.0103    477.73937    399.73384   -497.76609    41402.763 
  205600    289.35377   -1425.4117     482.9962    355.66001   -71.335892    41402.763 
  205700    298.94074   -1406.2405    508.62284    443.46611   -435.48169    41402.763 
  205800    296.67107   -1377.6896    481.73191    434.94409   -333.72285    41402.763 
  205900    297.28826    -1442.712    476.08134    367.03993    136.15983    41402.763 
  206000    291.10986   -1449.8356    487.99909    344.11701   -411.93025    41402.763 
  206100     296.9678   -1461.9427    499.55999    369.85027   -27.831833    41402.763 
  206200    296.00834   -1451.2652    481.80715    358.47061    337.85763    41402.763 
  206300    298.07931   -1443.3557    489.55603    383.41962    708.62061    41402.763 
  206400    297.54086   -1472.2917    481.30627    343.81832    310.62942    41402.763 
  206500    293.16823   -1439.1308     478.8468    354.90356    117.41567    41402.763 
  206600    293.40143   -1434.1766    485.11877    367.17597    72.132162    41402.763 
  206700    303.50844   -1472.0388    466.42718    355.96343   -69.992646    41402.763 
  206800    300.62816   -1419.0488    472.05124    401.65616   -203.80479    41402.763 
  206900    302.67653   -1457.3116    464.87392    365.40523    48.722381    41402.763 
  207000    301.85015    -1445.833    489.42016    397.72291   -102.01189    41402.763 
  207100    288.78228   -1478.3697    475.92475    293.06674     180.9023    41402.763 
  207200    305.16163   -1475.2954    489.89816    383.59417     568.9544    41402.763 
  207300    302.20073   -1502.5998    467.66241    320.77102    170.93435    41402.763 
  207400    293.76094   -1486.9558    459.95921    290.85001     300.3347    41402.763 
  207500    294.08315   -1488.2834    456.20284    287.21146   -93.453266    41402.763 
  207600    306.42271   -1461.4404    464.02753    377.23588   -456.46936    41402.763 
  207700     303.4376    -1503.462    475.07328    332.86843   -519.25958    41402.763 
  207800    301.27596   -1508.9538    479.07448    321.68052    445.02708    41402.763 
  207900    297.13474   -1472.1192     487.7235    348.58609   -7.4271108    41402.763 
  208000    296.63538   -1473.4312    506.28439    363.59486   -378.88552    41402.763 
  208100     303.8864   -1432.4995    483.07554    413.84663   -201.90067    41402.763 
  208200    303.92637   -1444.4767    480.94026    399.91351   -184.52126    41402.763 
  208300    301.37356   -1497.6219    488.07797    342.45381    236.28119    41402.763 
  208400    319.78093   -1475.4078    487.44305    446.61062   -2.9120641    41402.763 
  208500    303.47906   -1465.5718    448.34514    344.21653    109.75069    41402.763 
  208600    290.21465   -1448.1734    490.81818    344.58226    128.26265    41402.763 
  208700    296.58334   -1491.9662    500.80781    339.34982   -192.09597    41402.763 
  208800    286.15671    -1471.556    469.07655    281.25362    84.305462    41402.763 
  208900    308.88486   -1452.1473    475.56162    409.10861   -366.22543    41402.763 
  209000    298.13816    -1492.268     490.6222    335.83751   -777.20783    41402.763 
  209100    303.49889   -1467.8674    459.62157     353.2863   -58.720115    41402.763 
  209200    292.88576   -1467.2407    487.82622    334.50597   -111.65134    41402.763 
  209300    301.19501   -1446.3079    502.94919    407.83804   -728.25274    41402.763 
  209400      297.776   -1441.9014    501.08959    395.04675   -566.69601    41402.763 
  209500    304.89918   -1439.3711    484.16763    412.61053   -862.26172    41402.763 
  209600    298.30992   -1470.0691    487.76069    355.94538   -731.34663    41402.763 
  209700    303.93621   -1479.6937    468.90621    352.70658   -352.31905    41402.763 
  209800    310.50407   -1464.1733    484.88366     413.6686   -873.88508    41402.763 
  209900    307.06028   -1458.7155     490.3503    409.14375   -799.79474    41402.763 
  210000    291.48178   -1468.6259    475.33206    314.32817   -680.38128    41402.763 
  210100    294.02441    -1483.617    480.84001    316.25152   -562.52619    41402.763 
  210200    306.15584   -1481.2218     454.3236    346.55337   -57.591484    41402.763 
  210300     302.9292   -1515.9221    467.42493     310.4793   -297.99637    41402.763 
  210400    301.21386   -1479.5561    482.49987    354.22503   -406.36758    41402.763 
  210500    298.32008   -1440.1873    481.91501    380.02717   -48.952334    41402.763 
  210600    286.62681   -1455.6226    508.20217    338.42159   -622.62704    41402.763 
  210700    291.22932   -1441.1026    453.54112    318.92788   -595.54458    41402.763 
  210800     300.0523    -1452.136    483.18655    377.12092   -477.05046    41402.763 
  210900    301.97936   -1412.0084    515.96339    458.67035   -155.70282    41402.763 
  211000    306.24292   -1446.5839    494.81355    422.07183    317.32431    41402.763 
  211100     296.3017   -1435.0473    482.07987    376.27731     109.0081    41402.763 
  211200    295.93341   -1456.3793    507.91158    379.12482  -0.41015845    41402.763 
  211300    293.39536   -1498.8671    480.20982    297.54923    375.37685    41402.763 
  211400    302.62273   -1521.7747     490.0187    325.84563    381.64953    41402.763 
  211500    298.60018   -1483.6711    496.36997    352.25488    641.55999    41402.763 
  211600     305.1298   -1521.1691    498.61718    346.29672    263.84362    41402.763 
  211700    303.29388   -1531.6964    474.86892    303.78499    153.63121    41402.763 
  211800    293.38131   -1536.2406    477.45931    257.36221    796.92335    41402.763 
  211900    300.04047   -1563.3291    483.25967    265.94787    669.24499    41402.763 
  212000    307.19282   -1540.1242    500.33876    338.31819    593.52213    41402.763 
  212100     293.2644   -1491.1537    499.11051    323.57585     617.9055    41402.763 
  212200     302.2003   -1507.8991    483.54035    331.34779    239.57283    41402.763 
  212300    291.79284   -1567.2965    460.35633     202.0773    102.69405    41402.763 
  212400     306.8043   -1519.5581     485.0318    341.83435    49.979675    41402.763 
  212500    285.55007   -1499.6743    484.95017    266.28756   -256.05442    41402.763 
  212600    299.58493    -1508.866    482.84153    317.94926   -49.067099    41402.763 
  212700    310.98859   -1509.0381    475.16006    361.25384    40.438939    41402.763 
  212800    302.88104   -1502.7334    516.37805    372.40514    186.84682    41402.763 
  212900    295.50904   -1515.6724    482.86173    292.87811   -302.86063    41402.763 
  213000    297.40097    -1496.065    463.52739     301.6386    213.08649    41402.763 
  213100    303.90246   -1494.4473    521.01302    389.90839    137.26114    41402.763 
  213200    295.93214   -1507.9861    473.46447    293.06523   -102.93739    41402.763 
  213300    287.92711   -1496.1149    473.94892    269.50935   -563.70611    41402.763 
  213400    304.33964   -1482.2501    499.10816    382.16192   -77.383908    41402.763 
  213500    293.02952   -1510.1838     508.2481    312.62961    -217.5953    41402.763 
  213600     299.8543   -1464.5137    484.63153    365.29992    119.60413    41402.763 
  213700    297.84383   -1499.7017    488.59767    325.05886   -88.779312    41402.763 
  213800    289.45067   -1505.4909    493.32381    286.34311   -67.707341    41402.763 
  213900    302.75929   -1521.2569    473.47298    310.43033   -49.564924    41402.763 
  214000    299.28983   -1520.1391    473.09395    295.60469   -1.6700279    41402.763 
  214100    300.23495   -1520.6932    488.45614     314.6527    48.097858    41402.763 
  214200    307.75839   -1493.4932    467.60216    354.74978   -119.51158    41402.763 
  214300    308.57691   -1482.1173     483.8339    386.02932   -403.62453    41402.763 
  214400    301.76221   -1492.3372    486.92991    348.33392   -254.91716    41402.763 
  214500    302.07359   -1503.6078    480.80242    332.33277    163.28803    41402.763 
  214600    304.67652   -1529.8981    501.77607    338.69318    275.68175    41402.763 
  214700    296.35167   -1527.7768    449.19373     250.8858    63.855072    41402.763 
  214800    302.39884   -1532.4466     519.3648    343.51537    597.57066    41402.763 
  214900    307.11008   -1469.1368     482.9613    391.55689    285.02529    41402.763 
  215000    293.73654   -1503.2438    458.02386    272.51719   -210.77074    41402.763 
  215100    282.83127   -1451.8478    477.63236    294.59934   -268.36176    41402.763 
  215200    292.34132   -1485.5382    510.33332    336.27314   -112.07444    41402.763 
  215300    285.08812   -1474.2398    505.57108    310.27058    315.04794    41402.763 
  215400    289.65397   -1522.7444    491.59122    268.26902   -140.78218    41402.763 
  215500    293.76347   -1473.5362    491.65428    335.97601   -510.09429    41402.763 
  215600    303.16772   -1480.6264    452.75298    332.17304   -607.23795    41402.763 
  215700    304.25532   -1445.9373    485.26784    404.25619   -168.62362    41402.763 
  215800    298.88023   -1454.6759    511.14246    397.27885   -246.07234    41402.763 
  215900    300.72312   -1458.9773    476.51034    366.61274     32.94862    41402.763 
  216000    292.05274   -1478.9159    520.71394    351.98142    488.06882    41402.763 
  216100     293.6868   -1501.9565    487.61594    303.17341    896.20007    41402.763 
  216200    301.67384   -1445.4337    471.43179    379.34283    168.61975    41402.763 
  216300     291.5825   -1496.5057    485.81573    297.38388    143.97921    41402.763 
  216400    301.92486    -1495.149      483.103    342.42493    44.180077    41402.763 
  216500    296.80859   -1429.6351    491.67132     393.5549    226.37055    41402.763 
  216600    307.48281   -1498.4791    514.87404    395.79943    426.59152    41402.763 
  216700     297.0021   -1522.2535    472.23441    282.36771    102.31023    41402.763 
  216800    294.78109   -1474.0042    509.29681    357.71568    410.93533    41402.763 
  216900    300.42732      -1500.1    458.88929    306.54209    536.81154    41402.763 
  217000    297.17287   -1492.5516    478.53342    319.13469    416.22224    41402.763 
  217100     301.7341    -1511.022    483.53176     326.1249    576.51765    41402.763 
  217200     304.0214   -1488.2465    467.14749    342.77716    237.11104    41402.763 
  217300    306.60017   -1507.3181    476.26004    344.38685    758.61792    41402.763 
  217400    304.64887   -1496.6555    473.47743    343.51311    304.21989    41402.763 
  217500    292.50348   -1507.0507    514.51334    319.66814    507.52258    41402.763 
  217600    307.13656   -1440.9965    495.43348    432.28811     -501.156    41402.763 
  217700    302.16576   -1472.9319    478.34842     360.9681   -437.12962    41402.763 
  217800    297.01047     -1451.51    497.44912    378.36342   -58.242515    41402.763 
  217900    314.48375   -1526.7241    466.01868    350.10619    536.91088    41402.763 
  218000    309.48439   -1497.4051    508.04301    399.02176    345.06029    41402.763 
  218100    293.74963   -1489.0517    475.28386    304.02795    353.30575    41402.763 
  218200    292.04976   -1463.0565    493.37962    340.49315    132.52517    41402.763 
  218300    304.34639   -1472.7407    486.39544    378.98887   -63.245346    41402.763 
  218400    316.22629   -1458.7241    474.77185    434.67653    242.34496    41402.763 
  218500    311.72687    -1463.669    483.75942    418.53426   -296.86468    41402.763 
  218600    301.81947   -1479.0375    479.19188    354.15244    -793.0382    41402.763 
  218700    303.64306   -1472.7624    505.69274    395.10928    -502.7744    41402.763 
  218800    308.19822   -1456.4198    493.69323    419.88739   -469.15398    41402.763 
  218900    304.17163   -1464.6949    481.68924    381.54455    -401.2368    41402.763 
  219000    300.64613   -1485.0973     476.3643    340.00137   -435.10046    41402.763 
  219100    310.80832   -1458.2187    493.21503    429.31952    50.073601    41402.763 
  219200    293.41125   -1481.3887    482.12591      317.015   -173.45364    41402.763 
  219300    295.70185   -1480.8372    473.28023    318.99677    63.475702    41402.763 
  219400    303.42936   -1443.9407    484.80774    402.08733   -140.75427    41402.763 
  219500    299.01339   -1498.0068    472.60488    316.00782   -580.81064    41402.763 
  219600    301.63372   -1501.1041    487.16032    339.22104   -590.98597    41402.763 
  219700    295.21891   -1519.1023    460.28101    265.56593   -111.03609    41402.763 
  219800    295.13482    -1497.487    510.87438    337.39736   -293.24018    41402.763 
  219900    300.43222   -1469.2653    506.36306    384.87252   -360.67824    41402.763 
  220000    294.38846    -1449.968    481.38777    352.08151    534.83538    41402.763 
  220100    300.51317   -1471.9438    491.86301    368.05709    49.756246    41402.763 
  220200    295.99006   -1435.8476    472.99331    364.99236    116.90598    41402.763 
  220300    302.63195   -1442.7081    482.43297    397.36789    3.5212686    41402.763 
  220400    293.30026   -1460.7397     506.5146    361.55484    116.72761    41402.763 
  220500     307.1444   -1459.3337    486.11393    404.66662     336.2024    41402.763 
  220600    310.92167    -1443.581     491.6357    442.88637    569.18451    41402.763 
  220700    304.87032   -1417.6624    491.50604    441.52816   -16.902294    41402.763 
  220800    308.17528   -1445.2971    497.95471    435.16863    103.78822    41402.763 
  220900    301.56491    -1421.317    508.72298    440.26208   -9.0750227    41402.763 
  221000    303.27336   -1429.6325    483.08534    413.97325   -113.33561    41402.763 
  221100    299.54909   -1428.0442    485.70867    401.47735   -369.21682    41402.763 
  221200    304.56587   -1479.9689    508.95411    395.30395    419.89977    41402.763 
  221300    300.31196   -1453.9829     471.0709     364.3232    234.57324    41402.763 
  221400    293.36853   -1466.5694    473.72163    323.23839    558.79432    41402.763 
  221500    291.66586    -1497.347    463.22967     274.3305    124.08123    41402.763 
  221600    304.14752   -1470.0277    479.63614    374.05043    507.20728    41402.763 
  221700    291.25117   -1457.0464    470.50419    320.04521   -160.01278    41402.763 
  221800    294.40009   -1471.6361    493.51435    342.59207   -226.11707    41402.763 
  221900     298.4815    -1449.316    504.24583    393.95337    55.621631    41402.763 
  222000     300.8087   -1455.3746    464.49877    358.58782    369.43124    41402.763 
  222100    302.82246   -1483.0273    501.46675    376.93712   -52.567885    41402.763 
  222200    301.58755   -1467.6951    451.21339    336.47592    340.75113    41402.763 
  222300    300.38295   -1480.1882    502.43838    369.80383   -51.548832    41402.763 
  222400    308.72452   -1479.9609    442.34039     347.3544    216.75571    41402.763 
  222500    301.89651   -1501.2308    489.86982    342.98269    257.55692    41402.763 
  222600    305.75457    -1493.271    459.81884    338.19926    586.71243    41402.763 
  222700    301.46012   -1511.0906    476.82273    318.11811    245.95896    41402.763 
  222800    296.26333   -1465.4027    478.27232    341.94223     382.7546    41402.763 
  222900    290.25726   -1486.4975    486.54453    302.17564    508.92766    41402.763 
  223000    296.62396   -1475.2097    481.11461    336.59533    433.19894    41402.763 
  223100    308.05047   -1482.4419    467.30882    366.81806   -53.946604    41402.763 
  223200    292.97314   -1486.4552    485.61531    313.47253   -297.99157    41402.763 
  223300    292.32277   -1461.1589    492.05168     342.2875    159.41107    41402.763 
  223400    302.26302   -1456.2408    490.40118    390.14834    309.25806    41402.763 
  223500    299.16511   -1476.5324    474.68441    340.24236   -586.40328    41402.763 
  223600    297.08923   -1453.8368    468.73584    347.67672    369.76241    41402.763 
  223700    301.92966   -1456.3415    490.29928    388.45014     261.8483    41402.763 
  223800    308.11826   -1431.5788    481.03805    431.71445    201.65989    41402.763 
  223900    294.29053   -1495.9586    468.53114    292.79486    219.33183    41402.763 
  224000    299.33885   -1454.6813    502.03825    390.22663    358.38915    41402.763 
  224100    307.85389   -1494.7318     502.5821    388.91957      664.804    41402.763 
  224200    289.55922   -1457.1411    488.88939    330.74547    333.90206    41402.763 
  224300    312.51721   -1476.6938    476.17839      401.474    512.46544    41402.763 
  224400     287.2856   -1486.1679    462.29379    264.92331    753.08734    41402.763 
  224500    302.10626    -1464.483    488.28431    379.08598    754.56306    41402.763 
  224600    306.20372   -1487.2042    482.65438    369.11653    593.73213    41402.763 
  224700    301.62522   -1466.3988    475.55625    362.28408    327.65166    41402.763 
  224800    303.62214   -1479.3832    468.13938    350.84128    417.13655    41402.763 
  224900    290.37287   -1527.2642    474.14024    249.52339    160.64576    41402.763 
  225000    311.26435    -1551.268    457.51166    302.61263    78.492396    41402.763 
  225100    304.68242   -1532.4218    486.63863    321.05844   -138.04447    41402.763 
  225200    300.19186   -1535.0418    463.49215    275.14681    472.74761    41402.763 
  225300    306.85705   -1538.3047    464.68226    302.97486    40.241442    41402.763 
  225400    306.58672   -1536.3423     462.4825    301.52475   -362.47405    41402.763 
  225500    305.74021   -1535.2649    451.60329    287.92539   -299.65374    41402.763 
  225600    294.09694   -1536.2856    470.90568    253.97402    212.47054    41402.763 
  225700    303.92805   -1541.4465    465.10444    287.11539     452.6303    41402.763 
  225800    301.45156   -1546.1503    441.38301    247.58032   -96.617332    41402.763 
  225900    307.56156   -1535.9645     477.3365    321.12976    319.49515    41402.763 
  226000    304.03764   -1584.2224    443.29781    223.02449     203.6532    41402.763 
  226100    294.88346   -1539.0522    481.15874     264.9888    329.46097    41402.763 
  226200    295.42648   -1530.0241    478.79045    274.08475    274.66186    41402.763 
  226300    290.84278   -1516.6494    475.46356    263.56953   -68.830433    41402.763 
  226400    311.45349   -1507.3119    479.94719     369.8528    67.447542    41402.763 
  226500    299.95532   -1529.0475    450.63061    267.21846    63.984184    41402.763 
  226600     297.4218   -1497.0615    472.11673    309.32482   -212.55555    41402.763 
  226700    307.94408   -1492.5319    465.24481    354.18673   -72.558045    41402.763 
  226800     301.0385   -1524.8028    481.00481    306.69659   -231.42828    41402.763 
  226900    306.94721   -1483.7252    493.32162    386.59815    259.94824    41402.763 
  227000    297.26608   -1501.4973    465.49041    297.56413    -546.8314    41402.763 
  227100    293.01568   -1518.6012    464.91047    260.81246   -166.66663    41402.763 
  227200    308.34921   -1505.7978    474.86071    352.35418   -269.38519    41402.763 
  227300    292.84968   -1516.5721    479.39932    276.58584   -650.43166    41402.763 
  227400    309.64546   -1559.3446    443.93448    273.69634   -320.52006    41402.763 
  227500    294.36296   -1528.2139    458.82033    251.15374    25.206524    41402.763 
  227600    303.68533   -1584.6276    475.06352    252.80451   -117.92233    41402.763 
  227700    300.77874   -1562.8328    480.82673    267.32315   -391.67359    41402.763 
  227800    301.86004   -1553.3047    461.32507    262.20041   -414.60779    41402.763 
  227900    288.70576   -1512.0739    443.87524    226.96976   -476.03227    41402.763 
  228000    296.89754   -1517.1021     456.3853    271.20097   -369.28136    41402.763 
  228100    292.23533   -1469.4696    481.22184    322.75473    686.15464    41402.763 
  228200    302.84069   -1445.1518    483.58253    397.01008   -225.94145    41402.763 
  228300    300.41171   -1480.6618    440.95719    307.97806   -282.53577    41402.763 
  228400    297.58526   -1429.9368    464.48774    369.55381    -650.8238    41402.763 
  228500    305.68027   -1465.9801    493.37367    398.71175   -965.68742    41402.763 
  228600    296.78155   -1469.6361     447.7289    309.49023   -64.765674    41402.763 
  228700    298.85243   -1444.8385     477.4534    373.30243    40.773298    41402.763 
  228800    298.61624   -1533.9612    454.21414    259.88096   -95.406107    41402.763 
  228900    294.23075   -1554.5326    453.11935    218.54094    533.28825    41402.763 
  229000    286.33548   -1523.0898    493.95425    255.39952    542.51224    41402.763 
  229100    296.73209   -1516.1343    463.53961    278.58081    721.64638    41402.763 
  229200    297.02428   -1493.7085    478.00492    316.78278    300.98977    41402.763 
  229300     290.6374   -1500.3419    464.75119    268.24326    254.54569    41402.763 
  229400    305.77318   -1485.3992    496.07611    382.41178    201.64609    41402.763 
  229500    301.50038   -1529.6562    464.14935    287.05977    113.67119    41402.763 
  229600    294.34562   -1473.8221    478.18928    324.83671    99.770896    41402.763 
  229700    303.93847   -1488.9888     478.1184    352.63375    45.703804    41402.763 
  229800    307.26529   -1437.1233    483.12572    424.43113    145.12533    41402.763 
  229900    304.87229   -1421.1836     487.4631    433.97288   -39.943305    41402.763 
  230000    291.66397   -1455.9296    496.89046    349.40013   -258.65814    41402.763 
  230100    294.85883   -1422.3616    467.32047    367.73073   -368.37279    41402.763 
  230200    304.32811   -1486.1268    485.23116    364.35648    -181.5748    41402.763 
  230300    304.35626   -1479.6828    479.65333    365.34895    902.91504    41402.763 
  230400    318.19455   -1529.8543    481.65212    379.25645      763.128    41402.763 
  230500    307.34342   -1510.1477    466.73004    335.36152    896.39168    41402.763 
  230600    291.54005   -1460.0402    469.57034    317.41355    34.238607    41402.763 
  230700    296.59473   -1460.6968    486.56694    356.42943    105.78812    41402.763 
  230800    296.68893   -1434.6069    457.30462    353.67953    311.84598    41402.763 
  230900    298.94886    -1507.358    491.03098    324.79315     9.453916    41402.763 
  231000     304.1138   -1481.6318    464.89821    347.55721    185.27652    41402.763 
  231100    302.31531   -1483.6441     480.1941    352.77243    409.81038    41402.763 
  231200    299.96626   -1550.7649     467.2945    262.21397   -51.991272    41402.763 
  231300    293.60221   -1504.4312     463.8241    276.52741   -283.17552    41402.763 
  231400    305.68041   -1460.6462    500.85065    411.52317   -335.15757    41402.763 
  231500    297.12924   -1429.6006    460.58651    363.94303   -570.33293    41402.763 
  231600    291.40801   -1437.4295    472.15535    342.01695   -406.81271    41402.763 
  231700    297.30777   -1450.9753    477.13152    359.91432   -370.69452    41402.763 
  231800    305.58054   -1485.7589    438.26536    323.37714    -188.7808    41402.763 
  231900    300.14575   -1472.5904    489.11068    363.00992    -308.3055    41402.763 
  232000    288.92994   -1465.0686    451.85906    282.96459    217.63757    41402.763 
  232100    305.89972   -1478.9507    470.92144    364.27337    610.43348    41402.763 
  232200    295.70314   -1451.1278    491.26805    366.69979    718.17469    41402.763 
  232300    301.93791   -1478.1796    458.77664    335.12643    435.42823    41402.763 
  232400    305.51721   -1471.5117    468.32557     367.4005    81.691888    41402.763 
  232500    300.40728   -1470.7511    460.08327    336.99507    289.54416    41402.763 
  232600    307.08233   -1470.5995    463.91763      370.926    359.19625    41402.763 
  232700    296.35355   -1469.5087    468.06527    328.03387    312.17278    41402.763 
  232800    289.16244   -1509.3553    451.78461     239.6465   -50.498593    41402.763 
  232900    301.55723   -1526.3502    445.17033    271.64181    15.866118    41402.763 
  233000    303.73041   -1511.5413    468.79068     319.8202    109.56887    41402.763 
  233100    308.97424   -1500.4137    473.15335    358.83487   -259.66836    41402.763 
  233200    296.77883   -1498.7974    474.36033    306.94808   -419.11917    41402.763 
  233300    300.86732   -1500.4878    454.59063    303.82944   -326.22225    41402.763 
  233400    298.29904   -1491.8588    483.51477    329.86101   -478.94004    41402.763 
  233500    304.97397   -1532.6686    453.92102    289.40199   -283.17486    41402.763 
  233600    288.40222   -1504.9405    460.86539    249.73166   -931.93604    41402.763 
  233700    292.35204    -1480.149    459.39075    290.76783   -296.79472    41402.763 
  233800    297.43078   -1465.2349     458.1369    327.21188    -46.69127    41402.763 
  233900    303.26929   -1453.9121    472.31544    378.90553    388.70434    41402.763 
  234000    302.65321   -1510.3794    440.95909    288.31801    414.19143    41402.763 
  234100    291.79837   -1532.7824    470.05701    246.31684    39.217139    41402.763 
  234200    298.50895   -1518.0941    449.70622    270.75882    328.13643    41402.763 
  234300    302.97655   -1453.7918    450.19217    355.58931     187.3652    41402.763 
  234400     308.0314   -1444.4812    448.43085    385.81524   -163.58459    41402.763 
  234500    303.44136   -1480.5926    452.65745    333.33893   -36.553286    41402.763 
  234600    303.11029   -1464.9533    443.84242      338.678   -56.930455    41402.763 
  234700    309.06129   -1454.2733    471.54426    403.75673     578.2465    41402.763 
  234800    303.97256   -1483.6156    475.87567    355.91723     468.2386    41402.763 
  234900    298.59543   -1459.8897     476.6004    356.24532    298.13516    41402.763 
  235000    308.74545   -1432.7637    457.74774    410.05289    486.42919    41402.763 
  235100    299.39258    -1450.835    453.30794    345.58373    468.40121    41402.763 
  235200    307.98535   -1456.9545    456.27093     380.9754    618.99608    41402.763 
  235300      293.121   -1465.3512    457.79804    307.42261    904.16841    41402.763 
  235400    304.39207   -1449.5056    490.12445    406.15794    1145.2858    41402.763 
  235500    303.59348   -1471.0593    473.80212    364.69931    319.10668    41402.763 
  235600    306.64514   -1426.7077     438.5351    387.47405    112.54073    41402.763 
  235700    296.40552   -1438.2863    482.61356    374.03769   -350.82131    41402.763 
  235800    294.52291   -1457.2924    448.06138    312.03389    92.581653    41402.763 
  235900    295.09688   -1432.4661    465.85302    357.22662   -13.965715    41402.763 
  236000    302.54286   -1454.5829     451.6499    354.31035    264.44562    41402.763 
  236100    291.68221   -1452.8595    478.42856    334.09022    174.51299    41402.763 
  236200    291.69192   -1455.7015    457.36186    310.22504    323.20512    41402.763 
  236300    308.73639   -1495.7119    460.92601    350.24236    69.558049    41402.763 
  236400    295.98035    -1457.627    448.55914    318.73522    427.51853    41402.763 
  236500     287.4324   -1449.2333    474.02052    314.24321   -126.72774    41402.763 
  236600     296.1547   -1465.9226     471.9169    334.57957    396.24571    41402.763 
  236700     289.0366   -1469.2139    467.06935     294.5081    583.20139    41402.763 
  236800    302.01499   -1478.7163    471.57395    347.73292    878.94458    41402.763 
  236900    304.22262   -1430.0195    459.60556    394.36501    748.88841    41402.763 
  237000    312.56016   -1463.7864    462.45677    400.85248    542.49984    41402.763 
  237100    297.19681   -1464.5238    498.20044    366.93699    263.84529    41402.763 
  237200    303.15419   -1456.1867    502.31129     406.1104    682.10156    41402.763 
  237300     303.4323   -1456.6051    471.96016    376.58851    560.72511    41402.763 
  237400    304.96404   -1515.7261    448.87748    301.25643     443.1059    41402.763 
  237500    305.03602   -1480.8526    478.51915    366.09449   -19.103908    41402.763 
  237600    310.15797   -1440.7109    467.35014    418.04481   -41.371898    41402.763 
  237700    304.14363   -1467.0887    435.97948    333.31535   -281.73259    41402.763 
  237800    300.19915   -1395.6994    473.83931    424.86902   -130.96219    41402.763 
  237900    292.82445   -1391.5698    472.82539    394.90092   -254.24646    41402.763 
  238000    296.89253   -1409.8093    469.80205      391.888    137.44139    41402.763 
  238100    295.58739    -1447.141    466.22104    345.12032    117.83564    41402.763 
  238200    301.62466   -1467.5752    465.80702    351.35598    150.91209    41402.763 
  238300    301.22367   -1489.3883    465.32241    327.25942   -68.805619    41402.763 
  238400    292.25599    -1459.805    440.81377    292.10392    57.049519    41402.763 
  238500    308.85048   -1437.0259    460.99215    409.50625    -471.1018    41402.763 
  238600    299.83189   -1444.2982    451.01022     351.7936   -656.52539    41402.763 
  238700    299.40008   -1481.3128    478.95394    340.78555   -602.86362    41402.763 
  238800    303.60708   -1457.1017    461.86895    366.78475   -726.49171    41402.763 
  238900    299.20585   -1476.2855    455.00736    320.99495   -255.23112    41402.763 
  239000    301.02902   -1472.0139     465.5395    343.97765     159.6063    41402.763 
  239100     302.3769   -1467.5111    479.41522    368.40289    406.04934    41402.763 
  239200    296.94919    -1530.607    447.74258    249.28508    551.33218    41402.763 
  239300    302.57921   -1497.7149    486.76587    346.45733    598.46959    41402.763 
  239400    296.26034   -1477.1724     463.0106    314.89736    350.12343    41402.763 
  239500    305.22586   -1462.9529     473.2099    379.53656    591.13935    41402.763 
  239600    292.83391   -1440.7293    472.52132    345.47984     270.6078    41402.763 
  239700    307.96143   -1458.1882    466.85936    390.22285    445.14916    41402.763 
  239800    292.88567   -1450.1897    438.88115    302.61144   -130.80444    41402.763 
  239900    303.37861   -1471.1669    482.23746    372.06313    380.57833    41402.763 
  240000    292.88884   -1374.4097    456.48989    396.01443    344.61834    41402.763 
  240100    311.31345   -1398.4596    479.28117    477.41076    122.96854    41402.763 
  240200    290.34206   -1410.9428     490.0323    381.59852   -182.39855    41402.763 
  240300    310.92581   -1419.9443    478.76633    453.67229    391.39307    41402.763 
  240400    293.48844    -1423.075    482.04696      375.596    433.97066    41402.763 
  240500    297.13624   -1387.5321    471.19024    416.64666     -97.3604    41402.763 
  240600     308.2374   -1440.9818    489.88735    431.69527    530.38844    41402.763 
  240700    296.45361   -1423.9645    467.20228    373.16402   -176.27175    41402.763 
  240800    304.83424   -1405.5108    479.32446    441.33636    42.422855    41402.763 
  240900    301.48471   -1472.2864    496.03468    376.24456   -249.75674    41402.763 
  241000    296.51618   -1454.4723    471.37751    347.11211   -360.05151    41402.763 
  241100    295.17563   -1429.1882    469.36179    364.36658   -614.43367    41402.763 
  241200    296.04649   -1472.8712    471.12077    326.34937   -334.85669    41402.763 
  241300    315.89674   -1498.2549    475.31666    394.21212    95.098714    41402.763 
  241400    312.10552   -1495.1514    461.38932    366.38044   -285.47661    41402.763 
  241500    305.75663   -1464.6755    471.97328    378.95843   -300.40822    41402.763 
  241600    288.57106   -1485.0328    451.66556     261.1969   -345.54263    41402.763 
  241700    307.72488   -1483.6757    485.93904     382.7538    41.070342    41402.763 
  241800    311.83468   -1471.8331     470.2242    397.31861     155.7152    41402.763 
  241900    307.61862    -1471.109    473.40872    382.31345    373.63394    41402.763 
  242000    306.08816   -1423.4974    489.81903    439.46954    223.32151    41402.763 
  242100    295.30563   -1468.3515    482.96824    339.39292    83.026198    41402.763 
  242200     307.5176   -1461.7853    485.38485    403.16019    229.59603    41402.763 
  242300    298.21295   -1452.9357    458.46835    343.35147    183.49443    41402.763 
  242400    302.65461   -1432.6443    478.50224    403.60255    133.02468    41402.763 
  242500    292.29369   -1422.9117    507.60401    395.95657    201.67259    41402.763 
  242600    310.15348     -1454.92    452.98767    389.45312    199.47457    41402.763 
  242700    310.52521    -1437.109    488.71478    444.65884    29.310097    41402.763 
  242800    298.44432   -1429.5182    497.22001    406.55857    147.43697    41402.763 
  242900    306.41053   -1491.1872    496.40855    379.81547    517.23706    41402.763 
  243000    292.09465   -1487.3748    474.77254    297.76912    487.88404    41402.763 
  243100    306.96363   -1473.3074    449.02952    352.79754    214.76575    41402.763 
  243200    306.30778   -1464.8444    487.03215    396.32092   -68.855609    41402.763 
  243300    289.58869   -1498.1067    473.74495    274.76761    228.70999    41402.763 
  243400    304.93475   -1466.4313    457.45635    358.99862    865.93608    41402.763 
  243500    292.45524   -1480.0948    477.73145    309.62567     377.5997    41402.763 
  243600    312.44612   -1467.8257    494.67978    428.52462    268.36671    41402.763 
  243700     298.5196   -1487.6912    441.56582     293.0691   -258.00961    41402.763 
  243800     305.1147    -1500.279    501.34245     369.8443    -361.5976    41402.763 
  243900    306.21887    -1477.859    456.39458    352.26992   -171.25066    41402.763 
  244000    300.87656   -1480.0814    471.47374    341.16039   -278.56307    41402.763 
  244100     302.2825   -1502.0637    469.50052    323.51211   -628.65213    41402.763 
  244200    289.32081   -1518.8199    470.87266    249.98036   -802.93026    41402.763 
  244300    303.40352   -1472.4751    505.90372    394.53295   -756.14434    41402.763 
  244400      302.584   -1474.7026    463.32191    346.04717   -315.98912    41402.763 
  244500    295.73044   -1455.2516    500.58556    372.01589   -500.63433    41402.763 
  244600    308.83753   -1455.3572    473.72432     403.8491   -400.16106    41402.763 
  244700    298.34015   -1459.1458    483.45949    362.70314   -219.98148    41402.763 
  244800    296.47174   -1456.9154    476.57229    349.66446   -714.44083    41402.763 
  244900    305.84801   -1421.4583    487.82217    438.43446   -515.37956    41402.763 
  245000    297.48322   -1477.7772    460.09492    316.86288   -362.76512    41402.763 
  245100    306.65273   -1462.7949    446.22228    359.10803   -36.305177    41402.763 
  245200    303.71804   -1467.0191    496.60543    392.10166   -646.24057    41402.763 
  245300    298.69398    -1456.936    486.92166    369.96246   -312.39363    41402.763 
  245400     291.5567   -1430.9322    486.21812    363.24397   -196.57301    41402.763 
  245500    300.33213   -1415.1044     498.1194    430.34069   -148.67174    41402.763 
  245600    308.33913   -1399.1555    483.97533    468.06589    329.71541    41402.763 
  245700     297.5442   -1380.9976    479.25271    433.07379   -361.34809    41402.763 
  245800    301.42454   -1419.2706    490.06045    423.01622   -216.14437    41402.763 
  245900    296.08552   -1428.7617    458.35009    357.86331    285.49096    41402.763 
  246000    310.92863   -1437.3221    491.50228    449.04304    150.35159    41402.763 
  246100    297.67563   -1435.8828     494.2951    393.82062   -98.811265    41402.763 
  246200    296.53967   -1453.5605    469.98388    346.73567    95.915145    41402.763 
  246300    289.05584   -1442.2629    479.34216    333.81816    160.54348    41402.763 
  246400    311.29308   -1463.5798    466.67568    399.59373   -399.79071    41402.763 
  246500      305.415   -1446.6296    469.35408    392.85258   -2.0653873    41402.763 
  246600    298.46686   -1436.8691    487.36229    389.45106   -242.58998    41402.763 
  246700    305.95875   -1415.2592    476.53824     433.8464    95.924283    41402.763 
  246800    290.92062   -1478.9519    470.37732    296.52997    274.60532    41402.763 
  246900    302.54563   -1450.7889    473.15954     379.6264    179.72525    41402.763 
  247000    293.20405   -1467.4997    463.44467    311.29325     53.67433    41402.763 
  247100    303.29153   -1473.0612    494.00132    381.54203     381.1665    41402.763 
  247200    291.96172   -1478.0392    469.82342    301.55933    358.66878    41402.763 
  247300    302.21026   -1490.6083    454.73449    319.87739    108.83392    41402.763 
  247400    299.50749   -1457.9938    466.83002    352.46252    299.85676    41402.763 
  247500    297.99479    -1449.087     457.2222     344.9754   -129.28332    41402.763 
  247600    299.42319   -1462.8348    481.41962    361.83292   -195.35663    41402.763 
  247700    304.02318   -1430.4409    469.74427     403.1876   -163.59424    41402.763 
  247800    297.86451   -1420.9797    501.92655    417.20256   -95.812777    41402.763 
  247900    303.38597   -1487.0685     469.3568    343.31387    194.99616    41402.763 
  248000    298.58402   -1492.4868    477.13252    324.12914    435.02255    41402.763 
  248100    300.51636   -1463.3229    483.89451     368.7238   -285.15771    41402.763 
  248200    296.87398   -1441.9599    488.55861    378.41076   -26.401283    41402.763 
  248300    302.12938   -1449.8654    480.92948    386.45244    666.69311    41402.763 
  248400    294.72139   -1415.2712    474.86973    381.75378     290.6659    41402.763 
  248500    300.59268   -1408.2464    510.86695    451.11508     61.57504    41402.763 
  248600    293.86752   -1420.3793    464.12821    362.07365   -63.509516    41402.763 
  248700    312.04837    -1431.932    487.67794    455.63208   -221.39024    41402.763 
  248800    301.55134   -1429.4701    465.56264    388.88776   -118.57196    41402.763 
  248900    299.38584   -1462.1167    464.82287    345.78671   -337.43516    41402.763 
  249000    297.58103   -1454.9097    478.94774    359.02202   -196.37722    41402.763 
  249100    288.29777   -1437.9365    465.57503    320.97668   -373.08393    41402.763 
  249200    297.70925   -1434.9195    476.25261    376.89223   -540.68715    41402.763 
  249300    299.13691   -1439.2068    475.01297    377.76997   -388.59757    41402.763 
  249400    305.04924   -1453.4154    470.92074    385.99258    -358.1702    41402.763 
  249500     290.5789   -1451.4372    454.68121    306.81551   -158.37699    41402.763 
  249600    299.46336   -1460.0399    477.57709    360.96554   -37.945156    41402.763 
  249700    301.16464   -1458.7831    466.75748    359.03484   -422.64433    41402.763 
  249800     305.7193   -1444.9392    450.68865    377.24258   -334.46255    41402.763 
  249900     295.3899   -1448.9175    478.25721    354.49406   -402.61685    41402.763 
  250000    304.45991    -1458.516    468.69018    376.01763    -601.3891    41402.763 
  250100    296.69104   -1446.6638     473.4123    357.73981   -517.56672    41402.763 
  250200     287.9545    -1468.105    472.32326    296.01643   -521.21375    41402.763 
  250300    292.87301   -1449.6178    471.75208    335.99747   -183.65802    41402.763 
  250400    308.50022   -1460.7856    470.66314    393.84631   -679.90436    41402.763 
  250500    301.71383    -1444.571    486.13127    395.08446    -511.2029    41402.763 
  250600    288.19165   -1427.0698    463.81542    329.60771   -872.95756    41402.763 
  250700    292.81343   -1478.7497    462.88218    297.72838   -231.14199    41402.763 
  250800    296.22042   -1459.6889    478.73711    347.92832    -894.9915    41402.763 
  250900    306.98664    -1425.309    478.84648    430.71611   -646.98307    41402.763 
  251000    294.55868   -1473.9354    471.52834    319.01823   -269.82217    41402.763 
  251100    289.59375   -1510.7061    474.61991    263.06594   -82.865284    41402.763 
  251200    291.96455   -1499.4556    488.01743    298.34952     812.4141    41402.763 
  251300     299.8652   -1503.3608    466.24518    308.11535    1146.5224    41402.763 
  251400    304.77529   -1469.1756    504.79428    402.87693    930.24761    41402.763 
  251500    306.95602   -1476.1335    479.32139    380.22918    1116.4961    41402.763 
  251600    302.43868   -1431.6077    476.01507    401.18331    947.35961    41402.763 
  251700    303.84185   -1423.7687    494.64677     433.9488    292.17188    41402.763 
  251800    300.67065   -1428.1214     457.2754    377.99837    313.73183    41402.763 
  251900    301.89372   -1431.9936    472.75658    395.09418    675.74538    41402.763 
  252000    293.07841   -1456.2028    484.57381    343.15568    421.42158    41402.763 
  252100    309.62221   -1481.0448    477.18008    385.13737    530.23569    41402.763 
  252200    304.17286   -1490.5605    471.59761    345.59278    576.62719    41402.763 
  252300    305.96239   -1474.1687    486.70224    385.11728    770.63037    41402.763 
  252400    294.39072   -1469.6204    458.75745     309.8089    675.73689    41402.763 
  252500    298.54605   -1435.7318    499.75505    403.33645    662.56596    41402.763 
  252600    309.97512    -1476.923    498.22375    411.88612    824.67325    41402.763 
  252700    301.36309      -1485.9    455.25575    321.30646    309.92642    41402.763 
  252800    291.89775   -1500.4889    429.43564    238.43478    279.34781    41402.763 
  252900    305.87256   -1501.7936    462.22644    332.61361    355.55019    41402.763 
  253000     305.6766   -1464.2442    476.85126    383.90867    75.986375    41402.763 
  253100    296.84006   -1462.0096     461.2066    330.85689    659.78112    41402.763 
  253200    303.83659   -1490.4388    496.17357     368.7819    800.00604    41402.763 
  253300     308.4328    -1432.348    495.66789    446.98615    1004.8943    41402.763 
  253400    304.01648   -1435.2786    490.60713    419.18271    855.26998    41402.763 
  253500    304.19365   -1447.2504    470.74433    388.14291    1056.2724    41402.763 
  253600    302.43241   -1408.4045    482.47876    430.82208    1049.3387    41402.763 
  253700    297.65915   -1448.5829    465.20453      351.956     775.0532    41402.763 
  253800    307.87382   -1458.3885    498.17757     420.9477    39.271572    41402.763 
  253900    301.99238   -1467.9822    466.03191    352.82346     186.3899    41402.763 
  254000    302.22271   -1466.6555    480.12133    369.27287    555.80859    41402.763 
  254100    296.98051   -1480.3719    457.84484    309.76288    210.51768    41402.763 
  254200    298.87746   -1464.5492    484.50846    360.75915   -131.38444    41402.763 
  254300    300.27747   -1473.8491    443.04796    316.27931   -270.26767    41402.763 
  254400    302.47149   -1495.9538    475.66455    336.63389    372.07197    41402.763 
  254500    307.78598   -1455.5344    463.90147    389.13166   -22.886079    41402.763 
  254600    295.37068   -1469.5621    474.95615    330.46215    671.20093    41402.763 
  254700    298.54791    -1485.255    470.64789    324.71436   -335.13878    41402.763 
  254800    307.90692   -1455.9393     482.3374    407.70521    280.17202    41402.763 
  254900    308.30981   -1431.7387    497.41601    448.79189   -5.8318124    41402.763 
  255000    296.59647   -1459.3503    470.68992    341.90677    85.671891    41402.763 
  255100    300.11485   -1515.3016    473.27997    304.32935   -203.72339    41402.763 
  255200    301.82607   -1475.0406    451.31184    330.29898   -253.60753    41402.763 
  255300     299.4485   -1463.4769    470.02944    349.91415    293.20033    41402.763 
  255400    297.10288   -1487.2606    477.96561    323.54395    417.13585    41402.763 
  255500    299.38867    -1486.914    479.51074    335.69002    458.59067    41402.763 
  255600    295.89423    -1466.844    482.09179    342.66453    487.42539    41402.763 
  255700    298.41288   -1479.0095    461.12051     320.8268    147.09551    41402.763 
  255800    285.46257   -1456.5711    466.42878    290.47681    126.98828    41402.763 
  255900    305.06649   -1433.5934    474.58953    409.56081   -48.955674    41402.763 
  256000      297.153   -1415.9239     490.8367    407.97651   -279.66714    41402.763 
  256100    302.91409   -1417.2314    501.85177    443.52911    344.67491    41402.763 
  256200    289.49016    -1462.378     485.9569    322.26622    230.85337    41402.763 
  256300    305.72727   -1448.4887    464.65764    387.69786   -19.803748    41402.763 
  256400    299.44175   -1453.5376    462.84744    352.64124   -390.69251    41402.763 
  256500    305.23201   -1452.6123    454.20222    370.89714   -382.81328    41402.763 
  256600    303.34319   -1476.0143    451.64416    336.46353   -231.00987    41402.763 
  256700    307.86337     -1447.81      463.979    397.28074   -475.99596    41402.763 
  256800    290.37115   -1470.6522    469.24771     301.2351   -439.30168    41402.763 
  256900    302.00998   -1464.0792    476.45264    367.22616   -1032.2277    41402.763 
  257000    309.80687   -1478.7158    459.83486    370.94958   -782.00914    41402.763 
  257100    300.85808   -1493.7252    478.68268    334.64264   -533.18782    41402.763 
  257200    292.63642   -1476.6137    459.17689      295.365   -434.09492    41402.763 
  257300    312.99834   -1453.7313    475.24898    425.66548    143.80422    41402.763 
  257400    305.54891   -1462.3997    460.43381    368.76293    -66.24727    41402.763 
  257500    288.16279   -1479.9673    475.61119    288.37646     269.3344    41402.763 
  257600    294.32574    -1441.188    486.95187    366.14425    366.38009    41402.763 
  257700     307.2377   -1431.8046     484.3942     430.8945    945.04476    41402.763 
  257800    293.59883   -1431.4162    485.80336    371.50647    106.33131    41402.763 
  257900    300.11287   -1442.1821    481.14444    385.30446    478.40473    41402.763 
  258000    293.45612   -1412.1681    477.32501      381.636    -90.21688    41402.763 
  258100    295.85034   -1425.4897     470.2113    371.94145   -202.37824    41402.763 
  258200    304.46605   -1436.6203      469.009    398.25965   -337.73011    41402.763 
  258300     297.0548   -1414.8473    478.07614    395.85211   -460.33965    41402.763 
  258400    307.63235   -1476.2875    474.53499    378.32288   -1049.8448    41402.763 
  258500    310.99784   -1459.9172    458.80319    394.05934   -223.21426    41402.763 
  258600    290.85793   -1407.6771    468.08354    365.22974   -263.29291    41402.763 
  258700    300.10001   -1450.9063    493.61849    388.99656   -155.35529    41402.763 
  258800     293.0879   -1448.6975    470.43115     336.5609   -55.319153    41402.763 
  258900    302.91162   -1438.5098    507.87447     428.2623   -737.83193    41402.763 
  259000    312.55777   -1375.0505    463.28406    490.40497   -278.56808    41402.763 
  259100    299.76358   -1418.3992    461.51344     387.8894   -306.75951    41402.763 
  259200    291.54586    -1466.096    473.90808    315.72152    132.89506    41402.763 
  259300    298.93988    -1452.596    495.13241    383.61631   -80.812171    41402.763 
  259400    303.17652   -1426.5241    490.73126     424.2932   -148.43364    41402.763 
  259500    306.07846    -1446.624    488.66697     415.1474   -595.05281    41402.763 
  259600    293.82103   -1446.5492    467.21205    338.77901   -814.10652    41402.763 
  259700    300.92767   -1385.8828    467.08636    431.20094   -312.80079    41402.763 
  259800     298.0335   -1388.4824    488.00692    436.53832   -611.55993    41402.763 
  259900    305.14699   -1409.3643    451.37947    410.94094   -423.71034    41402.763 
  260000    300.18321   -1452.7259    476.82637    370.75817   -297.40021    41402.763 
  260100    306.05013   -1507.4609    468.56659    334.08305   -190.14194    41402.763 
  260200    300.36831   -1479.7463    474.43622    342.17793   -707.33294    41402.763 
  260300     294.9052   -1497.4264    457.91134    283.46485   -460.07513    41402.763 
  260400    291.73959   -1478.9677    464.83845    294.64928   -934.30423    41402.763 
  260500     297.7739   -1481.4489    519.78081    374.18106   -498.16954    41402.763 
  260600    294.60888   -1456.6891    481.93048    346.89189   -588.68185    41402.763 
  260700    309.09714   -1455.5792    491.76137    422.82872   -675.52652    41402.763 
  260800    302.99822   -1447.8682      474.427     385.8449   -137.87934    41402.763 
  260900    305.91472   -1480.6907    457.90537    349.58457   -36.878509    41402.763 
  261000    300.51033   -1450.8787    477.17296    374.41938    18.948711    41402.763 
  261100    296.47771   -1481.6329    488.96538    337.36681     116.7939    41402.763 
  261200    304.72124   -1515.3048    475.97753     327.6885    596.08304    41402.763 
  261300    300.27018   -1517.9941    481.32659    310.38028    394.94839    41402.763 
  261400    299.01801     -1513.07    487.14047    315.50086   -232.18287    41402.763 
  261500    302.70125   -1513.5645    468.06714    312.45654    360.46075    41402.763 
  261600     291.4055    -1472.959    470.07997    304.40071    145.97277    41402.763 
  261700    303.51174   -1501.8477     479.9731     339.7152   -229.22315    41402.763 
  261800    290.84681   -1489.2013     475.8483    291.42042   -432.69984    41402.763 
  261900    306.10917   -1467.9758    472.84556     378.1119    -162.8558    41402.763 
  262000    303.92452   -1504.9994    487.54503    345.98718   -76.816183    41402.763 
  262100    300.34229   -1516.8352    474.08874    304.62481    163.56365    41402.763 
  262200    307.30693   -1515.3707    485.90067    349.14543    45.109205    41402.763 
  262300     301.0667   -1533.4598    466.42687    283.58814   -28.595382    41402.763 
  262400    300.30344   -1520.1465    470.29262    297.34312   -33.249272    41402.763 
  262500    303.92568    -1506.641    481.09541    337.90122    -175.5423    41402.763 
  262600    293.54292   -1498.9197    471.04131    288.99016   -444.91682    41402.763 
  262700    298.14223   -1498.1122    470.04339    309.43273   -298.91803    41402.763 
  262800    301.94022   -1496.7564    474.50226    332.28565   -211.26345    41402.763 
  262900    300.72543   -1533.7979    464.50607    279.79825   -12.986214    41402.763 
  263000    297.77007   -1530.7533    489.33227    294.41102    644.12309    41402.763 
  263100    311.72115   -1553.3217    485.27693    330.37343    400.38469    41402.763 
  263200    291.44494   -1524.5587    454.58141     237.4794   -23.548837    41402.763 
  263300    308.19162   -1517.1454    449.45174    314.89068   -447.93211    41402.763 
  263400    304.69921   -1497.2722    480.78778    350.43255    119.35346    41402.763 
  263500    296.01485   -1502.6996    471.82869    297.08698    139.04406    41402.763 
  263600    299.51874   -1522.0378    507.10181    328.74076   -202.28107    41402.763 
  263700    298.65112   -1525.6546    484.79407    298.92394   -206.89985    41402.763 
  263800    300.74406   -1557.0793    458.75531    250.84965   -57.467996    41402.763 
  263900    294.18483    -1544.113    497.59099    273.22623   -158.03254    41402.763 
  264000    292.16492   -1562.0632    469.69264    218.31605    -451.8127    41402.763 
  264100    300.62873   -1575.9911    448.48393    221.14913    467.73043    41402.763 
  264200    303.19654   -1564.2971    472.40229    268.28103   -84.516438    41402.763 
  264300     302.1623   -1558.9526    495.13113    291.71463    273.46565    41402.763 
  264400    298.95232   -1537.0507    454.09671    258.18168   -133.63546    41402.763 
  264500    302.35652   -1534.7682    473.40484    295.04403   -302.09564    41402.763 
  264600     296.9253    -1566.044    474.30427    240.30249   -385.01078    41402.763 
  264700    296.99836   -1568.0543    491.61023    255.92598   -40.245759    41402.763 
  264800     294.2611   -1550.8115    495.99967    265.27851     -368.879    41402.763 
  264900    297.90848   -1540.5413    449.12918    245.04085   -111.80386    41402.763 
  265000    304.92419   -1523.5081    502.08573    346.50383    441.22143    41402.763 
  265100    285.10838   -1475.4442    471.67117    275.25716    370.65464    41402.763 
  265200    303.77587    -1473.371    466.11618    355.51991   -371.28208    41402.763 
  265300    297.29066   -1511.2476    496.99498    319.42876   -501.94875    41402.763 
  265400    300.95326    -1487.647    468.21934    330.68449    314.77299    41402.763 
  265500    300.64313   -1527.9865    493.49527    314.22968    557.26834    41402.763 
  265600    316.85882   -1497.7754    471.96449    395.65551    480.65019    41402.763 
  265700    294.44853    -1487.422    485.74826    319.25738    380.87646    41402.763 
  265800    308.13433   -1488.8073    487.45166     380.9717   -181.19945    41402.763 
  265900    289.63531    -1485.765    487.48661    301.06013    -366.7349    41402.763 
  266000    292.21479   -1488.0084    483.72351    306.62551   -710.67472    41402.763 
  266100    303.09247   -1448.5214    494.78603    405.97356   -619.94988    41402.763 
  266200    290.77343   -1440.7416    462.88654    326.58919   -499.07459    41402.763 
  266300    295.35784   -1456.8512    515.05554    383.21478   -544.50571    41402.763 
  266400    300.73469   -1469.8902     473.8312    353.07262   -89.144072    41402.763 
  266500    305.17718   -1455.1383    484.36608    398.28889    518.01792    41402.763 
  266600    297.96081   -1477.4313    485.24912    344.50553    506.16874    41402.763 
  266700    293.88306   -1450.0382     483.7443    352.10055    185.45849    41402.763 
  266800    291.65456   -1470.8055    486.62981    324.22142   -76.627396    41402.763 
  266900    295.20567   -1437.1565    477.67578    364.84707   -147.05897    41402.763 
  267000    296.43791   -1422.4958    487.33365    394.69368     567.0512    41402.763 
  267100    301.36532   -1423.7987    510.44052    438.60252    235.49206    41402.763 
  267200    296.58964   -1461.0704    473.40193      342.868    10.757255    41402.763 
  267300    317.49447   -1466.7624    492.91392    450.46956    190.47582    41402.763 
  267400    306.31796   -1423.9828    498.05213    448.24821   -23.369044    41402.763 
  267500    300.23757   -1447.1886    498.55279    398.26571    285.88896    41402.763 
  267600     292.1052   -1439.6862    507.87498    378.60754    98.713062    41402.763 
  267700     305.9809   -1449.3819    494.78881    418.07367    54.111343    41402.763 
  267800     312.8386   -1443.7043     489.9991    449.72607    345.55435    41402.763 
  267900    298.27829   -1465.5331    491.11651    363.69531    309.59407    41402.763 
  268000    302.00655   -1466.8336    504.19896     392.2027   -257.93344    41402.763 
  268100    301.73724   -1472.0726    463.39425    344.95085   -309.53541    41402.763 
  268200    287.69652   -1458.3872    490.92224    323.17586   -689.79915    41402.763 
  268300    294.01646   -1457.0549    468.86348    330.80142   -381.15627    41402.763 
  268400    306.84592   -1449.3141    460.19088    387.42413   -169.81644    41402.763 
  268500    309.34253   -1443.2433    511.01204    455.51616   -336.68555    41402.763 
  268600    293.32305   -1426.9366    483.30077    372.24629   -274.77384    41402.763 
  268700    297.36949   -1428.0552    491.90088    397.88068   -240.65053    41402.763 
  268800    289.44183   -1424.9325    495.05355    368.59157    76.218995    41402.763 
  268900    293.62717   -1458.8209    522.07695    380.50255   -165.91301    41402.763 
  269000    299.61188   -1447.2863    474.71972    371.52799    443.00518    41402.763 
  269100    300.49117   -1396.0438    493.90245    445.89787   -43.357176    41402.763 
  269200    304.00767   -1403.8615    474.49211    434.44525    -89.06916    41402.763 
  269300    304.24384   -1453.2449    468.99955    380.62878   -137.28334    41402.763 
  269400    293.78165   -1448.8834    504.29397    373.35007    368.57419    41402.763 
  269500     297.2575   -1438.0815    487.10109    382.55215    537.57311    41402.763 
  269600    300.39965   -1476.1143    488.30667      359.821     467.2979    41402.763 
  269700    302.33196   -1493.8528    473.06308    335.50745     173.9924    41402.763 
  269800    292.38776   -1492.3499    491.40788    310.74428     385.4887    41402.763 
  269900    297.49115    -1454.561     487.8871    367.90681   -446.88046    41402.763 
  270000    290.83648   -1449.5535    486.47417    341.64777   -682.20568    41402.763 
  270100    302.65774   -1468.0805    462.16891    351.84707   -260.46934    41402.763 
  270200    304.73559    -1471.087    474.70362    370.69674   -749.06513    41402.763 
  270300    306.00797   -1435.9854    456.71188    393.51462   -275.08844    41402.763 
  270400    308.22764   -1493.3353    477.87812    367.28875   -738.26704    41402.763 
  270500    300.11029   -1464.9388    468.09631    349.48803   -7.6549677    41402.763 
  270600    296.32789    -1508.188    471.69242    292.86668    280.47533    41402.763 
  270700    309.81653   -1480.3986    498.37066    407.84589    428.17536    41402.763 
  270800    299.66283   -1492.5848    464.25862    315.99695    277.85315    41402.763 
  270900    301.47999   -1501.2897    462.58514    313.77057    609.81176    41402.763 
  271000    298.10831   -1479.5228    494.56368    352.39022    790.70034    41402.763 
  271100    292.61342   -1452.4306    480.94479    341.21286    102.96346    41402.763 
  271200    300.73695   -1456.1841    488.16555     381.1233    294.13339    41402.763 
  271300    296.54467   -1464.1309    488.93112    355.13493   -145.48444    41402.763 
  271400    296.78586   -1473.3979    472.34098    330.35982    455.26271    41402.763 
  271500    300.19781   -1447.1826    489.43434    388.97488     207.6352    41402.763 
  271600    306.31868   -1467.0782    463.38949    370.49336    468.98283    41402.763 
  271700    300.31303   -1412.4081    488.55676    423.38869    841.08086    41402.763 
  271800    306.09541   -1490.9002    468.40326     350.6836    829.43164    41402.763 
  271900    293.13722   -1486.2976    503.59724     332.3481     803.3903    41402.763 
  272000    298.38547    -1436.895    480.43263    382.13043    425.77274    41402.763 
  272100    285.65775   -1497.5276    467.74543    251.71258    563.19318    41402.763 
  272200    293.79427   -1515.3719    489.40254    292.02669    187.74129    41402.763 
  272300     302.9338    -1473.742     477.4261    362.68125   -267.69451    41402.763 
  272400    306.49463    -1472.899    486.34697    388.41941   -360.14879    41402.763 
  272500    293.62077   -1461.7118    485.35014    340.85609   -209.29102    41402.763 
  272600    303.59197   -1505.6096    490.88879    347.22889    25.645311    41402.763 
  272700    283.66967   -1494.3992    454.10248    232.27922    19.782157    41402.763 
  272800    313.37443   -1481.6467    475.31628    399.50461   -118.52933    41402.763 
  272900    294.48141   -1507.7246    492.23345    305.58754    61.571598    41402.763 
  273000     298.8307   -1469.1489    487.43932    358.88052    144.47259    41402.763 
  273100    296.14875   -1458.0277    463.89169    334.42252   -297.43475    41402.763 
  273200    297.76104   -1471.2531    500.40084    364.93922   -131.60185    41402.763 
  273300    290.42556   -1468.8642    472.17803    306.19744     231.3266    41402.763 
  273400    301.28139   -1488.2733    475.16009    338.47097   -77.146373    41402.763 
  273500    314.44023   -1480.5791    494.05274    424.08994   -36.850856    41402.763 
  273600    297.55059   -1459.7807    474.21914    349.28583    260.57335    41402.763 
  273700    305.21747   -1470.7294    506.64266    405.15518    380.79223    41402.763 
  273800    297.75903   -1518.9831    473.52193    290.32132   -125.51182    41402.763 
  273900    296.50433   -1474.4608    485.90983    341.60282   -474.06093    41402.763 
  274000    300.78376   -1512.6635    507.35884    344.04709   -544.56169    41402.763 
  274100    299.44507   -1483.0864    501.05599    361.31584    -309.7683    41402.763 
  274200    306.85543    -1487.953    507.86049    396.49752   -487.40289    41402.763 
  274300    301.09888   -1481.4818    482.35736    351.64102    208.56976    41402.763 
  274400    295.57735   -1477.6531    494.65532    342.99741   -4.1049322    41402.763 
  274500    304.60963    -1475.393    511.68238    402.80442   -93.963877    41402.763 
  274600    296.09097   -1478.5705    514.07342    363.80228    -402.9406    41402.763 
  274700    300.68956   -1529.1019    486.73441    306.56169   -763.48965    41402.763 
  274800    296.80728   -1502.1894    468.94685    298.27026   -236.41961    41402.763 
  274900    294.85148   -1465.7212    496.53855     353.5562   -229.47044    41402.763 
  275000    299.33151   -1450.1449    511.58998    404.28188   -131.24455    41402.763 
  275100    310.25282   -1487.0561    504.38179    409.15679    81.536199    41402.763 
  275200    287.02348   -1505.9458    479.76032    261.43606   -174.29435    41402.763 
  275300    300.55876   -1472.7438    496.92209     372.5207    33.100109    41402.763 
  275400    306.61827   -1483.3283    500.69842    392.89618   -603.30134    41402.763 
  275500    297.20731   -1502.1214    494.77244    325.95849    -235.4192    41402.763 
  275600    297.59121   -1463.6261    501.70267    373.10612    -587.3769    41402.763 
  275700    296.70302   -1461.8771    501.97375    371.14173   -52.065335    41402.763 
  275800    302.41523   -1473.9033    489.95897     372.7264   -157.82719    41402.763 
  275900    306.52611   -1450.1997    497.60949    422.52244   -150.11245    41402.763 
  276000    293.60254   -1480.9709    494.04564    330.21066   -745.14195    41402.763 
  276100    295.93153   -1501.3212    477.73993    304.00281   -877.09819    41402.763 
  276200    297.18498   -1506.0551    487.04669    314.19885   -708.57349    41402.763 
  276300    291.53613   -1477.2827    473.00331    303.58646    246.61889    41402.763 
  276400    304.41805    -1459.692    503.27563    409.23924    243.07206    41402.763 
  276500    291.51577    -1470.411    484.20773    321.57121    -489.7784    41402.763 
  276600    296.37571   -1488.6893    489.51598    330.40346    151.34314    41402.763 
  276700    299.05548   -1437.7989    502.39341    406.19299    511.14658    41402.763 
  276800    293.87993   -1458.6645    519.54969    379.26559    936.68308    41402.763 
  276900    290.38647   -1482.3331    458.77495    279.15014    899.63127    41402.763 
  277000    312.74363   -1489.0134    516.43624    430.42804    947.43189    41402.763 
  277100    303.29549   -1432.0514    488.66164    417.22998    1036.1039    41402.763 
  277200    298.72096   -1484.2756    489.93982    345.76203    364.42183    41402.763 
  277300    297.79831   -1488.0558    518.88604    366.78894    493.84234    41402.763 
  277400    294.54985    -1461.649     499.7428    359.47954   -36.245456    41402.763 
  277500    294.49438   -1470.9952    468.41078    318.55246    130.48584    41402.763 
  277600    295.91981   -1460.6837    500.99911    367.84691     -367.215    41402.763 
  277700    302.26023   -1468.1242    485.71588    373.56703   -503.51864    41402.763 
  277800    311.51285   -1494.6991    476.25233    379.03694   -163.29073    41402.763 
  277900    303.89119   -1446.4061    485.09036    401.97631     23.35315    41402.763 
  278000    295.95868    -1452.511    506.35418    381.54904   -262.80504    41402.763 
  278100    307.76488   -1466.9132    497.42087    411.17765    234.72174    41402.763 
  278200    303.93748   -1500.1838    476.35155    339.66752    327.00636    41402.763 
  278300    292.48541   -1492.7564    492.99372    312.36165   -48.386318    41402.763 
  278400    294.55938   -1504.7709    518.65646      335.314   -110.39283    41402.763 
  278500     301.1252   -1511.1817    469.72765    309.42949   -71.714444    41402.763 
  278600    297.80764   -1538.4132     478.6179    276.20521   -562.58014    41402.763 
  278700    306.48583   -1549.2531    456.48434    282.16322    8.9359076    41402.763 
  278800     302.2332   -1498.5166    494.62273    351.96027   -162.14032    41402.763 
  278900    293.91635    -1487.567     500.6191    331.59592    248.09984    41402.763 
  279000    302.66618   -1488.6603    487.09254    356.22876    486.73375    41402.763 
  279100    291.60626   -1504.6634    484.15978    287.67682   -20.100064    41402.763 
  279200     301.7093   -1439.3985    480.05368    394.15903   -535.38305    41402.763 
  279300    287.06621   -1433.5197    511.45318    365.74668   -562.57323    41402.763 
  279400    310.88404   -1482.6628    460.99672    372.99673    -63.17264    41402.763 
  279500    300.45206   -1490.4256    487.03118    344.46932   -101.31461    41402.763 
  279600    288.14765   -1531.1251    463.58597    225.12552    145.84373    41402.763 
  279700    300.85737   -1500.0105    495.68988    345.36141   -247.96284    41402.763 
  279800    304.87665   -1478.0906    505.24543    394.86778   -300.28725    41402.763 
  279900    299.56584   -1499.2823    450.41966    295.02543   -260.15854    41402.763 
  280000     297.6432   -1528.1929    462.28945    269.35936   -183.35679    41402.763 
  280100    293.33082   -1491.8309    487.69828    311.78437   -401.26588    41402.763 
  280200    308.00252   -1483.8281    486.35794    384.26581   -311.20372    41402.763 
  280300    287.20465   -1485.3531    485.85785    288.93903   -401.59699    41402.763 
  280400    288.12994   -1531.9929    490.57122    251.16354   -50.035578    41402.763 
  280500    310.80297   -1494.3057    484.45833    384.45174   -49.084477    41402.763 
  280600    302.50785   -1483.6653    506.20627    379.62721   -395.77618    41402.763 
  280700    302.70371   -1506.5871    480.63812    332.01593    48.707346    41402.763 
  280800     300.2638   -1503.0354    482.67279    326.65654    354.87884    41402.763 
  280900    289.92544   -1480.4801    488.15171    308.31167    203.48908    41402.763 
  281000    291.88308   -1495.5524    459.99619    273.86602   -14.394678    41402.763 
  281100    305.64164   -1514.0299    468.96896    326.08382    30.272233    41402.763 
  281200    284.43718   -1490.4007    496.02415    281.64253    311.14362    41402.763 
  281300    294.05225   -1496.3011    506.13966    328.99204   -52.575435    41402.763 
  281400    300.83046   -1546.5743    473.77566    276.76261    168.31281    41402.763 
  281500    303.85091   -1496.6622    513.80077     380.2499   -81.391494    41402.763 
  281600     290.4617   -1510.0815    456.38833    249.35261    121.24106    41402.763 
  281700    299.38775   -1545.8047    474.20789    271.49224   -87.728456    41402.763 
  281800    300.98892   -1552.5706    479.39347    277.09497   -63.030115    41402.763 
  281900    290.55365     -1537.21    448.79491    215.04323   -136.53296    41402.763 
  282000    304.17742   -1545.8635    449.86809    268.58073   -280.69179    41402.763 
  282100    306.37227   -1522.8154    507.80932    359.41638    250.10242    41402.763 
  282200    296.50658   -1506.8715    462.66108    285.95348    162.89187    41402.763 
  282300    311.32278      -1512.6    492.18845    376.21955   -145.21219    41402.763 
  282400    293.31877   -1489.8998    494.73158     320.6947   -338.95316    41402.763 
  282500    303.30654   -1473.3052    471.46392    358.82794    133.29093    41402.763 
  282600     303.8287   -1504.6189    488.05941    346.45229    80.625116    41402.763 
  282700    311.67093   -1495.0244    460.49157    363.66012   -288.67998    41402.763 
  282800    297.86241   -1473.3972    483.15667    346.00568    151.12439    41402.763 
  282900    292.28677   -1503.3011    458.79847    266.73061   -381.07681    41402.763 
  283000    296.87612   -1535.5861    481.47078     277.7063    -188.9449    41402.763 
  283100    297.97462   -1515.8989    477.86462    298.71535   -363.90906    41402.763 
  283200    288.80586   -1501.2949    480.53823    274.86087   -339.27586    41402.763 
  283300    296.16167   -1473.4007    498.81229    354.02816   -77.428317    41402.763 
  283400    298.09756   -1508.2039    488.50773    317.60498    348.27635    41402.763 
  283500    297.18706    -1483.369     495.4973     345.3449   -259.98006    41402.763 
  283600    290.98595   -1521.4013    497.37218    281.36851   -393.20866    41402.763 
  283700     304.4498   -1492.0281    454.27729    328.04724    54.330213    41402.763 
  283800    297.89087   -1531.5287    463.46482     268.3101    182.61235    41402.763 
  283900    304.31258   -1516.3838    462.37209    311.17072   -181.50345    41402.763 
  284000    302.01863   -1510.6652    467.05034    311.27665   -128.82908    41402.763 
  284100    309.44787   -1500.5728    481.90348    369.55063    390.61139    41402.763 
  284200    302.91545   -1475.1177    481.58774    365.38484    610.63948    41402.763 
  284300    287.68125   -1426.0448    515.58572     380.1133    293.92666    41402.763 
  284400     295.4576    -1456.426    487.80478    356.83671    120.47954    41402.763 
  284500    312.19375   -1434.0536    492.39075    458.87555   -298.37703    41402.763 
  284600     302.1837   -1442.3442    465.68299    378.97089   -253.37635    41402.763 
  284700    306.80882    -1463.456    490.89348    403.81841   -669.81401    41402.763 
  284800    303.47579   -1469.6727    464.49259     356.2484   -904.77523    41402.763 
  284900    297.12437   -1481.8919      470.967     322.0104   -1014.4855    41402.763 
  285000    300.55927   -1461.8094    492.18408    378.71939   -376.29411    41402.763 
  285100     294.2231    -1457.895    472.15622    334.18111    89.308565    41402.763 
  285200    298.84834   -1500.5116    494.15746    334.31509    212.89807    41402.763 
  285300    299.04385    -1478.842    501.56859    364.27292   -150.91631    41402.763 
  285400    299.53333   -1481.5145     457.6294    319.85709   -320.70665    41402.763 
  285500    305.22445    -1459.902    502.72089     412.0921   -201.88168    41402.763 
  285600    293.93402   -1447.5351    489.17406    360.26197   -315.15777    41402.763 
  285700    299.29355   -1460.2897    481.49693    363.87378   -510.08038    41402.763 
  285800     293.8232   -1433.7802    522.50047    406.84617    199.51576    41402.763 
  285900    303.34669   -1428.6456    494.71964    426.92346    278.19626    41402.763 
  286000    305.09611   -1454.4654    474.79633    389.02841    99.967963    41402.763 
  286100    303.73479   -1450.3132    476.00418     388.2814    22.100859    41402.763 
  286200    303.15169   -1433.5297    505.92961    432.37449     30.14021    41402.763 
  286300    305.82927   -1445.2394    495.12252    421.86965    84.634114    41402.763 
  286400    299.11992   -1430.5357    494.29843     405.6503     102.1029    41402.763 
  286500    317.06044   -1441.3331    497.63575     478.6735    809.23631    41402.763 
  286600    299.92427   -1471.9445    485.04178    358.59323    559.37862    41402.763 
  286700    302.07702   -1432.2777    502.09335     424.9692   -13.124971    41402.763 
  286800    294.89195   -1467.5385    477.67772    333.05962    -201.3094    41402.763 
  286900     297.3512   -1502.2606    511.83413    343.52645   -178.65426    41402.763 
  287000    288.85993   -1486.4588    486.23635    295.63755   -410.37131    41402.763 
  287100    298.65661   -1525.7389    472.62856    286.69882    -659.0022    41402.763 
  287200    295.70839   -1535.0911    446.89124    238.38326   -454.12389    41402.763 
  287300    302.43477   -1543.5552    445.72242    258.92562   -51.071411    41402.763 
  287400    294.31184   -1557.8595     490.3321    252.79057    238.15219    41402.763 
  287500    310.05217   -1550.0073    491.53863    332.46233    422.39079    41402.763 
  287600    290.43248   -1519.1672    493.38215    277.12958    20.837065    41402.763 
  287700     296.2211   -1530.9683    461.82905    259.74393   -61.652795    41402.763 
  287800    299.40973   -1533.2314    487.41821    297.37456     104.2912    41402.763 
  287900    308.61509   -1553.2847    475.33798    306.53731    28.507531    41402.763 
  288000    294.42717   -1536.7483    488.77958    272.86665    755.14413    41402.763 
  288100    293.47467   -1574.9323    453.55273    195.18283    323.51236    41402.763 
  288200    292.04762   -1579.9698    454.24315    184.43374    641.58468    41402.763 
  288300    293.19519   -1547.0771    496.33169    264.56309    757.58486    41402.763 
  288400    293.50549   -1500.1468    483.64169    300.19543   -40.253848    41402.763 
  288500    308.03988    -1523.831    484.52158    342.59417    526.22276    41402.763 
  288600    306.90322   -1513.4437    494.59989     357.9606    381.31857    41402.763 
  288700    295.37963   -1492.3999    472.37263    305.08093   -341.01138    41402.763 
  288800    307.63759    -1519.102    460.94751    321.94439   -250.01398    41402.763 
  288900     294.0533   -1519.0216    484.12781    284.26435   -79.682627    41402.763 
  289000    299.29708   -1509.5061    480.65163    313.82786    17.477135    41402.763 
  289100     288.3117   -1489.2387    458.71063    262.87254   -39.863045    41402.763 
  289200    301.79466   -1480.8942    497.02115    370.01379   -553.26171    41402.763 
  289300    302.67035   -1487.4237    465.81667    336.20822    73.957706    41402.763 
  289400    301.80673    -1508.597    485.01996    330.36394    276.83243    41402.763 
  289500    309.97788   -1513.9383     481.0176    357.67698    356.68721    41402.763 
  289600    299.84191   -1522.8716    492.48667    314.74157    766.30313    41402.763 
  289700    296.37672   -1505.2777    500.59917    324.90273    918.79169    41402.763 
  289800    307.79611   -1499.0509    471.19011    352.94921    550.70918    41402.763 
  289900    306.55247   -1521.9257    485.58612    338.89132    384.52942    41402.763 
  290000    311.76652   -1547.3123    460.38742    311.69687    484.35725    41402.763 
  290100    302.95685   -1503.3525    489.69868    345.44674    -358.1872    41402.763 
  290200    302.30102   -1499.6284    494.22109    350.75107   -331.44308    41402.763 
  290300    302.62071   -1490.5376    459.20807      326.263   -263.80045    41402.763 
  290400    297.85804     -1538.18    472.11651     270.1631   -438.33535    41402.763 
  290500    310.63347   -1549.3214    463.92755    308.14494    -404.6942    41402.763 
  290600    308.87277   -1542.3155    493.56772    336.89229    88.018484    41402.763 
  290700    292.26581   -1533.2668     479.1945    257.06699    50.944815    41402.763 
  290800    298.45373   -1536.6092    456.48966    258.77944   -351.13714    41402.763 
  290900     302.9816   -1562.2506    479.12243    276.08339   -222.73181    41402.763 
  291000    304.43653   -1540.8398    480.90411    305.80286    56.553933    41402.763 
  291100    299.51671   -1547.3253    446.28159    242.62391    223.41818    41402.763 
  291200    290.04289   -1532.4613    476.57443    245.28008   -212.90587    41402.763 
  291300    297.01782   -1516.3391    478.75667    294.87488   -215.54367    41402.763 
  291400    295.29054   -1521.0691    486.11888    289.75829    248.24687    41402.763 
  291500    296.39495   -1533.6175    493.21434    289.25989    135.63647    41402.763 
  291600    297.01157    -1528.218    470.38373    274.59506    183.08205    41402.763 
  291700    296.13969   -1558.8638    483.30583    252.96001   -107.49868    41402.763 
  291800    302.00217   -1520.7046    494.29035    328.40353   -8.6051446    41402.763 
  291900    304.17885   -1550.5281    486.80907    300.86354    28.324899    41402.763 
  292000    297.52476   -1560.1757    462.18686    236.74268    198.95555    41402.763 
  292100    296.66264   -1519.7239    495.36015    306.50024   -324.78739    41402.763 
  292200    293.69092   -1504.5255    472.20521    285.21213   -257.13967    41402.763 
  292300     301.5231   -1541.0145    457.70628    269.36033    45.746243    41402.763 
  292400     307.7308   -1534.4128    481.20562     327.3098    626.77759    41402.763 
  292500    301.68111   -1549.5414    484.01514    287.85114   -428.69034    41402.763 
  292600    297.71904   -1541.2108    462.65575    257.04803   -236.75844    41402.763 
  292700     307.4743   -1502.7112     502.4317    379.08679   -484.59491    41402.763 
  292800    291.69421   -1519.5817    480.63147    269.62475   -1026.7398    41402.763 
  292900    298.30056   -1534.5496    499.96637    303.62859   -900.51931    41402.763 
  293000    307.57583   -1531.2279    479.49704    328.09098    -494.2324    41402.763 
  293100    299.54211   -1551.3795    467.12357    259.52565   -981.77275    41402.763 
  293200    297.10598   -1536.3279    474.44003    270.96495   -357.05331    41402.763 
  293300    303.13023    -1559.857    476.36031    276.38159   -733.65872    41402.763 
  293400    298.57308   -1589.5623    449.21839    199.09052   -299.70761    41402.763 
  293500    301.45063   -1561.0608    467.60659    258.88921    144.56506    41402.763 
  293600    306.41581   -1553.5211    468.61985     289.7166    119.32791    41402.763 
  293700    297.41077   -1571.5918    479.60742    242.23575   -221.08526    41402.763 
  293800    301.03003   -1535.3611    470.62809    285.72357     386.8442    41402.763 
  293900    300.15037   -1565.2134    477.49079    258.78768    85.387617    41402.763 
  294000    309.22255   -1528.3239    462.51171    321.39697    123.22306    41402.763 
  294100    308.05927   -1534.8747    495.75952    342.87539    219.29709    41402.763 
  294200     304.0856   -1534.8121    462.08122    291.43329    120.60312    41402.763 
  294300    309.51897    -1514.116    462.92209      337.345   -15.530208    41402.763 
  294400    307.37817   -1525.2111    475.50797    329.23193   -452.18992    41402.763 
  294500    295.99151   -1513.8558    473.55089    287.54828   -173.89551    41402.763 
  294600    302.89191   -1542.1607    491.13748    307.78592   -66.595427    41402.763 
  294700    303.72551   -1531.5503    463.09321    294.09175   -610.38786    41402.763 
  294800    300.62707    -1547.108    460.47215      262.013   -669.35967    41402.763 
  294900    311.90196   -1513.1319    470.14386     356.2413   -152.78393    41402.763 
  295000    300.26846   -1525.5737    472.28941    293.75585    -133.5792    41402.763 
  295100    305.77581    -1501.078    495.53995    366.20867   -165.24503    41402.763 
  295200    297.64946   -1508.6136    504.87911    331.55646    112.09198    41402.763 
  295300     296.0553   -1526.5173    478.08636    279.70837    421.66776    41402.763 
  295400    295.88204    -1517.618    484.37773    294.12181   -206.71256    41402.763 
  295500    299.49851   -1533.7114    455.50266    265.37731   -135.08447    41402.763 
  295600    303.73905   -1510.4048    491.10327    343.30808    24.414351    41402.763 
  295700    289.37858   -1580.3959    470.04017    187.83103    37.116335    41402.763 
  295800    299.31869   -1590.5519    456.15982     208.3872   -161.44341    41402.763 
  295900    316.06864   -1569.2505    464.44471    313.11572   -528.78573    41402.763 
  296000    297.76406   -1537.0917    471.89137    270.60476   -424.61638    41402.763 
  296100    294.85435   -1533.9731    469.45849    258.23716   -369.76537    41402.763 
  296200    305.25119   -1526.7138    481.51303    324.19247   -264.46374    41402.763 
  296300    301.37605   -1535.1687    511.48907    328.32921   -59.747035    41402.763 
  296400    298.74869   -1514.6061    456.05179     281.6679   -194.24149    41402.763 
  296500      299.012   -1479.7049    502.74898    364.44754   -308.49173    41402.763 
  296600    291.03866    -1496.842    477.26654    286.05864    20.044939    41402.763 
  296700    303.61639   -1491.2278    502.00767    372.83921   -251.76553    41402.763 
  296800    295.71358   -1514.8434    472.61229    284.37524    292.88766    41402.763 
  296900    288.96431   -1537.3703    499.15627    258.11435    274.32062    41402.763 
  297000    296.42526   -1574.2221    469.14176    224.71869     589.6848    41402.763 
  297100    306.75807   -1574.8818    489.74382     291.0153    235.96499    41402.763 
  297200    303.82871   -1546.2841    458.91491    275.64255 -0.0072382206    41402.763 
  297300    291.30249   -1541.6654    462.09821    227.25046   -240.00136    41402.763 
  297400    293.54783   -1529.3977    484.77576    272.26857   -628.14415    41402.763 
  297500    303.08488   -1542.2752     481.1248    298.52448   -543.96709    41402.763 
  297600    291.40043   -1535.9257    461.36611    232.69745   -552.26918    41402.763 
  297700    294.93914   -1516.7905    487.54446    293.88613   -1048.3465    41402.763 
  297800    297.04809   -1495.1345    469.80229    307.26094   -523.95818    41402.763 
  297900    302.03762   -1533.0289    482.90207    304.84992   -314.16363    41402.763 
  298000    305.47377   -1487.2189    493.87395    377.04673    -60.91061    41402.763 
  298100    304.26993   -1555.3582    485.79758    295.43055   -78.022504    41402.763 
  298200    299.03331   -1539.3187    482.22199    284.40237   -218.50289    41402.763 
  298300    301.22376   -1522.4877    492.25489    321.09283    -183.6242    41402.763 
  298400     307.2476   -1494.4254    489.88499    373.80891    -35.17563    41402.763 
  298500    307.95501   -1531.0835    489.53938    339.97876    305.80282    41402.763 
  298600    297.52439   -1483.1411    466.62156    318.21026    409.53134    41402.763 
  298700    306.36908   -1524.1135    517.74252    368.03721    117.11062    41402.763 
  298800    293.23395   -1537.0058    472.78359    251.26027    376.14104    41402.763 
  298900    295.40221   -1529.5197    483.69337     279.3832   -83.994593    41402.763 
  299000    299.26658   -1496.6085    502.69091    348.62792    366.39566    41402.763 
  299100    292.75329   -1501.2168    469.65065    281.76003    148.96306    41402.763 
  299200    297.94703   -1524.4838    497.71534    309.85743    313.34413    41402.763 
  299300    304.86855   -1540.5595    491.38339    318.50049   -5.7318728    41402.763 
  299400    301.25486   -1536.8433    478.72175    293.34363    513.63421    41402.763 
  299500    293.83785   -1494.9722    501.11088    324.33026     301.5904    41402.763 
  299600    299.27357   -1503.2232     496.0603    335.41394    350.19835    41402.763 
  299700    298.20388   -1539.5342    488.00531    286.24921    241.05044    41402.763 
  299800    297.86856   -1507.6873    480.32344    308.90999   -221.86289    41402.763 
  299900    294.59837   -1530.3387     488.0773    279.34199   -258.23485    41402.763 
  300000    303.79694   -1478.6143    499.92594    384.18085   -338.38056    41402.763 
  300100    297.91566   -1527.7504    500.30839    309.04313    21.962408    41402.763 
  300200    299.38133    -1525.023    487.93126    305.96855   -221.82828    41402.763 
  300300    291.55832    -1524.637     485.8916     269.2199   -321.24462    41402.763 
  300400    295.71006   -1471.3557    518.50291    373.73775   -540.53097    41402.763 
  300500    301.58095   -1497.1697    493.27079    349.02912    -157.3335    41402.763 
  300600      304.442   -1524.9022    479.26375    320.12459   -349.93943    41402.763 
  300700     299.5964   -1504.7755    471.49022    310.73981   -329.04912    41402.763 
  300800    301.07948   -1524.5548    475.86511    301.98871   -273.70092    41402.763 
  300900    297.32995   -1491.6405    463.60097    305.81801   -731.18885    41402.763 
  301000    298.77888   -1477.2021     486.3612    349.51673   -344.13839    41402.763 
  301100    304.10771   -1527.7216    459.80342    296.34527   -505.79388    41402.763 
  301200    304.94869   -1508.8015    476.07473    335.30942    11.908418    41402.763 
  301300    304.90106   -1494.2164    480.45767    354.06375   -427.74144    41402.763 
  301400    294.24021   -1498.0843    476.77708    298.68938    2.9208558    41402.763 
  301500    302.78846   -1483.8943    502.35916    376.80996   -121.15623    41402.763 
  301600    302.79346   -1482.3962    470.53919    346.51052    282.22385    41402.763 
  301700    309.07135   -1505.8129    499.83265    380.55066    388.63985    41402.763 
  301800    297.15192   -1503.5688    486.00191    315.49202    663.36336    41402.763 
  301900    300.63488    -1523.651    466.95766    291.99053    528.13694    41402.763 
  302000    301.27804    -1550.048    481.24594    282.76709    502.25922    41402.763 
  302100     308.6664   -1539.0089    498.76694    344.47226    368.26963    41402.763 
  302200    297.57915   -1542.8807    462.73927    254.83412    398.61588    41402.763 
  302300    297.82983   -1533.0471     485.2258    288.27878      516.711    41402.763 
  302400    308.79955   -1505.5794    498.43212    378.16426    238.68279    41402.763 
  302500    293.58242   -1504.4069    498.33153    310.97033    221.04921    41402.763 
  302600    304.13659   -1489.2193    482.95987    358.13354    49.554531    41402.763 
  302700    303.53575   -1503.9908    505.47721     363.1839    107.15417    41402.763 
  302800    293.96435   -1494.7414    484.27815     308.2959    249.87085    41402.763 
  302900     292.3981   -1510.2763    508.21377    309.67019    53.863609    41402.763 
  303000    308.51239   -1498.7819    479.41125    364.65263   -176.29731    41402.763 
  303100     305.5042   -1483.7318     474.4751    361.27155   -416.37939    41402.763 
  303200    300.69954   -1521.2492    482.45747    310.18224   -185.72441    41402.763 
  303300    296.74954   -1519.8217    473.88013    285.31225      299.368    41402.763 
  303400    301.55301   -1501.3915    475.15481    326.56606    340.08809    41402.763 
  303500    305.06744   -1547.9146    535.39467    356.04893    432.10395    41402.763 
  303600    303.81417   -1573.2785    458.44266    248.11065    382.59383    41402.763 
  303700    295.26237    -1585.368    493.22657    232.44073    285.81357    41402.763 
  303800     287.8774   -1545.2349    460.35469    206.57214   -139.98614    41402.763 
  303900    300.34724   -1538.6888    473.82251    282.52723    566.94797    41402.763 
  304000    293.40023   -1554.9837    489.35164     250.5963    44.558541    41402.763 
  304100    296.76704    -1544.536    471.31017    258.10645   -59.813401    41402.763 
  304200    301.22837   -1528.2899    491.27132    314.32778   -364.06619    41402.763 
  304300    300.14123   -1498.2504    493.64743    341.86628   -943.75803    41402.763 
  304400    287.27194   -1493.8101    477.56599    272.49208   -729.96596    41402.763 
  304500    303.04809   -1504.3931    476.16665     331.2834   -960.46628    41402.763 
  304600    299.71905   -1549.0715     503.1551    298.65901   -604.26149    41402.763 
  304700    297.62002   -1540.8372    459.64577    253.96745   -253.06497    41402.763 
  304800    290.38066    -1510.694    500.74708    292.73535   -254.63903    41402.763 
  304900    307.48819   -1527.9711    489.97826    341.43584   -224.27024    41402.763 
  305000    301.99096   -1499.2248    452.52573     308.0683     37.62572    41402.763 
  305100    294.94735   -1564.7461    494.33097    252.75387   -40.839265    41402.763 
  305200     300.8147   -1525.9593    484.56688    308.09818    36.929023    41402.763 
  305300    303.38338   -1500.0073    475.17448    336.18117   -168.73096    41402.763 
  305400    302.02149   -1505.8731    478.97619    328.00741    80.818494    41402.763 
  305500    311.60581   -1483.3688    479.98222    394.51416   -366.40895    41402.763 
  305600    302.90085   -1498.6111    475.20273    335.44093    31.538225    41402.763 
  305700     295.0809   -1525.1126    480.76691    279.42244    40.938061    41402.763 
  305800    296.66356   -1500.4831    485.04512    315.43004   -59.582893    41402.763 
  305900    303.62139   -1482.0435     489.7336    369.77182    -187.2123    41402.763 
  306000    301.62614   -1528.5252    473.75483    298.36043    433.72098    41402.763 
  306100    288.65944   -1552.9439    485.97338    227.99012    483.36713    41402.763 
  306200    298.15892   -1505.9347    501.77481    333.41654     331.1806    41402.763 
  306300    309.11789   -1508.0078    491.75744    370.48937    123.52722    41402.763 
  306400    298.80007    -1518.439    457.90859    279.92225   -97.208512    41402.763 
  306500    293.02706   -1534.2465    479.17705     259.4849    -181.8425    41402.763 
  306600     291.7391   -1543.4253    482.99682     248.3479   -110.82269    41402.763 
  306700    304.51995   -1552.2935    477.25515    291.07444   -145.04434    41402.763 
  306800    301.02896   -1533.1542    498.52261    315.82018   -262.94959    41402.763 
  306900    290.76614   -1500.5964     478.7007     282.5159    81.423862    41402.763 
  307000    302.82407   -1522.3237    487.80782    323.98898   -296.87186    41402.763 
  307100    289.33256   -1515.0776    487.60363    270.50637   -175.78168    41402.763 
  307200    290.60329   -1536.9366    486.85814    253.60258    175.58305    41402.763 
  307300    301.60321   -1518.9623    487.92121    321.98685    31.226435    41402.763 
  307400    298.91564    -1511.649    472.95072    302.27291    353.29729    41402.763 
  307500    295.96347   -1516.8873    488.26744    299.10756   -401.47924    41402.763 
  307600    292.18258   -1495.3033    518.31473    333.77731    354.24331    41402.763 
  307700    294.74801   -1532.7833    469.87001    259.36136    177.55787    41402.763 
  307800    302.07203   -1495.2722    480.25635    340.11529   -219.03132    41402.763 
  307900    293.82451   -1526.1816    458.38064    250.33081   -805.99517    41402.763 
  308000    300.00658   -1528.8396    480.69783    297.72351   -281.56207    41402.763 
  308100    293.14236   -1565.5521     462.2238    211.74327   -571.79092    41402.763 
  308200    299.25741   -1553.6023    481.93098     270.8331   -130.14742    41402.763 
  308300    299.86288   -1596.4426     453.9986    202.77656    195.82629    41402.763 
  308400    307.79948   -1561.7811     487.0329    306.07689    517.64545    41402.763 
  308500    291.29444   -1506.1198    478.79215     279.4539    618.91227    41402.763 
  308600    305.74547   -1502.9686    507.05341    375.69542    452.54157    41402.763 
  308700    295.63886   -1509.9137    476.27815    292.63561      689.712    41402.763 
  308800    290.46889   -1515.1923    445.03973    232.92548    783.90541    41402.763 
  308900    296.33213   -1536.5619    497.91602    290.73531    114.98944    41402.763 
  309000     295.4913   -1515.2496    471.43626    281.79588    242.12173    41402.763 
  309100    301.10314   -1547.7252    477.96158    281.02089   -353.94308    41402.763 
  309200    302.10395   -1515.2704    452.69956    292.70343   -288.69423    41402.763 
  309300    296.77283    -1532.357     493.1766    292.17783   -231.08563    41402.763 
  309400    298.31598   -1528.5938    485.16544     294.8527    193.32899    41402.763 
  309500    304.42918   -1506.0871     497.1394    356.75781     28.76419    41402.763 
  309600    305.09075   -1533.4313     469.1304    304.37261   -26.816612    41402.763 
  309700    300.84689   -1504.6579    514.66069    359.63776    50.658819    41402.763 
  309800    285.47273   -1502.3151    525.85965    304.20919   -258.48734    41402.763 
  309900     303.6038   -1493.9637    479.40305    347.44222   -69.761019    41402.763 
  310000     291.5278   -1483.7445    483.79637    307.88031   -389.30342    41402.763 
  310100    286.55749   -1506.8456    487.80488    266.49036   -406.24463    41402.763 
  310200    302.70956   -1485.9375    472.55464    344.60833   -136.98993    41402.763 
  310300    304.56839   -1513.9721    496.87522    349.23326   -52.596102    41402.763 
  310400    298.02287   -1480.9468    456.24803    312.26727   -85.236358    41402.763 
  310500    296.77762   -1491.3754    468.11054    308.11492    46.607713    41402.763 
  310600    304.25131   -1517.4924     489.1797    336.59493    497.08134    41402.763 
  310700    302.12563   -1498.7195    484.30219    340.95421    418.30699    41402.763 
  310800     310.6553   -1532.4425    474.16021    335.35442    610.71147    41402.763 
  310900    303.05012   -1510.4881    468.06293    317.09376    387.25975    41402.763 
  311000    296.70671   -1501.5959    513.17516    342.64089    788.37581    41402.763 
  311100    301.68118   -1489.3474    489.03476    353.06503    417.18606    41402.763 
  311200    303.30787   -1501.7177    496.89909     355.8566    699.91259    41402.763 
  311300    304.50618    -1500.981    487.37101      352.441    372.26374    41402.763 
  311400    296.45822   -1472.2579    497.28197    354.97089    768.40828    41402.763 
  311500    299.37758    -1448.471    485.10405    379.67653   -37.973954    41402.763 
  311600    304.37198   -1460.0346    481.82042    387.23478    32.993959    41402.763 
  311700    298.28404   -1494.9131    475.26362    318.48825    274.60198    41402.763 
  311800    308.11797   -1502.3805    477.51843     357.3919    66.403742    41402.763 
  311900    294.71495   -1501.5308    481.10264    301.69825   -12.110675    41402.763 
  312000    305.27786   -1540.5264    505.82351    334.80992     15.71751    41402.763 
  312100    303.04723   -1558.1173    446.94439    248.33307   -61.657547    41402.763 
  312200    302.14314   -1512.0043    490.01732    333.46319    49.164001    41402.763 
  312300    300.68078   -1455.3321    467.44666    361.00435   -326.46813    41402.763 
  312400    287.13863   -1473.4352    500.42107    315.12397   -491.89465    41402.763 
  312500     297.6742   -1478.3678     496.2431     353.2772   -316.22689    41402.763 
  312600    302.82094   -1509.8136     458.1844    306.86157    -176.8428    41402.763 
  312700     298.4875   -1490.8917     484.2347    332.39351   -278.48806    41402.763 
  312800    298.47897    -1499.866    489.81191    328.95812   -599.55451    41402.763 
  312900     295.5841   -1496.2462     477.4231    307.20239   -470.63445    41402.763 
  313000    306.36096   -1494.6302    485.04416    364.78566   -897.08946    41402.763 
  313100    300.30214   -1489.2873    484.85214    342.75601   -558.04074    41402.763 
  313200     297.9619   -1496.9253    486.07226    325.83955   -571.75495    41402.763 
  313300    297.25997   -1490.1488    479.73672    323.13158   -405.04724    41402.763 
  313400    300.45519   -1522.1927    464.64759    290.33267   -215.84084    41402.763 
  313500     307.9428   -1535.4539    464.16473    310.17894   -283.16961    41402.763 
  313600    296.56059    -1529.288    496.22745    297.34554    -995.5343    41402.763 
  313700    297.61095   -1469.1808    475.30763    341.24502   -710.39317    41402.763 
  313800    303.49539   -1505.1208    497.44794    353.84363   -491.99703    41402.763 
  313900    292.75005   -1516.1029    464.31871    261.52737    -157.3789    41402.763 
  314000    300.16466   -1515.0323    494.14689      325.689    153.41973    41402.763 
  314100    291.92234   -1519.4829    475.30495    265.42045    229.63967    41402.763 
  314200    297.06545   -1491.6305    513.86004    354.90053    253.80311    41402.763 
  314300    296.22903   -1517.5694    459.84736    271.19668    273.65243    41402.763 
  314400     306.9485   -1524.2306    487.94912    340.72612    253.56813    41402.763 
  314500    298.61359   -1558.3962    453.69354    234.91353    235.85261    41402.763 
  314600    310.41766   -1516.1966    476.13047    352.50443    224.68496    41402.763 
  314700    292.09696   -1494.4614    469.88323    285.80362   -5.9717313    41402.763 
  314800     280.4644   -1480.9007     491.0596    268.35566     -610.982    41402.763 
  314900    307.69465    -1493.094    494.95851     382.2194    120.58844    41402.763 
  315000    285.60201   -1505.9124    498.13675    273.46895   -597.23595    41402.763 
  315100    292.01436   -1511.3281    491.88892    290.57208    -901.4229    41402.763 
  315200    296.95209   -1524.8182    468.59855    275.94277   -1000.3167    41402.763 
  315300     312.3639    -1466.004    501.99927    437.29691   -583.78837    41402.763 
  315400    306.87641   -1477.9403    475.92354    374.66743   -272.97149    41402.763 
  315500    295.72594    -1483.374    484.19252    327.48035   -572.86406    41402.763 
  315600    294.53602   -1501.5558     451.4402    271.20806   -336.72435    41402.763 
  315700    305.72922   -1489.6376    486.08372     367.9838   -190.48831    41402.763 
  315800    307.26324   -1523.4149    494.27189    349.27643    233.09176    41402.763 
  315900    294.94563   -1449.0872    486.67178    360.74584    359.95188    41402.763 
  316000     302.5345   -1484.2823    473.60388    346.52734    -272.2451    41402.763 
  316100     297.9179   -1509.6691    476.08225    302.90835   -376.46125    41402.763 
  316200    296.07569   -1509.4043    495.43239    314.25888   -63.961014    41402.763 
  316300       293.38   -1494.2449    483.46733    305.36006    220.12622    41402.763 
  316400    305.64119   -1483.3093     513.0472    400.88066    272.28254    41402.763 
  316500    305.87876   -1514.7493    504.70775    362.16702   -88.559231    41402.763 
  316600    302.04548   -1508.4348    497.17868    343.75586    229.71694    41402.763 
  316700    306.72308   -1489.5273    514.09736    400.56638    157.06306    41402.763 
  316800    307.41155   -1534.1514    497.11627     342.0497    244.73667    41402.763 
  316900    297.48513    -1533.073    489.01056    290.49132     314.0388    41402.763 
  317000    307.32316   -1545.7761     505.9525    338.86468    231.25625    41402.763 
  317100    304.92544   -1528.9489    476.82233    315.80526    381.96001    41402.763 
  317200    292.17868   -1512.5009    503.54532    301.79279    457.75626    41402.763 
  317300    312.26552   -1516.8357    484.71007    368.73471    726.65577    41402.763 
  317400    308.07805   -1494.4176    496.28581    383.94304     211.5839    41402.763 
  317500    305.38307   -1524.0854    494.05661    339.95603    138.97539    41402.763 
  317600    298.89285   -1490.5353    504.82833    355.16192    10.959044    41402.763 
  317700    296.05492   -1492.6462    524.65905    360.15046   -2.9996181    41402.763 
  317800    300.88051   -1496.1267    458.90912    312.56827    104.03364    41402.763 
  317900    308.11623   -1473.4282    530.25011      439.068     428.4985    41402.763 
  318000    299.96879   -1513.3098    477.68703      310.073    478.21304    41402.763 
  318100    307.20643   -1492.2906    494.43525     380.3093     640.2977    41402.763 
  318200    308.94777   -1505.1187    517.38382    398.24158     168.0057    41402.763 
  318300     301.4846   -1507.0864    476.89805     322.3075   -215.00829    41402.763 
  318400    297.52439   -1517.6291    492.67391     309.7747   -184.25298    41402.763 
  318500    295.09158   -1489.2973    474.01895    308.53764   -228.09819    41402.763 
  318600    292.60605    -1500.635    503.05843    315.08907   -182.32089    41402.763 
  318700    303.06248   -1508.4968    487.58238    338.65996    90.031542    41402.763 
  318800    290.36138      -1505.5     494.5084    291.60415     188.6501    41402.763 
  318900    300.07949   -1458.7128    480.81779    368.29727   -318.43608    41402.763 
  319000    297.48319   -1461.2037    503.63036     376.9717   -210.42348    41402.763 
  319100    296.96848   -1447.4559    498.29681    383.07693    24.237252    41402.763 
  319200    302.72608   -1450.1249     495.6895    403.62987    36.628651    41402.763 
  319300    301.37866   -1468.3925    499.37282    383.00093    438.42832    41402.763 
  319400    297.80389   -1468.7003    486.05118    353.33458    354.79411    41402.763 
  319500    299.54521   -1489.8478    468.98419    322.93191    26.268231    41402.763 
  319600    302.46401   -1462.3973    487.27706    381.76933   -260.60363    41402.763 
  319700    305.74237   -1475.1639    477.00918    373.44197    91.166106    41402.763 
  319800    302.63772   -1456.6931    486.22107    387.19681   -317.80548    41402.763 
  319900    301.16052   -1475.7327    482.88467    358.19399   -307.66711    41402.763 
  320000    293.09233   -1466.4269    483.24086    331.66107   -325.56231    41402.763 
  320100    304.27046   -1502.2679    480.94152    343.66721    90.609826    41402.763 
  320200    291.73611   -1459.4518    504.19599    353.50717   -314.24148    41402.763 
  320300    308.11177   -1430.9013    494.11888    445.44369     177.7859    41402.763 
  320400    290.61728   -1457.6604    498.66025    344.74357   -273.67867    41402.763 
  320500    301.80383   -1474.1225    473.24258    353.04795   -111.82063    41402.763 
  320600    294.20033   -1480.1881    482.61508    322.24475   -666.94767    41402.763 
  320700    293.45348    -1465.247    474.77586    325.99607   -770.72873    41402.763 
  320800    300.72374   -1453.8783    466.39232    361.59652   -1065.5207    41402.763 
  320900     307.5955   -1498.0842     487.0323    368.85819   -381.53986    41402.763 
  321000    304.16497   -1501.6805    472.11505    334.95484   -225.36102    41402.763 
  321100    293.17348   -1480.3374    471.74273    306.61645    45.905201    41402.763 
  321200    288.42504   -1468.4793    487.63433    313.06411    176.50828    41402.763 
  321300    304.68272   -1463.3727    505.06273    408.53298    278.48225    41402.763 
  321400    297.89225   -1497.5026    495.76247    334.63993    259.67672    41402.763 
  321500    309.93875   -1485.0341    474.54127    379.92932    405.20565    41402.763 
  321600    295.06357   -1500.4257    463.67138    286.93604   -357.26367    41402.763 
  321700    296.04851   -1517.7505    476.33225    286.69057    -545.8213    41402.763 
  321800    297.07124   -1450.6092    466.69783    348.78563   -337.89103    41402.763 
  321900    300.99895   -1459.4685    507.12026    397.96891   -439.02787    41402.763 
  322000    298.15464   -1497.1676    447.42465    287.81424   -300.48234    41402.763 
  322100    304.96206   -1494.8045    496.09602     369.3877   -438.65368    41402.763 
  322200    292.06786   -1526.1629    499.66056    283.74883    79.898605    41402.763 
  322300    335.79722   -1533.2201    423.37708    396.58331    187.53407    41402.763 
  322400    299.30724   -1526.6964    462.59133    278.62284    101.30278    41402.763 
  322500    305.81274   -1522.2943    506.53955    356.15763    491.70923    41402.763 
  322600    309.78545   -1501.0902    457.76648    346.41071    373.44242    41402.763 
  322700    299.91007   -1503.5086    509.81804    351.74169    271.58176    41402.763 
  322800    301.84531   -1496.1125    460.32714    318.32861    264.93144    41402.763 
  322900    304.62991   -1502.3127    470.95121    335.24463    443.32092    41402.763 
  323000    302.30634   -1516.5386    455.84468    295.48837   -728.82843    41402.763 
  323100    302.77639   -1489.2942      500.209    369.20573   -37.271854    41402.763 
  323200    299.42155   -1516.0261    487.42765     314.6423    -89.50816    41402.763 
  323300      304.371    -1499.002    494.86878    361.31133    439.26124    41402.763 
  323400     301.0247   -1504.6139    486.68559    332.50437    9.6149593    41402.763 
  323500    294.40965   -1468.5132    501.67003    353.91364   -173.04109    41402.763 
  323600    292.70532   -1494.3493    473.13106    291.89273   -237.21486    41402.763 
  323700    297.18558   -1500.6019     503.2848    335.89281   -864.71835    41402.763 
  323800       295.65   -1461.2967    487.52261    352.54704    -451.8642    41402.763 
  323900    293.45396    -1451.311    488.28163    353.44006   -314.60019    41402.763 
  324000    288.62517   -1484.0584    499.49753      310.246   -334.93703    41402.763 
  324100    302.40509   -1471.8161    462.34442    347.15356   -661.16565    41402.763 
  324200    298.13757   -1431.2653    508.75928    414.97458   -47.927702    41402.763 
  324300    298.07588   -1474.6178     533.1057    395.69179   -15.460407    41402.763 
  324400    298.33605   -1490.3454    480.90047    328.92613    750.09031    41402.763 
  324500    311.03793   -1438.2438     514.9826    472.09203    419.71477    41402.763 
  324600    297.71865   -1484.1535    464.11481    315.56261   -309.46571    41402.763 
  324700    296.37441   -1483.9174    516.78206    362.43554    451.14329    41402.763 
  324800    290.50777   -1488.1572    491.36936    306.46456    409.11873    41402.763 
  324900    293.28624   -1491.6149    495.70586    319.80793    210.15998    41402.763 
  325000    302.28589   -1468.5431     477.4947     365.0421    132.54578    41402.763 
  325100    297.31465   -1454.2491    502.40818    381.94807    3.7487043    41402.763 
  325200    303.88726   -1433.5101    505.57141    435.33573    31.668389    41402.763 
  325300    290.05617   -1456.0308    491.05519     336.2509   -473.50437    41402.763 
  325400    319.41646    -1455.218    493.04841    470.77072   -240.86072    41402.763 
  325500    295.53114   -1470.8882    470.19605    325.09571   -472.79277    41402.763 
  325600    300.69164   -1485.2155    486.12284    349.84591   -578.21978    41402.763 
  325700    307.69256   -1477.0619    493.15146    396.43505    64.771897    41402.763 
  325800    289.54726   -1511.0709    473.82266    261.69526    185.25462    41402.763 
  325900    297.06323   -1518.0287     467.7813    282.41369    437.71503    41402.763 
  326000    302.61908   -1483.4979    500.28735    374.37475    843.88451    41402.763 
  326100    297.15915   -1491.6195    485.01139    326.48318    229.32829    41402.763 
  326200    305.28791   -1484.6985    490.01501    374.87442     248.9047    41402.763 
  326300    302.78122    -1475.458    475.73016    358.58476    559.60056    41402.763 
  326400    292.14361   -1482.8226    507.03696    334.80538    829.57933    41402.763 
  326500    298.98568   -1479.6467    476.09135    337.73005    261.89816    41402.763 
  326600    304.91172   -1499.3507    468.06811    336.58767   -41.182946    41402.763 
  326700    307.39202   -1459.3638    493.68467    413.31813   -344.01591    41402.763 
  326800    305.92208   -1441.4424    497.50645    428.46695   -51.841052    41402.763 
  326900    307.77432   -1438.4766    505.04444    447.28011   -236.52342    41402.763 
  327000    300.89706   -1474.2493    482.86341    358.47413    358.01268    41402.763 
  327100    305.51815   -1495.0611    508.96077    384.49046   -106.52903    41402.763 
  327200    299.06349   -1485.5717    455.80981    311.87256   -442.90498    41402.763 
  327300    300.30184    -1514.674    512.24017    344.75599   -487.49746    41402.763 
  327400    300.37575   -1523.4983    475.80685    299.82997   -421.27803    41402.763 
  327500    294.81665   -1489.0465    454.84656    288.38271   -1112.6892    41402.763 
  327600    301.95523   -1471.1636     493.9707    377.41422   -620.93142    41402.763 
  327700    291.78741   -1446.1138    479.03708    341.91632   -387.43556    41402.763 
  327800    311.03987   -1474.9584    505.38823    425.79168   -534.54705    41402.763 
  327900    288.91159   -1475.9928    461.87268    281.97164    21.164621    41402.763 
  328000    300.90937   -1492.7965    494.91338    352.03219   -595.71482    41402.763 
  328100    303.22101   -1449.6991    474.12515    384.71161   -599.13994    41402.763 
  328200    300.56073   -1475.6328    476.78067    349.49912   -461.48926    41402.763 
  328300    295.55437   -1511.2422    468.62126    283.27117   -209.39996    41402.763 
  328400    304.06653   -1497.3262    491.59051    358.34301    335.39448    41402.763 
  328500    304.85329   -1498.3589     491.8314    361.08067    439.90986    41402.763 
  328600     306.3773   -1504.0571    472.76479     343.1528    728.82467    41402.763 
  328700    301.62364   -1500.1146    465.70579    318.71076    489.97861    41402.763 
  328800     286.3705   -1548.4025    500.18177    236.47144    782.32188    41402.763 
  328900    302.06063    -1552.106    485.60243    288.57638    371.45329    41402.763 
  329000    288.92681   -1515.4743    489.34057    270.02638   -322.91598    41402.763 
  329100    296.49914    -1530.642     478.0905    277.57893   -625.38014    41402.763 
  329200    298.53708   -1497.7034    458.60355    300.17306   -395.57855    41402.763 
  329300    305.98627   -1497.7739    483.17843    358.09536   -655.58468    41402.763 
  329400    289.42341   -1500.7212    488.25889    285.92556   -797.09946    41402.763 
  329500    302.31444   -1494.2205    499.61307    361.61114    -233.0811    41402.763 
  329600    300.88247   -1474.9047    488.22598    363.11585    -227.3143    41402.763 
  329700    302.72128   -1473.2796    478.31335    363.07748    382.19956    41402.763 
  329800    304.62943   -1513.1019    492.56773    346.06975    18.254865    41402.763 
  329900    306.16782   -1483.7042    479.53035    369.33143   -299.46283    41402.763 
  330000      299.565   -1536.9932    466.06209    272.95313     153.3326    41402.763 
  330100    303.39214   -1547.8919    484.63982    297.80119    -145.0651    41402.763 
  330200    303.51712   -1523.0468    454.21079    292.77795    188.62404    41402.763 
  330300    297.22269   -1544.4825    464.93931    253.83317    321.53735    41402.763 
  330400    300.81384   -1521.4503    488.35419     316.3906    643.03063    41402.763 
  330500    298.87685   -1540.9508    450.62015    250.46653    745.96725    41402.763 
  330600    306.66716   -1518.7721    459.39675    316.37008    211.07645    41402.763 
  330700    307.34264    -1557.081     458.0859    279.78064     445.8154    41402.763 
  330800    297.84861   -1556.7081    448.08791    227.56419    363.12317    41402.763 
  330900    301.25002   -1538.9535    493.37519    305.86518    734.73561    41402.763 
  331000    308.55189   -1525.6771    458.29119    316.81467    206.27506    41402.763 
  331100    308.99618   -1511.2519    461.97201    336.91376    80.097846    41402.763 
  331200    306.00893   -1509.3097    476.72777    340.21052    -343.5382    41402.763 
  331300    297.19112   -1514.7825    472.85429    291.30651   -514.24148    41402.763 
  331400       302.09   -1540.6428    480.72589    295.29485   -225.17158    41402.763 
  331500    304.24453   -1497.5696    453.41652    320.72414   -485.29616    41402.763 
  331600    285.35106   -1498.1984    505.35957    287.27996   -389.26097    41402.763 
  331700    298.88191   -1524.4402    473.87211    290.25171     55.51892    41402.763 
  331800    302.29095   -1497.2674    489.73981    348.58557    166.25499    41402.763 
  331900    302.90937   -1491.6941    472.97365    340.16709    329.37422    41402.763 
  332000    290.26451   -1493.8876    493.08151     301.3551    543.93137    41402.763 
  332100    291.61277   -1431.5185    490.60615    367.29723   -408.50493    41402.763 
  332200    297.88419   -1442.5553    479.36671    373.15544   -842.42369    41402.763 
  332300    297.74679   -1447.4878    489.33508    377.57482    -866.5982    41402.763 
  332400    296.54692    -1453.187    477.34009    354.49789   -778.40926    41402.763 
  332500    296.76493    -1456.456    504.62141    379.48828   -538.62334    41402.763 
  332600     298.4369   -1453.4346    475.13857    360.52745   -319.97378    41402.763 
  332700    293.45394   -1450.8455    485.03944    350.66325   -674.51773    41402.763 
  332800    310.06653   -1499.0847    481.58972    373.50042   -219.30893    41402.763 
  332900    300.66232    -1524.859    476.56513    300.51316   -526.90347    41402.763 
  333000     299.3074   -1504.7647    483.05923    321.02314    -253.7617    41402.763 
  333100    303.18162   -1530.3474    461.99312     291.7546   -634.05382    41402.763 
  333200    292.81029   -1511.2626    481.90242    284.22162   -348.51116    41402.763 
  333300    291.48965   -1548.5548    485.07255    244.17498    41.488251    41402.763 
  333400    297.66368   -1496.1236    459.60605    298.83715    85.763034    41402.763 
  333500    301.17501   -1529.8881    491.05888    312.27782    278.65444    41402.763 
  333600    293.17616   -1504.1639    476.43189    287.49113     320.2323    41402.763 
  333700    303.55375   -1511.2345    479.28839    329.83217    234.02404    41402.763 
  333800    300.32136   -1478.4023    496.88767    365.76274    245.68309    41402.763 
  333900    296.29949   -1466.5632    477.35563    340.02728   -50.180219    41402.763 
  334000     297.6193   -1449.4885    501.40275    387.06982    180.77822    41402.763 
  334100    305.17426   -1466.8055    471.72294    373.96551    61.978932    41402.763 
  334200    299.17864   -1482.5963    480.20566    339.76035   -41.799603    41402.763 
  334300    303.62821   -1483.4191    486.88348    365.57667   -193.52987    41402.763 
  334400    304.08453   -1476.9924    491.86049    379.02752   -239.34225    41402.763 
  334500    301.79989   -1455.0168    506.98256    405.87604    27.782436    41402.763 
  334600    303.74663   -1450.3701    483.64475    395.91827    93.490299    41402.763 
  334700    303.61869   -1460.5948    485.31305    386.78784     568.3716    41402.763 
  334800    301.30164   -1457.3015    507.04347    401.41701    496.84224    41402.763 
  334900    295.99528   -1469.1895    486.41586    345.09648    829.52913    41402.763 
  335000    292.40252   -1438.0541    476.79986    350.49833    255.35516    41402.763 
  335100    300.56186   -1461.8383    467.81107    354.32909    434.47783    41402.763 
  335200    312.42892   -1466.9978    506.21558    440.81109    156.54641    41402.763 
  335300    291.87223   -1477.4104    491.04187    323.00503    640.83623    41402.763 
  335400    296.12129   -1475.6474    500.34299    353.13097   -80.697986    41402.763 
  335500    303.82532   -1473.0666    513.97389    403.90394    241.35378    41402.763 
  335600      303.897   -1499.5685    498.87931    362.62889    186.65781    41402.763 
  335700    300.31588     -1418.46    525.01544    453.80828     34.05774    41402.763 
  335800    300.89371   -1448.7355    505.08387     406.1934    196.36028    41402.763 
  335900    297.38834   -1445.7235    472.27499    360.67096   -95.876185    41402.763 
  336000    291.05069    -1438.441    484.45096    351.69802   -203.22399    41402.763 
  336100    302.01083   -1425.9025    488.46892    417.42296    163.71264    41402.763 
  336200    293.10769   -1433.6702    496.46706    377.71283    104.87327    41402.763 
  336300    299.54652   -1434.5178    500.09799    409.38155   -790.47493    41402.763 
  336400    297.81595   -1442.4119    514.95176     408.5777   -176.75301    41402.763 
  336500    307.05273   -1426.8754    490.92176    441.52149    61.699959    41402.763 
  336600    305.48427   -1487.2527    486.95456    370.14069    54.724953    41402.763 
  336700    303.06932   -1468.4038     478.2251    369.42632    581.64628    41402.763 
  336800    310.33008   -1500.3781    476.70781     368.5074    591.00374    41402.763 
  336900    289.70367   -1516.8709    476.31517    259.08945    470.64592    41402.763 
  337000    303.13818   -1506.7111    486.36697    339.56988    585.90814    41402.763 
  337100    295.04193   -1490.8929    468.63773    301.33807     304.4908    41402.763 
  337200    293.62645   -1504.3708    487.65373    300.52613    593.09711    41402.763 
  337300     294.9338   -1457.1294    472.76973    338.74843     132.4144    41402.763 
  337400    300.13379   -1467.0197    479.41017    358.82645    370.68865    41402.763 
  337500    286.66269   -1465.0912    480.37279    301.28454   -238.91226    41402.763 
  337600    304.12663   -1449.9543    492.60854    407.00249    -484.6472    41402.763 
  337700    308.10993   -1465.3048    468.31664    385.22971   -182.81065    41402.763 
  337800    308.54679   -1442.1686    486.70702    428.71608   -421.99302    41402.763 
  337900     300.9496   -1461.5038    470.25131    358.84328   -157.69237    41402.763 
  338000     303.5558   -1456.0513    491.74816    397.48435   -230.39314    41402.763 
  338100    286.40261   -1430.5996    487.54865    341.78531     -313.488    41402.763 
  338200    297.15711    -1440.075    501.16441    394.17158   -337.76752    41402.763 
  338300    303.78116   -1424.4236    495.24629    433.62121   -563.10703    41402.763 
  338400    296.13838    -1458.573    469.13696      339.076    -247.9855    41402.763 
  338500    303.83638   -1459.1043    485.49956    389.44143   -129.41926    41402.763 
  338600    283.27299   -1489.4877    468.42681     249.7355   -26.740086    41402.763 
  338700    303.88529   -1491.3942    462.55021     334.4216    333.58631    41402.763 
  338800    292.74472    -1494.694    479.31075    297.90442   -90.268668    41402.763 
  338900    296.50532   -1513.4182    477.15373    293.89372    173.40698    41402.763 
  339000    300.76638   -1540.1788    451.40955     260.5046    196.38528    41402.763 
  339100     297.2916   -1519.7476    490.89825    304.83617    98.202206    41402.763 
  339200    296.55069    -1511.123    483.92509    303.16383    132.50172    41402.763 
  339300     307.4378   -1512.5077    466.26824    332.96314     82.94412    41402.763 
  339400    301.98815   -1495.1176    501.24424     360.8814   -147.89241    41402.763 
  339500    292.10416   -1490.0569    484.24154    304.59874   -555.20378    41402.763 
  339600    291.30712   -1525.7064    464.05278    245.18486   -342.86901    41402.763 
  339700    299.87011   -1497.6616    472.74225     320.3337   -370.48841    41402.763 
  339800    302.49257   -1550.1361     468.2309    275.11251    173.44461    41402.763 
  339900    295.56653   -1502.4004    473.88501    297.43129   -55.934108    41402.763 
  340000    298.75633   -1517.4482    466.68913    289.49745   -176.79007    41402.763 
  340100     309.0168     -1515.13     460.2585    331.41467   -19.327638    41402.763 
  340200    312.27846   -1524.1548    481.93544    358.69895    608.38681    41402.763 
  340300    290.96254   -1532.4944    462.43935    235.23758    683.44203    41402.763 
  340400    299.50766   -1543.1516    477.73758    278.21307    1030.2217    41402.763 
  340500    298.52229   -1513.3662    483.81552    309.65588    631.24473    41402.763 
  340600     295.9751   -1522.5372    452.89035    258.13273    789.91473    41402.763 
  340700    293.94915   -1519.9764    490.25008    288.96459    870.92966    41402.763 
  340800    301.86688   -1524.7144    471.00711    300.50344    583.90495    41402.763 
  340900    295.40038   -1521.4423    491.63994    295.39893    19.217682    41402.763 
  341000    299.12107   -1519.4339    464.08624    286.54509    446.92521    41402.763 
  341100    320.36502   -1535.9205    475.01593    376.29113    352.30304    41402.763 
  341200    311.08324   -1557.6318        474.9     312.8247   -126.55183    41402.763 
  341300    304.65972   -1555.4048    499.03145    310.36641    142.68715    41402.763 
  341400     291.0204   -1531.9473     473.8298    247.43472    990.65963    41402.763 
  341500    304.06571   -1492.3122    482.25404    354.01681    474.97145    41402.763 
  341600    295.10499   -1478.8118    478.22796    323.29236   -121.40849    41402.763 
  341700     300.2929    -1489.464    462.96092    320.64663    445.06806    41402.763 
  341800    286.79956   -1496.4088    483.26614    273.47429    253.86582    41402.763 
  341900    287.07277   -1491.2114    494.17188    290.80311    80.442539    41402.763 
  342000    308.53885   -1508.1837     459.8457    335.80405   -388.47996    41402.763 
  342100    297.06591   -1543.1218    463.58681    253.13807   -533.92362    41402.763 
  342200    305.85554   -1479.0288    469.71712    362.79271    10.708197    41402.763 
  342300    305.32347   -1489.8612    493.65988    373.51616   -367.25659    41402.763 
  342400    294.96923   -1518.8374    485.19776    289.62744   -55.742461    41402.763 
  342500    302.84286   -1510.6698    480.07511    327.99444    67.089956    41402.763 
  342600    302.21576   -1467.2448    480.99568    369.52683    369.02481    41402.763 
  342700    304.54507    -1476.628     496.3945    385.99193     224.9253    41402.763 
  342800    298.41836   -1534.8191    465.76336    269.68454    99.414897    41402.763 
  342900    291.77313   -1478.3085    470.30272    300.92328   -485.75454    41402.763 
  343000    303.11242   -1477.2924    486.07329    368.57931   -550.01037    41402.763 
  343100    302.03874   -1488.9926    498.61264    364.60178   -473.40667    41402.763 
  343200    308.26732    -1429.356    502.18785    455.75578   -229.98264    41402.763 
  343300    314.44993   -1482.5686    495.07491    423.16612   -365.52564    41402.763 
  343400    298.45587   -1518.5162     469.8733    290.26562   -675.92338    41402.763 
  343500    310.53705   -1511.4493    479.78694    361.44381    5.1205516    41402.763 
  343600    296.54284   -1525.1999    492.84677    297.97338     33.31202    41402.763 
  343700    296.68425   -1555.1225    487.40435    263.24276   -163.63544    41402.763 
  343800    289.41654   -1560.3468    476.41488    214.42512    -251.7898    41402.763 
  343900    292.23146   -1580.1548    476.03243    206.86278   -241.76714    41402.763 
  344000    296.24215     -1535.36    478.46275    272.08029   -129.20393    41402.763 
  344100    310.59977   -1549.5413    471.18971    315.03603   -579.93139    41402.763 
  344200     307.0312    -1485.203    458.78357    350.95915   -563.97446    41402.763 
  344300    304.09563   -1529.7242     471.0995    305.58456   -152.33387    41402.763 
  344400    290.72465   -1540.4909     498.9472    262.68166   -296.08687    41402.763 
  344500    300.92516   -1519.3134     470.9643    301.63698    188.74276    41402.763 
  344600      298.912   -1535.6175    466.17425    271.51158    495.82739    41402.763 
  344700    290.00952   -1500.4576    488.87536    289.43507   -409.56044    41402.763 
  344800    299.88412   -1499.7669    490.14879    335.69776    83.197086    41402.763 
  344900    304.47132   -1511.3689    476.70467    331.23035    349.91044    41402.763 
  345000    305.69636   -1525.2848    508.54413    354.64968    323.59914    41402.763 
  345100    304.46509   -1491.6518    511.59631    385.81119    266.99041    41402.763 
  345200    298.28285   -1515.4948    499.77564    322.41319    325.95372    41402.763 
  345300      307.186   -1492.9005    485.11879    370.29126   -397.04962    41402.763 
  345400    291.27921    -1518.252    478.92215    267.38335    -1002.791    41402.763 
  345500    301.04437   -1488.2614    492.60203    354.86151    31.196426    41402.763 
  345600    311.24273   -1513.3578    479.59746    362.51165     299.6493    41402.763 
  345700    297.53511   -1471.8303    471.68683    334.63451    423.11503    41402.763 
  345800     301.9294   -1498.4056    515.55507    371.64069    662.29143    41402.763 
  345900    295.15446   -1486.8293    504.63008    341.89879    787.74465    41402.763 
  346000    291.94911   -1497.6754     487.7305    299.77356    530.76424    41402.763 
  346100    291.46836   -1483.8695     496.9586     320.6509    999.50978    41402.763 
  346200    297.63524   -1467.2126    481.61256    349.62705    399.23231    41402.763 
  346300     298.3412    -1457.539    510.53366    391.38886    258.24824    41402.763 
  346400    296.09887   -1454.0317    471.00598    345.30907    453.62954    41402.763 
  346500    295.67552   -1451.2312    489.33271    364.53707    13.040847    41402.763 
  346600    304.90735   -1448.5804    485.82074    405.09105    7.8056992    41402.763 
  346700    284.34533   -1453.8742    465.95259    287.68546   -380.76582    41402.763 
  346800    295.28826   -1542.4759    466.09452    248.31692    369.43883    41402.763 
  346900    295.56448   -1533.8778      473.431    265.49064     163.1848    41402.763 
  347000     290.7005   -1473.8572    523.08776    353.34764    132.63754    41402.763 
  347100    307.28175   -1495.5395    491.52116    374.48419    755.38335    41402.763 
  347200    297.80193   -1513.0193    495.67909    318.63468    462.86332    41402.763 
  347300    302.01818   -1497.7811     482.5523    339.66074   -20.493316    41402.763 
  347400    293.76502   -1488.7644     526.1151     355.2156    396.37291    41402.763 
  347500    314.10345   -1482.4042    470.43327    397.13456    138.50918    41402.763 
  347600    298.42014   -1503.5464    501.03616    336.23807    206.60992    41402.763 
  347700    291.58003   -1465.4004     491.2027    333.86511   -268.70681    41402.763 
  347800    290.63487   -1516.6244    493.76267    280.96087   -308.63139    41402.763 
  347900     300.8041   -1494.4672    489.25575     344.2316   -147.59365    41402.763 
  348000    295.80017   -1547.1904    513.37971    293.18412    78.775536    41402.763 
  348100    295.18989   -1517.1327    477.87715    285.00141   -132.01078    41402.763 
  348200    291.60353   -1509.5384     485.4429    284.07267   -107.64905    41402.763 
  348300    294.10122   -1508.1993    486.55489    297.72873    259.86817    41402.763 
  348400    304.92996   -1501.0157    467.62708    334.56354    114.68288    41402.763 
  348500    302.07872   -1526.8941    513.88623    342.15323    348.63178    41402.763 
  348600    294.12372   -1530.5934    473.04521    261.92589   -256.98759    41402.763 
  348700    305.63849   -1519.9243    483.85201    335.05835   -190.71245    41402.763 
  348800    300.73966   -1462.2394    493.50971    380.42426    73.277367    41402.763 
  348900    298.18467   -1470.8903    491.04506    357.84672   -355.58703    41402.763 
  349000    295.56086   -1528.5015    463.08279    260.50257   -593.75682    41402.763 
  349100     314.0882   -1493.9139    464.07089    379.19407    -1023.561    41402.763 
  349200    312.67631   -1537.2765    471.50966    336.93636   -130.22569    41402.763 
  349300     295.6308   -1477.1024    490.93066    340.06324   -101.43365    41402.763 
  349400    292.38414   -1483.5509    496.07557    324.19477   -204.94515    41402.763 
  349500    308.10719   -1517.1185    491.23819     356.3253   -52.028974    41402.763 
  349600    296.96192   -1471.8311    477.28542    337.66089    157.23189    41402.763 
  349700    317.18553   -1502.2011    490.19114    410.92213    619.35207    41402.763 
  349800    295.76616   -1519.0714    493.92274    301.69354    499.36162    41402.763 
  349900    294.20952   -1503.5338    483.85864    300.18381    141.40273    41402.763 
  350000    308.11503   -1480.1944    483.93439    385.98068   -13.850984    41402.763 
  350100    299.75363   -1468.3406    496.90011    373.29006    65.909845    41402.763 
  350200    293.16101   -1515.0786    489.45318    289.52976   -263.31853    41402.763 
  350300    298.17651   -1465.7283    469.08515     341.0122   -287.49463    41402.763 
  350400    298.25536   -1497.4237    504.50279    345.08812    -115.5157    41402.763 
  350500    296.57209   -1536.9519    471.89425    265.40011   -286.35667    41402.763 
  350600    292.10352   -1500.7958    473.61375    283.22909   -683.93596    41402.763 
  350700     289.1036   -1516.5392    481.34322    261.75719   -412.48661    41402.763 
  350800    291.46336   -1481.8218    465.85582    291.57335   -212.61209    41402.763 
  350900    302.78866   -1502.4568    477.32581    333.21498   -62.382162    41402.763 
  351000    288.67315   -1466.3326    485.23278    313.92234   -836.41346    41402.763 
  351100    308.36405   -1444.1008    484.24859    423.50561    -321.5452    41402.763 
  351200    303.34905   -1440.3039    464.22366    384.77972   -524.08868    41402.763 
  351300     308.8291   -1461.1807    530.49185    454.75526   -532.16721    41402.763 
  351400    290.95892   -1445.3461    466.53395    326.46427   -177.29127    41402.763 
  351500    302.12816   -1512.9967     512.3919    354.77808   -66.146322    41402.763 
  351600    294.81574   -1494.8205    472.77264    300.53069   -28.079096    41402.763 
  351700    296.97842   -1507.1214    486.09031    311.24946   -45.789105    41402.763 
  351800      296.574   -1504.7961     509.4059     335.0761    358.59927    41402.763 
  351900    293.53746   -1412.2646    498.14343    402.72285   -160.98553    41402.763 
  352000    308.17857   -1466.9283    476.89045    392.48793   -29.455812    41402.763 
  352100    298.44641   -1482.0161    441.23911    298.08916   -36.057402    41402.763 
  352200    307.98235   -1464.4981    484.40574    401.55312   -271.30729    41402.763 
  352300    292.00529    -1502.359    461.04007    268.65158   -265.61068    41402.763 
  352400    292.13831   -1449.2787    466.54738    327.83594   -436.59165    41402.763 
  352500    298.26121   -1507.7402    477.11917    307.41428    -828.2532    41402.763 
  352600    310.35635   -1461.4726    484.59342    415.41635    -453.7475    41402.763 
  352700    295.10921   -1458.1021    465.70086    331.49384   -171.06568    41402.763 
  352800    302.32686   -1434.6058     512.9124    434.58097   -139.04523    41402.763 
  352900    290.61346   -1481.0311    464.20251    286.89802    221.30774    41402.763 
  353000    297.72546   -1421.6272     496.8584    410.86306    420.44001    41402.763 
  353100    290.72322   -1429.1346    488.13912    363.22353   -285.27627    41402.763 
  353200    298.00468    -1377.556    496.86221    456.19067   -575.76635    41402.763 
  353300    294.40286   -1415.8566      498.746    403.61565   -621.42294    41402.763 
  353400     289.7884   -1360.9107    518.22034     457.3349   -389.82265    41402.763 
  353500    295.15032   -1425.9936    478.60726    376.69319   -178.50411    41402.763 
  353600    305.29616   -1420.8984    500.06012    448.75672   -195.40791    41402.763 
  353700    314.82547   -1435.1765    480.82905    457.99716   -414.77469    41402.763 
  353800    302.78835   -1412.1392    465.57185    411.77726   -656.96141    41402.763 
  353900    306.59037   -1461.5782    492.20904     406.0318   -911.49858    41402.763 
  354000    293.92792    -1463.019    469.77905    325.35569   -571.88132    41402.763 
  354100     300.6875   -1469.0434    455.51092     335.3875   -429.60321    41402.763 
  354200    300.54154   -1461.5669    463.42891    350.12719   -223.84622    41402.763 
  354300    297.02534   -1430.0188    447.36473    349.83699    409.52576    41402.763 
  354400    299.00458   -1471.7985     476.2372    345.80882    104.33174    41402.763 
  354500    299.37341   -1485.5611    452.98772    310.45138    535.37948    41402.763 
  354600    307.70496   -1454.9134    466.67214    392.15983    513.44119    41402.763 
  354700    311.11963   -1463.0471    453.04951    385.72215    512.68617    41402.763 
  354800     298.8219   -1499.9561    473.00929    313.60384    668.32797    41402.763 
  354900    291.99385   -1467.3944    460.32396    302.84879    629.83428    41402.763 
  355000     299.9027   -1456.4012    480.70472    369.70276    553.19482    41402.763 
  355100    305.16231    -1488.343    437.68199    318.33342    382.28316    41402.763 
  355200    289.98199   -1473.9445      474.776    301.72521    264.19571    41402.763 
  355300    305.54574   -1486.6547    464.42736    348.48724    39.810843    41402.763 
  355400    294.21999   -1397.3231    525.42568    448.00853    374.45522    41402.763 
  355500     296.2703   -1420.2796     486.0434    394.86763    32.769984    41402.763 
  355600    294.07577   -1439.2563    455.01807    335.02075    2.9345119    41402.763 
  355700    294.93791   -1388.2431    488.66058    423.54408   -572.97093    41402.763 
  355800    294.00472   -1395.1105    469.60522    393.43496   -365.08166    41402.763 
  355900    304.92337   -1397.8651    482.14616    452.20361    181.65222    41402.763 
  356000    297.51301   -1455.9034    477.52048    356.29587    280.81074    41402.763 
  356100    292.40993   -1468.5105    475.47036    318.74569    5.1206886    41402.763 
  356200    300.68992   -1437.0879     488.7962    400.63909    3.3527739    41402.763 
  356300    302.64857    -1417.839    481.54371    421.42223    68.642928    41402.763 
  356400    300.62852   -1418.0846    464.66688    395.23763   -72.886587    41402.763 
  356500    303.32729   -1451.3587    466.62296    376.02661    205.79734    41402.763 
  356600    295.60284   -1445.6152    466.73764    347.23204    47.864531    41402.763 
  356700    298.80471   -1418.3515    494.18203    416.30402   -314.71012    41402.763 
  356800    300.79873   -1441.8125    466.14957    373.75602   -528.66078    41402.763 
  356900    290.11167   -1423.4501    477.31777    355.34314    20.792799    41402.763 
  357000      306.135   -1449.9848    473.04508    396.41832   -52.412122    41402.763 
  357100    292.29909   -1460.3295     463.2492    314.20828   -435.06273    41402.763 
  357200    300.78521   -1389.2662    485.58579    445.67785   -849.49714    41402.763 
  357300    281.19387   -1419.7338    478.46136    320.19678   -622.66984    41402.763 
  357400    301.12341   -1438.1756    459.63809    372.33795   -366.16073    41402.763 
  357500    292.43887   -1436.5125    473.95851    349.36166   -654.63694    41402.763 
  357600     296.9753   -1416.1808    472.06592    388.15171   -24.728517    41402.763 
  357700    306.57443   -1441.3965    483.45479    417.38766   -586.66941    41402.763 
  357800    306.09439   -1443.1468    460.09902    390.12806   -440.36813    41402.763 
  357900    293.77151   -1408.3454    480.81018    390.35877   -31.254129    41402.763 
  358000    294.29839    -1446.034    483.75768    357.98137    -398.8308    41402.763 
  358100    304.43711   -1415.7986    487.48837    437.43094    -140.0678    41402.763 
  358200    306.44528   -1446.2477    468.08332    396.58567   -450.51307    41402.763 
  358300    303.13676   -1422.0965    470.01277    407.82394   -421.73731    41402.763 
  358400    293.56431   -1412.0665    462.03227    366.93024   -239.08596    41402.763 
  358500    300.25679   -1443.5537    462.41453    365.84861    53.450284    41402.763 
  358600      301.702   -1452.8592    469.02254    369.63446    626.23365    41402.763 
  358700    305.37682   -1439.2954    452.16869    382.83004   -54.857909    41402.763 
  358800    308.11239   -1465.4496     470.1216    386.90092    559.75315    41402.763 
  358900     300.7977   -1428.9728    442.76325    363.20474    458.60503    41402.763 
  359000    294.59322   -1443.9987    457.08805    334.66961    462.48855    41402.763 
  359100    294.47807   -1489.6344    443.58456    275.01386   -13.000194    41402.763 
  359200    305.26199   -1475.8348    443.53106    337.13787   -64.535494    41402.763 
  359300    288.91933   -1442.6772    466.52716    319.97651    105.32398    41402.763 
  359400    299.79521   -1444.0882     466.4194    367.24825   -14.346171    41402.763 
  359500    305.64668   -1470.7043    477.14128    377.60444    167.36213    41402.763 
  359600    299.71477   -1481.3761    445.05905    308.23907    244.34408    41402.763 
  359700    290.43206   -1441.2313    464.63338    326.31497   -14.975586    41402.763 
  359800    306.35831   -1486.5164    426.20016    314.04359     17.57523    41402.763 
  359900    304.62036    -1457.615    447.28402    356.23227    9.0968841    41402.763 
  360000    306.18022   -1459.6226    481.53719    395.47555    598.47324    41402.763 
  360100    296.16394   -1474.9481    486.38928    340.06789    410.77744    41402.763 
  360200    300.12621   -1474.0775    449.52824    321.85266    348.44372    41402.763 
  360300    295.84051   -1473.9257    463.95158    317.20162    100.91883    41402.763 
  360400    298.75408   -1438.7007    481.84064    383.38633    75.617933    41402.763 
  360500    286.27568   -1469.8199    457.95385    272.40075   -340.45898    41402.763 
  360600    301.87664   -1440.8773    471.82683    385.20412   -166.47499    41402.763 
  360700    292.47348   -1411.4298    476.52594    377.16706   -282.25749    41402.763 
  360800    302.84413   -1442.8951    472.92704    388.62677   -127.13288    41402.763 
  360900    301.55262   -1425.6059    464.12516    391.32028   -278.55999    41402.763 
  361000     308.0546   -1418.4194    461.22105    424.77124    -34.52957    41402.763 
  361100    296.67586    -1436.659    468.74976    363.01402    89.367965    41402.763 
  361200    303.35238   -1413.6684     473.5634    420.76989    378.21363    41402.763 
  361300    298.35812   -1442.9592    468.77828    364.28919     406.1064    41402.763 
  361400    293.48734   -1458.8745    466.98139    324.72601   -85.729041    41402.763 
  361500     297.4223   -1445.9729     476.5999    364.89883    119.63196    41402.763 
  361600    306.44227    -1461.523    441.59949    354.81303    284.59498    41402.763 
  361700    296.45153   -1495.0952    459.89635    294.71808    117.20601    41402.763 
  361800    302.19139   -1472.7383    451.85679    334.78502     -104.445    41402.763 
  361900    306.14686   -1479.0112    448.68796      343.088    189.34797    41402.763 
  362000    292.85139   -1452.3126    443.47272     304.9263    62.551401    41402.763 
  362100    313.63683   -1473.1951    502.94123    436.75829    575.51051    41402.763 
  362200    295.16014    -1437.047    458.19765    345.27418   -50.977285    41402.763 
  362300    295.01943   -1430.9613    463.93077    356.46176    104.62301    41402.763 
  362400    305.13695   -1413.9347    506.16921     461.1152    -37.85886    41402.763 
  362500    298.27176   -1437.6938    478.69464    379.08355    1.1047111    41402.763 
  362600     293.4819   -1497.4212    450.54851    269.72201    -26.45357    41402.763 
  362700    311.71233   -1469.2693    461.25277    390.36215    134.88212    41402.763 
  362800    309.48603    -1457.144    485.32334    416.57057    194.96007    41402.763 
  362900    303.16606   -1419.4218    470.49486    411.11215    32.320763    41402.763 
  363000    299.55055   -1460.1151    431.01094    314.71533    100.64933    41402.763 
  363100    298.14322   -1465.9396    473.81584    345.38223   -55.662652    41402.763 
  363200    292.55792   -1457.7871    450.82508    305.48762   -356.84151    41402.763 
  363300    307.97502   -1440.9544     454.5067    395.16488    278.14662    41402.763 
  363400    303.89084    -1445.136    483.05491     401.2094    630.25362    41402.763 
  363500    310.04836   -1422.3679     483.8133    452.35928    677.59516    41402.763 
  363600    309.82557   -1390.4134    469.64683     469.1479    436.27457    41402.763 
  363700    304.17751   -1412.5902    464.27367    416.25999    477.52242    41402.763 
  363800     304.3388   -1433.4174     482.4322    414.31488   -20.943856    41402.763 
  363900    308.58002   -1456.1874    475.75359    403.89294    202.16974    41402.763 
  364000    305.28664      -1479.3    466.85974    357.11197    119.63504    41402.763 
  364100     299.8377   -1457.6281    455.89835    343.37789   -672.33365    41402.763 
  364200      303.392   -1420.3234    486.99219    427.72147   -576.43091    41402.763 
  364300    309.14814   -1478.3758     432.9291     341.4287   -234.05923    41402.763 
  364400    305.12375   -1423.5726    461.45933    406.70822   -603.55168    41402.763 
  364500    292.29783   -1423.5079    480.97524    368.75026   -335.27692    41402.763 
  364600    308.95661   -1447.4111    461.84213    400.44724    335.19895    41402.763 
  364700     298.3253    -1445.886    477.15578    369.59261     260.1457    41402.763 
  364800    298.46185   -1469.5099    470.79633    340.22189    130.45849    41402.763 
  364900    312.93694   -1433.0964    488.97186    459.74785     607.5985    41402.763 
  365000    296.59437   -1462.5025    490.82145    358.87666   -272.04885    41402.763 
  365100    295.89729   -1490.1749    487.53195    324.78751    58.035658    41402.763 
  365200    295.15016   -1465.8174    492.17765    350.43906    309.80562    41402.763 
  365300     298.2065   -1458.4813    490.29992    369.60853    347.07343    41402.763 
  365400    289.53509   -1454.6054    486.69037    330.97387   -201.73894    41402.763 
  365500    296.16666   -1446.1039    492.07559    374.61058    151.30985    41402.763 
  365600    296.70461   -1430.0965    451.33165    352.28744    534.59019    41402.763 
  365700    293.52602    -1443.554    477.33328    350.57198    553.15271    41402.763 
  365800    297.78611   -1448.0316    469.68685    357.55919    96.521534    41402.763 
  365900    301.45474   -1469.1303    476.56009    359.79168    138.80635    41402.763 
  366000    303.16867   -1473.9897    482.53189    368.59295   -105.04737    41402.763 
  366100     301.8606   -1439.4457    480.64506      395.382    130.03701    41402.763 
  366200    293.74703   -1418.5456      475.548    374.78656    50.353384    41402.763 
  366300     303.2811   -1469.9168    477.06658    367.70497    85.590816    41402.763 
  366400    301.73974   -1488.4804     443.6587    308.81871   -351.42266    41402.763 
  366500    300.32352   -1458.5808    484.89901    373.60524   -526.69985    41402.763 
  366600    307.66769   -1429.6201    475.50235    426.11621   -506.08517    41402.763 
  366700    298.03171     -1436.33    463.02089    363.69662    -463.6305    41402.763 
  366800    290.57793     -1455.96    467.03774    314.64489    -333.2354    41402.763 
  366900    297.17866   -1504.1775     463.9986    293.00002   -65.557562    41402.763 
  367000    301.30138    -1448.368    480.22002    383.52588    64.376513    41402.763 
  367100    301.84243    -1458.527    489.12008    384.69415    62.254559    41402.763 
  367200    296.55536   -1450.9311    479.72103    359.17258    217.01053    41402.763 
  367300    302.95758   -1467.3171    475.67127      367.458    121.51942    41402.763 
  367400    299.49321   -1472.4502    483.73195    354.84396    161.20037    41402.763 
  367500    300.93789   -1502.7631    466.70958    313.98974    32.462272    41402.763 
  367600    297.17433   -1510.8656    475.82213    298.11598    488.80775    41402.763 
  367700     301.0862   -1503.1261    490.86187    338.44429    217.69415    41402.763 
  367800      289.913   -1444.8996    487.25695    342.94156    265.97756    41402.763 
  367900    306.44633    -1457.305    453.38619     370.8359    283.73981    41402.763 
  368000    311.42565   -1443.4493    495.86285    449.50609    156.26954    41402.763 
  368100    300.93466    -1446.166    477.50013    381.36285    71.244565    41402.763 
  368200    300.79954   -1461.5207    479.52199    367.42382    704.98657    41402.763 
  368300    294.44238   -1467.2011    480.96099    334.66353    449.93323    41402.763 
  368400     302.0957   -1464.8894     488.5291      378.877    82.868289    41402.763 
  368500    290.04974   -1461.5907     505.0931    344.70008    218.76475    41402.763 
  368600    294.14796    -1480.368    449.35115    288.56591   -470.21824    41402.763 
  368700    309.30563   -1468.9041    516.17479    434.85257   -343.46369    41402.763 
  368800    299.32246   -1461.3104    462.46863    343.95447   -490.42196    41402.763 
  368900    304.25305    -1460.115    483.97249     388.7729   -139.99715    41402.763 
  369000    294.48128   -1467.3475    470.91741    324.64801   -463.69037    41402.763 
  369100    292.65707   -1438.8218    473.86196    347.93462   -496.56509    41402.763 
  369200    300.69212   -1454.9512    462.79229    356.78171    6.3406477    41402.763 
  369300    306.13066   -1466.7641    468.26211     374.8366   -20.517144    41402.763 
  369400    310.12206   -1490.1752     471.7137    372.78299   -108.29418    41402.763 
  369500     295.0471   -1445.6667    454.04299    331.99268     347.8058    41402.763 
  369600    313.03167   -1498.3659    459.77351    365.70497    96.406475    41402.763 
  369700    295.12686   -1493.7269     464.0022    294.24954   -295.29843    41402.763 
  369800    289.98654   -1485.2766    475.24873    290.88631   -820.97486    41402.763 
  369900    300.47278   -1428.5325    451.70294    371.12708     190.5571    41402.763 
  370000    298.66012   -1413.8659    484.58959    410.54863   -431.07602    41402.763 
  370100    295.62249   -1483.5349    449.46652    292.12935   -361.08663    41402.763 
  370200    298.39746   -1484.1137    461.39659    315.92941   -779.22827    41402.763 
  370300    291.77144   -1437.8641    461.73458    332.79192   -942.72735    41402.763 
  370400    309.61854   -1500.8542    481.90123    370.03271   -1060.1894    41402.763 
  370500    291.79561   -1484.6134    467.40998    291.82643   -707.19312    41402.763 
  370600    302.87835    -1483.871     445.4866    320.36398   -517.76384    41402.763 
  370700    300.76573   -1446.6635    481.82942     384.4368    -409.3131    41402.763 
  370800    291.33824   -1490.5938    495.98492    312.36918   0.19528414    41402.763 
  370900    313.87195   -1478.2458    445.11054    374.93171    480.36316    41402.763 
  371000    296.44103   -1510.3429    454.88536    274.41219    265.57753    41402.763 
  371100    307.49261   -1536.2719    463.89681    307.07336    334.73973    41402.763 
  371200     303.0472   -1533.7793    490.01497     315.7415    538.57959    41402.763 
  371300     309.5032   -1563.0652    443.90201    269.30504    561.93765    41402.763 
  371400    293.87025   -1511.2097    452.81458    259.94187    966.99627    41402.763 
  371500      295.079   -1486.5304    476.26637    313.49551    234.02772    41402.763 
  371600    308.84915   -1488.6767    445.10465    341.96199    435.10877    41402.763 
  371700    295.47007   -1494.5091     475.7264    306.73125    109.56637    41402.763 
  371800    295.44035   -1487.1046    483.65753    321.93355    179.40953    41402.763 
  371900    301.18579    -1508.664     454.2534     296.7447    356.29195    41402.763 
  372000    294.97667   -1530.2674    462.14012    255.17321     205.5403    41402.763 
  372100    306.22866   -1520.1932    442.36227    295.94733    208.57254    41402.763 
  372200    297.20047   -1480.9115    454.42085    306.78604    575.56284    41402.763 
  372300    293.38199   -1486.5586    482.94255    312.53049    152.17114    41402.763 
  372400     296.3395   -1471.3599    483.86103    341.91544    318.66028    41402.763 
  372500     299.5797   -1455.7433    448.97008    337.17701   -112.60562    41402.763 
  372600    289.81241   -1484.5134    479.83958    295.45912     -108.883    41402.763 
  372700    298.71986   -1477.5713    464.18482    326.70638   -112.37283    41402.763 
  372800    299.30651   -1445.7029    475.47913    372.50087   -140.58435    41402.763 
  372900    308.52064   -1473.2782     468.5187    379.30085   -724.85204    41402.763 
  373000    299.54476   -1459.7881    495.39252    379.39785   -158.53074    41402.763 
  373100    300.26195   -1477.4248    470.07485    339.66094   -203.83593    41402.763 
  373200    307.01803    -1460.429    467.86848    384.75897   -279.08251    41402.763 
  373300    303.93356    -1513.775    441.90111    291.60827   -342.22357    41402.763 
  373400    291.16348   -1489.6722    439.79569    256.31753   -595.78534    41402.763 
  373500    308.30223   -1532.6668    456.03824    306.45195   -556.33599    41402.763 
  373600    303.18897   -1496.2661    482.87183    346.74757    182.39077    41402.763 
  373700    295.45831    -1511.849    461.87008    275.48225     -234.492    41402.763 
  373800     298.1415   -1537.7329    464.70531     264.4707   -40.267339    41402.763 
  373900    314.37646   -1525.5807    456.29994    341.04952    563.82207    41402.763 
  374000    291.01805    -1524.527    470.68405    251.69874    729.50598    41402.763 
  374100    303.46515   -1488.7329    464.48531    337.13317    358.77872    41402.763 
  374200    301.31893   -1513.3564    474.44113    312.83732   -120.10087    41402.763 
  374300    297.26849   -1514.9261    467.58691    286.24264   -254.12026    41402.763 
  374400    300.11075   -1496.2153    451.24248    301.35978    287.30805    41402.763 
  374500    307.62183   -1505.8577    482.13816    356.30864   -141.64658    41402.763 
  374600    300.81658   -1485.3342    491.98629    356.15112     150.1453    41402.763 
  374700    304.28994   -1462.3011    480.73437    383.51419    144.14842    41402.763 
  374800    299.19097   -1478.2428    470.99078    334.95434    157.22991    41402.763 
  374900    301.59634   -1516.4007    471.99269    308.58908    248.87603    41402.763 
  375000    291.67297   -1473.3616    494.87772    329.99583    173.25789    41402.763 
  375100     300.1366   -1461.4432    485.26927    370.27465    232.24162    41402.763 
  375200    303.44471   -1495.6633    484.74199    350.36783    243.69159    41402.763 
  375300     302.4915   -1487.7748    470.58917    339.82725   -106.64145    41402.763 
  375400    289.57714   -1485.4067     491.6491    305.31998   -840.19987    41402.763 
  375500    293.90135   -1452.2988    483.54683    349.72453   -751.44838    41402.763 
  375600    300.29807   -1479.9953    478.36947     345.5471   -1177.9064    41402.763 
  375700    298.51103   -1451.5864    467.43682    355.00642   -650.75275    41402.763 
  375800     307.2094   -1459.3644    462.86737     381.6809   -265.85856    41402.763 
  375900    307.31649   -1451.2777    490.63586     418.0166    353.06232    41402.763 
  376000    304.52844   -1459.1534    505.08106    412.07855    52.316821    41402.763 
  376100    301.57333   -1468.3655    475.77057    360.29891    4.2487197    41402.763 
  376200    296.60498   -1442.4357    459.47465    347.64418    74.341691    41402.763 
  376300    300.14507   -1466.2756     475.8399    356.05078    86.201394    41402.763 
  376400    301.85244   -1490.7533    489.13542    352.52809    610.08624    41402.763 
  376500    311.59482   -1440.7683    503.33574    460.41896    1206.9737    41402.763 
  376600    301.36656   -1414.3063    492.61256    430.27254    876.71976    41402.763 
  376700    302.72337   -1475.7646    489.80522    372.09373    380.03954    41402.763 
  376800     297.8717    -1446.007    487.58076    377.86168    126.99146    41402.763 
  376900    303.03951   -1455.0998    491.43708    395.80863    229.01137    41402.763 
  377000    300.11553   -1445.0347    485.20772    386.52708    483.11264    41402.763 
  377100    299.30946   -1467.2626    493.49108    368.96636    280.23113    41402.763 
  377200    293.34681   -1486.9499    481.45244    310.49123   -77.595213    41402.763 
  377300    302.15108   -1458.3942     471.1448     368.2363      238.813    41402.763 
  377400    301.91484   -1452.4741    476.57131    378.52317   -85.529985    41402.763 
  377500    300.18078   -1455.1513    459.26766    350.76304   -339.99273    41402.763 
  377600    293.90066   -1482.0063    481.98873    318.45583   -181.74777    41402.763 
  377700    299.35449   -1494.9751    472.55064    320.51543    35.610784    41402.763 
  377800    303.30338   -1440.0517    462.28542    382.88887    95.037424    41402.763 
  377900    299.49439   -1450.6681    493.35757    386.25693     471.3239    41402.763 
  378000    309.78918   -1449.3087    474.57194     415.0144    36.950543    41402.763 
  378100    304.77188   -1511.6022    470.20405    325.84483   -24.466372    41402.763 
  378200    296.06534   -1473.7155    473.28593    327.75478   -66.015504    41402.763 
  378300    301.41478   -1442.8873    481.74282    391.03809    245.49703    41402.763 
  378400      298.734   -1489.5535    472.14195    322.74478   -485.71997    41402.763 
  378500    294.19518   -1464.8315    478.34672    333.30982   -533.40758    41402.763 
  378600     303.0957    -1461.192    465.01236    363.54371   -346.34381    41402.763 
  378700    302.43234   -1455.8392    497.28889    398.19722   -135.37679    41402.763 
  378800    305.56772   -1450.7842    491.40708    411.43606   -49.149538    41402.763 
  378900     296.2957    -1455.292    497.41147    371.33729    12.849496    41402.763 
  379000    296.22899   -1419.8859      484.552    393.58465    83.960371    41402.763 
  379100    301.29437   -1505.8294    481.33319    327.14627    204.10601    41402.763 
  379200    298.78733   -1462.2414    484.83574     362.9899    740.89782    41402.763 
  379300    293.52192   -1442.0402    496.55751    371.29161   -105.92982    41402.763 
  379400    302.94587   -1417.6123    487.96639    429.40539   -213.96779    41402.763 
  379500     302.0935   -1407.4936    508.22332    455.95717    -191.6652    41402.763 
  379600    296.89823   -1416.6657    476.62088      391.876   -258.96009    41402.763 
  379700    290.60055   -1430.7087     516.3648    389.32479   -133.99902    41402.763 
  379800    292.49747   -1441.7484    458.29212    328.72222   -434.20683    41402.763 
  379900    289.80701    -1461.381    500.34481    339.07261   -489.89081    41402.763 
  380000    302.35445   -1457.7505    504.98592     403.6335   -83.960145    41402.763 
  380100     311.8381   -1433.1166    470.26228    436.08856    392.68554    41402.763 
  380200    291.52857   -1451.0138    487.63908    344.45714   -189.00726    41402.763 
  380300    299.60771   -1400.1072     480.0649    424.03358   -312.80791    41402.763 
  380400    296.40615   -1445.1577    470.81562    355.37115    -546.0389    41402.763 
  380500    306.01768   -1455.5113    506.50892    423.82937   -349.58949    41402.763 
  380600    295.50936   -1486.0032    488.16561    327.85264   -512.70488    41402.763 
  380700    297.34976   -1437.8417    468.11529    364.21999   -277.87456    41402.763 
  380800    299.94306   -1467.0683    482.72784     361.2398   -162.62732    41402.763 
  380900    304.21665   -1485.7809    477.70824    356.67947    203.39791    41402.763 
  381000    308.11235   -1490.0166    482.94645     375.1586    341.47512    41402.763 
  381100    315.47008   -1461.2754    509.89684    463.85781    234.42933    41402.763 
  381200    307.25233   -1428.4331    482.39936    432.33685   -69.362481    41402.763 
  381300     295.3919   -1433.1253    484.35324    376.39125   -211.93032    41402.763 
  381400    303.57271   -1428.7787    471.46271    404.54732   -32.183745    41402.763 
  381500     294.1631    -1445.412    474.13884    348.37749    56.641793    41402.763 
  381600    305.41637   -1443.8904    484.39105    410.63483    284.29465    41402.763 
  381700    305.30329   -1431.1643     497.5391    436.00168     51.92481    41402.763 
  381800    301.09424   -1431.2848    460.04967    379.50953   -63.420707    41402.763 
  381900    299.39071   -1418.5514     482.5554    407.10639   -305.74286    41402.763 
  382000    309.43232   -1401.2655    503.08754    489.97232   -188.84799    41402.763 
  382100    294.31209   -1407.3996    483.55044    396.46989    123.47697    41402.763 
  382200    308.34608   -1397.2386    500.68096    486.71957   -56.387073    41402.763 
  382300    302.32035   -1460.8469    466.16029    361.55843    484.05044    41402.763 
  382400    304.66163   -1425.9046    501.48686    442.33065    454.77514    41402.763 
  382500    313.15922   -1412.4593     482.1664    474.57665     953.2525    41402.763 
  382600    302.88903   -1411.6434    486.88955    434.04243    406.71558    41402.763 
  382700    299.94914   -1384.8404    492.94933     453.7165    247.77314    41402.763 
  382800    308.00164   -1423.9395    498.97327    456.76581    168.19159    41402.763 
  382900    305.05673   -1481.7391    486.96156    373.74331    179.40188    41402.763 
  383000    292.46849   -1459.6862    483.84952    336.21185    255.21716    41402.763 
  383100    300.10037   -1459.7965    493.56162    380.05113    513.74289    41402.763 
  383200     294.5904   -1432.0856    495.51895    385.00104    250.40387    41402.763 
  383300    313.01763   -1459.7644    496.03873    440.50871    434.04688    41402.763 
  383400    298.02965   -1464.9544    488.37309     360.4152    299.97073    41402.763 
  383500    292.01947    -1482.821    492.48238     319.6955    610.62905    41402.763 
  383600    308.55581   -1469.2201    463.71195    378.70998    554.55723    41402.763 
  383700    297.98054   -1437.0494    492.99558    392.72233    825.58155    41402.763 
  383800    296.43857   -1436.5615     492.4981     385.7954   -49.393386    41402.763 
  383900    312.25501   -1444.6245    473.62346    429.81211    47.000051    41402.763 
  384000    302.28356   -1461.3603    493.84171    388.56149   -99.121622    41402.763 
  384100    300.56983   -1452.9422    498.74808    394.19798   -195.11815    41402.763 
  384200    303.66028   -1463.5087    474.57247    373.31999   -335.11884    41402.763 
  384300    288.27921   -1448.5614    494.58079    339.27424   -182.03589    41402.763 
  384400    293.61226   -1427.2135    487.93912    377.90522   -103.85939    41402.763 
  384500    302.54095   -1454.6816    512.60757    415.16067    -188.5897    41402.763 
  384600    293.86383    -1435.306    496.79231    379.79448    276.12024    41402.763 
  384700    306.20412   -1465.2549    490.28071    398.69395    444.85177    41402.763 
  384800    303.09477   -1476.4884    486.95828     370.1891    153.15418    41402.763 
  384900    304.00539   -1528.2602     466.6331    302.17727   -264.22718    41402.763 
  385000    294.13059   -1543.7036    481.63106    257.43229   -336.79577    41402.763 
  385100    305.55206   -1515.1437    457.81205    313.41127   -175.41971    41402.763 
  385200    290.49034    -1510.723    482.77057    275.22187   -641.46942    41402.763 
  385300    293.55997   -1486.2436    494.50168    325.20309    37.879656    41402.763 
  385400    301.72924   -1456.1466    474.20621    371.65292   -64.732153    41402.763 
  385500    302.26792   -1479.5132    476.33132    352.82802    55.014732    41402.763 
  385600    305.86782   -1429.3322    497.03538    439.86262    543.29542    41402.763 
  385700     301.1141   -1443.5461    483.97478    391.26239   -56.433234    41402.763 
  385800    289.32298   -1419.6553    466.27858    344.56063    182.83525    41402.763 
  385900    304.27121   -1438.6259    488.07029    414.44123    634.56713    41402.763 
  386000    298.58573   -1454.7558    489.65677    374.39213    344.90058    41402.763 
  386100    297.41252    -1469.374    469.94167    334.79562    380.61282    41402.763 
  386200    300.28935   -1481.4771    495.49887    361.15552   -104.45066    41402.763 
  386300    295.53358   -1444.9503    479.21679    360.06537   -511.43567    41402.763 
  386400    292.02838   -1456.1625    494.56135    348.47299   -67.936029    41402.763 
  386500    310.56626   -1445.6892    511.66863    459.21669    682.43395    41402.763 
  386600    298.24181   -1407.5077     485.8589    416.29945    266.39371    41402.763 
  386700    292.56845   -1426.2295    493.20827    379.47571    -74.62782    41402.763 
  386800    306.87557   -1438.6001     489.3469    427.42715    156.60867    41402.763 
  386900    301.10344   -1412.7909    490.60731    428.60234   -158.52569    41402.763 
  387000    298.57333   -1429.4607       494.81    404.78483    226.49434    41402.763 
  387100    298.96973   -1439.2194     498.3117    400.30616    70.292401    41402.763 
  387200    295.48015    -1424.647    486.74231    387.65442   -142.00204    41402.763 
  387300    301.56142   -1456.8759    478.85385    374.81838    300.75457    41402.763 
  387400     291.0756   -1479.3106    483.40972    309.89893    406.81152    41402.763 
  387500    313.01396   -1456.0749      488.653    436.79598    958.68222    41402.763 
  387600    305.90128   -1483.3438    476.41164    365.37741    343.51225    41402.763 
  387700    300.88821   -1486.4084    514.76583    378.17781     105.9426    41402.763 
  387800     297.8759   -1434.1327    476.61411    378.78818    14.704241    41402.763 
  387900     305.6433   -1474.3249    511.89863    408.72598    43.617799    41402.763 
  388000    297.03107   -1472.1873    479.04821     339.3777    215.09637    41402.763 
  388100    301.08881   -1457.8186    497.71019    390.61187   -31.783566    41402.763 
  388200    303.66854   -1497.6416     476.4834    341.13501   -220.77105    41402.763 
  388300    298.81816   -1486.4507    463.43808    317.52122    238.78489    41402.763 
  388400    298.41116   -1477.3887    478.18032    339.49961    387.74099    41402.763 
  388500    293.63807   -1495.0452    491.11946    313.36962    118.60215    41402.763 
  388600    289.96732   -1461.0924    493.83522    333.57074    140.40858    41402.763 
  388700    305.64812   -1527.6291    488.82589    332.37066    272.56338    41402.763 
  388800    311.93201    -1500.653    491.58974    390.30087    235.63487    41402.763 
  388900    304.30314    -1514.619    494.83286    345.35398    676.49382    41402.763 
  389000    286.19224   -1490.5605      473.053    266.38504    322.86788    41402.763 
  389100    295.54385   -1520.3254    498.50244    304.02193    317.18697    41402.763 
  389200    311.74925   -1558.7137    453.93847    293.76907    247.22711    41402.763 
  389300    292.68061   -1522.1605    510.74841    301.58803    35.834075    41402.763 
  389400    306.92921   -1536.2696     474.3004    314.95175    317.54357    41402.763 
  389500    305.55909   -1530.5671    493.63135    333.83872    142.61923    41402.763 
  389600     292.7786   -1566.8323    474.96274    221.57015   -843.57061    41402.763 
  389700    302.45932   -1542.6186    491.31966     305.5696    -537.5507    41402.763 
  389800    293.38371   -1534.2074    466.53467    248.48154   -285.73532    41402.763 
  389900      301.482   -1542.5766    480.72754    290.63509    74.467165    41402.763 
  390000    302.55475   -1568.8867    474.88244    263.29233   -740.06996    41402.763 
  390100    299.45958   -1557.7583    471.32356    256.97661    13.230167    41402.763 
  390200    303.77017   -1550.7959    473.10155    285.05486    -61.58159    41402.763 
  390300    305.02808   -1506.3851    479.77489    341.78206     334.4527    41402.763 
  390400    303.00554   -1510.9057    473.16923    321.58251   -298.83287    41402.763 
  390500    301.80045   -1500.2059    508.67457    362.38144   -556.76273    41402.763 
  390600    307.27261   -1504.3785    471.58482    345.66788   -537.85649    41402.763 
  390700    313.15497   -1559.4745    496.26894    341.64493   -753.48271    41402.763 
  390800    303.69378   -1510.2384    463.73583    315.90393    -258.3983    41402.763 
  390900    299.27856   -1546.7268    487.27008    283.14257   -659.69835    41402.763 
  391000    301.73222   -1524.2761    491.01324    320.34383   -357.27859    41402.763 
  391100    295.69034   -1541.2442     484.8129    270.07076   -558.58439    41402.763 
  391200    296.51146   -1527.4975    473.96345    276.65172   -114.69359    41402.763 
  391300    307.46285   -1527.2824    446.13839    298.17101    -485.2889    41402.763 
  391400    297.58672    -1541.458    483.63128    277.18271     52.90462    41402.763 
  391500    297.04153   -1597.3881    480.20059    215.37615    143.63243    41402.763 
  391600    303.70685   -1521.2545    477.76239    318.97295    158.16119    41402.763 
  391700    311.28131   -1516.3908    471.51619    351.57042   -4.5278501    41402.763 
  391800    299.91598   -1506.0966    477.91329    317.27552    6.4614335    41402.763 
  391900     307.6891   -1497.1253     491.2846    374.48928    483.73318    41402.763 
  392000    302.19355   -1476.4265    485.87944     365.1292     51.98085    41402.763 
  392100    293.93859   -1504.3701    488.33272    302.60617   -414.62448    41402.763 
  392200    310.17125   -1481.8431    497.12666     406.7488   -722.62385    41402.763 
  392300    295.32404   -1483.2727    464.43613    306.02222   -447.93268    41402.763 
  392400    303.75543    -1484.722    509.31459    387.27569   -660.72817    41402.763 
  392500    292.83575   -1486.7537    488.82552    315.76789   -376.90217    41402.763 
  392600    294.38516   -1498.0705    500.65785    323.23426   -760.58532    41402.763 
  392700    293.22809   -1481.2815    485.92503    320.09966    121.36785    41402.763 
  392800    304.39962   -1551.0891    477.21654     291.7004   -54.619497    41402.763 
  392900    303.94542   -1539.6772    457.88844    281.74662    214.66719    41402.763 
  393000    297.10274   -1560.9799    488.46007    260.31852    -334.1595    41402.763 
  393100    294.99049   -1564.8994    470.80326     229.2663   -180.71551    41402.763 
  393200     301.5675    -1522.334    488.87032    319.40408     -478.823    41402.763 
  393300    293.88839   -1520.1122     481.1969      279.503   -982.52606    41402.763 
  393400    302.44944    -1495.118    480.43731     342.1435   -296.05028    41402.763 
  393500    305.07273   -1515.8655    481.77894    334.50602   -290.95248    41402.763 
  393600    303.82746    -1509.292    483.30198    337.01618   -140.34583    41402.763 
  393700    303.51738   -1503.1518    500.83777    359.30114   -245.37325    41402.763 
  393800    294.24253   -1486.5012    488.82167    322.32752   -339.71081    41402.763 
  393900    312.50226   -1493.3057    505.93503    414.55169   -128.98496    41402.763 
  394000    296.19051   -1486.1906    475.18581    317.74117   -436.49327    41402.763 
  394100    291.63089   -1515.0428    490.84795    284.09607   -334.83752    41402.763 
  394200    313.28166   -1525.9795    502.85161      382.291    270.50949    41402.763 
  394300    290.36631   -1522.6484    495.96043    275.92987    4.2980514    41402.763 
  394400     301.7685   -1503.5322    512.27661    362.51384   -86.442788    41402.763 
  394500    295.30254   -1489.5569    505.98878    341.19424   -33.144094    41402.763 
  394600    298.93772   -1506.5668    494.55395    329.05738   -406.16526    41402.763 
  394700    297.96276   -1514.9009    487.20326    308.99875   -39.878099    41402.763 
  394800    297.24002   -1545.3107    490.12501    278.26847   -184.18726    41402.763 
  394900     297.1182   -1507.2317    520.14938    345.82532   -86.499635    41402.763 
  395000    299.37413   -1460.0598    495.04078      378.009   -141.54388    41402.763 
  395100     307.6843    -1442.702     497.2237    434.83007     132.4217    41402.763 
  395200    290.98232   -1479.3181    498.38986    324.45313    585.81265    41402.763 
  395300    300.85386   -1478.7251     552.9579    423.89904    928.06802    41402.763 
  395400    293.70461   -1471.7956    498.31894    344.11718    660.14311    41402.763 
  395500    304.65779   -1492.4785    489.31118    363.56383    1060.5813    41402.763 
  395600    302.31287    -1473.934     522.4644    404.74196    588.45079    41402.763 
  395700    300.35736     -1494.28    496.34193    349.50082    436.33398    41402.763 
  395800    295.72757   -1479.5958    471.50492    318.57818   -39.272168    41402.763 
  395900    302.57002   -1465.6233    524.12627    415.86816   -355.62712    41402.763 
  396000    297.63284   -1475.6166    470.76578    330.36557   -1014.4658    41402.763 
  396100    293.25455   -1469.1513     477.8735    324.29706    -618.5218    41402.763 
  396200     306.2963   -1477.0056    516.62848    413.70456   -722.69744    41402.763 
  396300    293.00887   -1450.3192    493.08934    357.24284   -430.04356    41402.763 
  396400    306.95195   -1484.3971    503.17074    395.79661    318.48959    41402.763 
  396500    295.09161   -1476.8688    488.29262    335.23988   -352.66052    41402.763 
  396600    295.26491    -1456.261    526.52991    394.86243    24.079625    41402.763 
  396700    307.35974   -1494.0017    493.78983    378.64059   -60.400315    41402.763 
  396800    300.49643   -1480.4438    502.30557    369.92458    326.47208    41402.763 
  396900    292.99223   -1475.0875    517.56909    356.87962    493.61721    41402.763 
  397000    299.99738   -1492.7186    489.66816    342.77357     405.3198    41402.763 
  397100    307.61126   -1516.2605    510.34445    374.06468    529.30092    41402.763 
  397200    304.17418   -1459.2893    534.23956    439.51189     44.61606    41402.763 
  397300    298.20168   -1485.8052    490.77204    342.73514   -222.96611    41402.763 
  397400    300.74301   -1505.6055    502.95247    346.51598   -101.82282    41402.763 
  397500    296.28821   -1527.6791    487.69733    289.20242   -67.581607    41402.763 
  397600    292.43708   -1508.0339    487.42412    291.29778   -766.49121    41402.763 
  397700    297.69291   -1518.8268    521.90952    338.56858   -250.03225    41402.763 
  397800    289.42198   -1514.0856    483.26797    267.56385    -65.21278    41402.763 
  397900     298.4112   -1506.6581     515.1024    347.15246   -62.556621    41402.763 
  398000     299.4018   -1516.6292     495.1228    321.64581    360.24011    41402.763 
  398100    303.21038   -1476.9869    492.39514    375.64612    36.688389    41402.763 
  398200     290.2202   -1545.1083    513.76316    270.61725    133.01374    41402.763 
  398300    306.82434   -1500.7813     528.5574    404.22659   -27.772161    41402.763 
  398400    292.38968   -1506.5334    504.81037    309.97196   -23.918113    41402.763 
  398500    294.54308    -1525.274    500.12121    296.20251   -137.53673    41402.763 
  398600    312.11181   -1553.3392    478.58224    325.41382    401.96259    41402.763 
  398700    304.13689   -1539.6802    489.78995    314.50408    72.038121    41402.763 
  398800    303.72684   -1511.5183    493.15729    344.19381    76.859129    41402.763 
  398900    298.95377   -1504.8788    477.62335    313.88673    127.84064    41402.763 
  399000    298.92783   -1479.3949    486.83458    348.46554   -121.42926    41402.763 
  399100    297.67653   -1518.7842    500.93007    317.55819    182.88313    41402.763 
  399200    289.92682   -1505.5561    489.28829    284.37842    156.30816    41402.763 
  399300      297.399   -1480.8587    492.81362    346.12227   -332.43167    41402.763 
  399400    315.86179   -1503.0834      487.615     401.5252    486.97071    41402.763 
  399500    292.01224   -1494.0273    497.73708    313.71151    853.05777    41402.763 
  399600    293.05819   -1505.5285    508.22715    317.39259    490.02843    41402.763 
  399700    300.19958   -1561.3723    489.87717    275.23594    421.43849    41402.763 
  399800    305.91813   -1531.1141    495.12638    336.39748    239.01325    41402.763 
  399900    309.23863   -1523.1669    481.39315    345.50755    39.269875    41402.763 
  400000    293.31317   -1477.9932    487.17621    325.02081   -284.86925    41402.763 
  400100    291.70852   -1493.9998    485.91703     300.5564   -133.06552    41402.763 
  400200    302.91087   -1486.0058    509.38527    382.27378    69.269442    41402.763 
  400300    291.28988   -1459.9625    484.49919    331.29784   -58.247666    41402.763 
  400400    301.15553   -1492.2586    504.20508    362.96605    333.18507    41402.763 
  400500    309.06986    -1483.198    484.35134    387.67759    288.77619    41402.763 
  400600      310.413   -1510.0735    512.79046    395.26669    648.73955    41402.763 
  400700    301.00915   -1515.2448    480.59359    315.71175    687.45805    41402.763 
  400800     296.0869   -1501.1811    508.67105    335.77107    850.97767    41402.763 
  400900     291.7811   -1497.6405     467.3183    278.64259    545.72025    41402.763 
  401000    291.75612   -1521.8786    484.11126    271.08537      703.638    41402.763 
  401100    303.59623   -1460.6647     495.7808    397.08497    1050.1524    41402.763 
  401200    291.58394   -1488.5573    465.69567    285.21867    495.86808    41402.763 
  401300    297.87885   -1508.9624    500.57246     327.9301    61.887117    41402.763 
  401400    296.95072   -1500.8594    475.69322    306.99012   -715.00972    41402.763 
  401500    294.24913   -1492.8494    462.95602    290.14326   -491.26425    41402.763 
  401600    297.01793   -1478.2086    488.27735    342.52655   -543.22861    41402.763 
  401700    297.44381   -1458.0279    486.37395    362.71437   -899.02348    41402.763 
  401800    304.43455   -1494.1955     474.0902    345.62436   -477.23765    41402.763 
  401900    306.92787   -1494.8683    473.18958    355.23627   -763.21741    41402.763 
  402000    300.73231   -1512.5906    486.81979    323.35018   -201.83881    41402.763 
  402100    298.34208   -1424.5875    497.68158    411.49222   -620.76786    41402.763 
  402200    294.19302   -1441.4249    492.60363    370.96365   -283.90856    41402.763 
  402300    304.77542   -1453.3635    502.39881    416.29412     87.82346    41402.763 
  402400     304.0053   -1473.3587    487.04186    377.48719    -79.47776    41402.763 
  402500     296.0853   -1504.4007    485.25773    309.13088    448.52559    41402.763 
  402600    301.91329   -1472.2578    465.02142    347.18263   -77.969579    41402.763 
  402700    300.88455   -1462.6187    489.46672    376.65199   -7.9247705    41402.763 
  402800    299.62013   -1494.8471    475.80572    325.09016   -155.79734    41402.763 
  402900     294.9019    -1516.087    487.80696    294.68507    -454.4634    41402.763 
  403000    304.05433   -1510.6937    478.70634     332.0366  -0.45821329    41402.763 
  403100    288.76228   -1512.2527     490.6186     273.7879   -620.33404    41402.763 
  403200    296.84526   -1509.6101    463.89026    285.96333    -278.7784    41402.763 
  403300    303.52455    -1522.131    501.65601     341.1723    61.031237    41402.763 
  403400    307.04936   -1501.3595    469.59985    345.70041   -131.87763    41402.763 
  403500    304.83411   -1520.9217    466.50942     313.1099    -13.45698    41402.763 
  403600    303.97815   -1494.7261     482.7975    351.75363    294.96758    41402.763 
  403700    313.70275   -1528.0611    481.42317       360.67    150.11371    41402.763 
  403800    308.46121   -1512.5826    460.17819    331.38929    387.26403    41402.763 
  403900    291.50189   -1501.4078    484.38459      290.689    2.2741346    41402.763 
  404000    292.95086   -1500.9849    499.35436    312.58196    227.30075    41402.763 
  404100    296.41359   -1507.6513    481.45602    303.55141   -311.47742    41402.763 
  404200    293.02761   -1461.8408    482.38953    335.10552    -372.1267    41402.763 
  404300    303.50054   -1523.1084    452.20688    290.63809   -1088.6763    41402.763 
  404400    296.06484   -1470.1267    490.96866    349.02414   -872.63403    41402.763 
  404500    295.28282   -1495.5051    460.63489    289.80373   -662.81151    41402.763 
  404600    302.19952    -1490.105    486.79618    352.39423    -690.2503    41402.763 
  404700    295.02251   -1531.1989    459.51113    251.81837   -880.77133    41402.763 
  404800    300.53951   -1520.8323    472.11852    299.54225   -670.20624    41402.763 
  404900    297.74909   -1549.4427     484.0069    270.30207   -1089.8786    41402.763 
  405000     304.4149   -1526.3382    478.06202     317.3653   -377.29364    41402.763 
  405100    294.31183   -1497.7858    475.81103    298.34314   -363.58448    41402.763 
  405200    296.55354   -1509.4217    496.21157    317.16437   -494.79332    41402.763 
  405300    307.97987   -1533.1246    468.55284    317.06267    -92.99222    41402.763 
  405400    304.66845   -1542.8485    477.06761     300.9981    290.84792    41402.763 
  405500    301.79413   -1562.6484    479.18019    270.41625    513.47093    41402.763 
  405600    295.09511   -1543.1817    465.38692    246.03704    396.03595    41402.763 
  405700    299.64293   -1544.7994    476.04109     275.4756    512.30784    41402.763 
  405800    293.19502   -1527.7328    492.83959    280.41458    472.63617    41402.763 
  405900    299.43264   -1502.0482    486.36185     327.6041    984.26155    41402.763 
  406000    297.05586   -1488.6102    506.39138    350.40908    531.90641    41402.763 
  406100    297.30372   -1467.6697    506.80301    372.87319    1059.3063    41402.763 
  406200    304.12387   -1450.2136    499.78851    413.91083    857.53943    41402.763 
  406300    292.65909   -1480.0336    500.45858    333.32854    55.069534    41402.763 
  406400    298.98161   -1444.5615    477.27387    373.97945   -77.803421    41402.763 
  406500    300.53832      -1502.9    474.30215    319.65288    -139.0437    41402.763 
  406600    300.08229   -1501.5357    490.65802    335.32718    236.50988    41402.763 
  406700    317.19878   -1478.4312    471.91588     416.4762    193.43462    41402.763 
  406800    305.66058   -1483.0188    516.18616     404.3972    347.44589    41402.763 
  406900    303.53855   -1521.1196    456.64542    297.23591    1197.0942    41402.763 
  407000    312.22162    -1503.273    471.67018    369.06054      394.554    41402.763 
  407100     304.2806   -1549.7448    488.54354    303.83777    157.43583    41402.763 
  407200    295.21869   -1535.7007    480.29843    268.98392    425.28941    41402.763 
  407300    304.64995   -1559.9532    470.34521    277.08794    442.76376    41402.763 
  407400    293.35768   -1526.7821    486.32442    275.57984    101.31896    41402.763 
  407500     301.5816   -1564.4755    478.37415    266.82966   -42.551127    41402.763 
  407600    304.77756   -1575.0946    462.93103    255.10489    141.18859    41402.763 
  407700    309.79004   -1519.6571    492.25048    362.34843    166.94408    41402.763 
  407800    303.03741   -1497.8127    490.79905    352.44832    42.466023    41402.763 
  407900    306.53737   -1525.8161    477.53198    326.87906    364.57357    41402.763 
  408000     296.6032   -1537.0882    465.01077    258.51985     303.5144    41402.763 
  408100    299.47913     -1535.96    499.81141    307.35042    477.08948    41402.763 
  408200    296.00524   -1502.2528    510.86587    336.52786    205.56501    41402.763 
  408300    304.28487   -1491.7339    485.26509    358.58938     479.9557    41402.763 
  408400    297.98952   -1521.2755    484.69807    300.23908    392.51426    41402.763 
  408500    292.95495   -1532.6299    482.66165    264.26256   -146.68267    41402.763 
  408600    301.27423   -1535.3279    518.80463    335.02885    180.73326    41402.763 
  408700    294.19697   -1538.7524    478.42721    259.47744    724.85463    41402.763 
  408800    313.26121   -1560.2417    497.74354    342.82894    531.08088    41402.763 
  408900    301.83034   -1557.3071    487.47708    284.21688      273.844    41402.763 
  409000    304.11595   -1506.4567    518.22091    376.06464   -278.65902    41402.763 
  409100    297.38746   -1499.7128    462.68262    297.08543   -891.74387    41402.763 
  409200    309.40011   -1524.5077    478.88429    342.38231   -787.67943    41402.763 
  409300    301.06427   -1528.9579    492.80118     314.4535   -250.89602    41402.763 
  409400    298.59887    -1477.229    493.82428    356.14536   -784.25519    41402.763 
  409500    308.72095   -1508.6079     502.2027    378.55373    -377.4495    41402.763 
  409600    302.74647   -1517.6171     484.1557    324.69533   -439.93826    41402.763 
  409700    297.34598   -1518.4738    492.88572    308.34143     -112.153    41402.763 
  409800    303.84755   -1500.8853    468.16658    330.37762    548.79237    41402.763 
  409900    292.96716   -1523.8176    480.54919    271.01719   -437.65146    41402.763 
  410000    297.39451   -1505.4417    488.01728    316.72281   -50.304537    41402.763 
  410100    301.27777   -1534.8418    483.98592    300.71211   -15.442561    41402.763 
  410200    289.23768   -1537.6632      475.093    234.98449   -154.92555    41402.763 
  410300    302.17227   -1529.3079      494.074    320.34688    5.8446456    41402.763 
  410400    294.03741   -1505.2642    509.50676    323.32943   -191.72478    41402.763 
  410500    294.18636   -1499.1412    471.71104    292.32492    569.08486    41402.763 
  410600     300.4728   -1539.7739    500.99629    309.17916     700.6594    41402.763 
  410700    302.92347   -1532.7839     471.8797    298.04655    742.42865    41402.763 
  410800    284.67048   -1531.5012    518.11595    263.68042    428.71291    41402.763 
  410900    295.44736   -1560.4721    470.36113    235.30103    833.51502    41402.763 
  411000    309.17287   -1500.6415    488.07585    374.42066    229.19857    41402.763 
  411100    302.29192   -1522.6223    487.45017    320.94549    170.05983    41402.763 
  411200    300.54631   -1573.6812     462.8323    237.43769    143.03242    41402.763 
  411300    299.94129    -1555.782    496.08053    285.87093   -213.58781    41402.763 
  411400    289.86138   -1574.7871    466.36028    191.92587   -242.75023    41402.763 
  411500    317.48407   -1563.1231    457.57913     318.7274    268.67592    41402.763 
  411600     295.2635     -1595.07    477.51753    207.03474   -592.55839    41402.763 
  411700    296.88514   -1588.4264    455.62535    199.06105   -551.97046    41402.763 
  411800    301.32873   -1538.5184     487.5341    300.81229   -343.15862    41402.763 
  411900    300.15945   -1549.4359    471.69942    268.81463   -13.533639    41402.763 
  412000    307.24158   -1547.5776    488.33629    319.08099   -83.350965    41402.763 
  412100    312.32777   -1583.0981    488.27506    306.31655    -194.0175    41402.763 
  412200    312.24741   -1575.6571    492.05412    317.17604   -227.48838    41402.763 
  412300    304.74331   -1554.5871    457.68345    270.21112   -195.53021    41402.763 
  412400    298.81059   -1554.5251    498.98231    284.95709   -294.10269    41402.763 
  412500    306.57641   -1572.7761     472.3236    274.88578     51.76226    41402.763 
  412600    296.57396   -1583.2384    475.80149    223.02918   -61.708917    41402.763 
  412700    300.21208   -1563.8563    492.81606     275.7469    321.49806    41402.763 
  412800    295.10809   -1560.8253    478.98087    242.04568    237.14716    41402.763 
  412900     300.0851   -1574.9003    451.01375    222.33102    198.17851    41402.763 
  413000    305.93993   -1551.5515    477.35367    298.28518    -41.04997    41402.763 
  413100     303.8052   -1612.5965    506.73043     257.0402    249.90227    41402.763 
  413200    306.63392   -1529.9773     471.8228    317.44179    202.91322    41402.763 
  413300    305.73754   -1578.4563    508.17039    301.28909   -409.01754    41402.763 
  413400    296.64691   -1549.3959    442.22355    223.62103   -418.03491    41402.763 
  413500    299.91673    -1590.544    495.30427    250.22245   -390.85664    41402.763 
  413600    301.18778   -1586.5566    488.96837    253.57602    202.86605    41402.763 
  413700    306.36508   -1607.3633    481.20205    248.22898    -242.1857    41402.763 
  413800     310.4761   -1573.4217    474.61586    294.02694    -54.80619    41402.763 
  413900    299.93259   -1558.2327    477.38162    264.68226    121.47185    41402.763 
  414000    304.25374    -1577.001     478.5675    266.48496    95.437533    41402.763 
  414100    308.43311    -1560.531    468.30848    291.44511   -577.80407    41402.763 
  414200    295.09022   -1539.7691     483.4559    267.49673   -416.08619    41402.763 
  414300    298.02232   -1575.8569    479.73465    240.84132      188.154    41402.763 
  414400    294.30351   -1588.8581    462.86017    194.28274    76.801921    41402.763 
  414500     311.1279   -1546.0756    468.39753    318.07879   -51.854524    41402.763 
  414600     295.0208   -1576.2892    497.41478    244.62397    447.55443    41402.763 
  414700    306.45382   -1533.7901    476.62112    317.61933     443.2048    41402.763 
  414800    299.32087   -1525.3043    490.38069    307.86547    346.95874    41402.763 
  414900    300.54289   -1519.3426    502.02934    330.95799    279.99576    41402.763 
  415000    300.42642   -1539.3897    474.02246    282.38145    90.666559    41402.763 
  415100    302.44001    -1515.579    472.00353    313.20647    3.3855511    41402.763 
  415200    292.80366   -1508.8315    514.64931    319.36991    124.15461    41402.763 
  415300    294.57008   -1504.6306    503.49928    320.34512    38.356401    41402.763 
  415400    300.00488   -1500.8377    463.09699     308.1169    607.47547    41402.763 
  415500    295.75431   -1491.6801    495.79695    330.90593    268.11399    41402.763 
  415600    291.09089   -1564.2705    510.57789    252.17577    957.18874    41402.763 
  415700    303.36667   -1504.7113    500.87304    357.10075    267.53842    41402.763 
  415800    304.85636   -1462.8909    525.21022     429.9413    258.62581    41402.763 
  415900    307.71766   -1531.2234     499.6129    348.84756    168.28097    41402.763 
  416000    294.90541   -1522.1525    495.50786    296.33618   -583.74383    41402.763 
  416100    307.38201   -1508.0088      501.494    372.43748    507.61456    41402.763 
  416200    304.27062   -1534.5011    477.36854    307.86169   -99.075212    41402.763 
  416300    300.47993   -1494.3592    491.49858    345.12812   -273.83417    41402.763 
  416400    308.08377   -1520.1667    481.21499    343.14877   -215.44317    41402.763 
  416500    302.04751   -1510.8908    488.21889    332.34914    211.12716    41402.763 
  416600    286.02996   -1564.0837     509.0784    228.15921   -209.35895    41402.763 
  416700    302.80853   -1541.6599    469.24601     286.0213   -358.83884    41402.763 
  416800     298.0661   -1515.4428      458.079     279.7962    -466.2285    41402.763 
  416900    301.41962   -1514.1669    501.26846    339.30592   -63.718096    41402.763 
  417000    294.35006   -1522.8397    501.46371    299.11342   -634.04448    41402.763 
  417100    309.93374   -1526.4109     481.4091     345.3979    35.067242    41402.763 
  417200    297.05942   -1506.6088     506.1816    332.21672    197.61677    41402.763 
  417300    297.72555   -1532.2977    493.54846      296.883   -237.08422    41402.763 
  417400    295.10078   -1473.9178    476.93134     326.8708   -532.86861    41402.763 
  417500    303.57573   -1493.1099    487.88744     356.6544   -454.05189    41402.763 
  417600      297.158   -1500.2322    484.75433    317.60829     -742.122    41402.763 
  417700    299.63768   -1506.2389    512.42746    350.39886   -707.08842    41402.763 
  417800    299.75135   -1504.9315    486.80434    326.59305   -34.100231    41402.763 
  417900    301.61418   -1532.5736     502.7905    323.29404    166.87356    41402.763 
  418000    299.85125   -1455.0271    479.36293    369.50426   -179.88386    41402.763 
  418100    310.46922   -1503.6751     506.8687    395.99554    76.288249    41402.763 
  418200    305.00986   -1505.4562    492.43493    355.28935    507.45443    41402.763 
  418300    308.39122   -1540.7735    480.58667    323.29294    107.54823    41402.763 
  418400    308.71956   -1574.7384    499.99667    310.21097    358.39022    41402.763 
  418500    310.94427   -1469.1007    487.87062    413.70291    314.64253    41402.763 
  418600     302.2924   -1532.9134    503.52444    326.73074    249.01593    41402.763 
  418700    300.62103   -1492.3451    483.16113    339.43784    58.672965    41402.763 
  418800    302.39282   -1501.9001    496.53931    351.20943    157.26257    41402.763 
  418900    305.15906   -1508.7242    472.92207    333.17772   -249.62408    41402.763 
  419000    290.88009   -1482.6783    509.08891    331.33335   -461.92073    41402.763 
  419100    301.94293   -1486.5228    490.17194    358.20108   -434.02699    41402.763 
  419200    295.08866   -1506.5002    485.72651    303.02919   -243.98033    41402.763 
  419300    304.24443   -1530.0325    484.82032    319.66458   -366.46091    41402.763 
  419400    299.47583   -1514.6175    484.76604    313.63283   -535.03586    41402.763 
  419500    302.34481   -1543.3361    483.30894    296.32762   -477.53444    41402.763 
  419600    298.39465   -1523.7035    471.89235    286.82277   -198.20892    41402.763 
  419700    297.30433   -1535.2294     483.1338    281.64704    171.81281    41402.763 
  419800    305.28602   -1554.0978    491.11793    306.56957    17.878985    41402.763 
  419900    290.85207   -1550.0569    474.68633    229.42643    437.89741    41402.763 
  420000    298.54078   -1577.8438    489.69306    251.13877    563.07768    41402.763 
  420100    295.31028   -1566.3414    480.57444     239.0301    512.30708    41402.763 
  420200    301.84493   -1544.2195    509.14223    319.03502   -293.88955    41402.763 
  420300    300.59967   -1514.3563    451.98669    286.15631   -42.800425    41402.763 
  420400    292.93084     -1552.93    488.48511    249.67776    45.355084    41402.763 
  420500    312.98246   -1540.2551    466.73452    330.55598    248.51262    41402.763 
  420600    298.39466    -1550.815    482.26148    270.08053    703.90633    41402.763 
  420700    302.80614   -1508.8986    509.29242    358.81824    439.42665    41402.763 
  420800    298.15802   -1575.1328    456.09746    218.53705    130.05323    41402.763 
  420900    304.76943   -1529.3137    515.11573    353.03397    32.044605    41402.763 
  421000    293.80985   -1547.2646    482.37724    253.17861   -280.87076    41402.763 
  421100    304.11684   -1528.0528    505.08558    341.33712   -194.15766    41402.763 
  421200    300.10736   -1537.2633    493.09253     302.1466    237.72281    41402.763 
  421300    312.07426   -1512.5531    485.04469    372.49392    162.34559    41402.763 
  421400    294.04631   -1519.7051    480.44203    279.86376   -118.74684    41402.763 
  421500     307.8213   -1557.3935    483.98316    307.51265    78.777971    41402.763 
  421600    303.24172   -1531.1497    495.51553    324.74436    135.52998    41402.763 
  421700    299.80801   -1502.7629    487.78506    329.99657      -88.715    41402.763 
  421800    301.70879   -1514.5496    483.03731     321.9893    314.00178    41402.763 
  421900     296.1242   -1543.6331    505.78583     290.6012    137.99643    41402.763 
  422000    305.43632   -1575.6187    475.38549    269.99052    380.03026    41402.763 
  422100    294.67229   -1562.7766    462.56549    221.72392    269.26475    41402.763 
  422200    298.13951    -1533.218    462.47043    266.74174   -212.84518    41402.763 
  422300     311.2506   -1547.0046    466.79871    316.10135    177.61476    41402.763 
  422400    297.46449   -1520.9933    476.96171    290.42953    161.55836    41402.763 
  422500     288.1555   -1523.4551    502.37131    271.61616    157.97133    41402.763 
  422600    308.36814   -1535.9907    467.50193    314.88741   -21.153932    41402.763 
  422700    300.06132   -1522.8176    494.96861    318.26185    168.78709    41402.763 
  422800    307.24232   -1524.5342    490.23491    344.02638    320.97917    41402.763 
  422900    305.86472     -1531.84    496.60252    336.90802   -484.86475    41402.763 
  423000    302.42809   -1514.5129    483.26242    325.47793   -536.47609    41402.763 
  423100    294.59474   -1512.7703    489.30212    298.11893   -435.25734    41402.763 
  423200    300.33145   -1490.1974     479.5873    336.71256   -39.717866    41402.763 
  423300    294.55529   -1499.3573    497.69788    319.75074   -379.41136    41402.763 
  423400    302.14014   -1492.4448    506.15712    369.14893   -282.21101    41402.763 
  423500    294.90158   -1500.8998    490.78851    312.85231    -944.0039    41402.763 
  423600    295.95473   -1487.9879    493.24095    332.94124   -289.49374    41402.763 
  423700    289.02705   -1531.9214     479.3897    244.07805   -630.80831    41402.763 
  423800     305.1003   -1513.6595    481.40234     336.4591   -609.66574    41402.763 
  423900    308.36172   -1518.4064    468.13901    333.08001   -330.10148    41402.763 
  424000    299.95961   -1514.0329    500.28442    331.90605     13.57519    41402.763 
  424100    299.27792   -1530.1936    503.24123    315.64404   -277.88852    41402.763 
  424200    312.44417   -1496.3776    492.04222    397.32636   -15.007934    41402.763 
  424300    298.52971   -1532.6181     498.5499    305.17165    801.60298    41402.763 
  424400    295.19416   -1523.0627      493.487    294.70047    149.27264    41402.763 
  424500     315.8998   -1516.5127    506.23212    406.88353    1086.0081    41402.763 
  424600     294.3909   -1523.2682    490.57819    287.98262    264.08979    41402.763 
  424700    300.71241   -1515.5735    490.75105    324.20926    63.162819    41402.763 
  424800    309.49934   -1505.7228    514.63945    397.36761    291.78917    41402.763 
  424900    299.83733   -1533.5327    518.57759    330.15085    732.11808    41402.763 
  425000    299.98261    -1520.433    469.80226    295.12699    167.42805    41402.763 
  425100    300.64324   -1538.9276    484.14025    293.93406   -450.64761    41402.763 
  425200    293.74773   -1517.8295    505.17083     305.1286   -138.06928    41402.763 
  425300    300.09967   -1514.3221    457.30299    289.26382   -382.82872    41402.763 
  425400    304.34083   -1540.3006    485.89542    310.90404   -290.86215    41402.763 
  425500    302.54985   -1549.4828    472.54488    280.33676    205.94181    41402.763 
  425600    305.29459   -1540.4824    495.11755    324.22307    248.90251    41402.763 
  425700    296.72781   -1557.2661    507.29133    281.18153    520.94105    41402.763 
  425800    293.22901   -1535.4648    478.44846    258.44398    692.59146    41402.763 
  425900    297.28787   -1569.9753    479.74297    243.43643    415.61397    41402.763 
  426000    304.42463   -1594.2341    461.68461    233.13565   -341.09566    41402.763 
  426100    297.27329   -1530.2078    462.70724    266.10277   -19.690758    41402.763 
  426200    295.41155   -1589.0027    473.92375    210.17247   -373.45546    41402.763 
  426300    305.12694   -1588.4745    522.43862    302.79988   -4.2977391    41402.763 
  426400    299.98966   -1568.0114    489.06751    266.84545    128.81555    41402.763 
  426500    296.57814   -1578.7779     478.1619    229.86889    378.93203    41402.763 
  426600    292.39161   -1551.4722    481.77529    242.00669   -30.291736    41402.763 
  426700    304.80438   -1567.5844    513.08071    312.88507   -68.997042    41402.763 
  426800    308.59857   -1561.0609    466.55927    289.90827   -228.36171    41402.763 
  426900    293.60788   -1518.0596    477.38598    276.48635   -759.20595    41402.763 
  427000    302.20624   -1515.1922    522.30653    362.84753   -261.16353    41402.763 
  427100    296.96528   -1524.0979    506.79075    314.91445    123.39895    41402.763 
  427200    308.59143   -1531.8407    480.47511    333.01228   -145.73074    41402.763 
  427300     294.9101   -1553.0234    485.77028    255.74872   -250.45731    41402.763 
  427400    304.04337   -1528.2692    495.33679    331.04234   -227.71579    41402.763 
  427500    293.01227   -1498.1929    488.29203    304.58704   -499.56076    41402.763 
  427600    315.80907   -1494.4064    501.03739    423.38812    90.782164    41402.763 
  427700    305.50019   -1527.2023    478.38126    321.68915   -26.876622    41402.763 
  427800    307.93305   -1535.9426    498.41166    343.89343   -61.215876    41402.763 
  427900    289.40832   -1514.3543    523.90563    307.87152    357.07786    41402.763 
  428000    296.72884    -1537.269    510.45033    304.34222    23.247088    41402.763 
  428100    295.32509   -1526.2353    486.52613    285.15436   -241.29913    41402.763 
  428200    290.83252   -1552.5456    496.77709    248.94084   -301.87141    41402.763 
  428300     300.2974   -1519.0459    508.79823    336.92226   -38.303815    41402.763 
  428400    294.59277   -1548.5958     465.3183    238.30077   -21.258562    41402.763 
  428500      297.567   -1535.1383     475.5181    275.30081    106.41803    41402.763 
  428600    289.76773   -1583.9377    491.21553    207.21036   -190.99149    41402.763 
  428700    294.79036   -1594.5929    465.70552    193.57731   -150.73123    41402.763 
  428800    296.46849   -1593.6587    472.72197    209.05625   -179.54463    41402.763 
  428900    309.24322   -1588.8438    501.72954    300.18765    235.74585    41402.763 
  429000    296.21888   -1595.0795    462.54987    196.34352    118.97042    41402.763 
  429100    299.79405   -1605.6243    469.28453    208.57208   -328.28971    41402.763 
  429200    307.66875   -1568.8284    489.65856    301.06885   -753.54962    41402.763 
  429300    292.97124   -1568.7915    510.18276    255.69516   -83.610004    41402.763 
  429400     313.9268   -1621.7904    484.63111    271.15369   -195.98621    41402.763 
  429500    304.50033   -1597.2775    474.76763    243.51493   -187.25634    41402.763 
  429600    300.65704   -1569.2238    501.18912    280.74864    11.170007    41402.763 
  429700    290.67094     -1586.99     474.8933    191.88777    233.45922    41402.763 
  429800    290.98072    -1571.286    492.84979    226.93793    244.65908    41402.763 
  429900    299.76073   -1558.5836    475.41188    261.59064   -38.559298    41402.763 
  430000    302.06121    -1542.214    495.55172    308.42027   -80.606792    41402.763 
  430100    304.17537     -1523.44     470.4808    311.60776   -46.115893    41402.763 
  430200    300.49088   -1541.2604    483.73819    290.51566    233.24286    41402.763 
  430300    297.91431   -1501.9638    457.56754    292.08276   -560.18492    41402.763 
  430400    300.38559    -1513.856    516.57046    350.28002    -252.1861    41402.763 
  430500    294.86024   -1534.5812    490.50611    278.70307   -846.28088    41402.763 
  430600    301.01911   -1547.1203    482.58402    285.87129   -513.08584    41402.763 
  430700    291.45228   -1530.9963    476.10219    252.59552    -773.1273    41402.763 
  430800     298.5016   -1523.4165    480.90931    296.60652    201.84916    41402.763 
  430900    304.55643   -1515.5855    501.93667    352.62755    138.85545    41402.763 
  431000    294.52522   -1516.0496    477.79703    283.02266    18.413395    41402.763 
  431100    296.42426   -1514.9973    499.45951    314.25676   -52.885172    41402.763 
  431200    300.48835   -1550.2545    476.29269    274.06467    840.04673    41402.763 
  431300    295.60584   -1536.5018    485.69059    275.31186    377.98135    41402.763 
  431400    295.87715   -1520.4316    493.16207    300.07059    53.526953    41402.763 
  431500    298.07708    -1458.207    500.49506    379.49738   -198.06769    41402.763 
  431600    295.69779   -1485.8225    491.01005    331.72311   -621.39385    41402.763 
  431700    299.88672   -1473.5338    481.79355    353.58731   -592.34085    41402.763 
  431800    303.46582     -1507.23    465.35974    319.51362   -121.42904    41402.763 
  431900    298.49618    -1550.629    472.77783    261.23829   -175.43071    41402.763 
  432000     294.8354   -1534.9751    483.29059     270.9822    312.42754    41402.763 
  432100    308.37657   -1502.6779    477.64255    358.37862    556.97099    41402.763 
  432200    297.21383   -1514.6292    499.86747    318.57495    761.86806    41402.763 
  432300     311.0364    -1482.141    490.66331    403.86863    707.66698    41402.763 
  432400    289.88738   -1518.7627    465.03366    246.74031    244.65507    41402.763 
  432500    303.12361    -1522.243    494.80801    332.41367    413.03773    41402.763 
  432600    305.63328   -1493.9562    474.17018    351.32125   -318.31159    41402.763 
  432700    298.59564   -1460.7122    495.48669    374.31012   -319.16995    41402.763 
  432800    304.92496   -1505.9971    503.04324    364.97583   -267.38734    41402.763 
  432900    292.33851   -1476.5277    494.83081    329.76854   -251.75251    41402.763 
  433000    298.15453   -1515.1922    494.01123    316.37578   -232.52903    41402.763 
  433100    293.67451   -1499.9051    490.13867     307.6924   -325.09919    41402.763 
  433200    287.52099   -1472.2155    519.60307    337.24095    -682.0863    41402.763 
  433300    306.52328   -1492.4032     486.5302     369.2269   -125.23538    41402.763 
  433400    300.45671   -1532.6895    472.73407     287.9292    81.877015    41402.763 
  433500    294.82747   -1502.6268     488.3534    308.35776   -351.52378    41402.763 
  433600    306.10808   -1492.9977    504.64566    384.88528   -106.60401    41402.763 
  433700    302.80339   -1510.0384    486.77692    335.15065     201.8715    41402.763 
  433800    303.60101   -1511.3192    503.73821     354.4093    487.50458    41402.763 
  433900    300.66917   -1478.9235    502.44911    372.36336    19.990904    41402.763 
  434000    302.64309   -1526.4031    488.50976    319.79955    14.689042    41402.763 
  434100    299.98208    -1530.647    495.80933    310.91765   -643.54463    41402.763 
  434200    310.38428   -1513.9311    449.05731    327.54702   -431.99901    41402.763 
  434300    304.92251   -1521.1442    489.61866    336.39313   -926.29051    41402.763 
  434400    294.73384   -1513.2778    502.32024    311.25353   -925.40748    41402.763 
  434500    298.17566   -1516.4577    503.60276    324.79663   -701.03143    41402.763 
  434600    298.32639    -1492.554    510.38525    356.15902   -201.72859    41402.763 
  434700     297.0492   -1512.1078    487.91924    308.40956   -865.94839    41402.763 
  434800    292.31321   -1481.6073    489.80482    319.54937   -342.32417    41402.763 
  434900    306.46732   -1533.8914    485.43244    326.38996     51.17068    41402.763 
  435000    305.72764    -1513.785    486.75098    344.49654    314.80336    41402.763 
  435100    303.74067   -1525.7185    487.98968    324.88807    42.427354    41402.763 
  435200    310.13652   -1495.1483    506.27374    402.43483    113.22322    41402.763 
  435300    301.36682   -1476.3935    477.56621    353.14011   -563.35177    41402.763 
  435400    288.20135   -1509.5087    505.31798    288.71488   -791.07448    41402.763 
  435500    301.82569   -1511.5235    484.54354    327.04608    69.050085    41402.763 
  435600    300.13764   -1486.8362    503.36331    362.98035   -80.514235    41402.763 
  435700    296.82342   -1498.9392    492.58262    325.22865   -99.748484    41402.763 
  435800    290.24712   -1523.2842    509.83018    288.62917    142.42084    41402.763 
  435900    301.01183   -1506.9932     505.0116    348.39331   -381.27208    41402.763 
  436000    304.77119   -1513.9352    473.49766    326.80231   -280.24622    41402.763 
  436100    302.95835   -1524.5283    509.18583    343.76477    166.05333    41402.763 
  436200    289.40452    -1452.145    487.29884    333.45701    201.71858    41402.763 
  436300    290.88949   -1440.6319    541.69249    406.02551   -153.45322    41402.763 
  436400    294.71703   -1481.3018    505.12264    345.95654    562.52627    41402.763 
  436500    305.16854   -1534.4024    519.16071    353.78078     356.1595    41402.763 
  436600    301.77267   -1519.7445     499.4543     333.4979    359.74837    41402.763 
  436700    297.69155   -1513.9297    494.37659    315.92663   -413.72566    41402.763 
  436800    292.17712   -1500.8962    471.75656    281.60176   -603.66114    41402.763 
  436900    290.81565   -1504.3435     490.1487    290.43882   -1014.9654    41402.763 
  437000    299.58345   -1489.3819    491.76927    346.35436   -498.86779    41402.763 
  437100    307.12139   -1488.5224    494.70485     383.9656   -629.80615    41402.763 
  437200    292.99554   -1525.5457    475.34288    264.21006    67.565703    41402.763 
  437300    303.43618   -1541.5608    502.30074     321.9908    346.54662    41402.763 
  437400    295.91599   -1517.1943    482.93567    293.25577    211.79565    41402.763 
  437500    291.09985   -1475.9343    486.99386    316.96816    9.6783144    41402.763 
  437600    311.25025   -1489.9187    505.86655    412.25354    358.16105    41402.763 
  437700    302.92501   -1537.1171     497.1969    319.03752   -111.82656    41402.763 
  437800    303.82709   -1505.0986    508.53186     366.4378   -413.17925    41402.763 
  437900    293.94611   -1499.8308    479.05053    297.89696    285.70649    41402.763 
  438000    294.61695   -1525.2141    497.84116    294.31382    218.28175    41402.763 
  438100    298.30492   -1515.6179    475.97856    298.59211    53.688849    41402.763 
  438200    305.58664    -1550.975    506.17777    326.10087   -155.66534    41402.763 
  438300    299.55484   -1534.1978    486.85034    296.49123   -311.81755    41402.763 
  438400    299.58826   -1545.4258     509.9222    308.48501   -554.08777    41402.763 
  438500    304.62131   -1537.6506    489.14077    318.05764    -257.0808    41402.763 
  438600    285.45405   -1515.1521    537.18765    302.61645     189.3328    41402.763 
  438700     295.0529   -1540.0388    503.38128    286.98494     794.9992    41402.763 
  438800    292.60432    -1561.594     489.1297    240.19355    473.81119    41402.763 
  438900    290.90918   -1528.1852     501.6146    278.48259    323.65458    41402.763 
  439000    305.45393   -1492.9346    507.04709    384.41518    570.48791    41402.763 
  439100    306.94325   -1504.7056    496.70408    368.98248    69.583872    41402.763 
  439200    308.63274    -1500.803      496.632    380.39222    281.93375    41402.763 
  439300    300.25848   -1498.3233    496.05579    344.72782   -45.935755    41402.763 
  439400    300.77348   -1484.0667    525.19583    390.43485   -105.51395    41402.763 
  439500     291.0285   -1518.9189    490.07526    276.74484    162.21279    41402.763 
  439600    304.31591   -1517.0078    491.48825    339.67785   -302.12345    41402.763 
  439700    295.45613   -1507.8917    496.14536    313.70502   -136.19636    41402.763 
  439800    309.29729   -1551.6432    477.82366    313.72498    -148.1169    41402.763 
  439900    290.75141   -1502.3355    516.75785    318.76783    162.91879    41402.763 
  440000    287.80352   -1505.9246    528.75833    313.95457   -36.945351    41402.763 
  440100    294.69236   -1541.7088    487.51721    267.83344   -319.63869    41402.763 
  440200      312.986   -1559.0935    495.36237    340.36133    121.42226    41402.763 
  440300     311.1715    -1533.145    474.72435    337.53181    283.88493    41402.763 
  440400     299.8629   -1514.9613     514.6279    344.88723    311.39253    41402.763 
  440500    302.48883   -1535.8361    503.06771    324.23251   -57.266216    41402.763 
  440600     290.6946   -1538.6391    501.83757    267.28908    261.47988    41402.763 
  440700    296.15463   -1527.1467      508.275    309.71328    414.51398    41402.763 
  440800    298.78179   -1523.5081    483.61893    300.48152   -81.381086    41402.763 
  440900    305.86781   -1528.9422     501.3279    344.54515   -88.082666    41402.763 
  441000    304.09271   -1495.7933    498.02416    366.42699   -483.75085    41402.763 
  441100    298.11969   -1500.1583    488.16553    325.40768   -370.69425    41402.763 
  441200     306.0419    -1505.214    512.95157    380.67801   -113.49363    41402.763 
  441300    295.36102    -1518.056    481.30404    288.27273    162.60428    41402.763 
  441400    293.31997   -1539.3726       480.64    257.13575   -148.85623    41402.763 
  441500     309.5967   -1537.3348    498.35668    349.90956    98.268059    41402.763 
  441600    309.04454   -1515.5668    484.61981    355.46363   -120.93934    41402.763 
  441700    297.71728   -1529.0723    503.58077    310.10371    311.58355    41402.763 
  441800    302.26611   -1563.8581    484.40125    276.54491   -45.499318    41402.763 
  441900    296.62202   -1578.9244    505.89604    257.65337    249.95477    41402.763 
  442000    291.78669    -1548.338    502.86439    263.51623   -127.70687    41402.763 
  442100    298.54246   -1565.0734    474.80405     249.0277    116.53265    41402.763 
  442200    302.38961   -1565.8157    502.90628    293.64641    119.79031    41402.763 
  442300    305.72405   -1551.0197    483.40531    303.90017      520.995    41402.763 
  442400    300.50509   -1593.3743    500.08977    254.81707    554.39234    41402.763 
  442500    297.69248   -1573.6852    470.61564    232.41439   -197.42052    41402.763 
  442600    308.54698   -1545.6228     506.4483    345.00402   -211.41118    41402.763 
  442700    295.25465    -1533.461    478.58585    269.67239   -447.82765    41402.763 
  442800    295.33163   -1507.2496    515.55343    333.19674    188.40098    41402.763 
  442900    298.49842   -1546.2295     499.7702    292.64016   -243.97275    41402.763 
  443000    295.24546   -1522.7981     502.7621    304.47037   -36.414719    41402.763 
  443100    295.13687   -1495.0603    515.31637    344.27526    524.34652    41402.763 
  443200    299.45614   -1497.6979    525.14375    370.84182    459.51692    41402.763 
  443300    293.23537    -1506.181    503.68789     312.9957    131.65838    41402.763 
  443400    301.91529    -1494.525    509.32256    369.22549      318.093    41402.763 
  443500    296.48288   -1561.0665    479.29544    248.28648    32.832908    41402.763 
  443600    286.93227   -1476.8686    530.80805    341.15174    181.19292    41402.763 
  443700    301.88166   -1514.2856     490.4541    330.44562    114.13156    41402.763 
  443800    305.48925   -1477.2654    494.84091    388.03669    209.16212    41402.763 
  443900    301.92656   -1528.9372    498.23141    323.77278   -210.30272    41402.763 
  444000    301.15537   -1505.6847    502.87093    348.20503    27.498125    41402.763 
  444100    295.59691   -1484.7279    491.11726    332.47233    73.108089    41402.763 
  444200    307.12107    -1508.224    502.96179    372.51952    32.822939    41402.763 
  444300    299.39927   -1496.8936    486.55955    332.80674    690.95242    41402.763 
  444400    301.61121   -1508.3647    484.59434    329.29346    218.26594    41402.763 
  444500    305.77154   -1482.9814     497.9575    386.70369    333.90377    41402.763 
  444600    301.60199   -1501.4361    482.62543    334.21181   -133.04915    41402.763 
  444700    300.00975   -1494.2478     476.5969    328.22859   -284.46526    41402.763 
  444800    300.53352   -1453.0649    509.44503     404.6093   -691.65921    41402.763 
  444900    295.95494   -1475.4005    519.41224    371.70086   -825.82308    41402.763 
  445000    307.36852   -1521.3066    482.51126    340.09645   -1001.7925    41402.763 
  445100    293.97083   -1472.9491    484.73495    330.57403   -735.20924    41402.763 
  445200    297.50436    -1474.819    492.10201    351.92306     -1090.82    41402.763 
  445300    296.24886   -1471.1604    480.53435    338.38158   -439.71925    41402.763 
  445400    303.66298   -1503.8071    487.39772    345.85895   -571.34208    41402.763 
  445500    299.91216   -1506.3791    484.83656    323.89919   -1098.9128    41402.763 
  445600    300.51297   -1464.8366    472.87408    356.17447   -815.32498    41402.763 
  445700    296.49806   -1532.8464    482.03019    279.30944   -739.65311    41402.763 
  445800    288.69877   -1506.5684    475.49517    264.06382   -600.64049    41402.763 
  445900    311.37004   -1494.1903    486.15983    388.81257   -481.96314    41402.763 
  446000    297.52656    -1503.649    486.10021    317.19084    -551.3724    41402.763 
  446100    292.53887   -1473.2315      483.124    322.25676   -571.57328    41402.763 
  446200    302.71152   -1500.3709    465.43921    323.06831   -130.72199    41402.763 
  446300    304.20244   -1482.3994    505.37687     387.6659   -60.770487    41402.763 
  446400    302.34304   -1474.6878    484.30696    365.96603   -122.39002    41402.763 
  446500    300.40088   -1510.7436    493.86089    330.75138   -259.75318    41402.763 
  446600    308.46584    -1474.085    485.73598    395.46551   -392.66046    41402.763 
  446700    298.89534   -1495.0641    458.01441    303.83042   -39.300217    41402.763 
  446800    303.34835   -1462.6332    465.60431    363.82795    25.859852    41402.763 
  446900    304.55689   -1421.5074    504.19303     448.9641    98.743937    41402.763 
  447000    296.38487   -1449.8715    501.85521     381.6016    649.67601    41402.763 
  447100    296.41734   -1482.3731    503.54376    350.93418    796.29239    41402.763 
  447200    296.62442   -1508.3567    512.66602    335.00183    346.09369    41402.763 
  447300    297.34608   -1513.2918    468.41679    289.05495   -14.839571    41402.763 
  447400    312.86518   -1502.6746    467.09206    367.96795    223.31359    41402.763 
  447500    298.22035     -1503.41    482.93845    317.38042    117.06139    41402.763 
  447600    300.78304   -1485.8744     482.3693    345.84342   -14.785808    41402.763 
  447700    309.69644     -1486.36    482.68024    385.65532    142.36916    41402.763 
  447800    304.98151   -1485.5782    494.61228    377.21745     418.2848    41402.763 
  447900    302.07234   -1461.8824    481.13209     374.3822   -299.10013    41402.763 
  448000    302.32098   -1490.3894    462.59316    328.45164   -524.91758    41402.763 
  448100    302.40877   -1545.1445     450.6754     262.1727   -194.09891    41402.763 
  448200     308.1094   -1509.4302    494.87127    367.65653   -244.16152    41402.763 
  448300    303.44079   -1516.6494    482.99923    327.62135    544.20489    41402.763 
  448400    305.87698   -1502.1115    493.72873    363.81784    -275.1347    41402.763 
  448500    301.69556    -1507.421    507.52619    353.54745   -9.7959463    41402.763 
  448600    292.03993   -1469.7966    473.97643    314.30572    235.96775    41402.763 
  448700     308.8403   -1470.4304    476.86973    391.93365   -372.44876    41402.763 
  448800    298.36755   -1513.3967    477.56258    302.67828     200.8132    41402.763 
  448900    298.88003   -1473.4027    466.11662    333.52534   -37.689592    41402.763 
  449000    290.27329   -1508.9646    501.16936    294.40538   -44.118793    41402.763 
  449100    295.32752   -1533.3072    478.63105    270.19826   -226.81782    41402.763 
  449200    309.13143   -1526.4536    480.25281    340.59963    309.57159    41402.763 
  449300    299.45401   -1527.7793     452.8254    268.43246    74.886745    41402.763 
  449400    303.71368   -1539.1386    488.53907    311.89622   -166.92335    41402.763 
  449500     300.9947   -1517.7325      448.522    281.08761    29.488232    41402.763 
  449600    304.72843   -1521.4501     497.1973    342.79521    510.47701    41402.763 
  449700    299.56771   -1539.7054    472.91206    277.10311    755.18287    41402.763 
  449800    292.37912   -1544.9845    509.16279    275.82583    802.64204    41402.763 
  449900    301.55503    -1524.003    498.95629    327.76504    434.91351    41402.763 
  450000    287.19839   -1491.9352    473.93344    270.40441    320.53567    41402.763 
  450100    305.83672   -1498.1864    498.90054    372.73415    169.37287    41402.763 
  450200    309.21228   -1518.2278    477.60838    346.54372    299.88104    41402.763 
  450300     300.2199   -1502.0245    507.22198    352.01969   -75.528328    41402.763 
  450400    297.38319   -1499.9499    473.19448      307.341    391.02083    41402.763 
  450500    303.72242   -1496.0663    491.23596    357.70466    211.65922    41402.763 
  450600    303.39865   -1514.1274    500.47543    347.43048    307.29896    41402.763 
  450700    304.30395   -1501.3102    462.90377    326.73736     845.2227    41402.763 
  450800     306.6354   -1492.3303    493.50373    376.77635    844.43956    41402.763 
  450900     313.8411   -1520.0692    471.39492    359.25424     529.6815    41402.763 
  451000    295.39536   -1502.1988    476.88966     299.8696    157.68094    41402.763 
  451100    306.32869   -1465.1789    501.11974    410.16777    191.22799    41402.763 
  451200    296.82594    -1472.855    478.54603    337.28757    422.73629    41402.763 
  451300    310.56855   -1424.2463    490.40034    459.40154    207.94369    41402.763 
  451400    291.74889   -1421.2266    495.15302    382.74668   -255.22772    41402.763 
  451500    313.56057    -1461.892    499.36394    444.14206   -323.96782    41402.763 
  451600    293.35915   -1478.8422     492.8455    330.04738   -65.751406    41402.763 
  451700    304.46538   -1519.1446     508.3791    355.10242   -441.54032    41402.763 
  451800    304.22936   -1440.0497    488.79709    413.55656   -386.01822    41402.763 
  451900    302.91443   -1478.2368    491.54081    372.21416   -340.19064    41402.763 
  452000    308.47475   -1482.8292    515.08073    416.10604    63.005244    41402.763 
  452100    294.18365   -1468.0634    490.40733    342.08687     60.16887    41402.763 
  452200     301.5188   -1467.9391    494.52201     379.2321    122.53291    41402.763 
  452300    296.31146    -1468.385    542.09546     402.9989    49.654302    41402.763 
  452400     310.1325   -1448.1161    485.02588    428.20111   -36.754774    41402.763 
  452500    289.87535   -1442.8536    501.70564    359.26743   -2.4116585    41402.763 
  452600    299.81632   -1515.0777    472.31098    302.24499    444.00984    41402.763 
  452700    305.43788   -1516.5143     484.0612    337.77762    334.96339    41402.763 
  452800    297.66119   -1513.7283    488.71286    310.32813    154.70751    41402.763 
  452900    292.10912   -1517.8707    496.84678    289.41239    193.85284    41402.763 
  453000    312.38582   -1506.8363    476.95447    371.51816     95.01983    41402.763 
  453100    293.68261   -1486.1143    482.02602     313.4069    124.59017    41402.763 
  453200    304.19681   -1515.7685    484.28405    333.17866     127.5173    41402.763 
  453300    289.49856   -1497.3956    499.81956    301.14896   -320.71064    41402.763 
  453400    298.49706   -1474.8062     498.8094    363.09659   -297.43974    41402.763 
  453500    304.68446   -1494.6614    492.47313    364.66253   -383.83723    41402.763 
  453600     296.3043   -1476.2101    485.73435    338.78064   -458.29124    41402.763 
  453700     290.2132   -1488.1274    507.93258    321.73615   -81.357686    41402.763 
  453800    300.76786    -1530.475    466.21985    285.02532   -186.86203    41402.763 
  453900    298.25151   -1491.8849    505.72918     351.8361    84.971318    41402.763 
  454000    301.20926   -1484.2569    479.48591    346.48964     -376.693    41402.763 
  454100    296.50896   -1490.2126    473.55244    313.51434    34.894981    41402.763 
  454200    306.90407    -1523.175      494.844    348.47722    97.221052    41402.763 
  454300    297.22807   -1511.2234    484.69088    306.86804   -96.117974    41402.763 
  454400    306.72207   -1511.7715    488.45067    352.67087   -185.03725    41402.763 
  454500    308.99769   -1517.3198    493.27462    362.15529   -257.43637    41402.763 
  454600    295.93963   -1544.2212    502.04643    285.44565    209.40298    41402.763 
  454700    294.90662   -1562.6415    498.26619    258.61088    327.27186    41402.763 
  454800    302.65842   -1560.6154    473.52355    270.66983   -173.65744    41402.763 
  454900    294.23557   -1529.0045    490.27647    281.24782   -162.51612    41402.763 
  455000     308.1907   -1555.8508    494.97284    321.70224   -87.492351    41402.763 
  455100    302.60152   -1499.0617    476.46192     334.9067    295.60574    41402.763 
  455200    292.06585   -1523.5595    484.80994    271.49263    303.55904    41402.763 
  455300     296.9345   -1503.0836    495.44208    324.44207    368.68499    41402.763 
  455400    290.84821   -1513.2839     461.5844    253.08016   -103.11939    41402.763 
  455500    294.06726   -1517.1838    466.08199    268.11894   -644.27452    41402.763 
  455600    297.09092   -1492.2888    462.90255    303.39904   -92.517772    41402.763 
  455700    297.18393    -1492.119    495.27266    336.35617    152.95427    41402.763 
  455800    304.14773   -1486.6517     483.3357    361.12691   -219.48379    41402.763 
  455900    301.45317   -1475.5831    474.17065    350.94241     427.2615    41402.763 
  456000    286.98039   -1511.6798    461.98021     237.7286   -115.13755    41402.763 
  456100    300.18961   -1483.9836    493.06674    355.76956   -242.76599    41402.763 
  456200    306.28785   -1534.0315    469.53096    309.54329    130.63552    41402.763 
  456300    292.81594   -1511.4703    488.93695    291.07387   -143.29731    41402.763 
  456400    298.95135   -1487.8214    467.34806    320.65797   -237.08459    41402.763 
  456500    289.20478   -1507.6656    488.07923    277.82071    222.35245    41402.763 
  456600    300.65043   -1474.0625     472.0779    346.76903    192.92224    41402.763 
  456700    308.52865    -1489.291    473.32157    368.12681    -244.8012    41402.763 
  456800    292.09767   -1500.3378    455.30202    265.34913   -292.38989    41402.763 
  456900    288.27842   -1427.9082    456.45483    321.79795   -853.98137    41402.763 
  457000    303.63283   -1437.0958    476.06666    401.10396    -36.60504    41402.763 
  457100     302.3756   -1428.0832    489.25897    417.66874   -357.72975    41402.763 
  457200    289.44046   -1420.7489    476.37994    354.09545   -38.120665    41402.763 
  457300    302.36431    -1451.314    472.22949    377.35782    202.04206    41402.763 
  457400    307.08559   -1447.8079    503.80233    433.61694    126.22643    41402.763 
  457500    299.04672   -1416.0965    470.30031    395.76303   -62.126765    41402.763 
  457600    296.80482   -1441.1334    514.26647    404.63484    34.820345    41402.763 
  457700    298.43954   -1458.3028    483.11645    363.64901   -283.37575    41402.763 
  457800    303.60481   -1421.6996    500.04249    440.35024   -636.30145    41402.763 
  457900    311.49636   -1399.7118     497.8242    495.52216   -558.64506    41402.763 
  458000    299.37901   -1414.9517    469.02781    397.12599   -218.19284    41402.763 
  458100    292.19344   -1439.5722    492.41921     363.6616   -415.52909    41402.763 
  458200    297.93828   -1451.6949    460.05533    344.94698   -537.62657    41402.763 
  458300    299.88379   -1461.0813    482.97829    367.21135   -177.75536    41402.763 
  458400    299.13957   -1454.7446    494.88923    382.12041    182.90291    41402.763 
  458500    298.52477    -1455.406    469.88273    353.69437    94.559402    41402.763 
  458600    299.98606   -1431.1605    463.58173    378.19444    495.64848    41402.763 
  458700    292.97606    -1425.233    474.93288    364.02533     367.9353    41402.763 
  458800    321.55295   -1454.9634    481.12576    468.68721    578.12813    41402.763 
  458900    307.41271   -1428.8612    502.24803    452.47687    204.75223    41402.763 
  459000    305.77156   -1399.1851    496.28187    468.82444   -154.50682    41402.763 
  459100    301.31451   -1414.7382    468.12024     405.1148   -185.90056    41402.763 
  459200    305.80636   -1426.2877     504.3903    449.98632   -211.50535    41402.763 
  459300    297.99116   -1424.6633     483.6933    395.85383   -637.50982    41402.763 
  459400     287.0472   -1396.0455    500.49634    392.17872   -968.85509    41402.763 
  459500     297.3248   -1419.3407     473.6811    388.17485   -1311.8179    41402.763 
  459600    307.50788   -1428.5338     479.1019     430.0851   -671.97245    41402.763 
  459700     312.4291   -1473.8154    460.59037     388.3691   -239.02233    41402.763 
  459800    293.09821   -1480.1916    485.96366    320.64552    291.24419    41402.763 
  459900    300.27691   -1464.9156    492.01863    374.18101    152.24454    41402.763 
  460000    305.48711    -1394.036    485.87637    462.29189    -157.0558    41402.763 
  460100    302.80957   -1462.5104      468.271    364.20041    22.896861    41402.763 
  460200    293.47682   -1482.9015     466.3811    300.05158   -1.9502428    41402.763 
  460300    300.74541   -1481.3963    488.77535    356.55874    327.85184    41402.763 
  460400    301.19541   -1482.9928    470.05221    338.25788    300.08489    41402.763 
  460500    296.64946   -1453.6585    472.14333    349.28962   -315.44929    41402.763 
  460600    300.91326   -1435.8562    452.21475    366.29123   -483.74998    41402.763 
  460700    296.71374   -1475.5996    469.29018    324.78373   -376.89849    41402.763 
  460800    285.80447   -1489.2437    456.41858    249.32775    91.088673    41402.763 
  460900    295.13504   -1470.8531    463.29663    316.45448    128.43003    41402.763 
  461000    298.37397   -1498.1637    437.39758    277.77509    233.67031    41402.763 
  461100    304.81532   -1489.0938    494.55816     372.9022    658.74997    41402.763 
  461200    301.86913   -1452.9733    453.07463    354.32226    751.34339    41402.763 
  461300     301.6487   -1485.8354    479.91362     347.3102    404.71355    41402.763 
  461400    292.88396   -1477.0389    481.87269    318.74607    243.28506    41402.763 
  461500    303.06566   -1468.3837    468.35966    359.56457    237.81892    41402.763 
  461600    310.84214    -1482.246     495.9588    408.18765   -618.06451    41402.763 
  461700    295.15495   -1480.2075    462.08373    305.97645   -418.88331    41402.763 
  461800    298.73164   -1448.1219    468.27835    360.30214   -282.09116    41402.763 
  461900    289.74344   -1418.3094    468.47039    349.98456   -292.07146    41402.763 
  462000    290.23553   -1460.2716    474.88641      316.646    -288.8348    41402.763 
  462100    298.02742   -1473.8241    483.67445    346.83688    226.58442    41402.763 
  462200    307.63824   -1476.8346    487.18908    390.45631    141.15394    41402.763 
  462300    279.19448   -1435.8437    451.73114    268.38712   -302.97324    41402.763 
  462400    305.16401   -1420.0366    472.70229    421.66782    -669.8439    41402.763 
  462500    313.73307   -1464.1957    436.35041    379.59859   -556.49257    41402.763 
  462600     313.4702   -1475.8652    483.79964    414.19912   -447.64301    41402.763 
  462700    308.87829   -1478.2276    460.04262    367.47978   -373.50988    41402.763 
  462800     315.8699   -1457.4451    460.21882    419.80371   -533.92983    41402.763 
  462900    293.04102   -1460.6653    460.20069    314.15234   -903.65435    41402.763 
  463000    310.31728   -1458.9982    465.24305    398.36516   -518.82811    41402.763 
  463100    305.99517   -1464.9348    488.61267    396.40862   -302.42019    41402.763 
  463200    294.64241   -1458.9447    458.73157    321.58783    2.0901606    41402.763 
  463300    307.82483   -1464.9381    481.13769    397.13839     430.5197    41402.763 
  463400    287.61464   -1470.2251    464.20927    284.25769    161.54283    41402.763 
  463500    293.95721   -1483.6744    443.35472    278.40744    27.002569    41402.763 
  463600    295.70861   -1489.8019    486.75183      323.534   -52.031955    41402.763 
  463700    316.75851   -1518.9721    458.55151    360.59578   -256.45807    41402.763 
  463800     306.7868   -1481.2737    482.11884    377.12723   -495.26641    41402.763 
  463900    297.98918   -1479.3391    478.84228    336.31815   -239.94138    41402.763 
  464000    306.03557   -1489.3203    475.43954    359.03125   -242.33385    41402.763 
  464100    298.22446   -1502.7679    471.99206    307.09458   -511.16321    41402.763 
  464200    301.67711   -1507.6802    459.54157    305.22081   -583.36803    41402.763 
  464300     292.1446   -1494.6052    477.87098    293.86131   -798.21836    41402.763 
  464400    304.67183   -1482.0901    469.75723     354.4613   -250.09118    41402.763 
  464500    297.99959   -1471.0672    491.65276    357.44721   -523.43086    41402.763 
  464600    301.79305   -1488.3639    482.94528    348.46096   -507.00972    41402.763 
  464700    296.57121   -1464.8861    478.66342    344.23111   -287.32879    41402.763 
  464800    294.13914   -1517.8068    495.74553    297.48196   -714.15033    41402.763 
  464900    301.86318   -1479.1939    482.16491    357.16523   -147.44448    41402.763 
  465000    288.93134   -1516.4184    466.13655    245.89862   -155.45999    41402.763 
  465100     297.8865   -1481.4919    466.90246     321.7649    251.72978    41402.763 
  465200    293.76597   -1482.6152    489.30308      324.557   -97.896916    41402.763 
  465300    302.54638   -1536.5851    490.01142    310.68539   -290.85003    41402.763 
  465400    297.01128   -1522.4444     428.3001     238.2837    103.55594    41402.763 
  465500    310.29448   -1500.2914    495.33918    387.06579    26.794951    41402.763 
  465600    292.88146   -1487.1931    457.54406    284.25204    50.023101    41402.763 
  465700    295.02262   -1510.3152     489.4683    302.65969    51.125804    41402.763 
  465800    286.28693   -1508.4162    477.61711    253.51816    219.49992    41402.763 
  465900     293.1288   -1518.2371    473.97212    270.74571    72.906831    41402.763 
  466000    297.97367   -1558.9994    481.32619    259.07219   -274.34235    41402.763 
  466100    286.69036   -1549.7137    466.12704    202.54042   -383.98342    41402.763 
  466200     294.8974   -1536.5924    448.52782    234.88026   -66.165754    41402.763 
  466300    307.70043   -1556.4628    461.78185    285.69984    226.38311    41402.763 
  466400    295.49556   -1501.2567    470.92752     295.2991    376.28125    41402.763 
  466500    302.40042   -1533.6343    458.44975    281.41975    177.51572    41402.763 
  466600    297.14194   -1513.8082    466.84361    286.04954    834.35596    41402.763 
  466700    306.49818   -1526.8554    475.39179    323.52374    153.29419    41402.763 
  466800    301.82403   -1494.3571    484.59485    344.25629    116.50742    41402.763 
  466900    299.72613   -1497.3708    478.16919    325.40552   -40.900615    41402.763 
  467000    303.28536    -1485.274    458.98836    334.28865    7.3723631    41402.763 
  467100    307.42391   -1509.1933    462.50107      332.448   -74.142054    41402.763 
  467200     297.5517   -1482.1528    480.82296    333.52256   -128.45964    41402.763 
  467300    298.57345   -1479.5549    463.15368    323.03484   -121.39645    41402.763 
  467400     295.2039   -1476.9104    472.29677    319.70624    321.72055    41402.763 
  467500    298.51894   -1503.4346    457.00971    292.76663    328.50814    41402.763 
  467600    297.95004   -1560.5231    450.07998     226.1962    770.00042    41402.763 
  467700    312.06009   -1556.7101     474.6503    317.87892    723.48817    41402.763 
  467800    304.85582   -1540.4335    456.98326    284.16927   -120.54847    41402.763 
  467900    294.46711   -1480.3211    474.87094    315.56442    158.30865    41402.763 
  468000    292.31475   -1524.9198    465.23793    251.67692   -45.994251    41402.763 
  468100    298.92035   -1505.1374    483.56798    319.42292    67.227294    41402.763 
  468200    305.91848   -1495.8044    483.59231    360.17468   -103.55329    41402.763 
  468300    298.76863   -1496.7406    471.07747    314.64855   -330.48679    41402.763 
  468400    288.65893   -1463.2951    468.51769    300.18088   -542.33628    41402.763 
  468500    303.90577    -1510.257    465.56017    318.66062   -144.83648    41402.763 
  468600    300.39327    -1511.441    487.52917    323.68819    384.82682    41402.763 
  468700    296.03052   -1533.4335    438.15837    232.75306   -198.16288    41402.763 
  468800     311.2553   -1492.2246    478.99811    383.10189    303.46715    41402.763 
  468900    300.24913   -1508.8789    473.07326    311.14767    17.519488    41402.763 
  469000    301.08132    -1512.027    498.95645    337.61611    456.10178    41402.763 
  469100    303.53728   -1498.3409    461.65968    325.02318     184.0627    41402.763 
  469200      291.284    -1498.213    471.41694    279.93861   -87.588957    41402.763 
  469300    304.77763   -1479.8583    484.40268     371.8131    -263.4989    41402.763 
  469400     296.3531   -1460.4975    467.78694     336.7648   -358.25764    41402.763 
  469500    298.61793   -1475.4518    452.67666    316.86041    331.70788    41402.763 
  469600    311.17913    -1460.944    486.62352    421.66612   -5.7772185    41402.763 
  469700     308.5548   -1472.3166    461.97648    373.87349   -197.85524    41402.763 
  469800    291.88706   -1467.0092     464.4546    306.88554   -73.998091    41402.763 
  469900    301.48778   -1446.0018    466.97094    373.47928    527.86666    41402.763 
  470000    305.41034   -1479.9521    467.29887    357.45391    662.05957    41402.763 
  470100    302.68072   -1485.4884     491.5477    363.92108    746.83016    41402.763 
  470200    301.42809   -1488.6282    476.71105    340.32523    494.10171    41402.763 
  470300    306.43309   -1502.9418    435.85934    307.61291   -171.05564    41402.763 
  470400    302.06079   -1450.2845    488.15878    392.95496   -403.57399    41402.763 
  470500    309.36025   -1475.2516     446.9738    359.54918   -723.73134    41402.763 
  470600    298.68116   -1463.5742    515.57551    391.92055   -735.50558    41402.763 
  470700    303.26745   -1459.7864    473.56063    374.26812   -392.21094    41402.763 
  470800     305.4844   -1426.8609    492.45028    436.02876   -407.91016    41402.763 
  470900    300.87469   -1464.4593    469.84645     355.1469   -30.380929    41402.763 
  471000    307.25047   -1487.1149    432.05882    323.30612   -202.62768    41402.763 
  471100    302.20457   -1492.1077    481.50782    345.12581   -246.87843    41402.763 
  471200    305.70742   -1505.6425     488.2651    354.06246    5.4009872    41402.763 
  471300    300.44613   -1473.4429    471.96322    346.35741    133.37977    41402.763 
  471400    301.80614   -1520.1582    445.99159    279.77172    370.25689    41402.763 
  471500    302.37049   -1477.8661    468.68502    347.28896    86.455191    41402.763 
  471600    298.73511   -1495.7284    471.28833    315.72124   -72.341303    41402.763 
  471700    307.80567   -1512.8626    467.85883    335.84916    336.64749    41402.763 
  471800    303.07916   -1492.2234    491.18753    358.61332   -145.91358    41402.763 
  471900    306.06005   -1457.7518    466.34797    381.61802   -549.52095    41402.763 
  472000    293.56104   -1446.5416    485.57523    355.98345   -437.03061    41402.763 
  472100    299.46957   -1446.1236    481.95964    379.29222   -146.28078    41402.763 
  472200    302.96398   -1484.0991    462.59098    337.62435   -470.57202    41402.763 
  472300    300.42573   -1471.5607    476.51309    352.69802    44.625456    41402.763 
  472400    301.94093   -1437.5193    470.92498    387.94868   -438.75032    41402.763 
  472500     302.3241   -1488.1083    467.13827    335.29196   -77.883839    41402.763 
  472600    293.03514   -1523.1902    466.77276    258.17314    290.61589    41402.763 
  472700    305.44349     -1480.91    440.68369     330.0296    735.82143    41402.763 
  472800    304.20118   -1416.1266    478.52949    427.08557    445.05125    41402.763 
  472900    294.89697   -1468.1063    487.09569    341.93236    175.30668    41402.763 
  473000    300.73866   -1475.9182    488.18654    361.41784    730.22739    41402.763 
  473100    303.84341   -1458.4666    484.88833    389.49943   -292.39284    41402.763 
  473200     299.5098   -1446.3516    477.38376    374.66882    349.61645    41402.763 
  473300    302.76442   -1445.6621    482.05103    394.62623    306.48051    41402.763 
  473400    304.68605   -1443.9004    467.42748    390.38493    253.42676    41402.763 
  473500    295.00797   -1481.6353    466.06386    307.86948   -225.11346    41402.763 
  473600    299.17664   -1497.1166    472.74119    317.76659   -586.80027    41402.763 
  473700    301.99506   -1447.8929    473.21415    380.10709   -475.79792    41402.763 
  473800    314.40968   -1467.6474    452.27546    395.10731   -449.03053    41402.763 
  473900    288.86276   -1415.0041    486.71558    367.58424   -717.76506    41402.763 
  474000    302.38865   -1506.2829    461.91991    312.18855   -394.57839    41402.763 
  474100    293.54031   -1428.5375    506.72943     395.0487   -266.31445    41402.763 
  474200    301.04159   -1488.9095    453.30332    314.90225   -544.21366    41402.763 
  474300    310.23736   -1483.8885    462.87072    370.74396   -519.30586    41402.763 
  474400    301.67355   -1503.0855    478.71519    328.97319    -692.8679    41402.763 
  474500    300.48093   -1481.7653    455.87736    322.10535    845.47202    41402.763 
  474600    291.92601   -1493.7466    489.36882    305.23712    474.30977    41402.763 
  474700    301.43443   -1514.5659    473.07482    310.77969    233.07942    41402.763 
  474800    300.44776   -1502.8007    466.40802    311.45178   -398.82126    41402.763 
  474900    289.71732   -1476.7155    478.57227    301.56323   -298.96794    41402.763 
  475000    301.53039   -1486.5485     455.4774    321.63012    39.966701    41402.763 
  475100    299.69911   -1465.0761    496.25529    375.66512   -119.02479    41402.763 
  475200    305.09529   -1468.2267    470.00312    370.47024    133.90467    41402.763 
  475300    303.55904    -1486.882    473.46559    348.38564   -420.28769    41402.763 
  475400    301.75894   -1450.0962    460.34226    363.97265   -186.80662    41402.763 
  475500     299.8201   -1478.6307    464.15868    330.55666   -305.59896    41402.763 
  475600    301.95681   -1484.7316    485.02529    354.90791   -317.93406    41402.763 
  475700    296.64268   -1445.4721    477.35477    362.65703   -221.68174    41402.763 
  475800    314.49333    -1489.897    459.92255    380.88008    139.83936    41402.763 
  475900    303.91585   -1464.7399    493.58763    392.25043    300.98572    41402.763 
  476000    302.31382   -1468.6453    488.79429    376.36481     909.6801    41402.763 
  476100      290.597   -1479.8124    487.66167    311.50202    828.08975    41402.763 
  476200    308.47133   -1531.6469    455.52376    307.71597     397.1662    41402.763 
  476300    308.11466    -1506.037    454.51688      330.719    170.15996    41402.763 
  476400    312.59529     -1481.91    449.06338    369.49305    -115.6985    41402.763 
  476500    297.00593   -1500.9579    447.33296    278.77904    357.14358    41402.763 
  476600    301.36282   -1486.5608    472.98268     338.3714    -143.8106    41402.763 
  476700    306.89606   -1464.9462    482.82315    394.64927    67.386124    41402.763 
  476800    302.57637   -1498.1225    480.47879    339.74993   -22.762915    41402.763 
  476900    308.47576   -1479.3322    458.22796    362.75481   -237.55395    41402.763 
  477000    311.12348   -1499.0874    454.96297     351.6126   -301.90615    41402.763 
  477100    301.89076   -1534.3432    470.95107    290.92583   -294.73465    41402.763 
  477200    308.58799     -1507.71    440.54162    317.19416    -249.5954    41402.763 
  477300    291.94656   -1499.2772    475.80387    286.23373   -474.82719    41402.763 
  477400    295.56806   -1520.6174    459.84012    265.17625   -261.81629    41402.763 
  477500    301.69848    -1532.474    430.50372    251.48503   -125.54373    41402.763 
  477600    292.21084   -1522.1507    447.50304    236.24494    33.808002    41402.763 
  477700    302.77285   -1486.1531    461.11984    333.24183   -126.48851    41402.763 
  477800    306.53678   -1466.0328    455.34745    364.47522    168.02802    41402.763 
  477900    304.35755   -1460.9261    473.86428    378.32243   -55.032307    41402.763 
  478000    294.18909   -1438.8221    464.97797    345.92318    115.79619    41402.763 
  478100    291.92426   -1482.0759    464.28099    291.81209   -544.86203    41402.763 
  478200    298.92883   -1443.9832    477.72791      374.775   -751.33763    41402.763 
  478300    295.82432   -1529.9235    445.08842    242.26806     -920.361    41402.763 
  478400    301.70551   -1447.2777    442.21422    348.42334   -859.91489    41402.763 
  478500    308.22108   -1477.1857    468.17343    373.70425   -693.96805    41402.763 
  478600    299.47703   -1461.1626     467.4236    349.75066   -586.41124    41402.763 
  478700    299.69648   -1461.4767    470.89573    353.89312   -721.61739    41402.763 
  478800    296.11682   -1457.2001    464.73142    335.94668   -515.68573    41402.763 
  478900    306.59252   -1449.0291    481.85941    408.24086   -491.75746    41402.763 
  479000    285.77386   -1492.3495    453.27376    242.93983   -807.68662    41402.763 
  479100    302.75037   -1464.8349    439.40964    332.74899   -809.36041    41402.763 
  479200     293.8567   -1461.2321    462.26896    319.31303   -177.17439    41402.763 
  479300    297.83381    -1505.762    448.47793    278.83392   -109.13869    41402.763 
  479400    294.79203   -1443.7179    477.00396    355.75828    527.74634    41402.763 
  479500    294.87435    -1459.029    451.85857    315.67104   -15.293894    41402.763 
  479600    300.35806   -1461.2369    489.03845    375.24361   -110.86252    41402.763 
  479700    301.54923   -1465.2428    474.67387    362.21683   -837.09032    41402.763 
  479800    302.88907   -1480.3164    462.11188    340.59194   -109.62031    41402.763 
  479900     313.8051   -1477.1882    461.54096    392.11984    249.41659    41402.763 
  480000     295.9211   -1462.1627    473.05683    338.43148   -112.88055    41402.763 
  480100    308.63602   -1463.8549    471.99388    392.71697   -295.40103    41402.763 
  480200    292.45592   -1495.5922    473.00508      289.405    377.92098    41402.763 
  480300    297.27212   -1522.3983    441.28956    252.48942   -190.40908    41402.763 
  480400    292.48621   -1476.4723    487.59968    323.25534      152.921    41402.763 
  480500    293.85892   -1525.5474    483.64243    276.38115   -45.462066    41402.763 
  480600    293.74803   -1477.4234    475.16927    315.53454    263.64605    41402.763 
  480700     297.8441   -1504.3585    475.28345    307.08907     364.6872    41402.763 
  480800    301.25865   -1452.9747    484.73547    383.24293    399.18918    41402.763 
  480900    303.19006     -1492.93    479.67696    346.89369    447.15689    41402.763 
  481000    296.82171   -1477.6266    473.87196    327.82293     395.3651    41402.763 
  481100    299.62261   -1487.2689    453.80157     310.6754    289.22027    41402.763 
  481200    303.10337   -1467.1756     481.8411    374.42334     1056.968    41402.763 
  481300    299.62253   -1482.4422    457.08539    318.78551    691.76751    41402.763 
  481400    295.05551   -1514.4796    474.04734     283.2219    471.16174    41402.763 
  481500    311.22181   -1512.1847    475.84765    359.84106    252.21995    41402.763 
  481600    290.29227   -1475.9285    498.96737     325.3246    126.79142    41402.763 
  481700    299.21094   -1486.4049    460.72389    316.61497   -178.77048    41402.763 
  481800     309.6511   -1464.6531     479.0261     403.5047   -200.68519    41402.763 
  481900    308.35081   -1467.9871    454.91509    370.22644   -316.69728    41402.763 
  482000    291.16741   -1457.4028    482.35395    331.16282   -170.34194    41402.763 
  482100    293.92237   -1450.2245    465.15756    333.50379   -225.66616    41402.763 
  482200    303.72301   -1497.8396    491.90916    356.60715     361.1396    41402.763 
  482300    301.32348   -1488.4563    469.48906    332.80579    607.02197    41402.763 
  482400    310.63739   -1460.0814    478.62267    412.09764    540.20225    41402.763 
  482500     294.7683   -1447.2764      464.471     339.5603    9.3725601    41402.763 
  482600    306.83229   -1450.8654     486.8397    412.46047   -752.27487    41402.763 
  482700    292.63913   -1423.5411    467.97693    357.24981   -350.65845    41402.763 
  482800    292.72202   -1458.4097    459.44282    314.21899   -127.59053    41402.763 
  482900     296.2093   -1461.0051    460.61139    328.43656    -326.9669    41402.763 
  483000    291.14701    -1483.138    478.38513    301.36732   -303.15162    41402.763 
  483100    298.21319   -1452.9422    471.86937    356.74709   -198.88996    41402.763 
  483200    305.09768    -1378.173    492.21762    482.74912   -299.04535    41402.763 
  483300    293.30227   -1405.2934    480.08861    390.58416   -357.01678    41402.763 
  483400    295.56254   -1390.0269    471.46611    407.36798   -269.72116    41402.763 
  483500      301.897   -1374.2535    481.62202    461.71444    61.417973    41402.763 
  483600    301.26498   -1374.9527    485.37916    461.93709   -114.23573    41402.763 
  483700    305.35517   -1426.4046    484.99167    428.44677    -240.5045    41402.763 
  483800    311.29021   -1451.5017    487.34013     432.3234    268.15315    41402.763 
  483900    295.66108   -1462.1567    517.12127    381.33538    383.29261    41402.763 
  484000     299.9762   -1452.1772    472.37197    365.92371     667.2183    41402.763 
  484100    300.75571   -1496.5402    495.77293    348.45869    109.62657    41402.763 
  484200    305.10856   -1467.4706    469.46779    370.75059   -132.89606    41402.763 
  484300    303.87505     -1464.29    476.67152    375.60122   -201.82787    41402.763 
  484400    296.24144   -1462.9281    493.17305    359.21928   -272.06377    41402.763 
  484500    304.38151   -1452.8033    467.09271    379.78111    540.41604    41402.763 
  484600    310.57345   -1474.1285    460.49431    379.63526    624.47951    41402.763 
  484700    304.85176   -1479.5977    465.69236    353.69598   -38.761765    41402.763 
  484800    304.62065   -1439.9123    461.53335     388.1856    108.56565    41402.763 
  484900    295.90478   -1445.2337    495.11029    377.34074   -173.14787    41402.763 
  485000    300.08215   -1481.6373    461.14229    325.70925   -114.16867    41402.763 
  485100    307.84841   -1471.6944    479.81266    389.16287    53.654434    41402.763 
  485200    308.24667   -1423.6789    494.82316    453.97553    138.23225    41402.763 
  485300    289.45024   -1422.0044    493.97372    370.47751    437.47478    41402.763 
  485400    290.38864   -1433.7163    510.39567    379.39735    135.33221    41402.763 
  485500    303.65294   -1400.0068    505.46224     467.6787   -217.83952    41402.763 
  485600    296.64113   -1379.9117    512.42849    463.28422     148.4103    41402.763 
  485700    299.18875   -1384.6362    483.83642     441.3966     30.20406    41402.763 
  485800    303.87158   -1472.4688    489.05128    379.78655    6.8289199    41402.763 
  485900    311.56836   -1513.3538    485.76995    370.14887    491.55839    41402.763 
  486000    291.36817   -1450.6426    502.90213     359.3719   -372.29418    41402.763 
  486100     302.8933   -1420.4648    500.73446    439.08508    104.29335    41402.763 
  486200    302.00457   -1462.6442    475.86215    368.04648   -180.10192    41402.763 
  486300    304.69815   -1446.1562    498.30483    419.06081   -224.76022    41402.763 
  486400    294.39867   -1492.4338    492.22534      320.499   -13.109139    41402.763 
  486500    300.17345   -1496.0261    464.49277    315.08055    127.04879    41402.763 
  486600    291.40783   -1500.9738     477.0654    283.38186    125.13515    41402.763 
  486700    299.31249   -1503.6566    494.78257    333.87743    272.94688    41402.763 
  486800    293.96253   -1506.7013    484.62422     296.6739    242.69038    41402.763 
  486900    300.79951   -1499.4046    462.06856     312.0864    86.083479    41402.763 
  487000    311.98914   -1490.4724    473.83999    382.98805    234.02316    41402.763 
  487100    301.35834   -1479.6881    471.62288    343.86426    166.74433    41402.763 
  487200    308.08621   -1513.3777    477.34141    346.07515    414.73317    41402.763 
  487300    297.00798   -1469.3474    488.00827    351.07405   -242.96509    41402.763 
  487400    295.34577   -1471.4677    484.14594    337.63457   -76.410092    41402.763 
  487500    301.50754   -1490.0038    480.54915    343.14409   -417.80666    41402.763 
  487600    306.07525   -1507.7817    471.89143    337.19976    -125.1434    41402.763 
  487700    294.74191   -1473.4628    481.36843    330.15298   -179.78985    41402.763 
  487800    294.67139    -1444.151    485.90272    363.68271   -489.78299    41402.763 
  487900    293.91014   -1499.6618    481.25458    300.10874   -335.82487    41402.763 
  488000      298.354   -1504.1825     466.1368    300.40589    -459.4873    41402.763 
  488100    307.19995   -1497.6928    480.30804    360.75078    -512.5566    41402.763 
  488200    316.72628    -1481.578    457.29915    396.59295    -196.3156    41402.763 
  488300    294.80452   -1529.8967    471.65341    264.28489   -363.60513    41402.763 
  488400    292.10245   -1527.0771    479.25272    262.58196   -120.21767    41402.763 
  488500    309.77242   -1524.5378    489.79286    354.93099   -364.68398    41402.763 
  488600    295.52001   -1483.9832    471.87263    313.62741   -174.35123    41402.763 
  488700     303.6573   -1464.7291    481.78576    379.29947   -175.15992    41402.763 
  488800    302.45258   -1507.0479    463.57787    313.36831   -49.816082    41402.763 
  488900    311.45551    -1563.042    456.95855    291.14306   -183.82114    41402.763 
  489000    291.97389    -1501.135    464.62644    273.32108    180.11369    41402.763 
  489100     294.4329   -1485.8605    500.04715    335.04773   -188.63619    41402.763 
  489200    292.95594   -1525.3272    493.46154    282.36954   -356.79298    41402.763 
  489300     302.6946   -1517.4449    458.17001    298.64917   -284.99144    41402.763 
  489400    294.06863      -1492.3    480.48292     307.4099   -101.91633    41402.763 
  489500    286.77414   -1494.3526    486.19179    278.34213    122.68012    41402.763 
  489600    293.26178   -1520.0801    451.96742    247.49458    48.339404    41402.763 
  489700    299.14442   -1512.2185    490.87644    320.65548    601.99539    41402.763 
  489800    294.70727   -1524.0161    475.95842    274.03422    407.19617    41402.763 
  489900    299.97588   -1516.0148    467.17306     296.8858   -128.77472    41402.763 
  490000     306.1764    -1525.017    470.26168    318.78851   -512.65725    41402.763 
  490100    300.66469   -1538.1501    471.12958    281.79713   -496.23821    41402.763 
  490200    298.18085   -1502.2409    458.40684    293.84076   -587.28761    41402.763 
  490300    307.26984   -1510.7894     475.5791    343.23884   -306.51695    41402.763 
  490400    302.04745   -1532.2259    473.45637    296.25131   -47.463865    41402.763 
  490500    300.00141   -1501.9452    474.54014    318.43698    468.51582    41402.763 
  490600    297.55761   -1512.7853    439.43829    261.53191   -400.39305    41402.763 
  490700    304.59959    -1514.573    466.47995    318.37696   -102.85409    41402.763 
  490800    308.10779   -1521.2362    446.80008    307.77213    441.40177    41402.763 
  490900    284.88089   -1523.1965    481.11003    235.92315    677.95574    41402.763 
  491000    294.62324   -1492.0667    468.95446    298.60268    71.427483    41402.763 
  491100     305.5185   -1504.9868      480.537    346.14255   -217.78505    41402.763 
  491200    298.43607   -1487.6827    443.12461    294.26169   -309.48957    41402.763 
  491300    303.32589   -1494.0997     516.8991    383.55553    103.45595    41402.763 
  491400    304.20523   -1479.0786     461.0594    346.68171    115.73063    41402.763 
  491500    295.17913   -1459.2615    474.88049    339.82771   -267.94997    41402.763 
  491600    311.40459   -1483.5581    469.44087    382.88085    156.87176    41402.763 
  491700    303.82891   -1454.3113    481.09141    389.79277    44.237686    41402.763 
  491800    293.06355   -1468.8804    475.31916    321.15676   -152.51954    41402.763 
  491900    298.41318   -1441.4108    507.84797    405.15421   -581.62505    41402.763 
  492000    299.54096   -1486.6697    461.51382    318.62053   -472.84847    41402.763 
  492100     291.4777     -1454.95    493.08849    345.74217   -761.27636    41402.763 
  492200    310.34697   -1437.8352    484.87475    439.29306   -179.68695    41402.763 
  492300     301.7992   -1432.5599    466.45018    387.79741   -302.16322    41402.763 
  492400    298.50076   -1433.6692    486.72158    392.16235   -126.29282    41402.763 
  492500    311.96207    -1478.988    461.00948    381.52046   -325.12492    41402.763 
  492600    297.30957    -1452.616    479.55195     360.7021    398.09261    41402.763 
  492700    300.16542    -1457.823    486.79634    375.55121    540.49423    41402.763 
  492800    296.18496    -1426.029    475.67722    378.36921    597.14576    41402.763 
  492900    298.40367   -1413.2022    497.14148    422.61368   -97.188244    41402.763 
  493000    301.41406   -1433.7136    459.05792    377.52363   -6.5164794    41402.763 
  493100    296.42576   -1425.2842    459.58926    364.10633   -562.46566    41402.763 
  493200    292.18664   -1471.7602    474.11752    313.14135   -553.55138    41402.763 
  493300    312.92934   -1459.6803    465.16974    409.32777   -483.01508    41402.763 
  493400    300.00346   -1456.2623    465.50108    355.08999   -530.72519    41402.763 
  493500    293.91756   -1418.5325    469.11912    369.13581   -252.83561    41402.763 
  493600    309.68479   -1382.4783    482.06709    488.87166   -187.61717    41402.763 
  493700    296.17163   -1385.2259    483.69734    427.13259   -598.25728    41402.763 
  493800    292.78818   -1426.6776    451.34289    338.14795   -154.08977    41402.763 
  493900    299.23934    -1437.594    492.63126    397.46056   -20.800055    41402.763 
  494000     289.3615   -1415.9494    443.82136    325.98209    123.44111    41402.763 
  494100    307.14467   -1473.8617    455.00573    359.03153    532.26055    41402.763 
  494200    289.81468   -1448.0273    445.80447    297.92032    146.87019    41402.763 
  494300    293.98787   -1382.2713    453.78941    390.38273    398.74922    41402.763 
  494400    295.65129   -1426.5459    474.17773    373.95869    222.77009    41402.763 
  494500    291.76811   -1456.6828    464.09193    316.31563    91.248557    41402.763 
  494600    302.06451    -1433.416    457.44579    379.12713    301.48708    41402.763 
  494700     300.1662   -1471.8702     466.6669    341.37806   -125.13904    41402.763 
  494800    296.89738   -1472.1922    471.46916    331.19394    131.03622    41402.763 
  494900      297.136   -1459.1879     476.5732    350.37285    266.27693    41402.763 
  495000    294.42651   -1462.2287    483.95002    342.55373    404.08827    41402.763 
  495100    298.31783    -1470.104    458.07427    326.25959    252.69065    41402.763 
  495200    291.78896   -1466.7087    450.72985    293.02113    113.83171    41402.763 
  495300    304.13315   -1480.6767    488.20127    371.90214    94.277024    41402.763 
  495400    294.77403   -1470.3275    470.08471    322.14866    159.98479    41402.763 
  495500    294.88459    -1491.644    479.43975    310.68312    552.75222    41402.763 
  495600    293.93204    -1484.179     478.9048     313.3399    246.60006    41402.763 
  495700    297.44463   -1436.0643    459.66828    357.97601    812.36548    41402.763 
  495800    309.20052   -1442.4883    481.23474    425.85685    1147.8984    41402.763 
  495900    301.65421   -1435.9807    467.16793    384.44393    458.04593    41402.763 
  496000    314.99951   -1427.6503    481.78198    467.25702    533.22299    41402.763 
  496100    287.27456   -1422.0713    490.37578    357.05235    722.34538    41402.763 
  496200    301.80749   -1421.9685    473.36142    405.33725    562.58423    41402.763 
  496300    296.91161   -1390.1838    475.20131    416.99834    168.82631    41402.763 
  496400     293.3881   -1410.6392    458.10843    363.64321    353.10364    41402.763 
  496500    315.50495   -1406.0429    479.74637    489.09623    79.706249    41402.763 
  496600    296.35379    -1458.416    453.69544    324.75785   -56.739613    41402.763 
  496700    295.13232   -1430.1942    460.88928    354.69386   -288.48782    41402.763 
  496800    287.77458   -1411.1494    481.11196    360.95357   -345.47418    41402.763 
  496900    292.39601   -1453.7997    469.14499    327.06863   -680.94783    41402.763 
  497000    311.90564   -1443.2164     469.6023     425.6318   -36.738777    41402.763 
  497100    290.65211   -1460.0718    459.14696    302.97509   -452.39647    41402.763 
  497200    301.95392   -1480.0928    460.00667    334.51509    -376.5371    41402.763 
  497300    291.08603   -1451.8663    474.46109    328.44144   -320.81331    41402.763 
  497400     305.2114   -1471.6707    476.98967    374.53365    769.06511    41402.763 
  497500    307.45464   -1487.3591    467.80058    359.71962    480.10048    41402.763 
  497600    304.62453   -1451.0433     487.4652    403.00383    400.35727    41402.763 
  497700    304.92897   -1461.5327    462.06373    368.47875    433.93562    41402.763 
  497800    288.69973   -1445.4314    451.36156    301.07153    128.20257    41402.763 
  497900    307.01987   -1461.6859    466.83381    382.47564    189.69881    41402.763 
  498000    295.32016    -1417.157    468.38598    376.07041     487.4682    41402.763 
  498100    302.36915   -1392.3964    453.08155     417.1492   -157.95659    41402.763 
  498200    308.96866   -1405.6077    458.32106    438.78357    14.065367    41402.763 
  498300    307.98553   -1407.0859    508.06347    482.63736    89.134917    41402.763 
  498400    298.14379   -1457.8434    482.29993    361.96508    81.396716    41402.763 
  498500    295.47167   -1428.3729    425.96965    323.11785   -193.10299    41402.763 
  498600    289.61318   -1382.1602    485.39935    402.47839   -347.90216    41402.763 
  498700    304.81465   -1423.9757    489.71448    433.17362    193.38509    41402.763 
  498800    295.26474   -1377.3685    474.06645    421.29077    122.95673    41402.763 
  498900    299.44107   -1397.3974    492.40511    438.33604   -44.411593    41402.763 
  499000    294.22782   -1376.8167    461.17214    404.29651   -64.003797    41402.763 
  499100    307.93112   -1404.1869    465.32319    442.55194    77.210594    41402.763 
  499200    293.85912   -1368.5585    462.11898    411.84752    352.43828    41402.763 
  499300    290.28841   -1429.3374    465.37565    338.30662    138.32054    41402.763 
  499400    310.10041    -1398.417    478.83613     471.5665   -234.43247    41402.763 
  499500    303.54268   -1417.3515    488.69479    433.07186   -478.75393    41402.763 
  499600     292.4378   -1387.3225    465.38617    389.97452   -331.68757    41402.763 
  499700    301.74514   -1391.8549    489.88881    451.69851   -159.93712    41402.763 
  499800    296.38072   -1371.7692    460.40962     418.2396    224.44089    41402.763 
  499900    298.06781   -1400.2705    450.21619    387.11334    159.06985    41402.763 
  500000    300.76486   -1448.5462    482.54558     383.2664    139.19355    41402.763 
  500100    306.49418   -1438.6199    447.57115    383.92069    210.55292    41402.763 
  500200    300.84616   -1435.8103    475.98813    389.80954    458.89663    41402.763 
  500300    292.88794   -1447.1788    465.45257    332.20392    356.40491    41402.763 
  500400    305.58672    -1416.867    472.97363    427.00507    219.99796    41402.763 
  500500    300.19654   -1448.5482    445.73133    343.90054    422.18897    41402.763 
  500600    303.18013   -1421.0704    449.50877    388.54058   -126.11455    41402.763 
  500700    307.55054   -1388.0478    460.40333    452.06385     203.6567    41402.763 
  500800    306.90649    -1373.996    467.84479    470.66791   -79.745763    41402.763 
  500900    297.73932   -1414.1214    445.63156    367.20421   -506.81097    41402.763 
  501000     288.8593   -1417.7456     466.3561    344.46774   -414.24348    41402.763 
  501100    308.77438   -1391.4315    464.19426    457.96144    -425.2925    41402.763 
  501200     309.8721   -1371.8579    443.15874      461.424    34.569057    41402.763 
  501300    309.48668   -1378.6547    448.97066    458.71008     39.12329    41402.763 
  501400    298.22677   -1388.1364    472.31874     422.0632    339.35604    41402.763 
  501500    305.22375   -1368.1887    476.51248    477.59391     427.7112    41402.763 
  501600    298.27081   -1377.8146    465.36978    425.63361     576.3736    41402.763 
  501700    305.62222   -1371.7693    466.23318    465.52158    316.31684    41402.763 
  501800    302.42582   -1380.5807    442.50296     418.6405    213.26565    41402.763 
  501900    295.05034   -1418.4317    493.95612    399.15536     379.4601    41402.763 
  502000    306.39235   -1406.2932    471.62122    439.84065    309.33182    41402.763 
  502100    313.90401   -1449.4617    455.03094    413.78004    203.21302    41402.763 
  502200    297.65534   -1454.8508    455.48936     335.9559   -897.16795    41402.763 
  502300    306.28612   -1432.6627    451.88606    393.25936   -950.40601    41402.763 
  502400    286.57558   -1445.6536    476.15304    316.11164   -1161.8611    41402.763 
  502500    287.70626   -1452.2085    452.79216    291.26825   -434.16805    41402.763 
  502600    297.52168   -1449.3195    468.78504     354.1832    9.3641822    41402.763 
  502700    300.70427   -1470.8779    478.02634    356.14358   -73.278786    41402.763 
  502800    304.87026   -1471.8217     424.4111    320.27374    352.73761    41402.763 
  502900    299.41657   -1436.1196     486.1717    393.27052    339.14763    41402.763 
  503000    302.68073   -1434.0824    446.82851    370.60795    745.89264    41402.763 
  503100    296.81203   -1384.8882    451.24734    397.89328    426.55294    41402.763 
  503200    304.24286   -1427.2057     473.5717    411.23569    396.17413    41402.763 
  503300    299.76567   -1393.8449    452.66847    403.60802    437.10479    41402.763 
  503400        293.4   -1448.6422    441.48193    309.06705     142.2597    41402.763 
  503500    293.07499   -1445.8301    461.09479    330.03406    -45.41403    41402.763 
  503600    294.41615   -1415.1511    473.65486    379.28965     46.71486    41402.763 
  503700    289.91605   -1376.3974    472.04795    396.24848    155.79718    41402.763 
  503800     313.1789   -1425.0373    473.79502    453.71554    85.843623    41402.763 
  503900    300.71007   -1423.7838    458.91843    384.15581    192.25084    41402.763 
  504000    294.04765    -1411.382    459.13878    366.88957   -436.51725    41402.763 
  504100    293.72388   -1455.3995    461.74474     324.0256   -208.12954    41402.763 
  504200    303.04055   -1477.7022    452.33237    334.10618   -44.930819    41402.763 
  504300    291.85539   -1471.6452    457.79966    295.45254    121.96716    41402.763 
  504400    298.14524    -1454.269     461.4575    344.70353    307.02069    41402.763 
  504500    308.01513   -1413.0916    476.58384    445.28475     262.4082    41402.763 
  504600    293.90282   -1423.9216    463.65064     358.2121   -377.56801    41402.763 
  504700     316.0777    -1439.715    470.21728    448.46448     153.7812    41402.763 
  504800    302.57074   -1430.9013    469.76767    396.23477    111.36648    41402.763 
  504900    295.99396   -1496.5525     483.0601    314.37174   -446.93754    41402.763 
  505000    298.27419   -1499.7029    453.96702    292.35769   -149.18555    41402.763 
  505100     283.2986   -1473.3507    460.86193     258.4225   -545.81507    41402.763 
  505200    293.03201    -1459.834      467.565    322.30749   -661.47212    41402.763 
  505300    306.15372   -1495.4185    477.32034    355.34393   -779.44401    41402.763 
  505400    296.88225   -1506.3519    460.79335    286.29059    62.667428    41402.763 
  505500    300.80012   -1519.4865    468.94604    298.88478   -404.99486    41402.763 
  505600    296.78787   -1481.7013    469.43374    319.15815   -545.80892    41402.763 
  505700    309.84523   -1483.4163    463.01551    369.60177   -152.96347    41402.763 
  505800    298.93999   -1457.5521    436.64335    320.17166   -322.38485    41402.763 
  505900    297.47425   -1488.7772    457.23635    302.96411    341.23294    41402.763 
  506000    299.41954   -1440.8747     499.4316    401.78866   -227.22118    41402.763 
  506100    294.03487   -1469.2633    458.49877     308.3109    171.18598    41402.763 
  506200    302.42359    -1436.397    475.43128    395.74248    674.32035    41402.763 
  506300    308.48222   -1434.0531    456.85637    406.69132    215.86909    41402.763 
  506400    292.30732    -1405.617     494.5535    400.26193    429.62639    41402.763 
  506500    298.34891   -1407.1309    456.27729    387.57513    238.13721    41402.763 
  506600    311.79755    -1447.295    470.39978    421.86576    107.86587    41402.763 
  506700    289.25803   -1398.4576    466.47447    365.66286   -94.639722    41402.763 
  506800    297.78337   -1414.8543    489.34233    410.37973    -327.6876    41402.763 
  506900    298.07349   -1432.9876    463.65084    367.85646    -565.0483    41402.763 
  507000    304.40265   -1428.1335     481.1505    418.60361   -64.096352    41402.763 
  507100    297.33855   -1458.9757    468.47794    343.39836   -544.45908    41402.763 
  507200    297.39254   -1462.7261    449.14843    320.56072    -184.6371    41402.763 
  507300    304.09042   -1436.2708    498.01328    425.92836   -14.540092    41402.763 
  507400    299.10076    -1419.271    483.78208    406.31274    101.50401    41402.763 
  507500    300.88316   -1428.2036    437.20106    358.79514   -181.94435    41402.763 
  507600    298.55073     -1373.51    458.99403     424.8182    288.01337    41402.763 
  507700    296.85371   -1430.6839    464.79617    365.83332    -139.0334    41402.763 
  507800    290.42087   -1434.4437    478.70093    347.11988    161.95925    41402.763 
  507900    293.16109   -1434.5552    461.19104    341.79146    397.03345    41402.763 
  508000    289.52597   -1416.7092    469.29985    351.43858   -41.803065    41402.763 
  508100    304.22692    -1421.993    457.12968    399.93491   -264.54714    41402.763 
  508200    299.79009   -1450.5794    460.45369    354.76832    260.09692    41402.763 
  508300    299.00461   -1412.7001    463.83498    392.50516    141.04955    41402.763 
  508400    290.37973   -1443.4003    482.08894    341.36675   -6.1860656    41402.763 
  508500    311.33889   -1468.1062    461.00542    389.60259    130.49171    41402.763 
  508600    302.60083   -1522.4792    466.61722     301.6414    601.33024    41402.763 
  508700    301.58238   -1507.9009    446.92725     291.9608   -133.71824    41402.763 
  508800    294.44609   -1458.8831    436.04743    298.08454   -64.572086    41402.763 
  508900    305.49461   -1444.7194    486.64656    412.41241   -203.19056    41402.763 
  509000    301.84502   -1443.6745    454.67994    365.11814   -40.740982    41402.763 
  509100    296.33929   -1384.1679    471.76928     417.0147   -365.61154    41402.763 
  509200    292.39602   -1412.0101    456.95317    356.66651    -35.52818    41402.763 
  509300    296.68183   -1415.2271    466.02492    381.74789   -291.53542    41402.763 
  509400    306.97666   -1423.9943    466.80815    419.94767   -268.99125    41402.763 
  509500    302.12324   -1457.8292     457.6281    355.15973   -348.48163    41402.763 
  509600    298.51252   -1521.8013    431.82407    249.18553   -51.651449    41402.763 
  509700    299.09528   -1487.0858    474.15564    328.84688    663.03635    41402.763 
  509800    294.92226   -1456.6358     444.1229    310.54349    997.20317    41402.763 
  509900    290.21159   -1464.3084    479.41223    317.02756    1000.7161    41402.763 
  510000    306.81853   -1448.6044    431.53181    359.35194    312.71821    41402.763 
  510100    287.48074   -1428.3184    441.40116    302.75557   -61.349017    41402.763 
  510200    292.78379   -1486.4346    466.35927    293.38765     72.88935    41402.763 
  510300    292.66728   -1431.8878     445.7648    326.81728    111.19285    41402.763 
  510400    294.28433   -1457.9418    444.49047    306.74317    157.73699    41402.763 
  510500    305.35174    -1410.206    443.29303    402.93126    246.32803    41402.763 
  510600    294.82909   -1424.2167    446.70859    345.13032    25.526862    41402.763 
  510700    296.12762   -1412.9587    464.93794    380.44308    -612.9386    41402.763 
  510800    301.05149   -1426.7572    480.80289    404.59851   -513.97124    41402.763 
  510900    304.99843   -1414.1106    461.26914    415.41783   -122.33378    41402.763 
  511000    304.20934   -1413.6804     478.5473     429.5862    197.36717    41402.763 
  511100    303.26844   -1468.0069    458.79033     351.2818    20.526959    41402.763 
  511200    303.58599   -1407.3422    484.62956    439.21026    316.70161    41402.763 
  511300    292.23026   -1436.3963    451.27781    325.86124   -599.90169    41402.763 
  511400    306.56537   -1415.9781    481.83016    441.14077    136.31973    41402.763 
  511500    289.78736   -1426.6239    455.36212    328.75889    414.25927    41402.763 
  511600    303.80407   -1464.7674    446.98451    345.11838   -100.98846    41402.763 
  511700    299.55599   -1432.9784    450.07206    360.93757   -206.49234    41402.763 
  511800    294.06346   -1456.0631    487.52563    350.66625   -42.161424    41402.763 
  511900    309.86485   -1461.6067    436.83453    365.31851    265.81704    41402.763 
  512000     304.5826   -1441.5127    469.68523    394.56632   -381.42939    41402.763 
  512100    303.78717   -1434.8991    454.77219    382.69857   -649.51451    41402.763 
  512200    290.18623   -1457.2079    465.47554    310.07757   -810.22573    41402.763 
  512300    303.93048    -1448.813    471.45404    386.10935   -397.18375    41402.763 
  512400    296.53528   -1459.6612    448.48483     319.1162    12.181989    41402.763 
  512500    299.39655   -1431.7616     489.9063    401.27326    41.095158    41402.763 
  512600    289.92479   -1415.0115    473.10025    358.72593    46.560394    41402.763 
  512700    297.18422   -1404.8403    469.82438    398.18788   -102.33176    41402.763 
  512800    298.48872   -1407.0148    436.55165    368.59281    -209.0354    41402.763 
  512900    301.35884   -1432.1324     490.2447    410.04393   -298.91446    41402.763 
  513000    301.45475   -1404.9438    464.62183    412.03999    116.47408    41402.763 
  513100     294.1041   -1376.4973     442.3916    385.28033   -75.230303    41402.763 
  513200    298.80652   -1428.8373    499.23232    410.87671   -819.76475    41402.763 
  513300    297.80559   -1433.7873    451.15521    353.35931    88.530967    41402.763 
  513400    306.68562   -1441.9216    474.15672    408.06337     88.40264    41402.763 
  513500    296.67885   -1436.0813    469.18609    364.04147   -252.52623    41402.763 
  513600    297.12835    -1390.065    466.14328    409.03142    355.87823    41402.763 
  513700    297.50786   -1437.6102    460.18827    357.23372    73.441306    41402.763 
  513800    297.70938    -1461.111    476.27645    350.72521    55.002223    41402.763 
  513900    298.77579   -1468.5359    467.17371    338.98158    240.45051    41402.763 
  514000     298.8988   -1460.4528    457.79112    338.23399   -5.1482621    41402.763 
  514100    308.10726   -1453.5611    461.09621    389.74096    -212.2218    41402.763 
  514200    307.96641   -1465.7402    438.84934    354.68311   -114.71495    41402.763 
  514300    299.88505   -1489.9165    437.90331    293.30682    255.92027    41402.763 
  514400    307.09745   -1487.7858    480.13271    370.02267   -352.86271    41402.763 
  514500    302.00354   -1466.2493    428.52224    317.09675   -56.857775    41402.763 
  514600    306.60995   -1479.7991    482.93672    378.62636    30.491246    41402.763 
  514700    296.35264   -1508.4781    439.52026    260.51545    19.954062    41402.763 
  514800    300.42618   -1493.4899    465.62563    319.88341   -389.06295    41402.763 
  514900    308.49027   -1482.0375    473.05898    374.94559   -16.802881    41402.763 
  515000    296.12431   -1511.1474    471.94368    289.24525   -46.970393    41402.763 
  515100    294.11667   -1477.0536    468.17174    310.56057   -88.791274    41402.763 
  515200    297.85639    -1459.205    471.71886     348.7331    299.35523    41402.763 
  515300      303.826   -1475.9712    480.69255    367.72105   -66.512427    41402.763 
  515400    304.63867    -1465.754    470.27454     371.1659    170.73974    41402.763 
  515500    295.49142   -1507.4933    444.26107    262.37751   -72.855837    41402.763 
  515600    301.47551   -1470.7438    453.46251    335.17373   -250.10123    41402.763 
  515700    295.62904   -1508.3304    459.98565    277.88229   -285.07401    41402.763 
  515800    293.60808   -1502.5017    436.92093    251.58011    -309.1896    41402.763 
  515900    299.52814   -1509.1013    484.10079    318.71841    -391.8107    41402.763 
  516000    304.29232   -1477.8086    475.34191    362.62489    -477.5636    41402.763 
  516100    296.36157   -1464.3012    440.29382     305.5059   -801.18225    41402.763 
  516200    291.96949   -1467.6606    492.65224    334.80156   -1392.3134    41402.763 
  516300     310.0399   -1445.2833    479.93758     425.5302   -475.58445    41402.763 
  516400    307.29035   -1453.5436    484.96642    409.96392   -107.65962    41402.763 
  516500    299.96314   -1457.3145    485.58566    373.94149   -284.05635    41402.763 
  516600    298.62391   -1446.1159    472.01864    365.56523   -108.83498    41402.763 
  516700    304.15351   -1421.0084    479.29913    422.75961   -6.0718477    41402.763 
  516800    304.91244   -1424.1444    465.01032     408.7395   -434.93172    41402.763 
  516900    295.78192   -1442.9013    473.10877    357.12037   -536.03773    41402.763 
  517000    302.14915   -1420.3749    467.41375    402.51587   -169.77986    41402.763 
  517100    304.28146   -1463.2261    470.56191    372.37864   -199.49138    41402.763 
  517200    304.98793   -1452.8373    459.38045    374.75534    150.60528    41402.763 
  517300    296.53979   -1500.3075    476.12626     306.1316    355.29104    41402.763 
  517400    314.10763    -1475.382    471.64976    405.39197    468.53956    41402.763 
  517500    304.14604   -1486.0386     456.1752    334.57199   -199.97226    41402.763 
  517600    297.36845   -1466.6582    455.59998    322.97209    472.30111    41402.763 
  517700    310.88285   -1450.2263    477.69992    422.13108   -148.32057    41402.763 
  517800    306.96973   -1482.7104    457.64143    352.03381    213.09728    41402.763 
  517900    304.48582   -1466.2722     483.3064    382.99382     29.99023    41402.763 
  518000    290.92763   -1509.0661    471.52738    267.59723   -110.78007    41402.763 
  518100    299.89004   -1447.4182    499.62994    397.55414   -271.95708    41402.763 
  518200    303.06818   -1453.2429    474.51295    380.86998   -498.90008    41402.763 
  518300    292.52176     -1467.73    485.57424    330.13174   -663.48138    41402.763 
  518400    299.16568   -1474.0055    478.72018    346.80757    -589.8058    41402.763 
  518500    300.56683   -1457.4636     491.4393    382.35431    -322.5453    41402.763 
  518600    296.79776   -1456.5008    486.36782    361.33715   -106.04147    41402.763 
  518700    288.24923   -1486.8757    461.76516     268.0098   -19.481274    41402.763 
  518800    304.39557   -1520.7047    464.96455    309.81461    83.205152    41402.763 
  518900    296.24365   -1486.8487     484.5769    326.71249    135.44929    41402.763 
  519000    305.39602    -1476.423     493.8406    387.46053    118.65857    41402.763 
  519100    292.88751   -1491.6622    478.06757    300.33361   -4.2720825    41402.763 
  519200    290.21277   -1519.5364    450.81091    233.20358   -78.563188    41402.763 
  519300    298.15495    -1497.143    487.72721    328.14279   -131.64262    41402.763 
  519400    303.04819   -1513.1589    471.22717    317.57851    105.23052    41402.763 
  519500     296.9008   -1473.1767    461.61516    320.37078    90.986978    41402.763 
  519600    297.06326   -1464.5836    492.34743      360.425   -37.320978    41402.763 
  519700    306.68421   -1462.1214    472.87442    386.57488    142.53311    41402.763 
  519800    305.48829   -1439.3516    502.07887    433.18416    245.77968    41402.763 
  519900    302.44343   -1463.0077    509.53916    403.32873    455.58249    41402.763 
  520000    295.87328   -1494.0373    461.58001     294.8655    398.50315    41402.763 
  520100    304.75597   -1489.5467    482.84088    360.46581    440.85392    41402.763 
  520200    296.70596   -1490.6221    458.95461    299.39079    498.22877    41402.763 
  520300    296.84919   -1455.6142    477.37613    353.46277    311.16778    41402.763 
  520400    300.44887   -1475.7341    486.24199     358.3573    73.216963    41402.763 
  520500    289.67869   -1433.7762    466.21403    331.97098    -718.6581    41402.763 
  520600    308.43361   -1455.3442    473.09811    401.42384   -514.23225    41402.763 
  520700    296.09117   -1480.9737    469.21332    316.53992    -42.41237    41402.763 
  520800    300.58208   -1523.6471    462.70992    287.50984    72.010054    41402.763 
  520900    297.19833   -1518.3143    452.47047    267.42331    295.16969    41402.763 
  521000    294.75747   -1486.0757    475.86427    312.10573    205.73435    41402.763 
  521100    298.89545   -1477.4788    488.62736    352.02917   -35.738106    41402.763 
  521200    297.02433   -1529.2158    457.77452    261.04527   -71.057321    41402.763 
  521300    309.07989   -1511.1391     479.1761    354.60619    41.138024    41402.763 
  521400    295.71758   -1542.5883     471.7674     255.8034    14.974246    41402.763 
  521500    296.26713   -1506.5794    450.95954    273.46975   -428.74107    41402.763 
  521600    302.36809   -1516.7624    468.29483    307.99172    119.25842    41402.763 
  521700      289.031   -1526.1944    463.02022    233.45328   -171.58335    41402.763 
  521800    292.73697   -1515.0681    454.93373    253.11861   -155.60881    41402.763 
  521900    299.46878   -1485.5198     491.7556    349.68844   -83.495933    41402.763 
  522000    300.80153    -1462.071    476.54473    363.90517   -383.79545    41402.763 
  522100    292.36806   -1495.4512     489.9644    306.11117   -515.98801    41402.763 
  522200    294.34231   -1490.0686    490.14399    320.53007   -99.390018    41402.763 
  522300    313.60144   -1511.2702    475.42176      371.005    55.028561    41402.763 
  522400    293.72502   -1516.3794     462.3178    263.62382   -251.15987    41402.763 
  522500    304.55983   -1493.8407    482.34615    354.79709   -147.70809    41402.763 
  522600    309.34666   -1473.6175    454.13765    368.28616   -338.39923    41402.763 
  522700     295.1427   -1533.3942    460.07103    250.72213   -178.72682    41402.763 
  522800    306.31227   -1479.0022    477.70138    372.85256   -107.55238    41402.763 
  522900     308.8338    -1464.931    483.22951    403.76372    -332.6197    41402.763 
  523000    294.36996   -1499.3814    479.04891    300.24616   -406.65487    41402.763 
  523100    297.84189   -1489.2894    466.59748    313.46229    120.17278    41402.763 
  523200    297.71157   -1483.3013    480.91235     333.1806    179.51113    41402.763 
  523300    307.17355   -1493.3591    481.37935    366.03739    144.85031    41402.763 
  523400    292.59554   -1525.4697    486.72872    273.87743    151.02391    41402.763 
  523500    294.97287   -1530.7194    456.21845    248.78247    84.698899    41402.763 
  523600     307.3132   -1511.3095    468.82729    336.16147   -183.39785    41402.763 
  523700    302.78939   -1505.4302     475.9692    328.88834   -284.83333    41402.763 
  523800    307.10442   -1468.0243    463.11803    372.80073     -16.8965    41402.763 
  523900    299.54171   -1501.3908    478.36227    320.75125   -500.45985    41402.763 
  524000    302.79451   -1519.5805    473.95133    312.74302   -22.476902    41402.763 
  524100    312.49978   -1525.9222    472.97707    348.96609    283.79787    41402.763 
  524200    291.04635   -1514.1637    487.80898    279.31386    14.136141    41402.763 
  524300    295.77111   -1511.2138    484.94029    300.59094    393.03171    41402.763 
  524400    303.70706   -1518.4113    468.99124    313.04599    312.42354    41402.763 
  524500    298.45985   -1496.8462     483.2284    325.30865   -133.47791    41402.763 
  524600    299.09242   -1487.9637    444.15467    297.95522    146.44065    41402.763 
  524700    308.68347   -1496.1767      480.402    369.01615     446.1919    41402.763 
  524800    291.69537    -1453.854    478.04294     332.7691    730.59912    41402.763 
  524900     305.6811   -1513.5466    491.61441    349.38963    515.74622    41402.763 
  525000    306.86098   -1513.7533    457.87062    320.73223    657.75389    41402.763 
  525100    302.08158   -1510.8687    462.64429    306.94955    330.37112    41402.763 
  525200    293.47442   -1502.0052     461.8038    276.35982   -395.37255    41402.763 
  525300    304.67927    -1487.225    473.51192    353.11444    -395.3485    41402.763 
  525400    307.36953   -1484.6848    467.31221    361.52373   -412.89192    41402.763 
  525500    309.26375   -1508.2685     454.8186    333.94411   -523.20743    41402.763 
  525600     297.0539    -1553.776    459.57303    238.41619   -292.76326    41402.763 
  525700    301.78196   -1531.0662    478.66768    301.43133     505.9099    41402.763 
  525800    301.57978   -1526.8472    460.57521    286.65088    593.38603    41402.763 
  525900    296.01939   -1522.7015    479.56909    284.84589    641.02595    41402.763 
  526000    303.30074   -1525.2882     467.6949    303.05001    577.57267    41402.763 
  526100    305.00032   -1557.0575    459.21212    270.42238    726.16535    41402.763 
  526200    307.38242   -1539.9755    473.23086    312.20947    578.75705    41402.763 
  526300    302.58697   -1563.3173    496.57992    290.70376    856.34959    41402.763 
  526400    302.42598   -1559.0168    442.75298    240.45515    801.50153    41402.763 
  526500    304.85484   -1551.2505    474.32227    290.68689    706.77566    41402.763 
  526600    292.83711   -1563.0672    451.08136    201.71628    966.66206    41402.763 
  526700    294.82871   -1550.3699    467.73321    240.00001   -132.26308    41402.763 
  526800    299.49953    -1527.547    458.29436    274.33792   -207.86216    41402.763 
  526900    302.01111   -1522.3723    477.93694    310.42245   -74.538895    41402.763 
  527000    298.72751   -1552.7555    457.89332    245.26501    431.92948    41402.763 
  527100     294.9073   -1490.6274    489.25555    321.61745    20.219251    41402.763 
  527200    305.79942   -1502.2415    484.48441    354.09556    318.11591    41402.763 
  527300    301.48792   -1529.0937    450.32334    273.74033    199.93783    41402.763 
  527400      309.802   -1494.7749    490.29221    385.32598    306.29517    41402.763 
  527500    306.60136   -1574.6182    464.63932    265.47138   -187.67476    41402.763 
  527600    297.17266   -1552.0445    459.42986     240.5373    114.00009    41402.763 
  527700    299.78497   -1530.8054    484.59047    298.65619  -0.89374871    41402.763 
  527800    308.60757   -1570.4541    442.72963    256.72583   -135.46528    41402.763 
  527900    292.87509   -1564.7565    481.81628    230.93229    103.67826    41402.763 
  528000    291.87638   -1539.0725    480.80286    251.12263    246.04121    41402.763 
  528100    295.13674   -1587.9926    445.07797    181.10396   -69.467096    41402.763 
  528200     288.9005   -1565.2833    473.01955    203.77833    193.69044    41402.763 
  528300    311.54021   -1566.2848    465.64391    296.96559   -118.52708    41402.763 
  528400    291.11955   -1528.1261    471.73676    249.60765   -184.07186    41402.763 
  528500    300.05796   -1511.1796    454.01686    288.93301   -458.32599    41402.763 
  528600    305.72394   -1500.5468    466.90905    337.87625   -714.39879    41402.763 
  528700    307.31071   -1561.9649    447.65466    264.32227    255.22451    41402.763 
  528800    295.31456    -1536.463    464.88147    253.23476    206.06216    41402.763 
  528900    303.23834    -1543.769    474.44883    291.04315    379.71778    41402.763 
  529000    303.07027    -1528.345    461.79956    293.06389    340.55708    41402.763 
  529100    297.94587   -1519.3749    470.69621    287.94203   -138.29386    41402.763 
  529200    292.17042   -1505.9763    468.95928    273.69434    41.419623    41402.763 
  529300    303.28252    -1504.775    446.41404    302.20057   -89.765476    41402.763 
  529400    296.22082   -1494.0497    468.72875    303.56095   -400.36278    41402.763 
  529500    295.13533   -1509.9063    464.65082    278.75681    106.26802    41402.763 
  529600    303.32985   -1475.1115    509.40129    395.06368    236.70205    41402.763 
  529700    297.52194   -1507.9796    476.28232    303.02156   -179.74053    41402.763 
  529800    297.97575   -1517.2076    464.57983    284.12692    84.684592    41402.763 
  529900    293.33877   -1497.9065    454.56714    272.61325   -16.687843    41402.763 
  530000    292.00726   -1463.3733    461.06626    307.67229    81.683631    41402.763 
  530100    300.86611   -1439.8649    458.58301    368.43935    176.44391    41402.763 
  530200     286.9018   -1478.5949    481.81929    290.30002    140.36431    41402.763 
  530300     293.6119   -1490.6623     497.8434    324.35906    527.11438    41402.763 
  530400    302.93955   -1522.3853    494.91694    331.55451    7.0119513    41402.763 
  530500     300.6111    -1528.678    480.08525    299.98441    251.22763    41402.763 
  530600    289.34935    -1500.538     468.9769    266.49457    80.593497    41402.763 
  530700    308.07406   -1491.2699     466.5421    357.32908   -138.63194    41402.763 
  530800    291.79744   -1511.4002    469.19712    266.83499   -417.73101    41402.763 
  530900    306.31306    -1490.117    456.25915    340.29899   -99.948855    41402.763 
  531000    300.07367   -1496.5015    502.30697    351.97166   -593.34285    41402.763 
  531100    304.76745   -1490.0804    458.77516    335.91788   -440.26395    41402.763 
  531200    305.37431   -1501.5502    485.94597    354.34125   -224.30277    41402.763 
  531300    304.85745   -1545.6318    480.90618    302.90121   -560.34176    41402.763 
  531400     298.1608   -1504.8464    494.68276    327.42125    -175.9309    41402.763 
  531500    293.33385   -1511.6973    498.64454    302.87779    31.086013    41402.763 
  531600    291.21196    -1523.021    473.56108    256.95164   -85.338142    41402.763 
  531700    293.91258   -1516.8258    480.15645    281.85751   -450.64576    41402.763 
  531800    308.80062   -1500.1751    470.41881     355.5601   -378.44675    41402.763 
  531900    304.77531   -1523.4065    495.32436    339.17617   -342.08852    41402.763 
  532000    296.89546    -1543.528     477.5662    265.94662   -468.20849    41402.763 
  532100    306.83528   -1559.7923    462.24658    278.95391    88.548713    41402.763 
  532200    297.17604    -1532.649    484.84562    285.36374    119.51584    41402.763 
  532300    297.46738    -1516.988    502.44739    319.93352    821.90855    41402.763 
  532400    297.81965   -1538.1401    458.24719    256.16156    400.99934    41402.763 
  532500    301.21434   -1515.8706    488.31864    323.73146    254.82333    41402.763 
  532600    298.09478   -1514.5937    480.18963    302.88463   -577.47819    41402.763 
  532700    305.59995   -1545.8593     445.1081    270.20661    51.177685    41402.763 
  532800    307.23311   -1574.3215    460.73094    264.69372   -523.57813    41402.763 
  532900    296.59084   -1564.3919    444.18772    210.33763    61.374726    41402.763 
  533000    306.01141   -1557.6146    448.98559    264.17463   -148.56363    41402.763 
  533100    299.99679    -1529.984    498.04352    313.88085    266.55913    41402.763 
  533200    295.97031   -1549.1084    456.25396    234.90362    86.368951    41402.763 
  533300    299.87964   -1590.6188    471.63857    226.31558    127.27239    41402.763 
  533400    303.10093   -1540.2488    445.62428    265.12237    -444.4497    41402.763 
  533500     297.1579   -1536.7949    462.93474    259.22555    33.260778    41402.763 
  533600    301.75881   -1554.5864    478.81957    277.95918   -306.21868    41402.763 
  533700    291.78627   -1522.4002      480.292    266.87975   -159.03681    41402.763 
  533800    299.91378    -1559.355    473.23452    259.32845   -266.12778    41402.763 
  533900     304.5077   -1535.3804    444.11451    274.79191    -86.73949    41402.763 
  534000    304.64842   -1547.9532    495.19401     313.9299    9.9620443    41402.763 
  534100    300.47852   -1519.1458    489.62525    318.46188   -9.8120658    41402.763 
  534200    299.78697   -1574.8231    465.03859     235.0955    108.42198    41402.763 
  534300     304.2507   -1533.6174    463.96409    295.25157    328.16746    41402.763 
  534400     312.1265   -1503.1952    507.96865    405.01013    894.28163    41402.763 
  534500    297.36969   -1513.4371    478.70238    299.30116     465.8761    41402.763 
  534600    290.98508    -1512.493    470.23817     263.1389   -151.87176    41402.763 
  534700    306.32131   -1484.8065    480.28026    369.66761    77.547873    41402.763 
  534800    300.25004   -1503.3977    477.71708    321.27682    426.45533    41402.763 
  534900    309.93449   -1511.5292    475.66176    354.53558    248.37729    41402.763 
  535000     292.1387   -1538.6503    464.66109    236.57985   -28.793447    41402.763 
  535100    304.54975   -1531.6569    465.96632    300.55583   -101.75166    41402.763 
  535200    303.78813   -1538.3314    450.16935    274.66767     138.3435    41402.763 
  535300    293.40628   -1509.8532    480.70194    287.10423   -187.04832    41402.763 
  535400    302.13874   -1521.4201    491.81562    325.82591     20.61008    41402.763 
  535500    299.98832   -1514.6248    461.70626    292.86483     319.8955    41402.763 
  535600     300.9076   -1509.4435    464.58772    305.05156   -359.52807    41402.763 
  535700    305.74985   -1495.6306    502.04985    378.04945    370.32218    41402.763 
  535800     300.9632   -1493.9958    469.60946    325.77041    16.940338    41402.763 
  535900    306.47113   -1507.5055    459.48783    326.84833     -388.309    41402.763 
  536000    301.70208   -1491.2766     471.1125    333.30742   -1214.4115    41402.763 
  536100    293.67359   -1453.3907    480.33757    344.40158   -1507.9957    41402.763 
  536200    310.91963   -1468.9402    468.02783    393.91017   -868.40721    41402.763 
  536300    299.67662   -1477.3298    477.45252    344.50777   -636.91004    41402.763 
  536400    304.01254   -1485.7551    476.87342    354.95483   -469.35831    41402.763 
  536500    300.79051   -1493.1165    481.91847      338.184    124.35757    41402.763 
  536600    302.59249   -1507.2008    482.82864    333.09379      204.073    41402.763 
  536700    295.72109   -1497.8604    469.67589    298.45553    116.47474    41402.763 
  536800    291.46346   -1484.2515    460.61906     283.9074   -442.53721    41402.763 
  536900    302.82611    -1487.925    457.86585    328.45493   -614.86801    41402.763 
  537000    297.26299   -1504.4445    450.55056    279.66328   -917.49034    41402.763 
  537100    301.04361   -1510.0448    470.86841    311.34112   -986.33726    41402.763 
  537200    297.29204   -1518.4972    462.82395    278.01428   -118.65552    41402.763 
  537300    298.09313   -1565.7885    444.37836    215.87113    -598.7693    41402.763 
  537400    301.02419   -1487.4204    482.95263     345.9626   -448.05718    41402.763 
  537500    299.94065   -1495.0467    473.61161    324.13434   -145.08807    41402.763 
  537600    313.93073   -1474.0921    481.11395    415.35252   -588.75563    41402.763 
  537700    302.22241   -1493.2324    458.66614     321.2395   -1015.6909    41402.763 
  537800     300.9111   -1447.6122    462.55837     364.8692   -683.12243    41402.763 
  537900     297.7029   -1516.0896    479.91606    299.35714   -181.90913    41402.763 
  538000     296.9372   -1476.0558    479.67225    335.71203    309.36844    41402.763 
  538100     297.7687   -1470.9664    499.96206    364.82155    438.80085    41402.763 
  538200    306.46003   -1481.5039     474.3469    367.65923    151.45887    41402.763 
  538300    291.36603   -1472.0068    480.92007    316.01598    49.511915    41402.763 
  538400    305.63578   -1463.6052    505.36621    412.87955   -126.34677    41402.763 
  538500    291.32534   -1484.1648    458.12635    280.88174   -621.98657    41402.763 
  538600    296.73883   -1467.6237    478.49269    342.07477   -402.72332    41402.763 
  538700    299.69962   -1487.0128    439.67979     297.1552   -553.44143    41402.763 
  538800     306.9029   -1478.2031     488.4986     387.0985   -183.25073    41402.763 
  538900    304.20451   -1534.1956    469.06722    299.56927   -128.98575    41402.763 
  539000     308.7601   -1482.2403    491.92392    394.81817   -221.54019    41402.763 
  539100    300.83238   -1505.6141    461.47943     305.4352   -546.70064    41402.763 
  539200    301.55777    -1475.468    494.34329    371.69934   -651.50196    41402.763 
  539300    294.93433   -1515.2215    452.63138    260.52046    38.905698    41402.763 
  539400    305.81383   -1497.4001     471.9108      346.428    178.39847    41402.763 
  539500    289.11374   -1506.4673    494.72487    285.25629    256.35237    41402.763 
  539600    291.07932   -1537.6254    465.94938    234.14046   -385.87787    41402.763 
  539700    308.06849   -1510.9505    457.65222    328.73369    208.88418    41402.763 
  539800    298.29613    -1508.083    485.37385    315.48277    545.28059    41402.763 
  539900     296.5926   -1536.4427    492.04163     286.1486    141.19882    41402.763 
  540000    301.33667   -1532.4021    508.15755    327.58767    237.37836    41402.763 
  540100    290.39237   -1513.9962    466.04713    254.78571    199.32968    41402.763 
  540200    306.72419   -1541.0063     485.3791    320.37402   -82.934655    41402.763 
  540300    294.34856   -1490.6135    473.35044    303.21967    479.71798    41402.763 
  540400    299.20084   -1488.3535    476.97585    330.87299    861.46861    41402.763 
  540500    305.28894   -1491.6925    468.62116    346.49119    1035.8287    41402.763 
  540600    342.72801     -1506.36    451.70496    482.86369    917.32129    41402.763 
  540700    296.28617   -1497.6849    485.45969    316.94983    721.94936    41402.763 
  540800    294.98888   -1486.8813     459.1987    295.67265   -14.768072    41402.763 
  540900    303.94902   -1479.2336    447.99883    332.31678   -95.788158    41402.763 
  541000    305.09683    -1545.883    477.12778    299.94551    72.767994    41402.763 
  541100    290.44357   -1554.9107    423.39418    171.44792   -193.94292    41402.763 
  541200    305.10265   -1558.3385    455.49294    265.88129   -575.64975    41402.763 
  541300     298.2171   -1533.9453    468.79903    272.69122   -175.56401    41402.763 
  541400    289.49476   -1518.3307    463.03407     243.4113    327.65435    41402.763 
  541500     295.2275   -1500.1533    467.39336    291.66576   -95.883594    41402.763 
  541600     306.5542   -1525.4527    466.23191    316.01792   -195.38479    41402.763 
  541700    290.19309   -1467.2355    485.53302    320.13825   -251.25952    41402.763 
  541800    305.44944   -1477.3845    467.74551    360.64357   -393.15361    41402.763 
  541900    298.38381   -1501.3899    479.79985    316.99522   -283.80597    41402.763 
  542000    293.41686   -1493.7728    486.32709     308.8573    -495.0134    41402.763 
  542100    298.70081   -1479.7237    467.36751    327.65122   -779.88854    41402.763 
  542200     297.6916    -1482.184    469.06872    322.36463   -723.41751    41402.763 
  542300    293.60901   -1484.3025    478.18379    311.04626   -683.91535    41402.763 
  542400    299.81674   -1482.3741    447.02971     309.6692   -696.50148    41402.763 
  542500    305.45266   -1490.6036    485.72441    365.41779   -731.73059    41402.763 
  542600    292.46954   -1461.2068    443.79075    294.63716   -80.518712    41402.763 
  542700    298.27472    -1480.625    485.77029    343.24118    377.51753    41402.763 
  542800    304.07665   -1486.2602    466.72521     344.5891    811.98919    41402.763 
  542900    307.80519   -1472.9062    467.36734    375.31188    239.68031    41402.763 
  543000    293.92716   -1456.3441     477.2389    339.48708     211.1253    41402.763 
  543100    295.47516   -1469.4724    457.97945    314.04382    488.87589    41402.763 
  543200    299.80819   -1503.7713    469.68618    310.89018    623.34753    41402.763 
  543300    348.05985   -1482.1452    486.07184    565.36463    149.44222    41402.763 
  543400    307.80398   -1511.5725     426.9016    296.17442    533.94703    41402.763 
  543500    302.45767   -1528.6872     481.5739    309.74784   -314.07235    41402.763 
  543600    295.10838   -1485.2882    467.76844     306.3716   -434.57958    41402.763 
  543700    298.32017   -1465.8124    471.00957    343.49699   -820.13456    41402.763 
  543800    303.35141   -1465.3215     456.8281    352.37716   -677.94559    41402.763 
  543900    306.33415   -1488.5548    453.54862    339.24529   -227.16444    41402.763 
  544000    297.14815   -1472.5905    449.80838    310.25989   -538.68403    41402.763 
  544100    286.25034   -1486.2624    480.14609    278.03685   -373.11665    41402.763 
  544200    292.60679   -1468.1842    452.35002    296.83476   -257.54234    41402.763 
  544300    311.17058   -1503.7354    476.23665     368.4495   -273.02302    41402.763 
  544400    308.81144   -1492.9639    471.11205    363.51304    5.5108932    41402.763 
  544500    295.74283   -1489.1894    474.61552    312.16373    47.714774    41402.763 
  544600     302.5626   -1525.8256     446.3516    277.85785    132.21861    41402.763 
  544700    312.96439   -1492.9068    458.25356    369.34235    2.2199803    41402.763 
  544800    302.25266   -1452.6704    471.65783    374.92881   -177.93794    41402.763 
  544900    295.58931   -1429.4769    459.41177    355.98372    20.885694    41402.763 
  545000    293.63703   -1461.1205     480.1697    336.33986   -239.82931    41402.763 
  545100    292.64395   -1491.5515    473.33215    294.61628    237.77307    41402.763 
  545200    298.26142   -1515.2498    479.76518    302.55162    351.63103    41402.763 
  545300    296.11511   -1489.0037    468.17305    307.57703    363.56117    41402.763 
  545400    300.58664   -1492.8956    469.70577    325.27763   -42.465763    41402.763 
  545500    301.88269   -1495.5257    469.13654    327.89252   -725.88101    41402.763 
  545600    314.59025   -1444.0507    486.67907    453.91774   -593.08794    41402.763 
  545700    300.26819   -1495.3361    465.49741    317.20016    -428.6247    41402.763 
  545800    302.35825   -1498.6562    495.70712    353.46603   -301.04071    41402.763 
  545900    304.45933   -1531.9426    456.86019    290.75841   -160.73491    41402.763 
  546000    303.80077   -1493.3802    476.68443    346.19073    590.68158    41402.763 
  546100    303.33124   -1521.9165    475.79291    314.65651    304.14241    41402.763 
  546200    308.69619   -1522.6667    463.38724    325.56838    181.36508    41402.763 
  546300    306.31688   -1516.2773    478.93667     336.8334    336.38769    41402.763 
  546400    301.24709   -1501.2011    458.20965    308.43892    317.15292    41402.763 
  546500     310.2552   -1518.6757    461.06881    334.23492    293.68532    41402.763 
  546600    293.36612   -1523.6868    455.59824    247.98676    12.848476    41402.763 
  546700    285.85662   -1498.8667    459.48818    243.00838   -302.67148    41402.763 
  546800    306.08067   -1499.4597     482.6907    356.34538    315.78358    41402.763 
  546900    290.24305   -1522.6522    468.33824    247.75093    84.957643    41402.763 
  547000    300.19847   -1501.9055    470.04143    314.86206     428.6696    41402.763 
  547100    299.06194   -1507.5883    475.50239    309.54159   -95.726115    41402.763 
  547200    293.52124   -1509.0948    469.84308    277.51948   -63.647338    41402.763 
  547300    288.38666    -1522.636    461.49156    232.59243    29.060481    41402.763 
  547400    306.88162   -1515.6648    481.46245    342.50516    238.58919    41402.763 
  547500    307.48799   -1511.0271    470.84449    339.24514   -356.57077    41402.763 
  547600    297.59924   -1511.4534    471.86845    295.48068   -619.75291    41402.763 
  547700     295.0169   -1492.4837    450.16396    281.16117   -236.06407    41402.763 
  547800     293.0722   -1480.1736    487.37255    321.95578   -125.26834    41402.763 
  547900    298.80995   -1493.7198    466.67808    313.45532   -220.27065    41402.763 
  548000    296.02257   -1500.9264    468.56985    295.63596    28.819143    41402.763 
  548100    301.05878    -1506.564    469.77238    313.79389   -371.66765    41402.763 
  548200    295.83946   -1486.0088    459.25068    300.41297   -44.549101    41402.763 
  548300    292.38883   -1457.3442    500.32657    354.67347    173.40918    41402.763 
  548400    283.25128   -1493.6467    516.74735    293.79962    75.530029    41402.763 
  548500    282.57901   -1482.8063    474.61157    259.48834   -44.826003    41402.763 
  548600    304.74422   -1516.3331    470.25249    321.03825    358.63572    41402.763 
  548700    304.31663   -1512.5249    445.69958    298.37537    -58.17441    41402.763 
  548800    308.45521   -1501.4191    493.39429    375.74204    612.93492    41402.763 
  548900     306.1504   -1508.5404    505.08431    369.97106     376.3308    41402.763 
  549000    307.38541   -1531.5392    483.14917    330.57758    383.11317    41402.763 
  549100    292.85605   -1524.4876    466.02402    255.32357    140.96069    41402.763 
  549200    305.02381   -1528.5746    483.52202    323.32054    349.64547    41402.763 
  549300    302.23964   -1540.1689    471.62813    287.34224     277.6413    41402.763 
  549400    295.01629   -1549.0599    471.71653    246.13489    110.96924    41402.763 
  549500    294.73199   -1511.6372    459.15356    269.71921   -54.504637    41402.763 
  549600    290.48854   -1542.7829    488.53787    248.92115   -206.25673    41402.763 
  549700    300.90276   -1534.1602    482.57555    298.30092   -68.643855    41402.763 
  549800    303.79075   -1525.3961    471.14249     308.5879    259.65785    41402.763 
  549900    307.25004   -1509.2958    492.76313    361.82765    67.883296    41402.763 
  550000    300.87498    -1471.041    502.80292     381.5229    473.43789    41402.763 
  550100    300.39165   -1494.0632    466.37091    319.90047     772.3772    41402.763 
  550200    293.95155   -1518.9817    489.37089    289.09084    501.01944    41402.763 
  550300    294.71372   -1555.1728    465.84704     232.7951    137.83237    41402.763 
  550400    298.41749   -1525.5001    470.72717    283.96345    577.55002    41402.763 
  550500    298.92111   -1545.6357     468.1705    263.53051    134.95821    41402.763 
  550600    306.83844   -1574.0807    453.02704    255.46013     166.7525    41402.763 
  550700    309.26126   -1517.3803    479.60384    349.60637   -20.911517    41402.763 
  550800    304.92497    -1497.719    460.62176    330.83253   -287.77391    41402.763 
  550900    297.41918   -1533.2857    459.13614     260.1083   -43.644865    41402.763 
  551000    300.93558   -1498.9185    490.82326     341.9376   -120.04805    41402.763 
  551100    294.76042   -1521.7689    481.30747    281.86889    5.1183395    41402.763 
  551200    313.31141   -1539.9863    456.70513    322.27111    864.08423    41402.763 
  551300    299.55288   -1541.1689    480.26629    282.92727    963.05492    41402.763 
  551400    298.59996   -1522.7515    507.33404    324.13758    281.92443    41402.763 
  551500    296.23235   -1513.0152     463.6335    279.55192    354.76047    41402.763 
  551600     299.2186   -1556.7164    470.20021    255.81404   -110.04252    41402.763 
  551700    291.01281   -1538.4175    471.27833    238.37892    4.7089205    41402.763 
  551800    315.10893   -1504.9132    476.98253    385.68546   -424.96188    41402.763 
  551900    303.55311   -1526.8277    482.29799    317.24571   -112.04248    41402.763 
  552000    291.57328   -1514.5929     474.3954    267.83499   -382.86165    41402.763 
  552100    297.99042   -1483.3841    489.22129    342.65772    53.516607    41402.763 
  552200    312.80112   -1530.3612    483.97506    356.87698   -109.94927    41402.763 
  552300    291.66184   -1527.4683    482.18851    263.14998   -22.961685    41402.763 
  552400    306.52282   -1551.7849    483.67292    306.98587    553.50636    41402.763 
  552500    308.18189   -1519.3284    479.46617    342.67841    573.05966    41402.763 
  552600     302.7823   -1492.1107    471.20629    337.41301    553.82735    41402.763 
  552700    298.87498   -1498.9031    481.02399    322.90961   -202.92391    41402.763 
  552800    295.33554    -1518.205    467.36655    274.07197    -367.2307    41402.763 
  552900    301.89943   -1470.1235    469.70073    353.93402   -189.80182    41402.763 
  553000    303.95144   -1511.2415    488.57091    340.89179   -508.20048    41402.763 
  553100    300.23561   -1492.7316    486.95506    341.11615     -201.285    41402.763 
  553200     299.5938   -1552.5507    473.02816    264.49091   -124.43222    41402.763 
  553300    300.94268   -1484.1724    475.43569    341.32803   -379.75625    41402.763 
  553400    299.80427    -1457.182    479.72138    367.49704   -67.434286    41402.763 
  553500     298.9784   -1504.9269    500.24664    336.57247    133.36873    41402.763 
  553600    300.04264   -1464.8461    484.14994    365.33084    165.41467    41402.763 
  553700    300.60947   -1447.5136    504.71165    405.76791   -88.913504    41402.763 
  553800    306.87954   -1461.7111    461.94904    376.93612    94.601983    41402.763 
  553900    310.35063   -1462.2008    480.34972    410.41875    374.21544    41402.763 
  554000    300.62521   -1407.8309    501.44537    442.25494    40.243626    41402.763 
  554100    303.85418   -1467.3424    482.69245    378.47612   -260.99003    41402.763 
  554200    287.07585   -1443.7894    454.37881    298.44593    -45.22361    41402.763 
  554300    299.41393   -1460.1585    489.95991    373.00796    331.58084    41402.763 
  554400    296.50782   -1515.5472      485.085    299.70719    62.841084    41402.763 
  554500    291.42893   -1518.0454    472.66244    262.00193    -9.837848    41402.763 
  554600    293.58019   -1479.2366    486.32952     324.1286    -232.9353    41402.763 
  554700     312.2298   -1500.3217    485.78203    386.16043   -109.06356    41402.763 
  554800    287.74987   -1491.7301    463.51406    262.66412   -118.18758    41402.763 
  554900    302.71661   -1495.1178    478.20652    341.11152    290.90726    41402.763 
  555000    304.16736   -1486.3293    469.91662    348.11835   -434.73924    41402.763 
  555100    306.21962   -1474.7338     470.3194    369.32335    -447.2562    41402.763 
  555200    307.16055   -1507.3153    472.05661    342.70012   -992.29632    41402.763 
  555300    306.63334    -1508.497    467.32654    334.42317   -1190.7102    41402.763 
  555400    293.29003   -1488.4003    459.15503     286.4887   -1109.6442    41402.763 
  555500    306.50674   -1463.4309    461.46697    373.06181   -644.52361    41402.763 
  555600    297.93191   -1475.6055    457.01891    317.97146   -904.83075    41402.763 
  555700    297.74021   -1463.5741    492.06834    364.19231   -353.57206    41402.763 
  555800    299.12425   -1447.4135    483.74056    378.23411    150.48824    41402.763 
  555900    302.40157   -1496.1042    462.74163    323.24687   -291.27379    41402.763 
  556000    294.55429   -1486.9333    482.66957    317.14193    95.138367    41402.763 
  556100    299.80826   -1483.4589    465.49435    327.01105   -164.29101    41402.763 
  556200    300.65984   -1512.2885    474.57122    311.07862    360.57584    41402.763 
  556300    296.04759   -1529.7624    477.83234    276.17468    175.81792    41402.763 
  556400    312.68203   -1517.2467    461.91238    347.39456   -91.185365    41402.763 
  556500    292.98496   -1466.7863    481.59516     329.1743   -342.46672    41402.763 
  556600    302.63115   -1492.5346    500.46101    365.56583   -135.79701    41402.763 
  556700    293.31147   -1495.9855    488.19512    308.03984   -494.61609    41402.763 
  556800    310.42441   -1472.6208    471.43556    391.41561   -383.83996    41402.763 
  556900    300.69145   -1465.6449    505.87392    389.16664   -344.76185    41402.763 
  557000    295.52675   -1429.6186    451.55022    347.69984   -119.47797    41402.763 
  557100    302.16737   -1442.1296    489.34788    402.77713    -602.0015    41402.763 
  557200    302.11687   -1469.4906    463.48683    349.32847   -94.616506    41402.763 
  557300    307.59285   -1467.7423    473.33656    385.49245   -155.07957    41402.763 
  557400    304.08731   -1462.7133    470.15117    371.60983   -271.16284    41402.763 
  557500    298.05989   -1442.7649    467.52761    361.89485   -403.80443    41402.763 
  557600    307.42162   -1433.5239    469.55078    415.15686   -572.46143    41402.763 
  557700    294.96653    -1446.286     474.7435    351.71253   -115.81015    41402.763 
  557800    312.44796   -1464.6759    486.19468    423.19756    115.55052    41402.763 
  557900    293.07537   -1468.6565    471.15329    317.26776    140.27442    41402.763 
  558000     298.4206   -1465.1729    491.83622    365.41366    103.83654    41402.763 
  558100    298.39559   -1426.1204     451.1982    363.71598    284.37447    41402.763 
  558200    309.18774   -1441.6647     475.8485    421.23688   -97.736359    41402.763 
  558300    289.07155     -1467.54     464.6819    293.95133    200.92384    41402.763 
  558400    294.82878    -1439.284    489.17175    372.52481    973.81431    41402.763 
  558500    298.09597   -1431.1138    481.65616    387.83637    223.35546    41402.763 
  558600    299.16995   -1410.1143    465.60218    397.59995    789.79031    41402.763 
  558700    309.33426   -1383.9263    464.05295    467.83696    681.62519    41402.763 
  558800    304.35245   -1408.3525    492.49092    449.49975    586.95515    41402.763 
  558900    298.10374   -1393.4191    465.23448    409.14424    71.233444    41402.763 
  559000    303.68112   -1457.3498    475.59598    380.59584    218.80737    41402.763 
  559100    306.01059   -1432.2871    479.17389    419.68673    391.61197    41402.763 
  559200    298.28082   -1430.7449    464.57348    371.95183    26.629833    41402.763 
  559300    301.78327   -1439.0596    494.08397    408.86004   -505.60916    41402.763 
  559400    299.48008   -1446.8546     472.7578     369.4065   -376.10071    41402.763 
  559500    300.90158   -1409.7852    464.32806    404.42322   -462.19087    41402.763 
  559600    295.50543   -1413.6695    466.41099    378.41404   -338.84692    41402.763 
  559700    298.45128   -1396.3104    488.73433    431.31197   -277.76435    41402.763 
  559800    298.59199   -1424.1517    493.87309     409.2406   -222.27889    41402.763 
  559900    302.87613   -1403.9918    485.23308    439.97967   -25.966719    41402.763 
  560000    303.02335   -1429.0533    452.13399    382.47951   -607.34006    41402.763 
  560100    287.56438   -1414.7909     453.2357    328.49283   -545.76086    41402.763 
  560200    303.04517   -1392.4425    486.56272    453.61698   -472.85573    41402.763 
  560300    303.21225   -1397.4793    488.05904    450.82599   -358.49677    41402.763 
  560400    299.96901   -1386.1026    484.59596    444.19012    49.418682    41402.763 
  560500    291.58964   -1416.3472    482.13037    373.88901   -311.46092    41402.763 
  560600    291.19484   -1374.0175    500.96662    433.28392    339.02373    41402.763 
  560700    302.77415   -1412.3075    492.80302     438.7764   -270.66337    41402.763 
  560800    292.13645   -1378.7968    466.39367    398.15581   -143.71339    41402.763 
  560900    294.88723   -1427.8547    488.01383    383.05835   -82.107505    41402.763 
  561000    299.20597   -1436.4065    454.10183    359.96894   -91.849113    41402.763 
  561100    289.49445   -1423.4766    486.35094    361.58098    169.23607    41402.763 
  561200    294.97862   -1439.2717    444.10382    328.14134   -192.30477    41402.763 
  561300    295.57936   -1405.3781    477.58522    398.21135   -399.37436    41402.763 
  561400      295.422   -1389.6095    465.74118    401.42992    -224.4115    41402.763 
  561500    304.58604   -1412.0176    502.49499     456.8867   -229.31227    41402.763 
  561600    299.32466    -1412.251    463.40705    393.96211    -160.1578    41402.763 
  561700    311.73344   -1447.7281    461.22872    411.97398   -406.77165    41402.763 
  561800    307.92207   -1464.5191    455.93259    372.78862   -332.92261    41402.763 
  561900    287.88304    -1443.873    449.40136    297.00593   -186.59737    41402.763 
  562000    308.04283   -1413.6591    498.90368    467.16138   -192.92288    41402.763 
  562100     294.5179   -1427.4424    449.93961    343.73956    220.37002    41402.763 
  562200    299.53218   -1407.9828    460.53504    396.28933   -161.77566    41402.763 
  562300    290.49386   -1370.2142    480.55875    413.53461   -127.90615    41402.763 
  562400    307.18306   -1398.4414    476.72231    456.34075    265.74155    41402.763 
  562500      301.933   -1420.9618    470.68212    404.22777    373.61133    41402.763 
  562600    308.43542   -1418.8346    462.40262    427.24605    321.51878    41402.763 
  562700    307.81887   -1401.6302    473.53198    452.81391   -72.117444    41402.763 
  562800    297.63577   -1414.5993    466.18404    386.81427   -165.04297    41402.763 
  562900    305.89198    -1422.711    491.32312    440.88002    316.98877    41402.763 
  563000    311.63421   -1403.2665    463.21882    457.98052    247.35839    41402.763 
  563100    301.26456    -1375.723    479.70383    455.48955    699.09932    41402.763 
  563200    293.16542   -1399.2894    475.77886    391.66449    896.02807    41402.763 
  563300     298.5962   -1389.8614    477.88442    427.56113     1162.777    41402.763 
  563400    314.13951   -1403.6031    487.53458    493.19869    770.45602    41402.763 
  563500     313.5421   -1392.9393     434.2484     447.8963     692.2313    41402.763 
  563600    308.29331   -1405.9761      465.176    442.24039    573.82938    41402.763 
  563700    301.12495   -1401.4597    479.05327      428.476    658.98236    41402.763 
  563800    293.53473   -1400.3609    460.52898    376.99986    163.95486    41402.763 
  563900    302.27287    -1411.629    484.07328    428.47638    113.94224    41402.763 
  564000    300.24786   -1419.6854    479.16276    406.42504   -52.462592    41402.763 
  564100    292.57194   -1423.7759    465.43484    354.17153    296.89578    41402.763 
  564200    306.03075   -1444.4685    472.02942    400.45137   -317.69936    41402.763 
  564300    318.97593   -1460.7416    450.62258    420.84504    288.86659    41402.763 
  564400    308.62281   -1437.3051    478.62561    425.83926    683.57874    41402.763 
  564500    299.52599   -1446.2309     456.5889    354.06726    233.58847    41402.763 
  564600    310.19511   -1402.5174    480.44325    469.49809    61.831379    41402.763 
  564700    311.80242   -1418.4129    476.92683    457.29673   -487.31314    41402.763 
  564800    296.12917   -1387.1107    480.90731    422.26731    42.729654    41402.763 
  564900    301.65625   -1384.1043    511.19993    480.36153      405.789    41402.763 
  565000    301.41414   -1386.1664    515.94697    481.96034    503.08889    41402.763 
  565100    302.05655   -1405.2945    483.82066    433.58787    5.0487307    41402.763 
  565200    305.61119   -1391.3414    465.17642    444.84319    192.99122    41402.763 
  565300    297.15171   -1435.9079    493.73894    390.88899    195.88386    41402.763 
  565400    308.00562   -1446.4783    469.49791    404.76954    319.27825    41402.763 
  565500    306.34343   -1432.4301    483.81409    425.67711   -216.32833    41402.763 
  565600     290.9589   -1446.6459     500.3519    358.98231    100.73451    41402.763 
  565700    303.78159   -1474.1055    433.52194    322.21687    93.724347    41402.763 
  565800    307.17172   -1490.2387    476.25547     364.0257    239.96248    41402.763 
  565900    282.17945   -1469.2255    475.43358    272.09869   -210.17621    41402.763 
  566000    300.75626   -1453.3976    471.29123    367.12205    312.09102    41402.763 
  566100    290.90318   -1477.8627    482.44344    309.60711    404.72487    41402.763 
  566200    301.55785   -1464.4307    492.30009    380.69386    622.76501    41402.763 
  566300    307.91731   -1505.3062    480.49144    356.53896    229.45494    41402.763 
  566400    297.17033   -1467.8244    477.63954    342.95663    119.69467    41402.763 
  566500    309.91256   -1457.0791    443.21267    376.43819    259.65921    41402.763 
  566600    293.36023   -1447.1106    474.62226    343.56059    218.17698    41402.763 
  566700    297.14948   -1437.0153    510.42408    406.45677   -76.205229    41402.763 
  566800    301.27503   -1482.7603    460.96854    329.76394    91.037464    41402.763 
  566900    301.71503   -1462.7179    475.74072    366.55237   -23.096477    41402.763 
  567000     306.5636   -1450.3081    486.39826    411.37098   -238.76173    41402.763 
  567100    296.19376   -1436.4775    435.75337    328.03637    202.52707    41402.763 
  567200    291.39412   -1425.1569    471.05421    353.12607    167.40415    41402.763 
  567300    284.80852   -1453.2125    471.70062    296.17311    40.386862    41402.763 
  567400    291.25578   -1443.2595    471.21108    334.55974    98.322109    41402.763 
  567500    300.79751    -1415.822    490.23753    423.82903    542.56355    41402.763 
  567600    300.12173   -1479.0617    477.39805    344.71817    520.95569    41402.763 
  567700    307.14046   -1479.3361    471.36955    369.90219    823.09242    41402.763 
  567800    305.59083   -1463.8869    471.24574    378.27568     844.2222    41402.763 
  567900    301.79999   -1484.1754    481.44177    351.17707    580.92691    41402.763 
  568000    304.64508   -1475.4266    477.90595    369.15346    466.18813    41402.763 
  568100    300.87241   -1454.2733    467.01574    362.49191   -108.19062    41402.763 
  568200     302.0523   -1486.6018    470.14705    338.58783   -178.29017    41402.763 
  568300    303.77034   -1459.8987    500.38678    403.23796   -93.955761    41402.763 
  568400    322.11799    -1495.629     461.2258    410.65652   -241.41235    41402.763 
  568500    297.71316    -1476.006     500.7554    360.32611     -590.497    41402.763 
  568600     299.3055   -1442.0255    488.61835    389.31298   -223.44794    41402.763 
  568700     304.1621   -1460.4259    486.18692    390.26846   -171.21736    41402.763 
  568800    305.72185    -1443.243    471.09216     399.3538   -83.759922    41402.763 
  568900    307.77494   -1412.6073    500.23299    468.34075   -512.32144    41402.763 
  569000    299.62108   -1394.3046    493.34328    443.17458   -258.09001    41402.763 
  569100    299.98857   -1454.3457    475.20876    366.64757   -183.81776    41402.763 
  569200    294.36515   -1398.2789    491.54426    413.82246   -176.69698    41402.763 
  569300     288.0158   -1368.5671    489.48632    412.99238   -23.952698    41402.763 
  569400    297.17745   -1431.1649    499.51153     401.5201   -53.872253    41402.763 
  569500    304.81979   -1422.7808      467.511    412.18808    178.42052    41402.763 
  569600    300.81292   -1434.8785    482.77299    397.37706     157.0078    41402.763 
  569700    299.09723   -1447.0124    476.10658    370.87996    599.61672    41402.763 
  569800    295.78809    -1449.522    480.73359    358.15221    406.96633    41402.763 
  569900    296.12261   -1433.8497    491.93539    386.52706    630.73655    41402.763 
  570000    290.36764   -1447.2926    534.01695    389.34812      200.549    41402.763 
  570100    294.02404   -1384.9569    494.65953    428.72951    246.26151    41402.763 
  570200    292.82964   -1407.9662    491.79027    397.49274    118.29578    41402.763 
  570300    300.82055    -1422.866    494.34624    420.99705    266.37911    41402.763 
  570400    293.82805   -1431.3016    493.03629    379.88227    337.71813    41402.763 
  570500    292.85409   -1430.4202    472.79487    356.15306    181.41443    41402.763 
  570600    300.48973   -1422.1643    505.74312    431.61158   -268.98033    41402.763 
  570700    298.10388   -1416.4215    452.04009    372.94816   -118.50916    41402.763 
  570800    313.29065    -1431.927    482.07124    455.60344   -269.10672    41402.763 
  570900    297.84172   -1429.7945    498.99337    405.35227   -128.72929    41402.763 
  571000    302.46036   -1437.7794    487.22452    406.31832   -6.8456554    41402.763 
  571100    295.80403   -1404.9907    468.29358    390.31504    44.284898    41402.763 
  571200    295.63615   -1407.5167    479.47565    398.21791   -29.694549    41402.763 
  571300    297.67211   -1428.0873    462.91112    370.21636    264.15489    41402.763 
  571400    298.44565   -1455.4596    484.13467    367.53787   -117.69352    41402.763 
  571500    305.98524   -1412.1576    469.20015    429.72881   -182.26059    41402.763 
  571600    287.10885    -1400.159    518.62896    406.47447   -219.55654    41402.763 
  571700    291.52418    -1412.363    469.79414     365.2434   -357.75686    41402.763 
  571800    302.57867   -1407.6985    487.33089     437.0364   -10.881596    41402.763 
  571900    296.20314   -1427.0252    472.76993    374.54731   -338.65881    41402.763 
  572000    298.50478   -1409.4081    503.96253     433.6824   -756.08325    41402.763 
  572100    306.40274   -1463.1096    446.95628    358.40586   -394.28814    41402.763 
  572200    293.16068   -1467.9437    480.45767    327.66775   -794.08918    41402.763 
  572300    292.96128   -1445.3387     462.4512    331.37168   -3.7703653    41402.763 
  572400    291.58626   -1465.2023    470.13897    313.02739   -222.00082    41402.763 
  572500    295.17684   -1442.2507    470.29575    352.24352   -364.30586    41402.763 
  572600    298.32334   -1389.2739    469.89649    418.93661   -307.19402    41402.763 
  572700    287.53557   -1439.6413    483.72865    334.00613   -345.34467    41402.763 
  572800    303.95013   -1459.5782     458.0423    362.02061    -392.9646    41402.763 
  572900    298.20655   -1434.1959    499.95897    403.55318   -474.38147    41402.763 
  573000    297.94918   -1407.2409    466.21678    395.61143   -435.48636    41402.763 
  573100     308.1866   -1397.6391    488.17285    473.09554    -311.7477    41402.763 
  573200    295.84827   -1380.5851    500.08529    446.71079    -278.5066    41402.763 
  573300    300.31828   -1404.1839    495.58623    438.66594   -236.81646    41402.763 
  573400    304.03896   -1407.7529     480.7939    436.99597   -84.141918    41402.763 
  573500    312.13603    -1384.185    490.71228     506.8067   -5.6759588    41402.763 
  573600     294.8986   -1441.3449    488.51233    370.11767   -206.11493    41402.763 
  573700     296.9278    -1409.985    476.09581    398.16433   -211.64679    41402.763 
  573800    302.93337   -1450.0267    465.73738    374.70582   -247.12239    41402.763 
  573900     297.4687   -1416.8252    469.80208    387.45687   -109.79175    41402.763 
  574000       296.49   -1433.4347    490.42059    387.07536   -648.34453    41402.763 
  574100    300.57408   -1436.4087    474.84512    386.84754   -224.22378    41402.763 
  574200    298.02918   -1437.3736    489.15517    388.77595    35.435545    41402.763 
  574300    293.59019   -1408.4584    514.31217    422.93438    90.445706    41402.763 
  574400    294.14141   -1444.9437    480.37698    354.98666    97.323237    41402.763 
  574500    306.67138   -1414.1775    489.08689    450.67374    57.871858    41402.763 
  574600    301.51511   -1456.2902    485.70118     382.0437   -1.2558324    41402.763 
  574700    305.90424   -1429.0632    491.44912    434.70878      57.2596    41402.763 
  574800    311.88716   -1489.0823    486.50854    396.58921   -192.52705    41402.763 
  574900    299.20698   -1435.2102    489.90045    396.96843   -324.30809    41402.763 
  575000    303.21847   -1435.9372    453.03343    377.37043   -35.915208    41402.763 
  575100    298.54972   -1425.7077    490.43431    404.05623     209.8331    41402.763 
  575200    296.36363   -1417.2695    505.27935    417.53237   -375.11629    41402.763 
  575300    300.02109   -1425.5934    474.05956    394.39648   -323.74578    41402.763 
  575400    308.60063   -1413.6298    498.48338    469.27279    -206.8381    41402.763 
  575500    309.62988   -1416.2662    467.74522    440.51554   -508.86607    41402.763 
  575600    302.78965   -1430.4016    478.97611    406.92495   -497.30517    41402.763 
  575700    306.80397   -1390.4899     491.2067    477.07594   -98.123249    41402.763 
  575800    291.70733    -1414.711    501.09636    395.01916   -117.51253    41402.763 
  575900     298.1756   -1444.9355    491.92334     384.6391    381.99692    41402.763 
  576000    302.51529   -1431.4198    477.98289    403.68271    127.11864    41402.763 
  576100    319.96201    -1403.426    497.81983    529.78153    516.76912    41402.763 
  576200    303.02155   -1456.4024    466.45643    369.44479     459.3219    41402.763 
  576300    304.43117   -1447.0731    491.69149     410.3329    784.85723    41402.763 
  576400    312.67725   -1465.3524    502.38899    439.74393    1010.7243    41402.763 
  576500    303.99944   -1408.3454    513.04206    468.47439    1128.3459    41402.763 
  576600    296.43348   -1423.0016     513.9274    420.76169     327.2299    41402.763 
  576700    308.55831   -1383.7942    488.90763    489.34279   -96.422003    41402.763 
  576800    295.47978   -1386.5015    488.19922    427.25524    164.14209    41402.763 
  576900    306.01829   -1458.8549    482.23255    396.21217    560.40809    41402.763 
  577000    300.23512   -1426.0245    511.98184    432.84786    160.99605    41402.763 
  577100     300.0725   -1457.2025    490.64621    379.60469    160.50823    41402.763 
  577200    291.96361    -1454.091    473.95751    329.65005    -183.9961    41402.763 
  577300     309.2402   -1447.6724    507.70029    447.31625    279.53067    41402.763 
  577400     297.0504   -1454.7493    506.29308    384.14721   -99.440511    41402.763 
  577500    292.93548   -1441.6217     465.9017    338.42348   -82.970195    41402.763 
  577600    294.29457   -1467.0225    491.92489    345.14292    260.32776    41402.763 
  577700    312.38157   -1497.9944      471.019    374.40555    195.20979    41402.763 
  577800    306.42379     -1457.53    471.97027    389.09383     58.37328    41402.763 
  577900    304.06973   -1428.1421    494.77174    430.72268   -301.68394    41402.763 
  578000    300.67565   -1420.9335    462.54303    390.47636    -518.6222    41402.763 
  578100    297.75122   -1433.1057    459.54533    362.18706   -113.37498    41402.763 
  578200     299.5457   -1423.3324    487.84242    408.30767   -455.15868    41402.763 
  578300    300.72137   -1414.9616    491.07329    425.18359     17.41853    41402.763 
  578400      290.222   -1441.8204    481.17909    341.32912    318.21521    41402.763 
  578500    298.96543   -1466.4189    478.62776    353.40344    60.434544    41402.763 
  578600    306.14847    -1485.058    491.48042    379.84089   -217.44018    41402.763 
  578700    300.95236   -1432.8805    486.70599    403.93364   -174.44434    41402.763 
  578800    308.61443   -1492.0647    458.98543    351.40188   -312.41741    41402.763 
  578900    312.03477   -1489.0312    480.50208    391.29599   -105.26479    41402.763 
  579000    302.62971   -1521.0261    451.97922      288.586    160.17111    41402.763 
  579100    296.77232   -1529.4174     447.8486     249.7872   -319.19965    41402.763 
  579200    298.29203   -1539.5664    460.82832    259.43551   -310.85459    41402.763 
  579300    299.04938   -1485.7674    473.25205    329.05581    351.87782    41402.763 
  579400    308.16373   -1490.1896    459.10748    351.37709    460.45098    41402.763 
  579500    310.15979   -1471.1103    469.31065    389.61416    -411.7011    41402.763 
  579600    291.30118   -1465.1045    490.31638    332.02369   -362.37306    41402.763 
  579700    296.45399   -1424.3506    475.57835    381.15561   -293.39115    41402.763 
  579800     300.0692   -1474.5654    473.11958     344.7004    -720.1425    41402.763 
  579900    286.40552   -1472.0308    471.86456    284.68302   -468.32196    41402.763 
  580000    296.50112   -1431.0979    481.64247    380.68392   -519.00766    41402.763 
  580100    293.52079   -1463.4215    475.15355    328.50128   -524.65087    41402.763 
  580200    299.92208   -1436.8943    500.50219    409.09407    -334.2352    41402.763 
  580300    302.24458   -1522.3231    461.34076    294.92282   -383.33127    41402.763 
  580400    297.95157   -1463.3346    504.43112    377.74273    80.170334    41402.763 
  580500    295.50408   -1487.6199    439.14283    277.18948    -182.5406    41402.763 
  580600    308.49531    -1443.976    490.05973    430.03044    107.57167    41402.763 
  580700    298.23824   -1449.9447    480.44982    368.43743    -380.9986    41402.763 
  580800    298.91422   -1465.9551    472.64496    347.65465   -305.73653    41402.763 
  580900    300.31616   -1432.9755    499.61849    413.89707   -125.38425    41402.763 
  581000    298.27184    -1424.046    481.51202    395.54899   -696.48138    41402.763 
  581100    302.52415   -1420.5262    460.31861    396.95182   -285.48611    41402.763 
  581200    305.64324   -1407.9059     458.5339    421.77994   -638.13508    41402.763 
  581300    296.22456   -1460.7245    476.75787    344.93205    21.252225    41402.763 
  581400    318.06262   -1427.5768    464.93168    464.22174    395.55046    41402.763 
  581500    286.83501   -1424.9085    502.11046    363.97793    48.400457    41402.763 
  581600    304.15458   -1451.0984    463.33546    376.71067   -270.89394    41402.763 
  581700    304.81189   -1471.9561    449.47518    344.94148    202.48244    41402.763 
  581800    294.07461   -1477.1375    480.99264    323.10889    155.68476    41402.763 
  581900    296.00297   -1448.4115    438.95878    318.45191   -171.72311    41402.763 
  582000    306.48253   -1420.8087    470.81854    424.92699   -38.601749    41402.763 
  582100    297.58192   -1419.9657    450.69027    365.71253    148.15751    41402.763 
  582200     292.8495   -1456.3245    463.06093    320.49418    742.38731    41402.763 
  582300    298.48925   -1437.3705    478.71865    380.40647    478.66914    41402.763 
  582400    306.00329    -1458.504    462.89942    377.16265    337.07644    41402.763 
  582500    304.05625   -1456.1109    482.70944    390.63111   -103.59277    41402.763 
  582600    314.68826   -1456.4427    465.57366       420.86    59.342267    41402.763 
  582700    298.10328   -1449.7023    472.40257    360.02715    291.09483    41402.763 
  582800    309.71469   -1426.4064    471.01794    434.02857    437.60702    41402.763 
  582900    285.94864   -1444.3062    479.26355    317.75703    283.86893    41402.763 
  583000    302.26722   -1451.0263     484.0706    389.05108    16.341321    41402.763 
  583100    302.82006   -1452.8099    438.54823    344.22523     140.3397    41402.763 
  583200    297.92727   -1446.9864    471.67406    361.22485    -145.9032    41402.763 
  583300      294.494   -1469.5459     438.0395    289.62874    -312.3205    41402.763 
  583400    297.99946   -1469.4044    453.11155    320.56818   -265.88889    41402.763 
  583500    302.49056   -1464.6796    485.07532    377.40443   -298.22179    41402.763 
  583600    297.06493   -1460.9268    489.71395    361.45579   -116.49685    41402.763 
  583700    299.04763   -1470.4273    499.49789    370.63392    22.736613    41402.763 
  583800    305.67445   -1481.8092    464.57473    354.05756   -263.18632    41402.763 
  583900    301.17212   -1440.3505    489.57126    400.31475     -443.843    41402.763 
  584000    300.28002   -1453.6095    477.02709     370.5095   -139.25602    41402.763 
  584100    309.04437   -1454.5654    470.55452    402.39894    70.692567    41402.763 
  584200    294.98542   -1469.5911    467.27739    321.02606    58.656087    41402.763 
  584300    304.36218   -1437.3027    481.91623    410.01854   -220.99777    41402.763 
  584400    291.38783   -1440.8569    478.01509     344.3587   -46.235009    41402.763 
  584500    299.11268   -1433.3533    470.60035    379.10219   -144.15432    41402.763 
  584600    295.33515   -1478.7078    462.85385    309.05471   -450.61394    41402.763 
  584700    303.04555   -1437.6931    445.01089    366.81623   -166.20681    41402.763 
  584800    300.71951   -1442.4129    470.83546    377.48607   -465.83426    41402.763 
  584900     304.2871   -1469.3634    477.57729    373.28208   -646.88034    41402.763 
  585000     300.5879   -1437.0511     442.3893    353.81138   -829.88158    41402.763 
  585100    305.20636   -1419.3661    459.54454    409.37049   -599.56059    41402.763 
  585200    289.95045   -1448.8464    473.77733    325.68314   -512.90959    41402.763 
  585300    294.97129   -1426.5451    471.36324    368.09453   -504.26789    41402.763 
  585400    297.23378   -1417.4186    470.69525    386.70282   -589.10862    41402.763 
  585500    283.89442   -1436.7203    474.04535    310.90918   -466.93983    41402.763 
  585600    289.61295   -1444.2502    468.30462    323.29268   -522.79817    41402.763 
  585700    303.76856   -1442.5832     463.3783    383.53706   -653.10744    41402.763 
  585800    290.54028   -1423.4165    464.34739     344.3292   -28.866317    41402.763 
  585900    299.99915   -1435.7092    465.23477    375.35751    281.43391    41402.763 
  586000    302.97398   -1409.3843    464.39379     414.1869     34.26147    41402.763 
  586100    290.79106   -1427.5177    459.43817    336.44377   -231.93875    41402.763 
  586200    305.15058   -1409.2825    466.81525    426.47458    580.73003    41402.763 
  586300    299.06073   -1441.7797    475.91066    375.75298   -57.078547    41402.763 
  586400    294.96662   -1449.0793    467.45773    341.63387    193.96963    41402.763 
  586500    299.72977   -1415.8525    452.69062    381.46152   -254.52919    41402.763 
  586600    305.87311   -1398.3417    451.46856    425.31008   -333.91864    41402.763 
  586700    301.71418   -1468.3256    447.26963    332.46978   -707.79023    41402.763 
  586800    306.45725   -1468.8967    446.86405     352.7711   -214.55096    41402.763 
  586900    297.71915   -1441.3809    467.27784    361.50049   -563.99143    41402.763 
  587000    290.95094    -1413.642    457.12054    348.71908   -467.73633    41402.763 
  587100    307.35467   -1421.9512    446.60255    403.48105    89.903233    41402.763 
  587200    297.92166   -1466.8629    466.12055    335.76969    296.74437    41402.763 
  587300    295.32693   -1424.5064     446.1515    346.51683   -334.35415    41402.763 
  587400    302.84227   -1434.6208    456.95789    380.92356    166.86607    41402.763 
  587500    294.10511   -1417.9462     469.5242    370.96859    213.17473    41402.763 
  587600    299.59869   -1440.1163    453.07499    356.99415    149.74125    41402.763 
  587700    300.95529   -1497.1246    447.43552    300.43217    -349.2037    41402.763 
  587800    297.62162   -1439.5685    435.31238    330.90995    132.16251    41402.763 
  587900    302.45739   -1439.5303    461.66118    378.99077    88.863519    41402.763 
  588000    300.39922   -1449.7115    469.63368    367.54891    498.99489    41402.763 
  588100    300.12397   -1434.3096    437.36141    349.44365    284.84594    41402.763 
  588200    306.02693   -1440.9306    484.72899    416.67167    185.30291    41402.763 
  588300    299.87514   -1425.7036    453.89151    373.46346    507.87954    41402.763 
  588400    290.41697   -1431.7536    485.64986    356.74137    65.413693    41402.763 
  588500     303.1754   -1430.2495    451.95739    381.78881    101.46465    41402.763 
  588600    291.36983   -1436.4992    468.43828    339.05881     274.1188    41402.763 
  588700    312.09184   -1448.4184    469.01476    420.67753    551.14174    41402.763 
  588800    303.12235   -1403.9156    484.50195    440.42936    877.46075    41402.763 
  588900    292.14157   -1407.9327    483.52871     386.1779    300.55931    41402.763 
  589000    307.27408   -1465.0277     462.7519    376.19227   -173.88053    41402.763 
  589100    304.51832   -1436.6244    468.13893       397.62    201.64788    41402.763 
  589200    303.42978   -1443.3383    473.68717    391.57097    119.65594    41402.763 
  589300    295.83628   -1471.7957    467.54796    322.90906    534.75651    41402.763 
  589400    291.09198    -1433.453    491.49696     363.9172    88.734063    41402.763 
  589500    292.56891    -1477.431    453.57902    288.64705    135.75671    41402.763 
  589600     291.7106   -1512.6136    464.91244    260.94731   -104.89748    41402.763 
  589700    301.05178    -1511.006    453.40791    292.95612   -254.38534    41402.763 
  589800    286.06534   -1497.1196    440.23052    226.43411   -681.97306    41402.763 
  589900    290.94262   -1473.5163    466.81581    298.50273   -379.06128    41402.763 
  590000    305.99033   -1462.6379    448.33278    358.40401   -245.13695    41402.763 
  590100    294.43545   -1481.5702    477.97485    317.27715   -660.61548    41402.763 
  590200    301.97783   -1454.3438    462.10742    362.47213   -585.51146    41402.763 
  590300    303.41581   -1491.3676    475.82226    345.61412   -701.53986    41402.763 
  590400    298.21166   -1456.7498    454.73264    335.79584   -239.00369    41402.763 
  590500    296.62495   -1431.0046    454.30065    353.99093    62.589046    41402.763 
  590600    301.58872   -1462.6161    475.30448    365.65135   -107.67529    41402.763 
  590700    295.95816   -1495.1308    465.70316    298.27593    25.225325    41402.763 
  590800    294.16616   -1491.2878    460.68183    289.05845     336.3683    41402.763 
  590900    299.64084   -1500.2504    493.71566    337.68972    564.95592    41402.763 
  591000    301.79266   -1480.8119    477.92737    350.99333    294.10333    41402.763 
  591100    295.14377   -1486.7293    485.22891    322.54971    887.53414    41402.763 
  591200    300.15848   -1462.9297    488.50609    372.12314    450.70405    41402.763 
  591300    299.91912   -1467.9382    468.97761    346.51226   -1.3260439    41402.763 
  591400    293.74272   -1477.1585    469.73598    310.34227   -116.48037    41402.763 
  591500    291.63038    -1474.074    466.81281    301.02744   -703.47197    41402.763 
  591600    299.59428   -1470.7847    493.49345    366.72438   -832.34986    41402.763 
  591700    306.48844   -1429.8529    472.12338    417.21412   -594.92484    41402.763 
  591800    296.27435   -1476.9881    482.02831    334.16223     -421.976    41402.763 
  591900    299.39684   -1438.8273    474.31088     378.6135   -78.432853    41402.763 
  592000    303.37594   -1477.3255    485.03955    368.69466    293.06706    41402.763 
  592100    305.23277   -1526.4764    459.55794    302.39212    245.93887    41402.763 
  592200    306.38439     -1482.07    471.29368    363.70054   -57.660486    41402.763 
  592300    304.28287   -1471.5518     472.9467    366.44406    484.82808    41402.763 
  592400     307.7326   -1482.9087    486.41934    384.03576   -45.976612    41402.763 
  592500    301.82331    -1466.073    482.28924    370.23156   -4.5635044    41402.763 
  592600    304.46717   -1490.4559     465.0744    340.49454    354.50939    41402.763 
  592700    296.96998   -1493.4736    477.97562    316.74466   -79.295996    41402.763 
  592800    316.13508   -1521.1942    494.87258    391.89797     362.5561    41402.763 
  592900    296.50596   -1530.4283    478.37881    278.11155    138.27997    41402.763 
  593000    300.24782   -1501.2539    505.11592    350.80957    312.34054    41402.763 
  593100    296.42194   -1516.5914    484.84121    298.03388   -79.201118    41402.763 
  593200    304.82721   -1499.2726    471.14977    339.36831   -316.78382    41402.763 
  593300    297.37272   -1510.6009    451.77686     275.2254   -208.72128    41402.763 
  593400    304.87091   -1490.1292    451.81543    329.37342   -388.66637    41402.763 
  593500    308.84738   -1457.1365    471.28054    399.67023   -749.58127    41402.763 
  593600    298.42574   -1444.8152     483.2239    377.18218   -979.86218    41402.763 
  593700      299.569   -1451.5185    445.65943    338.04317   -801.95486    41402.763 
  593800    292.57299   -1423.7029    484.60643    373.42086   -788.75479    41402.763 
  593900    300.94943   -1444.2339    466.92266    372.78374   -256.68179    41402.763 
  594000    292.04536   -1446.9516    463.71299    326.91165   -241.29158    41402.763 
  594100    291.56927   -1424.3523    486.86601     370.5282   -814.86749    41402.763 
  594200    298.35628   -1431.2378     500.2326    407.45667     51.65044    41402.763 
  594300    294.29853   -1446.5157    467.91137    341.65396   -416.41922    41402.763 
  594400    308.38162   -1418.0252    497.32205    462.73356   -133.53869    41402.763 
  594500    291.16044   -1403.2645    482.97193    385.88784   -258.41084    41402.763 
  594600    300.05835   -1438.6865    473.51748    380.92851   -180.31804    41402.763 
  594700    289.35002   -1452.8829    479.32862    324.50441   -899.32049    41402.763 
  594800    302.66623   -1490.6879    461.59077    328.69967   -548.98725    41402.763 
  594900    302.68964   -1476.4968    471.42631    352.83127   -751.10292    41402.763 
  595000     312.1083   -1443.4776    501.09765    457.77511   -670.07486    41402.763 
  595100    301.93964   -1453.6919    484.64985    385.49518   -682.31152    41402.763 
  595200    305.12376   -1448.2177    494.63308    415.23688   -616.42524    41402.763 
  595300     306.1344   -1488.9125    457.90883    342.35174   -8.5054639    41402.763 
  595400    296.13185   -1529.2365    446.85848    246.10476    11.546678    41402.763 
  595500    300.55091   -1518.6649    478.31083    307.95314     272.8196    41402.763 
  595600    303.67744   -1470.3185    485.47289     377.4875    786.86925    41402.763 
  595700    306.94093   -1464.3276    506.57723    419.22323    841.66056    41402.763 
  595800    294.29684   -1493.7173    490.05009    316.58351    466.97256    41402.763 
  595900    294.68727   -1486.8474    491.95862    327.11344    699.28891    41402.763 
  596000    300.04049   -1472.3606    477.75788    351.41462    765.71317    41402.763 
  596100    300.33776   -1528.1039    446.52321    265.77032    238.57563    41402.763 
  596200    304.79514    -1486.413    485.98201    366.91628    457.39831    41402.763 
  596300    292.62654   -1504.1018    472.49242    281.14816    423.17376    41402.763 
  596400    305.65558   -1532.4982    458.18476    296.89393   -331.84107    41402.763 
  596500    303.33729   -1495.5706    451.26602     316.5026   -163.80888    41402.763 
  596600    295.40569    -1491.361    495.44666    329.31077   -566.67746    41402.763 
  596700    291.08807   -1459.9572    465.20048    311.09902   -373.84331    41402.763 
  596800    298.54102   -1485.2539    478.79173    332.82839   -288.85814    41402.763 
  596900    307.75165   -1480.9316    474.18584    373.86484    256.06492    41402.763 
  597000    288.01828    -1503.448    508.35496    296.99131    364.98781    41402.763 
  597100    290.70199   -1548.2426    470.46973     226.3509    730.27854    41402.763 
  597200    300.66985    -1501.335    461.70454    309.21029    132.26724    41402.763 
  597300    302.67015   -1521.3818    499.68324    336.11579    788.90057    41402.763 
  597400    295.40947   -1512.7008    463.91208    276.45332    464.77546    41402.763 
  597500    299.82766   -1480.8411    496.63202    360.85354    765.46822    41402.763 
  597600    313.32539    -1463.424    458.88963    401.08062    618.30855    41402.763 
  597700    289.22538    -1448.923    498.56642    347.14293    3.2694538    41402.763 
  597800    300.40317   -1482.6484    466.47587    331.47194     175.9005    41402.763 
  597900    294.02542   -1454.0902    452.67581    317.61864    491.23046    41402.763 
  598000    305.46059    -1494.571    484.30657    360.06818    378.71437    41402.763 
  598100     295.0688    -1466.601    489.76837    346.88111    180.07245    41402.763 
  598200    286.39562   -1482.8018    465.84731    267.85034    44.714484    41402.763 
  598300    298.52965   -1503.0968    487.11166    323.25445   -38.690338    41402.763 
  598400    307.16675   -1463.4791    500.25851    414.76603   -100.72379    41402.763 
  598500     295.0114   -1485.6876    469.14843    306.91712   -306.40017    41402.763 
  598600    292.93812   -1457.2472    456.19782    313.10589   -426.41638    41402.763 
  598700    291.00671   -1434.4814    512.81913     383.8285    -188.6991    41402.763 
  598800     301.2865   -1470.4196    478.17734    359.36483   -52.972105    41402.763 
  598900    308.57181    -1523.978    471.88638    332.19826   -435.43441    41402.763 
  599000    309.80915   -1481.2943    469.15814     377.7046   -411.42569    41402.763 
  599100    295.50927   -1466.5234    470.52782    329.69424   -377.37284    41402.763 
  599200    318.78536   -1492.6922    457.12881    394.54571    236.75444    41402.763 
  599300    285.17772   -1508.1274     467.7266    238.94048     244.6157    41402.763 
  599400    301.88671    -1560.389    474.54217    268.45289    257.99473    41402.763 
  599500    306.63931    -1520.176    464.75583    320.20029    520.18749    41402.763 
  599600    302.24567   -1497.1447    483.11621    341.88164    420.82865    41402.763 
  599700    293.96157   -1524.1206    472.29472    266.92077    50.827971    41402.763 
  599800    301.44414   -1511.7081    480.17429    320.78058    279.88779    41402.763 
  599900    286.32181   -1482.6162    438.37212    240.22969   -568.71316    41402.763 
  600000    297.38393   -1529.3784    477.87645    282.59781    -175.8805    41402.763 
  600100     299.7947   -1522.1798    499.21731    321.95225   -139.88818    41402.763 
  600200    307.32532   -1528.2057    461.52977    312.02211    440.07505    41402.763 
  600300    294.80666   -1474.0926    497.19729    345.64244   -262.35318    41402.763 
  600400    297.75211    -1526.945     471.9017    280.70819    373.95887    41402.763 
  600500    293.38365    -1522.867    444.64268    237.92967    617.41972    41402.763 
  600600     316.8447   -1512.8354    476.70696    385.27462    598.19874    41402.763 
  600700    300.26556   -1498.2866    448.78721    297.52764    169.65958    41402.763 
  600800    306.84296   -1470.1805    489.28688    395.64051   -96.198483    41402.763 
  600900    290.55079   -1492.3202     471.8718    282.99705    21.631476    41402.763 
  601000    290.10068   -1502.1385     479.6027    278.89042    170.87645    41402.763 
  601100    306.60568   -1500.8884    512.02304    386.60425    485.34549    41402.763 
  601200    302.18423   -1484.0582    483.68448    355.26073    266.65913    41402.763 
  601300    301.16111   -1514.8263    475.79913    312.01746    168.99883    41402.763 
  601400    295.84417   -1525.4766    476.22016     277.9357    7.1197224    41402.763 
  601500    302.28129   -1489.5815    484.46413    350.95251   -405.12486    41402.763 
  601600    292.64145   -1459.3457    481.98437     335.4631    114.83794    41402.763 
  601700    296.83588   -1474.9042    489.03829    345.77515    121.79594    41402.763 
  601800      306.843   -1457.8848    469.34747     387.9969    211.58652    41402.763 
  601900    297.79492   -1518.1598    477.48503    295.26873   -658.32812    41402.763 
  602000    300.56586   -1459.5933    496.27488    385.05581   -588.26226    41402.763 
  602100     302.0357   -1468.9899    464.61351    350.59172   -452.22674    41402.763 
  602200    299.62369   -1444.1601    484.94847    384.93591   -496.54561    41402.763 
  602300    297.75205   -1458.1315    494.60724    372.22689    627.53297    41402.763 
  602400    306.76695   -1475.3913    464.50818    365.30997    894.76495    41402.763 
  602500    294.97345   -1477.3011    470.69801    316.68291    139.58586    41402.763 
  602600    297.08375   -1446.0281    485.07156    371.79662    359.06219    41402.763 
  602700    300.68384   -1473.3478    490.96673    366.52244    216.20497    41402.763 
  602800    300.27093   -1460.4363    480.19625    366.81113   -115.07594    41402.763 
  602900    307.51842   -1483.8867    476.19628    371.87385    381.89364    41402.763 
  603000    311.35951    -1513.991    441.05523    323.86007    285.33175    41402.763 
  603100    308.93029   -1477.3954    477.32969    385.83239    366.65561    41402.763 
  603200    308.68355   -1451.0075    460.26987     394.0536   -70.759329    41402.763 
  603300    300.63165   -1440.5934    505.09101    413.16703   -178.81711    41402.763 
  603400     293.3961   -1437.0279    468.59193    347.77386   -223.23295    41402.763 
  603500    298.58962   -1416.8989    482.16855    404.77827    -527.3154    41402.763 
  603600    302.94866   -1441.0768     469.8419    387.82892   -841.69134    41402.763 
  603700    298.89774   -1422.6146    475.30764    393.58391   -189.60277    41402.763 
  603800    289.32366   -1479.7688     471.0777    289.24929   -306.75509    41402.763 
  603900    295.59022   -1476.0982    469.76448    319.71919    25.243303    41402.763 
  604000      289.395   -1484.3747    451.54927    265.43497    143.57998    41402.763 
  604100    295.92685   -1557.7275    449.40534    219.24094   -77.073276    41402.763 
  604200    289.46617   -1531.1242    462.41676     229.8723    62.480172    41402.763 
  604300    298.44659   -1485.3229    458.66482     312.2089    222.81598    41402.763 
  604400    293.87802   -1492.8017    469.45055    295.02065   -36.237233    41402.763 
  604500    297.60066   -1492.9073    465.21319    307.37789     174.0501    41402.763 
  604600    300.83195   -1461.7489    475.97029    363.78932    331.36393    41402.763 
  604700    301.25894   -1477.6588    460.25138    334.07603    162.16172    41402.763 
  604800     296.4647   -1476.9181    454.46802    307.52582    261.66096    41402.763 
  604900    301.12517   -1445.0149    473.78567    379.65413    742.96181    41402.763 
  605000    297.57473   -1439.1891    476.29292    372.05952     572.3748    41402.763 
  605100    293.96627   -1449.7614    470.05625    339.06257    994.58173    41402.763 
  605200    297.29823   -1426.8984    499.37919    406.19603   -352.62667    41402.763 
  605300    299.61291   -1455.0454      475.459    364.51282   -122.84007    41402.763 
  605400    295.52146   -1491.9171    437.75906    271.58647   -617.83163    41402.763 
  605500    306.89801   -1520.4021    460.54036     316.9193   -451.06025    41402.763 
  605600     297.9291      -1452.8    458.40203    342.14742   -259.83585    41402.763 
  605700    299.02504   -1494.1921     465.7424    313.01221    202.11286    41402.763 
  605800    297.66986   -1477.9335    463.82182    321.27074   -334.61534    41402.763 
  605900    300.74645   -1521.2631    452.71633    280.63767    191.96389    41402.763 
  606000    302.16773     -1488.73    456.06144    322.89187   -163.59382    41402.763 
  606100     284.1466   -1480.7545    483.20491     277.1659      -82.106    41402.763 
  606200    291.87143   -1473.0475    446.65215     282.9746   -399.10432    41402.763 
  606300     306.2258   -1459.0849    472.17307    386.85363   -561.71646    41402.763 
  606400    291.48361   -1445.6319    458.80669    320.80494    632.45159    41402.763 
  606500    302.42854   -1473.2093    466.42273    349.94384    376.24234    41402.763 
  606600    297.67419   -1498.9416    480.84202    317.30233    351.64308    41402.763 
  606700    300.82306   -1511.9292    468.12191    305.72075   -238.22659    41402.763 
  606800    296.33803    -1472.683    468.45116    325.17586   -8.4045167    41402.763 
  606900    312.20605   -1503.0162    463.20479    360.78209    186.00491    41402.763 
  607000    294.71783   -1458.3347    486.30306    350.10767   -421.82863    41402.763 
  607100    294.41692   -1455.6459    506.01376    371.15721   -694.54131    41402.763 
  607200    295.77394   -1444.4796     472.1373    354.53477   -307.59083    41402.763 
  607300    295.02459   -1436.7695     480.0975    366.84349    74.809171    41402.763 
  607400    302.25362   -1452.8438    464.19202    367.29398   -323.51679    41402.763 
  607500    296.11917   -1439.9818    456.12175    344.56582   -261.16729    41402.763 
  607600    296.11587   -1456.8947    458.27273     329.7891   -322.77378    41402.763 
  607700    297.28069   -1470.9971    463.05267    325.69218   -280.02801    41402.763 
  607800      308.386   -1475.7685    450.73796    358.42574   -325.62395    41402.763 
  607900    295.11209   -1518.6706    438.35917     243.5965    -487.5974    41402.763 
  608000    306.53156   -1503.4993    442.89211    314.52984    159.56262    41402.763 
  608100    305.64615   -1505.7507    472.89451    338.30881    287.60211    41402.763 
  608200     309.7662     -1507.84    490.07189    371.87999    395.52458    41402.763 
  608300    290.16518   -1492.9257    473.67946    282.46927   -198.62128    41402.763 
  608400     298.3277   -1462.6601    450.63374    326.30727   -496.80679    41402.763 
  608500    295.78087   -1475.5782    462.59536    313.92537   -800.53055    41402.763 
  608600    293.65057   -1500.6024    474.51534    291.26439   -585.54728    41402.763 
  608700    302.28868   -1510.3873    473.34946    319.06521   -415.05791    41402.763 
  608800    296.13219   -1464.7892    464.15717    327.85225   -413.11644    41402.763 
  608900    291.57655   -1483.7777    494.43087    318.70028    -398.7558    41402.763 
  609000    303.88085   -1479.8793    464.47215    347.83859    -7.269687    41402.763 
  609100    306.24222   -1476.8043    465.22539    362.26019   -261.69136    41402.763 
  609200    300.01727   -1480.1912     475.0607     340.7827     157.9571    41402.763 
  609300    311.88019   -1491.4445    498.67787    406.36507    838.60337    41402.763 
  609400    300.90776   -1503.8911     463.5621    309.57906    318.10436    41402.763 
  609500    292.31028   -1470.4695    459.80307    300.67237    243.10542    41402.763 
  609600     310.3596   -1483.3341    468.44195      377.418   -218.33186    41402.763 
  609700    307.94183   -1484.5127    484.38284    381.33388    225.01001    41402.763 
  609800    302.90847   -1470.9298    456.47318    344.42683    684.05281    41402.763 
  609900    324.16755   -1471.4384    463.07015    445.88597    615.19519    41402.763 
  610000    298.52211   -1491.6629    480.36147    327.90429    606.35859    41402.763 
  610100    302.00366   -1478.8273     451.8871    327.88417    405.07775    41402.763 
  610200    306.96171   -1491.7067    462.81525    348.17534    102.93052    41402.763 
  610300    293.87429   -1489.8617    469.66597    298.15932   -538.63415    41402.763 
  610400    312.00232   -1543.6751    449.23361    305.23813   -474.77317    41402.763 
  610500    303.13657   -1489.6286    455.84314    326.12125    -98.86136    41402.763 
  610600    304.90018   -1501.6213     461.4869    327.68413   -563.29547    41402.763 
  610700    307.23935   -1479.5582    451.28028    350.03444   -85.375304    41402.763 
  610800    303.82916    -1480.928    458.96343    341.04921   -416.29284    41402.763 
  610900    300.98292   -1477.0728    464.19978    337.37226    290.24507    41402.763 
  611000    299.48496   -1456.0837    491.21712    378.65859    213.43215    41402.763 
  611100    303.37705   -1499.4566    451.21335     312.7424   -271.46649    41402.763 
  611200    293.61798    -1518.107    459.58981      258.688   -380.00473    41402.763 
  611300    302.15765   -1480.9737    442.60264     317.1442   -303.66805    41402.763 
  611400     306.7826    -1457.662    466.30139    384.90267     34.75913    41402.763 
  611500    288.74893   -1452.6882    463.88384    306.55776    -716.5798    41402.763 
  611600    295.91477   -1476.0364    458.80204    310.27449   -365.95102    41402.763 
  611700    300.51003   -1437.9341    482.36091    392.55059   -183.45526    41402.763 
  611800    303.91957   -1471.0035    444.13004    336.54598    233.28483    41402.763 
  611900    295.99123   -1496.4707    471.59769    302.97894    55.373823    41402.763 
  612000    304.11359   -1469.1635    488.66036    383.78666   -392.26341    41402.763 
  612100    289.82754   -1441.2175    449.53733    308.52076    204.27844    41402.763 
  612200    304.00995   -1419.1835    492.21505    436.85638    49.660473    41402.763 
  612300    290.34956   -1451.7418    456.21811    307.01902    480.38989    41402.763 
  612400    294.60987   -1403.7008    475.44688     393.4011    231.15862    41402.763 
  612500    296.62233   -1438.4253    466.87387    359.13173   -112.66048    41402.763 
  612600    303.23643   -1464.4166    504.67559    400.61373     70.94452    41402.763 
  612700    307.22147   -1446.5721    446.31256     377.9726   -257.25127    41402.763 
  612800    299.08763   -1461.3975    467.26097    347.60619   -97.804318    41402.763 
  612900    298.65934   -1476.2598    482.18281     345.7444    12.976654    41402.763 
  613000    306.90654   -1493.0247    456.31618    340.11081   -4.2578607    41402.763 
  613100    297.61914   -1489.2725    470.15825    316.04069   -361.70667    41402.763 
  613200    297.17559   -1481.6922    435.89658    287.36943   -345.73817    41402.763 
  613300    294.10324   -1503.2001    448.40116    264.58327   -736.49265    41402.763 
  613400    304.52068   -1494.7797    450.88772     322.2241   -395.39919    41402.763 
  613500    292.97014   -1461.1955    469.18357    322.28703    14.965546    41402.763 
  613600    302.04988   -1478.1879     484.1163    360.96017    190.49676    41402.763 
  613700    297.28567   -1491.7739    451.99933    293.88438   -64.560885    41402.763 
  613800    293.23524   -1448.2615    475.31548    342.54222   -464.90391    41402.763 
  613900    290.78755   -1451.8559    480.93343    333.58514   -384.85643    41402.763 
  614000    305.41755   -1467.9095    448.98889    351.21893   -495.94212    41402.763 
  614100    301.70183   -1473.9094    445.46291    325.02386   -220.18774    41402.763 
  614200    285.85866   -1419.2108    474.01545    337.20065    -644.5764    41402.763 
  614300    300.20255   -1447.9839    443.38245    342.14293    229.64082    41402.763 
  614400    320.80771   -1434.2782    459.53106    464.43444    346.22225    41402.763 
  614500    295.02695   -1503.3981    475.05882     295.1867    125.24324    41402.763 
  614600     293.7818   -1483.1216    470.43377    305.25237    444.76831    41402.763 
  614700    299.75493   -1449.2007    463.97188    359.50751   -446.51873    41402.763 
  614800    307.61538   -1457.8485    475.66418    397.81492   -105.02648    41402.763 
  614900    308.97819   -1406.3948    479.95128    459.66946    175.42847    41402.763 
  615000     298.6924   -1396.3478    476.09886     419.7207    388.38425    41402.763 
  615100    298.46556   -1444.4248    496.80862    391.33593    459.63883    41402.763 
  615200    300.02815   -1442.0647    447.07907    350.97644    551.18812    41402.763 
  615300    282.18281   -1469.3804    470.45446    266.97975    839.46024    41402.763 
  615400    289.02266   -1449.1679    452.53681    299.95893    370.89635    41402.763 
  615500    295.81302   -1414.3308    497.39214    410.11376     536.2902    41402.763 
  615600    298.11195   -1442.3739    465.96817    360.95996    439.07379    41402.763 
  615700    295.73368   -1423.7159    487.12348    390.10409    278.19059    41402.763 
  615800    305.74478   -1408.2977    479.20806    442.51789   -101.86909    41402.763 
  615900    308.13121   -1426.7332    477.26318    432.84332    110.86894    41402.763 
  616000      298.924   -1406.8148    485.49408    419.68793    80.901012    41402.763 
  616100    307.77979   -1409.1253    451.82357    423.43513   -75.240406    41402.763 
  616200     305.6783   -1421.7371    471.65736    421.22948   -161.12508    41402.763 
  616300    303.44171   -1420.0816    462.38679    403.58084    39.310522    41402.763 
  616400    297.46894   -1459.9978    462.53985    337.02312    250.77668    41402.763 
  616500     301.9555   -1430.6074    475.72453     399.7255   -17.196991    41402.763 
  616600    301.50281   -1439.3152    444.70065    357.96291   -507.25965    41402.763 
  616700    290.72632   -1395.6321    488.62707    397.22784   -27.305919    41402.763 
  616800    297.75702   -1450.3098    475.36458    360.82821   -124.69293    41402.763 
  616900    308.52636    -1449.253    464.63026     399.4633    213.97571    41402.763 
  617000    296.28932   -1477.9838    480.24898    331.45435   -90.009353    41402.763 
  617100    297.46099   -1461.3235    469.60247    342.72441    186.21279    41402.763 
  617200    293.05753   -1454.0656    466.77426     327.3996    520.65962    41402.763 
  617300    286.66686   -1443.7417    491.16398    333.44399    196.92439    41402.763 
  617400    297.89442   -1441.2166    459.43095     354.6042   -28.491844    41402.763 
  617500    294.86059   -1458.3702    456.94203    321.35156    54.440077    41402.763 
  617600    295.65244   -1458.4253     467.9546    335.86143   -536.09014    41402.763 
  617700    295.44368   -1446.1591     496.9438    376.18022   -488.59794    41402.763 
  617800    303.75868   -1451.3053    464.36688    375.75922    95.573475    41402.763 
  617900    300.12277   -1429.1842    466.23668    383.43903   -531.65984    41402.763 
  618000    295.24926   -1455.7342    457.14712    325.93629   -216.78965    41402.763 
  618100    299.09946   -1464.4431    479.99425    357.34697   -101.59959    41402.763 
  618200    297.57813   -1441.5259    470.80392    364.24891     132.6936    41402.763 
  618300    303.89213    -1435.291    507.73165    435.73694    156.08426    41402.763 
  618400    292.41942    -1458.999    462.20253    315.03186    72.902148    41402.763 
  618500    305.34778   -1431.0787    480.14023    418.88805    175.25716    41402.763 
  618600    303.92256   -1465.2221    473.09815    371.30882   -126.55957    41402.763 
  618700    298.58966    -1446.653    493.87812    386.73395   -475.20316    41402.763 
  618800    297.03553   -1415.4379    487.87236    404.97126   -219.85351    41402.763 
  618900    289.68171   -1467.0282    485.28785    317.80629   -141.67582    41402.763 
  619000    308.29892   -1385.5198    491.79059    489.33644     42.69468    41402.763 
  619100    296.83279   -1382.5365    464.76021    413.85101   -453.83922    41402.763 
  619200    294.10502   -1454.2023    476.13521    341.32302   -268.57113    41402.763 
  619300    299.57697    -1487.271    465.05764    321.72462   -326.81732    41402.763 
  619400    303.97049   -1446.9714    474.48871    391.16512    -254.2281    41402.763 
  619500    306.43913   -1518.3086    514.07885    370.49263    427.24692    41402.763 
  619600     302.4932   -1461.9358    492.93391    388.01864     347.6178    41402.763 
  619700    314.47715   -1486.9981     486.8107    410.59461    335.19437    41402.763 
  619800    288.68714   -1480.5764    481.45348    295.96197    266.43527    41402.763 
  619900    299.64723   -1453.8771    466.51454    356.89061   -223.39613    41402.763 
  620000     301.2713   -1488.5434    475.84501    338.84054   -47.703529    41402.763 
  620100    313.59517   -1483.5559    470.67536    393.94479    245.28938    41402.763 
  620200    293.88526   -1467.2495     466.8108    317.96559   -161.30878    41402.763 
  620300    302.51439   -1433.5337    455.47942    379.06137   -289.65214    41402.763 
  620400    307.31549   -1473.6012    478.43912    383.49186   -300.13493    41402.763 
  620500    291.53264   -1477.9817    476.62918     306.4976   -132.57804    41402.763 
  620600    304.14016   -1521.6027    490.03727    332.84361   -64.341422    41402.763 
  620700    294.13522   -1526.7819    475.46296    268.20672   -377.16079    41402.763 
  620800    297.15958   -1481.2404    454.99443    306.84731   -389.52023    41402.763 
  620900    310.50277   -1458.7466    492.79969    427.00544   -337.46126    41402.763 
  621000    304.37375   -1443.3041    502.00886    424.16167   -485.91879    41402.763 
  621100     295.5948   -1488.9901    458.32445    295.40782    -519.3976    41402.763 
  621200     295.5015   -1466.3268    454.92013    314.24828   -119.38099    41402.763 
  621300    311.03875   -1483.9484    464.28671    375.69525   -373.82141    41402.763 
  621400    306.79604   -1491.9515    480.98936    365.36145    68.993475    41402.763 
  621500    306.45554   -1452.9949    484.48515    406.28628    147.97121    41402.763 
  621600    298.80638   -1515.9127     485.4872    310.05555    685.41872    41402.763 
  621700    304.72582   -1461.7085    467.88886    373.21673     827.9668    41402.763 
  621800    295.50367   -1474.6505    494.90831    345.92253    821.58753    41402.763 
  621900    303.15001   -1490.9434     467.8529    336.87656    300.48417    41402.763 
  622000    306.59656   -1425.6122    460.85487    410.67141    427.89893    41402.763 
  622100    303.30899    -1445.055     480.6769    396.30223    7.1848735    41402.763 
  622200    298.60641   -1428.0111    466.84221    378.41503   -455.77559    41402.763 
  622300     296.1815   -1434.5903    472.17335    366.28853   -346.03264    41402.763 
  622400    299.25621   -1429.2385    478.39956    391.66005   -138.06402    41402.763 
  622500    291.20369   -1439.6811    489.62533    356.31862   -369.13044    41402.763 
  622600    303.36262   -1435.6324    456.50863    381.79705   -217.42504    41402.763 
  622700    292.45629   -1420.0786    503.13786    395.05306   -258.45387    41402.763 
  622800    303.53531   -1430.0953      489.484    421.08431    22.097509    41402.763 
  622900    308.93902   -1460.7572    477.71138    402.89144    50.946996    41402.763 
  623000    307.54023   -1465.5899    478.12269    392.19488   -694.39042    41402.763 
  623100    299.87746   -1462.4967    465.92775    348.71705    82.779039    41402.763 
  623200    297.57709   -1410.3353    472.42453     397.0555     27.72676    41402.763 
  623300     290.9684   -1416.9604    497.75392    386.11245   -310.33946    41402.763 
  623400    299.37989     -1441.06    457.19175    359.18559    199.21648    41402.763 
  623500     301.7272   -1427.6475    485.76209    411.69876   -130.81032    41402.763 
  623600    300.07723    -1443.495    479.88001    382.56724   -77.933048    41402.763 
  623700    299.72107   -1414.7125    480.48465    410.35659   -258.84519    41402.763 
  623800    312.87193   -1460.0861    473.11249    416.60711   -174.89246    41402.763 
  623900     294.0188   -1450.4213    495.02814    363.61018     60.51412    41402.763 
  624000    301.60355   -1428.1678    498.19866    423.06029    247.86298    41402.763 
  624100    308.81538   -1456.9302    456.82302    385.27542    43.462245    41402.763 
  624200    299.95394   -1430.7079    480.58203    395.50323    9.5179744    41402.763 
  624300    295.22227   -1477.0844    464.25069    311.56854   -17.187686    41402.763 
  624400    297.31664   -1455.0365    475.85496    354.61636    297.71445    41402.763 
  624500    300.58351   -1455.2997     466.3542    359.50794    72.494177    41402.763 
  624600    306.40196   -1484.5908    482.48982    372.45476    727.57528    41402.763 
  624700     302.1284    -1461.433    490.43304    384.38398    521.71792    41402.763 
  624800    294.65844   -1438.4424    496.37921    379.80963    -19.27705    41402.763 
  624900    301.66105   -1486.9644    474.57819    340.90124    587.84017    41402.763 
  625000    297.86668   -1496.2499    476.16001    316.17554    270.21204    41402.763 
  625100    298.98623    -1478.152    479.16881    342.30465     72.30194    41402.763 
  625200     296.3102   -1449.5531    490.64915    370.37888   -38.855044    41402.763 
  625300    302.69574   -1436.0158    463.86184    385.77514   -284.92436    41402.763 
  625400     302.4737   -1460.5654    476.00168     372.3693   -64.308662    41402.763 
  625500    304.26702    -1466.159    494.64935    393.46845    409.32178    41402.763 
  625600    307.30237   -1492.9063     480.6502    366.33892    128.80402    41402.763 
  625700    289.48623   -1478.9572    469.83021    289.54276   -104.28136    41402.763 
  625800    291.54144   -1494.3447    482.79484    296.33975   -182.91738    41402.763 
  625900    302.93733   -1474.9448    466.51884    350.58705   -61.541957    41402.763 
  626000    302.89929   -1486.5908    448.17982     320.4313   -149.89797    41402.763 
  626100     302.9004   -1501.9922     505.9182    362.77328   -184.79041    41402.763 
  626200    292.04347   -1480.3894    444.21929    273.97173   -333.87797    41402.763 
  626300    304.97138   -1493.0875    470.05897    345.10938   -701.88899    41402.763 
  626400    302.33813   -1474.6566    464.89898     346.5673    254.77711    41402.763 
  626500    287.50696   -1480.4984    472.85632    282.14836   -414.43143    41402.763 
  626600    295.19369   -1487.5405    488.43959    325.17317   -31.419832    41402.763 
  626700    305.28737   -1499.8766    472.98936    342.66828   -275.18235    41402.763 
  626800    311.46279   -1500.0692    487.41176     384.6017   -100.19552    41402.763 
  626900    300.09832   -1470.7684    465.32349    340.83195   -279.77299    41402.763 
  627000     305.4406   -1471.8435    480.38257    378.78199   -306.00111    41402.763 
  627100    297.30483   -1490.3078    475.77059    319.20766   -548.15106    41402.763 
  627200    310.30666   -1455.3601    489.99921    426.71177   -881.51265    41402.763 
  627300    296.81819   -1403.4078    483.24259    411.39658   -792.25107    41402.763 
  627400    308.80934   -1375.0296    499.32387    509.64977   -247.92367    41402.763 
  627500    304.48025   -1437.2781    495.62948    424.28611   -132.13619    41402.763 
  627600    299.27016   -1474.2345     509.1765    377.50363   -24.019585    41402.763 
  627700    305.28666   -1444.9865    475.91394     400.4798    581.59569    41402.763 
  627800    297.86653   -1441.6748    505.82767    400.41765    494.51612    41402.763 
  627900    306.42409   -1467.4192    480.37855    387.61436    360.19119    41402.763 
  628000    295.24275   -1475.3331    473.24214    322.40321    280.69944    41402.763 
  628100    307.75886   -1491.1029    452.90236    342.44235    394.79787    41402.763 
  628200    302.13418   -1488.8075    491.46405    358.06649    472.17401    41402.763 
  628300    296.36427   -1460.7767    487.89445    356.64315    458.49648    41402.763 
  628400    295.55218   -1454.5514    469.89043    341.22129    182.56935    41402.763 
  628500     308.1927    -1442.577     502.9348    442.94696   -203.59442    41402.763 
  628600    291.72554   -1464.6998    477.56236    321.57811   -277.03377    41402.763 
  628700    306.77998   -1460.5678    496.62646    412.31023   -85.983562    41402.763 
  628800    301.32713   -1451.1764    482.21931    382.83236   -166.44546    41402.763 
  628900    316.36108   -1510.3707    472.64049    381.50329   -48.771013    41402.763 
  629000    290.99517   -1462.3859    485.10126    328.15437    266.48343    41402.763 
  629100    296.67635   -1468.5607    482.01344    344.37822    114.17288    41402.763 
  629200    300.31028   -1465.7263    484.77608    366.27748    554.74441    41402.763 
  629300    299.22017   -1461.9249    493.92696     374.3394    15.875235    41402.763 
  629400    298.44059   -1471.7571    515.92134    383.00425   -31.251136    41402.763 
  629500    305.90944   -1503.5513    468.61489    337.40984   -384.26273    41402.763 
  629600    300.95577   -1438.8478    496.11975    407.39538   -286.38891    41402.763 
  629700    297.68931   -1426.0034     459.9504    369.41675   -346.52802    41402.763 
  629800    298.67587    -1438.471    488.79132    390.21583   -489.16441    41402.763 
  629900    299.86084   -1466.7092    521.21473    399.71701   -353.45547    41402.763 
  630000    305.41961   -1500.9863    453.28368    322.44618   -705.27173    41402.763 
  630100    303.44519   -1471.2386    494.75016    384.80282    65.184154    41402.763 
  630200    286.98763   -1438.9144     461.1483    309.69459    222.82977    41402.763 
  630300    305.31997    -1464.545    496.05372    401.21049   -94.927481    41402.763 
  630400    286.87204   -1470.8455    495.13322    311.22987   -41.610297    41402.763 
  630500    308.22342   -1472.8138    475.13619    385.04935    86.685279    41402.763 
  630600    306.53764   -1460.9824    485.64615    399.82813   -378.03622    41402.763 
  630700    296.47711    -1460.132    490.47404    360.37365   -182.80694    41402.763 
  630800    300.22956   -1498.9623    461.31726    309.22053    220.65139    41402.763 
  630900    300.29833   -1476.5051     506.4623    377.13123    412.17041    41402.763 
  631000    302.84868   -1507.8348    474.79663    325.57708   -97.176689    41402.763 
  631100    309.99775   -1485.1616    500.08039    405.60564    115.23973    41402.763 
  631200    293.19475   -1474.5617    463.49184    304.23671   -204.74658    41402.763 
  631300    293.60782   -1453.3653    472.22038    336.01474   -233.96939    41402.763 
  631400    298.29726   -1504.6619    489.65098    323.18607   -271.18796    41402.763 
  631500    290.29534   -1450.2537    483.12936    335.17519   -790.82328    41402.763 
  631600    298.30833   -1466.1057    503.34804    375.48906   -119.45236    41402.763 
  631700    302.89041   -1457.7549    495.04712    396.09469   -274.08827    41402.763 
  631800      290.178   -1443.3558    497.02285    355.44013   -712.92703    41402.763 
  631900     300.9532    -1450.702    491.77679    391.18669   -378.57052    41402.763 
  632000    300.04377   -1456.3784    478.79637    368.45007   -183.15484    41402.763 
  632100    303.21544   -1470.2947      484.908    374.87387    368.75257    41402.763 
  632200    297.00665   -1471.8014    475.02365     335.6295    305.47352    41402.763 
  632300     302.6913   -1431.9632    486.20951    412.15553   -19.644559    41402.763 
  632400    295.30424   -1436.7254    480.24923     368.2938   -7.1476227    41402.763 
  632500    295.92184    -1424.645    482.12847    385.02413   -756.26624    41402.763 
  632600    299.49792   -1454.5634     492.9947    382.01465   -683.35849    41402.763 
  632700    290.08137   -1464.6953    486.07284    322.71707   -265.48359    41402.763 
  632800    304.96298   -1446.0759    486.76389    408.78829    -355.2611    41402.763 
  632900    300.27448   -1396.6425    486.22441    436.64895   -746.39702    41402.763 
  633000    293.10547   -1462.9328    475.68468    327.65796   -456.48379    41402.763 
  633100    307.70311    -1434.175    466.44578    412.66356   -742.58748    41402.763 
  633200    305.70261   -1427.1291    480.81067    425.09991   -556.93864    41402.763 
  633300    304.52368   -1407.5845    483.87011    442.41512   -564.42448    41402.763 
  633400    274.81793   -1422.8077    505.77524     315.8335   -437.35248    41402.763 
  633500      303.134   -1388.3314     490.9611    462.52489    379.10951    41402.763 
  633600    299.21721   -1383.4431    503.03104      461.912    273.44621    41402.763 
  633700    299.35453   -1382.6331    524.67755    484.98456    6.4959843    41402.763 
  633800    293.25933   -1366.7343    468.14849     417.0105   -306.84033    41402.763 
  633900    298.29151   -1442.0393    487.13308    383.26502   -345.77969    41402.763 
  634000    295.25851   -1370.8335    497.74348    451.47482   -731.79691    41402.763 
  634100    295.84248   -1371.7449    497.56952    453.00924   -1158.6555    41402.763 
  634200    299.62194   -1396.1437    504.42459     452.4206   -122.19926    41402.763 
  634300    297.13199   -1454.4645    480.11502    358.62001    -470.3622    41402.763 
  634400    305.48046   -1416.7186    483.42437     437.1275   -452.65594    41402.763 
  634500     305.9674   -1393.2723    495.16516    474.49911   -622.45545    41402.763 
  634600    308.03657    -1447.595    490.31041    424.60418   -378.56096    41402.763 
  634700    298.60642    -1439.115    506.54533    407.01429   0.75259151    41402.763 
  634800    306.25462   -1405.8296    479.44363    447.50873   -265.27158    41402.763 
  634900    296.92968   -1435.4326    496.97218    393.60144    273.19518    41402.763 
  635000    295.53651   -1427.4979    505.06927    403.38331   -333.87133    41402.763 
  635100    303.41193   -1424.5255    474.01176    410.62826   -6.5521898    41402.763 
  635200     294.3825   -1471.0962    493.97481    343.51354   -181.44119    41402.763 
  635300    298.37843   -1465.5648    477.92011    350.91646    -361.2732    41402.763 
  635400    306.86479   -1463.0157    484.51106    398.12737   -32.107719    41402.763 
  635500    301.31121    -1490.943    485.03995    345.81497    704.83102    41402.763 
  635600    295.19814   -1476.1062    514.50175    362.68961    197.36729    41402.763 
  635700    292.90272    -1460.815    477.52321    330.70475     46.82979    41402.763 
  635800    308.17391   -1472.5871    476.23477    386.15255   -114.76829    41402.763 
  635900    323.04413   -1462.0318    488.32406    475.50674    139.95404    41402.763 
  636000    303.64562   -1443.9237     494.4111    412.67785    405.87523    41402.763 
  636100    297.55124   -1476.1239    461.90976     320.6362    124.38407    41402.763 
  636200    295.38129   -1469.1267    477.61419    333.60315     272.0483    41402.763 
  636300    296.91949   -1446.1938    461.46878    347.29122    337.95385    41402.763 
  636400    300.20386   -1420.9275    495.26116    421.08387    943.09933    41402.763 
  636500    290.22626   -1412.2867    489.68541    379.38826    470.06273    41402.763 
  636600    295.62078   -1434.8706    469.18796     360.5074    785.12853    41402.763 
  636700    294.30281   -1461.6949    499.89559    358.47821    988.12803    41402.763 
  636800    297.91069   -1496.0648    484.53462    324.93263    658.85208    41402.763 
  636900      288.699   -1492.8277    483.10921    285.41961    139.79453    41402.763 
  637000    308.30553   -1497.3459    460.23435    345.98383    409.35704    41402.763 
  637100    299.48326   -1479.0609    456.93388    321.39053    522.87753    41402.763 
  637200    288.68889    -1453.541    487.27449    328.82623   -91.383238    41402.763 
  637300    295.16559   -1451.0316    452.46895    325.58539   -205.92407    41402.763 
  637400      291.628   -1425.3142    460.08876    343.05255   -620.01615    41402.763 
  637500    308.16782   -1456.0831    483.13548    409.52989   -318.06134    41402.763 
  637600    296.31728   -1439.5307    472.12219    361.90607    220.65525    41402.763 
  637700    295.69443   -1411.4245    473.83132    388.92723   -57.838359    41402.763 
  637800    297.63831   -1416.3928     496.6796    415.52772   -565.62324    41402.763 
  637900    296.34567    -1407.007    493.46234    415.89736    -209.1531    41402.763 
  638000    296.12961   -1452.0354    484.24208    360.67941   -169.69256    41402.763 
  638100    306.30371   -1418.1306    488.40653    444.39086    104.36464    41402.763 
  638200    302.97833   -1418.6389    473.61777    414.17569    -166.0846    41402.763 
  638300    305.19495   -1437.5687    479.41565    410.98783    97.975942    41402.763 
  638400    310.77558   -1406.3848    475.56107    463.35261   -338.91703    41402.763 
  638500    291.40739   -1438.8467    475.79442    344.23594   -151.82042    41402.763 
  638600    302.03185   -1430.1376    481.58046    406.39374    11.142272    41402.763 
  638700    305.72468   -1402.6839    519.49531    488.32879    218.15194    41402.763 
  638800    291.07674   -1480.7173     474.5413    299.62896    101.11462    41402.763 
  638900     305.8029   -1414.4686    513.93678    471.33635   -207.66765    41402.763 
  639000    287.18977   -1423.4144    449.85601    314.80915   -356.28527    41402.763 
  639100    291.85696   -1448.4961    488.98974    349.79877   -178.28693    41402.763 
  639200    291.96935   -1434.3958    481.84993    357.26346    -561.7751    41402.763 
  639300    293.17126   -1409.6582    460.33527    365.87829   -72.926182    41402.763 
  639400    296.86689   -1483.8335    459.41549    307.36226    11.390052    41402.763 
  639500    311.04053   -1467.8048    467.23004    394.79015    19.330788    41402.763 
  639600     302.2747   -1439.9563    474.67303      390.757    194.75978    41402.763 
  639700    296.47297   -1502.1288    488.93902     316.8233    298.33536    41402.763 
  639800    301.57967   -1471.1831     459.5855    341.32471    576.96209    41402.763 
  639900    309.71621   -1486.1723    453.41863    356.67017    166.83459    41402.763 
  640000    291.75231   -1482.3085    487.21772    313.74486    393.50168    41402.763 
  640100    300.74726   -1473.9895    450.42107    325.61964    297.80752    41402.763 
  640200       300.43   -1471.5527    480.94533    357.15737    216.62955    41402.763 
  640300    302.46919   -1491.6155     463.9222    329.21951   -110.64919    41402.763 
  640400     290.9927   -1485.2032    467.77303    287.99771   -272.16689    41402.763 
  640500    303.44113   -1478.2928    491.95967    374.93992    130.04341    41402.763 
  640600    291.98133   -1508.3503    469.17261    270.68532    554.27185    41402.763 
  640700    304.60928   -1472.0264    456.75479    351.24195     277.7977    41402.763 
  640800    296.36737   -1506.8642    480.60298    303.27812    593.19317    41402.763 
  640900     304.8108   -1484.3539    482.88467    365.94834    802.18032    41402.763 
  641000    295.84006   -1478.5618    462.76813    311.38003    570.74779    41402.763 
  641100    300.40224   -1505.7683    463.25095     305.1229    366.68676    41402.763 
  641200    298.81234   -1489.6363    468.46291    319.33434    270.30995    41402.763 
  641300    310.23121   -1421.8158    470.79922    440.71754    1194.2094    41402.763 
  641400    306.62077   -1473.5699    488.55503    390.52245    464.95556    41402.763 
  641500    302.11506   -1478.3107    455.95022    332.96369    271.64513    41402.763 
  641600    306.46352   -1429.8837    459.66599    404.61419   -148.01008    41402.763 
  641700    297.42789   -1429.2725    475.98193    381.00638   -369.56215    41402.763 
  641800    295.23763   -1437.7133    472.21526    358.97314   -532.20051    41402.763 
  641900    302.88039   -1447.8475    464.30758    375.21753    75.030396    41402.763 
  642000    293.18764   -1428.4575    455.17001    341.98716   -602.43995    41402.763 
  642100    310.89143    -1380.604    505.17352    519.26556   -260.22393    41402.763 
  642200    308.22872   -1353.3565    480.04569    509.43997    137.39413    41402.763 
  642300    310.67163   -1392.6416    492.47941    493.54779   -61.933885    41402.763 
  642400    303.85212   -1397.7646    500.82606    466.17821   -268.56134    41402.763 
  642500    291.20029   -1401.2328    466.66565      371.792   -88.526233    41402.763 
  642600    312.53406   -1402.9491    488.70472     487.8207   -229.23647    41402.763 
  642700    301.91415    -1423.409    487.08196     418.0958    68.161515    41402.763 
  642800    303.41423   -1423.5038    475.02342    412.67202    185.60053    41402.763 
  642900    304.35855   -1410.9916    479.94496    434.34205   -171.06477    41402.763 
  643000    300.65537    -1437.976    467.61972    378.41948    65.050103    41402.763 
  643100    302.42757   -1396.3645    483.90515    444.26674    66.808915    41402.763 
  643200     305.4589   -1434.9637    429.86221    365.22354    56.191883    41402.763 
  643300    294.77027   -1457.3388    468.26662    333.30243    89.546517    41402.763 
  643400    305.56794   -1462.3599    469.13425    377.58855    30.516012    41402.763 
  643500     302.3927   -1435.4421    460.89323    382.02083     -155.025    41402.763 
  643600    295.37546    -1416.793    480.62603    388.92256   -183.21356    41402.763 
  643700    291.69236    -1407.923    466.74075    367.38443    9.2670586    41402.763 
  643800    296.91234   -1472.0603    446.67331    306.59708    106.24926    41402.763 
  643900    307.09788   -1470.2215    447.23205    354.68827    142.78784    41402.763 
  644000    289.81558   -1457.0885    479.69991    322.75865    652.32622    41402.763 
  644100    307.12697   -1428.8019    478.34646    427.35276    143.88783    41402.763 
  644200    297.83926   -1454.0616    443.31844    325.39919    104.74966    41402.763 
  644300    295.46971   -1471.4683    476.33444    330.37841    130.76161    41402.763 
  644400    285.22073   -1456.9229    444.56116    267.17247   -294.58309    41402.763 
  644500    297.54701   -1384.7488     467.5224    417.60493   -25.245957    41402.763 
  644600    292.53694    -1423.361    473.50773    362.50225    -131.5187    41402.763 
  644700    296.96327   -1471.2625    460.56674    321.51682    462.92032    41402.763 
  644800    302.88604   -1473.0022    453.27011    339.05075    393.54244    41402.763 
  644900     311.9117   -1416.6425    508.53823    491.16878    44.864491    41402.763 
  645000    287.19126   -1475.4706    457.17336    270.07699    -335.0227    41402.763 
  645100    299.00018   -1460.8591    455.16206     335.6534   -367.75676    41402.763 
  645200    307.58402   -1420.7549    478.25665    437.36031   -499.56484    41402.763 
  645300     305.1826   -1399.1409    477.86288    447.80753   -441.76437    41402.763 
  645400    309.26453   -1421.9355    485.80728    451.26932   -154.47312    41402.763 
  645500    307.97923   -1430.5797    449.54171    400.59353    86.157777    41402.763 
  645600    294.96323   -1442.8744     455.1376     335.5034    52.076901    41402.763 
  645700    286.42466   -1455.1167    480.89069    310.70915    480.63383    41402.763 
  645800    301.81593   -1449.8817     484.9031    389.00363    729.34245    41402.763 
  645900    299.68411   -1428.2813    466.62584    382.76311    214.33043    41402.763 
  646000    302.58161   -1480.0996    500.66721     377.9847   -204.60991    41402.763 
  646100     306.2179   -1449.7928    464.02666     387.9638   -66.604596    41402.763 
  646200    295.78398   -1449.1054     459.9056    337.72237    856.68745    41402.763 
  646300    310.79624   -1472.7131    509.83416    431.39002    869.76049    41402.763 
  646400    291.53072   -1453.2811    476.14356    330.70402    155.93129    41402.763 
  646500    306.04476   -1440.1212    466.28564    399.11771    126.44752    41402.763 
  646600    289.95556   -1437.3039    479.78206    343.25337    304.80319    41402.763 
  646700    302.17898   -1456.4161    468.85449    368.04933    63.754622    41402.763 
  646800    304.41318   -1441.1921    471.37921    395.82088    39.736306    41402.763 
  646900    306.37123   -1442.5472    473.84248    405.71314   -120.83508    41402.763 
  647000     302.8181   -1422.7784     480.7386    416.43828    174.52378    41402.763 
  647100    301.66416   -1454.7442    486.77713     385.3343     165.1965    41402.763 
  647200    302.18136   -1458.3553     458.7877      356.054    371.03283    41402.763 
  647300    293.25536   -1415.3248    485.58631    385.83999    157.19412    41402.763 
  647400    295.95788   -1412.3425     477.3965    392.75635   -138.28472    41402.763 
  647500     294.6941   -1447.4749    458.01333    332.57128    38.873237    41402.763 
  647600     292.4973   -1499.8122    445.69663    258.06223   -116.43678    41402.763 
  647700    300.25703   -1495.1189    451.20999    303.07994    179.56357    41402.763 
  647800    292.38517   -1466.7206    504.25869    349.21276   -135.32495    41402.763 
  647900    297.77484   -1446.5339    490.35136    379.67083   -86.432244    41402.763 
  648000    296.05964   -1440.9486    465.12276    352.33299    421.51034    41402.763 
  648100    306.64273   -1471.9415    500.57918    404.27346    311.17014    41402.763 
  648200    302.60974   -1463.8238    486.07568    379.79516   -8.2917327    41402.763 
  648300    301.04234   -1477.9995    467.84164    340.35395    241.29243    41402.763 
  648400    297.74948   -1467.4641    492.23707    360.51256    407.24436    41402.763 
  648500    294.40964   -1469.0927    481.46577    333.12981    264.06694    41402.763 
  648600    314.65501   -1458.9639    459.54187    412.15787    488.69714    41402.763 
  648700    302.25509   -1456.4817    478.79999    378.27064   -38.231273    41402.763 
  648800    311.63667   -1477.9176    499.63779    419.75939    316.66306    41402.763 
  648900    301.70655    -1447.329    462.17879    368.34133    524.36682    41402.763 
  649000    293.23174   -1433.1279    492.43877     374.7834    469.54073    41402.763 
  649100    300.54589   -1434.2293    496.98268    411.03806    316.10491    41402.763 
  649200    295.09189    -1466.671    445.57834     302.7247    39.171334    41402.763 
  649300    297.94855   -1462.1176     515.3723    389.88741    242.27582    41402.763 
  649400    302.66236   -1434.5469    494.56011    417.79264    28.804888    41402.763 
  649500    302.89986   -1441.9677     475.3556    392.23271   -384.23767    41402.763 
  649600    305.24441   -1434.0834    485.30759    420.58699   -816.75831    41402.763 
  649700    293.25945   -1435.5688    511.71525    391.74326    -653.2656    41402.763 
  649800    307.68408   -1402.3776    468.45161    446.38142   -1040.2267    41402.763 
  649900    301.16694   -1423.6927    487.66016    415.03826   -66.198931    41402.763 
  650000    301.98877   -1408.6188    483.76886    429.90764    70.690997    41402.763 
  650100    310.29848   -1420.2038    509.57588    481.40807   -127.14642    41402.763 
  650200    307.67714   -1479.2411    473.95036    374.98558    701.27017    41402.763 
  650300    307.97025   -1455.3436    496.60891    422.85653    422.15823    41402.763 
  650400    305.46078    -1436.876     492.3167    425.77415    264.98663    41402.763 
  650500    296.21829   -1411.9449    490.32408    407.24972    102.48524    41402.763 
  650600    307.17994   -1452.2068    462.46018     388.2992    231.17192    41402.763 
  650700    304.91387    -1428.762    476.56427    415.68218    38.490776    41402.763 
  650800    296.57922   -1462.0921    467.31782    335.71541   -33.777633    41402.763 
  650900     301.3916   -1487.4769    492.19025    356.79198    624.45342    41402.763 
  651000     295.5976   -1510.5795    469.81652    285.32311     455.0475    41402.763 
  651100    301.37554    -1484.314    503.27016    370.96268    549.21175    41402.763 
  651200    300.36212   -1443.5624    488.68354    392.58144    278.57802    41402.763 
  651300    290.67202   -1457.7588    473.82468    320.05524   -496.65925    41402.763 
  651400    299.36051   -1451.2137    465.18008    356.93324    76.543075    41402.763 
  651500    303.37656   -1444.3088    464.28861    380.96323    -125.1713    41402.763 
  651600    298.84202   -1475.0773    472.33773    337.90132   -452.77603    41402.763 
  651700    308.28464   -1462.2205    461.36239    382.14347   -513.92014    41402.763 
  651800    298.00116     -1478.32    471.96092    330.50962   -311.02141    41402.763 
  651900    299.69744   -1492.4888    440.26683    292.25643   -146.22465    41402.763 
  652000    304.23209   -1459.7885    466.76628    371.79916   -392.92887    41402.763 
  652100     305.8489   -1447.2523    491.17034     415.9927    551.05651    41402.763 
  652200    292.30513   -1466.5893    459.99692    304.72324    105.34569    41402.763 
  652300    295.72424   -1452.6796    460.29331    334.26786   -251.86172    41402.763 
  652400    305.41569   -1459.7467    475.05641    385.44082    54.294717    41402.763 
  652500    298.36605   -1457.4693    471.46424    352.50061    131.74575    41402.763 
  652600    298.02801   -1481.8289    484.28946    339.44973    9.0417237    41402.763 
  652700    288.45926   -1491.4426    479.28946    281.90945   -113.88036    41402.763 
  652800    294.90343   -1438.1007    475.53417    360.40545    10.013705    41402.763 
  652900     303.5739   -1472.2514    472.83955    362.45681    219.88239    41402.763 
  653000    304.29462   -1418.9366    471.25191    417.41722   -256.65688    41402.763 
  653100     298.8052   -1463.5025    473.43642    350.40963   -318.96515    41402.763 
  653200    286.29938   -1467.7906    475.38305    291.96563    226.73164    41402.763 
  653300     303.2654   -1471.8891    481.76101    370.35657    349.50559    41402.763 
  653400    307.18131   -1518.2714    482.02859    341.80919    642.42073    41402.763 
  653500    298.30109   -1520.3063     495.1196    313.02753    434.26403    41402.763 
  653600    303.47143    -1518.401    457.83673    300.84474    170.55442    41402.763 
  653700    299.83333   -1476.1859    469.04896    337.95111    113.84267    41402.763 
  653800     302.6747   -1476.2011    485.82418    367.45778   -30.858807    41402.763 
  653900    302.30896   -1466.0327     468.7947    358.95605    221.23556    41402.763 
  654000    301.46281   -1493.4714    489.85038    348.77706   -212.28131    41402.763 
  654100    296.02686    -1473.963    474.64004    328.68885    179.41191    41402.763 
  654200    297.76097   -1447.6342    520.41858    408.57551    381.15876    41402.763 
  654300    304.68507   -1454.7092    452.64255    364.78684   -116.30813    41402.763 
  654400    301.65678    -1414.243    499.76506    438.79035   -406.37411    41402.763 
  654500    294.46509   -1401.6842    489.85758    409.17883   -93.321214    41402.763 
  654600    304.72085   -1431.8312    458.91587    394.09867    146.17311    41402.763 
  654700     299.0151   -1416.3102    484.66481    409.77193   -234.15709    41402.763 
  654800    287.15158    -1402.126    479.22288    365.29309    445.61723    41402.763 
  654900    290.45861    -1415.083    501.64616    389.59509    383.93804    41402.763 
  655000    294.24095   -1428.3421    494.10371    385.76156    68.941551    41402.763 
  655100    309.41562   -1428.4588    452.80799    412.42455    335.16949    41402.763 
  655200    303.94196   -1430.3021    487.73118    420.94892    537.07224    41402.763 
  655300    298.71753   -1403.0517    492.86254    429.89327    -150.3931    41402.763 
  655400    294.15996   -1414.1986     470.8811    376.31908    165.46186    41402.763 
  655500     305.3478   -1390.9606    474.51152    453.37753   -5.2251905    41402.763 
  655600    303.24464   -1435.3408       494.32    419.37074    16.310943    41402.763 
  655700     295.7241   -1397.9122    488.26951    417.01087    249.34242    41402.763 
  655800     303.1083   -1435.2729    515.93725    440.44427    396.14512    41402.763 
  655900    284.82112    -1427.355    465.38217    315.76868    33.304773    41402.763 
  656000    288.36628   -1437.1602     471.4239    327.90923     346.2913    41402.763 
  656100    301.79622   -1451.2238     461.2611    363.93103    438.60521    41402.763 
  656200    305.47174   -1456.6408    452.01661    365.75843    93.840308    41402.763 
  656300    300.63569   -1444.2238     492.2069    396.67061    287.74902    41402.763 
  656400    303.52049   -1436.3694    475.94506    401.20472    345.79109    41402.763 
  656500    295.55796   -1426.7418    456.76505    355.93147   -248.46894    41402.763 
  656600    302.26978   -1451.6778    459.31181    363.65222   -451.29027    41402.763 
  656700    296.69582   -1428.2582    487.50624    390.26081   -283.05518    41402.763 
  656800    299.48775   -1441.6518    455.99068    357.87659   -238.44504    41402.763 
  656900     298.1797    -1464.081    484.29009    357.87873   -584.17423    41402.763 
  657000    301.80751   -1420.8575    461.98331    395.07019    50.706288    41402.763 
  657100    302.87833   -1470.2455    476.51832    365.02111   -49.478898    41402.763 
  657200    298.28123   -1437.0324    482.52026    383.61301   -98.925742    41402.763 
  657300     305.3955   -1439.7841    480.90593    411.16243   -87.617836    41402.763 
  657400    299.64703   -1461.5868    466.92285    349.58834   -75.310874    41402.763 
  657500    289.81945   -1467.2872    471.99848    304.87588   -67.607333    41402.763 
  657600    305.42252   -1498.7792    490.11462    361.49719    450.06779    41402.763 
  657700    292.34793   -1449.9097    493.68703    355.28495    207.66469    41402.763 
  657800    305.37564   -1495.7625    446.47206    320.66107    56.693668    41402.763 
  657900    300.39664   -1469.3105    444.54227    322.84688    215.22758    41402.763 
  658000    302.08884   -1476.9087    462.63001    340.92784   -335.19188    41402.763 
  658100    291.79478   -1496.4406    472.51746    285.10301    474.14075    41402.763 
  658200    288.52144   -1491.8453    487.82917    290.32536    107.95813    41402.763 
  658300    290.32435   -1499.8495     465.3237     267.9038    139.45758    41402.763 
  658400    295.25916   -1481.4281    468.78918    311.92885   -139.38045    41402.763 
  658500    292.84831   -1510.3545     456.0614    259.45934    118.76811    41402.763 
  658600    305.90274   -1517.5418    467.89616    322.67055   -30.627857    41402.763 
  658700    306.52513   -1507.7438    474.74097    342.10544    597.70434    41402.763 
  658800    296.98242   -1481.8168    466.39606    316.87775    822.10214    41402.763 
  658900    302.41435   -1532.8946    485.44386    309.21603    189.07195    41402.763 
  659000    303.18609   -1505.9324    477.76889    331.96538    553.30887    41402.763 
  659100    302.43229    -1489.818    472.05876    338.98807    350.79109    41402.763 
  659200    308.00935   -1464.6792    480.03345    397.12083    474.57021    41402.763 
  659300     297.1518   -1486.7447    452.52957     298.8433    412.88704    41402.763 
  659400      298.735   -1481.5588    465.44622    324.04819    568.84496    41402.763 
  659500     301.0691   -1471.0126    498.18457    377.80384    342.21109    41402.763 
  659600     294.1449    -1432.521    436.42465    323.47275    237.83119    41402.763 
  659700    306.34414    -1438.248     490.4005    426.44878    240.04299    41402.763 
  659800    287.36471   -1447.3726    461.20986     302.9896    51.994445    41402.763 
  659900    293.82306   -1454.3818    471.91192    335.65541    151.67648    41402.763 
  660000    303.39769   -1451.1686    475.45975    385.36932    233.74635    41402.763 
  660100    295.32811   -1461.1175    475.39635    339.15588    -37.74297    41402.763 
  660200    299.32445   -1420.2676    469.14555     391.6831   -328.51778    41402.763 
  660300     303.1481    -1452.638    486.51711    393.83765   -93.432337    41402.763 
  660400    299.27984    -1483.695    459.62857    318.53857   -309.80847    41402.763 
  660500     293.1042   -1456.9019    478.08341    336.08182   -319.89305    41402.763 
  660600    296.94031   -1438.2559    446.91275    340.76643    189.00843    41402.763 
  660700    308.25208   -1469.3946    472.95107    386.41207   -22.830087    41402.763 
  660800    299.53219   -1459.4324    489.16697    373.47161    117.52377    41402.763 
  660900    294.87159   -1462.4573    463.15805     323.5298   -98.925204    41402.763 
  661000    309.12408   -1484.7179    466.30021    368.34973    146.21416    41402.763 
  661100    302.85487   -1471.2991    471.36475    358.70865   -233.66173    41402.763 
  661200    299.98178   -1488.4938    476.38998    333.65014   -194.62054    41402.763 
  661300     297.9664   -1453.8499     453.7815    336.64439   -499.65463    41402.763 
  661400    291.56649   -1453.9338    470.66503     324.7332   -493.13215    41402.763 
  661500    295.91514   -1437.3565    458.94906    349.10314   -232.92565    41402.763 
  661600    305.84036   -1443.7116    451.06673    379.39141    -122.3475    41402.763 
  661700     295.0373   -1471.4238     476.3114    328.46007   -65.779197    41402.763 
  661800    294.31892   -1500.3586    451.34253    271.33367   -7.9410962    41402.763 
  661900    294.54746   -1503.9634    445.94882    263.36043     552.6079    41402.763 
  662000    295.49679   -1484.1491    453.05275    294.53744    553.17844    41402.763 
  662100    305.88044   -1509.7663    465.37605     327.8258   -2.8414764    41402.763 
  662200    312.13285   -1507.7215    459.66178    352.20541    204.48859    41402.763 
  662300    295.99005   -1482.1177    480.01478    325.74364    114.25855    41402.763 
  662400    288.72991   -1503.5601    480.22128    271.93798    269.36917    41402.763 
  662500     287.7264   -1494.3381    453.36148    249.79827   -249.20821    41402.763 
  662600    307.37211   -1454.0529    460.70534    385.56032   -286.38726    41402.763 
  662700    294.85546   -1445.1388    481.88615     359.5041   -105.04602    41402.763 
  662800    299.53437   -1449.4449    451.77593    346.07794    116.13154    41402.763 
  662900    295.07048   -1439.4608    493.29881    377.55934   -65.860392    41402.763 
  663000    308.41471   -1501.5563    469.08179    351.11059    29.355425    41402.763 
  663100    301.43571   -1480.5318    475.97288     347.7176   -137.18361    41402.763 
  663200    298.28326   -1463.2272    472.81277    347.71978   -628.67733    41402.763 
  663300    298.85662   -1475.9096    455.23799    320.03485   -669.97039    41402.763 
  663400    294.14497   -1453.2415    462.56193    328.88976   -480.26287    41402.763 
  663500    312.17338   -1444.4061    483.22073    439.26158   -34.297506    41402.763 
  663600    302.26808   -1515.3747    443.93467    284.57059   -247.10543    41402.763 
  663700    296.88207   -1544.6279    441.34828    228.56872    163.02865    41402.763 
  663800    303.34912   -1536.6025    457.64211    281.89993     79.99188    41402.763 
  663900    308.14216   -1540.3218    464.45868    306.49931   -243.13285    41402.763 
  664000    300.62875   -1551.7961    459.29979    256.16006   -247.71034    41402.763 
  664100    303.76457   -1541.8192    451.16337    272.06828   -398.01681    41402.763 
  664200    303.45227   -1557.9159    482.60017    286.00729   -294.51091    41402.763 
  664300    294.53348   -1536.2533    445.11842    230.17736   -281.36057    41402.763 
  664400    306.10815   -1544.8793    462.89573     291.2541   -332.78218    41402.763 
  664500     294.2416   -1554.2133    482.25034    248.03995    242.08736    41402.763 
  664600    302.34888   -1547.5442    458.23415    267.06299    619.89106    41402.763 
  664700    290.02673   -1552.2915    456.39408      205.197    316.19491    41402.763 
  664800    304.59332   -1543.2933    460.35153    283.50018    278.68106    41402.763 
  664900     302.0581   -1505.1479    479.47865    329.39941    417.74692    41402.763 
  665000    300.59719   -1493.5387    446.04143     301.0175    147.19423    41402.763 
  665100    300.30432   -1513.7107    475.30839    308.79867    124.94611    41402.763 
  665200    299.96172   -1488.0171    481.34381    338.99073    196.70229    41402.763 
  665300    301.28244   -1497.3055    463.17387    317.45731   -239.74223    41402.763 
  665400     292.5684   -1504.1939    458.76148    267.06423    64.931422    41402.763 
  665500    295.76693   -1512.4493    456.48116    270.87754    -428.1287    41402.763 
  665600    287.41264   -1481.7154    469.75082    277.40271   -217.83094    41402.763 
  665700    301.76795   -1513.4989    481.90177    322.16989    125.59083    41402.763 
  665800    296.66729   -1512.6564    477.31597    295.54441   -162.69121    41402.763 
  665900     301.6066   -1510.0686    472.14614    315.12063   -416.42252    41402.763 
  666000    304.90043   -1502.9845    446.87913    311.71433   -209.83733    41402.763 
  666100    299.30243   -1502.4167    467.35279    307.64251    136.28339    41402.763 
  666200     301.2577   -1526.3447    477.33937    302.47266    664.11413    41402.763 
  666300     305.8633   -1565.8855    443.03088    249.28456    328.15917    41402.763 
  666400    298.34284   -1537.8612     475.2647    275.80505    416.82077    41402.763 
  666500    288.02929   -1525.0402    477.75555    244.84904    726.87546    41402.763 
  666600    295.37067   -1531.5558    448.70956    242.22176    260.25916    41402.763 
  666700     302.2194   -1551.8746    485.22499    289.14257    204.53151    41402.763 
  666800    301.44085   -1522.2012    443.61576    273.71412   -124.08391    41402.763 
  666900    295.81736   -1490.7879    480.16836    316.45241    491.60408    41402.763 
  667000    305.04573   -1476.6314    482.29433     374.1344    264.80721    41402.763 
  667100    299.60155   -1486.3681    479.46947    337.14967     537.2899    41402.763 
  667200    292.71946    -1473.588    495.47932     335.0657    179.68443    41402.763 
  667300    293.21317   -1444.4753    477.20175    348.11567    407.98842    41402.763 
  667400    312.05535   -1423.2207    461.98299    438.67979    -103.9113    41402.763 
  667500    293.20521   -1458.5188    473.68903    330.52375   -252.94456    41402.763 
  667600     305.4098   -1458.1645    506.60229    418.54251   -5.8172785    41402.763 
  667700    294.52132   -1530.5237    452.71457     243.4486     51.59321    41402.763 
  667800    296.40976   -1536.4755    462.63998    255.89395    487.52361    41402.763 
  667900     303.4229    -1495.531    486.00382    351.66405     320.9609    41402.763 
  668000    298.69405   -1460.0149    483.47291    363.43512    625.13743    41402.763 
  668100    292.17972   -1478.6318    477.77366    309.89486    511.46253    41402.763 
  668200    309.63277   -1486.1444    479.78126    382.68635    433.68634    41402.763 
  668300    300.76355   -1472.6026    481.81646      358.475    273.60779    41402.763 
  668400    306.76322   -1432.8785    461.84743    405.14525     161.0359    41402.763 
  668500    290.87049   -1431.9021    484.66857    357.64609    172.86689    41402.763 
  668600    296.64767   -1444.9227    496.71446    382.58854   -67.051371    41402.763 
  668700    297.13562   -1445.8775    477.95477    365.06304   -61.315141    41402.763 
  668800    291.43899    -1435.081    447.78215    320.13115   -279.18479    41402.763 
  668900    295.65523   -1466.8522    501.01307    360.50544    61.656678    41402.763 
  669000    305.51008   -1475.1544    468.40309    363.80328    71.659405    41402.763 
  669100    286.19783   -1469.4627    477.68022    292.13513   -70.125543    41402.763 
  669200     299.9463   -1447.8291    469.57984    367.34554    148.23008    41402.763 
  669300    311.02685    -1436.364    477.09335    436.03283    578.19863    41402.763 
  669400    289.55006   -1509.7802    496.50332    285.67914    442.46509    41402.763 
  669500    293.88951   -1507.4455     474.3649     285.3428    519.53673    41402.763 
  669600    296.94327   -1486.8222    496.16455    341.46521     436.4387    41402.763 
  669700    296.08861   -1481.8009     455.9444    302.43231    74.962357    41402.763 
  669800    296.35949    -1419.103    462.54019    372.94113   0.68023658    41402.763 
  669900    308.73536   -1428.3759    509.02484    465.67254   -129.06499    41402.763 
  670000    300.96548   -1450.1496    477.05083    377.06825    252.74904    41402.763 
  670100    300.18097   -1429.1339    467.99099    385.50462    102.99006    41402.763 
  670200    309.46174   -1399.3489      458.612     447.5453    236.41965    41402.763 
  670300    297.92222   -1435.2636    473.75194    375.00292    122.94679    41402.763 
  670400    300.39949   -1466.4334    491.17971    372.37417   -344.21669    41402.763 
  670500    306.14839   -1474.7411    467.62188    366.29888    69.576301    41402.763 
  670600     301.5956   -1460.8923    470.79256    362.89406   -172.14874    41402.763 
  670700    297.43812   -1481.8472    469.48661     321.9823    318.33857    41402.763 
  670800     302.3086    -1496.537    479.00074    338.65609   -80.168217    41402.763 
  670900    292.46713   -1488.5884    476.83753    300.29155    54.682638    41402.763 
  671000    300.68477   -1485.3599    485.76429    349.31206    300.44148    41402.763 
  671100    292.78432   -1432.4705      490.346    371.34085    70.564562    41402.763 
  671200     289.5416    -1467.635    460.40219    291.68531   -11.208767    41402.763 
  671300    284.96807   -1467.1119    469.97001    281.25881   -147.84766    41402.763 
  671400    296.07562   -1473.0139    479.25235    334.46898   -51.130156    41402.763 
  671500    300.87395   -1440.0331    463.72026     373.4435   -138.39905    41402.763 
  671600    296.09701   -1444.7258    483.10748    366.70812   -232.67077    41402.763 
  671700    283.39838   -1468.5459    485.76042    288.57343   -182.55373    41402.763 
  671800     294.8081   -1476.2021    468.50245    314.84466    183.98878    41402.763 
  671900    301.39128   -1475.1938    493.93438    370.81774    287.18841    41402.763 
  672000    301.18942    -1465.883    486.93017    372.21878    123.04839    41402.763 
  672100    293.51604   -1453.2246    485.84209    349.36538     136.2556    41402.763 
  672200    302.49053   -1433.9851    454.29627    377.31971    375.96678    41402.763 
  672300    300.30293   -1460.8284    495.22737    381.59363    178.30832    41402.763 
  672400    294.66225   -1438.5843    479.84628    363.15193    230.94559    41402.763 
  672500    305.62768      -1443.3    504.73682    432.51899   -271.61214    41402.763 
  672600    301.71302   -1430.0083    467.89444    391.40668   -948.25956    41402.763 
  672700    294.25059   -1406.2786    495.40665    409.17125   -1053.8559    41402.763 
  672800    294.98293   -1440.2539    469.06791    352.14256   -746.72221    41402.763 
  672900    297.08467   -1408.7057    500.32007    424.37162   -564.87968    41402.763 
  673000    293.77747   -1447.5151    457.02509    327.43072   -890.91321    41402.763 
  673100    311.73893   -1448.6557    506.26001    456.10227   -21.071532    41402.763 
  673200    292.00309   -1481.6314    472.95752    301.28672   -554.95999    41402.763 
  673300    289.87134   -1424.0875    482.62153    358.93145   -157.98472    41402.763 
  673400    293.74167   -1425.5941    493.52488    385.69093   -101.94174    41402.763 
  673500    301.08181   -1426.7604    488.36717    412.29565    260.23792    41402.763 
  673600    301.71515     -1440.96    486.91337     399.4835    256.91369    41402.763 
  673700    294.69328   -1449.3529    480.12789     352.8042   -38.313421    41402.763 
  673800    311.11594   -1469.6169    507.01287    433.09914    329.43514    41402.763 
  673900     292.8748   -1442.1942    489.12947    360.80652    83.833072    41402.763 
  674000    295.06813   -1459.4299    485.14741    349.42824    278.74545    41402.763 
  674100    295.51737   -1487.8853    490.80345    328.64431    579.38174    41402.763 
  674200    304.96589   -1421.2023    503.27208    450.18302    248.22563    41402.763 
  674300    298.63078   -1430.3231    479.42101    388.79118   -214.84827    41402.763 
  674400    290.54215   -1413.1868    478.46558    368.68548     208.3856    41402.763 
  674500     302.7149   -1445.2545    524.92434    437.68498   -34.954803    41402.763 
  674600    300.06097   -1480.7629    486.72182    352.06818   -536.60673    41402.763 
  674700    297.99793   -1430.8324    514.52058    420.54239   -558.10265    41402.763 
  674800    297.61978   -1458.8686    496.75683    373.04598    103.26018    41402.763 
  674900    296.22226   -1464.7816    458.61723    322.72401    -403.2394    41402.763 
  675000    306.75263   -1494.4606    461.87564    343.54392   -621.98882    41402.763 
  675100    305.59051   -1451.1355    436.23082    356.01075   -384.68121    41402.763 
  675200    308.24331   -1447.3936    480.65958    416.08217   -226.92019    41402.763 
  675300    294.39462   -1443.4693    461.70938    338.92936   -185.60191    41402.763 
  675400    307.82142   -1470.1381    469.16569    379.95113   -567.18362    41402.763 
  675500    300.71376    -1452.835    486.00342    382.20612    -167.4234    41402.763 
  675600    299.63525   -1454.9187    470.44113    359.72184    153.31191    41402.763 
  675700     292.9579   -1412.0473    507.07613    409.27284   -637.97773    41402.763 
  675800    297.14643   -1417.7722    472.99684    388.25888   -615.04204    41402.763 
  675900    304.35464   -1438.6674    482.60763     409.3114   -734.84989    41402.763 
  676000    294.34304   -1453.5558    441.70579    308.60795   -908.40994    41402.763 
  676100    298.75585   -1423.8356    460.40986     376.8286   -847.35713    41402.763 
  676200    299.28943   -1444.1028    467.77048    366.31572   -422.15353    41402.763 
  676300    293.30703   -1445.7414    487.94963    358.01852   -386.66018    41402.763 
  676400    300.32755   -1464.1824    480.98678    364.10958   -124.77258    41402.763 
  676500    296.68062   -1456.6745    487.29699    361.56705    146.23464    41402.763 
  676600    301.54498     -1483.72    490.36437    359.41104     236.3584    41402.763 
  676700     294.2236    -1460.601    465.84559    325.16669    437.79454    41402.763 
  676800    303.84779   -1470.2626     492.9397    385.77448    518.51479    41402.763 
  676900    287.19523   -1451.9704    499.61321    336.03479    156.17015    41402.763 
  677000     304.4675   -1412.1159    490.55441    444.31599    522.99911    41402.763 
  677100    294.46679   -1431.4252    489.18504    378.77289    143.18744    41402.763 
  677200    294.20104   -1417.9992    459.52403    361.34578    206.17765    41402.763 
  677300    304.18418   -1454.8299    494.78974    404.56629   -26.965163    41402.763 
  677400    302.18961   -1434.4311    479.64547    400.87292    237.99042    41402.763 
  677500    296.86416   -1434.3093    469.66369    367.12235   -123.48714    41402.763 
  677600      291.649   -1432.6278    484.75795    360.50227    109.89159    41402.763 
  677700    306.39288   -1451.8813    473.94337    396.57705    675.09869    41402.763 
  677800    294.86574   -1422.5277     479.4127    379.68787    315.35942    41402.763 
  677900    293.36079   -1396.8876    498.41724    417.58108   -177.37973    41402.763 
  678000    300.51237    -1428.234    489.41013    409.31042   -223.89607    41402.763 
  678100    293.33829   -1426.7587     488.3759    377.56772   -117.32641    41402.763 
  678200    298.49154   -1438.3776    469.41348     370.1045   -367.09781    41402.763 
  678300     304.9586   -1439.7421    471.04162    399.38015   -86.970878    41402.763 
  678400    294.66011   -1485.4182     501.2284    337.69054   -347.63453    41402.763 
  678500    292.13514   -1429.8721    505.68854    386.36943   -283.17905    41402.763 
  678600    305.08551   -1449.4405    474.59986    393.80936   -275.82785    41402.763 
  678700    293.07216   -1449.0381    486.59208    352.31062   -276.59242    41402.763 
  678800    300.82212   -1428.9407    498.52597    419.10913    141.07262    41402.763 
  678900    297.84858   -1444.5822    472.90675    364.50874    302.72719    41402.763 
  679000    303.53462   -1446.7332    474.01376    388.97297   -229.65188    41402.763 
  679100    292.14641   -1449.9792    469.30848    329.93286   -321.84087    41402.763 
  679200    299.86064   -1464.3655     490.8017    371.64681     9.194043    41402.763 
  679300    302.78201   -1474.8022    484.56507    368.07903   -332.96689    41402.763 
  679400    305.87255   -1430.6807    469.30641    410.80638   -444.35287    41402.763 
  679500    297.15298   -1461.9857    472.85315    343.93115   -289.78559    41402.763 
  679600    296.20062   -1472.5233    442.65752    298.92548    -177.7543    41402.763 
  679700    296.48325   -1438.9076    513.73863    404.89017   -19.674764    41402.763 
  679800    295.47533   -1446.1301    466.88136    346.28878    81.126594    41402.763 
  679900    296.27635   -1488.3924    499.18815    339.92678    518.44268    41402.763 
  680000    302.55402   -1468.2623    467.52871    356.55976  -0.58829336    41402.763 
  680100    303.39417   -1442.0418    472.41258    391.43311   -113.95107    41402.763 
  680200    307.99873    -1454.074    484.64649    412.29145   -446.90817    41402.763 
  680300    300.37268   -1442.7206    451.38842    356.17542   -716.37691    41402.763 
  680400     303.0406   -1487.6638    467.13227    338.94471   -121.24654    41402.763 
  680500     305.2636   -1460.1262     462.7094    372.03205    274.41589    41402.763 
  680600    305.49188   -1424.6782    475.23757    421.03234    27.915732    41402.763 
  680700    296.25345   -1406.8342     479.2424    401.43646     223.7873    41402.763 
  680800    306.40579   -1463.1454    495.95672    407.38422    250.69657    41402.763 
  680900    301.01626   -1437.4408    518.29586     431.2499    441.70561    41402.763 
  681000     300.2993   -1416.8057    460.14753    390.52027    19.209766    41402.763 
  681100     302.2033   -1417.2744    484.94852    423.39412   -194.96064    41402.763 
  681200    289.38412   -1380.0961    450.17463    368.29018   -582.07685    41402.763 
  681300    295.10095   -1406.7886    490.01189    407.08131   -473.23866    41402.763 
  681400    301.91377   -1392.4171    477.14251    439.14651   -422.37004    41402.763 
  681500    290.07436   -1392.4253    472.43761    381.32043   -362.80148    41402.763 
  681600    300.30518   -1389.1538    483.45614    441.50712    68.713243    41402.763 
  681700    291.44614   -1418.0543    494.28575    383.69356     98.14012    41402.763 
  681800    294.76211   -1435.4953    450.50333    337.34601    138.87887    41402.763 
  681900    301.83314   -1434.9276    480.98826    400.12009    407.62269    41402.763 
  682000    294.09106   -1445.4851    506.62754    380.46992    289.83355    41402.763 
  682100    292.44799   -1465.7267    448.57584    294.80572    113.96899    41402.763 
  682200    303.11235   -1479.5039    503.88649     384.1807    451.46752    41402.763 
  682300    293.09189   -1444.3993    461.12991    331.57573    135.81252    41402.763 
  682400    303.85344   -1418.1304    494.42865      439.421     358.2803    41402.763 
  682500    307.00408   -1428.3936    483.85593    432.71924   -179.02506    41402.763 
  682600    293.88851   -1415.8767    487.28838    389.83059   -190.35216    41402.763 
  682700    307.59628   -1431.6494    462.45429    410.71843   -47.645822    41402.763 
  682800    303.20642   -1449.5764    480.90878    391.55254   -496.36647    41402.763 
  682900    294.07098   -1450.3339    481.58627    350.48979    72.506975    41402.763 
  683000     298.8016   -1428.9775    471.79731    383.27937    289.41435    41402.763 
  683100    305.60085    -1422.931    501.86388    449.89467     757.8087    41402.763 
  683200    306.91448    -1471.226    483.96737    389.59627   -36.597694    41402.763 
  683300    291.03022   -1453.3719    466.02336    318.24767   -252.36316    41402.763 
  683400    304.09998   -1435.0798    469.47613    398.62504    47.261787    41402.763 
  683500    305.13038    -1499.545    438.68934    307.99552   -41.900473    41402.763 
  683600    295.27699    -1477.942    493.01368    339.71942   -144.34647    41402.763 
  683700     299.6004   -1462.2565    477.61314    359.39975    11.334818    41402.763 
  683800    312.65888   -1474.0104    484.87756    413.49213   -207.83632    41402.763 
  683900    286.67867   -1473.0578    474.16864    287.18554   -454.30591    41402.763 
  684000    298.14478   -1468.3978    494.63248    363.74771   -936.00928    41402.763 
  684100    302.86802   -1505.3893    465.67587    318.98863   -514.15038    41402.763 
  684200    295.95068   -1452.7945     481.4858     356.3613    -461.2636    41402.763 
  684300    293.02606   -1434.4727    484.74018    364.81726   -574.44367    41402.763 
  684400    294.44044   -1469.1276    504.30466     356.0719   -370.97303    41402.763 
  684500     294.0132   -1490.4789    468.83551    297.33481    182.56471    41402.763 
  684600    306.76071   -1443.4331    479.05757    411.78951    154.38929    41402.763 
  684700    298.33568   -1451.9107    485.47681    371.93553    301.24635    41402.763 
  684800    294.55966   -1421.7241    487.71711    387.42271    10.337455    41402.763 
  684900    294.02624    -1440.949    502.44661    380.53438   -270.20202    41402.763 
  685000    293.18338   -1459.5539    452.17514    307.87679   -611.99424    41402.763 
  685100    293.81284   -1435.0306    483.62415    366.67291   -43.879235    41402.763 
  685200    304.57191   -1454.1134    495.02173    407.25422    38.965129    41402.763 
  685300    299.91766   -1495.4414    475.66012    325.68508    -55.97285    41402.763 
  685400    307.60611   -1486.8742    516.36827    409.45172    425.98902    41402.763 
  685500    298.39581   -1417.8695    459.44977    380.21938   -125.56529    41402.763 
  685600    296.72641   -1498.0401    511.01845     344.1284    143.11287    41402.763 
  685700    312.72252    -1451.689    474.73109     425.9526    510.46654    41402.763 
  685800    287.00006   -1432.8987      463.786    318.40381    118.63561    41402.763 
  685900    308.72884   -1447.8864    500.28606    437.39399    871.41194    41402.763 
  686000    293.43524   -1433.7114    484.23796    366.91196     369.9075    41402.763 
  686100    308.13433   -1467.1412    491.50299    406.68914    323.75806    41402.763 
  686200    294.45951   -1421.9018    496.79676    395.87535    331.74597    41402.763 
  686300    292.34418   -1483.5102    481.49797    309.47863    172.04598    41402.763 
  686400    293.93204   -1504.2217    506.48609    320.87853    347.61028    41402.763 
  686500    291.97913    -1519.264    487.60053    278.18969    665.24345    41402.763 
  686600    305.76001    -1493.155    489.51832    368.03915    36.078556    41402.763 
  686700    309.44179   -1459.2293    488.92547    417.88884    177.33316    41402.763 
  686800    301.47309   -1451.5306     467.5801    368.49367   -135.14363    41402.763 
  686900    293.98828    -1455.927    512.18127    375.12069   -127.66985    41402.763 
  687000    309.05854   -1434.7099     481.6474    433.41094    379.87422    41402.763 
  687100    296.40796   -1426.2226     487.3747    390.87351   -244.78135    41402.763 
  687200      300.047   -1426.7093    494.74687    414.08413   -389.75187    41402.763 
  687300    297.83536    -1424.058    496.11414    408.18109   -268.35667    41402.763 
  687400    303.78834   -1425.5494    479.91068    417.19196   -341.41477    41402.763 
  687500    300.13658   -1432.2323    504.71475    418.93092     88.49743    41402.763 
  687600    290.19797   -1433.2287     480.9964    349.63036    2.4241062    41402.763 
  687700    305.94936   -1438.2066    500.78838    435.10706    555.01635    41402.763 
  687800     293.9178   -1425.7648    500.84192     393.6274    275.44925    41402.763 
  687900    290.35789   -1415.7177    480.87396    367.73638    231.95519    41402.763 
  688000    301.50132   -1441.5952     487.1303     398.1059    823.99237    41402.763 
  688100    300.37309   -1413.5551    468.64328    402.59762    173.42453    41402.763 
  688200    295.55465   -1412.1339    499.97662    413.73609   -436.32454    41402.763 
  688300    314.14638   -1413.3752    486.72654    482.64938   -293.58064    41402.763 
  688400    290.53712   -1436.8222    467.79333    334.35523   -566.11768    41402.763 
  688500    293.25724   -1444.7642    486.20366    357.02638   -412.49464    41402.763 
  688600    292.08555   -1446.0535     453.0622    317.33927   -740.24285    41402.763 
  688700    297.14027    -1439.795    471.42018    364.63181   -237.00905    41402.763 
  688800    301.46671   -1449.2319    474.79758    377.98132    -129.7767    41402.763 
  688900    296.09583   -1410.7561    491.97128     409.5364   -955.04963    41402.763 
  689000     297.8907   -1466.8215    476.25777    345.80943   -475.02997    41402.763 
  689100    304.55814    -1436.206    479.79903    409.87715   -552.88818    41402.763 
  689200    310.35769   -1428.5331    493.51306    457.28152   -330.69391    41402.763 
  689300    291.74561   -1437.0509    495.07391    366.82861   -311.74668    41402.763 
  689400    300.20836   -1382.1636    483.95394    448.56082    271.56295    41402.763 
  689500    291.67591   -1405.6211    502.49647    405.36829    7.5124515    41402.763 
  689600    305.67155   -1396.8206    485.92033    460.37869   -108.67055    41402.763 
  689700    301.96227   -1385.2956    481.62656    450.96965   -845.82182    41402.763 
  689800    301.36125   -1430.5667    465.90883    387.28456   -292.13516    41402.763 
  689900    308.05874   -1420.1061    482.62504    444.50714   -447.22614    41402.763 
  690000    296.54062   -1442.0136    491.25291    379.55581   -677.03332    41402.763 
  690100    288.32088   -1487.2386    457.42894    263.63214   -596.27347    41402.763 
  690200     295.2675   -1442.4631    445.33567    327.47776   -230.87175    41402.763 
  690300    299.02466   -1469.5671    527.05667    398.94983   -524.19878    41402.763 
  690400    295.62098   -1453.4165     465.0864    337.86087   -567.81956    41402.763 
  690500    302.26241   -1467.9952    462.52685    350.51687   -368.37042    41402.763 
  690600    305.72817     -1464.06    455.27351    362.74647   -542.88293    41402.763 
  690700    300.22993   -1439.8429    481.90198    388.92625   0.64569981    41402.763 
  690800    303.35156   -1486.5543    471.20057    345.51749    39.059097    41402.763 
  690900     296.5012   -1473.8136    459.03442    315.36055    148.24401    41402.763 
  691000     301.6547   -1474.7395    468.01257    346.53198    349.14494    41402.763 
  691100    299.39768   -1451.0143     482.5364    374.65579   -302.59567    41402.763 
  691200    301.08347   -1440.5806    478.29476    388.41048   -130.44081    41402.763 
  691300    304.87987   -1459.1434    463.07153    371.65557   -469.91377    41402.763 
  691400     295.1365   -1427.4325    477.78759    374.37262   -383.85039    41402.763 
  691500    302.98306   -1451.8328    463.10637    370.49169   -923.54858    41402.763 
  691600    295.12377   -1458.7278    446.10603    311.33865   -933.33161    41402.763 
  691700    291.91675   -1445.6671    461.86563    325.77188   -899.16705    41402.763 
  691800    305.43606   -1466.5787    472.24974    375.89357   -306.48274    41402.763 
  691900    294.28971   -1428.4669    484.67093    376.42278   -255.17865    41402.763 
  692000    305.32571    -1478.011    457.14944    348.86598   -91.230707    41402.763 
  692100    297.63351   -1422.1448    481.51024     394.5848    458.97362    41402.763 
  692200     299.7615   -1438.7329    485.41446    391.44733    205.71878    41402.763 
  692300    300.94299   -1464.8709    473.95642    359.15162   -48.292802    41402.763 
  692400    295.45082   -1468.3531     473.6708     330.7453    237.55961    41402.763 
  692500    302.77651   -1482.9105    458.63572    334.01677   -477.98197    41402.763 
  692600    298.62787   -1455.4514    483.18497     367.4138    -149.6785    41402.763 
  692700       295.37   -1461.6648    455.77774    319.17795   -879.91776    41402.763 
  692800    297.30707   -1460.5114    452.82717    326.07074   -218.67751    41402.763 
  692900    289.34957   -1470.6341    475.17126    302.59379    89.532084    41402.763 
  693000    297.30861   -1470.5371    459.26604    322.49072   -185.05622    41402.763 
  693100     307.4094   -1474.2771    470.15149    374.94961    -74.87329    41402.763 
  693200    294.29304   -1473.8865    495.47498     341.8221    432.62517    41402.763 
  693300    308.87233   -1507.5689    467.11488    345.18409    290.40875    41402.763 
  693400    301.26258   -1514.7923    452.82672    289.53423    744.75664    41402.763 
  693500      300.776   -1505.0133    503.68093    347.98466   -5.4184229    41402.763 
  693600    293.08365   -1465.9025    441.31595     290.2216    241.43589    41402.763 
  693700    292.61259   -1429.4212    485.11661    368.39034   -386.98783    41402.763 
  693800    307.32478   -1419.3466    474.40561    433.75458   -660.09294    41402.763 
  693900    301.40389    -1404.462    453.34454     401.0163   -803.47713    41402.763 
  694000    298.16885   -1425.6615    482.79578     394.7553    120.07704    41402.763 
  694100    297.10676   -1483.2415    473.81027    323.42508    99.840448    41402.763 
  694200    297.96719   -1470.0433    472.43403    339.10706   -68.242727    41402.763 
  694300    301.15404    -1417.941    498.40583    431.47769   -14.708869    41402.763 
  694400    298.57961   -1426.1687    486.56598      399.861    76.933809    41402.763 
  694500      289.858   -1414.6884    496.40577     382.0549   -123.69934    41402.763 
  694600     298.7699     -1417.36     496.1777    419.13512   -200.06833    41402.763 
  694700    299.00619   -1434.9376    446.81244     353.2522    74.280346    41402.763 
  694800    295.88792    -1450.367    497.36996    374.39139   -173.12824    41402.763 
  694900    309.58865   -1416.4743    465.04172      437.419   -141.09857    41402.763 
  695000    287.23869   -1448.6465    480.02383    319.96435   -635.59942    41402.763 
  695100    296.13608   -1463.0571    466.77146    332.21607    -193.1229    41402.763 
  695200    294.78283   -1459.3613    458.89155    321.96119    188.58755    41402.763 
  695300    300.69032   -1484.8663    463.67568    327.74203   -103.14598    41402.763 
  695400    308.17849   -1469.2763    469.30856    382.55766    215.58047    41402.763 
  695500    299.87368    -1431.332    480.63702    394.57409    151.86303    41402.763 
  695600    298.43613   -1449.7115    477.47271    366.58123    131.44028    41402.763 
  695700    290.47763   -1465.6876    489.67443    327.10405   -198.39469    41402.763 
  695800     309.7795    -1472.152    475.83882    393.39458    372.38797    41402.763 
  695900    303.25901    -1436.405    487.53203    411.58303   -246.99528    41402.763 
  696000    305.96836   -1441.5519     481.3965    412.45505    439.78911    41402.763 
  696100    302.78337   -1478.0957    462.59045      342.817    97.206625    41402.763 
  696200    310.19456   -1423.0552    466.95842    435.47295   -6.3429116    41402.763 
  696300    298.18381   -1478.2721    458.38125    317.79725   -235.42043    41402.763 
  696400    302.51352   -1512.4436    459.85155    304.51961    -88.45878    41402.763 
  696500    300.20452    -1518.665    443.25126    271.33955   -423.36053    41402.763 
  696600    306.63231   -1486.6415    452.47483    341.42239   -211.98007    41402.763 
  696700    309.41627   -1518.4985    485.08822    354.66798   -229.72254    41402.763 
  696800    290.43439   -1523.5264    450.58993    229.98684   -267.55627    41402.763 
  696900    298.68533   -1471.9745    474.94885     342.9123   -371.35864    41402.763 
  697000    285.92769   -1480.0089    442.40616    245.10299   -525.80693    41402.763 
  697100    303.31314    -1465.074    447.27154    342.89644   -833.58058    41402.763 
  697200    295.66057   -1467.6393    475.08165    333.81093   -336.57987    41402.763 
  697300    306.74466   -1521.4965    455.43582    310.03245   -119.54584    41402.763 
  697400    291.65225   -1474.3048    489.27359    323.35555   -190.19821    41402.763 
  697500    307.75306   -1492.1842    488.23595    376.66863   -200.96204    41402.763 
  697600    294.96433   -1506.1523    443.32904    260.42182   -633.39602    41402.763 
  697700    306.99635   -1515.6261    464.21374     325.8098   -259.46178    41402.763 
  697800    295.27679   -1529.5003    452.28842    247.43499    88.781611    41402.763 
  697900    293.21037   -1534.8378    461.37583    241.91466   -81.172085    41402.763 
  698000    295.08881   -1519.4393    480.35009    284.71437   -278.05876    41402.763 
  698100    292.76928   -1476.6014    467.41596    304.21245   -73.184248    41402.763 
  698200    299.89568   -1481.5678    465.47899    329.27898   -373.50442    41402.763 
  698300    294.39089   -1504.8111     445.6598     261.5213   -108.93873    41402.763 
  698400    293.09016   -1543.3824    465.41567    236.87059   -151.47267    41402.763 
  698500    300.23776   -1511.1386    446.00673    281.77046   -329.28718    41402.763 
  698600    300.18333   -1522.8288    475.57302     299.4024    -280.9902    41402.763 
  698700    307.03648   -1502.5944    460.97785    335.78563   -392.42576    41402.763 
  698800    296.71904   -1508.1008    459.46434    282.48047   -852.73869    41402.763 
  698900    293.38773   -1530.7865    459.59992    244.98569   -476.43395    41402.763 
  699000    305.39311   -1549.8748    464.39157    284.54664   -187.32493    41402.763 
  699100    293.36859   -1544.2277    451.47653    223.33527   -62.840097    41402.763 
  699200    300.19202   -1547.0125    477.85685    277.54153    240.31212    41402.763 
  699300     300.0248   -1526.5758    479.59573     298.9669    552.69087    41402.763 
  699400    296.88361   -1503.7401    455.63763    283.75271    797.59176    41402.763 
  699500    309.97049   -1522.6548    468.62661    336.53637    234.62904    41402.763 
  699600    308.31596   -1529.3878     447.3653    301.11967    342.82205    41402.763 
  699700    293.13291   -1512.0145    476.36858    279.38324      195.116    41402.763 
  699800    306.91142   -1514.8001    498.87539    360.91646    120.99746    41402.763 
  699900    312.80963   -1531.4296    462.35438    334.22605   -7.5949555    41402.763 
  700000    302.12575   -1471.9928    473.23307    356.61238     226.2752    41402.763 
  700100    290.84523   -1556.0584    442.80615    191.51406    -71.13861    41402.763 
  700200    315.94882   -1515.7239    456.67556    358.33571    4.3979962    41402.763 
  700300    301.58845   -1518.4737    459.83926    294.32731   -425.15894    41402.763 
  700400     289.8592   -1553.9129    460.27528    206.70524    338.39424    41402.763 
  700500    297.76294   -1531.5057    483.59176     287.8861    495.58868    41402.763 
  700600    298.85538   -1517.8371    460.78041    283.64409    438.49998    41402.763 
  700700    296.54038   -1519.4644    461.65598    272.50703    698.04209    41402.763 
  700800    300.93952   -1493.2462    487.73031     344.5347    977.43167    41402.763 
  700900    293.03406   -1514.1043    448.11344    248.59485    188.12941    41402.763 
  701000    298.42906   -1503.7381    475.72687     310.7771   -289.29108    41402.763 
  701100    301.32437   -1500.8068    466.92437    317.89456   -228.96733    41402.763 
  701200    288.69519   -1494.5981    462.13778    262.66072   -106.42051    41402.763 
  701300    314.04073   -1482.3952    465.79616    392.22505   -249.03794    41402.763 
  701400    304.59034   -1479.6577    464.64386    351.41475    392.35078    41402.763 
  701500    300.68267   -1467.7312    473.04056    354.20759   -236.95753    41402.763 
  701600     294.3535   -1489.9634    486.24314    316.78466    593.85358    41402.763 
  701700    293.25613   -1451.6649    479.86797      343.785    510.11188    41402.763 
  701800    304.20396   -1459.8021    481.57571    386.46879    721.63651    41402.763 
  701900    297.97995   -1489.1679    464.44525    312.05091    452.22702    41402.763 
  702000    306.94558   -1491.6515    489.66963    375.01256    350.54342    41402.763 
  702100    297.56147   -1498.7785    471.54005    307.65771    294.70255    41402.763 
  702200    299.31418   -1485.1821    489.38377     346.9607    167.89444    41402.763 
  702300    304.24427   -1456.7363    460.13057     368.2703    158.84144    41402.763 
  702400    297.30878   -1497.4224    460.48734    296.82752   -409.96767    41402.763 
  702500    295.68703    -1489.439    492.36974    329.41797   -100.91323    41402.763 
  702600    297.55042   -1442.7464    484.91372    377.01398   -511.09753    41402.763 
  702700    300.41986    -1455.168    468.26893    360.82023   -403.00112    41402.763 
  702800    295.78894   -1475.0255    471.01591    322.93478   -406.69355    41402.763 
  702900    300.33246   -1489.9725    473.21404    330.56871    -246.9885    41402.763 
  703000    304.82419   -1469.1878    490.41973    388.70955   -328.56101    41402.763 
  703100    292.95596   -1442.3387    472.72382    344.62047   -264.68672    41402.763 
  703200     308.4613   -1467.5171     479.1264    395.40347      -302.01    41402.763 
  703300    298.76072   -1459.9077    470.01693    350.38534    -112.1414    41402.763 
  703400    303.07281   -1454.7962    486.44881    391.27337    202.64427    41402.763 
  703500    300.98213   -1497.5998    462.92378    315.56573   -58.022139    41402.763 
  703600    304.49069   -1506.1044     477.9321    337.80917   -38.382828    41402.763 
  703700    310.03285   -1487.2147    472.93674    376.56637    331.41018    41402.763 
  703800    303.16039   -1494.6986     464.6819    329.99693    238.42625    41402.763 
  703900    290.58691   -1530.5565    468.06765    241.11865     193.9606    41402.763 
  704000     288.6938   -1482.8693    483.53997    295.78542    50.968784    41402.763 
  704100    299.42139   -1479.6804    458.71745     322.2771    359.20294    41402.763 
  704200    302.10027   -1434.0459    471.30007    392.51196   -252.81175    41402.763 
  704300    284.44082   -1436.8982    493.48942    332.62666   -1088.8426    41402.763 
  704400    306.08347   -1418.9493    464.99265    419.17025   -601.17643    41402.763 
  704500    309.34941   -1443.6316    466.41035    410.55707   -466.48495    41402.763 
  704600    289.91011   -1408.7969    498.99638    390.77076   -239.25822    41402.763 
  704700    294.48843   -1463.9043    453.03678    310.24264   -299.13721    41402.763 
  704800    291.16255   -1414.7804    489.32571    380.73519   -203.24741    41402.763 
  704900      293.995   -1381.0121    480.59192    418.47644   -19.165597    41402.763 
  705000    299.95026   -1485.2338    475.73077    336.10962    290.37206    41402.763 
  705100    293.17266   -1466.5674     461.8931    310.53314    69.687633    41402.763 
  705200    293.54163   -1515.6759    463.23177    264.41856    -437.4778    41402.763 
  705300    301.22881   -1450.6367    471.34047    372.05208   -436.59646    41402.763 
  705400    300.09968   -1453.6564    448.51811    341.14462   -244.89886    41402.763 
  705500    301.01378   -1464.9837    485.13015    370.53009    186.57465    41402.763 
  705600     301.3732   -1479.7501    457.93738    330.18333    194.36408    41402.763 
  705700    304.59522   -1447.6857    485.46377    404.22855    380.74048    41402.763 
  705800    300.17368    -1483.247    475.05828    338.42613     287.3821    41402.763 
  705900    296.84892     -1519.45    463.89789    276.14757    97.257378    41402.763 
  706000    300.94632   -1438.5263    471.08038    382.63512    408.04906    41402.763 
  706100     289.8846   -1472.3931    483.18689    311.25066   -156.23167    41402.763 
  706200    292.05205   -1458.6516    486.08671     337.6154    36.175355    41402.763 
  706300    299.13635   -1464.2172    465.81526    343.55934   -16.732881    41402.763 
  706400    303.52677   -1493.6146    439.81756    307.86016    510.57439    41402.763 
  706500    312.14891   -1509.3774    513.00709    403.96687    490.47727    41402.763 
  706600    300.46172   -1479.9227    450.09482    318.07919    535.01514    41402.763 
  706700    310.81143   -1496.1259    483.91547    382.12669    320.38102    41402.763 
  706800    309.78719   -1486.1498    454.41744     358.0099    332.73005    41402.763 
  706900    309.21166   -1489.4258    456.22657    353.96107    -33.20617    41402.763 
  707000     289.8945   -1511.3781    473.56987    262.69297   -134.72028    41402.763 
  707100    304.83415   -1470.9912     468.3474    364.87856   -387.82884    41402.763 
  707200    285.71715   -1494.7818    462.60963    249.58899   -110.65167    41402.763 
  707300    303.06064   -1497.3058    471.45197    333.71233   -215.14843    41402.763 
  707400    306.08225   -1487.0968     474.9811    361.00576   -74.336173    41402.763 
  707500    293.60109   -1472.2734    485.98818    330.84427     37.57495    41402.763 
  707600    298.27573   -1453.5439    508.05011    392.60663    14.334847    41402.763 
  707700    291.02852   -1429.2876    473.41139    349.71243   -84.612015    41402.763 
  707800     299.8729   -1440.9953    477.65007    381.92033   -144.63233    41402.763 
  707900    293.73738   -1443.1377    493.40085    368.00405   -196.49538    41402.763 
  708000     300.8738   -1458.8703    461.83052    352.71588   -327.01434    41402.763 
  708100    303.48272   -1437.2203    502.01231    426.25165   -528.20409    41402.763 
  708200     304.0768   -1444.3246    458.38412    378.18426   -210.28162    41402.763 
  708300    299.33952   -1442.5378    479.66109    379.99602   -251.48117    41402.763 
  708400    302.00404   -1425.1384    471.52224    401.20996   -28.904844    41402.763 
  708500    305.03844   -1413.6606    498.27077     453.0489    95.832489    41402.763 
  708600    308.82832   -1467.1608    472.92746    391.20726    296.20813    41402.763 
  708700    300.14963   -1466.6084    475.63115    355.52971    70.704807    41402.763 
  708800    304.49734   -1485.7663    488.77128    369.01627   -47.279039    41402.763 
  708900    301.82617    -1470.404    458.53127    342.15538    501.67891    41402.763 
  709000    302.94845   -1466.0618    497.73956    390.74063    584.84214    41402.763 
  709100    302.25955   -1438.6546    501.16109    418.47879   -14.953393    41402.763 
  709200    305.17777   -1429.4605    460.70067    400.30399   -187.13217    41402.763 
  709300    298.36902   -1421.9008    483.43147    400.04959    51.536181    41402.763 
  709400    308.89108   -1428.5672    511.13287     468.2878    196.62627    41402.763 
  709500    301.66454   -1413.0216    466.87703    407.15847    410.32464    41402.763 
  709600    295.26289   -1450.6859    489.54303    363.44163    440.66492    41402.763 
  709700    290.65182   -1435.3704    462.39925    330.92757    101.50918    41402.763 
  709800    295.71327   -1416.3458    490.57793    400.83704    182.95714    41402.763 
  709900    305.22918   -1455.4827    477.83466    391.64643    535.16611    41402.763 
  710000    301.02284   -1421.9968    520.59413    449.02162    513.69377    41402.763 
  710100    293.98921   -1440.3327     488.1455    366.68346    166.02842    41402.763 
  710200    310.47327   -1453.4544    483.97509    423.34075    455.03674    41402.763 
  710300    302.79597   -1470.8182    462.45539    350.01604    1037.4483    41402.763 
  710400    299.16828   -1458.9614    501.93296    385.07611    446.71144    41402.763 
  710500    291.98353   -1464.9315    485.93324    330.87466    662.68556    41402.763 
  710600    305.65362   -1398.4684     488.5313    461.26142   -30.357121    41402.763 
  710700    297.71384   -1435.3697    474.88334    375.09334    146.92343    41402.763 
  710800    304.54878   -1444.6484    489.72368     411.3174   -199.20701    41402.763 
  710900    290.30651   -1458.2482    488.05548    332.15686   -102.10115    41402.763 
  711000    296.83862   -1450.9669    472.73677    353.42333   -495.94126    41402.763 
  711100    305.88431    -1469.252    476.13208    379.11355   -318.01701    41402.763 
  711200    304.54309   -1451.2751    453.87318    368.81468   -108.50985    41402.763 
  711300    305.14493   -1453.4458    481.38175    396.85242      99.0853    41402.763 
  711400    298.30704   -1520.0268    484.27784    302.49194    172.16686    41402.763 
  711500    300.31805   -1473.2927    486.33054    360.30044     92.71243    41402.763 
  711600    304.65037   -1497.7502    466.29091    335.23852    145.82307    41402.763 
  711700    300.75177   -1470.4926    481.18023    359.89593   -119.79474    41402.763 
  711800    300.21277   -1472.9074    490.73012    364.61298    276.73415    41402.763 
  711900     308.7994   -1473.5732    470.67643    382.41415    211.04596    41402.763 
  712000    307.01726    -1445.306    462.52731    394.53735    124.07887    41402.763 
  712100    304.26016   -1452.9852    476.37735    388.33946   -598.95844    41402.763 
  712200    304.15588   -1451.4917    469.95087    382.93864   -351.13547    41402.763 
  712300    299.24671   -1446.8324    474.66779    370.29174   -502.43264    41402.763 
  712400    299.76688   -1417.1538    460.71601    388.35209   -236.16419    41402.763 
  712500    307.73509   -1448.1989    504.60587    436.94322   -463.80706    41402.763 
  712600    300.57952   -1441.9378    506.30681    412.80454   -199.21946    41402.763 
  712700     303.9427    -1414.624    457.41602    406.31518    107.38108    41402.763 
  712800    308.72272   -1432.0068    475.59376    428.55388   -211.19976    41402.763 
  712900    299.88876   -1432.2874    474.48149    387.53082   -568.06373    41402.763 
  713000    303.72051   -1457.2473    467.85506    373.13416   -96.310936    41402.763 
  713100    309.70388   -1466.9574    478.65553    401.06667    328.39755    41402.763 
  713200    301.64761   -1451.9082    484.25978    385.57866    221.51215    41402.763 
  713300    296.23024   -1484.1426     487.1343    331.91582   -167.23447    41402.763 
  713400    303.00227   -1438.7734    482.41191     402.9428   -223.80587    41402.763 
  713500    301.40788    -1442.774    470.89956    380.27724    325.28244    41402.763 
  713600    297.36478   -1409.7678    489.98318     414.2292    286.39227    41402.763 
  713700    297.76071   -1481.0988    475.42225    330.11344    25.686097    41402.763 
  713800     304.8882   -1501.8951    494.85513    360.72486    412.01451    41402.763 
  713900    303.16424   -1482.7146    465.51541    342.83174     314.6508    41402.763 
  714000    295.32796   -1458.1635    482.35664    349.06959   -417.64543    41402.763 
  714100    301.11459   -1458.4503    485.16049    377.54612    703.87378    41402.763 
  714200    303.65508    -1480.922    500.48707    381.79795    292.34906    41402.763 
  714300    287.10609   -1466.3866    483.94548    305.55101    8.6752617    41402.763 
  714400    298.01048   -1462.8867    457.67558    331.69934    34.291232    41402.763 
  714500    301.61657   -1417.4774    474.63499    410.24543   -93.428281    41402.763 
  714600    298.43514   -1460.0371    474.27793    353.05647   -490.68172    41402.763 
  714700    295.13464   -1446.8684    471.28828    348.42908   -562.06845    41402.763 
  714800    290.89462   -1405.6154    477.46342    376.83591   -77.904923    41402.763 
  714900     292.4015   -1411.3797    507.76076    408.12907   -423.55224    41402.763 
  715000    303.80714   -1385.2384    452.15014    429.82677   -264.65106    41402.763 
  715100    300.00369   -1417.7197    453.03777    381.17034   -477.97374    41402.763 
  715200     290.5076   -1429.7214    465.49265    339.02295   -169.06985    41402.763 
  715300    296.14304    -1467.614    485.89306    346.81202   -141.96231    41402.763 
  715400    295.30126   -1414.6913    457.79221    367.85754   -403.75501    41402.763 
  715500    317.37049   -1459.2582    478.25372    442.75733   -1036.2051    41402.763 
  715600    299.41991   -1434.8669    470.24456    378.61107   -1353.2309    41402.763 
  715700    310.73197   -1414.8761    467.25042    446.35496   -1119.4235    41402.763 
  715800    290.79974   -1435.7948    490.20157    358.96907   -786.59108    41402.763 
  715900    307.01931   -1445.6272    483.31443    415.01249   -629.49794    41402.763 
  716000    307.67263   -1429.3695    481.88369    432.77021   -261.35349    41402.763 
  716100    296.32027   -1446.5253    496.85058    379.65335   -230.84874    41402.763 
  716200     307.3909   -1450.2693    458.66088    387.38377   -339.11508    41402.763 
  716300    294.05099   -1441.8964    481.17121    358.42256     -328.772    41402.763 
  716400    302.00405   -1424.4375    481.27206    411.66076   -66.520161    41402.763 
  716500    304.09195   -1447.8132    469.74609    386.12558     196.0899    41402.763 
  716600    298.32459   -1425.8572     494.3227    406.78516    264.11966    41402.763 
  716700    299.87605   -1438.4241    472.79396    379.64956    738.96932    41402.763 
  716800    298.34606   -1441.4928    452.29397    349.21713    267.68741    41402.763 
  716900    297.03363   -1415.9336    491.94149    408.53617    270.19362    41402.763 
  717000    299.25442   -1409.9323     463.9312    396.48982    22.057584    41402.763 
  717100    307.36995   -1468.1252    495.29825    406.07127   -318.43277    41402.763 
  717200    298.66412   -1444.3021    439.47807    335.01873   0.24321505    41402.763 
  717300    297.73841    -1406.609    479.40565    408.48667   -418.21788    41402.763 
  717400      303.823   -1412.5419    505.37927    455.82359   -143.11253    41402.763 
  717500    293.85659   -1423.1844    469.59781    364.68904    77.044665    41402.763 
  717600    302.28808   -1469.5416     476.9831    363.54184    462.16982    41402.763 
  717700    308.49155   -1427.5654    494.70488    451.06928    474.14209    41402.763 
  717800    295.81939    -1458.264    483.87495    352.69198    845.62599    41402.763 
  717900    304.44939   -1455.7117    481.36829    391.45281       524.86    41402.763 
  718000    302.86931   -1432.2962    487.98377    414.39535    715.98308    41402.763 
  718100    303.09579   -1440.8765    463.71615    382.56348    353.54591    41402.763 
  718200    302.83825   -1428.4945    461.74933    391.82325    603.22732    41402.763 
  718300    286.05733     -1461.01    482.25904    304.53624     63.88354    41402.763 
  718400    308.81308    -1483.206    469.42794    371.59424    -247.5745    41402.763 
  718500    301.45207   -1452.7336    490.06659    389.68287    359.27689    41402.763 
  718600    300.87049   -1434.3662    502.08869    417.46336    569.28633    41402.763 
  718700    292.09922   -1419.3675    492.53759    383.56205    115.11681    41402.763 
  718800    302.26713   -1494.0787    495.33922    357.26682    63.060714    41402.763 
  718900    308.33137   -1504.7476    491.36947     369.8331    430.37983    41402.763 
  719000    301.43235   -1493.8786    470.07306    328.45593    117.95134    41402.763 
  719100    309.78082   -1451.3973    483.08546    421.40183   -295.07887    41402.763 
  719200    297.83995    -1462.521    532.32258    405.94706   -37.972324    41402.763 
  719300    308.51936   -1457.9002     461.8555    388.00993    72.248545    41402.763 
  719400    300.22724   -1438.6908    464.02757     372.1919    345.69823    41402.763 
  719500    303.03626   -1440.0386    509.40244    428.82063   -86.635753    41402.763 
  719600     297.3923   -1441.2596     481.3524    374.23005    3.5979091    41402.763 
  719700    296.01824   -1413.3352    475.97055    390.60841    347.33467    41402.763 
  719800    295.65406   -1441.6111    512.08648    396.81477    242.81617    41402.763 
  719900    300.04533   -1453.9004    468.17285    360.31149   -220.00042    41402.763 
  720000    295.94538   -1411.8888    494.24634    410.00379   -134.42537    41402.763 
  720100    288.81104     -1432.45    483.59769    346.78841    86.929893    41402.763 
  720200    318.62058   -1431.3905    478.21482    476.19421    182.57942    41402.763 
  720300    309.04478   -1452.3504    474.99919     409.0605    220.63592    41402.763 
  720400    312.51216   -1439.7505     476.6896    438.90591       252.11    41402.763 
  720500    302.42414   -1452.1501     460.9047    365.46537    425.73777    41402.763 
  720600    301.55826   -1438.6052     509.8147    424.03576    346.70488    41402.763 
  720700     309.2363   -1434.8854    501.55361    453.93906    1203.0214    41402.763 
  720800    299.57698   -1451.0791    476.79346    369.65236      970.504    41402.763 
  720900    293.56612   -1430.3126    476.55166    363.21162    627.35528    41402.763 
  721000    306.24051   -1404.6527    476.77534    445.95401   -49.023205    41402.763 
  721100    299.05201   -1435.6249     488.4512    394.40923    110.14785    41402.763 
  721200    297.30321   -1468.6608    481.33112    346.40797   -424.82674    41402.763 
  721300    306.40889    -1435.165      487.664    427.08582   -182.52941    41402.763 
  721400    305.28903     -1423.52    491.24001    437.28296   -96.774507    41402.763 
  721500    303.31544   -1377.9043    464.97732    447.78223    218.32337    41402.763 
  721600    310.17876   -1408.5774    509.62928     492.5508    115.26446    41402.763 
  721700    288.92687   -1395.4773    487.54196    388.22498   -212.57986    41402.763 
  721800    302.51969   -1434.3445    473.42776    396.22258   -135.44646    41402.763 
  721900    294.25623   -1410.0389    476.60567    386.63532   -176.48096    41402.763 
  722000     307.5786    -1486.523    467.22274    360.53395   -519.07419    41402.763 
  722100    298.86039   -1439.6406    461.46445    362.54714   -71.977466    41402.763 
  722200    302.31405   -1424.6199     484.4133    416.01029   -692.92801    41402.763 
  722300     299.2367   -1436.1702     483.8359    390.07721   -444.92424    41402.763 
  722400    299.33577   -1464.8294    452.98541    331.01192   -194.51306    41402.763 
  722500    305.27326   -1418.8607    476.05467    426.68617    178.30701    41402.763 
  722600    310.29844   -1390.3826    485.89145    487.54461    132.39978    41402.763 
  722700    301.56932   -1434.0289    471.02406    389.87105   -399.25636    41402.763 
  722800    298.96044   -1418.1212    484.01262    407.06361    604.50562    41402.763 
  722900    305.75205   -1443.4028    484.28059    412.51788    370.16638    41402.763 
  723000    296.40289    -1406.548     470.3474    393.49805    335.60181    41402.763 
  723100    295.82171   -1473.2284     504.8168    358.67989    912.33214    41402.763 
  723200    296.31903   -1474.0826    460.10801     315.3479   -79.640213    41402.763 
  723300    291.97492   -1462.6628    474.69784    321.86934    169.26346    41402.763 
  723400    300.70794   -1458.6388    464.23718       354.61    115.90789    41402.763 
  723500    304.46533   -1458.8636    457.53853    364.54268    81.884666    41402.763 
  723600    297.73048   -1456.9662    477.20919    355.89737   -409.63537    41402.763 
  723700    299.24193   -1440.2301    445.86315    348.06795   -168.55582    41402.763 
  723800     304.8038    -1474.613    477.45735    370.23052   -550.59709    41402.763 
  723900    307.39788   -1432.8047    467.53004    413.74886     199.1025    41402.763 
  724000    304.85846   -1489.3439    483.34918    361.63664    112.81913    41402.763 
  724100     292.0277   -1438.1643    489.49296    361.39973    274.29926    41402.763 
  724200    292.66585    -1494.627    483.47392    301.78085   -177.41412    41402.763 
  724300     294.8371   -1505.9431    467.88242    284.61363    452.97253    41402.763 
  724400    305.39802   -1461.8324    486.14469    394.36416    528.14957    41402.763 
  724500    293.78972   -1470.1784    471.68051     319.4778    165.39391    41402.763 
  724600    294.29701   -1435.0016    467.89259    353.14247   -59.749399    41402.763 
  724700     310.5109   -1467.0353    461.60393    387.55756   -203.75667    41402.763 
  724800    300.95214   -1465.0751    498.14599     383.1781   -355.84576    41402.763 
  724900    299.89486    -1479.703     431.7613    297.42239    57.572242    41402.763 
  725000     301.4552    -1466.747     494.8043     380.4212    9.8591877    41402.763 
  725100    300.95372    -1430.191    491.70311     411.6263   -131.86413    41402.763 
  725200    307.56416   -1474.7368    455.88862    360.92123   -155.74974    41402.763 
  725300    305.06373   -1481.8016    484.69708    371.44773     1.250556    41402.763 
  725400    289.31714   -1470.8693    480.18189    307.22373    387.49312    41402.763 
  725500    305.39173   -1470.3029    473.00899    372.72975    311.10387    41402.763 
  725600    304.49762    -1505.605     483.0554    343.46295    49.117284    41402.763 
  725700    301.46932   -1481.1376    467.16094    338.45059   -230.59923    41402.763 
  725800    312.87679   -1468.3798    490.76629     425.9891   -896.32888    41402.763 
  725900    306.26025   -1477.2116    456.85875    353.56707   -385.90342    41402.763 
  726000    307.03951   -1461.4589    484.57121     400.5281   -245.89085    41402.763 
  726100    306.61567    -1424.871    504.46156    455.10495    98.286805    41402.763 
  726200    313.02333    -1460.354    497.36158    441.26751    75.434361    41402.763 
  726300     303.2126   -1440.7327    507.43166    426.94682   -262.28196    41402.763 
  726400    294.93812   -1471.1898    480.44234    332.38006    243.15292    41402.763 
  726500    297.08267   -1498.9341    474.16232     307.9765    462.79668    41402.763 
  726600    301.31286   -1451.0519    491.41294    392.08646    74.912783    41402.763 
  726700    299.77565   -1471.3412    473.54579    347.03389   -160.77425    41402.763 
  726800     304.4248   -1503.3606    472.54685    334.87219   -126.81583    41402.763 
  726900     293.6524   -1499.8864    482.99955    300.47275   -684.33676    41402.763 
  727000    295.24807   -1493.5111    482.70115    313.70807   -333.23738    41402.763 
  727100    303.02043   -1494.8297    498.06396    362.62001    17.725702    41402.763 
  727200    296.37714   -1501.8324    465.29637    293.04715   -271.62674    41402.763 
  727300     299.2449   -1509.2898    480.65838    313.81689   -266.02424    41402.763 
  727400    298.63832    -1493.278    464.10628    310.55536    169.35313    41402.763 
  727500    312.27182   -1485.5088     472.0699    387.44964    148.95774    41402.763 
  727600    305.93984   -1503.7424    503.91936    372.65956    541.98502    41402.763 
  727700     297.1286   -1473.6398    475.30847    334.62298    379.18787    41402.763 
  727800    299.34573   -1503.2465    466.24944    305.90355    341.75904    41402.763 
  727900    309.85344   -1485.6093    474.64366    379.07378   -20.886921    41402.763 
  728000    310.07733   -1476.0599     494.1366    409.12054   -399.31066    41402.763 
  728100    289.97692   -1451.1653    470.64663    320.35232    -331.7393    41402.763 
  728200    290.98881   -1479.7799    496.67066    322.30125    3.6850785    41402.763 
  728300    297.10892   -1475.9871    507.95995    364.83886    812.08423    41402.763 
  728400    299.26291   -1450.1334    478.15642    370.55206    531.45046    41402.763 
  728500    298.29684   -1501.7394    486.76215     323.2179    224.91525    41402.763 
  728600    297.22764   -1454.3545    510.93446    389.97857    24.683711    41402.763 
  728700    294.70642   -1474.7429    480.29541    327.64066    303.34257    41402.763 
  728800    303.91183    -1481.036      500.471     382.8197   -82.011552    41402.763 
  728900    301.05594   -1515.9206    468.04563    302.69789   -453.33928    41402.763 
  729000    297.41649   -1481.2461    480.25923    333.25891   -221.81189    41402.763 
  729100    296.47959   -1490.2039    477.87031    317.70915   -771.90034    41402.763 
  729200    297.90687   -1511.2654    497.63017    322.81052   -329.76745    41402.763 
  729300    297.40203   -1519.1941    472.66769    287.65452    496.05997    41402.763 
  729400    305.23469   -1519.8139    485.36702    334.87232   -234.11356    41402.763 
  729500    298.73303   -1497.0461    507.51565    350.62152    153.11126    41402.763 
  729600    303.75522   -1466.9834    486.55678    382.25548    100.20046    41402.763 
  729700      314.908   -1464.9268     476.0259    423.81393    152.94744    41402.763 
  729800    309.82842   -1445.5338    488.43667    432.83013   -303.65133    41402.763 
  729900    294.67621   -1512.3596    495.28291    304.87591   -116.17807    41402.763 
  730000    302.74749   -1487.4875    475.80736    346.48111   -88.634079    41402.763 
  730100    291.32605   -1454.2074    511.22098    363.93691   -446.40799    41402.763 
  730200    307.69388   -1430.1595     506.2099     456.4018   -423.93591    41402.763 
  730300    304.04719   -1426.6528    480.54439    417.88351   -210.22897    41402.763 
  730400    306.78685   -1429.5241    489.24406     436.0023   -79.936654    41402.763 
  730500     292.6856    -1423.209    508.31201    398.12548    24.114652    41402.763 
  730600    302.57314   -1395.2793     505.2323    467.33219     519.8145    41402.763 
  730700     299.9712   -1449.5876    492.31771    388.43661    104.15828    41402.763 
  730800    298.07811   -1400.3839    500.08433    436.91436   -99.542602    41402.763 
  730900    291.09363   -1447.9882    498.41113    356.30358   -165.75028    41402.763 
  731000    295.87856   -1405.9513    476.47742    397.87259    43.700529    41402.763 
  731100    303.40348   -1423.9724    489.25734    426.38915   -57.778294    41402.763 
  731200     293.9236   -1459.5865    486.29081    345.28054      139.935    41402.763 
  731300    297.54979   -1439.3083    490.36797    385.90348   -133.67537    41402.763 
  731400    302.02727   -1473.5219    499.95535    381.36379   -353.01269    41402.763 
  731500    301.62524   -1448.2727    455.46884    360.32294   -466.66026    41402.763 
  731600      305.875    -1406.406    509.47023    475.25593   -344.45366    41402.763 
  731700    309.23151   -1451.9622    457.59181    392.87903    14.259419    41402.763 
  731800    295.68896   -1458.8613    482.78821     350.4228   -423.51551    41402.763 
  731900    311.55483   -1480.8662    493.76417    410.57007    102.83623    41402.763 
  732000    304.92246   -1472.1211    490.35478    386.15219    458.70473    41402.763 
  732100     302.0673   -1489.1319    486.35196    352.32994    521.88866    41402.763 
  732200    299.34421   -1442.9319      516.114    416.07584    655.97697    41402.763 
  732300    296.43409   -1496.9523    497.23876     330.1251    796.29844    41402.763 
  732400    292.40844    -1453.333    476.24464    334.69069    829.10089    41402.763 
  732500    284.08546   -1451.3913      478.851    301.90089    142.35256    41402.763 
  732600    313.13021   -1484.8961    509.68767      429.531    131.81586    41402.763 
  732700    304.64356   -1484.8371     451.5878    333.41801    387.30388    41402.763 
  732800    299.16905   -1462.1351    495.82477    375.79766    219.59042    41402.763 
  732900    292.63305   -1436.9673    485.82563    361.64501   -84.240817    41402.763 
  733000    302.10768    -1469.685    475.36767    360.97368    65.488019    41402.763 
  733100    308.00191   -1444.1711    487.47703    425.03917   -224.51317    41402.763 
  733200    296.30193   -1460.3309    474.21326    343.12813   -491.78168    41402.763 
  733300    303.81314   -1485.1458    443.78543    321.58157   -381.86151    41402.763 
  733400    301.22857   -1456.3037    479.66832    374.71188   -751.26843    41402.763 
  733500    299.97385   -1473.1155    451.24217     323.8451   -382.34976    41402.763 
  733600    299.43958   -1456.2215    485.35462    372.45473    15.902343    41402.763 
  733700    308.22671   -1453.3652    484.74594     414.1225    166.11051    41402.763 
  733800    296.93533   -1474.8636    488.45839    345.68204    340.13308    41402.763 
  733900    296.11334   -1457.9001    488.22443    358.72405   -174.38891    41402.763 
  734000    301.28949   -1481.1903    474.78802    345.21829     -422.774    41402.763 
  734100    301.51968   -1428.8699    483.05327    406.83658    113.60539    41402.763 
  734200    294.27753   -1474.8028    470.36148     315.7227   -44.640428    41402.763 
  734300    306.01558   -1421.0048    475.59289    427.41046     11.19916    41402.763 
  734400    305.04491   -1437.5041    466.15843    397.12208   -923.42581    41402.763 
  734500    296.96555    -1446.635    465.20307     350.7909   -528.07387    41402.763 
  734600    300.21296   -1432.3768    498.23191    412.64618   -175.57334    41402.763 
  734700    300.20295   -1470.4768    477.10905    353.37844   -493.36963    41402.763 
  734800    309.22506   -1442.9435    461.79072    406.06771    356.51136    41402.763 
  734900    299.45335    -1447.605    480.00006    375.77847   -54.853751    41402.763 
  735000    307.21426   -1425.6983    520.73739     473.2389    122.03856    41402.763 
  735100     287.5267   -1474.5506     453.6267    268.95512   -61.618925    41402.763 
  735200    307.80133   -1464.4423    477.95014     394.3413    77.708036    41402.763 
  735300    289.87769   -1433.5038    497.65511     364.5772   -434.33607    41402.763 
  735400    303.06963   -1419.8248    464.10188    403.88351   -507.48085    41402.763 
  735500    296.79195    -1421.218    482.29442    392.52044    26.359287    41402.763 
  735600    309.41327   -1463.3478    501.05098    425.76802   -37.752794    41402.763 
  735700    296.39044   -1431.9175    475.65034    373.37567   -17.243283    41402.763 
  735800    302.65493    -1437.643    466.92295    387.02598      53.0687    41402.763 
  735900    297.29002   -1425.9954    469.11438    376.79738    303.71155    41402.763 
  736000    302.25469   -1437.2763    484.39822    403.07246   -132.00702    41402.763 
  736100    293.12788   -1431.7437    470.76051    354.02341    311.35596    41402.763 
  736200    299.41531   -1459.7958    497.11824     380.5352    -6.636175    41402.763 
  736300    303.29423    -1447.152    477.24432    390.70637   -413.36422    41402.763 
  736400     301.1875   -1470.5939    472.71509    353.28422   -277.25824    41402.763 
  736500    309.62182   -1423.8479    486.99001    452.14253   -371.83363    41402.763 
  736600    305.39605   -1426.5599    513.80361    457.28673   -129.43325    41402.763 
  736700    300.64892   -1416.8958    479.13986    410.99092   -75.085769    41402.763 
  736800    289.73628   -1416.3703    490.58787    374.00906   -139.66596    41402.763 
  736900    306.01029   -1417.7945      488.731    443.73516    736.90105    41402.763 
  737000    298.93105   -1413.9099    485.10275    412.23315    272.52969    41402.763 
  737100    296.78974   -1454.3661    469.77331    346.84132    -150.9779    41402.763 
  737200    304.77369   -1425.6947    467.51563    409.07197  -0.90846119    41402.763 
  737300    292.31287   -1414.4144    478.12799    375.06399     -325.783    41402.763 
  737400    300.48903   -1428.5481    466.48109    385.96258   -83.050029    41402.763 
  737500    300.51167   -1449.7463    497.14225    395.52711   -100.76419    41402.763 
  737600    300.05428   -1455.5654    468.19774    358.71162   -498.69661    41402.763 
  737700    294.66067   -1445.1712    481.09232      357.804   -284.73868    41402.763 
  737800    307.51267    -1419.391    485.31374    445.46125   -353.62494    41402.763 
  737900    300.09424   -1402.6429    504.32933    447.94491   -126.03842    41402.763 
  738000    286.66604   -1414.8711    491.28172    362.42865   -179.22452    41402.763 
  738100    305.49912   -1434.2342    472.64608    408.91729    243.69472    41402.763 
  738200    309.18973   -1452.4988    498.10578    432.66888   -12.803763    41402.763 
  738300    291.66033   -1439.1309    472.88351    342.17558    217.17234    41402.763 
  738400     305.8968    -1476.404    488.67178    384.55727    120.65811    41402.763 
  738500    315.51482   -1440.5469    461.32099    436.21118    87.198819    41402.763 
  738600    299.82679   -1465.7488    499.39062    378.70046   -487.82261    41402.763 
  738700    302.04527   -1472.5994    510.42158    392.83322   -94.020256    41402.763 
  738800    301.80611   -1455.1893    464.43994    363.18882   -164.01872    41402.763 
  738900    301.30355   -1455.9466    512.81557    408.55256   -733.16296    41402.763 
  739000    286.27283    -1457.466     478.9706    305.75857   -73.169884    41402.763 
  739100    298.90825   -1451.1498    482.49237    372.28061   -718.81136    41402.763 
  739200    296.87003    -1439.021    493.41777    386.19114   -22.403627    41402.763 
  739300    302.31087   -1484.9022    472.65047    343.95089      322.456    41402.763 
  739400    292.60679   -1461.9428    473.43227    324.15842   -20.817205    41402.763 
  739500    298.58804    -1462.727     490.9796    367.75411   -47.048033    41402.763 
  739600    297.46663   -1459.2938    500.76143    375.93836    -228.0053    41402.763 
  739700    308.38207    -1439.069    477.68459    422.05433   -18.937691    41402.763 
  739800    295.44487    -1431.192    496.56985    390.77875   -690.74868    41402.763 
  739900    290.29396   -1444.1968     486.5614    344.65785    -434.2439    41402.763 
  740000    310.22937   -1427.9477    486.27143    450.04964   -67.025235    41402.763 
  740100    285.49456   -1495.4864    460.87373    246.14994   -143.17655    41402.763 
  740200    308.35571   -1478.5555     483.3398    388.10476   -58.694324    41402.763 
  740300    300.98355   -1468.1125     471.2022    353.33778    26.459135    41402.763 
  740400    302.25743   -1467.7391    482.72904    370.95282   -131.88799    41402.763 
  740500    300.17651   -1449.9392    463.70569    360.39409    292.35759    41402.763 
  740600    300.63405   -1402.2425    515.34556    461.78324    223.98059    41402.763 
  740700    302.04307   -1415.0974    495.83182    435.73567    552.39462    41402.763 
  740800    293.91658   -1427.8551    478.00216    368.69185    447.64957    41402.763 
  740900    301.38835   -1434.6347    489.59707    407.02645      381.825    41402.763 
  741000    304.15146   -1469.5278    459.88931    354.82124    491.15898    41402.763 
  741100    307.55223   -1463.3887    487.73268    404.05994    246.86332    41402.763 
  741200    294.08898   -1481.6307    493.73883    331.42633     209.7597    41402.763 
  741300     298.8458   -1485.7099    480.87421    335.82217    304.71355    41402.763 
  741400    298.24295   -1445.0125    471.57787    364.51874   -322.75325    41402.763 
  741500    313.41889    -1469.164    490.41958    427.29011  -0.86757732    41402.763 
  741600     302.1945   -1490.4938    450.24171    315.42846   -64.867917    41402.763 
  741700    309.99326   -1453.2148    480.95904    418.41094   -197.74036    41402.763 
  741800    295.85716   -1463.1777    485.02592    349.09866   -695.03792    41402.763 
  741900      299.296   -1427.9212    463.48426    378.24056   -471.52651    41402.763 
  742000     306.1764   -1504.5731    469.92715    338.89784    10.010117    41402.763 
  742100    305.97073   -1458.5416    477.67057    391.75013   -314.16924    41402.763 
  742200    298.07027   -1479.5824    484.94048    342.53682   -270.39342    41402.763 
  742300    304.06941   -1472.5258     476.0432      367.609    263.71719    41402.763 
  742400    299.01962   -1513.5228    472.81553    300.73034    261.96708    41402.763 
  742500     304.7297   -1503.7772     474.4973    337.77385    758.60188    41402.763 
  742600    306.89914   -1486.2757    470.75274     361.2631    755.85951    41402.763 
  742700    297.53482   -1449.7087     498.7001    383.76807     538.3138    41402.763 
  742800    303.05821   -1503.0851    490.28665    346.75675    45.466982    41402.763 
  742900    298.53871   -1514.4715    479.23548     304.0442    407.80353    41402.763 
  743000    294.79184   -1508.7609    464.65043    278.36089    -4.778026    41402.763 
  743100    294.69535   -1493.2463    500.82741    329.61956    113.96018    41402.763 
  743200    292.33173   -1478.3691    460.45693    293.52279   -343.01647    41402.763 
  743300    302.46719   -1453.2185    504.92252    408.60789   -635.81855    41402.763 
  743400    303.42737   -1509.1252    489.78823    341.87438   -23.102905    41402.763 
  743500    304.39714   -1486.3838    465.06223    344.24023     -221.465    41402.763 
  743600    294.49515   -1485.7246    462.13601    297.55172   -230.80166    41402.763 
  743700    301.04975   -1504.4154    469.99184    316.12147   -39.074139    41402.763 
  743800    300.55305   -1472.9505    494.27796     369.6443   -285.62913    41402.763 
  743900    299.68625   -1463.8584    487.54885    368.11866   -354.42356    41402.763 
  744000    297.63099    -1475.953    465.30882    324.56391    701.20073    41402.763 
  744100    305.73128   -1501.4661    488.05637     358.1372    203.39494    41402.763 
  744200    306.62527   -1522.0922    464.23597    317.70121   -184.15495    41402.763 
  744300     297.4351   -1506.8985    475.35595    302.78672   -206.21126    41402.763 
  744400    310.32718   -1461.7904    477.41725    407.79153    431.39823    41402.763 
  744500    292.15004   -1493.5961    445.23134     262.2551    101.21946    41402.763 
  744600    306.99328   -1482.0203    494.22514    389.41322    546.33287    41402.763 
  744700    295.42243     -1482.75    487.50694    330.05718    173.25416    41402.763 
  744800    308.27682   -1483.3654    475.83624    375.43739    484.87044    41402.763 
  744900    293.03583   -1460.1383    483.61041    338.06577   -310.29347    41402.763 
  745000    292.15976   -1495.9251    495.53739    310.27572   -22.221513    41402.763 
  745100    297.79818   -1471.3561     482.6517    347.25368   -136.81973    41402.763 
  745200    296.05274    -1453.179    450.35785     325.3067   -179.91697    41402.763 
  745300    308.94829   -1479.4782    470.41182    376.91248   -387.88553    41402.763 
  745400    291.14613   -1519.0967    458.63264    245.65212   -497.22153    41402.763 
  745500    302.03089    -1473.777    470.59015     351.7597   -212.37723    41402.763 
  745600    298.63762   -1468.5153    463.21436    334.42295    -532.2097    41402.763 
  745700    301.15692   -1471.1812    487.75556    367.60013   -47.830227    41402.763 
  745800    283.70766   -1476.9475    491.68303    287.48193    191.50019    41402.763 
  745900    294.12415   -1483.4978    451.09719    287.07537    207.21708    41402.763 
  746000    296.96228   -1498.4774    491.10944    324.84022    335.04049    41402.763 
  746100    297.54314   -1486.9755    465.08707    312.92553    519.43623    41402.763 
  746200    313.34976   -1495.7821    455.13098    365.07327    30.518067    41402.763 
  746300    300.09925   -1481.1586    466.99301     332.1154    154.96108    41402.763 
  746400    295.38561   -1493.7285    488.17847    319.58503   -283.29467    41402.763 
  746500    302.86992    -1479.566    481.10074    360.24522   -425.38253    41402.763 
  746600    290.54929   -1476.7133    441.90423    268.62968   -491.07489    41402.763 
  746700    306.87502   -1439.6229    466.27015    403.32518   -370.68665    41402.763 
  746800    295.83343   -1472.3459    489.54913    344.34722   -561.91237    41402.763 
  746900     292.4834    -1421.277    484.60724    375.44559   -980.68534    41402.763 
  747000    307.00626   -1430.7116    489.04542    435.60044   -407.31413    41402.763 
  747100    297.19932   -1432.0326    469.49352    370.73249   -591.74416    41402.763 
  747200    302.71228    -1452.008    484.61384    390.60922   -50.517503    41402.763 
  747300    305.47574   -1453.4736    489.21391    406.14082   -470.16322    41402.763 
  747400    305.99616   -1465.2915    472.96703    380.41073   -274.53478    41402.763 
  747500    292.74071    -1453.683    469.77571    329.36239   -823.95194    41402.763 
  747600    295.89161   -1513.0436    499.90262    314.26403   -878.14834    41402.763 
  747700    287.84969   -1465.0796    454.57819    280.82653   -381.90285    41402.763 
  747800    293.53539   -1487.6931    487.20826    316.34986   -179.54911    41402.763 
  747900    299.97611   -1462.1014    474.63139    358.25853   -344.73128    41402.763 
  748000    296.60482   -1490.2504    476.48203    316.83618   -73.471731    41402.763 
  748100    301.17629   -1467.2041    489.40825    373.31684   -387.38745    41402.763 
  748200     306.3256   -1475.5422    445.44379    344.11472   -170.48886    41402.763 
  748300    292.56503   -1442.5006    485.84738    355.82832   -365.63903    41402.763 
  748400    311.14261   -1470.2616    451.30636    376.86761   -47.058489    41402.763 
  748500    298.71205   -1505.2787    464.58593    299.36506   -23.442902    41402.763 
  748600    299.93275   -1488.9471    473.79767    330.38457    188.36621    41402.763 
  748700    297.80418    -1502.314    473.74155    307.41255    90.732199    41402.763 
  748800    299.94416   -1495.2617    479.26883    329.59239   -346.86922    41402.763 
  748900    306.83986   -1481.0755    483.34872    378.79341    -301.2625    41402.763 
  749000     297.8161   -1427.2364    479.92933    388.73147   -412.42464    41402.763 
  749100    302.19756    -1482.074    473.69752    347.31778   -178.48329    41402.763 
  749200    293.63135    -1463.269    484.62512     338.6213    39.554312    41402.763 
  749300    299.89619    -1491.383    497.54622    351.53323    671.68439    41402.763 
  749400    296.05268   -1474.3507    472.37502    326.15191    321.00783    41402.763 
  749500    288.64235   -1461.9408     500.8758    333.81901    229.54707    41402.763 
  749600     294.1337   -1470.6366    500.03204    348.91425    422.29002    41402.763 
  749700    298.12565   -1467.9453     486.9179     356.3998     715.5062    41402.763 
  749800    301.05567   -1462.5974    502.46028     390.4345    559.44405    41402.763 
  749900    302.73446    -1490.553     466.0198    333.56962    345.94019    41402.763 
  750000    301.98929    -1480.426    480.98122    355.31517    596.15304    41402.763 
  750100    299.30664   -1490.8881    476.87222    328.70937    175.12229    41402.763 
  750200    294.54881   -1511.2201    465.43609    275.59706   -218.13183    41402.763 
  750300    306.54054   -1478.3942    469.37414    366.15734   -140.81129    41402.763 
  750400    302.18244   -1493.6954     472.1071     334.0381    358.76432    41402.763 
  750500    315.52758   -1450.2923    497.98967    463.19166    584.75801    41402.763 
  750600    295.48247   -1468.7407    487.37523    344.20411    251.35637    41402.763 
  750700    306.69086   -1448.5714    477.52808    404.80846    196.46729    41402.763 
  750800     303.9397   -1466.6495    466.84603    363.70625    323.59699    41402.763 
  750900    302.31985   -1512.9758    466.97203    310.23909    550.83856    41402.763 
  751000     305.4201   -1438.3602     479.6322    411.42296    8.6276158    41402.763 
  751100    301.37822   -1416.7274    493.45527    428.74648   -269.17717    41402.763 
  751200    286.65149   -1423.1215    473.56027    336.39156   -103.78831    41402.763 
  751300    306.01042   -1419.7325    482.81878    435.88551    136.59591    41402.763 
  751400    304.15063   -1456.7669    476.23389    383.92296   -148.17977    41402.763 
  751500    306.01248   -1459.9982    498.96293    411.77313    331.44997    41402.763 
  751600    306.94937   -1421.0833    488.79105    444.71925    363.54732    41402.763 
  751700    292.66919   -1454.2986    487.77217    346.42242   -328.19248    41402.763 
  751800    302.92477    -1462.333    477.61183    374.23543    124.50094    41402.763 
  751900    294.50305   -1495.6986    467.22454    292.70169   -223.14707    41402.763 
  752000    292.24186   -1469.1137    486.97578    328.89383   -774.57652    41402.763 
  752100    299.72032   -1478.6262    485.96234    351.91714   -332.02737    41402.763 
  752200    306.10274   -1478.3183     494.0997    388.99473   -576.58792    41402.763 
  752300    299.19182   -1478.2867    458.35866     322.2821    -407.7006    41402.763 
  752400    302.53954   -1483.0914    471.88066    346.01762   -433.39645    41402.763 
  752500    306.84977   -1467.3192       466.47    375.71544   -400.38136    41402.763 
  752600    300.89119   -1472.8496    471.82117    348.80532   -40.812133    41402.763 
  752700    293.32447   -1456.1902    481.78995    341.48824    510.57684    41402.763 
  752800    304.17693   -1460.7884    476.27498    380.06049    240.78017    41402.763 
  752900    300.58856   -1455.3742    509.47121    402.57305    87.570664    41402.763 
  753000     297.7124    -1441.993    492.99558    386.57588   -134.69702    41402.763 
  753100    293.71708   -1408.5071    487.61777    396.76049     5.469569    41402.763 
  753200    290.22176   -1435.2527    493.32879    360.04549   -20.307723    41402.763 
  753300    296.48004    -1402.608    485.52222    412.95904    52.620766    41402.763 
  753400    306.74481   -1430.1468    502.66611     448.6131   -724.01167    41402.763 
  753500     297.9135   -1421.7725    476.80876    391.51173   -227.11192    41402.763 
  753600    295.14246   -1477.8657    471.41835    317.59682   -194.39302    41402.763 
  753700     301.2008   -1433.7188    497.03275    414.53657    37.250999    41402.763 
  753800    305.84035   -1441.7297    487.60886    417.91546     228.2339    41402.763 
  753900     305.9419   -1487.5923    494.00438    378.90394    628.77042    41402.763 
  754000      319.629   -1476.8703    452.52174    409.54522    895.20395    41402.763 
  754100    307.56398   -1466.2493    497.62104    411.14042     273.7207    41402.763 
  754200    298.49297   -1508.6289    466.63291    297.07906    90.126311    41402.763 
  754300    301.88136   -1451.3523    472.93497     375.8584   -425.11464    41402.763 
  754400    301.23743   -1489.7085    491.05426    352.73278   -593.33847    41402.763 
  754500    303.75241   -1462.6774    481.25218    381.24432   -22.962805    41402.763 
  754600    302.44952   -1494.0254    485.61122    348.41043   -589.69353    41402.763 
  754700    302.14403   -1508.6646    479.69194    326.48142   -302.27721    41402.763 
  754800    296.72913   -1499.3429    464.74058    296.55992    47.456346    41402.763 
  754900    296.54012   -1496.7521    490.59283    324.15504      11.9061    41402.763 
  755000    293.16059   -1463.1606    476.74804    328.74079   -287.34836    41402.763 
  755100    299.83125   -1404.3167    484.28801    425.05002   -25.659141    41402.763 
  755200     296.2231   -1438.9602    506.44647    396.37834   -874.65186    41402.763 
  755300      311.085   -1417.0394    484.25317    462.77815   -296.39854    41402.763 
  755400    312.45271   -1464.8884    458.59526    395.40691     -256.139    41402.763 
  755500    292.54144   -1452.4232    467.88313    327.83571   -776.84348    41402.763 
  755600    301.39589   -1407.8655    501.46366    445.69602   -176.44014    41402.763 
  755700    299.50135   -1428.6685    495.05543     409.9857   -430.59548    41402.763 
  755800    294.79735   -1414.8939    473.14182    380.74393   -239.06792    41402.763 
  755900    305.82806    -1424.637    483.24857    430.59268   -70.938915    41402.763 
  756000    302.85693   -1415.1249    451.98299    395.51043    -38.79604    41402.763 
  756100    292.50374   -1445.1965    485.97593    352.98609    136.30456    41402.763 
  756200    309.19008   -1483.2108    456.13291    359.98559    261.04796    41402.763 
  756300     294.4424   -1483.8141    479.97533    317.06489   -297.94247    41402.763 
  756400    297.11313   -1433.2068    477.10311    376.78117    172.82436    41402.763 
  756500    314.93059   -1436.5737    455.27175    431.51424    250.18201    41402.763 
  756600    297.86919   -1423.0425    535.22538    448.45949   -249.53264    41402.763 
  756700    299.71706   -1439.6596    489.03597     393.9428    164.65431    41402.763 
  756800    299.13871   -1433.0367    475.22463    384.15981    151.90082    41402.763 
  756900    299.91227   -1444.3126    506.65949    407.78909    196.79515    41402.763 
  757000     306.1836   -1482.5237    496.33053    387.38291    315.99691    41402.763 
  757100    294.29999    -1488.487    473.36369    305.14152    220.14674    41402.763 
  757200    298.66821   -1485.8132    489.06202    343.11004    39.942509    41402.763 
  757300    305.90834   -1506.6736    486.53543    352.20314    119.18782    41402.763 
  757400    304.31802   -1488.4862     488.2043    364.92496    25.106707    41402.763 
  757500    292.88881   -1451.0766    465.39601     328.2535   -74.347917    41402.763 
  757600    296.71821   -1459.0767    482.18063     354.2172   -311.81628    41402.763 
  757700    301.04303   -1504.5704    480.35224    326.29674   -282.19664    41402.763 
  757800     299.2673   -1502.2959    481.23117      321.484   -330.32148    41402.763 
  757900    294.23535   -1454.7105    476.72417     341.9885    330.36488    41402.763 
  758000    295.30945   -1479.5544    477.99511    323.23404    355.64542    41402.763 
  758100    305.23915   -1474.0903    481.93792    377.18685    269.78797    41402.763 
  758200     304.4662   -1484.1738    473.95789     355.6557     -201.258    41402.763 
  758300    294.17444   -1460.5875    466.72932    325.84342    566.54354    41402.763 
  758400    300.10302   -1460.6234     469.7637    355.43821   -956.39747    41402.763 
  758500    291.12696   -1443.6573    471.57242    333.94535   -642.59208    41402.763 
  758600    305.86826   -1464.8667      440.256    347.55073   -317.36008    41402.763 
  758700    296.99927   -1490.6707    478.46394    320.16731   -418.63856    41402.763 
  758800    297.61826   -1493.1697    464.42339    306.40467   -547.09902    41402.763 
  758900    299.85131   -1510.7381     442.4045    276.83512   -443.25413    41402.763 
  759000    293.04436   -1472.3739    511.02282    353.28088    233.26008    41402.763 
  759100    298.17655   -1480.3976    466.45595    323.71386      424.553    41402.763 
  759200    291.56083   -1445.5829    473.96841    336.36212    72.195857    41402.763 
  759300    302.96967   -1484.2761     503.1632    378.04513    472.30535    41402.763 
  759400    302.90069   -1480.8518    464.40048    342.39726     136.8702    41402.763 
  759500    309.50996   -1471.8653    458.46799    375.10126    611.54747    41402.763 
  759600    295.80635    -1439.114    485.75928    373.66783    371.17134    41402.763 
  759700    296.46577   -1440.4982    490.04738    379.52995   -301.32014    41402.763 
  759800    291.16621    -1406.573    483.42673    383.06001   -429.71121    41402.763 
  759900    294.29257   -1412.8878    498.01845     405.3622   -11.235178    41402.763 
  760000    290.64946   -1415.3163    470.36659    358.93841   -267.65637    41402.763 
  760100    300.95681   -1415.2363    480.21726    415.10901    -256.0761    41402.763 
  760200    293.27475   -1428.4023    480.63266    367.89587   -554.91831    41402.763 
  760300    303.44903   -1451.3274    473.86503    383.84619   -193.36697    41402.763 
  760400    295.29867   -1454.4564    463.10363    333.39223    58.076031    41402.763 
  760500    297.01015   -1437.1627    485.82906    381.08924    482.78225    41402.763 
  760600    299.48883   -1440.6623    512.35436    415.23462     677.9828    41402.763 
  760700    300.07661   -1433.2034     473.1093    386.08528    509.36801    41402.763 
  760800    303.04952   -1362.1363     496.2522    493.63213    651.67236    41402.763 
  760900    298.21621   -1431.2548    474.15663    380.73531    269.52063    41402.763 
  761000    307.75023    -1434.259    485.92899    432.27423    357.96893    41402.763 
  761100    295.00898   -1451.3589    486.35621     358.4427    528.60658    41402.763 
  761200    308.23082   -1421.8071    466.58241    427.53546    293.19164    41402.763 
  761300    302.15593   -1438.7084    464.21937    381.01845   -157.02955    41402.763 
  761400    302.96275   -1427.8141    474.80325     406.1161    -40.05276    41402.763 
  761500     305.5236   -1442.0841    490.79409    419.32528    80.772986    41402.763 
  761600    300.34831   -1463.2193    481.72811    365.90711    408.09852    41402.763 
  761700    305.92339    -1437.994    453.62923    388.04399    119.67973    41402.763 
  761800    308.16147   -1485.6115    446.09445    342.93201    58.322706    41402.763 
  761900    306.74687   -1470.8877    476.73387    381.94922    476.91538    41402.763 
  762000    290.87119   -1413.7277    482.15929     373.3144   -340.80351    41402.763 
  762100    297.76035    -1475.652    465.43791    325.57432   -242.36597    41402.763 
  762200    305.44754   -1455.4889    476.07337    390.85854   -250.69738    41402.763 
  762300    279.38624   -1453.9791    478.08343    277.46434   -618.73433    41402.763 
  762400    295.37711   -1484.4252     445.1312    285.80292   -413.13844    41402.763 
  762500    294.48882   -1429.7736    472.02291    363.36127     -538.962    41402.763 
  762600    293.27888   -1473.4949    465.39446    307.58355   -635.36079    41402.763 
  762700    299.21224   -1416.6653    469.27971    394.91616   -130.37685    41402.763 
  762800    294.76313   -1445.5807    465.48332    342.24514   -65.150534    41402.763 
  762900    311.36553    -1456.139    479.01569    419.69953    276.90567    41402.763 
  763000    292.37789   -1419.6747    484.32184    376.28917   -165.77058    41402.763 
  763100    295.21521   -1451.8345    450.73123    323.26737   -128.58133    41402.763 
  763200     294.0268   -1376.0241    508.05891    451.07402    371.73405    41402.763 
  763300    293.44442   -1417.6195    470.01886    368.82601    306.58598    41402.763 
  763400    303.93327   -1473.3786    468.44113    358.54343    222.33882    41402.763 
  763500    305.81589   -1477.7744    461.51309    355.66523    275.27861    41402.763 
  763600    306.19205   -1472.8957    461.42844    362.14674    114.39435    41402.763 
  763700     296.7612    -1411.226    489.22778    409.30789    -179.3635    41402.763 
  763800    298.99022   -1428.1605    448.99632    362.14156   -76.254731    41402.763 
  763900    304.48534   -1438.3648    474.02665    401.61931   -347.31798    41402.763 
  764000    288.07908   -1436.7495    488.76695    344.37452   -366.78569    41402.763 
  764100    302.39995    -1472.541    463.54039    347.60159   -262.65799    41402.763 
  764200    287.18796   -1451.5977    461.64613    298.40781    -370.7759    41402.763 
  764300    296.51057   -1456.0477    469.63827    343.77231   -412.40527    41402.763 
  764400    292.57776   -1430.0741    448.51352    330.97806    -821.5421    41402.763 
  764500     290.1441   -1484.4631    464.75188    281.90979   -728.76919    41402.763 
  764600    310.47371   -1485.1378    456.89744    364.58171   -498.37627    41402.763 
  764700    301.39305   -1488.9996    484.81212    347.89771   -595.41704    41402.763 
  764800    298.10219   -1458.7868    480.44811    358.98328    141.20567    41402.763 
  764900    295.53446   -1507.9784    457.46396    275.28838    236.73917    41402.763 
  765000    294.26558   -1451.5331    463.46901    332.04634    395.29809    41402.763 
  765100    288.76511   -1438.6809    476.83078    333.58454    527.97975    41402.763 
  765200    292.03211    -1486.897    474.06112    297.25496    570.64836    41402.763 
  765300    292.55792   -1480.6442    478.59819    310.40362    947.41313    41402.763 
  765400    291.52325   -1490.4771    479.91915    297.25008    580.52184    41402.763 
  765500    288.31051   -1475.3917    470.86961    288.87322    229.90407    41402.763 
  765600    307.36407   -1487.2322     446.6256    338.26518    376.08293    41402.763 
  765700    295.41483   -1479.2922    447.68207    293.65599     193.6303    41402.763 
  765800    303.45535   -1505.2827    456.19322     312.2474    149.08257    41402.763 
  765900    289.84044   -1487.7803    465.51461    277.99306    307.41409    41402.763 
  766000    301.54836    -1471.586    473.26524    354.46113   -302.39775    41402.763 
  766100    299.63566   -1469.1529    464.09057    339.13899   -615.37334    41402.763 
  766200    307.13769   -1427.9848     485.0052    434.87663   -827.62571    41402.763 
  766300    295.70963   -1421.3655     462.6403    367.86346   -823.71908    41402.763 
  766400    307.37483   -1446.7649    483.03604    415.19121   -523.19297    41402.763 
  766500    308.29492   -1485.6891    459.24958    356.60826   -380.63425    41402.763 
  766600    292.58502   -1453.1905    494.82329    354.20403   -13.230398    41402.763 
  766700    314.30049   -1449.8549    471.09031    431.22483    558.71616    41402.763 
  766800     298.4822    -1478.885    443.71443    303.85614     336.9333    41402.763 
  766900    300.46515   -1524.3979    451.49245      275.017   -85.560207    41402.763 
  767000    312.23217   -1503.5818    455.47265    352.60158    543.36273    41402.763 
  767100    302.07158   -1522.9801    447.96454    280.11353   -185.94652    41402.763 
  767200    293.09903   -1511.6126    444.23454    247.49914   -190.06465    41402.763 
  767300     302.8777   -1508.6333     452.7428    302.85491   -769.53249    41402.763 
  767400     288.6305   -1526.2326      463.142    231.74017   -73.253187    41402.763 
  767500    291.68873   -1530.0576    466.45165    244.94442    230.30844    41402.763 
  767600    303.45468   -1519.9519     452.0522    293.43409     432.9082    41402.763 
  767700    295.63445   -1536.2109     459.1394    249.17989    127.94949    41402.763 
  767800     306.8794   -1526.7828    466.37292    316.28764    216.90904    41402.763 
  767900    301.07942   -1499.7924    477.89723      328.783   -26.431309    41402.763 
  768000    298.39086   -1515.4972    457.08202     280.2018   -226.76963    41402.763 
  768100    303.53567   -1474.6793    435.72366    322.74151   -631.51992    41402.763 
  768200    305.77252   -1448.4881    470.13536    393.37921   -51.234136    41402.763 
  768300    304.08319   -1505.4877    468.67847     327.3442    56.993121    41402.763 
  768400    297.04364   -1509.6932    470.99469     293.8746    586.19271    41402.763 
  768500    300.12021   -1462.6251    469.56972    353.31961    30.970228    41402.763 
  768600    306.07558   -1484.8291    450.27141    338.53379   -67.024336    41402.763 
  768700    296.85444   -1510.4716    464.21556    285.46837   -36.058007    41402.763 
  768800    295.99004   -1521.3049    466.82634    273.36798   -214.01108    41402.763 
  768900    302.34298   -1457.7274    473.73902    372.35828    135.55285    41402.763 
  769000    290.62573   -1474.2041    483.32273    312.90022   -149.39727    41402.763 
  769100     302.2067   -1462.8929     463.8051     356.6474   -439.85281    41402.763 
  769200    298.68073   -1483.0248    437.81872    294.71123    -45.46952    41402.763 
  769300    307.80065   -1502.2494    469.70627    348.28722    57.376366    41402.763 
  769400    294.25097   -1500.7443    451.63023    270.93088   -271.68046    41402.763 
  769500    302.06933   -1494.3743    490.10962    350.85434     87.03136    41402.763 
  769600    308.89695   -1484.7273    468.91168    369.93287     717.1993    41402.763 
  769700    296.81235    -1515.602    464.68027    280.61381    344.93305    41402.763 
  769800    307.33411   -1492.7938    480.09253    366.03615    26.322215    41402.763 
  769900    300.27846   -1539.4885    463.74656    271.34298    92.299612    41402.763 
  770000    286.07111   -1501.2624    452.81957    234.90618    271.60116    41402.763 
  770100    306.65694   -1503.8577     456.4996    328.34148    142.54579    41402.763 
  770200    301.88358   -1487.0664    447.35886    314.57818    184.55401    41402.763 
  770300    294.04528   -1495.9032    475.88562    299.10459    315.77073    41402.763 
  770400    302.98177   -1537.8024    446.82563    268.23551    368.18361    41402.763 
  770500    299.61765   -1560.4895    454.52321    238.15417    392.00857    41402.763 
  770600    295.49614   -1498.0408    468.40037    295.99042    519.58502    41402.763 
  770700    295.69405   -1489.3225    473.51508    310.71132    151.60639    41402.763 
  770800    310.69258   -1507.6792    450.81449    336.93922   -254.31362    41402.763 
  770900    292.35666   -1487.5898    453.72583    277.68286    466.84772    41402.763 
  771000    295.78844   -1491.0456    482.49078    318.38736   -653.43354    41402.763 
  771100    292.68192   -1490.1111    465.31102    288.20587   -210.67448    41402.763 
  771200    301.45877   -1545.1255    457.91292    265.16735   -271.50525    41402.763 
  771300    284.66283    -1485.619    441.79304    233.20538   -163.18025    41402.763 
  771400    308.88772   -1521.9588    464.08651    327.83485   -43.330755    41402.763 
  771500    307.79383   -1468.5763    480.08661    392.31011    39.082041    41402.763 
  771600    311.92887    -1520.304    457.43192    336.47804   -429.31632    41402.763 
  771700    296.77246   -1466.2026    471.08566    336.23967    98.310324    41402.763 
  771800    306.58204   -1509.6751     465.4756    331.16403    13.166848    41402.763 
  771900    305.47001   -1520.7666    466.90531    316.51358     12.60324    41402.763 
  772000    294.59801   -1548.1131    457.05477    230.54339   -113.34172    41402.763 
  772100    306.24525   -1529.5699    457.26004    301.54281      580.578    41402.763 
  772200    292.63202   -1547.6388    454.95837    220.10173    414.18631    41402.763 
  772300    294.90931   -1545.8409     472.3584    249.51582    477.21258    41402.763 
  772400    298.45426   -1523.5762    461.80635    277.13151    688.98105    41402.763 
  772500    290.27578   -1486.0732    479.58824    295.72683    104.88513    41402.763 
  772600    292.41798    -1487.247     441.6495     266.2244    411.24697    41402.763 
  772700    305.50014   -1474.5921    468.43612    364.35399    458.36334    41402.763 
  772800    301.87005   -1519.4831    453.83007    288.57192    603.89226    41402.763 
  772900    290.52815   -1498.4241    476.09381     281.0136    155.22973    41402.763 
  773000    298.31352   -1535.3745    459.75897    262.65442   -400.69803    41402.763 
  773100    295.07615   -1525.0394    463.67279    262.38012   -252.90828    41402.763 
  773200    309.03409   -1511.2808    448.01451    323.09745   -137.76156    41402.763 
  773300    298.78592   -1480.1752    470.63435    330.84843   -44.893326    41402.763 
  773400    298.63775   -1518.5559    457.40571    278.57431   -245.83189    41402.763 
  773500    301.70446   -1502.8612    454.36172    304.98267    118.04274    41402.763 
  773600    289.64356   -1493.2792    464.12346    270.21976   -5.6294909    41402.763 
  773700    301.98923   -1486.1748     457.1922    325.77705    56.259234    41402.763 
  773800    295.76574   -1463.8786    466.18996    329.15168   -566.52485    41402.763 
  773900    288.75103   -1470.1412    478.14286    303.37315   -116.92454    41402.763 
  774000     305.1029   -1477.6034    455.08456    346.20908    315.55417    41402.763 
  774100     299.7159    -1456.095    468.79734    357.26356    13.446551    41402.763 
  774200    306.81084   -1433.4502    462.45243    405.39223    376.96602    41402.763 
  774300    304.69845   -1484.4315    496.99717     379.4792    585.51705    41402.763 
  774400    297.01482   -1426.5237    455.33921    361.25934     713.9439    41402.763 
  774500    310.08331   -1494.5912      456.882    353.36146    906.38557    41402.763 
  774600    301.84647   -1500.6749    455.29003     308.7344    326.98166    41402.763 
  774700    294.92138   -1509.8512    462.94753    276.14878    158.99463    41402.763 
  774800    307.26513   -1482.3821    459.26573    355.31164    89.979377    41402.763 
  774900    283.18763   -1478.0875    467.23277    259.55878   -358.13687    41402.763 
  775000    299.36966   -1430.9428    492.30106     404.3662    -167.4509    41402.763 
  775100    295.71034   -1453.6059    505.45048    378.43638    359.04587    41402.763 
  775200    293.07572   -1480.8447    453.25487    287.18275    146.56546    41402.763 
  775300    309.39603   -1478.8785    462.57931    371.68828    4.1053685    41402.763 
  775400    305.27974   -1473.4923    468.27006    364.29898    532.18497    41402.763 
  775500    297.24858   -1469.3074    485.54321    349.72833     240.3927    41402.763 
  775600    302.88681   -1465.3092    463.25742    356.73454    498.31775    41402.763 
  775700    297.18449   -1464.3989    443.88374    312.68987    595.77839    41402.763 
  775800    303.33433   -1477.1286    482.02714    365.69247    586.04612    41402.763 
  775900    301.41801   -1467.9796    447.23776    331.45523    79.707801    41402.763 
  776000    306.03604   -1463.2344    466.04731    375.72709    419.14563    41402.763 
  776100    292.54019   -1442.0077    463.32357    333.68599    320.68351    41402.763 
  776200    299.05284   -1483.4681     484.5849    342.70341    794.32778    41402.763 
  776300    290.16218   -1516.7668    481.13088    266.06618    100.00045    41402.763 
  776400    296.14375   -1480.7474    458.80494    306.59365   -30.424787    41402.763 
  776500    301.24092   -1475.1051    469.33353    345.63109   -169.68307    41402.763 
  776600    293.92911   -1464.4957    483.31725    337.42255   -407.86842    41402.763 
  776700    307.12393   -1486.4911    441.70827    333.01174   -190.58117    41402.763 
  776800    291.59286   -1486.0052    477.59299     299.7081   -265.64312    41402.763 
  776900    294.06226   -1492.6179    437.60087    264.18129    72.121157    41402.763 
  777000    306.71093   -1503.5355    483.98485    356.39108    357.48323    41402.763 
  777100    294.94874   -1485.6854    457.72828    295.21802    306.87345    41402.763 
  777200       301.17   -1474.2854    462.55453    339.35362    342.21931    41402.763 
  777300    293.30787   -1519.9776    460.62313    256.45954   -171.61645    41402.763 
  777400    301.06073   -1531.6461    443.58773    262.53592   -100.85821    41402.763 
  777500    308.16883   -1504.1307    454.56319    332.91462     234.3766    41402.763 
  777600    297.19829   -1522.5732     438.7478    249.44158    141.51078    41402.763 
  777700    310.77898   -1480.5432     483.1441    396.79245    479.95464    41402.763 
  777800    304.93226   -1467.2617    469.67217    370.37294   -72.139774    41402.763 
  777900    298.50944   -1455.5843    471.54763    355.11225    190.47297    41402.763 
  778000    309.53811   -1433.7103    499.15359    454.06811    429.30609    41402.763 
  778100    294.34937    -1448.375    463.20775    335.31907     115.6257    41402.763 
  778200    292.87288   -1466.4091    456.09346    303.54698    739.21472    41402.763 
  778300    307.28498    -1489.783    461.11557    349.84963    404.24906    41402.763 
  778400    309.47675   -1497.1793    488.91018    380.08045    581.15969    41402.763 
  778500    300.07329   -1499.5359    466.54792     313.1765    328.52514    41402.763 
  778600    303.26565   -1465.5011     464.5126    359.49733    444.66811    41402.763 
  778700    294.37867   -1498.9309     460.0448    281.73164    226.42176    41402.763 
  778800    297.32975   -1493.2559    448.12667    288.72739    181.90872    41402.763 
  778900    300.06283   -1460.4681    492.41972    378.06919     382.1228    41402.763 
  779000     293.9066   -1460.6438    502.17894    360.03514    462.43102    41402.763 
  779100    297.44055   -1477.8255    481.76935    338.29755     221.1924    41402.763 
  779200    297.11364   -1472.1929    495.47898    356.17328    118.16303    41402.763 
  779300    299.75251   -1483.7939    495.99227    356.92389    709.26784    41402.763 
  779400    311.35124   -1473.6509    483.16597    406.27383    792.75831    41402.763 
  779500     293.5721   -1477.8694    477.02584    316.15588    1033.0936    41402.763 
  779600     303.1379   -1496.4788    460.31777    323.75174   -120.62772    41402.763 
  779700    305.25546   -1433.1976    482.39589    418.61069    -316.3369    41402.763 
  779800    297.30889   -1506.3183    463.61772    291.06247   -566.99335    41402.763 
  779900    293.60997   -1504.8168     482.1285    294.48094   -486.79472    41402.763 
  780000    301.16874   -1483.2283    479.71041    347.56101   -51.237499    41402.763 
  780100    299.59925   -1468.0529    493.03456    369.01962    485.93976    41402.763 
  780200    298.32939    -1471.456    486.94728    353.83245   -114.63635    41402.763 
  780300    298.96429   -1469.1737    497.69242    369.70815      148.907    41402.763 
  780400    313.87795   -1487.7224    481.67443    402.04593    746.08237    41402.763 
  780500    292.13094   -1473.6292    474.54751    311.45247    462.65293    41402.763 
  780600    303.79797   -1524.8827    479.44789    317.43908     400.5821    41402.763 
  780700    301.11769   -1474.9816    466.10583     341.9741    198.89861    41402.763 
  780800    304.52245   -1465.7944    490.91261     391.2422    374.36906    41402.763 
  780900    296.74356   -1480.6099    488.46833    339.08541    380.65549    41402.763 
  781000    295.58984   -1506.1981       477.67     297.5232   -14.008638    41402.763 
  781100    307.96868    -1466.781     498.7474    413.55059    419.14172    41402.763 
  781200    290.99128   -1439.6745    476.07531    341.82234   -89.737073    41402.763 
  781300    312.17183   -1454.1341    478.07262    424.37854    103.17733    41402.763 
  781400    299.85885   -1455.7749    491.92499    381.35256   -167.07819    41402.763 
  781500    295.38987   -1466.8924    469.97064     328.2324   -149.98794    41402.763 
  781600    300.18237   -1481.0508    473.65405    339.25715   -148.75044    41402.763 
  781700    289.77548   -1459.4952    472.04869    312.52079   -11.644861    41402.763 
  781800    289.88164   -1502.6413    474.58912    272.39136   -57.155904    41402.763 
  781900    293.68167   -1490.6583    468.30674    295.13938    99.173666    41402.763 
  782000    302.12783   -1476.7529    454.35375     332.9823   -22.161537    41402.763 
  782100    302.43551   -1457.0561    494.67362    394.37928    495.75604    41402.763 
  782200    300.51031   -1477.9762    490.58799    360.73684    1026.0525    41402.763 
  782300    306.58449   -1494.5658    466.85931    347.66807    503.60771    41402.763 
  782400    290.34902    -1505.613    483.09726    280.02455    317.54568    41402.763 
  782500     303.8987   -1525.7757    481.36557    318.91566    584.00248    41402.763 
  782600    291.16628   -1491.8832    469.11205    283.43551     170.4162    41402.763 
  782700    289.92654   -1498.8671    471.58057    273.35846    456.84119    41402.763 
  782800    306.83335   -1504.6969    473.44781    345.24182     134.1874    41402.763 
  782900    295.84348   -1449.6976    464.86414     342.3556    56.693614    41402.763 
  783000    299.67044   -1488.8142    473.28208    328.82513   -178.97507    41402.763 
  783100    307.41802   -1496.0957    471.85196    354.87011    -473.2812    41402.763 
  783200    301.80463   -1510.2581    455.91295    299.58637   -432.89345    41402.763 
  783300    300.37632   -1535.3629    473.32168    285.48276   -384.03429    41402.763 
  783400    297.88655   -1499.5698    485.47213    322.25694   -483.24755    41402.763 
  783500    310.00468   -1453.1943    465.27841    402.80205   -228.97666    41402.763 
  783600    301.65116   -1463.0266    471.65012     361.8666   -4.3823345    41402.763 
  783700    307.36838   -1479.7457     455.8611    355.00659    104.21359    41402.763 
  783800    305.39043   -1529.7177    466.49812    306.79825   -150.64215    41402.763 
  783900    295.27758   -1498.7242    489.02867    314.95488   -180.42754    41402.763 
  784000    292.92218   -1465.2242    470.42255    319.28211    137.97722    41402.763 
  784100    302.67924   -1475.5859    466.88427    349.15349    195.48001    41402.763 
  784200    290.09462   -1440.2575    464.69527     325.8368    423.98767    41402.763 
  784300    310.40798     -1448.68    491.11492    434.96209   -175.88161    41402.763 
  784400    302.78938   -1484.6637    462.17294    335.85844    -445.9771    41402.763 
  784500    295.97639   -1431.1551    466.15246    362.78272   -349.10131    41402.763 
  784600    297.92875   -1443.4407    478.14524    371.24839   -995.53481    41402.763 
  784700    289.94066   -1468.8615    457.54073    289.38752   -558.89343    41402.763 
  784800    309.84102   -1458.3475    435.79641    367.43269   -773.23935    41402.763 
  784900    300.15832   -1437.5025    471.44031    380.48375   -764.81445    41402.763 
  785000    303.91448   -1447.0608    493.60909    409.94483   -302.45618    41402.763 
  785100    290.09433   -1449.3691     481.6526    333.68122   -162.20434    41402.763 
  785200    306.04191   -1471.4108    483.24946    384.77911    361.53651    41402.763 
  785300     301.6261   -1457.2195    447.59223     343.5034    808.90955    41402.763 
  785400    292.77484   -1448.5341    483.10626    347.99499    756.29708    41402.763 
  785500    294.02564   -1465.8503    472.14524    325.32901    681.97039    41402.763 
  785600    286.77381   -1454.3838    477.81419    309.93181    345.36858    41402.763 
  785700    301.12308   -1459.0016    455.07594    346.94832    409.72179    41402.763 
  785800    299.81938   -1435.3363    483.45292    393.14205    292.66839    41402.763 
  785900    298.81046   -1443.5807     478.0172    374.93583   -471.79088    41402.763 
  786000    309.58191   -1401.3847     469.3976    456.83427   -406.55857    41402.763 
  786100     296.2469   -1468.4033    460.76481    321.36042    -889.9599    41402.763 
  786200    307.16933   -1429.6815    475.52794    423.84468   -658.97049    41402.763 
  786300    306.79477   -1428.9818    467.94296    415.27904   -871.14382    41402.763 
  786400    293.37788   -1435.4318      485.509     366.2053   -747.33838    41402.763 
  786500    301.29037   -1468.8058    470.78462    353.60327   -290.92896    41402.763 
  786600    307.46292   -1456.0238    473.90075    397.19222   -184.12498    41402.763 
  786700    298.20638    -1468.478    449.85785    319.16919   -156.86361    41402.763 
  786800    306.53802   -1441.6571    489.42765    422.93658   -374.45665    41402.763 
  786900    288.52789     -1383.56    454.82749    365.63796   -75.601693    41402.763 
  787000    296.42147   -1416.5538    482.13088    395.35908   -1031.8371    41402.763 
  787100    295.36716   -1420.6343    441.61586     346.0338   -564.27402    41402.763 
  787200    298.62827   -1428.9107    454.47806    365.24935    -263.3083    41402.763 
  787300    298.54067   -1474.0848    487.57061    352.77483    6.0118544    41402.763 
  787400    300.07294   -1444.6551    473.45368    374.96153    439.50715    41402.763 
  787500    307.72914   -1434.5661     489.3424    435.28593    43.378083    41402.763 
  787600     306.2092   -1446.1179    467.05095    394.62396   -110.17051    41402.763 
  787700    296.28002   -1446.9287    464.74774    346.96655   -153.07691    41402.763 
  787800    309.31109    -1419.348    457.37222     425.6306   -348.56988    41402.763 
  787900    309.40385   -1404.0671    505.96324    489.91865    281.29389    41402.763 
  788000    298.12867   -1438.9648    503.91903    402.39497    325.04751    41402.763 
  788100    303.03645   -1426.2519    468.17373    401.37942    193.76779    41402.763 
  788200    297.28408   -1457.6966    466.03553    341.99071    96.864497    41402.763 
  788300    292.49925   -1473.0973    490.33554    329.42471   -353.77594    41402.763 
  788400    305.37563   -1440.5784    473.53168    402.90476   -572.96899    41402.763 
  788500    306.01783   -1465.1422    472.86387    380.55412   -419.70089    41402.763 
  788600     299.2596   -1460.9734    465.61689     347.1577   -730.85001    41402.763 
  788700    292.83995   -1441.8471    454.52834    326.39612    -391.6901    41402.763 
  788800     292.7752   -1457.8647    466.76423    322.32399   -661.42448    41402.763 
  788900    309.81021   -1507.4335    494.00583    376.41787    192.53549    41402.763 
  789000    300.51753   -1461.1094    478.89363    365.94161    226.70081    41402.763 
  789100    303.98198   -1466.9082    457.55179    354.34298    412.11029    41402.763 
  789200    311.65221   -1489.8001    485.51859    393.82739   0.87985196    41402.763 
  789300    288.72812   -1477.8683    479.05719    296.45765    -132.0903    41402.763 
  789400     300.5145   -1493.5929    466.40765     320.9586   -456.80507    41402.763 
  789500    299.96377   -1493.7424    473.63808     325.5689   -833.37339    41402.763 
  789600    298.55162   -1474.0667    465.43627    330.70772   -310.71004    41402.763 
  789700    303.92279   -1492.3259    460.83401    331.94192   -330.02586    41402.763 
  789800    301.57272   -1506.7373     456.3335    302.48732   -44.779925    41402.763 
  789900    307.89936   -1501.1323    479.27779    359.41875   -47.647246    41402.763 
  790000    305.45725   -1452.1569    480.19027    398.35098    310.17344    41402.763 
  790100    302.15083   -1513.4639    465.57022    307.59091   -195.38041    41402.763 
  790200    312.67174   -1457.1157    489.18166    434.74863   -284.73768    41402.763 
  790300    301.84281   -1446.9773    455.14542    362.27097   -533.21472    41402.763 
  790400    305.50869   -1481.6865    433.21882    322.08066   -211.47784    41402.763 
  790500    296.95791   -1501.1361     480.2132    311.26562   -413.52127    41402.763 
  790600    298.65504   -1485.0587    458.43064    313.17407   -127.34881    41402.763 
  790700    296.62803   -1454.1473    474.82276    351.38415   -89.949097    41402.763 
  790800    287.51712   -1466.4811    464.66889    288.02388   -397.22157    41402.763 
  790900    297.35952   -1452.4978     468.7798    350.27226   -159.45919    41402.763 
  791000    294.21159   -1470.9384    477.44064    326.37046   -482.91696    41402.763 
  791100    296.06946   -1482.2088    466.78631    312.78043    480.09012    41402.763 
  791200     291.2173   -1472.4357    487.31415    321.31393    387.06239    41402.763 
  791300    305.65277   -1492.7582     451.7647    330.20123   -546.42314    41402.763 
  791400    299.91891   -1448.7232     454.4796    351.22834   -447.45425    41402.763 
  791500    299.89643   -1501.7364    460.51689    304.15165   -128.57494    41402.763 
  791600    308.55796   -1503.3851    438.86266    319.70533   -697.52524    41402.763 
  791700    305.69356   -1432.3008    487.22295    426.29991   -424.95651    41402.763 
  791800    299.31473   -1433.7429    487.45086    396.46954    135.55954    41402.763 
  791900    292.41485   -1493.6178    445.73803     263.9281    330.24178    41402.763 
  792000    306.64779   -1497.1828    461.62596     340.1017    638.00942    41402.763 
  792100    304.89313   -1503.8462    490.89805    354.83878    440.05102    41402.763 
  792200    309.34556   -1486.4597    448.41206    349.71342    83.151295    41402.763 
  792300    305.55355   -1464.4119    461.28165    367.61938   -187.55015    41402.763 
  792400    298.24504   -1453.5686    468.92322    353.31738   -673.23164    41402.763 
  792500    301.02806   -1441.5969    473.03044    381.88126   -629.62684    41402.763 
  792600    304.05289   -1431.7533    489.11805    421.38222   -616.60528    41402.763 
  792700     304.2959   -1461.6721    494.26702    397.70251   -788.46832    41402.763 
  792800    303.31105   -1456.3087    469.67271    374.05358    -760.2461    41402.763 
  792900    305.81813   -1464.7913    474.78555    381.93077   -732.50085    41402.763 
  793000    299.82258   -1446.2637    476.84306    375.61918   -199.55041    41402.763 
  793100     311.7254   -1484.5095    446.37904    360.30677   -321.25698    41402.763 
  793200    279.58304    -1440.082    491.53439    305.69522   -460.28799    41402.763 
  793300    299.96183   -1439.4483    499.64753    405.86374    142.46627    41402.763 
  793400    292.55013   -1457.8473    492.09464    346.66212    426.32541    41402.763 
  793500    300.42923   -1432.8253    486.91551    401.85155   -23.794129    41402.763 
  793600     307.5976   -1424.4363    460.94395    416.42715    227.82013    41402.763 
  793700    293.58427   -1402.5027    468.60297    383.15428   -320.08421    41402.763 
  793800    312.80811   -1428.6719    505.79876    480.42133   -33.010074    41402.763 
  793900    293.52151   -1430.8634     477.2358    363.14486    -76.65636    41402.763 
  794000    305.53671   -1472.5781    480.79435     378.8903    228.95428    41402.763 
  794100    306.54041   -1459.7319    504.72406    420.16898    -107.5646    41402.763 
  794200    296.06397   -1427.8503    469.30761    369.63559   -192.61847    41402.763 
  794300    298.79041   -1479.5429    497.35745     358.2239    3.0407446    41402.763 
  794400    306.72184    -1462.895    493.17527    406.27101   -73.101485    41402.763 
  794500    305.00828   -1488.8468    455.44617    334.90285    186.92574    41402.763 
  794600    298.62485   -1477.7326    460.20269    322.13672   -349.30469    41402.763 
  794700     306.8191   -1455.6768    492.44005     413.1903   -209.71753    41402.763 
  794800    293.67253   -1487.7661    459.44661    289.13043   -341.95034    41402.763 
  794900    300.29956   -1493.3529    465.63522    319.46195   -363.33589    41402.763 
  795000    299.27229   -1478.7829    463.87798    327.66624   -725.50509    41402.763 
  795100      302.572   -1488.9057    483.36593    351.83431   -1024.2567    41402.763 
  795200    302.30323   -1479.5702    488.05102    364.64915   -732.18619    41402.763 
  795300    295.27005   -1480.5279    481.82731    325.91597   -227.39246    41402.763 
  795400    302.27837   -1481.0909    472.65497     347.6208   -500.40294    41402.763 
  795500    296.14823   -1439.6888    488.29118    377.15864   -432.49674    41402.763 
  795600    305.07014   -1477.8747    494.24105    384.94731    581.08993    41402.763 
  795700    296.58797   -1481.8312    480.25646    328.95419    191.47703    41402.763 
  795800    300.38351   -1503.4553    500.43796    344.53885    21.013985    41402.763 
  795900    294.20075   -1503.0998    478.63687     295.3567   -117.92008    41402.763 
  796000    298.08954   -1474.1737    500.79298    363.88441    161.48219    41402.763 
  796100    295.09301   -1471.1938    462.29447     314.9231    85.019908    41402.763 
  796200    295.89621   -1463.3941    499.50163    363.53324    241.45027    41402.763 
  796300    292.72032   -1491.1657    474.15071    296.16325   -7.1749653    41402.763 
  796400    299.60008   -1464.9798    477.23784    356.29965   -521.71039    41402.763 
  796500    294.41807   -1498.8113    489.72199    311.70516   -68.963823    41402.763 
  796600     310.4153   -1520.2895    469.74651    342.01698    180.18356    41402.763 
  796700    301.37753   -1473.0234    464.60796    343.60009   -113.22338    41402.763 
  796800    309.55573   -1498.7745     463.0452    352.97456   -96.433676    41402.763 
  796900    292.39872   -1508.5731     478.8735    282.03586    124.49679    41402.763 
  797000    301.17658   -1528.3939    473.85226    296.57239    48.273382    41402.763 
  797100    299.11733   -1548.3049    466.04614    259.61724     57.90573    41402.763 
  797200    298.55158   -1519.3108    456.36832    276.39546    333.99969    41402.763 
  797300    289.20569   -1525.8189    486.61881    258.21108    56.669332    41402.763 
  797400     304.3444   -1541.4513    472.72305    296.59701    375.43664    41402.763 
  797500     294.8653   -1533.8668    452.20104    241.13511   -185.61575    41402.763 
  797600    296.72178   -1531.4517    490.42205     290.0996   -588.06304    41402.763 
  797700    300.77382   -1521.8113    454.92044    282.41628   -64.745847    41402.763 
  797800    289.70891   -1544.8963    453.78769    208.56009   -417.34377    41402.763 
  797900    291.79543   -1527.4596    491.13003    272.69947   -796.00694    41402.763 
  798000     300.1171    -1508.239    464.89045    303.01253   -371.94997    41402.763 
  798100    306.47879   -1543.7174    469.30994     300.4929   -274.30116    41402.763 
  798200    302.32766   -1546.5267    471.04695    280.79813   -362.14518    41402.763 
  798300    304.91302   -1550.2496    499.63315    317.25972   -276.34583    41402.763 
  798400    295.19435   -1511.4708    484.24777    297.05397    557.38218    41402.763 
  798500    301.28722   -1511.1661    484.98149    325.42569    391.41314    41402.763 
  798600    300.44893   -1513.4995    475.37414    309.72439    559.13132    41402.763 
  798700    295.82948   -1510.0303    455.32193    272.41793    32.364663    41402.763 
  798800    309.40247   -1529.2844    478.74909      337.481    204.28911    41402.763 
  798900    294.34718   -1521.0946    451.58088    250.96278    383.70762    41402.763 
  799000    313.37019   -1486.2065    483.55676     403.1662    822.32543    41402.763 
  799100    298.02523   -1475.5695    459.10512    320.51228    503.03162    41402.763 
  799200    301.12464   -1484.9703    492.68036    358.59112    398.65942    41402.763 
  799300    305.45422   -1482.4786    478.75714    366.58252    70.114589    41402.763 
  799400    307.84713   -1438.5977    470.93485      413.376   -302.82855    41402.763 
  799500     296.7516   -1419.0687    478.39965    390.59397    69.289279    41402.763 
  799600    290.29975   -1431.5451    496.65028    367.42444    603.10811    41402.763 
  799700    295.47067   -1495.6359    476.50111    306.38184   -4.4944574    41402.763 
  799800    312.47639   -1515.3105    473.27136    359.76721    227.56263    41402.763 
  799900    298.74261   -1506.4777    483.61052    317.32774    174.29789    41402.763 
  800000    292.99815   -1550.4673    488.02042    251.97774    501.15863    41402.763 
  800100    295.16729    -1494.465    494.69936    324.39001   -355.53043    41402.763 
  800200    299.20726    -1491.272    453.61599    304.62343   -337.44546    41402.763 
  800300    290.34318   -1492.6401    493.62034    303.49431   -551.23298    41402.763 
  800400    298.95757   -1462.0953    493.96437    373.02833   -318.34754    41402.763 
  800500    298.34582   -1468.9448     483.5859    353.05596   -252.61905    41402.763 
  800600    301.60854   -1488.2495    475.71876    340.52113     82.70954    41402.763 
  800700    306.29753   -1448.6624    469.46876    394.89358    93.150704    41402.763 
  800800    315.78514   -1432.6474    519.13019     503.1326   -426.13451    41402.763 
  800900    298.22305   -1478.5225    466.30519    325.64681   -687.41474    41402.763 
  801000    300.04964   -1478.8974    493.25723    360.41825    -822.4967    41402.763 
  801100    301.23285   -1522.4974    466.20696    295.07604   -331.85726    41402.763 
  801200    290.26087   -1476.3322    483.62136    309.43395   -673.34734    41402.763 
  801300    290.37704   -1457.9548    504.26508    348.97629   -210.89993    41402.763 
  801400    296.56579   -1498.2239    482.11806     314.3236    130.93936    41402.763 
  801500    304.32365   -1464.1665    475.68817    376.75379    89.794385    41402.763 
  801600    296.83958   -1438.0117    499.33717    392.98319   -617.88542    41402.763 
  801700    299.25959   -1425.9052    482.86515    399.47413    298.56441    41402.763 
  801800    310.51437   -1419.3466    499.30281    472.96067    314.56778    41402.763 
  801900    309.43349   -1458.1766     497.6229    427.60182    640.50061    41402.763 
  802000    311.55772   -1457.4907    468.38756    408.58193    414.36421    41402.763 
  802100    301.60251    -1429.641    537.56298    460.94672    289.22142    41402.763 
  802200     298.7268   -1421.4857    486.05519     404.6935    217.03622    41402.763 
  802300    296.82214   -1483.2628     453.5246    301.84133    548.96206    41402.763 
  802400     305.3059   -1443.9864    500.98243    426.63464    705.69237    41402.763 
  802500    306.77844   -1434.1351    493.58848    435.69798    882.27556    41402.763 
  802600    296.02419   -1463.6892    459.40279    323.71337    501.64471    41402.763 
  802700    304.99599   -1499.7085    465.12368    333.66355     458.0664    41402.763 
  802800    295.32489   -1473.8298    502.89849    353.93131    363.62904    41402.763 
  802900    301.28312   -1475.1258    467.57773    344.04388    517.00399    41402.763 
  803000    308.28212   -1497.7789    482.62899    367.84039    4.2353171    41402.763 
  803100    307.80911    -1494.112    449.84259    336.59892   -131.15604    41402.763 
  803200    293.08039   -1472.9209      497.691    339.56364   -535.64087    41402.763 
  803300    293.78894   -1493.8626    474.86357    298.97311     -168.935    41402.763 
  803400    303.16121   -1483.0573    459.77336     336.7334   -54.172023    41402.763 
  803500    307.62913   -1501.1717    487.82703    366.71628    -205.5257    41402.763 
  803600     298.4758   -1483.1579    472.62403    328.46415    471.31351    41402.763 
  803700    298.57716   -1506.1805     487.2905     320.5627    589.21971    41402.763 
  803800    294.22234   -1511.6603    445.87514    254.13133    159.62353    41402.763 
  803900    292.62294   -1523.6687     461.8177    250.89039    175.33135    41402.763 
  804000    319.79153   -1497.3506     479.6668    416.93912    47.698885    41402.763 
  804100    301.22568   -1511.3838    460.48915    300.43967   -305.44796    41402.763 
  804200    309.93063   -1482.0849    485.46033    393.76122   -58.750723    41402.763 
  804300     296.5467    -1531.771    494.53967    293.11251   -324.33249    41402.763 
  804400    305.41447   -1489.1715    489.07081    370.02503    302.26896    41402.763 
  804500    296.40104   -1497.0341     509.7571    342.41339    268.21763    41402.763 
  804600    296.87663   -1497.0756    490.14712    324.89542    590.98995    41402.763 
  804700    294.43296   -1478.6065    479.93532    322.19017    585.27889    41402.763 
  804800    298.80301    -1437.065     504.4941      407.895    851.59157    41402.763 
  804900     313.3398   -1450.1448    478.18619    433.72109    773.48491    41402.763 
  805000    302.54085   -1464.0152    480.71192    373.93099   -28.672135    41402.763 
  805100    305.50056   -1421.3807    511.73201    460.86326   -223.41207    41402.763 
  805200    300.42876   -1464.2147    462.50199    346.04643    159.17648    41402.763 
  805300    302.70691   -1412.9499    530.79674    475.82613   -717.46654    41402.763 
  805400    290.13632     -1463.47    471.70335    309.81946   -355.13985    41402.763 
  805500    303.58185   -1465.2872    484.13988    380.75709     -406.059    41402.763 
  805600    296.92506   -1464.5247    494.43695     361.9535   -501.85281    41402.763 
  805700      289.952   -1500.6899    465.22029    265.28954   -471.34608    41402.763 
  805800    297.19387   -1499.6586    465.43696    299.02545   -488.66448    41402.763 
  805900     311.7779   -1494.1394    483.64786    388.18126    62.883896    41402.763 
  806000    297.15869   -1508.4575    458.98879    283.62057    62.271034    41402.763 
  806100    308.80102   -1500.6226    479.28423    363.97984    575.13202    41402.763 
  806200    296.84453   -1536.3689    474.50949    269.82045    278.09653    41402.763 
  806300    299.81648   -1534.5934    476.54181     286.9609    147.36005    41402.763 
  806400    299.15165     -1546.34    478.96273    274.65271   -201.93375    41402.763 
  806500    298.27572   -1559.9863     492.8433    270.95737   -467.83062    41402.763 
  806600    297.80647   -1516.5017    482.16574    301.65935    263.99098    41402.763 
  806700    309.21661   -1535.4309    495.47585    347.22746   -344.52987    41402.763 
  806800    291.32655   -1580.2741    463.45719    190.10876   -652.77087    41402.763 
  806900    308.86585   -1580.4855    482.98415     288.1076   -104.91236    41402.763 
  807000    284.03766   -1569.4055     482.1192    186.94045    26.008105    41402.763 
  807100    295.82689    -1547.664     470.0261    249.47676   -93.092088    41402.763 
  807200    300.80536    -1546.417    462.18599    265.21765   -10.920183    41402.763 
  807300     299.7253    -1543.689    490.11824     291.0326   -141.53038    41402.763 
  807400    300.67943   -1515.2194    466.81754    300.48187   -172.20154    41402.763 
  807500    294.13105    -1558.999      490.255    250.76289    94.099577    41402.763 
  807600    292.72734   -1573.3205    513.45711    253.34628   -286.68508    41402.763 
  807700    303.18179   -1505.7817    467.54444     321.8724    109.42756    41402.763 
  807800    303.01394   -1528.6574    498.61863    329.31783    232.83436    41402.763 
  807900    309.39784   -1514.0482    484.81947    358.76689    371.45137    41402.763 
  808000    298.72669   -1478.3441    487.74335    349.52277    138.74648    41402.763 
  808100    308.66669   -1541.1359    491.99128    335.57088    462.54419    41402.763 
  808200    299.30105   -1562.7359    489.11889    269.08311    664.09617    41402.763 
  808300    297.97983   -1529.1381    502.07066    309.70562     120.8962    41402.763 
  808400    296.26395   -1549.5508    457.76568    237.29025    664.92044    41402.763 
  808500    293.90002   -1554.2746    540.23737    304.43329    415.61034    41402.763 
  808600    297.65946   -1537.4643    478.32094    276.19243    464.78141    41402.763 
  808700    293.89345   -1501.0878    499.87628    317.22955    360.79246    41402.763 
  808800    301.03675   -1485.4549    500.83856    365.87035    159.60788    41402.763 
  808900    308.83798   -1510.7775    489.90761    364.61412   -159.96349    41402.763 
  809000    302.46795   -1528.2508    491.26232    319.91881   -556.86764    41402.763 
  809100    297.09837   -1524.4551     496.2712    304.63479   -144.25311    41402.763 
  809200    292.54414   -1514.6725    482.49028    280.20568   -401.53417    41402.763 
  809300    293.67988   -1507.6433    484.60615    294.44582   -368.86338    41402.763 
  809400    289.22124   -1486.0025    505.18899    316.66745   -720.99074    41402.763 
  809500     306.9246   -1460.5122    513.51854    429.90672   -820.34508    41402.763 
  809600    308.42803   -1479.7197    498.61178    402.53696   -120.07354    41402.763 
  809700    301.73682   -1503.8263    510.83572    360.63672   -5.6908519    41402.763 
  809800    309.92188   -1536.7227    492.75106    346.37485    468.71462    41402.763 
  809900    305.69584    -1523.052    462.36776    310.70369    58.994852    41402.763 
  810000    282.62269   -1510.8249    531.55273    288.60693    60.865275    41402.763 
  810100    301.44584   -1484.5011    466.50801    334.32889    31.575115    41402.763 
  810200    301.83823   -1500.8285     509.2037    362.45743    189.62479    41402.763 
  810300    301.74845    -1508.279    474.80224    320.20273    189.42981    41402.763 
  810400    298.93549   -1501.0074    499.51505    339.56782    98.885812    41402.763 
  810500    303.26155    -1544.935    499.75558    315.28807    470.47646    41402.763 
  810600    289.72084   -1539.3514    491.07732    251.44814    543.61988    41402.763 
  810700    287.87459   -1553.4395    495.36506    233.36528    308.12366    41402.763 
  810800    309.31403   -1554.3479    473.24995    306.52159    387.18327    41402.763 
  810900    303.90972   -1570.3348    468.47304    261.51346    161.71643    41402.763 
  811000    304.67214   -1538.3379    500.10989    328.56754   -66.076854    41402.763 
  811100    298.48652   -1505.2736    475.29944    309.07189   -238.24425    41402.763 
  811200     296.4154   -1505.0728    500.07637    324.75841   -495.44113    41402.763 
  811300    306.45877   -1500.8337    475.39155    349.36846   -376.22468    41402.763 
  811400    308.36017    -1538.409    483.92525    328.85666   -329.95398    41402.763 
  811500     300.6885   -1505.0205    502.93725    346.84113   -655.65616    41402.763 
  811600    302.25554   -1506.1396    474.63276    324.44751   -458.37581    41402.763 
  811700    299.79719   -1538.8202    474.91303    281.01879    -463.7958    41402.763 
  811800    298.29398   -1506.9375    473.73332     304.9782   -473.91138    41402.763 
  811900    286.49225    -1500.034    466.46413    251.66848   -404.90662    41402.763 
  812000     297.7427   -1530.6018    493.41298    298.52036     -326.811    41402.763 
  812100     300.3145   -1492.9813     456.3129    310.57817   -8.5626286    41402.763 
  812200    290.83146   -1494.5295    522.66054    332.83567   -130.31514    41402.763 
  812300    306.68868   -1512.9726     486.3662    349.23556    267.75271    41402.763 
  812400    310.20035   -1530.3046    492.73904    354.03019    181.53158    41402.763 
  812500    304.67223   -1549.2693    466.90249    284.42908   -196.99482    41402.763 
  812600    293.91764   -1513.0217    486.96481    292.49267     105.4649    41402.763 
  812700     289.6139   -1514.2292    477.62462    262.63794   -343.38666    41402.763 
  812800    292.99664   -1512.9726    493.36603    294.81122   -1.8599872    41402.763 
  812900    293.00695   -1528.9926    477.25304    262.72451    223.46577    41402.763 
  813000    293.74842   -1562.0059     479.5088    235.29331    397.04422    41402.763 
  813100    309.05442   -1523.1292    498.75973    362.08549    1149.0955    41402.763 
  813200      296.059   -1525.3131    509.97015    312.81298    571.02261    41402.763 
  813300    297.92121   -1509.5519    483.88886    310.84698    621.99518    41402.763 
  813400    313.68043   -1528.9226    476.07808    354.36325    316.86038    41402.763 
  813500    289.37706   -1515.5913    477.98799    260.57662    70.730565    41402.763 
  813600    307.73913   -1509.1722    485.64785    357.03001    209.51931    41402.763 
  813700     312.6285   -1512.2555    481.25918    371.49235    111.14815    41402.763 
  813800    298.44389   -1484.1781    468.77383    323.45056    224.87747    41402.763 
  813900    297.20846   -1529.0343    497.14272    301.42096    570.93881    41402.763 
  814000    289.70118   -1467.7951    485.08755    316.92647   -79.812712    41402.763 
  814100    296.93341   -1475.4787    506.49116    363.09108   -203.67137    41402.763 
  814200    300.93695   -1489.6927    490.66119     351.0075    435.07658    41402.763 
  814300    305.65139   -1522.3605    498.64423     347.4723    477.10112    41402.763 
  814400    309.47989   -1496.8932    484.80853    376.27896    630.50883    41402.763 
  814500     296.7262   -1560.8445    503.60202    273.90657    427.59692    41402.763 
  814600    307.02374   -1509.3767    492.69138    360.65971    33.163848    41402.763 
  814700    305.74049   -1501.0502    490.45998    360.99803    103.02219    41402.763 
  814800    295.58888   -1493.4393    486.62711    319.23478    26.452544    41402.763 
  814900    296.03745   -1506.5404    493.92975    315.44863   -250.86399    41402.763 
  815000    303.40314   -1481.1115    471.05414    351.04526   -389.73771    41402.763 
  815100    291.04739   -1488.2074    499.69618    317.16203   -109.34419    41402.763 
  815200    302.09746   -1471.6759    470.53995    354.10921   -109.84388    41402.763 
  815300    295.41394   -1466.8417    481.64907     340.0695   -23.687924    41402.763 
  815400    291.19126   -1513.4773    484.67317    277.51457   -355.15846    41402.763 
  815500    314.37797   -1499.6063    476.77446    387.50524     208.9183    41402.763 
  815600    310.37485   -1514.0427    465.77146    344.10728     147.0651    41402.763 
  815700     305.4504    -1475.397    490.78267    385.67251    766.09652    41402.763 
  815800    303.76725   -1474.9055    479.21833    367.04891    279.20726    41402.763 
  815900    313.05763   -1515.0205    481.34201    370.73532    405.71435    41402.763 
  816000    305.18003   -1539.6741    491.50905    320.90891    18.706855    41402.763 
  816100    310.98309   -1480.2569    476.23819    391.08848   -122.61514    41402.763 
  816200     312.8361   -1518.7612    476.74742    361.40626    182.27071    41402.763 
  816300    294.03331   -1494.5456    483.65436    308.17725    159.64341    41402.763 
  816400    304.67911   -1490.7014    502.66571    378.79107    395.91401    41402.763 
  816500    305.15581   -1521.0461    481.16701    329.08622    688.07584    41402.763 
  816600     303.6879   -1484.6052    481.81697     359.5919    777.70583    41402.763 
  816700    300.82118   -1494.6326    506.67779    361.56477    510.57875    41402.763 
  816800    297.64878   -1506.5009    462.39981    291.18682    214.87591    41402.763 
  816900    301.06069    -1472.521     502.7724    380.84556    351.92274    41402.763 
  817000    292.34083   -1526.8401    503.05501    287.69067   -218.73452    41402.763 
  817100    304.55493   -1511.5034    472.74374    327.50999   -320.46819    41402.763 
  817200    311.69413   -1480.9509    468.12446    385.47054    -699.9296    41402.763 
  817300    300.29585   -1508.1503     460.8007    299.81333   -754.22427    41402.763 
  817400    304.79349   -1433.5107    498.59896    432.42816   -474.07792    41402.763 
  817500    289.61465   -1471.5751    494.37093    322.04165     79.64525    41402.763 
  817600    305.03481    -1507.624    484.95187    345.75038    309.11108    41402.763 
  817700    309.26546    -1506.025    478.92991    360.30665    263.43422    41402.763 
  817800    299.64775    -1494.777    495.22577    344.70422    605.70123    41402.763 
  817900    294.13961   -1471.0982    482.13941    330.58651   -23.320869    41402.763 
  818000    304.71498   -1501.9039    450.31485    315.39868    115.74804    41402.763 
  818100    296.68901   -1562.3681    477.55472    246.16886    16.041953    41402.763 
  818200    298.17561   -1542.8848    490.35424    285.12076    449.17413    41402.763 
  818300    299.89644   -1529.2433    483.99535    300.12326    545.82418    41402.763 
  818400    288.64971   -1491.6994    464.24262    267.46014    256.89759    41402.763 
  818500    302.56398   -1508.0983    475.92525    325.16505    821.15646    41402.763 
  818600    296.79091   -1489.8797    478.84013    320.39977    860.64011    41402.763 
  818700    295.58022   -1501.8572    481.00852    305.15943    900.80191    41402.763 
  818800    292.42828   -1472.3252    486.93514    326.47804    856.17616    41402.763 
  818900    303.25531   -1493.9708    502.91894     369.3876    736.66846    41402.763 
  819000    301.19735   -1528.0583    478.75307    301.90192    355.50721    41402.763 
  819100    296.59233   -1543.6897    450.67635    237.53521    507.76171    41402.763 
  819200    300.95802   -1461.6167    470.63213    359.14895   -113.07144    41402.763 
  819300    289.63403   -1498.3621    489.63009    290.60079   -339.72841    41402.763 
  819400    309.15514   -1499.0182    467.87578    355.76438   -238.33449    41402.763 
  819500    307.66043   -1522.9857    475.23995    332.45559   -38.169382    41402.763 
  819600    294.36332   -1518.1299     464.6122    267.03122   -354.91295    41402.763 
  819700    306.24097   -1525.1713     475.7376    324.39982   -34.491327    41402.763 
  819800    298.73475   -1522.3714    453.32776    271.11605    520.75887    41402.763 
  819900    309.36849   -1529.5573    480.70003    339.00666    144.65502    41402.763 
  820000    299.51063   -1504.7676    480.12283    318.99562    291.07134    41402.763 
  820100    295.58044   -1517.0077    470.47664    279.47795    449.90864    41402.763 
  820200    300.97047   -1522.8583    467.77508    295.10621    41.815295    41402.763 
  820300     295.9942   -1518.2339    456.25862    265.88998   -116.93619    41402.763 
  820400    300.03146   -1514.5645    469.91937    301.33174    93.971361    41402.763 
  820500    303.32264   -1511.5478    485.31785    334.51156     432.0456    41402.763 
  820600    292.13643   -1494.0036    448.81367    265.36888    551.82456    41402.763 
  820700    303.59075    -1484.452    460.69074    338.18304    280.77268    41402.763 
  820800    310.69921   -1532.0723    472.70155    334.46287   -38.558658    41402.763 
  820900    310.74172   -1477.5073    462.21634     378.7334    25.056145    41402.763 
  821000    282.36202     -1458.31    509.41445    317.81413   -542.42756    41402.763 
  821100    302.89997   -1472.9096    464.41431    350.35009       9.3989    41402.763 
  821200    295.98577   -1454.4597    480.74111    354.10883    94.052082    41402.763 
  821300    307.21823   -1476.2947    469.95906    371.88189   -185.01366    41402.763 
  821400    293.74433   -1478.5021    485.77777    325.04771     70.25805    41402.763 
  821500    295.50356   -1447.1227     481.6133    360.15478   -420.95698    41402.763 
  821600    307.34967   -1482.2303    473.38762    369.96454   -131.92709    41402.763 
  821700    289.36339   -1455.9799    491.31794    333.45667   -41.926802    41402.763 
  821800    304.91454   -1462.6064    492.23452    397.51105   -513.01307    41402.763 
  821900    292.75746    -1418.758    479.47723    374.06404   -478.90739    41402.763 
  822000    291.54443   -1469.2422    474.92825    313.58909   -352.58386    41402.763 
  822100    291.64926   -1459.5394    460.87141    309.70539    49.256371    41402.763 
  822200    298.31696   -1476.5905    458.99339    320.68832   -5.6121436    41402.763 
  822300    306.35987   -1497.2202    471.45175    348.59839    91.669047    41402.763 
  822400     303.0172   -1477.1953    463.06745    345.24344    467.44324    41402.763 
  822500    304.24937   -1480.6313     484.2353    368.50294   -257.18738    41402.763 
  822600    301.88324   -1469.7792    478.80617    363.31118    50.445638    41402.763 
  822700    303.78022    -1470.852     469.6524    361.59467    215.85466    41402.763 
  822800    296.06792   -1482.5751    459.53363     305.1545    -131.2201    41402.763 
  822900    298.08414   -1486.5113    478.68676    329.41645    350.86049    41402.763 
  823000    302.09158   -1481.2213    475.32806    349.32555    213.77915    41402.763 
  823100    309.92845   -1497.6142    470.32613    363.08785    1.6263884    41402.763 
  823200    302.27748   -1473.1365    469.21643    352.13269    217.18471    41402.763 
  823300    309.60263   -1459.2936    464.21049    393.83117   -120.29374    41402.763 
  823400    290.08001   -1478.7642    469.34039    291.90963    -167.2827    41402.763 
  823500    295.75069   -1478.2954    467.97687    316.45433   -95.951645    41402.763 
  823600    301.70717   -1507.2531    470.16622    316.40739   -178.05456    41402.763 
  823700    303.05559   -1466.3197    475.80711    369.03087    191.12135    41402.763 
  823800    305.66465   -1480.7829    462.28635    352.75146   -33.325359    41402.763 
  823900    298.20844   -1472.9809    484.65105    349.46877   -310.41098    41402.763 
  824000    295.54512   -1454.7331    482.45776    353.57528   -91.569812    41402.763 
  824100    306.64877   -1491.9062    479.93281    363.68952    194.04074    41402.763 
  824200    293.08141   -1465.9248    470.83626    319.70961   -228.14235    41402.763 
  824300    299.65065   -1497.8988    489.01616    335.38591    -448.8445    41402.763 
  824400    303.87661   -1480.4063    478.40004    361.22043   -314.56608    41402.763 
  824500    294.28481   -1452.9238    469.74914    337.02202   -81.007135    41402.763 
  824600    300.45595   -1457.0156    500.38958     391.2552     95.14464    41402.763 
  824700    305.33333   -1459.4417    490.39973    400.71974    71.633167    41402.763 
  824800     296.4787   -1442.9725    493.00658    380.07281    81.848272    41402.763 
  824900    295.39862   -1425.4182     497.9506    397.72582   -306.64168    41402.763 
  825000    300.16552   -1435.6549    487.29827    398.22166   -807.20324    41402.763 
  825100    307.61287   -1459.5544    473.00334    393.43688   -242.54717    41402.763 
  825200      300.213   -1454.5063    497.52978    389.81479   -313.05881    41402.763 
  825300    291.50429   -1485.4146    471.63001    293.93838   -893.19651    41402.763 
  825400    297.68746   -1462.8056    454.09156    326.74733   -534.99077    41402.763 
  825500    299.15745   -1441.7712    492.48353     392.7683   -708.36663    41402.763 
  825600    291.55885   -1424.4465    498.14709    381.66833   -17.577283    41402.763 
  825700    299.82828   -1415.9231    501.43663     430.5789     372.6899    41402.763 
  825800    291.86236   -1420.4683    488.64101    377.50201   -644.41561    41402.763 
  825900    295.88561   -1381.2592    483.93995    430.05884   -302.41339    41402.763 
  826000    300.63098   -1383.9036    506.03832     470.8011    -137.5352    41402.763 
  826100    307.29892   -1460.0195    485.56482    404.12484     125.7361    41402.763 
  826200    298.96242   -1438.7137    492.79786    395.26519   -119.67949    41402.763 
  826300    300.44329   -1458.1103    476.98973    366.70383    2.4046159    41402.763 
  826400    290.55447   -1458.2907    483.90506    329.07635   -593.43461    41402.763 
  826500    294.71906   -1447.0688    467.53293    342.60892   -151.44657    41402.763 
  826600     306.5831   -1457.0588     502.0365    420.34597    221.73846    41402.763 
  826700    293.73951   -1444.6258    491.56783    364.69246    379.63008    41402.763 
  826800    294.23893   -1442.8358    471.72058    348.87569    232.62084    41402.763 
  826900    294.81684    -1459.075    484.24609    347.75453    140.85126    41402.763 
  827000     302.8691   -1469.0031    447.67406     337.3778   -154.54682    41402.763 
  827100    306.65938   -1451.6083    492.42572    416.52788   -403.18328    41402.763 
  827200    293.56466   -1474.0976    460.93185    303.80028   -202.52609    41402.763 
  827300    309.23306   -1480.7331    462.41983    368.94306   -28.510119    41402.763 
  827400    297.74275   -1451.8293    497.48463     381.3648    113.60095    41402.763 
  827500    296.46462    -1412.941    495.94148    412.97605    95.974227    41402.763 
  827600    305.11172   -1444.6079    479.43164    403.59127    639.99455    41402.763 
  827700    299.90336   -1434.8746    464.76633    375.29399    64.558084    41402.763 
  827800    299.86917   -1445.2557    493.31759    393.31067   -156.84683    41402.763 
  827900    310.01227   -1453.6302    488.36155    425.48328    388.29118    41402.763 
  828000    309.96407   -1404.4618     474.4236    460.49756    381.47972    41402.763 
  828100    295.84251   -1442.8091    490.31579    374.69145    158.16957    41402.763 
  828200    294.07667   -1406.0301    477.82298    391.05586     222.0827    41402.763 
  828300    307.02578   -1426.6457    476.33572    427.04427   -319.40655    41402.763 
  828400    309.75289   -1407.7675    487.14082     468.9617    175.40818    41402.763 
  828500    307.23335   -1390.6024    459.05626    446.73924   -243.01419    41402.763 
  828600    296.47249   -1399.8155    517.19348     447.3889     -539.176    41402.763 
  828700    294.11663   -1412.9733     465.8794     372.3483   -225.50096    41402.763 
  828800     295.8247   -1418.0873    473.66183    382.67934   -497.82904    41402.763 
  828900     293.9776   -1380.3302    492.01563      430.504     -30.6445    41402.763 
  829000    309.00401   -1415.5563     468.5403    439.21282   -203.39997    41402.763 
  829100    302.56448   -1431.4854    479.23903    405.09391    120.52026    41402.763 
  829200    306.85305   -1421.9729    481.12273    435.72914    -52.78887    41402.763 
  829300    295.82951    -1424.295    487.07981    389.91127    456.32785    41402.763 
  829400    295.21494   -1380.5313    509.96677     453.8049      513.438    41402.763 
  829500    289.28585   -1385.0727    484.43254     397.1307    76.156134    41402.763 
  829600     296.7665   -1439.0538    490.03002    382.30609   -288.27312    41402.763 
  829700    296.93515   -1445.0461    479.63563    366.67604     118.5972    41402.763 
  829800    303.48587   -1456.3058    464.44522    369.61313    248.99936    41402.763 
  829900    306.68188   -1471.8069    466.71813    370.72274    279.29337    41402.763 
  830000    295.52028   -1461.6112    449.71773    313.84572    627.70619    41402.763 
  830100    307.75683   -1455.5634    513.15109    438.22147    574.18031    41402.763 
  830200    292.64858    -1452.979     473.2851     333.1625    117.55409    41402.763 
  830300    296.74191   -1435.2109    482.92428    378.93294   -31.095349    41402.763 
  830400    302.94225   -1431.0467    492.86819    420.85655     274.7252    41402.763 
  830500    293.81185    -1418.382    468.82318    368.51612    148.98706    41402.763 
  830600     301.8229   -1420.7961    514.67908    447.89644   -155.22421    41402.763 
  830700    295.75183    -1425.662    466.19919    367.31511     239.0705    41402.763 
  830800    307.83423   -1462.3118    457.03612    375.70529   -106.83733    41402.763 
  830900    319.36549   -1520.4983    455.22883    367.44213    630.64824    41402.763 
  831000     303.9874   -1557.5182    464.93872     271.1442     164.1236    41402.763 
  831100    293.47379   -1481.6242    468.09486    303.02903      39.0643    41402.763 
  831200    298.43672   -1416.0778    476.52528    399.27016   -81.001203    41402.763 
  831300    290.83002   -1461.3403    477.98421    321.34202   -24.060271    41402.763 
  831400    298.51022   -1435.7328    483.45919    386.87877    548.77997    41402.763 
  831500    297.81293   -1403.7183    491.14335    423.44927    127.76398    41402.763 
  831600    292.78366   -1469.0462    461.34747    305.76364    155.55555    41402.763 
  831700    300.74929   -1406.9993    483.42331    425.62114   -36.654008    41402.763 
  831800    288.92769   -1394.8531    466.62254    367.93352   -5.0378302    41402.763 
  831900    302.38198   -1424.5572    466.12871    398.09311    160.79515    41402.763 
  832000     301.0949   -1416.4295    471.00935    405.32747    60.205547    41402.763 
  832100    306.71643   -1411.0444    475.54258    440.46467   -224.29768    41402.763 
  832200    295.87273   -1425.8567    454.93604    356.39961    261.20549    41402.763 
  832300    306.78166   -1454.3065     499.1481    421.10064    496.80255    41402.763 
  832400    300.62146   -1461.0334    478.20369    365.79402     244.2159    41402.763 
  832500    305.26802   -1422.8458    452.19091    398.81381    127.02571    41402.763 
  832600    296.17556   -1426.2726    496.21329    398.61949    282.86513    41402.763 
  832700    300.23421   -1403.3187     490.8635    434.43117     8.422652    41402.763 
  832800     294.2093   -1434.2074    464.69083    350.34139    317.42407    41402.763 
  832900     310.5947   -1440.3838    466.36326    419.34427    247.44655    41402.763 
  833000    298.93967   -1389.0313    501.94275    453.99045    417.57206    41402.763 
  833100    289.72565   -1424.4345    462.86875    338.17801    357.22862    41402.763 
  833200    303.46863   -1418.8921     481.6479    424.15223    373.36283    41402.763 
  833300    296.07753     -1426.61    468.74186    370.37095    4.3125455    41402.763 
  833400    291.81845    -1412.872    491.96352    388.22382    443.08083    41402.763 
  833500    296.35526   -1405.6509    478.25288    402.08697    290.66028    41402.763 
  833600    295.43497   -1441.2294     494.7205    378.84752    29.639262    41402.763 
  833700    302.48705   -1411.6984       466.76    412.05458    39.456866    41402.763 
  833800    299.95479    -1457.187     460.7993    349.24523   -514.41157    41402.763 
  833900    306.57905   -1445.2825    471.72768    401.79535    -152.4782    41402.763 
  834000    305.27859   -1420.6503    462.61767    411.48345   -247.01462    41402.763 
  834100    294.84479   -1438.3563    471.74303    356.09554   -285.82924    41402.763 
  834200    302.67708    -1439.696    459.62782    377.77725   -500.83109    41402.763 
  834300    294.51762   -1440.1704    423.20937    304.28005   -123.98086    41402.763 
  834400    311.96695    -1452.263    485.53379    432.79171   -102.42612    41402.763 
  834500    306.60241   -1425.7996    487.63408    437.28937   -327.62526    41402.763 
  834600    303.23676    -1410.897    457.97981    407.43904   -348.65813    41402.763 
  834700     302.2583   -1410.0382    444.17029     390.0988   -562.74597    41402.763 
  834800    295.78917   -1418.2111    470.99789    379.73222   -197.78953    41402.763 
  834900    296.03848   -1413.6366    454.92272    369.35005   -1.9435732    41402.763 
  835000    275.18978   -1394.3593    484.16968    324.34451   -31.774678    41402.763 
  835100    304.85624   -1414.7477    459.50711    412.38083    273.63239    41402.763 
  835200    298.28632   -1419.2653    446.65626    365.53888    507.89557    41402.763 
  835300     300.2115    -1401.532    487.65394    432.90646     504.2529    41402.763 
  835400    293.02241   -1368.6824    495.98402    441.83509   -333.53163    41402.763 
  835500     288.6238   -1417.4844    467.95046    345.26676   -102.29654    41402.763 
  835600    298.45895     -1410.95     492.9531    420.92549    -388.7734    41402.763 
  835700    296.71607   -1390.8358     493.9278    434.19568   -562.34325    41402.763 
  835800    290.85296   -1413.0815    471.40912    363.12866   -400.73189    41402.763 
  835900    306.17589    -1425.534    479.79417    427.80169    56.329096    41402.763 
  836000    300.76877   -1442.5347    455.98981    362.73962   -128.87538    41402.763 
  836100    290.20282   -1427.2316    461.08002    335.73283   -509.11272    41402.763 
  836200    298.77535   -1401.9406    481.27477    419.67598     86.71181    41402.763 
  836300    299.79399   -1403.5017    457.47503    398.88485    192.15539    41402.763 
  836400    306.40476   -1398.0014    461.59792    438.16477    -370.6439    41402.763 
  836500    302.32148   -1413.7858    468.40851    410.87294    -729.6805    41402.763 
  836600    300.15432   -1435.1628    464.23868    375.60388   -153.06463    41402.763 
  836700    301.14311   -1449.6042    473.68772    375.04742   -239.85454    41402.763 
  836800    301.35678   -1447.6577      484.199    388.46372   -400.50213    41402.763 
  836900    301.02342   -1470.3934    453.47229    333.50575   -353.63075    41402.763 
  837000    296.01658   -1481.4787    462.52397    309.01089   -52.230553    41402.763 
  837100    291.70817   -1462.8267    452.01983    297.83075    42.731323    41402.763 
  837200    301.15051   -1511.3429    462.86498    302.51916   -276.33104    41402.763 
  837300    302.59097   -1414.3757    476.45546    419.53891   -180.52746    41402.763 
  837400    309.81149   -1428.0664    475.92446    437.70929   -221.04894    41402.763 
  837500    303.94868   -1442.8554    468.04163    388.73618   -164.51543    41402.763 
  837600    308.73616   -1437.1088    485.12261    433.04098    419.05498    41402.763 
  837700    304.85629   -1462.1353    475.10979     380.5961    94.816185    41402.763 
  837800    291.49366   -1444.1417    474.31638    337.84991    184.89931    41402.763 
  837900    291.21509   -1466.6616    458.56323    298.32725    359.80531    41402.763 
  838000    295.06597   -1485.4009    485.20455    323.50471    343.13002    41402.763 
  838100    298.92056   -1475.4502    460.65796    326.20105   -29.082536    41402.763 
  838200    303.30949   -1463.1383    490.58132    388.12553    46.401094    41402.763 
  838300    297.22246   -1469.4627      438.756    302.66869   -474.94556    41402.763 
  838400    301.87925   -1480.2175    447.59774    321.64652   -342.70174    41402.763 
  838500    297.22605   -1484.4129    479.61338    328.59191   -508.03809    41402.763 
  838600    298.04038   -1439.4125     477.0958    374.72795    -316.3414    41402.763 
  838700    296.08776   -1446.6724    451.80352    333.41609   -82.760171    41402.763 
  838800    297.41381   -1457.2462    468.82797    345.81556   -557.47122    41402.763 
  838900    298.95351   -1455.6752     453.8658    339.33173   -506.87571    41402.763 
  839000    299.86963   -1484.8137    464.40407    324.84126   -537.31431    41402.763 
  839100    291.42933   -1461.1607    474.54821    320.77418   -235.68827    41402.763 
  839200    290.75711   -1432.9517    480.83127    352.25057    243.46079    41402.763 
  839300    302.56145   -1440.3364    482.74197    399.73228    104.84446    41402.763 
  839400    309.84207   -1455.9694    454.42284    388.44183    419.12622    41402.763 
  839500    300.93759   -1493.0025    459.60799    316.64734    378.20793    41402.763 
  839600    294.12547   -1452.4605    488.52299    355.54438   -342.06409    41402.763 
  839700    300.33408    -1450.979    461.55149    357.90696   -241.02128    41402.763 
  839800     304.0281   -1482.9386    454.47604    335.44375   -245.53481    41402.763 
  839900    299.19749   -1467.9428    491.78998    366.08273   -1087.6504    41402.763 
  840000    293.01673   -1484.1855    445.94828    276.27069    -667.6322    41402.763 
  840100    306.05127   -1486.9062    465.45883    351.53506    -325.8078    41402.763 
  840200    296.17806   -1480.6146    451.75064    299.82607    -298.7653    41402.763 
  840300    299.55243    -1497.819    444.46135    290.47024    165.88324    41402.763 
  840400     295.7514   -1471.6841    487.23525     342.3271    27.624175    41402.763 
  840500    287.93697   -1493.2255    495.26453    293.75859    471.93068    41402.763 
  840600    298.19861   -1488.6607    467.10615    316.19989    384.72374    41402.763 
  840700    290.38737   -1493.2239    483.25111    292.73952    535.92532    41402.763 
  840800    293.01985   -1471.3739    503.73696    346.88498    629.12256    41402.763 
  840900    292.69248   -1513.5251     458.0128    257.54104    473.77699    41402.763 
  841000    304.90029   -1467.7072    476.39796    376.50978   -21.702203    41402.763 
  841100    294.32709   -1492.4467    443.25051    271.19019   -222.85041    41402.763 
  841200    301.45043   -1502.6248    464.74867    314.46642   -254.22159    41402.763 
  841300    308.07229    -1492.744    464.54574    353.85073   -204.51813    41402.763 
  841400    297.75344   -1475.4635    490.91001     351.2039   -42.483703    41402.763 
  841500    292.63627   -1453.0717    465.77853    325.50803    315.24039    41402.763 
  841600     301.4512   -1442.2938    483.49445    393.54662    441.71818    41402.763 
  841700    292.58802   -1480.8625    466.45067    298.17292    340.83404    41402.763 
  841800    314.02153   -1467.8222    486.70383     427.6196     529.6718    41402.763 
  841900    288.33985   -1481.1881    472.44523      284.784    440.02347    41402.763 
  842000    297.02756   -1444.8218    478.57212     366.2514    212.44974    41402.763 
  842100    299.26495    -1395.449    483.17048    430.25971   -79.357773    41402.763 
  842200    308.44469   -1431.9536    480.69138    432.45745    99.330193    41402.763 
  842300    291.24309   -1449.6624    492.19275    349.08157    19.008869    41402.763 
  842400    298.77217   -1445.8946     491.0381    385.47103   -516.66602    41402.763 
  842500    308.61313   -1418.9916    462.29915    427.78276    172.49404    41402.763 
  842600    293.92649   -1420.5149    471.10635    369.18065   -394.05152    41402.763 
  842700    297.51096   -1479.8736    474.20983    329.00583    -56.80594    41402.763 
  842800    307.82323   -1458.5926    474.42659    396.76571     230.8157    41402.763 
  842900    291.10124   -1444.5645    485.86122    347.21158    20.031109    41402.763 
  843000    294.98939   -1442.8204    475.66485    356.20196   -175.70261    41402.763 
  843100    304.47432   -1458.8527     503.7339    410.78923   -279.09935    41402.763 
  843200    309.33335   -1458.8915    502.24624      431.061   -238.52569    41402.763 
  843300    289.81048   -1486.2124    456.15572    270.06764   -311.36945    41402.763 
  843400     290.8502   -1414.0269    466.63102    357.39273   -164.27283    41402.763 
  843500    301.58535   -1395.1045    474.27319    432.11651    124.33182    41402.763 
  843600    289.51354   -1408.5575    461.06776    351.30249   -597.75599    41402.763 
  843700    305.33619   -1427.5125    475.49603    417.75803   -865.08476    41402.763 
  843800    298.68339   -1395.9512    488.44008    432.41812   -830.92221    41402.763 
  843900    296.73586   -1425.5569    494.94601     400.5815    -612.4105    41402.763 
  844000     284.5914   -1437.2337    490.29866    329.77586    -198.5411    41402.763 
  844100     295.4152   -1422.4761    482.30109    385.09275    164.52351    41402.763 
  844200    297.13605   -1428.2984     487.0583    391.74763    343.93493    41402.763 
  844300    294.69242   -1435.0736     451.7282    338.67994   -195.40236    41402.763 
  844400    299.03408   -1456.0265    500.97309    386.44912   -322.81284    41402.763 
  844500    291.60393   -1475.4213    474.98662    307.73526   -282.57741    41402.763 
  844600     295.7968   -1475.6944    451.89445    303.17975   -68.017877    41402.763 
  844700     305.3973   -1461.8034    491.83849    400.08374   -345.78316    41402.763 
  844800    303.80624   -1457.1214    457.23597    363.02561   -397.26371    41402.763 
  844900     292.3995   -1508.9734    466.43073    269.19634   -439.67009    41402.763 
  845000    284.85082    -1504.746    448.61984    221.74853   -410.76094    41402.763 
  845100    300.09062   -1465.8038    456.85121    337.28963   -75.954097    41402.763 
  845200    289.80825   -1455.5687     485.0317    329.57733    21.012413    41402.763 
  845300    304.69686   -1438.7405    468.80838    396.97432    423.99482    41402.763 
  845400    298.36827   -1491.4945    474.12723    321.14835    313.92817    41402.763 
  845500    305.77558    -1526.302    449.45305    294.89675   -7.8182066    41402.763 
  845600    302.73506   -1504.5894    458.64998    312.16608    457.52232    41402.763 
  845700    300.74416   -1468.0974    456.02186    337.09861    810.80082    41402.763 
  845800    304.14933   -1515.8493    460.47613    309.07699    298.63457    41402.763 
  845900    311.07504   -1481.5354    460.12094    374.10523    152.49243    41402.763 
  846000    305.67896   -1560.8581     445.7815    256.23565    75.404962    41402.763 
  846100    295.28391    -1572.586     486.6933    238.78608    65.139086    41402.763 
  846200      290.479   -1535.8456    449.96657    217.24441   -390.02413    41402.763 
  846300     303.3163    -1499.296    465.81506    327.23209   -9.2691705    41402.763 
  846400    298.27873   -1535.6472    461.17548    263.64215   -492.80136    41402.763 
  846500    290.55587   -1523.0611    455.73758    236.14472    401.32241    41402.763 
  846600    302.02023   -1539.0496    480.84392    296.69308    277.31729    41402.763 
  846700    293.73056   -1494.6379    466.09295    289.16534   -40.172904    41402.763 
  846800    301.05898   -1532.1161    444.71085    263.18117    256.27145    41402.763 
  846900    295.48688   -1524.1062    458.86403    260.34723    232.69384    41402.763 
  847000    292.40115   -1506.9487    432.01122    236.80889     17.09763    41402.763 
  847100    295.53973   -1501.9599    460.56685    284.43337   -98.564825    41402.763 
  847200    301.09085   -1503.5528    459.57389     306.7505    403.11833    41402.763 
  847300    295.26017   -1472.8895    485.16691    336.84972    597.70229    41402.763 
  847400    305.58958   -1519.4426    458.77203    310.24076    74.323132    41402.763 
  847500    298.04701   -1527.5189     454.8548    264.41027   -178.33064    41402.763 
  847600    301.13858   -1486.5463    458.94165    323.33892   -285.44123    41402.763 
  847700    296.04923   -1500.7692    460.68003    288.02294   -421.19347    41402.763 
  847800    309.20025   -1489.1193    468.46983    366.45965   -587.35894    41402.763 
  847900      304.626   -1481.6528    460.85516    345.79087    83.222937    41402.763 
  848000    295.36966   -1477.8666    465.09925    312.29614   -504.11591    41402.763 
  848100     301.4218   -1457.0647    472.27985    367.42925   -291.11256    41402.763 
  848200    298.39769   -1433.6665    485.78614    390.76718    -22.58091    41402.763 
  848300    296.61275   -1431.0998    467.22036    366.76066   -29.564595    41402.763 
  848400    298.76343   -1441.9162    445.57302    343.94515   -268.70788    41402.763 
  848500    306.97316   -1438.6388    475.16333     413.6427    -161.8752    41402.763 
  848600     295.4596   -1472.7661    457.22746    309.92836   -149.59213    41402.763 
  848700    298.28086   -1460.5599    481.18536    358.74895    424.80303    41402.763 
  848800    298.46127   -1453.8421    474.82041    359.91118   -71.376183    41402.763 
  848900    307.36356   -1484.5848    488.48485    382.76964    306.64491    41402.763 
  849000    295.53172   -1469.7619    478.18283    334.21146    587.15204    41402.763 
  849100    305.04898   -1474.8415    459.43056     353.0751   -14.759345    41402.763 
  849200    306.89795    -1446.807    472.39212    402.36587    424.48642    41402.763 
  849300    303.87434   -1400.2391    490.67817    453.65557    626.51309    41402.763 
  849400    287.49502     -1455.27    487.09982    321.56673    524.99411    41402.763 
  849500     291.9421   -1413.8087    483.09284     378.9712   -489.80561    41402.763 
  849600     308.2887   -1368.1362    476.98655    491.87018   -146.12112    41402.763 
  849700    297.52517   -1397.9176     477.4985    414.31427   -951.40444    41402.763 
  849800    300.23298    -1422.122    470.91529    395.67423   -352.14971    41402.763 
  849900    310.49059    -1422.093    476.24022    447.04497    219.08319    41402.763 
  850000    289.04554   -1435.5756    466.81916    327.93632    548.49334    41402.763 
  850100    302.87072   -1447.9457    499.91109     410.6795    46.886678    41402.763 
  850200    302.40251   -1428.8925    469.55899     397.2802   -220.29799    41402.763 
  850300    297.61083   -1412.0947    493.94262    416.96555    131.79458    41402.763 
  850400    302.86281   -1404.3454    508.51092    462.84414   -361.34518    41402.763 
  850500    285.44045   -1389.1178    477.92671    369.32873    -88.92227    41402.763 
  850600    294.78096   -1437.3391    469.34051    354.42388     208.8884    41402.763 
  850700    303.45496   -1455.4828    466.62842    372.48067     526.4306    41402.763 
  850800    307.18465   -1443.1745    491.34401     426.2365     488.6589    41402.763 
  850900     306.5531   -1441.1898    481.66598    415.70997    114.32858    41402.763 
  851000    304.12474    -1419.189    468.46463    413.61544   -132.17448    41402.763 
  851100     296.2667   -1431.8475    491.96022    389.20043   -340.38719    41402.763 
  851200    290.25972   -1438.1945    489.74289    353.68805    181.16188    41402.763 
  851300    310.93821   -1436.0744    496.72278    455.55423    23.184722    41402.763 
  851400    304.96471   -1435.4839    461.78705    394.41114    284.40114    41402.763 
  851500    301.10823   -1443.7572    455.68699    362.73721    352.80606    41402.763 
  851600    297.46422   -1439.8476    457.50057    352.11286    506.78705    41402.763 
  851700    304.81851   -1394.8532    497.96462    470.56357    122.51984    41402.763 
  851800    295.24178   -1430.6336    482.25006    376.10623    219.33133    41402.763 
  851900    295.46495   -1394.5154     467.5258    398.50133    223.68954    41402.763 
  852000    303.14227   -1406.4705    494.19181    447.65362    700.97777    41402.763 
  852100    308.92515   -1412.4039    460.05068    433.52179   -51.791372    41402.763 
  852200    293.65299   -1408.3002    478.99087    388.05299   -178.72168    41402.763 
  852300    295.29759   -1382.1056     480.8278    423.46242   -447.60064    41402.763 
  852400    300.87969   -1429.2226    462.74649    383.30604   -426.89479    41402.763 
  852500    309.20841   -1406.2698    504.06759    484.94361   -589.59165    41402.763 
  852600    300.60394   -1437.2789    465.04109    376.30727    -531.0796    41402.763 
  852700    304.40018   -1423.0622    488.07271      430.586   -320.01646    41402.763 
  852800     301.9038   -1421.7094    460.37135    393.03839   -313.89784    41402.763 
  852900    294.17733   -1424.1968    477.35421    372.87195   -24.322253    41402.763 
  853000     298.7897   -1430.7034    467.16163    376.86439    -30.98517    41402.763 
  853100    293.03623   -1418.8339    495.20454    390.96605    185.68112    41402.763 
  853200    298.04189   -1441.8545    465.19756    360.39451   -146.78354    41402.763 
  853300    300.89584   -1420.2506    464.62482    394.22883   -79.921881    41402.763 
  853400     288.1554   -1435.8175    451.57697    308.45895   -321.02453    41402.763 
  853500    290.28535   -1414.0181    477.76886    366.00547   -107.34611    41402.763 
  853600    307.10779    -1426.794    468.25614    419.18423    10.487767    41402.763 
  853700    299.13045   -1469.6562    455.36613    327.64471   -502.70419    41402.763 
  853800    297.12782   -1415.7511    488.41451    405.61421   -123.97276    41402.763 
  853900    299.20774   -1414.5825    462.01212    389.71117   -273.07951    41402.763 
  854000    304.45205   -1434.7936    456.87783    387.89238    531.91306    41402.763 
  854100    299.55937   -1426.3035    490.41929    407.97475   -104.86861    41402.763 
  854200    305.48944   -1407.4281    504.09023     467.1241   -134.64062    41402.763 
  854300    299.28069   -1380.2083    459.87336    422.27392   -42.000688    41402.763 
  854400    296.91471   -1376.2223    504.41144    460.18388   -172.84216    41402.763 
  854500    316.16276   -1398.1996    499.28475     519.4289   -127.81103    41402.763 
  854600    296.96203   -1432.0065    464.11743    364.31796    148.05352    41402.763 
  854700    301.03625   -1384.7367    505.03836    470.78614   -26.491831    41402.763 
  854800    291.82685   -1411.4123    473.39112    371.14887    388.59647    41402.763 
  854900    296.10637    -1424.643    480.89142    384.61688    410.21427    41402.763 
  855000    293.87554   -1444.9467    444.02921    317.44316    161.40322    41402.763 
  855100    297.61891   -1426.5212    479.30906    387.94169    839.77249    41402.763 
  855200    301.84821   -1441.5065    480.66304    393.28354    38.688041    41402.763 
  855300    307.50256   -1436.4071    469.36289    412.44893    55.354823    41402.763 
  855400    298.16054   -1382.3053    479.52731    434.80569     123.4683    41402.763 
  855500    292.47052   -1403.0011    473.59819    382.65468     144.6444    41402.763 
  855600    288.09315   -1431.1097    476.86284    338.17337   -1.0604919    41402.763 
  855700    302.33838   -1407.7224    467.17187    415.77551    234.45805    41402.763 
  855800    307.31899   -1416.0513    462.91977    425.53805   -244.90017    41402.763 
  855900    301.15467   -1390.0603    470.36054    431.31591    -289.0039    41402.763 
  856000    303.84908   -1375.3494    462.32677    450.08056   -237.33036    41402.763 
  856100     292.5743   -1397.4448    479.55792    394.63632   -717.10186    41402.763 
  856200    303.00073    -1414.029    481.48305    426.75145    13.426811    41402.763 
  856300    294.81663   -1418.1686    480.71049    385.12446   -86.103079    41402.763 
  856400    299.06506   -1407.2867    483.09036    417.44512     131.2838    41402.763 
  856500    303.21508   -1380.4703    519.08732    498.87604   -172.27959    41402.763 
  856600    304.51197   -1369.4432    468.84784    465.48155    137.58591    41402.763 
  856700    299.83793   -1388.5476    479.11124    435.67233   -283.92537    41402.763 
  856800    306.58608   -1408.4738    478.07184    444.97968   -267.97415    41402.763 
  856900    300.71264   -1382.9808    460.81826    426.87015    158.13427    41402.763 
  857000    307.39198   -1385.1426     450.2433    444.09777    280.09904    41402.763 
  857100    303.66345   -1378.6475    479.04948    462.67238    248.56047    41402.763 
  857200    304.53138   -1382.6226    477.16957    460.71103    220.35919    41402.763 
  857300    300.52732   -1409.6233    480.55419    419.13229   -269.97667    41402.763 
  857400     295.2292   -1398.8537     483.2613    408.84094   -238.32321    41402.763 
  857500    297.72436   -1414.1266    487.79039    409.29076    11.086455    41402.763 
  857600    298.74539   -1461.6746    466.72732    345.26012   -142.57706    41402.763 
  857700     299.1215   -1469.1823    454.17038    326.88281    93.691296    41402.763 
  857800    294.44455   -1475.7354    473.99104    319.16897   -65.427387    41402.763 
  857900    306.79116   -1458.8254    484.48275    401.95901    300.82422    41402.763 
  858000    305.51481   -1420.3193    452.75155    403.00806    183.13665    41402.763 
  858100    304.48396   -1421.9162    467.24043    411.27552    98.915966    41402.763 
  858200    305.69876   -1443.9839    459.08031    386.49751    175.85876    41402.763 
  858300    304.54965   -1425.1759    471.75297    412.82303    468.43299    41402.763 
  858400    292.24683   -1384.0777    464.74734    391.72368    81.021842    41402.763 
  858500    305.27064   -1409.7096    469.18647    428.95729    214.72885    41402.763 
  858600      291.993    -1410.166    460.13355    359.88297   -461.87729    41402.763 
  858700    294.68384   -1391.4901     464.9034    395.40007    242.60558    41402.763 
  858800    302.41066    -1423.754    494.39906    427.29528    235.24346    41402.763 
  858900    308.29764   -1403.2549    473.21449     453.0195     483.0954    41402.763 
  859000    294.36176   -1455.3867     466.1698    331.32502   -6.4412265    41402.763 
  859100    294.85073   -1445.0604    455.62894     333.3041    185.42237    41402.763 
  859200    296.34751   -1424.6708    488.83207    393.61148   -42.504964    41402.763 
  859300     308.2002   -1384.9013    474.10202     471.8235   -109.11776    41402.763 
  859400    302.38493   -1476.9333     467.4838    347.08529    500.32061    41402.763 
  859500     305.2484   -1419.6019    477.66047    427.43922    721.06753    41402.763 
  859600    295.46479   -1420.1176    502.38816    407.76077    457.85644    41402.763 
  859700    306.62177   -1450.4315    473.98996    399.10029    209.85649    41402.763 
  859800    295.33502   -1424.0503    485.15859    386.01635    442.54101    41402.763 
  859900    296.51156   -1478.0868    438.42028     290.5197    5.1779917    41402.763 
  860000    304.42555   -1466.7866      476.233    375.13569    328.32936    41402.763 
  860100    302.62257   -1438.5244    487.20566    406.28219    480.33023    41402.763 
  860200    308.95182   -1427.4305    472.95675     431.5209    281.71613    41402.763 
  860300    298.85756   -1426.5275    474.67889    388.86205    133.60292    41402.763 
  860400    299.48683   -1417.6048    461.20792    387.13665   -282.77865    41402.763 
  860500    297.50655   -1441.4027    493.05749    386.30455   -219.94381    41402.763 
  860600    285.52889   -1426.1617    450.78726    305.54219   -325.46625    41402.763 
  860700    296.57838   -1434.9733    493.38512    388.89771   -383.65949    41402.763 
  860800    302.66377   -1437.8315    476.03151    395.98572   -276.08328    41402.763 
  860900    299.02105   -1417.4442    461.51637    385.51627   -502.42451    41402.763 
  861000     308.4364   -1426.5703    466.20267    423.31475    -582.5921    41402.763 
  861100    294.07149   -1446.6328    463.21197    335.81885   -280.40433    41402.763 
  861200    302.75104   -1426.7725    480.80998    412.21471   -310.02876    41402.763 
  861300    300.38534   -1411.3176    485.38499    421.63177   -471.30765    41402.763 
  861400    291.28511   -1403.6798    473.53222    376.59206   -532.39162    41402.763 
  861500     309.9202   -1454.4009    436.93862    372.87669   -23.305579    41402.763 
  861600    297.86051   -1462.2161    459.28456    333.30617   -73.537276    41402.763 
  861700     303.1118   -1417.0085    469.68825     412.4754   -116.01655    41402.763 
  861800    300.16928   -1411.3177    481.57686    416.85426   -386.66834    41402.763 
  861900     296.8705   -1427.1537    460.63635    365.27909    2.0839273    41402.763 
  862000    300.46042   -1411.2118    473.22299    409.91244   -274.39775    41402.763 
  862100    301.68004    -1433.129    475.41731    395.66091   -241.25041    41402.763 
  862200    307.86545   -1446.2246    449.33367    384.23013   -40.602051    41402.763 
  862300    290.57028   -1446.8081    470.58618    327.31097    180.82847    41402.763 
  862400    287.35207   -1433.7104    462.94117     318.3264    28.166979    41402.763 
  862500     310.9805   -1443.2991    470.75769    422.55419    55.205922    41402.763 
  862600    296.34911     -1456.89    460.85028     333.4177   -45.736059    41402.763 
  862700    311.22521   -1429.1058    465.60504    432.69265    195.91313    41402.763 
  862800    300.44618   -1438.1652    471.31183    380.98402    454.95744    41402.763 
  862900    306.51382   -1412.2608    488.25942    451.05608    110.38273    41402.763 
  863000    295.28452   -1393.4593     487.5474    418.76961    621.44357    41402.763 
  863100    294.98581   -1441.9177    474.34258    355.76635   -72.736881    41402.763 
  863200    285.17821   -1357.6769    470.29378    391.96031   -88.643354    41402.763 
  863300    294.38767   -1408.3684    490.19768    402.48748    -410.8624    41402.763 
  863400    294.48021   -1403.2546    477.74786    395.56654   -138.99431    41402.763 
  863500    296.29723    -1462.163    474.35616    341.41786   -384.34247    41402.763 
  863600    304.29519   -1421.8771    472.84205    416.06946    278.55029    41402.763 
  863700    292.94873   -1439.8237    482.46362    356.84279    279.96049    41402.763 
  863800    289.39302   -1423.0359    481.83414    357.04976     607.0339    41402.763 
  863900    297.48315   -1391.3976    472.06961    415.21688     721.7926    41402.763 
  864000    306.09388   -1452.4467    478.20252     398.9294    159.86509    41402.763 
  864100    300.02073   -1462.7803     476.0711    359.21957    357.95581    41402.763 
  864200    295.82633   -1416.3291    473.94573    384.72876    153.53747    41402.763 
  864300    300.05413   -1456.6262    463.50741    352.95978   -177.76953    41402.763 
  864400    310.63711    -1424.261    452.42034    421.71441   -46.699631    41402.763 
  864500    307.44343   -1406.4637    433.61039    406.37459    322.46562    41402.763 
  864600    308.31078   -1422.4539    441.11895    401.78391    361.37133    41402.763 
  864700    299.02033   -1414.5481    478.55323    405.44598   -155.35245    41402.763 
  864800     302.6853   -1442.4678     443.9487    359.36327    312.65718    41402.763 
  864900    296.01421   -1441.6617    504.61595    390.90924    5.8595843    41402.763 
  865000    300.82189   -1442.7999    470.01035    376.73329    130.56553    41402.763 
  865100     287.5424   -1406.3946    472.42899    355.98388    -53.74337    41402.763 
  865200    307.41764   -1432.8076    468.68586    414.99042    333.53193    41402.763 
  865300     292.9735   -1467.8687    470.93495    317.38033   -210.60911    41402.763 
  865400    290.39518   -1464.5674    479.85568    318.03561   -223.92987    41402.763 
  865500    280.21211   -1446.3513    432.69924     243.4129   -388.88295    41402.763 
  865600    299.14361    -1428.238    480.71381    394.46967   -66.618369    41402.763 
  865700    300.41329   -1394.9753    448.01094    400.72548   -690.71943    41402.763 
  865800    304.88131    -1401.857     462.4883    428.36518   -908.25501    41402.763 
  865900    300.82158   -1405.6021    474.87769      418.797    -760.9252    41402.763 
  866000    292.04167   -1435.8407     467.4067    341.69976   -754.78056    41402.763 
  866100    299.22953   -1421.7517    469.89324    390.52083    354.74957    41402.763 
  866200    303.27076   -1430.2264    475.75005    406.03242    539.47735    41402.763 
  866300    306.06513   -1465.1072    476.41344    384.35093    448.15254    41402.763 
  866400    293.06045   -1474.9692    451.25342    290.98831    285.60472    41402.763 
  866500    298.66585    -1488.149    468.02786    319.72946    527.28951    41402.763 
  866600    296.03796   -1491.1745    486.61734    323.50439    46.889521    41402.763 
  866700    308.58852     -1468.92    471.34466    386.78951    577.61876    41402.763 
  866800    306.23662   -1455.1169    456.21281    374.90988    728.14311    41402.763 
  866900    297.64484   -1464.7344    471.82758    342.36337    517.79538    41402.763 
  867000    295.35532   -1440.0352    459.33433    344.29826    325.19258    41402.763 
  867100     296.0966   -1482.3879    451.52496    297.46163    103.11235    41402.763 
  867200    296.69404    -1468.413     475.0198     337.6116    297.26632    41402.763 
  867300     288.5765   -1456.0889    474.81564    313.31528    292.77783    41402.763 
  867400    299.17409   -1467.1124    475.90636    350.92457    387.11174    41402.763 
  867500    304.77756   -1463.7292    470.53687    374.07613    377.92982    41402.763 
  867600    307.23369   -1428.6244    459.30188    408.96442    177.95463    41402.763 
  867700    298.18275   -1482.0441     454.7536    310.39287    194.12789    41402.763 
  867800    305.76137   -1479.0168    450.60935    343.27447    337.08708    41402.763 
  867900    292.27249   -1476.5197    467.50301    302.15251    67.172703    41402.763 
  868000    295.29136   -1448.6905    464.42943    340.45113    25.339883    41402.763 
  868100    309.25406   -1499.2749    449.01933    337.09503    736.00332    41402.763 
  868200     283.2747   -1502.9089    454.82917    222.72435    394.05179    41402.763 
  868300    302.15035   -1444.7963    475.25368    385.93987    210.31363    41402.763 
  868400    293.30646   -1440.9931    432.53001    307.34466    10.282148    41402.763 
  868500    302.23947    -1472.876    481.29329    364.29955     256.6055    41402.763 
  868600    299.95666   -1447.5965    452.03842    350.08325    405.56186    41402.763 
  868700    295.73603    -1488.932    474.60949    312.38457    221.36125    41402.763 
  868800    292.02527   -1437.7779     473.4228    345.70505    225.37369    41402.763 
  868900    301.73447   -1425.3538    461.36658    389.62957     712.4278    41402.763 
  869000    299.65312   -1430.2116    469.70809    383.77613      9.33945    41402.763 
  869100    308.28837   -1372.1637    480.94229    491.79693    246.73318    41402.763 
  869200    290.84983   -1444.4769    476.82261    337.13276   -785.27683    41402.763 
  869300     303.4538   -1471.7866    463.24051    352.78378   -128.99872    41402.763 
  869400    310.32044   -1440.0663    448.99892    401.06703    94.649722    41402.763 
  869500    301.46877   -1401.5649    486.77796    437.63787   -72.652119    41402.763 
  869600    292.21318    -1458.065    458.43145    311.26964    291.04509    41402.763 
  869700    296.61547   -1452.3545    505.34295    383.64081    452.21074    41402.763 
  869800     301.8661   -1469.4535    479.76689    364.52063    293.58901    41402.763 
  869900    300.13225   -1458.6595    473.22336    360.99292    396.28941    41402.763 
  870000    303.35714   -1408.3456    493.42629     445.9769   -41.614053    41402.763 
  870100    290.84235   -1407.9475    467.26826    364.07417   -734.00668    41402.763 
  870200    298.72306   -1449.7597    477.97724     368.3248   -488.53323    41402.763 
  870300    290.92276   -1442.6106    463.89096    326.39449   -316.87936    41402.763 
  870400    299.08642   -1439.6865     504.8869    406.93768    216.84018    41402.763 
  870500    301.19609   -1452.0597    458.06697    357.20875    -365.1254    41402.763 
  870600    310.97925   -1461.5112    465.08349    398.66228   -380.41041    41402.763 
  870700    307.86452   -1462.5619    472.92467    391.47966    -66.88888    41402.763 
  870800    298.54262   -1468.7882    472.91522    343.42472   -401.01347    41402.763 
  870900    295.57051    -1474.754    477.55594     328.7665    298.69434    41402.763 
  871000    300.34903   -1470.2019    458.44765    335.64727    434.09101    41402.763 
  871100    297.83657   -1452.9598    481.60593    364.77645    547.51223    41402.763 
  871200    295.29247    -1435.309    485.75251     375.1607    499.59699    41402.763 
  871300    296.93564    -1448.232    444.78356    328.64018    696.01968    41402.763 
  871400    301.52127   -1459.0229    453.90718    347.54458    372.91258    41402.763 
  871500    286.76124   -1471.5841    476.64683    291.50779    333.71794    41402.763 
  871600    298.93523   -1481.5467    465.39171    324.90409    389.93007    41402.763 
  871700    296.19345   -1449.7003    467.55199    346.61077     291.1407    41402.763 
  871800    318.32486   -1470.4293    478.73841    436.35234    401.01916    41402.763 
  871900    306.46788   -1494.6125    462.73548    342.97435    182.74844    41402.763 
  872000    301.33165   -1484.9371     477.6791    344.55165    580.87934    41402.763 
  872100    299.84371   -1443.3623    439.81789    341.59025  -0.20757387    41402.763 
  872200    305.22061   -1444.9598    479.16987     403.4661   -56.661369    41402.763 
  872300    304.08784   -1434.2749    466.43854    396.33793   -224.02758    41402.763 
  872400    300.95365   -1408.7835    487.85948    429.18987    253.14184    41402.763 
  872500    297.68955    -1488.999    482.06376    328.53553    625.08827    41402.763 
  872600    288.51042   -1483.0689    471.39473    282.61791    201.81983    41402.763 
  872700    290.68299   -1470.8032    466.04084    299.27617    648.99362    41402.763 
  872800    301.10173    -1486.119    439.45922    304.11838   -68.327467    41402.763 
  872900    309.60164   -1478.2973    488.30612     398.9187   -462.32837    41402.763 
  873000     288.4578   -1501.7767    471.61489    263.89421   -318.51879    41402.763 
  873100    302.37364   -1493.7472    454.95875    317.69568   -121.47392    41402.763 
  873200    298.06283   -1455.4504    476.21591    357.91084   -373.77577    41402.763 
  873300    301.61208   -1466.3462    464.82179    351.54328   -425.75209    41402.763 
  873400    299.68714   -1484.3095    445.68701    305.80967   -326.27426    41402.763 
  873500    296.26476   -1500.5921     471.3095    299.79638    115.35183    41402.763 
  873600    299.91551   -1463.8493    478.86481    360.47223    156.76475    41402.763 
  873700    297.82599   -1479.3298    476.85206    333.60509    300.05855    41402.763 
  873800    304.33125   -1462.8285    473.75017     376.1879    708.83565    41402.763 
  873900    300.21105   -1497.0657    488.59384    338.31072    256.04215    41402.763 
  874000    292.38193   -1490.5692    470.84692    291.93786    -56.27924    41402.763 
  874100    297.24647   -1521.8336    456.45973    268.10922    311.37083    41402.763 
  874200    302.72711   -1512.7261    453.11732    298.46112    5.6395141    41402.763 
  874300    311.50328   -1473.2367    453.36641    377.57054   -637.67244    41402.763 
  874400    295.71869    -1470.171    442.65228    299.11052   -308.50409    41402.763 
  874500    306.13703   -1455.4671    489.50369    407.40374    193.32493    41402.763 
  874600    291.49094   -1473.5526    448.87485    282.98537   -210.67279    41402.763 
  874700    296.48474   -1469.8749    458.52189    318.71284   -438.82559    41402.763 
  874800    301.50648   -1457.1841    488.50556    383.91542   -455.98526    41402.763 
  874900    296.87537   -1466.6704    431.56635    296.71426    57.593123    41402.763 
  875000    299.92383    -1418.994    483.51048     410.0105   -183.54574    41402.763 
  875100    301.31112   -1435.0664    458.75473    375.40588   -526.21009    41402.763 
  875200    304.87072   -1437.3252    431.31114    361.67234   -588.11649    41402.763 
  875300    290.80257   -1468.5321    475.21883    311.26163   -317.49516    41402.763 
  875400    284.48417   -1467.8612    442.54735    250.91603   -457.78081    41402.763 
  875500    299.13441   -1438.2105    479.44871    383.19083   -219.29259    41402.763 
  875600    312.66796   -1436.6305    464.46225    430.49746   -468.34928    41402.763 
  875700    304.13346   -1423.6513    455.32551    396.05313   -31.742782    41402.763 
  875800    301.07191   -1394.0125    487.02671     443.6587    154.51242    41402.763 
  875900    287.57993    -1411.836    506.23157    384.51337    411.40785    41402.763 
  876000    302.66594   -1432.4082    470.46714     395.8544   -7.4769882    41402.763 
  876100    303.38022   -1385.9682    510.72744    485.75907   -40.507844    41402.763 
  876200    299.64695   -1397.1089    483.32082    430.46387    42.049855    41402.763 
  876300    307.27444   -1413.2291    465.64682    430.88743   -294.54349    41402.763 
  876400    302.82803   -1453.1922    463.80424    369.13466   -624.63388    41402.763 
  876500    310.46789   -1384.4121    459.29939    467.68323   -590.55543    41402.763 
  876600     295.9899    -1424.607    442.69326    345.93224   -329.44423    41402.763 
  876700    305.03884   -1443.8327    454.38613    378.99405   -453.11157    41402.763 
  876800    302.49863   -1389.1584      475.518    443.40451   -3.9478441    41402.763 
  876900    294.57428   -1395.7619    466.40771    392.14107   -125.08832    41402.763 
  877000    296.91933   -1443.9609    468.83319    356.88783   -360.77073    41402.763 
  877100    292.07969   -1465.5878    478.02042    322.73693   -10.712441    41402.763 
  877200    298.85211    -1453.795    482.24976    369.14091   -409.45034    41402.763 
  877300    302.33035   -1450.0515    488.40175    394.64026   -39.390393    41402.763 
  877400    300.46707   -1466.2036    443.84187    325.56933    -34.05604    41402.763 
  877500    301.22444   -1432.6582    465.78993     384.4604    62.905617    41402.763 
  877600    292.07845   -1411.0833    488.45453    387.66991    121.12099    41402.763 
  877700    305.61432    -1442.388    459.51352    388.14778    178.55249    41402.763 
  877800    306.12398   -1496.0209    472.13492    349.42263   -13.072996    41402.763 
  877900     295.5066   -1474.7937    413.11361    263.99778   -295.47705    41402.763 
  878000    300.36062   -1439.3347    461.64737    369.76618   -170.10421    41402.763 
  878100    292.32816   -1453.6869    472.62995    330.36194    19.851603    41402.763 
  878200    308.01275    -1455.408    466.50697    392.88088   -94.861259    41402.763 
  878300    300.78568   -1435.5217    477.65528    391.49395    201.22512    41402.763 
  878400    299.46742   -1464.5773     441.0341    319.90326   -14.117144    41402.763 
  878500    296.03138   -1457.9898    435.24382    305.28605    72.844643    41402.763 
  878600    295.28789   -1515.0777    459.43964    269.05857    259.60565    41402.763 
  878700    289.41289   -1519.4103    450.30873    229.23915    446.61238    41402.763 
  878800    297.88443    -1471.368    455.48659    320.46368    1033.0525    41402.763 
  878900    301.07657   -1487.0417    459.41369     323.0373    701.03518    41402.763 
  879000    313.20551   -1439.1838    438.04194    403.93535    272.46996    41402.763 
  879100    308.61628   -1461.0663    471.43081     394.8539    147.21102    41402.763 
  879200    295.17384   -1468.2749    463.56734    319.47747   -406.59101    41402.763 
  879300    297.25344   -1458.5759    445.87434    320.81277   -186.39622    41402.763 
  879400    298.94537   -1460.6896    445.93296     326.3479   -148.35637    41402.763 
  879500    300.51483   -1391.8853    478.09372    434.35377   -325.43592    41402.763 
  879600     293.4647   -1488.9413    442.98642    270.56274   -795.31666    41402.763 
  879700    293.02469    -1446.558     466.0442    334.02992   -496.31425    41402.763 
  879800    300.55714   -1447.5922    444.40873    345.15169    -352.1668    41402.763 
  879900    293.36383   -1418.9046     463.8827     361.0432   -82.527236    41402.763 
  880000    292.84063   -1443.1242    481.24764     351.8414   -45.974507    41402.763 
  880100    307.98536   -1451.1727    459.13853    389.62486    2.7267218    41402.763 
  880200    293.85366   -1458.5704    488.10761    347.79979   -251.30947    41402.763 
  880300    293.06053   -1427.1275    432.56469    320.14167    434.93166    41402.763 
  880400    305.19273   -1439.3231    489.95422    419.76204     508.0759    41402.763 
  880500    302.32227   -1476.2479    443.11551    323.12137    540.95131    41402.763 
  880600    295.13844   -1469.7674    466.76901    321.02781    540.11306    41402.763 
  880700    294.67224    -1467.973    453.10032    307.06211    293.19563    41402.763 
  880800     292.2356   -1420.7671    466.02048    356.25715   -554.53019    41402.763 
  880900     299.2582   -1436.2228    467.29853    373.58371   -651.98629    41402.763 
  881000    300.81592   -1459.5337     454.7562    344.71856   -485.27966    41402.763 
  881100    302.49403     -1440.54    460.16173      376.646   -167.85071    41402.763 
  881200    300.28992   -1472.2562    469.40068     344.2808    285.86684    41402.763 
  881300    302.90826   -1474.1387    480.41253    365.15635   -121.75518    41402.763 
  881400    299.35369   -1439.7198    459.73688     362.9534   -35.365037    41402.763 
  881500    308.42535   -1425.1264    471.63119    430.13764    141.27959    41402.763 
  881600    307.45556   -1395.1433    465.05885    449.19786    75.426768    41402.763 
  881700    296.57237    -1402.143    461.55643    389.87245   -204.69475    41402.763 
  881800    303.52664   -1433.9301    478.72811     406.4547    315.49365    41402.763 
  881900    302.55476   -1423.0006    461.61585    395.91197    476.09534    41402.763 
  882000    301.14817   -1435.2097    475.15551    390.93238    224.04403    41402.763 
  882100    306.71476   -1475.4485     468.3317    368.84216    142.64358    41402.763 
  882200    298.43176   -1445.5464    431.53379    324.78786    267.46448    41402.763 
  882300    298.05776   -1426.1488    474.14891    385.12272   -12.275094    41402.763 
  882400    297.38535   -1440.3774    477.90329    371.63196   -321.71934    41402.763 
  882500    295.24839   -1431.7464    449.19773    341.97075   -525.75773    41402.763 
  882600    305.63531   -1419.6349    454.08041     405.5619   -281.63967    41402.763 
  882700    303.76029   -1454.7114    473.12263    381.11612   -274.95572    41402.763 
  882800    297.15611    -1467.894    441.42852    306.61221   -146.24455    41402.763 
  882900    300.39328   -1477.7296    467.40964    337.28006   -70.105003    41402.763 
  883000    306.19307   -1463.7402    446.84305    356.72144   -47.221275    41402.763 
  883100     302.0571   -1418.3313    468.12885    404.86175    312.87863    41402.763 
  883200     302.8336   -1444.3888    465.84047    379.99924   -138.30073    41402.763 
  883300    307.11622    -1418.244    473.96146    433.47744    55.642066    41402.763 
  883400    297.71067    -1425.588    447.42502    357.40254    245.83569    41402.763 
  883500    298.80163   -1427.5181    456.60068    369.54235    233.21642    41402.763 
  883600    303.67339   -1440.7203    460.40723    382.00192   -59.383718    41402.763 
  883700    296.73533   -1449.4143    435.39096    317.16669   -140.23701    41402.763 
  883800    298.61976    -1459.975    491.29956    370.96832    107.57395    41402.763 
  883900    299.40337   -1473.6507     466.7557    336.26418    408.34173    41402.763 
  884000    300.51562   -1481.9837    465.96591    332.13107   -108.21123    41402.763 
  884100    304.43695   -1476.5132    461.85733    351.08453    841.73267    41402.763 
  884200    290.14947   -1471.2991    457.37878    287.72474    519.38598    41402.763 
  884300    292.30262   -1491.1578    442.72792    262.87453    419.52744    41402.763 
  884400    311.52249   -1471.1801    461.75608    388.10297    334.41509    41402.763 
  884500    307.38169    -1447.189    442.09255    373.85447    630.47969    41402.763 
  884600    300.92108   -1411.4214    475.58154    414.12793    585.54933    41402.763 
  884700    298.09318    -1467.662    458.78025     328.3997    3.0362281    41402.763 
  884800    311.57083   -1468.4862    482.63613    411.89377     431.5361    41402.763 
  884900    300.68493    -1443.431    465.40229     370.8797    299.21466    41402.763 
  885000    298.67661   -1420.1236    458.81134    378.58654   -58.781051    41402.763 
  885100    307.79504   -1430.9525    467.48789    417.34059   -316.03362    41402.763 
  885200    305.59154   -1427.7495    447.24138    390.41197   -534.05322    41402.763 
  885300    296.10998   -1407.5222    474.71817    395.58066   -180.59641    41402.763 
  885400    294.97046   -1376.2435    476.44931    423.47844    155.76123    41402.763 
  885500    300.18853   -1390.2676    482.95229    439.36623    160.80359    41402.763 
  885600    304.35693   -1404.7448    470.00662    430.64326    406.17525    41402.763 
  885700    287.70515   -1386.1047    467.51664    372.09151    509.17935    41402.763 
  885800    296.12941   -1416.6722    456.51057    368.31019    520.70405    41402.763 
  885900    300.79891   -1399.6022    479.04688    428.86447   -68.906303    41402.763 
  886000    295.16692   -1406.7283    496.70274    414.12845   -559.07587    41402.763 
  886100    293.25121   -1445.9309    469.72027    339.34926   -137.52657    41402.763 
  886200    295.47525   -1419.8794    455.63442     361.2922   -264.73457    41402.763 
  886300    311.49199   -1432.7324    476.80302     441.4608   -497.26163    41402.763 
  886400    292.66987   -1406.6788     480.5109    386.78394    -888.2955    41402.763 
  886500    310.89195   -1412.2016    470.33383    452.83055    -284.7051    41402.763 
  886600    305.92102   -1436.0747     460.6315    396.95501   -84.842761    41402.763 
  886700    310.01834   -1455.9572    458.00621     392.8282   -260.57244    41402.763 
  886800    312.27938   -1450.9768    460.57453     410.5202   -151.79142    41402.763 
  886900    301.39825   -1416.2949    471.00985    406.82339    164.61953    41402.763 
  887000     312.5361    -1413.173    457.87941    446.78056    -73.66107    41402.763 
  887100    302.60699     -1429.41    455.62125    383.74226    130.93607    41402.763 
  887200    303.84721   -1448.6171    449.98624    364.46389    314.01759    41402.763 
  887300    309.14225   -1441.0781    460.68412    406.45496    479.32973    41402.763 
  887400    298.77343   -1453.0107    461.31895    348.64149    102.84839    41402.763 
  887500    301.78461   -1469.2775    471.48192    356.04618    368.92527    41402.763 
  887600    298.91994   -1423.4523    464.55612    382.09427    593.59753    41402.763 
  887700    291.93294   -1393.4715    482.83635    399.01075    535.08231    41402.763 
  887800    298.21541   -1383.1899    447.44298    402.08296    485.73213    41402.763 
  887900    302.72841   -1409.0842    451.59179    400.58335    415.89512    41402.763 
  888000    306.03626   -1401.6354    481.82433    453.10402    463.43797    41402.763 
  888100    297.95926    -1416.923    450.44326    370.20098    -237.0646    41402.763 
  888200    295.09876    -1436.992    446.60909    333.46526     226.0978    41402.763 
  888300    305.22271   -1446.9406    496.70359    419.02841    -371.0618    41402.763 
  888400    314.83312   -1451.8221    433.70964    394.26642   -132.70373    41402.763 
  888500    308.30815   -1450.7813    465.09234    397.41809   -734.07162    41402.763 
  888600    300.84518   -1449.4801    472.94563    373.09289   -916.79227    41402.763 
  888700    297.50749   -1463.5559    450.05626    321.15435   -721.09313    41402.763 
  888800    293.13997   -1466.4099    444.91451    293.56544   -318.02684    41402.763 
  888900    302.43112   -1445.1062    480.03793    391.67372   -285.23962    41402.763 
  889000    302.57071   -1457.9563    478.97738    378.38937   -261.31477    41402.763 
  889100    302.65307   -1424.2505    466.42213    399.90938   -265.35504    41402.763 
  889200    298.10031     -1390.34    479.47941    426.45288   -362.39788    41402.763 
  889300    305.23608   -1413.1096    475.27909    431.49492   -183.67498    41402.763 
  889400    299.21895   -1439.7198    479.53429    382.14637   -320.82118    41402.763 
  889500    291.64939   -1481.0287    460.87688    288.22204    -96.46125    41402.763 
  889600    306.74548    -1427.758    492.45842    440.79719     594.9048    41402.763 
  889700    290.33343    -1407.152    473.33487    368.65321   -802.06348    41402.763 
  889800    289.87154   -1419.3996    456.06453    337.06321   -858.03466    41402.763 
  889900    302.31583   -1402.2064     474.7081    428.72657   -885.35329    41402.763 
  890000    302.17114   -1392.8703     439.4702    402.17568   -611.37677    41402.763 
  890100    302.55806   -1428.1093    473.06231    402.26454    90.901244    41402.763 
  890200    305.26631   -1414.0254    471.58575    427.02133    242.20439    41402.763 
  890300    308.11645   -1471.1324     474.7706    385.88526    67.652954    41402.763 
  890400    305.08046   -1476.7671    495.01032    386.87055    216.17158    41402.763 
  890500    293.71828   -1463.4768     460.3667    314.54506   -75.545007    41402.763 
  890600     299.4743   -1449.3215    468.72061    362.87651    168.99942    41402.763 
  890700    296.98108   -1409.4401    500.98082    423.83317    130.81663    41402.763 
  890800    307.57152   -1441.1017    465.16412    403.86488    197.63034    41402.763 
  890900    297.72633   -1385.3313      480.211    430.51542    119.54796    41402.763 
  891000     289.4375   -1422.2516    478.53022    354.72974    23.078259    41402.763 
  891100    307.07637   -1436.0391    492.99499    434.53708    12.514297    41402.763 
  891200    295.76094   -1409.8081    491.39532    408.40602    180.79996    41402.763 
  891300    296.33419   -1474.7841    471.57373     326.1801    -193.8792    41402.763 
  891400    298.26746   -1471.4857    464.35543    330.93309    -253.2279    41402.763 
  891500    310.31266   -1480.5135    462.17661    373.76266    47.388332    41402.763 
  891600    296.98928   -1497.4103     458.7437    293.66267   -412.35683    41402.763 
  891700    290.33576   -1479.2491    459.35757    282.58924   -349.53916    41402.763 
  891800    306.91089   -1452.0902    446.56223    371.31085   -240.45177    41402.763 
  891900    298.45851   -1443.8934    500.72859     395.7556   -56.222842    41402.763 
  892000      291.911   -1458.0202    478.58771    330.11502   -148.29452    41402.763 
  892100      302.629   -1453.3922     450.6457    354.88323    423.73547    41402.763 
  892200    294.51446   -1451.6911    488.15413    357.69004    168.35406    41402.763 
  892300    295.34098   -1484.9337    451.98841    291.98952    -128.9466    41402.763 
  892400    300.25524   -1422.5175    475.96575      400.429   -81.197599    41402.763 
  892500    298.82401   -1378.6886    473.59297    435.46446   -170.68676    41402.763 
  892600     310.4187   -1429.6426    483.76913    446.70181    370.45407    41402.763 
  892700    296.16617   -1425.8386    483.24343     386.0416    394.77903    41402.763 
  892800    305.91456   -1443.6924    461.23112    389.90786    23.625458    41402.763 
  892900    303.73667    -1387.506    468.10946    443.20239    497.46899    41402.763 
  893000    294.08449   -1430.8345    474.35333    362.81694    254.44228    41402.763 
  893100    308.86208   -1428.2861    473.66463    430.97059    551.51464    41402.763 
  893200    303.96485   -1409.9446     458.6903    412.36821    331.44084    41402.763 
  893300    302.16784   -1423.5869    474.16901    406.14302    459.30198    41402.763 
  893400    305.44232   -1408.7526    486.85766    448.35573    323.15933    41402.763 
  893500    295.49242   -1437.6775     474.8442     362.7809   -29.351809    41402.763 
  893600    296.39412   -1427.7679    487.19369    389.08511   -182.09778    41402.763 
  893700     308.3967   -1411.5965    477.77395    449.68182    105.50572    41402.763 
  893800    292.63829   -1405.6384    471.89821    379.07009   -149.08969    41402.763 
  893900     300.7348   -1421.1548    468.73997    396.71726     28.18127    41402.763 
  894000    307.00454   -1445.8884    457.16789    388.53844    271.58425    41402.763 
  894100    299.16719   -1437.0504    477.44349    382.49279   -65.303256    41402.763 
  894200     298.8347   -1405.9197    473.36561    408.05392    250.59033    41402.763 
  894300    294.13939   -1428.8145    460.09313    350.82298    136.80951    41402.763 
  894400    298.31311   -1389.5116    490.85901    439.61557    73.858977    41402.763 
  894500    293.27828   -1389.1634    472.79143    399.30929    221.78605    41402.763 
  894600    307.76438   -1402.8014    476.66358    454.52987    208.94464    41402.763 
  894700    304.21456   -1431.7043    476.42681    409.46523    738.40612    41402.763 
  894800     299.3753   -1435.6063    482.46692    389.89386    520.02637    41402.763 
  894900    295.90255   -1411.9493    443.76535    359.27008    334.62492    41402.763 
  895000     300.0871   -1452.4392     457.5222    351.30944    -200.9155    41402.763 
  895100    298.80343   -1411.6689    464.24246    393.04136    49.777322    41402.763 
  895200    299.36039   -1401.7272    466.10235    407.34153   -424.33764    41402.763 
  895300    296.95941    -1461.979    464.53257    334.74888   -303.29257    41402.763 
  895400    316.23172   -1434.6336    482.02544    466.04501    350.28145    41402.763 
  895500     294.5192   -1421.2775    466.70112     366.6718   -670.13038    41402.763 
  895600    299.44786   -1409.8092    502.92695     436.4765   -325.36884    41402.763 
  895700    292.76631   -1425.1564    447.71422     335.9424   -11.745346    41402.763 
  895800     295.5627   -1433.6716    487.24763    379.50554   -269.96125    41402.763 
  895900    301.73967   -1411.8177    478.32039    420.14276   -64.168977    41402.763 
  896000    300.47095   -1393.9861    461.95315    415.91547    335.26731    41402.763 
  896100     307.3868   -1440.7717    479.61434    417.81647    642.26869    41402.763 
  896200    292.72206     -1456.61    486.00291    342.57896    260.55393    41402.763 
  896300    307.19584   -1449.6568    455.99695    384.45728    514.03242    41402.763 
  896400    301.39883   -1420.8029    480.19183    411.49997     912.2331    41402.763 
  896500    311.45423   -1443.7467    478.55986    432.03396    348.98061    41402.763 
  896600    299.51461    -1426.749    480.22969    397.13886    172.92276    41402.763 
  896700    303.80429   -1438.3504    439.69648    364.24836   -224.60182    41402.763 
  896800    315.96733    -1456.686    483.52007    444.30117   -780.54935    41402.763 
  896900    294.74766   -1402.3828    456.31513    376.20543    -747.2795    41402.763 
  897000    298.69896   -1419.5454    479.79812     400.2518   -110.42073    41402.763 
  897100     303.6347   -1407.5748    499.28223    453.84886   -332.65445    41402.763 
  897200     290.8403   -1408.8398    492.24687    388.15127   -727.99405    41402.763 
  897300    301.34961   -1378.1327    476.26411    450.02165   -640.71272    41402.763 
  897400    300.61429   -1451.4089    460.45866    357.64128   -178.66919    41402.763 
  897500    303.80954   -1441.4485     477.5105    398.98782   -415.29572    41402.763 
  897600    298.42273   -1433.0925    485.37791    391.04529   -923.64373    41402.763 
  897700     289.5425   -1440.2555    466.84163    325.50832   -404.99015    41402.763 
  897800    308.97513   -1448.7241    459.28375    396.65894   -122.78193    41402.763 
  897900    284.43138     -1423.87    469.21092    321.33398    202.23579    41402.763 
  898000    294.46726   -1420.6143    482.46246    382.86333   -295.22661    41402.763 
  898100    295.26652   -1471.5068    487.11736     340.2114    178.24924    41402.763 
  898200     302.4779   -1463.4588    484.64474    378.13786    196.35222    41402.763 
  898300    301.75948   -1463.2788    468.18465    358.63478    -181.0929    41402.763 
  898400    293.31857   -1466.1723     439.2254    288.91511    303.61056    41402.763 
  898500    299.90077   -1485.3011    500.22142    360.31088   -20.048103    41402.763 
  898600    293.42952   -1470.7326    450.63994    296.26715    120.07238    41402.763 
  898700      300.565   -1507.7198    451.98574    292.63638   -130.74813    41402.763 
  898800    308.07484   -1471.5178    469.74796    380.29058   -121.84108    41402.763 
  898900    301.62318   -1444.7399    440.13454    348.51215    192.20571    41402.763 
  899000    304.97216   -1430.7826    504.71652    442.07536    97.447126    41402.763 
  899100    299.75969   -1434.2209    470.03509    380.57187    147.01077    41402.763 
  899200    293.09717   -1429.9119    490.90553    375.86244    146.73974    41402.763 
  899300    288.21711   -1465.1905    501.59147    329.37722    -196.1107    41402.763 
  899400    293.85653   -1468.8382    481.68509    331.12228   -64.241826    41402.763 
  899500    299.94629    -1470.808     469.9304    344.71719    349.83728    41402.763 
  899600    303.74448   -1484.1684    474.60896    353.07447     98.18324    41402.763 
  899700    308.00004   -1448.4643    476.76509    410.02567    256.78865    41402.763 
  899800    294.82416   -1456.0259    482.66284    349.25318    16.396111    41402.763 
  899900    301.61953   -1479.5464    477.41272    350.96741    465.63704    41402.763 
  900000    310.07209   -1511.5791    440.05357    319.49482    79.071809    41402.763 
  900100    299.37406   -1436.6199    487.48132    393.88909    302.73657    41402.763 
  900200    300.97649   -1438.3572    474.91447    386.77363    484.19097    41402.763 
  900300    291.04779   -1457.8385    471.57553    319.41214    444.14083    41402.763 
  900400    305.46875   -1485.6222    452.28096    337.02797    1056.7802    41402.763 
  900500    296.43609   -1528.5153    443.29032    244.62267    418.07081    41402.763 
  900600    294.91645   -1498.2362    491.84367     316.6378    875.09754    41402.763 
  900700    292.68952   -1477.5207     478.9731    314.49244    426.15622    41402.763 
  900800    298.07605    -1511.636    462.24914    287.81783    410.71664    41402.763 
  900900    294.27563   -1515.1065    490.88022    295.92921    792.47962    41402.763 
  901000    298.11621   -1493.1668    480.52656    324.74454     731.2833    41402.763 
  901100     294.9081   -1482.8767    481.23766    321.35383    1351.9114    41402.763 
  901200    303.83158   -1483.9259    470.20553     349.3043    977.44601    41402.763 
  901300    312.56772   -1476.8558    493.59508    418.95527    678.08929    41402.763 
  901400    312.70927    -1476.974    487.64386    413.52096    705.69944    41402.763 
  901500    301.97022   -1462.9141    440.16609    331.92639     146.9322    41402.763 
  901600    296.15117   -1474.7759    459.91586    313.70939    -100.1439    41402.763 
  901700    287.31533   -1487.5256    462.75742    264.16263   -537.87305    41402.763 
  901800    295.80113   -1462.1237     484.3407    349.21616   -518.70438    41402.763 
  901900    301.94018   -1420.5843    461.28019    395.23552   -725.23229    41402.763 
  902000    316.48848   -1463.9425    485.52761    441.39019   -518.26428    41402.763 
  902100     298.2022   -1446.4705    451.59077    342.89087   -345.17071    41402.763 
  902200     290.8112   -1469.9804    464.76553    299.39886   -320.74645    41402.763 
  902300    298.21897   -1451.6937     476.3148    362.46695    -197.3909    41402.763 
  902400    295.06583   -1434.2078    482.77515     372.2678   -92.040288    41402.763 
  902500    310.04003   -1439.2196    469.40947     421.0664   -331.98339    41402.763 
  902600    306.14103   -1498.5292    441.35079    316.20669     -277.492    41402.763 
  902700    309.90602   -1444.9092    484.15386    429.51996   -213.85374    41402.763 
  902800    305.75945   -1474.4744    476.47335    373.67228   -4.1306168    41402.763 
  902900    308.41902   -1483.2304     474.5376    374.91166    536.61774    41402.763 
  903000      298.664   -1502.8711    467.22086    304.19199    87.799919    41402.763 
  903100    296.50846   -1473.4816    473.89106    330.58173    66.393671    41402.763 
  903200    301.18716   -1462.3702    496.98262    385.77394    66.306023    41402.763 
  903300    293.83377    -1467.832    489.04415    339.38541   -277.94243    41402.763 
  903400    289.89769   -1472.9792    482.95931    310.49566    -576.8506    41402.763 
  903500    304.50282   -1486.4957    487.70395    367.24418     -753.056    41402.763 
  903600    298.66948   -1497.9514    468.31728    310.23272   -780.43844    41402.763 
  903700    302.53542   -1460.6833    468.95488    365.48152   -601.74544    41402.763 
  903800    308.40718   -1468.2918    471.60185    386.86144   -227.34322    41402.763 
  903900    302.78635   -1501.5953    450.57034    307.31068   -368.66385    41402.763 
  904000    301.52719    -1496.413    479.97936    336.25322   -594.01919    41402.763 
  904100    298.69095   -1489.7572    468.30943    318.51544    -66.34985    41402.763 
  904200    291.39282   -1505.0138    492.71507    294.92415    41.942924    41402.763 
  904300    308.64017   -1538.9927    461.24743    306.85132    2.9447603    41402.763 
  904400    294.95887   -1493.8971    476.61519     305.9387    232.30703    41402.763 
  904500    294.55469   -1445.2342    488.79695    364.97025    272.17979    41402.763 
  904600    299.76237   -1431.5447    506.53636    419.76134    344.12651    41402.763 
  904700    292.03591   -1441.3289    505.99287    374.77186   -170.43491    41402.763 
  904800    290.03875    -1410.764     466.4166    356.80102   -217.34439    41402.763 
  904900    304.64265    -1423.698    483.11344    426.07866   -370.55752    41402.763 
  905000    305.89418   -1486.5624     487.7021    373.41745   -250.70628    41402.763 
  905100    299.61999   -1484.5084    471.99863    331.62117    -146.8138    41402.763 
  905200    303.59773   -1521.9565    464.25166     304.2708   -629.37824    41402.763 
  905300    297.39852   -1459.5913    459.30561     333.8795    -752.9172    41402.763 
  905400    298.16555   -1475.1336    495.96641      358.439    -862.5895    41402.763 
  905500    295.77459   -1465.2017    479.67365    341.35197   -334.96008    41402.763 
  905600    305.59959   -1447.3789     475.0696    398.64685   -729.86573    41402.763 
  905700    297.50035   -1462.7616    479.33637    351.19675   -361.65114    41402.763 
  905800    311.45161   -1472.8241    492.76519    417.15012    91.125326    41402.763 
  905900    286.04116   -1446.9756    469.01568    305.25483   -106.23635    41402.763 
  906000     300.9458   -1461.3686    496.67287    385.38302    133.56113    41402.763 
  906100    292.62455   -1461.9892    433.67917    284.43855   -421.43103    41402.763 
  906200    297.35409   -1448.9299    491.38995    376.42588     275.0225    41402.763 
  906300     291.0558   -1474.8064    480.14251    311.04713    -319.8046    41402.763 
  906400    306.02217   -1464.1796    503.47285    412.14515   -284.01487    41402.763 
  906500    293.63132   -1440.0537    474.09131    351.30275   -314.36719    41402.763 
  906600     296.1874   -1458.0767    501.77111    372.42638   -326.64132    41402.763 
  906700    290.47028   -1465.4248    502.39688    340.05633   -370.85507    41402.763 
  906800    299.28466   -1459.7332    458.98847    341.88194   -140.11587    41402.763 
  906900    301.60753   -1494.0905    508.42509    367.38193     -156.545    41402.763 
  907000    287.04287   -1479.0139    496.01127    304.70591   -285.13365    41402.763 
  907100    303.96315   -1441.3965    495.52994    417.74833   -548.06402    41402.763 
  907200    292.95217   -1480.0335    471.69895    305.88372    93.598695    41402.763 
  907300    306.46827   -1462.7564    517.46064    429.55745    697.74519    41402.763 
  907400    294.32938   -1480.9951    476.70771    316.10931    -168.2544    41402.763 
  907500    303.24651   -1475.3921    470.61559     355.6235    457.97676    41402.763 
  907600    303.67328     -1468.83    495.05007    388.53458    449.16426    41402.763 
  907700    293.94857   -1463.4556    491.34813    346.58077    110.53208    41402.763 
  907800    292.55076   -1519.5813    507.59529    300.43156    126.53687    41402.763 
  907900    306.90116   -1425.5913    507.70489    458.90871    185.96219    41402.763 
  908000    295.80724    -1472.656    484.94601    339.31657   -225.38401    41402.763 
  908100    304.97753   -1481.4291    479.67558    366.41202    381.84298    41402.763 
  908200    296.26963    -1494.629    481.62234    316.09419   -299.02623    41402.763 
  908300    307.43233    -1470.716     473.4056    381.86772    -35.41811    41402.763 
  908400    309.90847   -1500.9305    509.97014    399.32591    74.450434    41402.763 
  908500    296.24214   -1468.0315    466.65364    327.59969   -70.840827    41402.763 
  908600    303.60001   -1503.9871    482.78335    340.78208    494.39861    41402.763 
  908700    297.10741   -1505.0604    475.53198    303.33081    442.02856    41402.763 
  908800    288.32698   -1477.1746    496.44442    312.73894    443.06776    41402.763 
  908900    304.21462   -1515.9969    487.36297    336.10906    214.60796    41402.763 
  909000    299.14503   -1458.9762    473.11534    356.13943    153.32191    41402.763 
  909100    292.28862   -1486.3707    467.20551    292.07639    238.96569    41402.763 
  909200    303.68757   -1496.1368    500.85042    367.09226   -129.73152    41402.763 
  909300    307.99433   -1493.0584    465.01499    353.65582    106.64832    41402.763 
  909400    289.57363   -1486.9918    488.03132    300.10132     -338.186    41402.763 
  909500    296.21381   -1471.1911    461.27676    318.93608   -576.89545    41402.763 
  909600    305.59949   -1471.4715    461.21893    360.70312    -201.4577    41402.763 
  909700    291.79835   -1500.7802    453.87978    262.14173   -216.89829    41402.763 
  909800    294.46881   -1513.0183    480.62965    288.63348    314.42974    41402.763 
  909900    297.70349   -1507.6913    493.01997    320.86199    607.45976    41402.763 
  910000    296.99612   -1521.3845    478.40387    289.37931     951.3498    41402.763 
  910100    296.91852   -1530.8246    474.59026    275.77753    965.05604    41402.763 
  910200    297.61814   -1547.6203    466.74883    254.27899    970.04843    41402.763 
  910300    297.45123   -1505.7436    486.69832    315.35637    703.90305    41402.763 
  910400    297.70617   -1513.8925    469.76722     291.4201    86.582674    41402.763 
  910500    292.27316   -1521.4523    469.70558    259.42548   -98.816886    41402.763 
  910600     301.8165   -1518.9399    478.79677    313.84162    -315.9736    41402.763 
  910700    296.13881   -1518.6845     482.2432    292.07267    -653.5864    41402.763 
  910800     306.4211   -1504.1835    454.41656    324.87459   -597.00599    41402.763 
  910900    306.73948   -1489.6439    456.99686    343.42282   -309.54705    41402.763 
  911000     304.5332   -1470.6224    460.20848    355.75827   -588.61454    41402.763 
  911100    289.73803   -1516.3992    462.53273    245.93285   -611.48196    41402.763 
  911200    312.66013   -1477.9777    473.92124    398.57411    -393.4364    41402.763 
  911300    294.05398   -1496.0119    489.50091    312.65013   -338.96568    41402.763 
  911400    301.00335     -1526.99    466.37498    289.72181    103.30283    41402.763 
  911500    304.16361   -1549.1059    455.38681    270.79514    243.72073    41402.763 
  911600    299.76574   -1500.6427    456.37578    300.51789    434.70034    41402.763 
  911700    287.66019    -1490.703    452.16223    251.93711     337.6775    41402.763 
  911800    297.78305   -1498.7917    447.55733    284.65581   -26.212273    41402.763 
  911900    298.31873   -1527.7524    489.64302    300.18402    486.95594    41402.763 
  912000    294.03339   -1558.0087    432.63919    193.69929   -159.68636    41402.763 
  912100    299.47643    -1526.263    449.87909    267.10302   -139.11543    41402.763 
  912200    302.55631   -1531.0087     476.9663    303.26123    287.58036    41402.763 
  912300    308.21819   -1524.8036    463.33134    321.23122    130.54758    41402.763 
  912400    301.61399   -1504.8748    461.94885     310.1503   -15.215552    41402.763 
  912500    296.54449   -1476.3166    478.98681    333.00409    165.08037    41402.763 
  912600    302.20579   -1510.6002    464.38391    309.51488    10.263422    41402.763 
  912700    307.54924   -1460.8998    467.08467    385.88745    6.7655226    41402.763 
  912800    299.61919   -1487.6401    475.02778    331.51512    2.8381046    41402.763 
  912900    302.63782   -1521.9789    479.41423    315.10467    175.80056    41402.763 
  913000    300.80857   -1502.1277    453.05035     300.3857    180.99734    41402.763 
  913100     304.0848   -1540.5782     456.6906    280.27304   -112.18338    41402.763 
  913200    305.18108   -1521.1436    458.17235    306.10748     25.06261    41402.763 
  913300    302.31617   -1508.4972    473.30889    321.03806   -320.53302    41402.763 
  913400    300.62813   -1514.6467    460.37355    294.38047   -440.67378    41402.763 
  913500    315.51624   -1514.4388     472.5965    373.60111    92.135215    41402.763 
  913600    297.50957   -1527.0234    471.24649    278.88646   -43.494485    41402.763 
  913700    303.80535   -1476.9678    470.47382      356.413    -91.82569    41402.763 
  913800    301.13714    -1467.826    449.60736    332.71845    318.86474    41402.763 
  913900    300.73816   -1481.0365     502.6517    370.76245    69.739628    41402.763 
  914000    297.63869   -1490.4432     462.8509    307.65028    443.18006    41402.763 
  914100    297.67693   -1496.5304    499.51211    338.39586    763.38481    41402.763 
  914200    290.22807   -1510.1204    469.39953    261.27682    634.10739    41402.763 
  914300    296.49452   -1498.8989    455.71271     286.9236    62.727733    41402.763 
  914400    297.96187   -1468.0891    470.22447    338.82784    105.61757    41402.763 
  914500     297.1267   -1476.3912     477.5368    334.09135    346.31815    41402.763 
  914600    301.45174   -1520.2022    487.37917    319.52538   -28.424315    41402.763 
  914700    294.37616   -1474.6769    451.79529    297.72492   -89.880137    41402.763 
  914800    292.64609   -1493.2754    485.57787    305.14772     311.5481    41402.763 
  914900    304.24113   -1452.9383    481.53862    393.46227    255.15014    41402.763 
  915000    297.63716   -1440.4521    483.35077    378.13445   -151.40298    41402.763 
  915100     301.3188   -1460.4797    483.38517     374.6575    295.01821    41402.763 
  915200    301.97817   -1451.2789    495.54077    398.97195   -455.78547    41402.763 
  915300    297.34432   -1484.8506    476.48167    325.55309   -18.779047    41402.763 
  915400    306.17943   -1463.4876    471.12538    381.19517    485.20819    41402.763 
  915500    297.51148   -1456.3462     467.3227    345.64848   -162.33546    41402.763 
  915600    288.66507   -1480.4371    486.98627    301.53508    306.13643    41402.763 
  915700    296.15491   -1494.3299    477.53039     311.7867    663.55919    41402.763 
  915800    303.28529   -1490.7554    465.20329    335.02184    383.00101    41402.763 
  915900    298.82866   -1467.8399    497.56549    370.30653   -1.0483834    41402.763 
  916000    310.75562   -1473.1007    488.59686    409.58289   -284.52146    41402.763 
  916100    295.33332   -1473.7652    469.28463    320.41985   -38.684538    41402.763 
  916200     299.7838   -1491.9023    494.88987    347.85342    35.585839    41402.763 
  916300    307.97359   -1464.5692    492.59978    409.63682     185.6013    41402.763 
  916400    308.52069   -1483.8143    487.11984    387.36616   -254.34229    41402.763 
  916500    307.52262   -1458.4936    458.39741    379.48691   -204.73135    41402.763 
  916600    306.60966   -1449.9512    521.81558    447.35185   -459.17497    41402.763 
  916700    312.28249   -1448.2923    468.41898    421.06316   -381.83551    41402.763 
  916800      293.669   -1505.4552    455.21952    267.19848   -511.68605    41402.763 
  916900    319.18867   -1467.5109    473.43846    437.84596    53.494177    41402.763 
  917000    290.68642    -1465.804    478.01409    316.26399     57.74719    41402.763 
  917100    297.41367   -1484.1419     494.9249    345.01612    462.00893    41402.763 
  917200    304.92321   -1486.1834    493.37678    375.11521    439.02606    41402.763 
  917300    295.82389   -1489.7354    462.14076    299.50656    93.245497    41402.763 
  917400    301.60018   -1475.9132    490.85098    367.95214   -634.49792    41402.763 
  917500    291.89662   -1482.9801    482.98333    309.48626   -712.21348    41402.763 
  917600    296.36362   -1503.2119    458.22881    284.53944   -682.24583    41402.763 
  917700    306.26523   -1472.5812    455.49153    356.85264   -409.94294    41402.763 
  917800    305.39194   -1459.8597    492.16069    402.32565   -152.18026    41402.763 
  917900    308.15638   -1443.8145    475.12416    413.73585   -10.804457    41402.763 
  918000    298.46648   -1485.4867    458.13052    311.60004    336.38613    41402.763 
  918100    295.84951    -1426.067    509.42241    410.57154      141.791    41402.763 
  918200    298.85363   -1426.7405    470.71823    384.67067    49.867045    41402.763 
  918300    310.66924   -1498.5984    477.18778    372.28861   -310.44597    41402.763 
  918400    302.89317   -1489.0168    481.77182    351.56981   -207.17323    41402.763 
  918500    297.60063   -1452.9781    493.71564    375.80938   -545.98992    41402.763 
  918600    293.71383   -1472.2748     471.8513    317.21166    -35.75965    41402.763 
  918700    300.71244   -1480.1461    479.44234    348.32802    151.67742    41402.763 
  918800    298.68046   -1476.5273    471.69974    335.08859   -56.380504    41402.763 
  918900     295.8055   -1448.9588    497.31205    375.37196   -137.90416    41402.763 
  919000    295.59723   -1454.6263    490.16256    361.62062   -161.44722    41402.763 
  919100    297.50704   -1466.3128    500.84394    369.18315    42.224733    41402.763 
  919200    298.94252   -1498.1772    452.47763    295.39223   -268.84973    41402.763 
  919300    296.81364   -1471.2648    485.34654     345.6231   -95.965538    41402.763 
  919400    298.82319   -1513.5607     465.0853    292.08104   -50.277627    41402.763 
  919500    295.70524    -1465.783    464.31489    325.10077   -47.004477    41402.763 
  919600    306.87188   -1518.0595    490.65158    349.25586    483.17899    41402.763 
  919700    295.16175   -1544.5379    492.31416    271.90707    221.43183    41402.763 
  919800    300.77081   -1492.5574    497.98894    354.72519     94.11916    41402.763 
  919900    295.60919   -1468.9958    446.11721    303.25941    255.37822    41402.763 
  920000     301.8004     -1510.44     488.3955    331.86809    59.573482    41402.763 
  920100     298.8986   -1460.8009    458.33862    338.43242    92.356873    41402.763 
  920200    308.83437   -1450.5691    469.77291    404.67154    47.007941    41402.763 
  920300    302.82519    -1509.546    486.87988     335.8437    209.47535    41402.763 
  920400    306.57056   -1450.7676    462.13536    386.67979    61.213402    41402.763 
  920500    296.11749   -1451.7449     471.0318    347.70522   -158.65955    41402.763 
  920600    304.45966   -1454.9956    487.11917     397.9659    175.59816    41402.763 
  920700    296.44544    -1440.542    466.69195    356.03947   -464.88779    41402.763 
  920800    294.73406   -1439.8769    504.59343    386.92858   -1190.3324    41402.763 
  920900    300.98991    -1416.722    431.62676    365.18137   -726.52888    41402.763 
  921000     300.6201   -1404.2182    507.05519    451.45461   -1389.9052    41402.763 
  921100    295.19639   -1414.4644    479.38677    389.20851   -525.92646    41402.763 
  921200     308.3853    -1421.176    455.51848    417.79567   -583.60722    41402.763 
  921300     297.6967   -1383.1729    480.86094    433.19086     34.43891    41402.763 
  921400    299.31179   -1405.1343    484.35021    421.96429   -191.15017    41402.763 
  921500    309.45732   -1400.8741    484.71057    472.09883    205.20086    41402.763 
  921600    297.83994   -1416.5081    496.58691    416.22419    200.32542    41402.763 
  921700    295.92066   -1425.7433    502.30338    404.09545    475.75617    41402.763 
  921800    292.86479   -1441.7139    504.88967    377.00215    57.338596    41402.763 
  921900    312.43558   -1434.2042    479.19575    446.61476    165.92474    41402.763 
  922000    312.89268   -1444.0435    482.37141    442.00175    448.37699    41402.763 
  922100    303.86202   -1446.2736    469.22888    386.11653     59.70592    41402.763 
  922200     287.2662   -1431.3475    494.74531    352.10824   -274.45102    41402.763 
  922300     294.8398   -1423.9682    474.60288    373.32115   -660.19294    41402.763 
  922400    303.30437   -1484.4452    488.59827    364.81263    8.9483332    41402.763 
  922500    293.81773   -1473.6418    506.89776    351.35731   -353.48486    41402.763 
  922600    304.38598   -1475.8631     463.2733    352.92193   -342.99501    41402.763 
  922700    306.16991    -1434.319    481.40918    420.60488   -279.11781    41402.763 
  922800    298.73314   -1440.3003    465.86162    365.71384   -248.98569    41402.763 
  922900    289.38965   -1457.1321    496.60632    337.71068   -116.94553    41402.763 
  923000     296.3071   -1448.1559    503.37087    384.48395   -59.463445    41402.763 
  923100    290.49086   -1482.8589    465.72601    286.04375    124.79282    41402.763 
  923200    304.03679   -1495.1713    504.14793    372.92194    719.35998    41402.763 
  923300    299.88273   -1465.7698    473.69096    353.23079     430.4544    41402.763 
  923400     301.1177   -1476.6359     471.4926    345.70662    399.07422    41402.763 
  923500    299.56179    -1474.299    486.65935     356.2302     863.2739    41402.763 
  923600    303.25834   -1491.4338    476.58293    345.60218    532.40088    41402.763 
  923700    297.82074   -1489.8386    451.90543    298.12616    292.67831    41402.763 
  923800    310.52612   -1468.7082    476.70632    401.05531    460.50843    41402.763 
  923900    300.80123   -1430.4933    490.53524    409.47205    339.24029    41402.763 
  924000    297.12298   -1468.3692    487.70204    352.26192    483.56594    41402.763 
  924100    298.66518   -1431.2528    482.19357     390.7883    312.91772    41402.763 
  924200    290.05417   -1473.0379    484.04486    312.22451    499.58845    41402.763 
  924300    279.88887   -1477.7836    488.07555    265.90678   -115.16931    41402.763 
  924400    296.60181   -1452.1486    471.97731     350.4198   -99.359437    41402.763 
  924500    307.19953   -1504.9171    469.68254    342.89911   -62.038532    41402.763 
  924600    297.23488    -1454.905    464.24622    342.77229    241.52473    41402.763 
  924700    304.12799    -1447.884     487.1302     403.6006    681.12271    41402.763 
  924800    311.40994   -1454.9028    498.92631    441.04565    408.68321    41402.763 
  924900    293.49251   -1429.7317    475.95277    362.86344    780.43467    41402.763 
  925000    301.92494   -1445.6962    520.23472    429.00979    717.81883    41402.763 
  925100    299.34731    -1429.459     469.7544     383.2031    556.46951    41402.763 
  925200    294.99514   -1467.4316    483.67164    339.62336   -305.38621    41402.763 
  925300    295.62132   -1448.3871    452.96932    330.77473   -342.65844    41402.763 
  925400    302.53621    -1448.678    514.09347    422.62899   -171.09528    41402.763 
  925500    308.73679   -1510.3625     451.0489    325.71642   -127.50718    41402.763 
  925600    311.78887   -1436.3847    501.26189    463.59918   -49.638874    41402.763 
  925700    293.10852   -1477.9101    463.71526    300.72492   -260.17912    41402.763 
  925800    291.96128   -1456.8218    481.49451    334.44578   -221.33759    41402.763 
  925900    299.84662   -1465.1665     489.0018      368.983    127.30174    41402.763 
  926000    299.52221   -1456.5664    484.63947    371.76541  -0.54493089    41402.763 
  926100    312.77813   -1463.4635    473.93543    413.63191    -155.7068    41402.763 
  926200    297.21258     -1472.57    469.97375    330.73479    301.48252    41402.763 
  926300    307.18815     -1460.51    506.68845    424.26109   -8.0971757    41402.763 
  926400    300.86314   -1451.6435     492.7265    390.79092   -278.80522    41402.763 
  926500     305.4121   -1440.6883    493.42674    422.85356    13.658121    41402.763 
  926600    305.80168   -1447.9451    516.97596    440.89366   -3.2991554    41402.763 
  926700    306.35636   -1449.2005    486.77694    411.92755   -54.869686    41402.763 
  926800    298.76199   -1473.9533    473.96103    340.28962    578.52329    41402.763 
  926900    296.57866   -1476.7958    494.43335    348.12473    362.14736    41402.763 
  927000    314.32956   -1516.5497     475.1166    368.68674   -3.9058704    41402.763 
  927100    296.33906   -1502.7801     477.0685     303.7007   -19.479408    41402.763 
  927200    307.55214   -1474.6707    492.26217    397.30703   -177.22931    41402.763 
  927300     294.2633   -1488.2319    452.83467    284.70299   -325.31305    41402.763 
  927400    297.94222   -1462.6178    496.13197    370.11843   -107.83461    41402.763 
  927500     296.5143   -1472.3979    466.79408    324.59465   -104.29965    41402.763 
  927600    299.03209   -1526.9912    468.18083    282.68318   -314.36685    41402.763 
  927700    302.17384   -1474.2519    460.96099     342.2969   -597.21135    41402.763 
  927800    308.47324   -1495.4298    479.48363    367.90158   -684.71531    41402.763 
  927900    302.65839    -1487.834    471.04895    340.97652   -291.83767    41402.763 
  928000    300.44822   -1516.0132    507.01274    338.84604   -544.14093    41402.763 
  928100    298.46826   -1533.5691    457.38119    262.77629    399.13862    41402.763 
  928200    311.72244   -1478.3977     466.4605    386.48679    311.66566    41402.763 
  928300    301.56332   -1477.3366    494.89438    370.40676    559.47318    41402.763 
  928400    304.33045   -1462.6785    473.46063    376.04475    353.53777    41402.763 
  928500    292.23582   -1442.7314    500.27541    368.54868    180.21466    41402.763 
  928600    311.80771   -1489.2533    474.30077    383.85406    88.074651    41402.763 
  928700    306.03733   -1466.0307    467.45324    374.34252     173.5683    41402.763 
  928800    301.54359   -1509.2773    459.59272    303.07588   -196.10514    41402.763 
  928900    296.95329    -1478.961    479.50228    332.70916    -20.89996    41402.763 
  929000    294.35319   -1468.5559    484.07166    336.01922   -537.85786    41402.763 
  929100    291.83939   -1468.9377    486.75766    327.04624   -221.94486    41402.763 
  929200    307.23047   -1481.9379    498.35361    394.68824   -14.528779    41402.763 
  929300    299.45089   -1474.5293    469.90681    338.74985   -186.22415    41402.763 
  929400    296.13257   -1449.7689    490.29766    369.01476   -118.49406    41402.763 
  929500    295.13653   -1469.0984    483.94195    338.86113   -190.30159    41402.763 
  929600     301.6805   -1433.7892    484.32268    403.90816   -228.33787    41402.763 
  929700    306.46923   -1460.7086    477.65207    391.80094    504.96167    41402.763 
  929800     288.3282   -1459.5278    478.56699    312.51379   -126.49637    41402.763 
  929900    300.69674   -1450.9993    473.85068    371.81281   -345.48218    41402.763 
  930000    319.40525   -1457.1553    443.52665    419.26135   -60.348757    41402.763 
  930100    297.74309   -1473.8885     478.7947    340.61716    133.32679    41402.763 
  930200    295.01845   -1452.0706    474.91191    346.32927   -31.946311    41402.763 
  930300    302.64286   -1478.0094    490.59665    370.27919    122.00584    41402.763 
  930400    295.16895   -1487.7733    461.71347    298.10321    -334.9945    41402.763 
  930500     290.5088   -1488.8672    465.70796    280.09787    60.469587    41402.763 
  930600    300.57779   -1486.1629    462.06343    324.32835    173.48715    41402.763 
  930700    293.84444   -1510.1314    465.12515    273.21488   -66.101684    41402.763 
  930800    306.56252   -1501.1158    464.25542    338.41561    461.55892    41402.763 
  930900    304.27811   -1475.0611    447.88124    337.84794    346.79084    41402.763 
  931000    293.95929   -1458.6043    458.66194    318.79407     76.74203    41402.763 
  931100    307.13619   -1494.2473      469.341    352.94324   -377.10429    41402.763 
  931200    303.07122    -1470.697     454.4631    343.37974     270.0853    41402.763 
  931300    304.12973   -1476.4623    473.11463    361.01459   -201.44724    41402.763 
  931400    292.55155   -1469.6884    460.06063    302.79328    269.42791    41402.763 
  931500    303.07828   -1499.8393    475.00526    334.81118    268.96751    41402.763 
  931600    294.42819   -1486.1278    458.80842    293.52055      103.282    41402.763 
  931700    298.59126   -1481.4736    497.02305    355.06545    89.833673    41402.763 
  931800    301.05025   -1466.4252    474.36964    358.49168    268.18496    41402.763 
  931900    305.75714   -1455.2734    461.92392    378.31343    181.67671    41402.763 
  932000    310.99543   -1447.4061    453.55326     401.3097    -77.32288    41402.763 
  932100     300.0897     -1422.49    456.00311    379.75127    488.39329    41402.763 
  932200    297.64095   -1491.2786    445.29126    289.26539   -102.02616    41402.763 
  932300    321.74943   -1460.3749    473.99313    457.02449    990.37287    41402.763 
  932400    295.80512   -1478.0574    459.74974    308.70933    363.31447    41402.763 
  932500     295.2469   -1490.0108    455.88856    290.39053    454.15564    41402.763 
  932600    292.68037    -1485.423    469.97939     297.5554    440.50147    41402.763 
  932700    296.53139   -1516.5683    474.67022    288.37708    392.13669    41402.763 
  932800    289.56143    -1428.557    475.42585    345.87592    302.75643    41402.763 
  932900    298.80362   -1424.0043    473.57189    390.03619   -420.79067    41402.763 
  933000    301.60745   -1466.0514    439.93253    326.92808   -124.33663    41402.763 
  933100    293.19013   -1430.8699    467.65654    352.07249   -430.15747    41402.763 
  933200    303.46843   -1463.1274    459.55691    357.82499    183.27909    41402.763 
  933300    300.46671   -1474.7402    440.91351    314.10278    394.44677    41402.763 
  933400    308.19445   -1480.8051    458.90988    360.70183    436.73433    41402.763 
  933500      300.147   -1440.3566    479.96208    386.10065    314.84114    41402.763 
  933600    298.69637     -1462.46    457.51451    335.04198    272.18924    41402.763 
  933700    304.68931   -1470.2891    476.76044    373.34385   -63.351785    41402.763 
  933800    305.21564   -1500.6606    467.55025    336.12339    127.43016    41402.763 
  933900    301.36519   -1479.2592    459.58803    332.28897   -332.33015    41402.763 
  934000    290.35855   -1490.0633    471.81914     284.3389   -847.25875    41402.763 
  934100    301.26896   -1436.2996    480.96281    396.19168   -346.09161    41402.763 
  934200    306.30519   -1435.1348    483.81889    422.80568   -327.23116    41402.763 
  934300    305.62589   -1413.2439    466.43135    424.26164   -66.699332    41402.763 
  934400     297.3461   -1446.5438    502.31086    389.69708   -26.889792    41402.763 
  934500    287.22355   -1424.8103    486.04326    349.75198   -215.29863    41402.763 
  934600    302.65756   -1442.3485     467.9326    383.34195   -49.407058    41402.763 
  934700    291.67077   -1468.9468    477.31511    316.83816    320.68743    41402.763 
  934800    287.86836   -1457.9756    482.74663    316.18283    306.24634    41402.763 
  934900    296.25797   -1473.6848    475.66731    331.03112    360.63452    41402.763 
  935000    303.91744    -1475.612    476.38061    364.17844    115.03738    41402.763 
  935100     296.1637   -1463.0583    487.48167    353.04902    714.26408    41402.763 
  935200    317.56797   -1486.3591    463.52514    401.81376    391.36132    41402.763 
  935300    297.90391   -1493.5114    444.30078    287.22183    196.27129    41402.763 
  935400    291.37408   -1524.1356    454.31074    237.31392    519.98811    41402.763 
  935500    299.78999     -1535.53    461.45553    270.81915   -143.40074    41402.763 
  935600    302.84509   -1502.0731    464.79799    321.32411   -10.385517    41402.763 
  935700    297.13699   -1570.4539    447.24877    209.78677   -647.30204    41402.763 
  935800     299.1949   -1530.4217    471.33707    283.13931   -556.62457    41402.763 
  935900    289.25475    -1511.459    444.26033    230.43257   -131.06408    41402.763 
  936000    294.93008   -1522.5526    466.93839     267.4773   -255.84835    41402.763 
  936100    300.33575   -1522.6023    462.30513    287.04476     141.9535    41402.763 
  936200    303.15478   -1559.4537    455.27493    255.80967     294.6822    41402.763 
  936300    300.01589   -1534.0193    471.30395    283.19165     49.04581    41402.763 
  936400    303.67843   -1539.0047    452.28379    275.61666   -208.97228    41402.763 
  936500    296.02145   -1496.0221    452.64493     284.6103   -92.101292    41402.763 
  936600    298.59604    -1531.275    475.81386    284.07623    -114.5751    41402.763 
  936700    297.03754   -1570.6234    461.35449     223.2769   -242.96609    41402.763 
  936800    294.18178   -1539.2163     472.0229    252.54104    72.289385    41402.763 
  936900    308.29592   -1527.0237    464.59774     320.6263      118.243    41402.763 
  937000    308.82315   -1523.6737    466.63471     328.3785    278.96129    41402.763 
  937100    303.17139   -1533.1398    457.66291    284.58607    438.57638    41402.763 
  937200    293.61824     -1540.45    459.60003    236.35647   -94.813761    41402.763 
  937300    302.76126   -1521.3116    473.92013    310.83159   -173.83301    41402.763 
  937400    293.05762   -1516.2025    470.43143    268.92032    76.828264    41402.763 
  937500    294.77774   -1543.0414    450.06769    229.43432    -198.0285    41402.763 
  937600    296.05339   -1551.3865     482.5017    259.24593    448.21275    41402.763 
  937700    297.50395   -1485.8819    478.20891    326.96513    790.56426    41402.763 
  937800    294.65535   -1499.2142    463.13002    285.77484    276.47505    41402.763 
  937900    295.25634   -1496.5053    491.29964    319.34948    134.30679    41402.763 
  938000    290.23659   -1535.7763    467.44963     233.7092    54.392383    41402.763 
  938100    286.77256   -1528.1236    459.58041    217.95261    361.93579    41402.763 
  938200    308.24709   -1504.7833    484.53912    362.58902     375.4992    41402.763 
  938300    287.43472    -1507.589     479.5967     261.4741   -418.35711    41402.763 
  938400     305.5596   -1460.9362    465.33973    375.18028   -448.36414    41402.763 
  938500    299.56868   -1510.9351    439.82881    272.79449   -118.57763    41402.763 
  938600    294.57513   -1476.8554    479.46904    324.11272    109.39223    41402.763 
  938700    305.10358   -1488.9398    489.43614    369.22732    576.30892    41402.763 
  938800    306.40544   -1495.8177    479.44138    358.19505    703.80066    41402.763 
  938900    312.88115   -1527.1425    481.73656    358.21618    930.91799    41402.763 
  939000    293.09803   -1530.8979     466.1201    250.09487    499.15339    41402.763 
  939100    297.71811   -1549.1212    453.25905    239.73673    525.60403    41402.763 
  939200     308.8757   -1557.6987    462.57178    290.52629    250.89858    41402.763 
  939300    287.05233   -1536.8497    465.46198    216.36317    445.63987    41402.763 
  939400    302.97929   -1520.4774    484.55342    323.27724     291.8047    41402.763 
  939500    308.56244   -1519.6162    459.04866    323.68032     520.8164    41402.763 
  939600    310.70336    -1531.783    470.33309    332.40237    145.03263    41402.763 
  939700    301.65585   -1542.1204    454.85911    266.00278    364.86155    41402.763 
  939800    301.35221   -1545.7992    459.31841     265.4211    194.72675    41402.763 
  939900    296.61729   -1510.0525    489.69941    310.30739   -69.748357    41402.763 
  940000    307.90921   -1534.8585    438.82723    285.28611   -199.66104    41402.763 
  940100    300.01361   -1484.9196    455.51742    316.49465   -21.548797    41402.763 
  940200    288.82201   -1476.4171    487.96123    307.23407   -95.621893    41402.763 
  940300    292.43327   -1491.0717    476.84889     297.6677    345.16105    41402.763 
  940400    306.18898   -1455.1214     497.0799    415.55878    694.33229    41402.763 
  940500      301.501   -1456.9672    459.20369    354.80587    43.998225    41402.763 
  940600    303.09354   -1539.3988    465.73775    286.05264    377.51823    41402.763 
  940700    307.01862   -1497.6622    459.83915    339.49908    251.19231    41402.763 
  940800    301.09283   -1496.0555    457.89425    312.57709   -402.34665    41402.763 
  940900    294.58569   -1453.8201    474.96296    342.68933   -555.81535    41402.763 
  941000    301.56623   -1422.2003    460.92344    391.58515   -98.285924    41402.763 
  941100    297.55355   -1453.9631    479.89847      360.796   -401.43594    41402.763 
  941200    309.02618   -1463.8345    471.89953    394.39324    311.31489    41402.763 
  941300    305.34871   -1476.3082    486.25998    379.78248   -471.82858    41402.763 
  941400      305.305   -1490.3004    468.37394    347.70812   -255.03962    41402.763 
  941500    296.23677   -1451.7062    467.12821    344.37544   -669.19448    41402.763 
  941600     303.6089   -1469.2424    465.19549     357.9788   -236.53186    41402.763 
  941700    309.91731   -1422.7748    432.51556    400.06672   -336.11913    41402.763 
  941800    307.13788   -1410.8303    440.78216    407.80893   -175.49675    41402.763 
  941900    302.42485   -1397.7708    475.06175    434.00488    -613.3888    41402.763 
  942000    299.68795   -1417.2909    478.20527    405.35027    -197.8886    41402.763 
  942100    314.97092   -1427.5513    474.01112    459.45687    569.37282    41402.763 
  942200    298.35216   -1437.8063    474.07293    374.70992    342.09488    41402.763 
  942300    296.55447   -1417.9331    504.13742    416.58303    594.99439    41402.763 
  942400    288.35857   -1432.3187    477.16402    338.45618    412.66076    41402.763 
  942500    298.01713   -1459.2365    476.57772    354.28159    159.19656    41402.763 
  942600    286.57464   -1491.3816    454.32204    248.54841    362.30733    41402.763 
  942700    297.20058   -1486.6154    472.28617      318.948   -366.72666    41402.763 
  942800    291.37249   -1501.9843     488.1448    293.29224   -274.49003    41402.763 
  942900    298.98205   -1472.6453    463.28408    331.90788   -76.231329    41402.763 
  943000    291.53277   -1476.7825     457.2466    288.31486   -494.66999    41402.763 
  943100    309.64596   -1492.5398    455.28821    351.85707   -820.05738    41402.763 
  943200    294.00528   -1483.8291    459.87472    294.98833    -31.57345    41402.763 
  943300    306.94397    -1425.038    489.60268    441.55185   -4.6131851    41402.763 
  943400    294.18899   -1437.9773    486.79192    368.58145   -126.17591    41402.763 
  943500    308.08774   -1421.4367     467.3702    428.05183   -32.480031    41402.763 
  943600    299.91651    -1392.741    468.25336    420.97356   -130.90397    41402.763 
  943700    289.23064   -1396.1133     478.0742    379.48401   -65.708069    41402.763 
  943800     304.7632   -1379.5098    476.62094    464.31518   -392.69986    41402.763 
  943900    301.22994   -1382.2938    477.73299    446.79257   -423.67575    41402.763 
  944000    313.72203   -1408.8516    476.66637    475.20919   -476.40892    41402.763 
  944100     290.2426   -1428.5055    479.85061    353.40798   -728.11011    41402.763 
  944200    305.50217   -1414.5041    482.62509    438.64017   -197.25337    41402.763 
  944300    301.38208   -1406.2987    475.35481    421.09207   -245.25104    41402.763 
  944400    291.51414   -1423.7269    476.15869    360.19896    43.901982    41402.763 
  944500    293.39137   -1446.6878    480.96997    350.47087    4.9705009    41402.763 
  944600    303.98426   -1451.0529    483.52752    396.18425    176.80244    41402.763 
  944700    291.41207   -1470.1479    442.90128    280.06262   -76.245674    41402.763 
  944800    292.50304   -1457.2795    487.91422    342.83814    289.30993    41402.763 
  944900    300.39307    -1466.187    466.01891    347.43107     738.0087    41402.763 
  945000    298.16716   -1507.3123    500.33594    330.63706    875.26354    41402.763 
  945100    304.01869   -1454.8822    473.14389    382.12579    703.85564    41402.763 
  945200    288.93234   -1443.0292     469.9284    323.08415   -149.50139    41402.763 
  945300    296.48094   -1467.8333    465.43069    327.64624   -15.962142    41402.763 
  945400     298.5637   -1422.2135    475.28644    392.46524    61.114691    41402.763 
  945500    299.67954   -1513.3756    456.73899    287.76145    355.02213    41402.763 
  945600    304.45642   -1505.9936     474.8816    334.71572    534.56542    41402.763 
  945700    302.91672   -1473.3911    480.90689    366.43631    666.95665    41402.763 
  945800    309.31889   -1442.8192    484.87687    429.69904   -236.15458    41402.763 
  945900    292.89282    -1440.912    477.64665    350.68675   -218.00078    41402.763 
  946000    286.21584   -1426.2552    491.91687    349.66002     103.6786    41402.763 
  946100    307.84812   -1440.9331    481.76619     421.8764    468.39727    41402.763 
  946200    293.96089   -1434.6787    482.55344    366.61827    149.65115    41402.763 
  946300    307.31069   -1422.5561     463.3798    419.45609    385.02235    41402.763 
  946400    296.86472   -1390.1345    482.33457    423.97053     2.785004    41402.763 
  946500    299.29292   -1429.9509    473.09292     385.8057   -648.82028    41402.763 
  946600    299.03731   -1384.8822    485.55259    442.18741   -361.19783    41402.763 
  946700    286.09563   -1452.9585    499.32464    329.82522   -220.79326    41402.763 
  946800    303.51556   -1469.5486     481.5019    373.56028   -283.20959    41402.763 
  946900    304.57643   -1465.0482    469.39301     370.7109    80.511258    41402.763 
  947000    306.71942   -1468.4422    483.90652    391.44421   -211.97387    41402.763 
  947100    297.49402   -1471.3602    478.62819    341.86158   -100.58085    41402.763 
  947200    303.72042   -1471.0008    490.67456    382.19974   -310.54097    41402.763 
  947300    303.24597   -1458.1036    486.43154     388.7255   -182.97399    41402.763 
  947400    290.64724   -1466.9926    476.12593    313.01146   -301.38318    41402.763 
  947500    299.28617   -1446.8071    462.88287    358.70913   -539.33931    41402.763 
  947600    291.15608   -1463.1546    494.72146    337.72776   -317.11042    41402.763 
  947700    300.91958   -1459.7773    471.06239    361.24615   -148.88217    41402.763 
  947800    297.12177   -1451.8563    483.19126     364.2586    61.870673    41402.763 
  947900    293.89263   -1449.3973    489.48503    358.52512    189.33142    41402.763 
  948000    299.62512    -1509.346    451.49414    286.30211   -692.26321    41402.763 
  948100    294.16905   -1485.8272    486.92481    320.77498    173.88609    41402.763 
  948200    301.36063   -1492.6323    457.93773    317.24514   -261.01076    41402.763 
  948300    290.84144   -1465.8698    474.99262    313.87214   -554.64772    41402.763 
  948400    304.06514   -1525.4136    470.79634    309.45517   -685.20467    41402.763 
  948500    302.45726   -1550.7092    451.63033    257.78044   -25.399122    41402.763 
  948600    306.45918   -1504.6368     462.6245    332.80007    18.800069    41402.763 
  948700    297.97029   -1460.9579     486.7871     362.5594    1.4219509    41402.763 
  948800    299.80121   -1425.6948    478.22075    397.46984    437.68061    41402.763 
  948900    293.94731   -1455.3937    482.09169     345.3806     144.2713    41402.763 
  949000    298.02563   -1463.9902    494.80833    367.79659    166.14963    41402.763 
  949100    294.93758   -1501.4287    467.35113    289.04752    459.23656    41402.763 
  949200     314.3657   -1478.1707    440.15851    372.26979   -391.03878    41402.763 
  949300    302.95569   -1480.9002    470.83336    349.02845   -12.581459    41402.763 
  949400    309.01149   -1482.0009    469.01481    373.27629   -113.47858    41402.763 
  949500    306.33374   -1517.1378    460.35844    317.47027    157.38483    41402.763 
  949600    302.80049   -1499.2278    455.67476    314.84606    64.666603    41402.763 
  949700    290.60418   -1498.5318    461.43793    266.59106   -296.73373    41402.763 
  949800    296.63558   -1487.9954    447.83316     290.5803    50.413724    41402.763 
  949900    304.71607   -1491.2584    481.31211    357.04634    403.96653    41402.763 
  950000    300.08994   -1493.8505    471.22472    323.61348    207.41662    41402.763 
  950100    300.89777    -1464.704    457.00578    342.16503    147.10755    41402.763 
  950200    305.33982   -1463.7869    463.37709    369.38104   -150.85491    41402.763 
  950300      303.096   -1462.6962    452.39577    349.42428    57.725022    41402.763 
  950400    289.36242   -1426.2021    463.47817    335.39041   -509.51259    41402.763 
  950500     302.2316   -1434.7733    486.01014    407.08378   -567.19755    41402.763 
  950600    297.88068   -1411.3167    487.14085     412.1524   -210.84754    41402.763 
  950700    310.19815   -1449.1386    475.96684    418.41409   -357.98867    41402.763 
  950800    298.32988   -1454.6767     480.7828    364.44947   -526.99707    41402.763 
  950900    298.97718   -1406.4061    467.17274     402.0139    -222.7954    41402.763 
  951000    292.87136   -1423.6756    470.61751    360.79774   -193.29442    41402.763 
  951100    300.81657   -1400.1077    472.95688    422.34818    -109.5135    41402.763 
  951200    300.70689   -1442.7048     488.6574    394.95957   -210.51544    41402.763 
  951300    305.27294   -1442.3528    457.49611    384.63406    753.00015    41402.763 
  951400    298.97616   -1509.8956    482.40338    313.75048    432.17736    41402.763 
  951500    289.96576   -1488.9976    468.98664    280.81001      316.143    41402.763 
  951600    309.31721   -1497.8366    480.40552    370.20282    327.24435    41402.763 
  951700    294.28268   -1410.1942     475.5206     385.5136    79.693834    41402.763 
  951800    301.52536   -1411.9985    453.51249     394.1927   -243.43018    41402.763 
  951900    307.50754   -1480.7626    447.14295    345.89578   -283.80602    41402.763 
  952000    289.35192   -1459.8923    463.70029    301.87513   -367.69095    41402.763 
  952100     289.3793   -1456.1524    445.65579    287.69336   -430.60938    41402.763 
  952200    302.49329   -1492.3832    431.32464    295.96238   -68.599906    41402.763 
  952300    293.84489   -1464.8078    469.57779     322.9932    -73.26462    41402.763 
  952400    300.84727   -1501.6746    446.53146    294.49354   -269.69319    41402.763 
  952500    291.16221   -1517.4294    460.93191    249.69092   -757.79927    41402.763 
  952600    307.92502   -1479.2266    462.13503    364.29677      -683.02    41402.763 
  952700    303.87224   -1464.5379    462.30652    360.97568   -1022.8645    41402.763 
  952800    300.54503   -1464.6471    488.37562     372.0093   -299.29659    41402.763 
  952900    295.76885   -1453.4759    492.32672    365.70507   -319.13732    41402.763 
  953000    295.19439   -1443.2342    462.29296      343.336   -58.521409    41402.763 
  953100    306.32775    -1419.789    489.84172    444.27549    193.83929    41402.763 
  953200     305.7803   -1423.0666    467.47879    416.17899    222.94431    41402.763 
  953300    312.67806   -1451.6045    465.27778    416.38428    844.36252    41402.763 
  953400    295.88861   -1449.6201    457.23969    335.01117    728.47772    41402.763 
  953500    301.02214   -1466.3664    462.44588     346.5007    926.78455    41402.763 
  953600    298.56158   -1438.4819    468.26588    369.16682    586.43947    41402.763 
  953700    303.23702   -1448.3342    465.14822    377.17144    636.70647    41402.763 
  953800    299.56818    -1455.546    475.54944      363.902    228.14023    41402.763 
  953900    296.92358   -1492.6531     471.9643    311.34571    -439.0191    41402.763 
  954000    294.37497   -1512.1714    470.10219    278.53194    45.323094    41402.763 
  954100    310.14743   -1473.1165    453.88848    372.13028   -286.46268    41402.763 
  954200     300.5407   -1402.7583    479.92974    425.43284   -2.8670608    41402.763 
  954300    297.11415   -1465.9776    472.57346    339.48531   -123.68978    41402.763 
  954400    298.57618   -1469.6558    482.13608    351.92858   -170.42635    41402.763 
  954500     297.3257   -1440.9043    462.74385    355.67809   -426.75371    41402.763 
  954600    307.04966   -1461.8565    481.40511    397.00991   -360.42501    41402.763 
  954700    294.00631   -1447.1883    462.80023    334.55924    11.923171    41402.763 
  954800    294.88413   -1477.4501    445.41754    290.85272   -20.688729    41402.763 
  954900    299.34952   -1475.1811    465.08149    332.81797    3.6997553    41402.763 
  955000    305.36658   -1491.9229    471.64905    349.63698    658.84665    41402.763 
  955100    302.40372   -1539.9781    459.55458    276.19557    332.92418    41402.763 
  955200    299.83642   -1488.6371    480.85926    337.32409     308.0417    41402.763 
  955300    298.11541   -1440.6652    467.44328     364.1593   -230.43996    41402.763 
  955400    297.96741   -1483.5685    457.83561    310.98439    412.86931    41402.763 
  955500    299.86278   -1472.6239    464.20838    336.80461   -75.913293    41402.763 
  955600    298.72441   -1456.2455    457.16377    341.03159   -20.563844    41402.763 
  955700     303.5119   -1447.8452    450.05166    363.79703   -131.91517    41402.763 
  955800     301.7123   -1428.3683    469.85278    395.00186    79.644261    41402.763 
  955900    299.00881   -1420.5484    502.10297    422.94368   -72.681604    41402.763 
  956000    291.92732   -1454.5533    459.59519    314.66266     112.9438    41402.763 
  956100    295.03123   -1450.2018    481.85313     355.1966    92.192908    41402.763 
  956200    296.76174   -1473.8961    485.52333     342.9358   -246.98696    41402.763 
  956300    295.36836   -1472.2786     464.0254    316.80444   -25.496596    41402.763 
  956400    299.09012   -1430.2126      486.765    398.30627   -236.15133    41402.763 
  956500    301.61254   -1426.7547    457.39486    383.70989    29.943841    41402.763 
  956600    300.25331   -1438.1137    478.08897    386.94737    28.636351    41402.763 
  956700    293.06546   -1424.7836    475.86552    365.80848   -682.63583    41402.763 
  956800    296.65907   -1428.0107     460.6063    363.44349   -573.59214    41402.763 
  956900    295.89661   -1455.0082    473.98576    346.40504   -248.46975    41402.763 
  957000     301.7745    -1451.076    457.97465    360.69498   -216.87708    41402.763 
  957100     306.9627   -1470.2479    485.66692    392.49028   -585.00479    41402.763 
  957200    299.77697   -1450.6838    450.58648    344.73793   -379.64635    41402.763 
  957300    298.51456   -1462.6442    462.84309    339.37078   -45.770561    41402.763 
  957400     292.3922   -1449.9964    489.33633    351.04612   -444.97675    41402.763 
  957500     309.5166   -1463.5677    455.26239    380.22307   -422.16099    41402.763 
  957600    295.54624   -1436.8641    468.11145    357.10302    584.46759    41402.763 
  957700    302.87038   -1498.0333    471.44124    332.12055    347.22481    41402.763 
  957800    303.55984   -1512.4933    453.82693    303.13921    606.76223    41402.763 
  957900    295.78626   -1467.5267    455.58834    314.99407    303.40974    41402.763 
  958000    303.90603   -1497.1715    513.40619     379.5934    82.801662    41402.763 
  958100    290.62043   -1505.5954    491.03451    289.19693    193.15584    41402.763 
  958200    297.89197   -1453.9402    474.35026    356.78892    61.186803    41402.763 
  958300    294.47872   -1461.9445    472.23023    331.35238   -432.90134    41402.763 
  958400     302.4829   -1468.3279    468.71928    357.36573   -543.56712    41402.763 
  958500    307.02401    -1469.286    469.50563    377.56593   -573.45649    41402.763 
  958600    295.63815   -1476.6229    480.29265    329.93773   -354.96877    41402.763 
  958700    301.06578   -1437.6264    466.28729    379.27785   -230.01245    41402.763 
  958800    291.16388   -1461.5468    488.51649    333.16556   -271.06542    41402.763 
  958900    308.50509   -1495.2077     473.8717    362.65462    228.91725    41402.763 
  959000    294.65837    -1479.924    475.55986    317.50843    152.60973    41402.763 
  959100    304.91442   -1445.0209    464.52458    387.38609    715.13106    41402.763 
  959200    312.55902   -1443.0332    454.14081    413.28465    64.131356    41402.763 
  959300    285.45079   -1434.5361    489.27202     335.3022   -256.40978    41402.763 
  959400       304.63   -1414.2934    465.84526    418.15835   -88.491378    41402.763 
  959500    292.13935   -1497.5112    472.80262    285.86332   -68.825439    41402.763 
  959600    302.14395   -1454.5379    492.50638    393.42221    302.84365    41402.763 
  959700    299.87314   -1476.7928    494.63243    363.10631    41.527129    41402.763 
  959800    295.70619   -1488.7766    476.64721    314.44378   -177.63601    41402.763 
  959900    291.10813   -1496.0437    495.87733     305.7794    673.73872    41402.763 
  960000    296.91318   -1458.2603    488.76277    362.49037    249.48516    41402.763 
  960100    292.65339   -1496.1642    474.03913    290.75284    608.51006    41402.763 
  960200      301.724   -1479.2782    488.74523    363.03678    772.93641    41402.763 
  960300    309.01872   -1475.1993    486.98698    398.08241    314.15312    41402.763 
  960400     287.3585   -1453.1543    456.64492     292.6151   -149.50749    41402.763 
  960500    295.54844   -1463.9276    484.11956    346.05743   -191.87621    41402.763 
  960600    303.00737   -1472.7854    493.31711    379.85891   -272.84994    41402.763 
  960700    297.56033    -1503.897    477.02361    308.01767    198.11928    41402.763 
  960800     294.7595   -1471.6586    472.65488    323.32255     130.0776    41402.763 
  960900    294.56705   -1466.3195    494.01869    349.16205    229.17777    41402.763 
  961000    303.36804   -1462.2032    475.17525    373.91717    106.59082    41402.763 
  961100    293.85181   -1467.5578    473.95264    324.64906    42.244408    41402.763 
  961200    302.55409   -1460.5042    477.70263    374.49213    153.34007    41402.763 
  961300    294.68673   -1486.2983     471.5405      307.242    106.59072    41402.763 
  961400    299.77374   -1474.6465    472.35994    342.53416    44.479152    41402.763 
  961500     309.1635   -1475.4721    461.66358    373.13582   -98.072663    41402.763 
  961600    290.42502   -1467.8311    452.10049    287.15065   -542.84211    41402.763 
  961700    296.00801    -1486.777    475.68813    316.83832   -865.02462    41402.763 
  961800    290.89003   -1481.8104    474.14703    297.30392   -279.69726    41402.763 
  961900    294.50828    -1489.413    478.12272    309.90889    56.296858    41402.763 
  962000    289.37759   -1483.3578    489.73537    304.55993    576.17292    41402.763 
  962100    291.63704   -1500.2329    469.50534    277.59097    428.27756    41402.763 
  962200    303.07734   -1496.4632    461.41659    324.59442    596.66228    41402.763 
  962300    291.88883   -1499.3942    486.66002    296.71391    666.96814    41402.763 
  962400     308.3629   -1459.2508    469.51893    393.62087    568.10322    41402.763 
  962500    292.30293   -1470.8848    499.41188    339.83285   -374.30808    41402.763 
  962600    293.03424   -1441.4426    461.41288    334.55671    94.692894    41402.763 
  962700    293.73774   -1425.5891     494.5317    386.68509     307.9639    41402.763 
  962800    311.03618   -1398.0827    500.78743     498.0501    505.48111    41402.763 
  962900    319.04424   -1448.8936    457.91218    440.28902    144.00419    41402.763 
  963000    303.67645   -1475.8776    484.39327    370.84442    574.59903    41402.763 
  963100    302.69099   -1428.1211      474.376    404.16271    498.11605    41402.763 
  963200    297.11045   -1456.6621    477.00053    353.21133    339.18773    41402.763 
  963300    309.81857   -1437.9898    485.09699    436.99024    273.71386    41402.763 
  963400     301.8922   -1450.4548    453.36566    357.23522   -269.10901    41402.763 
  963500    298.89854   -1452.2215    494.16447    382.83744    108.01184    41402.763 
  963600    296.40298   -1438.3848    495.31619    386.63043   -480.74279    41402.763 
  963700     293.1124   -1472.0845    478.54446    321.39716   -79.484416    41402.763 
  963800    289.52511   -1457.4588    467.20048    308.58578    108.04906    41402.763 
  963900    305.59436   -1490.6323    485.91526    366.21563   -340.97774    41402.763 
  964000    291.45484   -1462.3576    460.55681    305.70038   -506.07407    41402.763 
  964100    293.26927   -1436.9343     480.6616    359.36824   -77.279004    41402.763 
  964200    298.67611   -1407.6128    489.16264    421.44648    22.420148    41402.763 
  964300    280.48707   -1425.4492    471.46823    304.31742   -294.89508    41402.763 
  964400     296.6963   -1466.3563    502.05694    366.71553    -160.4528    41402.763 
  964500    302.05118   -1440.9251    479.35998    393.47248   -43.771626    41402.763 
  964600    300.87656   -1472.0631    469.53148    347.23648   -145.98027    41402.763 
  964700    293.21795   -1450.6926    469.64445    334.36256    1.1648748    41402.763 
  964800    307.72452   -1426.2863    491.03215    445.23473    -532.2842    41402.763 
  964900    301.45716   -1419.9347    493.57354    426.01152   -15.474468    41402.763 
  965000    290.59377   -1422.4973    498.31506    379.45601   -425.12502    41402.763 
  965100    296.71955   -1427.1825    481.19802    385.13476   -217.86408    41402.763 
  965200    293.53318   -1403.7867    478.84827    391.88636   -903.55296    41402.763 
  965300    298.40917   -1407.3712    461.58333     392.9112   -623.66722    41402.763 
  965400    298.62721   -1421.5252    461.34181    379.49382    -267.6094    41402.763 
  965500    313.02004   -1405.3813    486.02984    484.89371   -22.421403    41402.763 
  965600     308.5807   -1444.8526    521.64151    461.11865    -65.99469    41402.763 
  965700    299.40318   -1422.0393    473.12419    394.24324    29.531753    41402.763 
  965800    303.29929   -1464.7156    471.37127    367.29243   -204.63991    41402.763 
  965900      293.916    -1506.476     463.3383    275.40449   -270.87168    41402.763 
  966000    313.25039   -1502.0735     477.4508    380.65586     144.8688    41402.763 
  966100    295.92609   -1540.0271    439.65868    227.19129    197.78497    41402.763 
  966200    307.42354   -1498.9046    458.21727    338.45125   -114.80515    41402.763 
  966300    296.24979    -1492.397    485.95557    322.57043    131.25674    41402.763 
  966400    299.53751   -1538.9662    471.01613     275.8109    754.10163    41402.763 
  966500    307.08428    -1536.335    465.73554    307.01725    429.59306    41402.763 
  966600    299.98063   -1518.4192    455.28259    282.61219    217.32791    41402.763 
  966700    306.67925   -1510.5349    456.18224    321.44695    86.168192    41402.763 
  966800    293.24457   -1503.8038    456.15411    267.88038   -315.41251    41402.763 
  966900    296.25301    -1446.013    475.51447    358.52774    358.97499    41402.763 
  967000    308.07964   -1465.7989    488.80899    405.09203    199.45288    41402.763 
  967100    306.56423   -1497.2009    465.29044    343.37324    206.33346    41402.763 
  967200    301.79623   -1484.2374    493.38033     363.0368    659.08053    41402.763 
  967300    302.33257   -1513.1314    477.28889    320.45735    386.20575    41402.763 
  967400    294.23831   -1452.9519    476.38598    343.42213    272.29253    41402.763 
  967500    298.18936   -1498.8123    486.91533    325.81605     442.7043    41402.763 
  967600    297.53436   -1485.5745     467.2499    316.44994    210.91573    41402.763 
  967700    298.20323   -1488.5883    468.41287    317.59976   -277.32249    41402.763 
  967800     302.2733   -1456.4582    496.60897    396.18482    -53.25829    41402.763 
  967900    302.74596   -1496.7421    450.46907    311.88137   -230.66921    41402.763 
  968000    309.88149   -1533.7349    432.52693    288.95735   -676.85615    41402.763 
  968100    296.31347   -1528.5591    448.64213    249.38058   -674.33179    41402.763 
  968200    297.03671   -1532.3671    479.25511    279.43008    -306.8977    41402.763 
  968300    293.76804   -1516.7631    463.29506    264.41035   -416.12544    41402.763 
  968400     301.1252   -1515.6428    481.08483    316.32552   -214.25497    41402.763 
  968500    292.26048   -1480.0754    449.89223    280.93221   -68.889202    41402.763 
  968600    296.74828   -1456.0791    473.38607    348.55509    505.03004    41402.763 
  968700    301.98163   -1495.0276    470.21544    329.91342    41.658098    41402.763 
  968800    297.90052   -1506.3426    449.91578    279.99037     616.0272    41402.763 
  968900    299.22447   -1476.2912    457.53251    323.59798    84.992198    41402.763 
  969000    299.57146   -1487.3985    497.41837    353.93315   -4.1929169    41402.763 
  969100    302.74063   -1528.3659    458.22718    287.99186    184.06767    41402.763 
  969200    305.07537   -1509.4907    480.77737     339.8911   -129.40766    41402.763 
  969300    302.26029   -1469.8688     455.0501    341.15691   -320.00908    41402.763 
  969400    298.12027   -1470.4798    487.89772    354.82093     90.77012    41402.763 
  969500    292.11702   -1427.7758    484.97996    367.67595   -8.3609163    41402.763 
  969600    293.74984   -1452.6595    467.33707     332.4743   -299.80785    41402.763 
  969700    304.73343   -1472.1713    465.31776     360.2169    89.119009    41402.763 
  969800    304.30283   -1503.4909    485.31095    346.95879    209.97871    41402.763 
  969900    309.70756   -1508.8709     484.2096    364.72369    247.51063    41402.763 
  970000    304.10042   -1477.7058    503.72433    390.24929   -201.71547    41402.763 
  970100    298.72837    -1487.101    461.68255     314.7126   -244.13232    41402.763 
  970200    296.77832   -1488.3349    480.06571    323.11373   -79.554494    41402.763 
  970300    287.16605   -1511.6168    456.19715     232.8414    25.444311    41402.763 
  970400    292.69924   -1512.3432    455.41493    256.15536    193.79675    41402.763 
  970500    302.24323   -1487.3221    479.79883    348.37591    539.62226    41402.763 
  970600    307.87571   -1499.0734    499.20009    381.29381    773.15989    41402.763 
  970700    310.48788   -1532.0943    485.36589    346.15723    377.92641    41402.763 
  970800    298.85644   -1471.6742    479.69782    348.72916     530.6919    41402.763 
  970900    310.08508   -1454.0859    480.06973    417.06245    312.42966    41402.763 
  971000    297.79172   -1413.2323    479.56892    402.26573    142.61918    41402.763 
  971100    309.79573   -1500.0069    454.53191    344.30559    306.25683    41402.763 
  971200    294.81696   -1510.9876    461.04922     272.6456    344.19061    41402.763 
  971300    303.16584   -1542.3763     455.6212      273.283    165.75393    41402.763 
  971400    308.21044   -1543.6904    468.66299     307.6413    319.65272    41402.763 
  971500    303.58002   -1463.1187    469.47657    368.25398    695.21477    41402.763 
  971600    298.56818   -1456.1536    491.99403     375.2528    452.34312    41402.763 
  971700    300.78152   -1445.3043    490.63669    394.67409    17.969483    41402.763 
  971800      294.379   -1499.8181    481.14326    301.94448    -127.7065    41402.763 
  971900    315.84846   -1535.2983    453.36726    335.00276    11.080754    41402.763 
  972000    294.97454   -1522.7215    459.82377    260.39317   -473.82063    41402.763 
  972100    297.82446   -1545.3681    476.43192    267.13985   -854.02705    41402.763 
  972200    303.70498   -1512.9273    463.69874     313.2282    -458.1164    41402.763 
  972300    299.91368   -1530.8709    462.11597    276.69353   -466.75457    41402.763 
  972400    290.74331   -1498.7798    465.20514    270.73446   -293.18267    41402.763 
  972500    298.74674     -1509.42     455.8508    286.64427   -64.136528    41402.763 
  972600    308.26537     -1511.21    469.40119    341.10633    94.015787    41402.763 
  972700    312.09159   -1510.3755    481.99955    371.70411    307.02945    41402.763 
  972800    296.60161   -1442.2862    455.23043    343.53433    423.54444    41402.763 
  972900    321.04316   -1464.5407    472.22901    447.92615    792.68778    41402.763 
  973000     298.2702   -1474.8917    484.18123    347.36516    587.68976    41402.763 
  973100    304.08071   -1470.4094    465.96339    359.69633    813.23749    41402.763 
  973200    293.25946   -1503.7373    488.97473    300.83433    386.87378    41402.763 
  973300    299.18393   -1481.6827    467.09967    327.59169    32.841262    41402.763 
  973400    300.53297   -1461.6542    480.98367    367.55614   -429.68698    41402.763 
  973500    300.82759   -1474.6926    493.61838    368.47416    90.083914    41402.763 
  973600    296.63353   -1492.7145    490.80258    328.82143   -249.35955    41402.763 
  973700    301.11919   -1492.7081    441.45536     299.6038    303.96986    41402.763 
  973800    300.91764   -1510.0814    472.13918    312.01019   -383.56824    41402.763 
  973900    287.08488   -1466.0655     462.9339    284.76538    33.037337    41402.763 
  974000    304.32297   -1428.4695    469.47944    406.23899   -782.58456    41402.763 
  974100    298.29972   -1451.6223    485.34685    371.93264   -474.20625    41402.763 
  974200    292.12656   -1415.1532    480.31501    375.67633    -388.1788    41402.763 
  974300    288.61766    -1440.874    477.99728    331.89642   -71.192511    41402.763 
  974400    306.04965   -1485.3267    470.99539    358.64388    29.285139    41402.763 
  974500    299.82005   -1429.0668     462.7612    378.72289   -99.732443    41402.763 
  974600    311.12439   -1436.5588    480.83754     440.0198    195.65416    41402.763 
  974700    305.39085   -1467.1036    453.31914    356.23524    32.463671    41402.763 
  974800    299.47289   -1421.3644    471.12463    393.23127    208.78068    41402.763 
  974900    304.38305   -1477.2326    476.86289    365.12891   -123.74582    41402.763 
  975000    287.06428   -1462.6181    448.03395    273.22047   -548.11276    41402.763 
  975100    301.29647   -1483.9443    445.87083     313.5784   -582.98722    41402.763 
  975200      296.843    -1473.824    457.17617    315.02522    -284.5698    41402.763 
  975300     294.9519   -1468.7572    465.97356    320.40575   -27.677913    41402.763 
  975400    305.36507   -1470.3331     471.2004    370.77134    247.27747    41402.763 
  975500    295.53337   -1475.0097    462.49483    313.28302    464.98067    41402.763 
  975600     287.5445   -1440.4665    485.84574    335.33815    369.22784    41402.763 
  975700    294.08899   -1451.2201    485.18632    353.28446    392.76822    41402.763 
  975800     302.6632   -1433.9932    481.27604    405.06601   -32.698419    41402.763 
  975900    301.88591   -1435.9218    468.29612    386.67045     172.1776    41402.763 
  976000    288.82539   -1476.9811     466.8327    285.55673     171.2247    41402.763 
  976100    301.59694   -1462.9639    473.00243    363.03829   -78.197719    41402.763 
  976200    300.42845    -1493.267    452.27099    306.76185   -6.4489086    41402.763 
  976300    304.47478   -1537.9346    447.00361    274.97917   -222.69244    41402.763 
  976400    301.76181   -1477.9078    475.81081    351.64245    13.876671    41402.763 
  976500    294.60843   -1487.3938    460.23071    294.48539    100.68609    41402.763 
  976600    286.08296   -1480.8402    495.79487    298.35695    287.91957    41402.763 
  976700    300.09522   -1464.6648    463.66941     345.2675    350.55794    41402.763 
  976800    295.28953   -1450.6885    497.39997    371.41552    298.40154    41402.763 
  976900     293.1586   -1463.1884    470.75175    322.70777    439.47843    41402.763 
  977000    307.44101   -1444.7551    484.52836    418.99028    597.49863    41402.763 
  977100    311.08513   -1488.0301    463.07332    370.60814    417.89961    41402.763 
  977200    298.06237   -1477.5331    478.74327     338.3535    494.46147    41402.763 
  977300     303.9584   -1462.1912    474.24447    375.64683    115.55016    41402.763 
  977400    304.68487   -1456.1915    477.72376    388.38488   -57.735697    41402.763 
  977500    293.75798   -1447.2157    481.86962    352.48719   -133.42825    41402.763 
  977600    306.81933   -1428.5285    489.79262    437.69216   -358.75556    41402.763 
  977700    306.76455   -1400.0691    480.60948    456.72265   -37.363467    41402.763 
  977800    290.42673   -1426.9519    473.24579    349.18278   -208.73799    41402.763 
  977900    300.44569   -1422.7757    499.84117    424.90064    262.35858    41402.763 
  978000    301.53049   -1457.3641    490.92611    386.26372    457.07744    41402.763 
  978100    297.39575   -1451.6338    495.44116    377.96015    249.71743    41402.763 
  978200    297.72923   -1477.0408    469.11862    327.72661    43.981105    41402.763 
  978300    296.90043   -1394.1975    466.82877    404.56198   -322.03098    41402.763 
  978400    294.84968   -1396.5836    471.21457    397.36178   -201.63441    41402.763 
  978500     304.8364   -1434.6448    487.42935    420.31698    196.07643    41402.763 
  978600     300.4958    -1425.198    501.17549    424.03746    59.149882    41402.763 
  978700    297.58077   -1420.1157    477.43609    392.30321    241.87799    41402.763 
  978800    304.06475   -1427.2129    483.34392    420.20173    257.91395    41402.763 
  978900    297.67855   -1461.6475     484.5968    358.37076    11.806962    41402.763 
  979000    303.59418   -1443.8048    470.28157    388.43647    -93.74958    41402.763 
  979100    291.57788   -1429.0145    482.56731    361.60588   -197.50288    41402.763 
  979200    306.85094   -1438.0979    476.91418    415.38615    240.02748    41402.763 
  979300    299.91349   -1425.8212    504.46636    424.09275    39.761175    41402.763 
  979400    289.25681   -1413.9943    475.96306    359.60928   -63.542608    41402.763 
  979500    305.21041   -1446.8962    508.01572    430.32978    -452.5256    41402.763 
  979600    296.11274   -1450.2423     471.1842    349.33895   -129.13249    41402.763 
  979700    300.14529   -1479.2325    493.47636    360.73144   -130.63495    41402.763 
  979800    298.68934   -1470.8415    487.66485    356.77931   -24.401884    41402.763 
  979900    295.38088   -1465.2029    470.10625    330.01714    420.45008    41402.763 
  980000    294.19716   -1454.9829    467.94951    332.77009    399.16985    41402.763 
  980100    302.43924   -1462.2306    467.91005    362.45795   -108.20714    41402.763 
  980200    308.47022   -1409.3615    468.51525    442.98789    147.31107    41402.763 
  980300    302.29151   -1474.4671    461.24064    342.88929   -162.69422    41402.763 
  980400     302.5478   -1467.6747    438.19873    327.78952   -217.69724    41402.763 
  980500    308.70408   -1467.4737    488.81491    406.22455   -289.90101    41402.763 
  980600    301.11621   -1439.2103    493.32487    404.95769    385.51838    41402.763 
  980700    295.44575   -1423.8252    466.74831    368.32793    213.73556    41402.763 
  980800     300.9749   -1441.6364    489.44726    398.02008    413.78888    41402.763 
  980900    300.13638   -1452.1426    479.08054    373.38551   -12.136207    41402.763 
  981000    302.79451   -1477.0938    457.80902    339.08746   -89.775006    41402.763 
  981100     301.1209   -1490.0595    459.26306    320.06784   -156.09418    41402.763 
  981200    306.52236   -1468.4899    464.78764    371.39353   -6.7183262    41402.763 
  981300    301.33779   -1454.3891    472.37406    369.82224    139.74752    41402.763 
  981400    296.95756   -1492.7202    469.08374    308.55056    53.919734    41402.763 
  981500    305.40903    -1474.259    478.25963    374.10194   -5.2059383    41402.763 
  981600     310.4267   -1464.4537    441.93513    370.09255    456.12123    41402.763 
  981700    297.01777   -1465.5691    480.66221    347.55026    460.02229    41402.763 
  981800    285.80618    -1479.531    472.12336    274.75292   -324.74712    41402.763 
  981900    285.17311   -1469.7384    471.22273    280.80492    138.50204    41402.763 
  982000    301.76505   -1456.3238    455.10063    352.53075    427.89921    41402.763 
  982100    302.71363   -1506.4698    459.14992    310.68954    83.772491    41402.763 
  982200    287.71868   -1476.9123    473.88875    287.71667    181.69366    41402.763 
  982300    308.01476   -1464.2673     426.5624    344.08606   -205.85918    41402.763 
  982400    303.42364   -1499.8372    466.80492    328.16232    -305.4512    41402.763 
  982500    306.54414    -1480.666    476.62262    371.15016    66.550468    41402.763 
  982600    300.94978   -1511.5325    455.21499    293.77906    39.873824    41402.763 
  982700    296.70543    -1550.032    464.94508    245.96895    79.315207    41402.763 
  982800    291.11518    -1514.022    451.81513    243.77048   -345.92145    41402.763 
  982900    297.23472   -1483.0936    440.10818    290.44489   -211.84775    41402.763 
  983000    294.20395   -1429.0923    449.13034      339.872   -443.78264    41402.763 
  983100    321.97276   -1451.6603    472.62231    465.37018   -364.04305    41402.763 
  983200     295.8474   -1469.0017    466.51005    324.71498    -355.2743    41402.763 
  983300    291.90901   -1474.0084    472.32679    307.85697   -24.373219    41402.763 
  983400    306.89468   -1514.4253    453.81746    316.15826    132.36246    41402.763 
  983500    293.44152   -1469.8521    450.05563    296.61715    -437.4893    41402.763 
  983600    306.10896    -1472.163    448.14799    349.22623     -12.2444    41402.763 
  983700    291.53338   -1452.2251    477.34481    332.97315   -242.43639    41402.763 
  983800    290.02046   -1439.3485     480.0314    341.74924   -48.931445    41402.763 
  983900    308.86462   -1475.1657    453.64339    364.08115    381.08606    41402.763 
  984000    298.31401   -1428.1139    506.45048    416.60881   -150.27232    41402.763 
  984100    296.95056   -1419.1043    452.84031    365.89156    213.37862    41402.763 
  984200    300.70239   -1449.2654    469.19642     368.9178    591.43443    41402.763 
  984300     304.9032   -1396.9352    465.37342    436.27032    284.98256    41402.763 
  984400    308.72928   -1437.7464    467.56485    414.81479   -70.115445    41402.763 
  984500    300.76436   -1432.3129    481.73201    398.68388    49.645169    41402.763 
  984600     297.0903   -1434.8361    460.54423    358.49067       14.953    41402.763 
  984700    297.06884   -1367.9768    476.18408    440.89352   -139.49994    41402.763 
  984800    299.25075   -1409.5605    471.97172    404.88577    -41.47082    41402.763 
  984900    310.00456   -1406.9641    465.35922    449.11256   -48.051626    41402.763 
  985000    301.85063   -1370.7159    472.37206    455.79408   -270.10495    41402.763 
  985100    299.92002   -1411.6489     473.8434    407.67146   -275.88613    41402.763 
  985200    302.90288   -1449.2885    460.39904    369.96894    158.52945    41402.763 
  985300    297.43195   -1449.1994     466.8283    351.94407    126.36995    41402.763 
  985400    291.64251   -1445.1159     467.0216    330.24871   -255.02228    41402.763 
  985500     309.4968   -1442.7415    479.74796    425.44593    338.31062    41402.763 
  985600    306.69805   -1473.3187    468.46964     371.0349     551.1368    41402.763 
  985700    302.36259    -1425.683    442.06326     372.8148   -208.77511    41402.763 
  985800     312.0048   -1452.3804    458.87156    406.18185   -171.93945    41402.763 
  985900    299.31724   -1447.3413    476.84591    372.27743    42.690463    41402.763 
  986000    303.48615   -1417.3143    461.22845    405.38917    33.902796    41402.763 
  986100    298.19249   -1408.6778    480.16155    409.21079   -216.11623    41402.763 
  986200    302.14452   -1405.1227    458.84202    409.17566   -680.95464    41402.763 
  986300    308.51703   -1386.5886    472.81637    470.27191   -769.42233    41402.763 
  986400    302.44048   -1425.6105    486.18759    417.36109   -1206.7192    41402.763 
  986500    296.99822   -1459.2282    432.95793    306.09917   -761.51669    41402.763 
  986600    297.37584   -1405.4276    476.19647    404.83235   -582.79502    41402.763 
  986700    294.29962   -1449.3574    442.00103    312.90676   -712.10003    41402.763 
  986800    299.90516   -1442.2842    492.32738    395.45345   -630.19978    41402.763 
  986900    298.70412   -1410.4363    456.03204    385.61802    -450.7182    41402.763 
  987000    305.02072   -1448.3659    424.99782    344.99126    43.402405    41402.763 
  987100    292.30258   -1492.8913     467.5002    285.91307   -267.16983    41402.763 
  987200    298.82691   -1450.5493      495.261    385.28485   -315.60111    41402.763 
  987300    291.83198   -1438.1723    429.70215    300.72284   -610.84396    41402.763 
  987400    293.49884   -1407.3418    479.75043    389.07936   -425.69775    41402.763 
  987500     305.4568   -1482.3815    432.55805    320.49211    281.02281    41402.763 
  987600    292.94983   -1483.6936    457.22889    287.74312    295.74598    41402.763 
  987700    293.24626   -1476.2498    491.45036     330.7382    547.40112    41402.763 
  987800    299.29155   -1455.6269    461.41435    348.44503    135.91528    41402.763 
  987900    296.39325   -1425.0663    471.41706    376.00613    261.52823    41402.763 
  988000    297.03465    -1438.685    437.90119      331.749   -71.786934    41402.763 
  988100    291.31331   -1406.7429    463.63142    363.75472   -78.571209    41402.763 
  988200    295.10691   -1446.7861    496.84978    373.94848    -340.9711    41402.763 
  988300    297.67548   -1459.7289     436.6901     312.3689   -67.376397    41402.763 
  988400    307.53539   -1449.6294    473.51758    403.52861   -218.76337    41402.763 
  988500    302.61545    -1470.861    475.12982     361.8378   -340.66132    41402.763 
  988600    297.71162   -1410.2855    451.32184    376.60614   -487.47981    41402.763 
  988700    295.04969   -1481.6512    479.62131    321.59812   -153.55973    41402.763 
  988800    313.57745   -1477.9985    459.16935     387.9166    430.14086    41402.763 
  988900     295.9219    -1468.655    468.58669    327.47255    739.82832    41402.763 
  989000    302.36876   -1431.3171      485.548    410.69318    376.04242    41402.763 
  989100    303.58325   -1447.9457     449.3794    363.34432    -30.09063    41402.763 
  989200    294.75482   -1421.5101    476.62159    377.41676    39.757882    41402.763 
  989300    303.50927    -1408.912     461.2217    413.88849   -174.70698    41402.763 
  989400    305.78936   -1427.3665    472.31208     416.7531   -319.72514    41402.763 
  989500    294.35426   -1484.2793    466.10265    302.33161    -641.9922    41402.763 
  989600    295.65921   -1412.3318    453.95132      367.982   -295.72018    41402.763 
  989700    291.39211   -1456.5604    462.64908    313.30842    -777.6657    41402.763 
  989800    289.57821   -1468.6757    478.37515    308.78182     -214.931    41402.763 
  989900    307.15838   -1480.1313    468.16371    365.98152   -263.05486    41402.763 
  990000    307.18938   -1475.2824    474.56357    377.36934    19.822401    41402.763 
  990100    298.82866   -1486.0751    437.38831    291.89424    170.15013    41402.763 
  990200    303.90063   -1458.2175    475.04236    380.15926   -284.74339    41402.763 
  990300    298.28159   -1419.5793    465.77257    384.32002    75.565297    41402.763 
  990400    298.73349   -1391.5632     469.3757    417.96651    212.23833    41402.763 
  990500    291.82959   -1436.3125    458.93622    331.80598   -587.55366    41402.763 
  990600    304.75073   -1465.2093    460.26319    362.20194    128.20658    41402.763 
  990700    300.58318   -1453.7584    467.66731    362.36086   -98.597181    41402.763 
  990800    301.26904    -1459.317    446.92178    339.13356   -484.02161    41402.763 
  990900    300.66877   -1418.8959    480.38109     410.3211   -681.30854    41402.763 
  991000    309.63978   -1400.3124    471.03988    459.80839    -961.0091    41402.763 
  991100    296.19008   -1398.5411    469.33994    399.54286     -665.503    41402.763 
  991200    298.47716   -1445.8354    442.23468    335.40333    193.37292    41402.763 
  991300      295.021   -1425.7633    481.47709    379.21317    122.46686    41402.763 
  991400    300.76767   -1401.6694     471.2961    418.90626    539.09616    41402.763 
  991500    298.43198   -1422.4287    455.93062    372.30332    147.58966    41402.763 
  991600    294.62731   -1404.9406    472.01587     388.8085    547.92185    41402.763 
  991700    297.59898   -1436.0965    467.81675    366.78475    120.56281    41402.763 
  991800    297.33868   -1443.9224    450.26249    340.23685    -106.6132    41402.763 
  991900    303.00308   -1451.4899    466.74644    374.56449     142.3214    41402.763 
  992000    303.95247   -1461.7526    493.10852    394.92291   -869.38824    41402.763 
  992100    294.73003   -1457.9963    466.44173    330.63946   -382.50711    41402.763 
  992200    291.09895   -1452.7287    440.63829    293.81415   -99.551018    41402.763 
  992300    290.31534   -1459.9721    469.15483    311.57196    209.21161    41402.763 
  992400    307.58883   -1465.2344    469.56932    384.21506    405.02427    41402.763 
  992500    307.49049   -1456.6188    455.28159    378.10177    519.20228    41402.763 
  992600    298.84133   -1485.3897    447.21384    302.46191    704.43956    41402.763 
  992700    299.06895   -1455.4442    477.57249    363.78721    430.01419    41402.763 
  992800    307.31663   -1497.3454    465.98723    347.30086    500.66746    41402.763 
  992900    307.70755   -1508.4907    467.26072    339.18278    351.22476    41402.763 
  993000    297.98776   -1496.6602    458.71337    298.86172    334.07114    41402.763 
  993100    305.88771   -1483.6366    457.28554    345.89768    418.61748    41402.763 
  993200    292.11896   -1492.0759    460.66404    279.06858   -174.22394    41402.763 
  993300    310.05327    -1491.973    453.27705    352.23992   -286.97586    41402.763 
  993400    310.97315   -1497.5055    455.94315    353.50028   -133.82721    41402.763 
  993500     304.3819    -1471.259    446.61135    340.84578   -250.10586    41402.763 
  993600    294.25632   -1472.3636    446.16623     293.8715   -675.63723    41402.763 
  993700    304.32074   -1455.3632    455.84875    365.70466   -375.05187    41402.763 
  993800    279.53936   -1441.0138    474.78149     287.8146   -98.211648    41402.763 
  993900    303.78252   -1446.1582    463.16123    379.80765    224.49656    41402.763 
  994000    297.45963    -1462.059    467.37666    339.75702    835.80489    41402.763 
  994100    295.40085   -1507.3766    478.35455    296.18135    482.01898    41402.763 
  994200    300.22342   -1483.7575    464.12704    327.20754    904.44155    41402.763 
  994300    303.81692   -1493.5562    470.03353    339.43624    810.99747    41402.763 
  994400    292.11213   -1487.1322    477.76948    301.08716    497.67231    41402.763 
  994500    292.91957   -1446.9767    457.43949    324.53482   -246.38496    41402.763 
  994600    301.28816   -1436.7937    469.35889    384.17976   -114.68842    41402.763 
  994700    297.48449   -1434.6556    474.96447    374.85976   -834.25177    41402.763 
  994800    304.24118   -1436.7958     511.9399    440.00628   -367.23047    41402.763 
  994900    299.59916   -1478.1782    443.80662    309.66593   -477.52799    41402.763 
  995000    303.89174   -1489.4273     486.2807      360.148   -376.06151    41402.763 
  995100    289.53008   -1514.3083      472.258    256.81615   -72.330346    41402.763 
  995200    299.49206   -1473.6046    453.00722    322.95968    440.99521    41402.763 
  995300    307.96041   -1492.7361    487.21969    376.03069       666.62    41402.763 
  995400    303.95433    -1516.137    471.24451    318.68281    585.14642    41402.763 
  995500    309.28953    -1477.786    498.01579    407.73948    159.69383    41402.763 
  995600    302.41924   -1467.9346    467.86044    356.61456    436.12694    41402.763 
  995700    300.21007   -1484.1376    471.90139     334.5419    454.62996    41402.763 
  995800    310.44417   -1441.9075    461.37241    412.15444    571.77943    41402.763 
  995900    296.14921   -1416.7739    476.11396    387.90071    494.68174    41402.763 
  996000    299.74262   -1395.8697    494.04045     442.8519    127.49908    41402.763 
  996100    288.24656   -1386.8152    488.05978    394.35296   -169.41807    41402.763 
  996200    308.75832   -1449.4783     464.2842    399.93255   -390.24143    41402.763 
  996300    298.57233   -1415.1145    496.33217    420.64874   -596.48008    41402.763 
  996400    303.33335   -1456.9381    428.71489    332.56634    420.40928    41402.763 
  996500    301.77597   -1421.0855     499.6109    432.32834    584.75041    41402.763 
  996600    294.32857   -1452.2714    473.85647    341.97812    316.66099    41402.763 
  996700     308.3918   -1421.8034    475.79172    437.47061   -35.310368    41402.763 
  996800    297.59348   -1443.5298    497.68772    389.19777   -132.63322    41402.763 
  996900    299.58973   -1427.8449    457.40642    373.55669    355.45817    41402.763 
  997000    305.15187   -1431.3202    492.50925    430.13665     314.2776    41402.763 
  997100    297.05103   -1464.1013    482.84125    351.34624   -5.4708692    41402.763 
  997200    307.95327   -1464.4584    476.59715    393.65385    30.142468    41402.763 
  997300    292.43763   -1416.3215    470.99007    366.57863    309.78208    41402.763 
  997400    294.61219   -1461.2018    472.86863    333.33221    321.77418    41402.763 
  997500    297.46921    -1494.504    471.37501    311.35335    117.06644    41402.763 
  997600    292.19619   -1465.9907    474.67734    319.51354   -208.90833    41402.763 
  997700    308.54982   -1461.0196    455.58586    378.75746    81.661818    41402.763 
  997800    310.62735   -1465.9603     463.4987    391.04972    274.70792    41402.763 
  997900    303.85151   -1486.9164    506.69817    382.89583    34.352989    41402.763 
  998000    309.30492   -1459.3573    457.74036    385.96181    293.38262    41402.763 
  998100    311.12525   -1485.7757    486.64229    396.61149    263.61595    41402.763 
  998200    283.02176   -1449.5005    478.42799    298.59681    -476.9589    41402.763 
  998300    300.41954   -1422.7888    505.51898    430.44797   -661.56419    41402.763 
  998400    300.02232    -1449.383    461.49812    358.05101   -153.81278    41402.763 
  998500    298.53477   -1444.6545    477.21818    371.82619    72.203838    41402.763 
  998600     298.3335   -1425.9015    461.22419    373.68225   -30.124026    41402.763 
  998700    290.33033   -1412.2416    493.56412    383.77896    92.605977    41402.763 
  998800     302.0557   -1440.5163    480.54721    395.08876    235.40035    41402.763 
  998900    302.08628   -1424.2509    455.12849    386.07267    12.927622    41402.763 
  999000    286.54353   -1471.1873    499.04195     313.3231   -331.26468    41402.763 
  999100    292.04306    -1488.915    442.90405      264.129   -903.11665    41402.763 
  999200    301.74086   -1486.2132    423.89981    291.33205   -904.23849    41402.763 
  999300    305.44025   -1459.9077    470.67718    381.01077    -261.9347    41402.763 
  999400    310.49844   -1485.7005    439.38693     346.6194   -19.859543    41402.763 
  999500    301.87529   -1510.7349    460.43854    303.95214   -192.85303    41402.763 
  999600       291.04   -1471.8787     469.3712    303.13255   -284.03464    41402.763 
  999700    298.78492   -1507.6449    473.00877    305.74858   -476.66692    41402.763 
  999800    291.37297   -1465.5388    479.64254    321.23766   -316.63945    41402.763 
  999900    300.82645   -1511.2681    448.17889    286.45408   -511.31531    41402.763 
 1000000    295.77169   -1484.6944    474.93542    317.10806   -672.83458    41402.763 
 1000100    297.70836    -1513.966    468.61049    290.19969   -462.32458    41402.763 
 1000200    308.99102   -1464.3886    466.96476    388.74674   -49.787979    41402.763 
 1000300    295.94399   -1468.8109    457.68943    316.51854   -394.31831    41402.763 
 1000400    296.90769   -1442.9416    456.40651    345.42823    45.371105    41402.763 
 1000500     306.1791   -1461.2809    477.36012    389.63509    199.48751    41402.763 
 1000600    284.56592   -1467.4609     501.4314    310.56716    629.60549    41402.763 
 1000700    299.99462   -1489.6331    479.96807    336.14662    950.98702    41402.763 
 1000800    306.11991   -1487.8912    461.98603    347.38515    867.66708    41402.763 
 1000900    289.11697   -1483.5513    451.74693    265.20876   -57.928447    41402.763 
 1001000    307.11103   -1451.1053    473.75638    400.38773   -3.4859408    41402.763 
 1001100     311.1092   -1460.3799    460.06815     395.3612   -273.42315    41402.763 
 1001200    304.08824   -1462.6299    471.96494    373.51114    32.628156    41402.763 
 1001300    317.21582   -1449.5469    449.84835    423.36934   -113.39707    41402.763 
 1001400    293.52159   -1443.2647    457.44365    330.95177   -210.61903    41402.763 
 1001500    295.10371   -1511.6986    455.03163    267.20344   -548.77495    41402.763 
 1001600    312.03042    -1523.184    459.03888    335.66055   -312.50373    41402.763 
 1001700    287.81466   -1507.9187    462.66073    245.91292   -762.15754    41402.763 
 1001800    302.47301    -1459.245    469.13784    366.82277    -470.1923    41402.763 
 1001900    289.66561   -1472.9658    485.61676    312.12536   -342.58718    41402.763 
 1002000    304.00171   -1455.3918    489.97999     398.3761   -233.56204    41402.763 
 1002100    291.83972   -1447.0995    462.38383    324.51209   -531.76924    41402.763 
 1002200    297.13467   -1438.9706    479.76821    373.77917    -589.9535    41402.763 
 1002300    304.14566   -1449.8804    490.26823    404.82154    -500.6804    41402.763 
 1002400     293.7579   -1524.4563    471.88012    265.25678     183.1682    41402.763 
 1002500     304.5632   -1459.9153    457.81209     364.2036   -80.389721    41402.763 
 1002600    287.90766   -1466.8508    479.11723    303.85447   -108.08853    41402.763 
 1002700     300.0697   -1416.2902    507.22734    437.08553    318.06465    41402.763 
 1002800    285.52227   -1446.3116    498.69741    333.27271   -120.70204    41402.763 
 1002900    304.41864   -1418.4593    484.73516    431.93418    97.578211    41402.763 
 1003000    295.31136   -1462.1507    488.59254     351.2438   -212.77633    41402.763 
 1003100    296.47498   -1436.1883    492.70375    386.53753   -307.89841    41402.763 
 1003200     306.8476   -1451.4396    458.53517    383.65045    204.17988    41402.763 
 1003300    297.96071   -1477.9007    503.25872    362.04524    527.30411    41402.763 
 1003400    301.46256   -1464.4504    476.13089    364.07748   -41.367662    41402.763 
 1003500    291.52757   -1500.5916    498.25475    305.49055   -394.91096    41402.763 
 1003600    299.18142   -1477.5579    464.85543    329.46105   -316.56561    41402.763 
 1003700    300.58143   -1493.2428    487.17557    342.37683    146.54937    41402.763 
 1003800     294.7243    -1485.382    449.79732    286.58364   -391.93241    41402.763 
 1003900    297.29046   -1517.4052    461.09678    277.37203   -84.665113    41402.763 
 1004000    296.17082   -1475.9921    464.28239    316.94786   -118.17399    41402.763 
 1004100    294.58251   -1473.1646    464.85385    313.22152   -424.05258    41402.763 
 1004200    296.53989   -1472.2505    492.00289    350.06565   -409.33534    41402.763 
 1004300    305.79979   -1461.8838     497.1965    407.16698    131.54073    41402.763 
 1004400    303.56772   -1487.0021    477.66626    352.50508    73.547907    41402.763 
 1004500    296.84393   -1452.6265    494.36887    373.41958   -198.91053    41402.763 
 1004600    303.34374   -1416.5252    497.16623    441.47723   -61.710027    41402.763 
 1004700    307.94728   -1442.1552    471.88483    411.21776    -318.7635    41402.763 
 1004800    307.26791   -1487.9264     465.5174    356.03143    351.17619    41402.763 
 1004900    295.15444   -1522.2257    459.71874    261.59097   -44.024557    41402.763 
 1005000    302.19199   -1494.0571    500.00931     361.6215    -122.5956    41402.763 
 1005042    290.75457   -1489.2341     474.0725    289.19801    353.66021    41402.763 
Loop time of 614.823 on 32 procs for 1000000 steps with 1506 atoms

Performance: 140.528 ns/day, 0.171 hours/ns, 1626.485 timesteps/s
100.0% CPU use with 32 MPI tasks x no OpenMP threads

MPI task timing breakdown:
Section |  min time  |  avg time  |  max time  |%varavg| %total
---------------------------------------------------------------
Pair    | 217.81     | 257.56     | 297.14     | 143.2 | 41.89
Bond    | 1.3358     | 1.4934     | 1.6613     |   6.9 |  0.24
Neigh   | 39.893     | 39.969     | 40.037     |   0.8 |  6.50
Comm    | 264.14     | 303.84     | 343.52     | 131.7 | 49.42
Output  | 0.42408    | 0.43884    | 0.82241    |  10.4 |  0.07
Modify  | 8.4938     | 8.8297     | 9.1247     |   5.4 |  1.44
Other   |            | 2.695      |            |       |  0.44

Nlocal:        47.0625 ave          82 max           9 min
Histogram: 1 4 4 4 2 2 7 2 1 5
Nghost:        1840.31 ave        1913 max        1773 min
Histogram: 4 3 3 2 6 1 5 1 5 2
Neighs:        5099.16 ave       11516 max         400 min
Histogram: 4 6 3 4 2 4 3 2 1 3

Total # of neighbors = 163173
Ave neighs/atom = 108.34861
Ave special neighs/atom = 2.0066401
Neighbor list builds = 49811
Dangerous builds = 0

# Output the system volume
variable v equal vol
print 'The system volume is $v'
The system volume is 41402.7631381494

# Outputs
variable A equal xhi-xlo
variable B equal yhi-ylo
variable C equal zhi-zlo
variable D equal xy
variable E equal xz
variable F equal yz
print 'Lattice vectors'
Lattice vectors
print '$A 0 0'
34.5947164513315 0 0
print '$D $B 0'
0 34.5947164513315 0
print '$E $F $C'
0 0 34.5947164513315
Total wall time: 0:10:20
