LAMMPS (29 Sep 2021 - Update 1)
# Test LAMMPS input file for single DeFDe

# Initialize simulation

clear

units real
atom_style full
boundary p p p
dielectric 1
special_bonds dreiding

bond_style harmonic
angle_style harmonic
dihedral_style harmonic
improper_style umbrella
pair_style hybrid/overlay hbond/dreiding/lj 4 9.0 11.0 90 lj/cut 8.50000

# Read data file
read_data frag5.dat
Reading data file ...
  triclinic box = (0.0000000 0.0000000 0.0000000) to (15.000000 15.000000 15.000000) with tilt (0.0000000 0.0000000 0.0000000)
  2 by 4 by 4 MPI processor grid
  reading atoms ...
  1502 atoms
  scanning bonds ...
  1 = max bonds/atom
  scanning angles ...
  1 = max angles/atom
  reading bonds ...
  1001 bonds
  reading angles ...
  500 angles
Finding 1-2 1-3 1-4 neighbors ...
  special bond factors lj:    0        0        1       
  special bond factors coul:  0        0        1       
     2 = max # of 1-2 neighbors
     1 = max # of 1-3 neighbors
     2 = max # of special neighbors
  special bonds CPU = 0.002 seconds
  read_data CPU = 0.016 seconds

# Dreiding potential information

bond_coeff 1 350 1.487
bond_coeff 2 350 0.98

angle_coeff 1 50 104.51


improper_coeff 1 40 0

pair_coeff 1 1 lj/cut 0.37 3.95
pair_coeff 1 2 lj/cut 0.0749933330370107 3.55249912033768
pair_coeff 1 3 lj/cut 0.00608276253029822 3.55138705296959
pair_coeff 1 4 lj/cut 0.188172792932453 3.66717466177983
pair_coeff 2 2 lj/cut 0.0152 3.195
pair_coeff 2 3 lj/cut 0.0012328828005938 3.19399984345648
pair_coeff 2 4 lj/cut 0.0381397430510485 3.29813538230316
pair_coeff 3 3 lj/cut 1e-04 3.193
pair_coeff 3 4 lj/cut 0.0030935416596516 3.29710294046152
pair_coeff 4 4 lj/cut 0.0957 3.4046
pair_coeff 4 4 hbond/dreiding/lj 3 j 9.50 2.75 4 9.0 11.0 90

neighbor 2 bin
neigh_modify every 2 one 10000

# Gemoetric relaxation
fix 1 all box/relax iso 1.0 vmax 0.001
minimize 1.0e-4 1.0e-6 10000 10000
WARNING: Using 'neigh_modify every 1 delay 0 check yes' setting during minimization (../min.cpp:188)
Neighbor list info ...
  update every 1 steps, delay 0 steps, check yes
  max neighbors/atom: 10000, page size: 100000
  master list distance cutoff = 13
  ghost atom cutoff = 13
  binsize = 6.5, bins = 3 3 3
  3 neighbor lists, perpetual/occasional/extra = 3 0 0
  (1) pair hbond/dreiding/lj, perpetual, skip from (3)
      attributes: full, newton on
      pair build: skip
      stencil: none
      bin: none
  (2) pair lj/cut, perpetual, half/full from (3)
      attributes: half, newton on
      pair build: halffull/newton
      stencil: none
      bin: none
  (3) neighbor class addition, perpetual
      attributes: full, newton on
      pair build: full/bin
      stencil: full/bin/3d
      bin: standard
Per MPI rank memory allocation (min/avg/max) = 9.207 | 9.525 | 9.628 Mbytes
Step Temp E_pair E_mol TotEng Press Volume 
       0            0 1.5002747e+16    185.59821 1.5002747e+16 1.2192173e+18         3375 
    5404            0   -1055.1104    19.186557   -1035.9238    137.32578    36397.316 
Loop time of 4.408 on 32 procs for 5404 steps with 1502 atoms

100.0% CPU use with 32 MPI tasks x no OpenMP threads

Minimization stats:
  Stopping criterion = energy tolerance
  Energy initial, next-to-last, final = 
    1.50027469347389e+16  -1035.35162086299  -1035.44219905994
  Force two-norm initial, final = 1.6097212e+18 123.67959
  Force max component initial, final = 8.8582859e+17 98.260573
  Final line search alpha, max atom move = 2.0052344e-05 0.0019703548
  Iterations, force evaluations = 5404 5405

MPI task timing breakdown:
Section |  min time  |  avg time  |  max time  |%varavg| %total
---------------------------------------------------------------
Pair    | 1.5913     | 2.5245     | 3.6092     |  37.4 | 57.27
Bond    | 0.0069613  | 0.010729   | 0.01416    |   1.9 |  0.24
Neigh   | 0.092143   | 0.092463   | 0.092824   |   0.1 |  2.10
Comm    | 0.35093    | 1.4355     | 2.3693     |  49.6 | 32.57
Output  | 0          | 0          | 0          |   0.0 |  0.00
Modify  | 0          | 0          | 0          |   0.0 |  0.00
Other   |            | 0.3448     |            |       |  7.82

Nlocal:        46.9375 ave          63 max          32 min
Histogram: 3 3 5 1 6 3 2 4 2 3
Nghost:        2021.78 ave        2066 max        1981 min
Histogram: 6 3 4 1 0 4 5 2 3 4
Neighs:        5080.34 ave        7185 max        3309 min
Histogram: 3 3 5 6 3 2 2 0 6 2

Total # of neighbors = 162571
Ave neighs/atom = 108.23635
Ave special neighs/atom = 1.9986684
Neighbor list builds = 101
Dangerous builds = 0

# MD simulation
velocity all create 300.0 12345 rot yes dist gaussian
timestep 1.0
fix 2 all nvt temp 300.0 300.0 1

# Compute interaction energy
group WAT molecule <> 2 501
1500 atoms in group WAT
group MOL molecule 1
2 atoms in group MOL

compute w WAT group/group MOL pair yes
fix 3 all ave/time 10 5 100 c_w file outa

# Outputs
thermo 100 # Output thermodynamic data every nth step
#dump mf1 all xyz 10000 mol_*.xyz

# Run
run 1000000
Neighbor list info ...
  update every 2 steps, delay 10 steps, check yes
  max neighbors/atom: 10000, page size: 100000
  master list distance cutoff = 13
  ghost atom cutoff = 13
  binsize = 6.5, bins = 6 6 6
  4 neighbor lists, perpetual/occasional/extra = 3 1 0
  (1) pair hbond/dreiding/lj, perpetual, skip from (4)
      attributes: full, newton on
      pair build: skip
      stencil: none
      bin: none
  (2) pair lj/cut, perpetual, half/full from (4)
      attributes: half, newton on
      pair build: halffull/newton
      stencil: none
      bin: none
  (3) compute group/group, occasional, copy from (2)
      attributes: half, newton on
      pair build: copy
      stencil: none
      bin: none
  (4) neighbor class addition, perpetual
      attributes: full, newton on
      pair build: full/bin
      stencil: full/bin/3d
      bin: standard
Per MPI rank memory allocation (min/avg/max) = 8.060 | 8.078 | 8.095 Mbytes
Step Temp E_pair E_mol TotEng Press Volume 
    5404          300   -1055.1104    19.186557    306.33497    1823.1013    36397.316 
    5500    298.08896   -1121.1417     189.4767    402.04342   -941.96208    36397.316 
    5600     302.7496   -1111.3538      170.794    414.00118   -325.91266    36397.316 
    5700    300.24714   -1105.9177     164.2167    401.66358   -513.88442    36397.316 
    5800       301.01    -1116.031    196.61547    427.36221    -602.0685    36397.316 
    5900    288.39534   -1055.2996     172.2175    407.25515    24.869727    36397.316 
    6000    294.82405   -1072.0727    191.90502    438.93285    188.34557    36397.316 
    6100     297.7427   -1139.3246    181.68721     374.5218    315.68113    36397.316 
    6200    305.15547   -1124.5382     187.2644    428.05153    234.32815    36397.316 
    6300     299.3391   -1146.6715    179.43621    372.06647    488.49389    36397.316 
    6400      298.188   -1139.5428    188.06041    382.66908    322.67403    36397.316 
    6500    294.28474   -1142.2155    196.71405    371.18617    191.84549    36397.316 
    6600    292.62772   -1157.8213    200.67384    352.12629   -31.160719    36397.316 
    6700    302.06647   -1184.6375    193.90519    360.77225    -25.44546    36397.316 
    6800    305.65317   -1194.4055    198.70779    371.85444    131.88328    36397.316 
    6900    290.41203   -1161.8468    207.14357    344.65709    -56.90864    36397.316 
    7000    299.17481   -1161.0022    193.05875    370.62328     151.2108    36397.316 
    7100    300.65736     -1153.75    203.71984    395.16974    423.86851    36397.316 
    7200    299.74743   -1129.6154    206.83543    418.34873   -21.465098    36397.316 
    7300    292.14155    -1109.605    196.31311    393.80658    238.86514    36397.316 
    7400    295.46525   -1154.1805    210.12799    377.91688     59.63714    36397.316 
    7500    311.92094   -1139.8252    206.12725    461.89744    331.64451    36397.316 
    7600    301.11552   -1182.4032    207.89212    372.73877    462.64416    36397.316 
    7700    303.70465    -1165.579    197.99208    391.24718     348.3797    36397.316 
    7800    301.07019   -1170.8737    207.76846    383.94177    493.66976    36397.316 
    7900    304.93916   -1181.2372    202.21744    385.33783    99.762113    36397.316 
    8000    293.38655   -1216.1366    207.33303    303.86532    78.125707    36397.316 
    8100    299.32494   -1186.6031    213.08102     365.7164    685.21998    36397.316 
    8200     298.4933   -1197.8975    203.62978    341.24979    76.736513    36397.316 
    8300    293.37804   -1188.1286    203.23457    327.73681    849.02588    36397.316 
    8400    294.79343   -1189.8274    204.71405    333.85022    559.33641    36397.316 
    8500    298.18399   -1161.9674    221.61856    393.78469    498.28934    36397.316 
    8600    299.57257   -1203.6181    215.89747    352.62575    786.56709    36397.316 
    8700    296.16187   -1144.7134    213.21784    393.59067    848.12712    36397.316 
    8800    310.82737    -1196.323    208.30594    402.68545    873.34474    36397.316 
    8900    305.30261   -1182.0864    223.24408    407.14142    855.20628    36397.316 
    9000    298.44378   -1223.2729    219.46589    331.48886    460.96095    36397.316 
    9100     316.6777   -1220.4539    209.53444    405.95863     938.5865    36397.316 
    9200    304.79823   -1249.1358    223.28003    337.87119    664.83191    36397.316 
    9300     302.1033    -1214.786    223.45539    360.33869    508.73514    36397.316 
    9400    310.88354   -1161.8571    219.32306    448.41985    475.02119    36397.316 
    9500    305.24316   -1152.2846    224.40678    437.83984    725.46802    36397.316 
    9600    304.76999   -1206.4463    238.58818    395.74254    516.78539    36397.316 
    9700      298.656    -1139.011    234.04157    431.27597    424.85706    36397.316 
    9800    297.67472   -1189.6252    231.01878    373.24862    346.65462    36397.316 
    9900     302.7376   -1149.9579    234.16286     438.7123     361.0515    36397.316 
   10000    295.76884   -1191.5583    244.50447    376.27385    297.57591    36397.316 
   10100    299.37554   -1196.3254    259.60547    402.74484    945.68384    36397.316 
   10200    306.86157   -1171.3797     252.5895    454.16855    920.28245    36397.316 
   10300    301.84243   -1125.3854     251.5558     476.6726    630.18526    36397.316 
   10400    290.00962   -1182.8766    241.37352    356.05677   -207.39801    36397.316 
   10500    304.01738   -1197.5481     248.6882     411.3734    436.61377    36397.316 
   10600     290.1793   -1193.2663    241.07805    346.13075    105.90111    36397.316 
   10700    294.71139   -1172.1136    257.27347    403.75631    161.92179    36397.316 
   10800    298.30382   -1145.7044    247.75201    436.71737    136.49241    36397.316 
   10900    302.99672   -1175.2861    245.00784    425.38844     230.7074    36397.316 
   11000    296.64573   -1201.4906    263.28166    389.04212    120.09008    36397.316 
   11100    295.94712     -1209.82      256.347    370.65237    186.79528    36397.316 
   11200    286.87279    -1177.862    246.83162    352.49463    256.48199    36397.316 
   11300    300.83422   -1181.2037    263.07004    427.85755    428.30552    36397.316 
   11400    311.74712   -1202.7242    251.21871    443.31219    331.01455    36397.316 
   11500    299.77626   -1222.6074    272.46896    391.11931    154.90586    36397.316 
   11600    295.20009   -1231.2952    242.54213    332.02999    15.962743    36397.316 
   11700    295.37078   -1186.0158    265.06789    400.59878    373.27483    36397.316 
   11800    299.38178   -1204.8438    256.57451    391.22343    794.68619    36397.316 
   11900    293.51166   -1209.7778    271.73033    375.18125    369.79882    36397.316 
   12000    300.22594   -1172.0923    260.08873    431.26608    337.71219    36397.316 
   12100    304.51036   -1183.1868    265.01426    444.26647    503.57124    36397.316 
   12200    304.39663   -1172.8687    263.60811    452.66955    682.93681    36397.316 
   12300    295.80919   -1172.4594     262.7569    413.80577    172.57599    36397.316 
   12400    295.80477   -1223.4025    266.20934    366.29539    19.376527    36397.316 
   12500    307.85098   -1218.9507    270.17309    428.60796   -143.84397    36397.316 
   12600    309.57002   -1220.2837    262.23335    427.02659    72.510444    36397.316 
   12700    294.94996   -1235.9726     276.3126    360.00391    502.52135    36397.316 
   12800    291.06905   -1229.9277    270.45686    342.82913    561.99033    36397.316 
   12900    295.18512   -1231.5972    277.99864    367.11751    498.62714    36397.316 
   13000    296.79304   -1244.1632     265.8639    349.61084    635.82645    36397.316 
   13100    302.57546   -1249.9888    273.38313    377.17616    454.42148    36397.316 
   13200    296.33257   -1245.7439    271.93577     352.0418    135.50285    36397.316 
   13300    293.97955   -1241.5884    263.06411    336.79779   -13.455323    36397.316 
   13400    301.10441   -1208.1789    273.05175    412.07291    238.23226    36397.316 
   13500    312.01265    -1241.465    268.99928    423.53997    603.67343    36397.316 
   13600    297.86376   -1224.2022    291.59131    400.08991    575.22275    36397.316 
   13700    292.60225   -1184.5604    281.82204    406.42138    304.06842    36397.316 
   13800    300.13562   -1209.6347    277.96526    411.19615      530.475    36397.316 
   13900    297.08091   -1165.9793    279.92223    443.14118    558.56928    36397.316 
   14000    310.99442   -1161.5129    278.20002    508.13709    383.55786    36397.316 
   14100    291.56599   -1235.0546    292.71525    362.18402      684.545    36397.316 
   14200    300.34109   -1189.5414    277.43963    431.68305    259.44633    36397.316 
   14300     299.6641    -1213.046    286.28057    413.99045    423.21114    36397.316 
   14400    294.39683   -1207.5078    274.55841     384.2397   -181.40388    36397.316 
   14500    305.95459     -1186.01    281.02298    463.91371    187.14476    36397.316 
   14600    306.05159   -1207.1479     293.9138    456.10063   -404.02407    36397.316 
   14700    309.76689   -1197.0421    283.37693    472.29258    220.93064    36397.316 
   14800    295.85313   -1224.4134    270.28473    369.57622    196.27086    36397.316 
   14900    298.80539   -1241.0436    286.49771    382.36798    254.93198    36397.316 
   15000    302.96409   -1212.1513    274.64883    418.01824    455.19213    36397.316 
   15100    313.50645   -1211.6966    284.09614     475.0888    501.67492    36397.316 
   15200    295.76763   -1200.5421    274.05551    396.83574   -70.582827    36397.316 
   15300    304.51129   -1218.0669    292.85843     437.2347   -56.874689    36397.316 
   15400    305.03549   -1245.0945    297.39545    417.08952    -200.8108    36397.316 
   15500    297.09871   -1228.5029     282.9835    383.75837   -313.51094    36397.316 
   15600    297.80235   -1226.0634    290.30243    396.66506    -128.9051    36397.316 
   15700    307.67536   -1244.5489     288.4099    420.46082    518.78107    36397.316 
   15800    307.17561   -1248.4422    281.90482    407.82649    236.13653    36397.316 
   15900    309.39254   -1235.2849    304.37232    453.37019    397.54825    36397.316 
   16000    303.99037   -1259.4529    298.80846      399.468    427.38596    36397.316 
   16100    300.60637   -1280.4116     283.2431    347.80333    152.36863    36397.316 
   16200    296.90343   -1257.3335    319.53639    390.60694    429.22769    36397.316 
   16300     301.2845   -1263.6529    284.04376    368.39669    667.00873    36397.316 
   16400    305.14339   -1287.0404    297.85016    376.08109    797.61632    36397.316 
   16500    295.46175   -1272.1774    305.10729    354.88367    321.75432    36397.316 
   16600    310.38035   -1316.9497    284.16924    355.92209    346.10076    36397.316 
   16700    293.58437   -1281.9355    301.57055    333.18899    747.74261    36397.316 
   16800    306.67667     -1322.13    288.05245    338.05394    753.66463    36397.316 
   16900    301.75524   -1297.5452    301.26946    353.83636    921.09337    36397.316 
   17000    309.61365   -1266.0116    303.83999    423.10054    333.14739    36397.316 
   17100    292.10376   -1266.8969    318.94157    358.97407    599.50234    36397.316 
   17200    301.79772   -1226.8505    323.24068    446.69231    862.13146    36397.316 
   17300    296.46542   -1256.4193    296.37477    366.39986    549.99568    36397.316 
   17400    297.82082   -1251.0052    316.31568    397.81911    68.675069    36397.316 
   17500     308.9552   -1250.1465    313.42358    445.60312    300.42518    36397.316 
   17600    299.05843   -1287.9802    305.28202    355.34778    434.55587    36397.316 
   17700    303.58545    -1249.819    313.88743    422.36926    653.60135    36397.316 
   17800    292.15112   -1278.7406    304.28332    332.68406    681.16142    36397.316 
   17900    294.82282   -1229.6254    316.13215     405.6018    394.61136    36397.316 
   18000    293.86654     -1251.77    302.20832    365.25481    507.24479    36397.316 
   18100    308.04542   -1251.3365    320.56234    447.48142    339.56435    36397.316 
   18200    293.13318   -1266.0535    295.28298    340.76477   -403.06745    36397.316 
   18300    294.78147   -1261.7076    323.30704    380.50951    178.29834    36397.316 
   18400    291.89135   -1278.2822     309.1885    336.88532    506.66454    36397.316 
   18500      303.829   -1274.4807    314.09577    399.00553    419.12021    36397.316 
   18600    290.27048   -1271.4392    309.07954    336.36734    383.71041    36397.316 
   18700     302.5413   -1289.5496     316.8277    380.90711    135.37334    36397.316 
   18800    298.16196   -1230.7083    318.73431    422.06099    250.67222    36397.316 
   18900    303.81211   -1250.5104    322.39751      431.202    708.76369    36397.316 
   19000    295.17264   -1242.3361    334.39147    412.71556    161.93293    36397.316 
   19100    302.50977   -1272.1424    313.14663    394.49218    238.28985    36397.316 
   19200    307.99573   -1272.7908    321.93227    427.17475    224.01026    36397.316 
   19300    301.31791   -1234.8091    327.07191    440.41814     101.5107    36397.316 
   19400    301.31601   -1253.7614    300.79934    395.18482    -2.396205    36397.316 
   19500    289.65216   -1241.1936    336.08308    390.84995   -389.69541    36397.316 
   19600    301.65453   -1254.1054    311.24156    406.79765    84.694799    36397.316 
   19700    302.45182   -1264.8853    333.12034    421.46374    76.984784    36397.316 
   19800    307.71179   -1302.1608    309.93807    384.54013    198.79078    36397.316 
   19900    298.07776   -1290.2666    336.62307    380.01471    199.23867    36397.316 
   20000    299.90732   -1264.6663    304.96296    382.14073   -92.377105    36397.316 
   20100    303.64685   -1269.4111    318.11692    407.28127   -120.97259    36397.316 
   20200    307.80731   -1271.4223     337.7117    443.47963    197.23523    36397.316 
   20300    308.07104     -1294.08     314.0649    398.35511    182.03155    36397.316 
   20400    289.25931   -1285.2401    306.68026    315.64294   -68.649813    36397.316 
   20500    297.41114   -1251.2855    327.02605    406.41628    471.94239    36397.316 
   20600    315.03685    -1262.664    322.50652    469.37915    658.36091    36397.316 
   20700     309.3739   -1276.3541     328.5668    436.41218    409.42786    36397.316 
   20800    293.80473   -1276.8269    326.32548    364.03849     324.1978    36397.316 
   20900    290.51882   -1306.7021    323.81868    316.95467    197.67123    36397.316 
   21000     299.8246   -1302.0392    315.52025    354.95502    486.35933    36397.316 
   21100      306.567   -1276.0925    323.65305    419.20137    906.81993    36397.316 
   21200    303.40734   -1280.8776    325.84003    402.46627    351.38874    36397.316 
   21300    293.18519   -1251.3213    322.52267    382.96934    367.08516    36397.316 
   21400    309.14453   -1271.7412     333.1135    444.54547    377.81931    36397.316 
   21500     298.6818   -1251.5886    325.54551     410.3178    278.90952    36397.316 
   21600     298.9458   -1243.8393    331.03502    424.73774     119.9999    36397.316 
   21700    298.13243   -1228.7668    322.60636    427.74249   -304.57561    36397.316 
   21800    307.58089   -1205.4464    329.24962    499.98037    151.13415    36397.316 
   21900    291.53228    -1213.393     330.3346     421.3141    -50.32023    36397.316 
   22000    298.65378   -1228.5583    322.84749    430.52466    38.627988    36397.316 
   22100    298.96489   -1245.5805    331.93321    423.98022   -610.16628    36397.316 
   22200    309.39431   -1196.5786    326.66951    514.38161   -180.85082    36397.316 
   22300    308.76219   -1229.0262     331.8554    484.29178   -551.19465    36397.316 
   22400    304.26105   -1242.3818    317.74392    436.68569   -111.54304    36397.316 
   22500     301.0232   -1213.7481    336.89707    469.98572   -484.38418    36397.316 
   22600    299.81711   -1266.8758    308.43647    383.00118   -77.164005    36397.316 
   22700    299.76966   -1272.7308    306.09813    374.59551   -354.58935    36397.316 
   22800    311.30247   -1255.1664    324.96849    462.63037   -158.23405    36397.316 
   22900    296.70193   -1250.6832    316.63181    393.45112    269.67208    36397.316 
   23000    303.91575    -1278.947    334.94134    415.77288   -45.162738    36397.316 
   23100    295.02903   -1279.8216    321.52559    361.72169    26.036082    36397.316 
   23200    304.30788   -1263.4918    307.80202    405.84325    125.06121    36397.316 
   23300      300.496   -1258.9363    324.08153     409.6232    695.87598    36397.316 
   23400    289.81806   -1311.5263    328.51011    313.68663    492.70004    36397.316 
   23500    302.06352   -1269.7808    311.72152    393.43211     962.8046    36397.316 
   23600    301.43304   -1263.8913    324.21219     408.9913     857.7551    36397.316 
   23700    293.21424   -1259.1957    316.25515    368.95741    1079.4283    36397.316 
   23800    304.04436   -1258.4155    323.89801    425.83653    709.49911    36397.316 
   23900    294.14288   -1245.9465    334.05113    404.15749     1048.079    36397.316 
   24000    298.87039    -1247.467    325.82505    415.56276    64.990149    36397.316 
   24100     305.7204   -1258.4399    312.40404    421.81712    337.54334    36397.316 
   24200    301.14805   -1266.1018    330.30319    411.59676   -42.592422    36397.316 
   24300    314.06157   -1202.6192    334.35156    536.90537    193.23309    36397.316 
   24400    306.92892   -1205.8688    326.57017    493.96144    312.90582    36397.316 
   24500     302.4455   -1251.5957    325.35808    426.96281    86.755762    36397.316 
   24600     302.7955   -1216.7728    312.61984    450.61344    290.63123    36397.316 
   24700    298.21883   -1243.1178    319.55031    410.72203    357.11264    36397.316 
   24800    289.82506    -1261.839    331.94124    366.83633    -36.74256    36397.316 
   24900    304.60795   -1239.9024    335.45359    458.42687    399.15265    36397.316 
   25000    307.23411   -1286.8698    331.39019      419.146    246.98996    36397.316 
   25100    288.49154   -1273.9508    317.85212    334.66903    216.79544    36397.316 
   25200    294.81374   -1257.6123    313.89838    375.34052    159.56042    36397.316 
   25300    290.92296    -1270.817    326.57794    357.40722    234.46866    36397.316 
   25400    293.23113   -1284.5074    312.30291    339.76904    22.039813    36397.316 
   25500    294.06936   -1298.3734    326.03316    343.38365    518.45471    36397.316 
   25600    299.87948    -1288.792    324.14343    377.07095    477.18169    36397.316 
   25700    301.96832   -1292.1486    332.77431     391.6911    251.91016    36397.316 
   25800    298.19456   -1262.9817    320.76064    391.95984    916.30202    36397.316 
   25900    302.22306   -1300.8482    323.94795    375.30495    386.42957    36397.316 
   26000    296.75525   -1299.5201    325.94779    354.16879    164.40528    36397.316 
   26100    300.43397   -1233.8902    337.84983    448.16004   -30.704101    36397.316 
   26200    310.42858   -1257.9114    335.92162    466.92845    652.74665    36397.316 
   26300    301.44734   -1264.7116    324.79658    408.81942    335.63622    36397.316 
   26400    298.68191   -1275.9515    308.85655    369.26649    123.89894    36397.316 
   26500    295.21083   -1283.0475    309.45541    347.23895   -38.139753    36397.316 
   26600    297.93004   -1290.5136    336.77648    379.26025    158.94941    36397.316 
   26700    298.94854   -1293.7764    335.78771    379.56564   -59.904157    36397.316 
   26800     292.4957   -1301.0464    328.27267    335.90934    83.597728    36397.316 
   26900    310.57124   -1277.8543    333.07399    444.77626    510.21454    36397.316 
   27000    294.08566   -1285.5439    334.55138    364.80435    191.34647    36397.316 
   27100    296.48388   -1281.8236     316.1453    360.84864    206.72674    36397.316 
   27200    306.85422    -1304.851    335.80435    403.87923    211.92607    36397.316 
   27300    299.88518   -1251.9293    337.00986     426.8256    101.13518    36397.316 
   27400    303.81621    -1296.565    317.97721     380.7454    653.56154    36397.316 
   27500    297.57728   -1326.9371    337.24374    341.72572      350.594    36397.316 
   27600    302.47085   -1259.6377     333.0043     426.6804    165.59071    36397.316 
   27700     293.3299   -1294.5552    322.85148    340.71173   -166.62308    36397.316 
   27800    290.55429   -1290.7194    320.59549    329.87291     42.26812    36397.316 
   27900    305.80823   -1327.1509    315.33791      356.433    168.46245    36397.316 
   28000    308.37215    -1326.907    339.75217    392.56256    848.11283    36397.316 
   28100     305.4645      -1296.5    346.53686    416.74484    427.28898    36397.316 
   28200    295.48203    -1299.221    338.63089    361.45438    483.18685    36397.316 
   28300    300.76015   -1298.3395    316.83992    364.16025    281.39349    36397.316 
   28400    303.25081   -1290.9897    328.35426    394.16814    527.99576    36397.316 
   28500    300.20673   -1320.7352    337.11545    359.56393    190.71223    36397.316 
   28600    287.96229   -1291.8425    333.54295     330.1001    498.13354    36397.316 
   28700     305.7231   -1286.9545    326.35788    407.26841    1124.7694    36397.316 
   28800      294.336   -1286.2067    331.88558    362.59586    613.26352    36397.316 
   28900    299.10978    -1301.194     337.6163    374.69803   -217.79939    36397.316 
   29000    296.68728   -1308.2015    315.63181    334.86738    158.96405    36397.316 
   29100    302.46563   -1287.6579    353.45254    419.08511   -119.27093    36397.316 
   29200    312.78169   -1280.5141      341.187    460.11945    233.14958    36397.316 
   29300    308.64637   -1299.3913    337.04851    418.60157     132.4922    36397.316 
   29400    294.12345   -1342.6719     325.8269    299.12094    32.733494    36397.316 
   29500    289.59953    -1324.421    340.84712    312.15115   -577.01779    36397.316 
   29600    301.74508   -1280.9592    331.16409    400.27143   -367.30381    36397.316 
   29700    304.94889   -1267.9005    335.53526    432.03578    71.065917    36397.316 
   29800    296.28083   -1246.6269    353.45513    432.44669     118.2468    36397.316 
   29900    290.86634   -1276.5335    339.15477    364.01426   -588.65299    36397.316 
   30000    312.02645   -1305.9051    332.38934    422.55172   -118.72778    36397.316 
   30100    296.43754   -1317.8731    353.97112    362.41766   -148.61602    36397.316 
   30200    293.85661   -1314.7524    336.74611    336.76572    173.08845    36397.316 
   30300     299.1206   -1288.4159    349.27659    399.18483   -35.621231    36397.316 
   30400    284.43884   -1266.5506    351.84805    357.93257    64.683087    36397.316 
   30500    294.90442   -1317.0108    339.29218    341.74147    794.81735    36397.316 
   30600    304.59813   -1340.4883    342.61869    364.96213    916.27683    36397.316 
   30700     294.5894   -1294.4359    359.74844    383.36324    871.37142    36397.316 
   30800    286.70152   -1293.9856    334.96323    323.73638    760.34682    36397.316 
   30900    297.11406   -1307.6475    346.70079     368.3998    1046.5831    36397.316 
   31000     290.5042   -1290.5076    361.39556    370.66063    977.32382    36397.316 
   31100    296.36692   -1337.0927      356.594    345.50495     840.0561    36397.316 
   31200    298.67429   -1284.8872    341.13069    392.57076    388.61128    36397.316 
   31300     299.2744   -1298.7169    359.52192    399.81736    -14.63633    36397.316 
   31400    297.57086   -1268.8189    339.55987    402.13126   -175.25519    36397.316 
   31500    314.33913   -1294.7467    351.52284    463.19102    169.28354    36397.316 
   31600     292.5147    -1265.033    353.02357    396.75864    -73.62388    36397.316 
   31700    295.13182   -1288.0064    351.51364    383.98484    69.554006    36397.316 
   31800    294.82403   -1289.4238    363.36047    393.03714   -222.42952    36397.316 
   31900    303.62221   -1262.1583    347.51242    443.81937   -50.046991    36397.316 
   32000    303.75093   -1296.8371    359.75506     421.9591     462.1995    36397.316 
   32100    298.38426   -1279.4472     344.5481    400.13054    62.276311    36397.316 
   32200    303.60217   -1299.0298    345.51728    404.86309    458.46186    36397.316 
   32300    304.32293    -1319.465    349.14888    391.28433    103.42647    36397.316 
   32400    305.23729   -1314.4843    354.24844    405.45553    126.49575    36397.316 
   32500    299.76237   -1342.6569    342.80479    341.34341    376.12887    36397.316 
   32600    297.14307   -1340.4713    327.87581    316.88079    175.41151    36397.316 
   32700    304.18149   -1348.1164    351.56462    364.41578    424.59553    36397.316 
   32800    289.31793    -1359.866    342.38293    276.98205    107.31584    36397.316 
   32900    299.05142   -1331.5108    354.44156    360.94535    51.495247    36397.316 
   33000      291.792   -1309.3647    355.00499    351.17492   -348.09422    36397.316 
   33100     296.7943   -1310.6262    364.83445    382.12408   -403.33388    36397.316 
   33200    303.22771   -1329.6544    369.17039    396.21618    36.760287    36397.316 
   33300    308.36194   -1280.0693    375.33883    474.94123    346.46673    36397.316 
   33400    305.71796   -1319.3965    380.70803    429.15353    56.946816    36397.316 
   33500    293.69852   -1280.0078    361.41751    395.47439   -94.170661    36397.316 
   33600    296.76537   -1306.6183     354.7521    375.92024    138.46343    36397.316 
   33700    298.83297    -1318.325    373.15845    391.87069   -108.69288    36397.316 
   33800    299.36391   -1339.0035    358.61022    359.01951   -544.81758    36397.316 
   33900    298.09237   -1341.6277    341.83623     333.9322   -80.781021    36397.316 
   34000    302.92122   -1292.1478    379.17822    442.35931   -172.39763    36397.316 
   34100    299.78165   -1291.3867    374.88812    424.78321    11.338687    36397.316 
   34200     295.6352   -1339.0748    352.56848    336.22344   -68.258651    36397.316 
   34300    299.60379   -1346.1019    355.59416    349.97834    275.48153    36397.316 
   34400    294.66312   -1343.3598    356.54114    331.56186    1011.9591    36397.316 
   34500    303.97284   -1320.1676    354.96512    394.83157      767.329    36397.316 
   34600    296.06793   -1327.8394    358.94137     355.7679    404.40397    36397.316 
   34700    295.12278   -1327.0733    342.70419      336.068    473.07202    36397.316 
   34800    307.70942   -1307.4121    354.32106    423.66124   -28.097564    36397.316 
   34900    292.63662   -1309.9593    361.11671    360.47101    285.11011    36397.316 
   35000    306.56919   -1299.9055    344.84605    416.59119   -69.773729    36397.316 
   35100    303.85766    -1290.507    373.15352    442.16516    26.681272    36397.316 
   35200    304.33949   -1315.3215    356.39261    402.74563    122.66803    36397.316 
   35300    297.10911   -1316.7105    356.57572    369.18955    362.66539    36397.316 
   35400    309.30038   -1338.1281     371.2211    416.96349   -9.7241308    36397.316 
   35500    296.06312   -1333.5504    357.80583    348.89985   -10.006685    36397.316 
   35600    310.18201   -1296.9914    388.16639    478.99005    500.43455    36397.316 
   35700    301.96856   -1308.9525    392.30027    434.41422    53.843099    36397.316 
   35800     289.4352   -1292.1949    372.45731    375.25219   -261.67558    36397.316 
   35900     305.6997   -1275.7869    364.62837    456.60183   -223.04109    36397.316 
   36000    304.35022   -1306.4368    348.83304    404.11876    -469.3771    36397.316 
   36100      296.018   -1318.0604    352.44632    358.82844   -91.582569    36397.316 
   36200    302.56817   -1330.3308    346.49685    369.91529    -353.5453    36397.316 
   36300    297.94235   -1285.6479     355.2473    402.65189    206.94823    36397.316 
   36400     310.3821    -1331.513    353.17564    410.37296   -294.92513    36397.316 
   36500    299.06599   -1317.7626    357.41157    377.72879    83.349327    36397.316 
   36600    289.30192   -1298.8538    356.93165    352.47124    195.84922    36397.316 
   36700     298.6349   -1348.6236    350.26607     337.7935    302.63858    36397.316 
   36800    291.60022   -1343.6693    351.65303    312.66028    594.67281    36397.316 
   36900    292.10203   -1369.4053    351.20963    288.72603    195.52068    36397.316 
   37000    302.89055   -1354.3145    336.57966    337.45682   -27.637522    36397.316 
   37100    316.24426   -1350.3897    345.37744    409.92654    186.10177    36397.316 
   37200    297.87338   -1354.8751    359.98071    337.84943   -574.24915    36397.316 
   37300    296.68997   -1383.5607    362.71004    306.59836   -849.51939    36397.316 
   37400    295.73389   -1372.6761    365.01861    315.51383    47.188782    36397.316 
   37500    300.64417   -1373.0678    319.96818    292.04132    353.39865    36397.316 
   37600    304.35295   -1344.5183    356.91766    374.13406    223.12869    36397.316 
   37700     299.5438   -1319.6472    385.09207    405.66248    421.21814    36397.316 
   37800    306.22563   -1370.2106    357.21715    357.11998    184.30307    36397.316 
   37900    303.20259   -1391.1433    356.29299     321.7375    924.03517    36397.316 
   38000    293.38251   -1342.1132    375.36264    345.90028    14.209984    36397.316 
   38100    303.06591   -1406.3417    363.88319    313.51778   -388.54329    36397.316 
   38200    300.78819   -1357.5632    358.42992    346.65196   -129.76666    36397.316 
   38300    301.02575   -1331.0537    350.59688    366.39134    370.01542    36397.316 
   38400    291.55652   -1433.2537     351.5846    222.81189    131.34233    36397.316 
   38500    295.52907   -1389.7399     353.1525    285.66753    83.262755    36397.316 
   38600    299.31599   -1367.4977     369.9195    341.62015    125.95497    36397.316 
   38700    304.18532   -1371.3435    355.34653    344.98776    549.30612    36397.316 
   38800    302.38175   -1371.1496    351.23546    333.00102    57.028341    36397.316 
   38900    303.52658   -1398.1896     345.1083    304.95609    275.48771    36397.316 
   39000    294.52133   -1415.3711    349.84197    252.21702   -536.04216    36397.316 
   39100    292.41923   -1374.1883    368.23431    302.38689   -302.54237    36397.316 
   39200    305.32456   -1380.5453    347.05247    332.58912    120.52534    36397.316 
   39300    297.88051    -1372.845    359.77947    319.71025    -271.5115    36397.316 
   39400    304.55888   -1315.3736    367.75664    415.03915   -464.01609    36397.316 
   39500    300.99188   -1286.2171    353.35917    413.83869   -894.77449    36397.316 
   39600    309.32949   -1334.6295     362.8307    412.20194   -1012.4473    36397.316 
   39700    297.14452   -1302.0125    363.32539     390.7957   -914.56019    36397.316 
   39800    309.87367   -1324.3846      364.755    426.80589   -163.22702    36397.316 
   39900     301.6702   -1305.9712     367.2931    411.05352   -262.93791    36397.316 
   40000    308.71448   -1342.0747    386.49534    425.66969   -23.335143    36397.316 
   40100    292.18962   -1327.2174    370.54479    350.64099    61.013722    36397.316 
   40200    297.37168   -1334.8833    364.73955    360.35545     47.78424    36397.316 
   40300    295.81173   -1329.7505    367.82892    361.59803   -170.82312    36397.316 
   40400     296.6578   -1327.0322    354.24026    354.51315    580.59118    36397.316 
   40500    288.50595   -1313.5134    368.95382    346.27253    46.902804    36397.316 
   40600    303.19871   -1352.7662    363.02913    366.83332    558.83776    36397.316 
   40700    300.97665   -1346.5401    371.31566    371.40401    327.61895    36397.316 
   40800    306.93834   -1326.9378    371.51786    417.88228    714.06503    36397.316 
   40900    302.89814   -1354.9291    371.66219    371.95872    337.73079    36397.316 
   41000    290.16088    -1342.556    392.89526    348.57585    586.09357    36397.316 
   41100    304.37568   -1291.8699    371.63935    441.60581    787.84086    36397.316 
   41200    296.82759   -1295.3073    385.86016    418.61761    327.60088    36397.316 
   41300    302.60318   -1352.5651    372.97469    374.31553    606.59103    36397.316 
   41400    298.40207   -1347.8698    390.83062     378.0701    505.08187    36397.316 
   41500    307.87239   -1301.0126    392.94044    469.40923    408.51755    36397.316 
   41600     306.4378   -1311.9875    369.77561    428.85084    375.00094    36397.316 
   41700    296.77741   -1293.1586    401.00998    435.69164    3.7852985    36397.316 
   41800    301.99953   -1331.7387    386.79201    406.25841    125.53048    36397.316 
   41900    305.00491   -1289.1281    390.22317    465.74679    280.37808    36397.316 
   42000    297.36462   -1290.4966    385.29663    425.26759    312.00075    36397.316 
   42100    296.22015   -1310.1364    378.59491    393.80554    183.10527    36397.316 
   42200    304.82197   -1336.1779    388.27793    415.93324    296.09673    36397.316 
   42300    304.30944   -1340.1577     381.5449    402.92726   -67.662792    36397.316 
   42400    300.28886   -1375.7951    380.28731    348.04334   -11.437532    36397.316 
   42500    306.55868   -1343.8016    379.06572    406.86773    61.094567    36397.316 
   42600    298.41959   -1349.5695    383.50531    369.12347      702.708    36397.316 
   42700    310.08939   -1355.9945    382.87618    414.28233    136.43009    36397.316 
   42800    297.10534   -1363.9285    365.94141     331.3204     114.5995    36397.316 
   42900    313.97519   -1369.3116    377.99467    413.46959   -327.60653    36397.316 
   43000    302.44555   -1390.5972     364.8896    327.49309   -88.202229    36397.316 
   43100    302.63095   -1380.0119    363.49296    337.51123    347.50161    36397.316 
   43200    300.02741   -1378.5005    378.67075    342.55159   -396.26096    36397.316 
   43300    302.43606   -1361.1596    379.94657    371.94513   -144.76855    36397.316 
   43400    297.55682   -1319.0293    391.61796    403.91619    298.28795    36397.316 
   43500    298.37268   -1335.4785    370.22402    369.72331   -26.313243    36397.316 
   43600    305.54233   -1359.5858    379.86365    387.33414   -48.666444    36397.316 
   43700    298.56748   -1353.6186    373.48718    355.71795    261.39929    36397.316 
   43800    309.56258   -1357.9649    377.10484    404.18355    148.84958    36397.316 
   43900    300.30099   -1411.7365    397.16531    329.03423   -345.31036    36397.316 
   44000    302.44855   -1408.1743    371.93978    316.97952    243.82583    36397.316 
   44100    302.24544   -1434.2595    385.53892    303.58472    213.32921    36397.316 
   44200    304.85617   -1381.0585    374.37453    357.30222    125.15769    36397.316 
   44300    303.43156   -1377.1381    391.50268    371.97683    347.76678    36397.316 
   44400    301.50113   -1353.4222     379.3422    374.89507    612.78131    36397.316 
   44500    306.28015   -1383.1848    365.96704    353.13963    174.46712    36397.316 
   44600    289.45263   -1333.4705     397.3234    358.92066   -330.80513    36397.316 
   44700    296.02357   -1381.0695      398.494    341.89193    183.33834    36397.316 
   44800    291.92254   -1376.7545     372.9641    302.32828   -609.18686    36397.316 
   44900    293.04419   -1349.9942    392.57101     353.7139   -5.1512413    36397.316 
   45000    292.98415   -1362.1946     396.1328    344.80664    115.01712    36397.316 
   45100    303.98999   -1352.6108    394.62359     402.1235   -43.416409    36397.316 
   45200    301.18727    -1404.364     364.2903    307.49717    189.16306    36397.316 
   45300    300.94519   -1366.8057    386.14627    365.82835    270.98027    36397.316 
   45400    296.14622   -1349.5806    389.50719    364.94284    109.39304    36397.316 
   45500    296.09646   -1387.1027    395.10579     332.7966    284.91787    36397.316 
   45600    306.54591   -1401.0045    374.36369    344.90565    233.38142    36397.316 
   45700    295.04086   -1393.4796    379.91737    306.50836    615.79974    36397.316 
   45800    305.02203    -1434.548    375.47242    305.65271    611.85957    36397.316 
   45900    311.87297   -1410.9588    387.73045    372.15238    560.86992    36397.316 
   46000    306.60055   -1408.4217    386.35025    349.71946    679.61389    36397.316 
   46100    291.12865   -1416.3044    408.08173      294.344    588.95513    36397.316 
   46200    303.17102   -1437.9329    386.25824    304.77186    298.13599    36397.316 
   46300    296.98859   -1390.7073    385.32175     323.3996    561.07907    36397.316 
   46400    308.32367   -1389.6075    372.28753    362.18053     266.1751    36397.316 
   46500    297.24309   -1358.7425    385.50194    356.68323    68.639838    36397.316 
   46600    297.72581   -1399.6855    383.33609    315.73421    18.940406    36397.316 
   46700    310.61803   -1378.0751    395.07836    406.76922   -68.063156    36397.316 
   46800    304.13223   -1369.6215    401.83655    392.96226    139.27015    36397.316 
   46900    303.92695   -1361.5269    399.33122    397.63301    16.400207    36397.316 
   47000    294.80787   -1360.5522    388.67626    347.15223   -71.964792    36397.316 
   47100    299.55895   -1369.6579    404.31716    374.94469    198.74806    36397.316 
   47200    312.41731   -1401.2894    380.80387    377.33076    68.033227    36397.316 
   47300    300.48124   -1338.3945    390.26966    396.28708    185.22957    36397.316 
   47400    304.81697   -1407.5151     412.7198    369.01549    -276.8163    36397.316 
   47500    310.92638    -1370.101    406.05319     427.0977   -767.57156    36397.316 
   47600    298.80349   -1404.8722    388.30631    320.33946   -558.80157    36397.316 
   47700    299.35261   -1381.8712    421.75077    379.24178    -627.9014    36397.316 
   47800    302.20506   -1361.7784    372.89486    363.24109   -216.57294    36397.316 
   47900     296.3104   -1386.1213    378.73068    318.36012   -244.77703    36397.316 
   48000    286.96634   -1333.5625    408.20302    358.58415   -541.64488    36397.316 
   48100    312.67697   -1388.7772    365.45327    375.65411   -355.43481    36397.316 
   48200    295.61907   -1402.4545    396.65505    316.85823   -111.96605    36397.316 
   48300    300.57366    -1361.978    410.19883    393.04625   -251.33705    36397.316 
   48400    305.66673   -1398.3914    399.80732    369.02874     58.28429    36397.316 
   48500    297.10403   -1375.9916    405.17689    358.48697   -83.873478    36397.316 
   48600    293.11829   -1347.3078     370.2096     334.3705    237.48643    36397.316 
   48700    310.85639   -1373.4548    417.70522    435.08281    698.30313    36397.316 
   48800    302.33042   -1403.1951    389.79933    339.28976    688.27119    36397.316 
   48900    296.39938   -1392.1792    414.54748    348.51717    187.35519    36397.316 
   49000     296.8632   -1412.7416    394.33044    309.81297   -126.06433    36397.316 
   49100    307.88108   -1368.2461    400.74126    410.01543     302.2064    36397.316 
   49200    290.24797   -1365.3788    401.91843    335.16596    -38.77862    36397.316 
   49300    289.57246   -1368.1509    383.41756    310.87054    75.305673    36397.316 
   49400    296.46336   -1395.0478    388.47885    319.86617    168.17529    36397.316 
   49500    292.80254   -1380.5787    396.09283    325.57007    572.83171    36397.316 
   49600    305.23662   -1404.2779    396.90505    358.31556    298.96252    36397.316 
   49700    286.99642    -1359.684     394.9017    319.29597    869.74886    36397.316 
   49800    302.32197   -1327.9501    420.30586    445.00344    153.28607    36397.316 
   49900    294.47242   -1351.3858    398.34163    364.48315    3.8515507    36397.316 
   50000    290.56266   -1336.3071    409.52608    373.25319   -131.84432    36397.316 
   50100     300.0645   -1350.7532    409.78007     401.5742   -138.86895    36397.316 
   50200    298.25595   -1383.1405    417.14297    368.45797   -543.84163    36397.316 
   50300    300.83492   -1325.7739    433.66423    453.88465   -260.45107    36397.316 
   50400     295.8303   -1346.6431    423.07028    400.02993    82.817516    36397.316 
   50500    299.79186   -1363.7941    426.39887    403.93227    418.70269    36397.316 
   50600    305.86206   -1354.5682    424.10136    438.01994    139.45947    36397.316 
   50700    302.22335   -1324.1094     418.8539    446.95095   -111.09564    36397.316 
   50800    308.30625   -1396.8005    397.17348    379.79551   -268.91752    36397.316 
   50900    291.67509   -1396.0042    428.51641    337.52369    311.30864    36397.316 
   51000     305.6643   -1419.8119    398.50721    346.29729    642.15823    36397.316 
   51100    298.34058   -1377.6145    402.70554    359.92525    592.40767    36397.316 
   51200    295.01043    -1384.349    399.77185    335.35734   -255.84878    36397.316 
   51300    301.00425   -1387.0721    425.55772    385.23756   -240.22556    36397.316 
   51400    297.95152   -1382.9147    411.66628    361.84498   -848.58508    36397.316 
   51500    283.78144    -1425.177    405.33511    249.85189   -290.84134    36397.316 
   51600    295.36051    -1435.473    410.60689    296.63469   -134.54267    36397.316 
   51700    304.36262   -1427.7129    418.28522    352.35033   -262.68246    36397.316 
   51800    289.15248   -1453.0056    408.06803    248.78721    363.07762    36397.316 
   51900    307.13819   -1454.7231    405.69039    325.16371   -148.37314    36397.316 
   52000    289.83141   -1422.6567    402.70361    276.80944    2.7861346    36397.316 
   52100    298.81216    -1461.658    382.24558    257.53168   -265.13037    36397.316 
   52200    304.40669   -1399.1977    400.16739     362.9449    227.20657    36397.316 
   52300    293.26029   -1435.4509    399.77402    276.42707    510.41714    36397.316 
   52400    301.48998   -1411.3966    400.13754    337.66615     220.2785    36397.316 
   52500    301.91153    -1392.121    415.45188    374.14218   -372.68978    36397.316 
   52600    294.30613    -1354.421    422.27529    384.63752   -113.12544    36397.316 
   52700    307.69916   -1322.0371    411.80534    466.47453    -403.2747    36397.316 
   52800    309.20965   -1379.1277    399.88432    404.22122   -640.49927    36397.316 
   52900     299.4991   -1342.3108    426.46937    424.17621   -299.57057    36397.316 
   53000    310.20139   -1373.7262    416.07774    430.25335   -591.20645    36397.316 
   53100    297.77023   -1433.8623    410.35859    308.77862   -192.83286    36397.316 
   53200    302.56921   -1415.3042    405.58017    344.02989     297.9016    36397.316 
   53300    298.43932   -1392.7725    410.95105     353.4545    503.65305    36397.316 
   53400    295.33441   -1405.0165    398.87828    315.24578   -322.98545    36397.316 
   53500    299.49763   -1375.5095    408.63017    373.13174     395.3722    36397.316 
   53600    303.49718   -1410.7464    419.24623     366.4057    418.76129    36397.316 
   53700    295.44275   -1400.9187    411.04358    331.99363    806.49111    36397.316 
   53800     297.8676   -1410.9167    415.58498    337.38625    910.25355    36397.316 
   53900    296.40995   -1389.9188    396.83328    333.11068    341.24132    36397.316 
   54000    295.49872   -1413.6699    414.46723    322.91655    807.46517    36397.316 
   54100    287.52034   -1423.3204    424.67763    287.77961    566.55694    36397.316 
   54200    298.76473   -1433.6917    429.81421    332.85447   -25.963639    36397.316 
   54300    311.99632   -1384.0385    409.20694    421.10113   -257.49858    36397.316 
   54400    302.37951   -1421.9465    408.67841     339.6371    -605.9099    36397.316 
   54500    291.24825   -1395.4224    398.38415    306.06344   -514.46406    36397.316 
   54600    303.08914    -1407.119    420.19358    369.15476    -502.4538    36397.316 
   54700    304.11643    -1405.552    394.67175    349.79627    206.68504    36397.316 
   54800    302.96544   -1397.7082    405.43665    363.25513    91.154596    36397.316 
   54900    299.19162   -1420.0918    442.61178    361.16187    266.85562    36397.316 
   55000    312.95412   -1437.0648    432.76442    395.91764    117.36465    36397.316 
   55100    306.12457   -1390.2718    402.91588    382.30534    249.19336    36397.316 
   55200    297.79611   -1381.8213    403.85775    354.43456    278.15801    36397.316 
   55300    293.83924   -1408.5602    422.37384     328.5079    131.35995    36397.316 
   55400    307.15929   -1391.4396    408.01676    390.86797    549.52733    36397.316 
   55500    306.36812   -1409.0651    413.34858    375.03449   -29.461676    36397.316 
   55600     307.3881   -1424.0354    410.20695    361.48612   -25.317862    36397.316 
   55700    291.48811   -1449.2263    405.49051    260.43905   -269.58405    36397.316 
   55800    298.85626   -1425.4877    403.28296    314.93672    421.51066    36397.316 
   55900    303.76292   -1422.4617    390.27364    326.90675   -219.07767    36397.316 
   56000    299.45265   -1437.5869    388.82211      291.045   -157.26634    36397.316 
   56100    294.42304   -1460.5266    412.66798    269.44772   -307.29305    36397.316 
   56200    302.86162   -1428.5547    403.85766    330.36515   -439.46435    36397.316 
   56300    303.11444   -1473.2118    414.73655     297.7181   -183.25381    36397.316 
   56400    292.56284   -1455.8687    416.73708    269.85182   -583.90533    36397.316 
   56500    298.41174   -1471.6264    409.82962    273.35578   -242.70826    36397.316 
   56600    286.41785   -1460.6107    414.64799    235.52689    362.44172    36397.316 
   56700     303.5968     -1445.86    403.81408    316.30568    62.218278    36397.316 
   56800    301.44424   -1427.3494    407.91598     329.2872    276.32304    36397.316 
   56900    293.25994   -1435.4971    430.91269    307.51803    305.00781    36397.316 
   57000    308.46448   -1467.1536    401.95128    314.92814    719.65654    36397.316 
   57100    303.77774   -1412.3084    446.51115    393.36388     627.6821    36397.316 
   57200    310.10101   -1393.8351    431.46378    425.08129    556.54414    36397.316 
   57300    296.01776    -1386.941    398.14985    335.65025   -286.23805    36397.316 
   57400    292.45286   -1413.4064    418.92717    314.01213   -179.26785    36397.316 
   57500    298.51202    -1448.759    412.88609    299.72837   -275.56113    36397.316 
   57600    306.35117    -1442.239    426.16608    354.60225   -76.759399    36397.316 
   57700     301.1432   -1458.0255    405.51739    294.86555    -645.3975    36397.316 
   57800    303.55389   -1431.1192    423.64151    350.68189     -913.512    36397.316 
   57900    292.93089   -1380.6217    413.42507    343.43357    -14.54212    36397.316 
   58000    301.90545    -1430.128    415.50654    336.16267      -128.08    36397.316 
   58100    290.02404   -1444.1705    401.64464    255.09856   -124.04197    36397.316 
   58200    300.13447   -1390.6428    410.67322    362.89081   -179.63361    36397.316 
   58300     290.6685   -1447.5593     424.6684    277.61694    198.73179    36397.316 
   58400     305.6914   -1387.1244    434.31048    414.90929   -179.39809    36397.316 
   58500    302.61478   -1407.3378    406.69066    353.31069   -445.99049    36397.316 
   58600    295.11061   -1399.7781    398.53884    319.14342   -121.04812    36397.316 
   58700    296.47124   -1453.4784    394.84516    267.83715    117.50717    36397.316 
   58800    304.77202    -1437.866    410.14646    335.89022    32.869448    36397.316 
   58900    304.24766   -1451.5417    409.83923    319.56115     -67.8598    36397.316 
   59000    303.67497   -1429.5494    407.22409    336.37602   -42.327498    36397.316 
   59100    298.98046   -1435.8532    403.93854    305.78247   -463.73696    36397.316 
   59200    313.26041   -1406.9903    404.77628    399.37448   -425.22885    36397.316 
   59300    290.87849   -1430.9157    410.99999    281.53158   -973.33949    36397.316 
   59400    307.39754   -1412.8532    410.50118    373.00476   -629.48042    36397.316 
   59500    302.63074    -1430.232    424.04531     347.8425   -137.05775    36397.316 
   59600    299.55479   -1447.3101    400.72871    293.68541    12.564038    36397.316 
   59700    296.62443   -1443.8971    421.37646    304.63518    13.686019    36397.316 
   59800    289.95634   -1415.0244    417.80204    300.09908    159.65983    36397.316 
   59900    291.49902   -1449.4891    434.73633    289.47091   -202.06543    36397.316 
   60000    296.96765    -1449.373    409.13104    288.44952    -65.82256    36397.316 
   60100    296.81962   -1468.0735    410.49845     270.4541    -359.1592    36397.316 
   60200    290.92718   -1486.1677     422.6213    238.11877   -8.2373498    36397.316 
   60300    296.25529   -1440.5113    429.51544    314.50834   -220.36461    36397.316 
   60400    292.99657   -1401.6986    405.17122    314.39664   -552.98496    36397.316 
   60500     300.4801   -1428.1664    423.50987    339.75027   -64.989101    36397.316 
   60600    290.84381   -1429.3799    424.32921    296.24144   -315.02449    36397.316 
   60700    300.86318   -1442.0717    413.48104     317.5301   -88.465521    36397.316 
   60800    295.48453   -1450.8403    419.98806    291.20343    241.05554    36397.316 
   60900    302.81002   -1460.9022    404.52841    298.45756    18.731246    36397.316 
   61000    298.24715   -1456.7115    403.81889    281.52353    185.21242    36397.316 
   61100    295.74475   -1474.0282    416.71715    265.90888    425.53475    36397.316 
   61200     295.2578   -1474.6928    415.99972    262.34814    99.266353    36397.316 
   61300    301.36474   -1427.1494    422.71747    343.93293    741.94213    36397.316 
   61400     293.4706   -1463.3705    423.44267    273.11714    138.55123    36397.316 
   61500    309.23012   -1448.2146     435.8828    371.22427    449.16711    36397.316 
   61600    302.72562   -1494.4653    400.49739     260.4858   -9.9000511    36397.316 
   61700    310.44375   -1480.4436    430.85675    339.39928    333.81592    36397.316 
   61800    290.63371   -1484.8073    424.82193    240.36682    138.15377    36397.316 
   61900    307.56452   -1488.1379    397.62147    285.58745   -389.90014    36397.316 
   62000    309.87224   -1460.0395    419.51172    345.90135   -220.17257    36397.316 
   62100    297.96572   -1445.9917    418.82408    305.98933   -193.02548    36397.316 
   62200    300.57622   -1438.7473    444.31244    350.40207     283.8786    36397.316 
   62300    299.35446   -1462.7369    435.19109    311.82466    842.12304    36397.316 
   62400    300.15656    -1456.286    450.99944    337.67271    224.94542    36397.316 
   62500    297.61097   -1424.9491    450.32565    356.94632    214.60025    36397.316 
   62600    289.18649   -1441.1585    463.96977    316.68824   -183.75808    36397.316 
   62700    295.02724   -1450.6617    465.29664     334.6446   -89.062076    36397.316 
   62800    294.47119   -1388.8543    460.75507    389.42253   -124.10114    36397.316 
   62900    288.75581     -1410.94    475.06031    356.07036   -290.88282    36397.316 
   63000    297.87893   -1411.9169    449.19351    370.04531   -548.92898    36397.316 
   63100    303.18971   -1432.4873    443.12969    367.17253   -144.23984    36397.316 
   63200    290.73368   -1412.2701    419.62433    308.15359   -100.14413    36397.316 
   63300    291.50697   -1371.7744     448.6918    381.17673   -138.54685    36397.316 
   63400    289.56968   -1415.9273    456.70252    336.36668   -420.90561    36397.316 
   63500    314.04381   -1454.2889    451.26815    402.07278   -314.67523    36397.316 
   63600    301.08904   -1432.7549    424.12928     338.5057   -739.01338    36397.316 
   63700    300.34584   -1469.0164    415.06898    289.85865   -928.73819    36397.316 
   63800    292.89711   -1450.2641    433.59961    293.81457   -677.71703    36397.316 
   63900    298.60087     -1437.41    431.89415    330.48292   -541.82857    36397.316 
   64000    302.79026   -1411.7352     432.7967    375.80447   -218.40671    36397.316 
   64100    301.87497   -1410.2595    422.08832    362.47654   -762.05723    36397.316 
   64200    306.37916   -1421.1616    408.73928    358.37805    -138.8189    36397.316 
   64300    297.02651   -1436.1358    447.91219    340.73118   -548.98887    36397.316 
   64400    299.34676   -1376.3793     426.5885    389.54518   -349.66185    36397.316 
   64500     306.8516   -1397.9838    420.85885    395.78924    154.15238    36397.316 
   64600    306.22101   -1364.4977    442.36837    447.96345    219.87889    36397.316 
   64700    298.41729    -1366.201    423.61707    392.59343    217.58787    36397.316 
   64800    298.69965   -1389.0441    438.84841    386.24501    664.90116    36397.316 
   64900     304.7941   -1454.7893    447.12261    356.04188   -3.2795092    36397.316 
   65000     299.0797    -1406.067    426.66234    358.73645    46.555909    36397.316 
   65100    307.84448   -1411.5989    440.47766    406.23526    201.34607    36397.316 
   65200    296.22093   -1438.3971    417.91699    304.87038    130.98181    36397.316 
   65300     299.1241    -1417.494    429.26428     350.1101    20.229758    36397.316 
   65400     305.2569   -1424.2988    427.88339    369.36373    -123.6865    36397.316 
   65500    306.45879   -1429.0119    442.54053    384.68524   -518.52787    36397.316 
   65600    300.17616   -1418.5025    415.88653    340.43102    -140.0861    36397.316 
   65700    293.80552   -1491.0677    422.16022    245.63594   -211.30555    36397.316 
   65800    301.37769   -1462.7962    424.32829     309.9549   -679.80518    36397.316 
   65900    294.61691   -1457.8557    435.42063    295.73865  -0.89819532    36397.316 
   66000    290.41095   -1435.7115    421.09878    284.74279    327.79535    36397.316 
   66100    302.80188   -1408.5009    419.09136    365.38537    281.91355    36397.316 
   66200      308.433   -1461.0061    410.98343    329.96705    582.92229    36397.316 
   66300    297.26863   -1437.2678     405.4931    298.26336    519.47809    36397.316 
   66400    299.91891   -1375.9298    448.80121    414.76731    495.08178    36397.316 
   66500    303.71063   -1442.5226    410.01691    326.35513    460.30549    36397.316 
   66600    297.79416   -1445.9321    400.32577    286.78306   -68.409081    36397.316 
   66700    303.87263   -1441.8176    429.62636    347.39439   -314.77068    36397.316 
   66800    291.19606   -1450.2942     426.0915    278.66551   -418.93694    36397.316 
   66900     295.4181   -1463.5955    397.17965    255.34254   -448.37273    36397.316 
   67000    301.67532    -1466.885    418.70824    301.57775   -715.80538    36397.316 
   67100    299.55983   -1434.0236    435.25773    341.52347   -476.23676    36397.316 
   67200    294.23132   -1445.2921    440.96556    312.12206   -833.88292    36397.316 
   67300     297.1269   -1494.8068    408.04874    242.64594    -199.0465    36397.316 
   67400     298.3458   -1480.0633    430.17045    284.96467   -399.33002    36397.316 
   67500    297.00875   -1533.0403    394.90131    190.73635   -142.50275    36397.316 
   67600    307.46241   -1477.7315    421.49663    319.41219    24.356535    36397.316 
   67700    308.17294   -1442.2379    444.12506    380.71322    234.98438    36397.316 
   67800    300.82094   -1435.4962    434.99248    345.42814   -470.66545    36397.316 
   67900    297.76986   -1432.9996     409.6492    308.93033   -327.39098    36397.316 
   68000    296.08171   -1456.6014     425.0407    293.16684   -290.11809    36397.316 
   68100    303.96125   -1462.2948    423.65806     321.3454   -217.27209    36397.316 
   68200     302.2635   -1448.0767    457.06518    361.37454   -124.30188    36397.316 
   68300    287.54927   -1444.0492    457.33038    299.83295   -485.08489    36397.316 
   68400    299.26415   -1465.0771    428.29685    302.18619    79.905405    36397.316 
   68500    297.84502   -1465.4643    426.64312     293.7958    454.11819    36397.316 
   68600    301.09969    -1456.786     396.8409    287.23387   -345.61002    36397.316 
   68700    304.20882   -1404.2776    449.01148    405.82369    42.017589    36397.316 
   68800    304.57693    -1387.015    456.68635    432.40818    31.570104    36397.316 
   68900     299.4461   -1394.6574    443.97516    389.09831    54.467209    36397.316 
   69000    291.40114   -1398.8714    426.92009    331.83446   -104.03739    36397.316 
   69100    303.12106   -1372.0202    446.85819    431.06103    36.081637    36397.316 
   69200    293.85554   -1381.8148    441.13264    374.08514   -208.29026    36397.316 
   69300    299.77626   -1441.1379    407.31028    307.43015   -323.19035    36397.316 
   69400    295.16558   -1452.6213    412.60113    280.60841   -77.667408    36397.316 
   69500     301.4184   -1426.9709    403.46835    325.10241    323.22639    36397.316 
   69600    296.31944   -1423.7706    453.41803    355.43863    647.19526    36397.316 
   69700    300.16852   -1448.6127    415.41775    309.81777    200.22903    36397.316 
   69800     304.8438   -1466.6008    431.17668    328.50678    217.08097    36397.316 
   69900    291.52068   -1458.0046    463.26364    309.57963    759.13019    36397.316 
   70000    298.86742   -1441.5484    426.52316    322.16609    788.91325    36397.316 
   70100     297.4503   -1442.2787    424.71883    313.29099    460.55897    36397.316 
   70200    296.69528   -1412.9003    423.41835    337.99086    95.247409    36397.316 
   70300    297.58025   -1379.5369    434.28796    386.18339    47.454783    36397.316 
   70400    310.94188   -1412.6013    438.45614    417.06968   -297.38642    36397.316 
   70500    305.33034   -1406.4203    437.92074    397.60819   -196.83397    36397.316 
   70600    299.99445    -1426.704    426.88239    342.41238    93.452091    36397.316 
   70700    293.24801   -1403.8794     436.5961    344.76573   -162.80325    36397.316 
   70800    289.04043   -1399.3531    436.95337    330.82374   -344.20171    36397.316 
   70900    308.96218   -1413.0385    420.79032    390.10918    362.18312    36397.316 
   71000    291.37198   -1437.0449    417.82242    284.43285    89.653465    36397.316 
   71100    289.80655   -1455.2748    426.53632    267.91282    338.03017    36397.316 
   71200    308.12053      -1421.3    430.69635    387.98796    441.40224    36397.316 
   71300    299.32182   -1442.7274     410.1633    306.66037    629.53694    36397.316 
   71400    292.51887   -1456.7506    414.77787      266.814    5.1208209    36397.316 
   71500    309.11524   -1448.0197    465.52944    400.55188    706.19383    36397.316 
   71600    303.24031   -1465.0661    402.21793     293.9084    69.382206    36397.316 
   71700    302.10686   -1416.4659    440.46696    375.68638    576.44658    36397.316 
   71800    301.36006   -1438.8931    429.78976     339.2406    480.94729    36397.316 
   71900     308.8316   -1391.8338    435.71664     425.6559     333.3456    36397.316 
   72000    299.42716   -1422.6092    427.11708    344.20367    174.45307    36397.316 
   72100    305.71646   -1457.1643    435.89161    346.56266   -183.41491    36397.316 
   72200    296.71827   -1442.7431    420.96795    305.80051     103.5756    36397.316 
   72300    303.35032   -1437.2528    445.08878    365.08469   -242.84288    36397.316 
   72400    303.57296   -1468.5578    432.37735    322.06441   -87.839169    36397.316 
   72500    296.23296   -1452.6764     439.8475    312.57535    72.626616    36397.316 
   72600    292.60342   -1479.8478    412.72925    242.04651   -42.135363    36397.316 
   72700     307.4691   -1494.3068    429.56102    310.93124   -51.137983    36397.316 
   72800    299.91721    -1494.003    432.25054    280.13588    -162.5679    36397.316 
   72900     290.9129   -1472.4085    412.92645    242.11927   -1001.7875    36397.316 
   73000    302.93618   -1426.7799    421.42965    350.04555   -1155.7089    36397.316 
   73100    308.63182   -1430.2209    425.67455    376.33285   -782.94164    36397.316 
   73200    304.34839   -1466.0116    417.77099    313.47366   -134.27021    36397.316 
   73300    304.51539    -1471.228    452.70983    343.94336   -498.10276    36397.316 
   73400    302.85379   -1485.4661    434.37732    303.93836    112.33821    36397.316 
   73500    305.77851   -1470.6231     414.8818     312.3717    304.11223    36397.316 
   73600    297.89471   -1439.1838     441.2625    334.91796    -52.64338    36397.316 
   73700    307.92085   -1459.3611    439.83721    358.17431   -150.85023    36397.316 
   73800    297.07975   -1444.0122    421.43703    306.61788   -391.09854    36397.316 
   73900    304.27074   -1443.9624    437.85853    355.26303     110.4593    36397.316 
   74000    306.18915   -1478.3051    413.16943    304.81458    61.542071    36397.316 
   74100    297.15602   -1492.2425    421.38977    258.68146    -486.7416    36397.316 
   74200    296.74479   -1452.2763    425.87528    301.29333    250.46269    36397.316 
   74300    306.13098    -1450.955    437.08645    355.82136   -556.23985    36397.316 
   74400    294.87781   -1476.0256     435.3247    278.64022    81.015707    36397.316 
   74500    295.34062   -1472.8573    419.86928    268.42379    580.32921    36397.316 
   74600    308.93904   -1515.2725    431.75726     298.7386    164.86106    36397.316 
   74700    305.96979   -1472.4461     426.6886    323.21131    453.72124    36397.316 
   74800    290.89905   -1469.2295    421.14511     253.4549   -317.97791    36397.316 
   74900    299.21904   -1502.7126    425.40948    261.46149    168.52168    36397.316 
   75000    298.58907   -1501.8849    400.37916    234.44021   -474.51124    36397.316 
   75100    301.75443   -1465.9401    407.46291    291.63123   -761.33435    36397.316 
   75200    302.80889    -1497.283    403.30188    260.84515   -488.66785    36397.316 
   75300    291.71465   -1484.0852    417.86893    238.97221   -227.86981    36397.316 
   75400    307.98682   -1505.4198    404.26954    276.84309    246.53723    36397.316 
   75500    307.09014   -1529.2883    399.23669     243.9298   -244.56179    36397.316 
   75600    304.55028   -1540.3033    417.91845    240.23278   -84.046631    36397.316 
   75700     294.6775   -1496.7928    424.84375    246.49577    -423.8663    36397.316 
   75800    292.94201   -1496.6425    423.06066    237.09809     -109.425    36397.316 
   75900    307.42082   -1507.1072    413.57896    281.93271   -260.30822    36397.316 
   76000     290.4078   -1497.4482     416.1507     218.0439   -1093.3424    36397.316 
   76100    298.15548   -1497.4479    440.27764    276.83581   -937.16673    36397.316 
   76200     305.5609   -1475.5814    431.63456    323.19253   -994.56423    36397.316 
   76300    299.52915   -1448.5509    428.41452    320.01572   -1345.5393    36397.316 
   76400    299.08671   -1430.4348    439.22149    346.95922   -707.73646    36397.316 
   76500     304.4564   -1490.8937    430.92014    302.22397   -758.45421    36397.316 
   76600    297.48483    -1493.841     443.8773     281.0417   -879.77001    36397.316 
   76700    308.53976    -1457.212    450.01474    373.27002   -548.76145    36397.316 
   76800    293.31659   -1512.3704    408.39948    208.38501   -842.64949    36397.316 
   76900    297.84537   -1449.6755    421.43714    304.38014   -532.23239    36397.316 
   77000    302.32646   -1455.6706    425.03708    322.03424   -895.50134    36397.316 
   77100    311.88062   -1437.7664    434.95469    392.60325   -514.42847    36397.316 
   77200     298.7906   -1490.6183    426.15092     272.3803   -648.86497    36397.316 
   77300    305.95982   -1466.1234    440.82529    343.62605   -786.03436    36397.316 
   77400    303.52228   -1449.6412    434.81847    343.19537    204.98388    36397.316 
   77500    297.67268   -1459.7281    429.83951    301.95735    40.341434    36397.316 
   77600    304.98866   -1456.7576    424.33221    332.15362    305.30355    36397.316 
   77700    310.13154   -1446.0033    401.40185     342.9878    71.757233    36397.316 
   77800     298.0364   -1440.8546    440.11929    332.73794   -326.72473    36397.316 
   77900    307.12594   -1466.1031    431.53612    339.57462    271.20541    36397.316 
   78000     308.9544   -1483.7114    445.14456    343.75564   -127.16554    36397.316 
   78100    299.98027   -1446.6728    454.72406    350.22178   -114.81309    36397.316 
   78200    294.98854     -1449.05    422.18367    292.97019    261.21644    36397.316 
   78300    299.31535   -1442.2923    417.59337    314.49658   -696.94807    36397.316 
   78400    303.51834   -1478.3755    420.30572    299.93075   -441.03205    36397.316 
   78500    298.91884   -1447.1573    436.22218    326.48626    -333.1974    36397.316 
   78600    294.21921     -1456.16    448.00077    308.23513   -204.03709    36397.316 
   78700    306.68578   -1456.4486     431.0674    346.79103   -499.70782    36397.316 
   78800    295.31026    -1444.074    433.71347     310.9154    109.83211    36397.316 
   78900    299.01406   -1445.7631     456.7913    348.87572    430.59855    36397.316 
   79000    296.59197   -1440.2058    436.30902    323.11385     382.5317    36397.316 
   79100     292.8672      -1447.6    429.57527    292.32054   -25.069456    36397.316 
   79200    296.24047   -1461.2289    433.18801    297.39697    180.35859    36397.316 
   79300    304.12302   -1442.9384    431.78886    349.55641   -139.67775    36397.316 
   79400    309.99814   -1374.3824    466.36643    478.97642   -332.11212    36397.316 
   79500    303.36692   -1429.2299     438.4336    366.52676    27.541866    36397.316 
   79600    302.37049   -1414.9526    446.02572    383.93791    69.369509    36397.316 
   79700    294.79155   -1421.4278    447.42986    344.95726   -59.421416    36397.316 
   79800    295.23543   -1453.6756    415.81993    283.08546   -44.781552    36397.316 
   79900    310.99446   -1494.0313     425.3452    322.76404   -191.19227    36397.316 
   80000    298.61415   -1479.3347    420.99002    277.71351   -440.17514    36397.316 
   80100    300.24872   -1474.8555    442.03793    310.55399   -490.12509    36397.316 
   80200    302.82219   -1445.2125    431.22064    340.89399    766.91708    36397.316 
   80300    306.53111   -1447.8237     428.0449    351.70137    456.03529    36397.316 
   80400     304.4219   -1481.5976    452.81832    333.26392    774.72169    36397.316 
   80500    289.87416   -1493.7013    454.09215    257.34469    551.74558    36397.316 
   80600    305.13774   -1461.9481    426.12014    329.41811    674.15198    36397.316 
   80700    303.37159   -1479.8503    424.28083    301.77448    527.66832    36397.316 
   80800    295.21321    -1454.737    425.67413    291.77883    118.58848    36397.316 
   80900    302.21707   -1500.2445    422.23908    274.17295     102.2866    36397.316 
   81000    297.10963   -1423.4832    414.49959    320.34307    683.10627    36397.316 
   81100     293.0056   -1469.8576    433.25136    274.35824    217.49378    36397.316 
   81200    297.05811    -1485.406    460.76787    304.45805    483.19584    36397.316 
   81300     309.1579   -1468.2807    443.88875    358.84107    417.04923    36397.316 
   81400    295.62115   -1458.8672    444.58903    308.38883    363.27999    36397.316 
   81500    304.71486   -1461.8248    441.56079    343.08992    287.61398    36397.316 
   81600    295.74854   -1443.9596    430.45343    309.73077    50.316964    36397.316 
   81700    289.37884   -1454.3358    440.91837    281.32016    56.921837    36397.316 
   81800    305.26527   -1396.4005    470.82462    440.24069    289.28569    36397.316 
   81900    304.47014   -1420.4443    448.22798    390.04275    532.07701    36397.316 
   82000    291.49783    -1445.242    430.25179    289.22812    413.87749    36397.316 
   82100    307.25201    -1423.971    412.71091    363.44556    25.706557    36397.316 
   82200    292.74029   -1396.8949    464.96286    377.84538    74.397848    36397.316 
   82300    298.31967   -1375.2617    457.54934    417.02831    203.96734    36397.316 
   82400    300.57989   -1414.7114    436.21209    366.35396    270.39611    36397.316 
   82500    299.05977    -1385.723    456.66739    408.99643     156.3285    36397.316 
   82600    307.17173    -1454.298    444.63733    364.68585    247.41873    36397.316 
   82700    293.01922   -1480.9181    450.52293    280.63023   -273.08671    36397.316 
   82800    307.03172   -1478.7624     454.3037    349.26132    1137.8263    36397.316 
   82900    294.24231   -1426.5944    479.88262    369.78596    278.30011    36397.316 
   83000    300.55507   -1420.5462     460.3922    384.58822    483.14596    36397.316 
   83100    308.38058   -1393.2742     424.1115    410.59242    614.69123    36397.316 
   83200    303.62678   -1416.8586    439.01643    380.64355   -62.674005    36397.316 
   83300    308.03503   -1415.4984    443.06308     405.7737    640.37818    36397.316 
   83400    297.40412    -1396.048    430.12121    364.71752   -100.68908    36397.316 
   83500    297.18938   -1421.7485     439.6078    347.54278    240.25496    36397.316 
   83600    296.40874   -1379.5192    433.60123    380.27286    140.31681    36397.316 
   83700    296.98156   -1387.5817    445.90804    387.08006   -35.947051    36397.316 
   83800    297.43224   -1390.1718    438.36092    378.95923   -334.83473    36397.316 
   83900    299.87206   -1420.4119    456.91664    378.19104   -365.31515    36397.316 
   84000    302.80815   -1422.2476    413.90548    346.48086   -312.57545    36397.316 
   84100    298.60815    -1413.952     432.2686     354.3479   -206.42964    36397.316 
   84200    305.75121   -1426.5197     449.7021    391.17321   -78.629344    36397.316 
   84300    308.38084   -1412.6112    449.40462     416.5497   -374.97866    36397.316 
   84400    286.24669   -1422.0895    424.73209    283.36637   -283.54898    36397.316 
   84500    298.98195   -1446.9533    454.26609    345.01666    112.27596    36397.316 
   84600     286.4082   -1465.8775    445.33999    260.90887   -40.991084    36397.316 
   84700    299.30787   -1454.3341    441.73411      326.562    92.252031    36397.316 
   84800    313.73643   -1428.6107    433.40215    408.50969    -523.9285    36397.316 
   84900    293.06003   -1409.6529    437.54459    339.09968    -125.1999    36397.316 
   85000    295.94234    -1433.816    454.94766    345.23561   -112.78722    36397.316 
   85100    300.59515   -1473.4623    443.25361     314.7129      291.077    36397.316 
   85200     295.0018     -1462.57    450.98326    308.30909    407.30523    36397.316 
   85300    303.74194   -1432.8153    440.53842    366.72401    154.89972    36397.316 
   85400    301.27025   -1445.9828    415.32004    317.27941    486.75302    36397.316 
   85500    297.91548    -1424.774    437.26065    345.41887    590.54925    36397.316 
   85600     296.5586   -1420.2742    456.61186    363.19896    383.31201    36397.316 
   85700    291.24153   -1404.6654    447.33264    345.73893   -192.38097    36397.316 
   85800    296.83485   -1394.9606    447.38165    380.51832   -297.85727    36397.316 
   85900    297.59749   -1417.7651    465.02208    378.76646   -239.81806    36397.316 
   86000    295.18431   -1426.3083    429.61716    324.02127   -403.92453    36397.316 
   86100    294.86483   -1418.3918    420.53196    321.42314   -451.58423    36397.316 
   86200    306.96431   -1409.6644    439.54932    403.30341   -581.09506    36397.316 
   86300    294.36404   -1381.5596    449.73997    385.22276   -686.51242    36397.316 
   86400    300.83669   -1417.3536    417.44057    346.08923   -453.00653    36397.316 
   86500     298.2413   -1410.0703    444.12544     368.4452   -558.61426    36397.316 
   86600    295.52139   -1440.0152     425.6928    307.89822   -570.65788    36397.316 
   86700    304.64611   -1421.6365    442.01194    383.42182   -2.0868365    36397.316 
   86800    298.54252   -1423.6089    448.54211     360.6709    579.69364    36397.316 
   86900    293.64368   -1479.7078    416.07273    250.18428    679.45417    36397.316 
   87000     302.0707   -1453.0655    446.29356    344.75151    1007.4977    36397.316 
   87100    313.42706   -1420.6357    466.88536    448.58375    769.32387    36397.316 
   87200    300.57639   -1417.1256    456.40095    384.11304    808.14942    36397.316 
   87300     288.6111   -1376.7656    462.15932    376.69628    1129.1797    36397.316 
   87400    301.55363   -1393.0729    446.54522    402.68233    410.99959    36397.316 
   87500    296.99192   -1414.8955    464.48243    378.38698    232.05819    36397.316 
   87600    300.43485    -1427.451    426.54112    343.29445   -452.51213    36397.316 
   87700    292.68771   -1463.8552    422.59716    268.28414    -454.2033    36397.316 
   87800    304.54235   -1445.1648    441.98712    359.40443   -143.44011    36397.316 
   87900    296.49792   -1444.2769    456.60366    338.91656    159.45592    36397.316 
   88000    300.44243   -1398.9409    431.65682    376.95419   -417.61222    36397.316 
   88100     297.3661     -1416.96    461.32868    374.84286   -216.75919    36397.316 
   88200     292.1126   -1432.0457    428.90159    303.82486     -238.197    36397.316 
   88300    292.42351   -1434.8178    440.59225    314.13447   -314.31334    36397.316 
   88400    292.90211   -1427.3554    428.98128     312.1273    -634.9886    36397.316 
   88500    285.37228   -1433.8313    432.20256    275.18277    -561.1339    36397.316 
   88600    305.95839   -1485.0218    435.79034     319.6863   -721.75126    36397.316 
   88700    303.31762   -1418.3958    440.87234    379.57897   -336.97052    36397.316 
   88800    300.71789   -1471.6064    439.37736    313.24167   -1076.6095    36397.316 
   88900    296.88642   -1447.9161     457.2188    337.63066   -1158.1949    36397.316 
   89000    303.27633   -1452.7491    425.20712    329.37568   -410.15231    36397.316 
   89100    299.76193   -1447.9379    435.63313    328.88886   -224.46575    36397.316 
   89200    301.65885    -1486.252    458.75745    322.18621   -19.915915    36397.316 
   89300    305.32539   -1458.4803     440.5394    348.14469    213.93477    36397.316 
   89400    292.86952   -1451.1818      457.858    317.03181   -620.11372    36397.316 
   89500    309.75351   -1476.8291    423.34441    332.41313   -321.74897    36397.316 
   89600    304.66938   -1474.5835    433.74075     322.3077    170.90281    36397.316 
   89700    306.97608   -1491.4359    415.25123    297.28644   -444.59478    36397.316 
   89800     313.5886   -1466.9422    456.32541     392.4401    144.48483    36397.316 
   89900    295.64173   -1483.9763    440.21623    278.99892    207.20842    36397.316 
   90000    298.84602    -1490.726    426.62035    272.99002     215.3856    36397.316 
   90100    301.30967   -1413.0748    439.51486    374.55856    434.65545    36397.316 
   90200    303.68221   -1470.7631    448.89577    336.86637    481.20997    36397.316 
   90300     297.9945   -1484.5754    452.40984    301.12021    187.86202    36397.316 
   90400    299.25032   -1495.2801    422.68911    266.31354     -397.106    36397.316 
   90500    303.22753   -1483.1745    423.72354    297.24837   -406.09641    36397.316 
   90600    293.79503   -1505.2721     426.2794    235.50379   -173.70079    36397.316 
   90700    315.59262   -1509.9698    455.46846    357.52183   -632.43325    36397.316 
   90800    307.13448    -1437.647    426.13419    362.66704    177.66345    36397.316 
   90900    307.27357   -1473.9829    426.99577    327.81499   -468.37871    36397.316 
   91000    292.97877   -1502.0669    462.93134     271.7088    267.47704    36397.316 
   91100    311.74067   -1499.3377     444.5687    340.01978    177.61243    36397.316 
   91200    304.38323    -1446.282    473.91816    389.50642   -305.52102    36397.316 
   91300    294.16566   -1450.7551    450.88967    316.28934   -491.69599    36397.316 
   91400      296.325   -1468.5294    439.98977    297.27648   -500.33529    36397.316 
   91500    313.53568   -1477.8761     459.2674    384.21142   -688.01904    36397.316 
   91600    293.39877   -1468.2984    459.77976    304.20492   -1129.0713    36397.316 
   91700    304.78821   -1472.0073    433.95882     325.6337   -836.82704    36397.316 
   91800     299.5114   -1476.1545    452.09551    316.01372   -23.791647    36397.316 
   91900    297.79145   -1467.6242    430.45423    295.20728    62.071128    36397.316 
   92000    311.29772   -1494.3587    431.31264    329.76091    710.76389    36397.316 
   92100    294.58536   -1521.4198    446.19187    242.80466   -35.246512    36397.316 
   92200    302.36387   -1496.0682    421.82035    278.58727   -375.83181    36397.316 
   92300    299.44187   -1459.6893    443.10924    323.18152   -319.08032    36397.316 
   92400    309.04193   -1464.9517    444.91268    362.67505   -450.41391    36397.316 
   92500    300.02443   -1470.7791     478.5452    350.13417    17.268496    36397.316 
   92600    301.21664   -1457.9541    436.79733     326.5455    107.35788    36397.316 
   92700    295.07297   -1420.5621    447.51366     347.1658      541.867    36397.316 
   92800     310.2213   -1419.2302     478.0485    446.80917    78.618977    36397.316 
   92900    294.46798   -1474.4312    417.98278    261.05906   -543.11283    36397.316 
   93000    295.27325   -1483.3658    426.51652    264.26106   -496.46811    36397.316 
   93100    290.20596   -1471.2698     427.6476    254.81612   -157.77673    36397.316 
   93200    296.89449   -1486.4027    433.84873    275.81012   -120.01248    36397.316 
   93300    300.04168   -1467.8401    438.05159    312.65671    361.16266    36397.316 
   93400    292.44836   -1428.8555     459.3936    339.00936    683.84481    36397.316 
   93500    309.20058   -1430.5906    465.23709    418.07039    290.44015    36397.316 
   93600     287.2746   -1482.9112    444.84682    247.25849    217.60413    36397.316 
   93700    288.50937   -1454.0728    424.72789    261.50249   -61.944514    36397.316 
   93800    307.97771   -1457.7193    457.78467      378.018    322.82573    36397.316 
   93900    302.84379   -1463.4261    454.07354    345.62991    477.41417    36397.316 
   94000    295.68105   -1459.5869    442.06157    305.40957    421.98368    36397.316 
   94100    294.77508   -1436.6685    443.08466    325.29757    263.67608    36397.316 
   94200      301.894   -1442.6834    449.54857    357.59812    274.54034    36397.316 
   94300    301.26209   -1473.7196    450.59173    324.77775       196.61    36397.316 
   94400    297.41501   -1506.5333    423.04165    247.20136    175.95338    36397.316 
   94500    305.12855   -1456.5419    431.84928    340.51228   -443.23805    36397.316 
   94600    304.16327     -1488.95    447.44645    319.38247   -211.00593    36397.316 
   94700    297.59587   -1471.2745    414.98502    275.21273   -89.356494    36397.316 
   94800    287.26368   -1468.1738    491.64062    308.74075    533.85702    36397.316 
   94900     305.2031   -1455.6909    472.68167    382.52924     317.4652    36397.316 
   95000     300.2844   -1489.1736    447.33408    301.69173    184.78377    36397.316 
   95100    287.54648   -1482.7602    465.28729    269.06634   -36.522583    36397.316 
   95200    297.32069   -1441.8357    442.23593    330.67127   -198.49917    36397.316 
   95300    295.67133   -1417.2338    442.44001    348.09765   -437.05082    36397.316 
   95400    306.16098   -1464.5899    426.73495     331.9692   -37.490391    36397.316 
   95500    299.72403   -1458.6178    435.77661    318.18282   -91.017585    36397.316 
   95600    301.10634   -1475.5973    437.09485    308.70628   -592.15394    36397.316 
   95700    305.02588   -1455.4356    435.40395     344.7139   -617.58408    36397.316 
   95800    300.02527   -1449.6083     421.7863    314.54987   -9.7997319    36397.316 
   95900    320.41149   -1488.7628    455.23898    400.05996    -296.5919    36397.316 
   96000    303.40686    -1490.362    460.75491    327.89464   -221.66459    36397.316 
   96100     294.4413   -1458.5823    415.56692    274.37266   -251.55108    36397.316 
   96200    306.50839   -1485.6232    423.63441    309.38975    -45.95522    36397.316 
   96300    289.75225   -1490.0493    446.80752    253.16653    222.82449    36397.316 
   96400    302.01603   -1470.8428     453.0412     333.4773    143.19872    36397.316 
   96500    314.09742   -1464.3963    439.70937    380.64648    211.71014    36397.316 
   96600    305.68567   -1462.3123    422.87423    328.25952    427.40707    36397.316 
   96700    297.45822   -1443.2287    446.61673    334.27441    119.03731    36397.316 
   96800    309.49079   -1474.1463     436.6388    347.21489    189.73879    36397.316 
   96900    305.89798   -1473.5329    471.35103    366.46562    343.58864    36397.316 
   97000    305.43881   -1478.7723    442.37706     330.1978   -342.65189    36397.316 
   97100    300.97561   -1473.5553    443.43457    316.50314   -229.56754    36397.316 
   97200    313.48517    -1530.022    440.39861    312.97067   -90.858305    36397.316 
   97300    300.60954   -1494.5691    428.25568    278.67257   -704.73224    36397.316 
   97400    312.95151   -1530.3041     434.9417    304.84392    -836.0539    36397.316 
   97500    288.59627   -1477.8001    431.93913    245.37523   -457.00721    36397.316 
   97600    293.54681   -1474.4371    430.06818      269.017    -797.4563    36397.316 
   97700    306.72512    -1428.386    459.22053    403.18279    -499.8396    36397.316 
   97800    305.55371   -1461.3469    450.65105    356.41129   -414.46056    36397.316 
   97900    294.42741   -1423.7189    411.31397      304.921   -996.62227    36397.316 
   98000    301.37454   -1477.9241    438.61585    309.10045   -686.24478    36397.316 
   98100    291.19743   -1425.1608    461.64955    339.36315    520.17666    36397.316 
   98200    304.67591   -1389.4413     439.6653    413.40366    134.39939    36397.316 
   98300    301.05168   -1424.7654    436.62649     358.8253    286.19614    36397.316 
   98400    296.47502   -1441.7527    448.00105    332.73564    382.23045    36397.316 
   98500    305.52442   -1437.8623    451.26855    380.38236     861.3923    36397.316 
   98600    302.54503   -1456.6929    450.82994     347.7828    760.99471    36397.316 
   98700    297.22688   -1461.5167    452.82434    321.15892    568.30772    36397.316 
   98800    299.08532   -1458.7058    443.54257    323.00307    338.74991    36397.316 
   98900    300.24138    -1479.065    446.91318    311.18691    480.43642    36397.316 
   99000    300.76592   -1488.2599    443.99456    301.42032   -571.30915    36397.316 
   99100    306.15328   -1473.2022    414.79955    311.38705   -370.57133    36397.316 
   99200    293.49139   -1496.9884    447.18277    263.33227   -535.53113    36397.316 
   99300    292.98504   -1468.2675    434.67544    277.28041    239.51995    36397.316 
   99400    292.18716     -1484.97    448.72474    271.05737    505.56153    36397.316 
   99500    307.31947   -1517.1471    448.86675    306.72716     677.7139    36397.316 
   99600     287.1656   -1532.0567    459.26551    212.04392    846.51651    36397.316 
   99700    304.20345   -1479.5126    459.69456    341.24775    114.42738    36397.316 
   99800    301.95952   -1438.4945    436.39797    348.92947   -78.989218    36397.316 
   99900    304.99382   -1449.1515    446.22883    361.67942   -340.54163    36397.316 
  100000    293.44005   -1447.4081    456.48518    321.98533   -400.74819    36397.316 
  100100    294.10499   -1430.8016    454.89216    339.97385   -708.29616    36397.316 
  100200    300.29007   -1430.3265    441.36803    354.59815     -360.708    36397.316 
  100300    308.15659    -1425.464    455.47588     408.7648   -799.71527    36397.316 
  100400    300.79852    -1428.535      454.981    372.27744   -1028.8319    36397.316 
  100500    301.64804   -1455.3744    435.25022    329.50824    30.000189    36397.316 
  100600    308.16735   -1435.9156    462.91321    405.79876    62.306733    36397.316 
  100700    295.10234    -1469.485    457.00015    307.86078    368.99251    36397.316 
  100800    302.79776   -1425.1103    478.39856    408.06472    334.21491    36397.316 
  100900    286.39466   -1414.8601    465.02711    331.55285   -341.05288    36397.316 
  101000    297.53531   -1436.0943    452.44945    347.58639    257.38766    36397.316 
  101100    303.94839   -1488.2124    454.15696    325.86921    321.83192    36397.316 
  101200    297.71939   -1468.1012     444.8996    308.85325    104.26473    36397.316 
  101300    307.96167   -1454.2861     454.1184    377.71318   -232.70681    36397.316 
  101400    302.67663   -1461.4327    450.52372    343.32552    87.244896    36397.316 
  101500    296.18708   -1497.4893    462.62056    290.33028    77.469475    36397.316 
  101600    296.02602   -1484.4461    444.69404    284.72639   -418.69347    36397.316 
  101700    290.76904    -1447.857    462.33732    315.43799   -814.62458    36397.316 
  101800    310.19183   -1504.2097     467.2003    350.84963    -734.9969    36397.316 
  101900    299.61701   -1505.5359    444.12034    279.12965   -42.484094    36397.316 
  102000    298.98732   -1473.7811    473.90788    337.85465   -164.08035    36397.316 
  102100    310.77805    -1442.916    469.70376     417.2696    -650.3246    36397.316 
  102200    290.42372   -1495.1957    442.13064    246.34752   -355.35589    36397.316 
  102300    301.50065   -1499.2054    484.60329     334.3709    27.386676    36397.316 
  102400     306.5019   -1519.6241    452.68345    304.40892    562.01639    36397.316 
  102500    309.10836   -1478.6262    469.16121    373.54633    555.23573    36397.316 
  102600    302.28114   -1486.4469    453.42056    319.43875   -215.99952    36397.316 
  102700    294.64836   -1494.2051     427.1051    251.21446    255.96456    36397.316 
  102800     294.8364   -1520.8185    445.76642    244.10369    381.98692    36397.316 
  102900     293.5635   -1507.6093      483.715    289.56626    191.85423    36397.316 
  103000     294.0653    -1523.084    446.09718    238.71899    67.297222    36397.316 
  103100     296.2438   -1514.9441    457.41558    267.92431    87.324823    36397.316 
  103200     297.2059   -1520.9589    458.86843    267.66692    103.30199    36397.316 
  103300    296.52158   -1550.2407    465.58155    242.03651    38.425618    36397.316 
  103400    296.92736   -1529.4779    452.18019    251.21345    425.94106    36397.316 
  103500    311.15092   -1536.3958    444.52418    300.27854   -120.05202    36397.316 
  103600    289.99727   -1522.5972    438.84333    213.75078    165.01365    36397.316 
  103700    295.97688   -1517.2875    435.06114    242.03216    57.871382    36397.316 
  103800    311.16691   -1463.3106    463.16072    392.07182   -179.40454    36397.316 
  103900    302.76273    -1456.871    461.18618    358.93492   -150.76994    36397.316 
  104000    298.47562   -1474.9276    440.15437    300.66511   -473.77319    36397.316 
  104100     295.8431   -1481.6023    448.63538     290.6931    -136.1228    36397.316 
  104200    306.65192   -1465.9411    444.01353    350.09317   -225.61303    36397.316 
  104300    306.74839   -1473.5554    468.47498    367.37197   -42.622398    36397.316 
  104400    289.07246   -1477.8458    437.25795    252.77894   -140.74604    36397.316 
  104500    300.49169    -1488.683    464.50675    320.28242    101.60978    36397.316 
  104600    299.26961   -1478.0953    451.07874    311.97427   -200.49555    36397.316 
  104700    299.08518   -1475.7634    457.84966    320.25189   -21.413277    36397.316 
  104800    298.83171   -1471.8949    464.64371    329.78043    19.782673    36397.316 
  104900    297.49779   -1455.7613    489.56914    364.87122    287.16539    36397.316 
  105000    288.59204   -1479.6529    428.09878    239.66317    62.398414    36397.316 
  105100    290.84012   -1482.2291    458.57025    277.61681    463.35288    36397.316 
  105200    301.57899    -1467.825    474.17005    355.66848    698.13785    36397.316 
  105300    292.63419   -1476.7864    465.43869    297.95494    993.75428    36397.316 
  105400    296.41926   -1522.3477    433.96135    237.85143    729.49953    36397.316 
  105500    308.86052     -1499.79    468.52492    350.63738    718.50552    36397.316 
  105600    304.81545   -1514.7318    455.38062     304.4529    358.38342    36397.316 
  105700    298.51115   -1511.7988    464.51633     288.3149    633.79768    36397.316 
  105800    294.10139   -1498.9289    458.36376    275.30214    282.02845    36397.316 
  105900    305.37521   -1516.6956    438.50235    288.11521    585.38117    36397.316 
  106000    307.12855   -1513.6223    460.35782    320.88886    227.61818    36397.316 
  106100    301.46659   -1468.7424    459.28451    339.36273    127.68368    36397.316 
  106200    305.93432   -1442.2016    430.26111     356.8696     92.28794    36397.316 
  106300    301.55393   -1439.9344    478.38751    387.66443    377.16537    36397.316 
  106400    306.56637   -1433.7312    463.93727    401.84406    855.45321    36397.316 
  106500    294.35647   -1462.3732    450.78903    305.42437    993.97634    36397.316 
  106600    306.54278    -1480.965    441.79744    332.36493    957.12075    36397.316 
  106700    299.29062   -1458.4071    455.00219    335.67995    946.76238    36397.316 
  106800     306.7175   -1471.8827    451.81803    352.24945    409.33711    36397.316 
  106900     299.1734   -1445.0383    438.45141    331.97347    409.05379    36397.316 
  107000    312.10046   -1460.8021    469.15334    404.74978     456.1672    36397.316 
  107100     294.4651   -1477.7698    452.71358    292.43829   -213.19321    36397.316 
  107200    293.82158   -1416.7924    448.14302    345.96595     50.95858    36397.316 
  107300    309.25518   -1426.1649    485.21881    442.72217    754.38501    36397.316 
  107400    310.95174   -1469.6692    458.06537    379.65519    1288.2729    36397.316 
  107500    302.52119   -1447.4001    482.53565    388.67466    692.93073    36397.316 
  107600      294.053   -1476.6583    461.89168     300.8841    782.15482    36397.316 
  107700    298.49344   -1457.8538    456.43909    334.10339    453.86789    36397.316 
  107800    285.73415   -1469.2324    454.96534    264.16351    231.49231    36397.316 
  107900    307.26993   -1479.8224    466.46746    361.43086     396.0989    36397.316 
  108000    299.49136   -1499.2895     437.3163    278.00987    463.53088    36397.316 
  108100    292.72967   -1504.1321    470.76615    276.36399    478.64418    36397.316 
  108200     308.4012   -1477.1025    455.92544     358.6703    592.70471    36397.316 
  108300    305.27428   -1503.8578    453.31872     315.3178   -73.589442    36397.316 
  108400    287.64219   -1490.3165    434.53134     231.1823   -370.72422    36397.316 
  108500     297.8793   -1476.5175    470.47256    326.72539   -566.33909    36397.316 
  108600    304.25869   -1449.9882    423.80302     335.1278    281.87399    36397.316 
  108700    302.73978   -1440.1397    458.33858    372.71595   -157.39037    36397.316 
  108800    288.28791   -1462.8088    449.92512    276.97293   -356.05656    36397.316 
  108900    310.23519   -1495.4976    451.28702    343.84246    179.03903    36397.316 
  109000    301.87167   -1444.6572    465.78361    371.75939   -16.897478    36397.316 
  109100    299.71229   -1429.1424    477.34065    389.16976    156.42252    36397.316 
  109200    300.47781   -1434.5303    463.63041    373.49666    386.08042    36397.316 
  109300    314.09239    -1451.422    478.21772    432.10658    316.35677    36397.316 
  109400    294.94247   -1489.9987    442.12626    271.75792    579.15171    36397.316 
  109500    296.53238   -1457.9991     441.2154    309.96027   -193.80983    36397.316 
  109600    301.62242   -1463.8108    489.41245    375.11946    170.10248    36397.316 
  109700     298.1958   -1469.1635    461.89213    326.91511      35.5582    36397.316 
  109800    304.57956   -1468.3089    436.63423    331.07399   -267.50936    36397.316 
  109900    305.87892   -1461.2498    442.73311    350.04548   -569.30503    36397.316 
  110000    300.08624   -1491.9101    412.67868    263.41324   -277.04343    36397.316 
  110100    304.23069   -1464.3626    431.51803    328.34312   -1051.6337    36397.316 
  110200     285.2089   -1471.3669    464.11461    268.82824   -539.31726    36397.316 
  110300    306.46852   -1508.9671    450.28176    312.51491    87.521554    36397.316 
  110400    313.83897   -1502.6823    447.27487     348.7696    280.36109    36397.316 
  110500    308.32469   -1482.7064    457.32114    354.11985   -89.623255    36397.316 
  110600    302.49773   -1490.8546    470.35427    332.93375    702.05516    36397.316 
  110700    298.91249   -1507.0431    452.92485    283.27482      687.475    36397.316 
  110800    306.66734   -1449.6457    446.59493    369.03894    475.49269    36397.316 
  110900     306.3029   -1465.7991    450.18658    354.84664    30.965884    36397.316 
  111000    296.33834    -1437.816    465.71152    353.77132   -155.24982    36397.316 
  111100    306.04271   -1463.3806    444.47002    350.38444    237.50174    36397.316 
  111200    300.95906   -1458.2834     424.7804    313.04673    -141.5673    36397.316 
  111300    290.23042   -1457.9599    446.71832    287.30619   -820.33226    36397.316 
  111400    299.00987   -1432.2924    450.17047    355.70674   -665.91859    36397.316 
  111500    300.30147   -1441.0922    458.75219    361.26755   -912.72021    36397.316 
  111600    294.38462   -1456.0205    442.22701    303.34095   -1003.3325    36397.316 
  111700    319.86498   -1482.9922    475.46046    423.60688   -472.14743    36397.316 
  111800    301.72029   -1480.7489    451.86903    321.07584   -677.93411    36397.316 
  111900    302.13348   -1453.2767    452.21415     350.7418   -1166.9532    36397.316 
  112000    294.91874   -1468.8459    441.00266    291.68095   -659.34213    36397.316 
  112100    296.29873   -1478.4208    449.51986    296.79766   -626.44189    36397.316 
  112200    297.25827   -1480.6264    461.28648    310.65176   -230.70169    36397.316 
  112300    302.52684   -1476.8236    441.19009    317.93083    64.973882    36397.316 
  112400    295.27283   -1510.9432    449.18019    259.34549    663.04152    36397.316 
  112500    298.76546    -1516.922    440.56613    260.37936    81.018647    36397.316 
  112600    299.68848    -1542.093    428.62235    227.39433    -455.7371    36397.316 
  112700      299.741   -1515.5628    409.90698    235.44417   -620.51208    36397.316 
  112800    304.93287   -1467.8674    438.22912    334.69113   -490.01672    36397.316 
  112900     297.9865   -1451.1798    481.47892    363.54909   -113.61059    36397.316 
  113000     297.6225    -1474.401    445.16244    302.38277    128.32028    36397.316 
  113100    312.37597    -1455.282    461.47503    403.82435    679.83353    36397.316 
  113200    303.04399   -1485.0918    449.80607    320.59244    528.59232    36397.316 
  113300    291.94383   -1491.6599    431.74233    246.29635     203.1758    36397.316 
  113400    294.78947   -1432.6441     470.3592     356.6609    132.84141    36397.316 
  113500    291.25105   -1439.8316    444.84117    308.12382    38.826779    36397.316 
  113600    303.72149   -1462.1602    456.32701    353.07628    260.81073    36397.316 
  113700    299.72103   -1429.9957    465.47884    376.49374    81.718771    36397.316 
  113800    302.82142    -1430.146    428.93501     353.6714   -32.623594    36397.316 
  113900    305.54183   -1437.7675    469.29382    398.58027     259.8787    36397.316 
  114000    308.51526   -1490.6142     454.0391    343.78257   -332.86303    36397.316 
  114100    304.12537    -1446.661    452.81242    366.86786     -337.327    36397.316 
  114200    298.01158   -1412.2492    447.28693    368.39995    231.29655    36397.316 
  114300    296.95664   -1430.9379    444.07963    341.78391   -119.13839    36397.316 
  114400     297.1717   -1455.3453    458.64384    332.90296   -464.85466    36397.316 
  114500    301.60153   -1446.6179    461.35088     364.1573   -776.04815    36397.316 
  114600    301.70948   -1470.9848    465.28081     344.2034   -477.00053    36397.316 
  114700    299.66982   -1507.9586    443.49311    276.31601    -868.4071    36397.316 
  114800    307.89196   -1444.1247    459.20886    392.65316    -109.0596    36397.316 
  114900    303.75481   -1389.3673    465.72536    435.41657    55.715007    36397.316 
  115000    297.14943   -1455.2924    445.73549    319.94783    724.63142    36397.316 
  115100    295.94238   -1402.4739    483.80621     405.4365    912.29511    36397.316 
  115200    293.34171   -1451.4183    453.23319     314.2831    456.26637    36397.316 
  115300    294.41469   -1438.6098    437.92877    316.58795    54.952167    36397.316 
  115400    303.26421    -1439.929    458.93232    375.86684   -408.79068    36397.316 
  115500    295.35734   -1411.1301    445.42307     355.7796   -261.22927    36397.316 
  115600    299.94079    -1449.655    452.99484    345.33365     96.05589    36397.316 
  115700    302.66482   -1507.0474      450.569    297.70328    139.89909    36397.316 
  115800    303.74748   -1467.8166     464.2539      355.463    2.9851628    36397.316 
  115900    296.55603   -1464.2035    436.31878    298.96501   -81.027292    36397.316 
  116000    300.80423   -1474.3143    444.06089    315.60366   -495.83838    36397.316 
  116100    305.53712   -1497.5462    451.43911    320.92582    186.69719    36397.316 
  116200    303.21352   -1483.8891    452.76704    325.51463   -685.99334    36397.316 
  116300    310.69969   -1495.4116    468.46963    363.18928    -516.4781    36397.316 
  116400    307.85762   -1544.1163    447.33788    280.63689   -145.36474    36397.316 
  116500    307.23969   -1510.4912    468.84496    333.00428   -25.553118    36397.316 
  116600    298.40271   -1477.8864    449.27101     306.4968    132.65146    36397.316 
  116700    291.59484   -1533.2018    448.39268    219.84331      127.754    36397.316 
  116800    308.97286     -1498.32    439.50647    323.59161    184.71181    36397.316 
  116900    292.77059   -1453.1411    465.22538    321.99725    113.15194    36397.316 
  117000    298.91916   -1435.8218    456.76659     358.3677    192.35865    36397.316 
  117100    305.96785    -1442.618    455.20204    381.54409    53.472329    36397.316 
  117200    300.78887   -1455.9268    472.13889    362.00039     1137.083    36397.316 
  117300     299.6118   -1475.1381    471.53141    336.91519     249.3377    36397.316 
  117400    304.92565   -1431.7433     439.7646     372.3184    206.06394    36397.316 
  117500    303.27228   -1431.1194    469.14713    394.92728   -87.508117    36397.316 
  117600    292.64023   -1424.0017    451.57454    336.90261    147.61012    36397.316 
  117700    301.57945   -1414.0636    453.45541    388.71732    269.15804    36397.316 
  117800    301.21949   -1414.7198    466.93478    399.92994   -84.050253    36397.316 
  117900    302.81319   -1443.0653    442.13951     353.9197    14.990464    36397.316 
  118000    295.91265   -1436.9846    444.51556     331.5021   -111.63202    36397.316 
  118100    306.06887   -1444.0515    448.87124    374.23187   -381.29397    36397.316 
  118200    300.13769   -1434.0553    458.80262    367.62217   -698.34661    36397.316 
  118300    306.16728    -1455.346    464.20928    378.71565   -372.65742    36397.316 
  118400    292.05808   -1447.4857    449.67396    308.91331   -355.75382    36397.316 
  118500    299.89652   -1483.7776    450.08193    308.10016   -152.33497    36397.316 
  118600    301.60476   -1445.7933     451.9698    355.61529   -54.667346    36397.316 
  118700    283.62938   -1463.8321    456.87178     262.0531    260.43295    36397.316 
  118800    302.94823   -1464.9378     443.3993    333.91122    288.45321    36397.316 
  118900    298.03323   -1488.7763    435.71768    280.40037    464.97415    36397.316 
  119000     294.3064   -1501.7756    453.13471     268.1436    312.33173    36397.316 
  119100    310.77475   -1542.1028    429.15962    277.52388    1013.8676    36397.316 
  119200    298.28574   -1523.5617    434.47673    245.50388    361.48631    36397.316 
  119300    304.59262   -1494.4458    430.01481    298.37606    322.95042    36397.316 
  119400     294.8068    -1501.469    447.70169    265.25601    101.23865    36397.316 
  119500    294.72463   -1514.2818    406.43143    210.80531    91.550714    36397.316 
  119600    297.99547   -1483.4268    458.12606    307.98933   -47.250533    36397.316 
  119700    292.05217   -1501.6144    431.97313    237.05737    102.69763    36397.316 
  119800    306.64927   -1521.1189    445.24244    296.13244     21.92637    36397.316 
  119900    304.31778   -1491.1275    420.77745    291.22731    913.01591    36397.316 
  120000    293.52881   -1501.6301    442.34674    254.02198    687.41249    36397.316 
  120100    301.55095   -1470.3853    471.40378    350.21651    147.41595    36397.316 
  120200    297.24983   -1494.9019    455.29684    290.34893    357.75878    36397.316 
  120300    310.30054   -1484.8385    454.98478    358.49171    337.67401    36397.316 
  120400    305.26559   -1488.8204     446.8596    323.85728    1213.3859    36397.316 
  120500    307.47174    -1506.237    441.70877    311.16055    1256.4918    36397.316 
  120600    298.75979   -1518.7274    452.16957    270.15198     519.4232    36397.316 
  120700    300.60928   -1538.1098    470.68832     277.5633    610.64372    36397.316 
  120800    297.91192    -1518.756    443.99296    258.15319    193.50338    36397.316 
  120900    302.36737   -1524.4719    435.94662    264.32556    540.92804    36397.316 
  121000    297.34459   -1493.2196    447.42033    284.57865    579.89907    36397.316 
  121100    291.57453    -1507.521    454.60785    251.64836    269.75194    36397.316 
  121200    303.46966   -1550.9122    473.49035    280.36086    544.51515    36397.316 
  121300    300.78098   -1501.9383    446.51303    290.32772    474.15524    36397.316 
  121400    296.42182   -1513.2276    445.74611    258.76774   -160.64117    36397.316 
  121500     306.1433   -1482.5287    451.30257    338.51895    444.74846    36397.316 
  121600    292.33696   -1464.5441    447.88948    291.31819    341.51501    36397.316 
  121700    311.32659   -1506.7962    430.23089    316.37088    -211.9704    36397.316 
  121800    305.20403   -1478.1213    467.50174     354.9231    99.089886    36397.316 
  121900    300.89609   -1461.9931    469.58784    353.86281   -346.43253    36397.316 
  122000    295.89859   -1493.0716     448.7363    279.57301   -591.54636    36397.316 
  122100    297.20837    -1444.293    465.45829    350.93376   -349.60658    36397.316 
  122200     295.3264   -1429.6389    458.93158    350.64081   -65.770293    36397.316 
  122300    301.05362   -1463.5279    448.47575     331.9207   -89.294162    36397.316 
  122400    308.21145   -1468.6239    475.35826    385.73284    383.02552    36397.316 
  122500    291.65549   -1488.4034    437.59504    254.11544    87.844106    36397.316 
  122600    308.58429     -1500.86    448.16788    327.97447    221.46228    36397.316 
  122700    293.45355   -1467.3211    454.04099    299.68851    650.84985    36397.316 
  122800    293.28204   -1459.1707    452.31154    305.34215    853.10834    36397.316 
  122900    300.02518    -1463.422    444.61899    323.56843    279.55304    36397.316 
  123000    300.14027   -1493.8074    456.28212    305.36109    404.92288    36397.316 
  123100    311.89036   -1479.7482    465.64523    381.35561   -1.6460476    36397.316 
  123200    293.51302   -1493.8717    457.14722     276.5102    476.00876    36397.316 
  123300    301.31237   -1451.9262    449.36409    345.56851    677.13829    36397.316 
  123400     298.5722   -1468.8574    456.38556    323.39868    568.81393    36397.316 
  123500    297.83806   -1454.6424    447.45522    325.39862    36.471499    36397.316 
  123600    308.86698   -1495.6225     433.4492    319.75809    53.552415    36397.316 
  123700    288.91805    -1492.801     455.7343    255.60919     199.0913    36397.316 
  123800    294.35083   -1458.6164    472.15816    330.52502    62.714647    36397.316 
  123900    309.55631   -1468.4395    453.40127    369.97732   -133.29302    36397.316 
  124000    299.20769   -1468.5671    446.61299    316.75972    145.07731    36397.316 
  124100    288.36214   -1499.0499    432.95037    224.08911   -296.57616    36397.316 
  124200    299.64333   -1469.8414    437.39984    308.22138   -112.81645    36397.316 
  124300    287.93585   -1508.5874    432.71184    212.40587    69.236931    36397.316 
  124400    314.40206    -1466.065    439.53585    380.16727    210.03204    36397.316 
  124500    294.20672   -1491.3952    450.69086    275.63412    617.94133    36397.316 
  124600    294.11529   -1473.1586    452.06193    294.83274     168.0434    36397.316 
  124700    292.56833   -1462.6564    456.78395    303.13554    78.047498    36397.316 
  124800    287.52903   -1519.4912    464.32692    231.29692   -148.16614    36397.316 
  124900    302.88978   -1527.4007     458.9278    286.71534   -547.47052    36397.316 
  125000    300.58913   -1499.1704    448.88308    294.60735   -369.12788    36397.316 
  125100    300.02496    -1490.028    428.20308    280.54553   -75.925728    36397.316 
  125200    300.79884   -1453.1304    439.00346    331.70597    223.67178    36397.316 
  125300    295.16143   -1475.9049    452.02928    296.73442    78.996751    36397.316 
  125400    298.84008   -1456.1739    432.21044    313.10562    552.97085    36397.316 
  125500    303.82253   -1461.9431    443.40263     340.8211    895.58207    36397.316 
  125600    294.88047   -1452.7035    458.31787    324.96739    360.74244    36397.316 
  125700    296.87537   -1480.9061    438.98583     286.3583    696.88318    36397.316 
  125800    303.40612   -1521.6551    433.04512    268.88839    602.39619    36397.316 
  125900    304.19783   -1523.2525     447.9754    285.76358    436.59477    36397.316 
  126000    288.94629   -1480.2255    465.72375    278.30051    514.05397    36397.316 
  126100    300.33563    -1462.856    441.46309    322.36756    302.99277    36397.316 
  126200    292.28094   -1488.5895    441.37551    260.50818   -56.347201    36397.316 
  126300    300.71185   -1450.7611    445.73038    340.41301    635.60128    36397.316 
  126400    302.08561   -1415.6834    473.24697    409.15371   -75.608315    36397.316 
  126500    303.58596   -1481.3277    451.06764      328.043   -141.41712    36397.316 
  126600    306.35105   -1506.7257    459.97056    323.91945    428.63015    36397.316 
  126700    304.44319   -1501.1798    455.76868    316.72731    913.41026    36397.316 
  126800    306.02318   -1478.2776    434.97165    325.90172    634.32961    36397.316 
  126900    297.47043   -1479.5087    482.52503    333.95728    127.05109    36397.316 
  127000    306.32986   -1500.6677     444.2599    314.17207   -181.10909    36397.316 
  127100    292.95423   -1524.7305    442.92382    228.92793   -151.10806    36397.316 
  127200    304.40121   -1472.1975    456.04949    345.80267   -430.42577    36397.316 
  127300     298.2846   -1507.5667    469.86921    296.88624     114.4347    36397.316 
  127400    297.52638   -1513.5444    464.06667    281.71356    56.165314    36397.316 
  127500    298.13891   -1510.6014    457.36344    280.69387    25.181606    36397.316 
  127600    306.97591   -1515.5623    465.38472    323.29277    457.42505    36397.316 
  127700    301.02156   -1544.1539    457.62934    260.30488     295.2398    36397.316 
  127800     309.2913   -1479.0253    453.73207     358.5366    175.04904    36397.316 
  127900    309.21274   -1492.3184    448.69849    339.85844    558.14471    36397.316 
  128000     296.8119   -1503.8755    434.98417    259.10331    216.00585    36397.316 
  128100    301.31448   -1523.4842    457.63639    282.29223    417.43117    36397.316 
  128200    297.03972   -1478.3774    441.61834     292.2548    -1.624286    36397.316 
  128300    291.51076   -1492.3049    457.87422    269.84559   -62.135715    36397.316 
  128400     294.1079   -1546.8079    419.50976    188.59819   -260.64652    36397.316 
  128500    289.64052    -1495.062    428.45843    229.30489   -6.2507182    36397.316 
  128600    311.08236     -1536.08    464.58684    320.35026   -73.820594    36397.316 
  128700    286.88631   -1498.4355    460.90364    246.05364   -430.19577    36397.316 
  128800    294.25959   -1487.9299    417.94834    246.59348   -249.08747    36397.316 
  128900    314.35964   -1476.7008    507.44113    437.24695   -374.15171    36397.316 
  129000     292.5375   -1491.2925     434.2728     251.8504     219.0354    36397.316 
  129100    297.93389   -1520.0506    457.11327    270.07731    611.50832    36397.316 
  129200    303.75632   -1518.1858    439.17012    280.04964    111.58848    36397.316 
  129300    297.18016   -1550.6459    440.42403    219.42036     -49.2354    36397.316 
  129400    295.86302   -1507.5811     459.8303    275.99826    355.68515    36397.316 
  129500    307.04864   -1490.4396    448.31525    331.67139    636.33018    36397.316 
  129600    297.17877   -1528.2134    452.94002    254.36262     682.1583    36397.316 
  129700    309.54331   -1518.8244    469.83827    335.97125    328.02328    36397.316 
  129800    297.06302   -1551.2195    431.51597    209.41464    584.19944    36397.316 
  129900    292.61912   -1569.4958    439.74679    179.48628    367.32058    36397.316 
  130000    307.06071   -1527.9628    458.45178    304.33874     428.4453    36397.316 
  130100    299.14408   -1532.8444    419.04114    224.62598    160.26037    36397.316 
  130200    305.46192   -1515.1933    468.05651    319.55968    250.22557    36397.316 
  130300    302.31473   -1523.4744    448.85975    278.00065   -41.792791    36397.316 
  130400    309.11676   -1502.0422     444.1311    325.13785   -600.86471    36397.316 
  130500    305.51743   -1532.0938    444.18791    279.03892   -824.30578    36397.316 
  130600    293.44555   -1520.5262    457.35192     249.7586   -581.23548    36397.316 
  130700    294.60478   -1560.1879    447.34624    205.27779   -149.55047    36397.316 
  130800    297.54173   -1525.0889     468.7414    274.91243    3.4208204    36397.316 
  130900    290.67851   -1514.1127     464.9978    251.43762    513.80146    36397.316 
  131000    292.75017   -1544.6788    462.55449     227.6973    774.61061    36397.316 
  131100    300.41049   -1527.1179    464.84752    281.82503    556.99936    36397.316 
  131200    307.55503   -1509.0529     461.2045    328.21302    637.26357    36397.316 
  131300      301.259   -1519.7136    445.52501    273.70322   -156.62907    36397.316 
  131400    299.05367   -1549.2243    454.04644    242.84682   -359.08411    36397.316 
  131500    307.63411   -1483.1248    447.32745    340.61795   -658.09395    36397.316 
  131600    298.50248   -1539.5409    447.81109    243.82875   -845.77895    36397.316 
  131700    300.41017   -1507.4771    445.73748    282.35434   -778.52903    36397.316 
  131800    289.28389    -1535.413    453.95978    212.85959   -921.97996    36397.316 
  131900    297.42228   -1519.1555    437.29734    248.86735   -178.99405    36397.316 
  132000    295.05868   -1520.6065    446.64123    246.18512   -1035.3684    36397.316 
  132100    298.08986   -1552.1928    434.14681    215.66647   -736.92406    36397.316 
  132200    302.71095   -1514.5765    447.60814    287.41972   -109.45936    36397.316 
  132300    318.65385   -1594.9146    443.43503    274.24016    232.81142    36397.316 
  132400    297.04102   -1556.0152    429.74122    202.74577   -106.02098    36397.316 
  132500    297.59583   -1547.6757     454.3538    238.18016   -183.48563    36397.316 
  132600    305.11089   -1520.4891    438.53646    283.17323   -291.36287    36397.316 
  132700    289.68867   -1521.3459    456.62028    231.39821   -708.84581    36397.316 
  132800    316.96321   -1520.7722    439.90064    337.28389   -971.52902    36397.316 
  132900    297.94972   -1545.3823    429.64379    217.34692   -911.87594    36397.316 
  133000    306.35547   -1574.0644    443.70894    240.33889   -1130.5053    36397.316 
  133100    289.19919   -1519.2524    451.93031    226.61177   -851.90024    36397.316 
  133200     299.6815   -1484.3157     437.4823    294.00032   -505.26007    36397.316 
  133300    298.43414   -1509.2314    431.53023    257.55165   -622.15071    36397.316 
  133400    298.02222   -1523.7094    438.30476    248.00512   -183.32528    36397.316 
  133500    297.44755   -1517.6562    437.37151    250.55392   -848.15026    36397.316 
  133600    297.81368     -1552.27    470.08229    250.28901    17.600572    36397.316 
  133700    295.43833   -1522.5356    460.08913    259.40246    529.59842    36397.316 
  133800    314.60913   -1528.8241    431.24351    310.04226     90.08174    36397.316 
  133900    294.68132   -1519.5948    444.74281    243.60997    245.87126    36397.316 
  134000    302.60266   -1488.1159    437.66614    303.45379    541.99286    36397.316 
  134100    311.05937   -1471.0943    449.87011    370.51641    409.64126    36397.316 
  134200    312.00269    -1497.323    456.61031    355.24847    328.09704    36397.316 
  134300    304.03922   -1499.5375    452.17216    312.96571    262.33074    36397.316 
  134400    297.15046   -1477.4439    455.24425    307.30965      36.4246    36397.316 
  134500    304.19487   -1492.9934    442.80687    310.84091    101.97786    36397.316 
  134600    294.01784    -1475.227    463.18399    303.45042    98.532002    36397.316 
  134700    297.13844   -1435.2396     451.4787    345.69467      38.3578    36397.316 
  134800    305.06016   -1507.6712    442.75674    299.98442    16.122143    36397.316 
  134900    308.41304   -1504.3155    451.69343    327.27833    400.61844    36397.316 
  135000    298.64283   -1500.0582     473.0042    309.13251    552.14805    36397.316 
  135100    304.49694   -1481.8441    430.89984    311.43471    275.46769    36397.316 
  135200    295.75363   -1486.7936    452.82595      289.292    513.30159    36397.316 
  135300    298.50649   -1524.1042    437.86155    249.33385     215.4293    36397.316 
  135400    296.02921   -1511.1377    449.16236    262.51737    373.30873    36397.316 
  135500     314.1794   -1505.0629    456.32317    356.96049    134.11398    36397.316 
  135600    298.82097    -1438.525    464.41298    362.87152   -50.110457    36397.316 
  135700    294.18319   -1443.5319    449.79827    322.49961    -121.2954    36397.316 
  135800    296.64757   -1467.8217    451.71922    311.15687    149.81222    36397.316 
  135900    310.34982   -1471.4178    449.92483    367.07292    906.53506    36397.316 
  136000    290.89064   -1461.0209    442.58129    283.06208    336.22681    36397.316 
  136100    308.48251   -1484.1917    468.72786    364.74731    111.87901    36397.316 
  136200    304.56614   -1509.6249    450.14058    303.20427   -190.27393    36397.316 
  136300    309.46215   -1477.8576    434.01495    340.75159   -738.46947    36397.316 
  136400    301.90771   -1526.9879    440.82443    264.63076   -227.12857    36397.316 
  136500    300.59443   -1522.4525    453.51869    275.98454   -736.64588    36397.316 
  136600    296.55823   -1479.8231    451.83482    298.87133   -404.46177    36397.316 
  136700    305.35581   -1503.2341    452.85152     315.8391   -667.09828    36397.316 
  136800    290.95793   -1462.6987    437.35736    276.46144   -389.73407    36397.316 
  136900    294.72842   -1478.2348    450.29938    290.73728   -239.10318    36397.316 
  137000    299.70765   -1454.6535    482.37489    368.67213    113.03492    36397.316 
  137100    305.52587   -1476.1517    441.30088     332.1318    381.13644    36397.316 
  137200     292.4306   -1446.3033    464.63027    326.71873     148.3569    36397.316 
  137300    299.78854   -1427.2785    442.40964    356.44375    512.47828    36397.316 
  137400    302.13286   -1425.3164    466.73302    393.21817     152.1257    36397.316 
  137500    288.58832   -1477.3013    454.86662    268.76598    149.73466    36397.316 
  137600    303.39408   -1481.4761    459.89537     335.8638     610.4335    36397.316 
  137700    299.78586   -1477.5073    458.18093    321.97435    250.91687    36397.316 
  137800    305.68334   -1452.3895    475.92415    391.22178    5.2162245    36397.316 
  137900    302.20069   -1471.0709    473.21521    354.24939    104.42657    36397.316 
  138000    309.94896   -1501.2119    445.89323    331.45372    414.04526    36397.316 
  138100    296.33601   -1458.1575     483.9966    351.70441   -120.19571    36397.316 
  138200    298.90565   -1503.7768    435.50807    269.09369   -66.659955    36397.316 
  138300    298.92204   -1482.3874     430.1792    285.22757     532.6078    36397.316 
  138400    306.48426   -1495.9281    454.93972    330.28227    501.76894    36397.316 
  138500    295.79806   -1461.0353    484.52091    346.94405    720.25303    36397.316 
  138600    295.62645    -1521.926    453.22141    253.98607    428.57139    36397.316 
  138700    296.31032    -1478.713    446.36259    293.39997    665.80915    36397.316 
  138800    295.83629   -1477.0911     438.8841    285.42249    156.68576    36397.316 
  138900    299.81784   -1454.2936    460.55315     347.7033    138.87346    36397.316 
  139000    309.12061   -1417.4696    460.69707    426.29366   -229.44491    36397.316 
  139100     297.6644   -1502.5391    448.34588    277.61556   -764.58502    36397.316 
  139200    305.51423   -1451.0111    437.67333    353.59273   -705.99648    36397.316 
  139300    292.66745   -1471.9123    453.63394    291.17313   -922.29411    36397.316 
  139400    298.59689   -1487.2916    468.60924    317.29866   -678.54803    36397.316 
  139500     302.3273   -1462.5931    441.69563    331.77406   -684.45701    36397.316 
  139600    307.24336   -1481.5708    441.95004    335.04623   -285.16895    36397.316 
  139700    313.60635   -1468.2933     443.6225    378.46546    229.26724    36397.316 
  139800    299.67295   -1482.6967     460.6055    318.70433      -51.049    36397.316 
  139900    299.57423   -1501.6319    457.76072    296.48257     483.0942    36397.316 
  140000    298.10124   -1530.6169    438.35446    241.50087    693.99992    36397.316 
  140100    287.52064   -1494.4751    461.84348    253.79204    600.23481    36397.316 
  140200    299.41885   -1544.5331    434.65315    229.77864    275.90519    36397.316 
  140300    295.56615   -1538.9867    447.91312    231.34726    48.311822    36397.316 
  140400    291.99347   -1520.5618    446.35881    232.23302    252.64441    36397.316 
  140500    300.12213   -1522.6212    467.76358    287.94756       420.38    36397.316 
  140600    301.86539   -1508.3974    462.06115    304.26864    1113.3225    36397.316 
  140700    296.86623   -1550.3829    449.71146    227.56618    406.99715    36397.316 
  140800    289.41948   -1531.0206    459.62683    223.52564    -78.37097    36397.316 
  140900    300.60071   -1508.8679    431.87418    267.95272    207.12654    36397.316 
  141000    294.68957   -1471.9689    442.27656     288.8065      165.296    36397.316 
  141100    291.88021   -1465.7926    489.70721    329.84386    197.98515    36397.316 
  141200    301.00215   -1533.0116    437.15736    250.88837    409.94903    36397.316 
  141300    295.66461   -1550.6271    473.77745    246.01177    510.31377    36397.316 
  141400    296.81865   -1481.9854    455.31947    301.35891   -6.9587623    36397.316 
  141500    297.08217   -1408.5899    450.40389     371.0178    324.19054    36397.316 
  141600    307.66681   -1466.6527    464.91708    374.82597    210.67487    36397.316 
  141700    300.00187   -1475.6212    453.34621    319.99217   -142.71238    36397.316 
  141800    304.78129   -1480.9449    484.69228     367.3986   0.42750662    36397.316 
  141900    292.32982   -1507.2769    478.13492    278.79888    290.00413    36397.316 
  142000    304.26563   -1493.5543    447.64808    315.43779    636.88729    36397.316 
  142100    290.75392   -1472.4972    459.29934     287.6921    971.90958    36397.316 
  142200    293.94741    -1510.812    469.95057     274.3168     748.2407    36397.316 
  142300    296.82814   -1503.9826    453.61728     277.7019    837.43142    36397.316 
  142400    294.75686   -1480.5506    462.35189     300.6012      567.338    36397.316 
  142500    297.85573   -1505.1582    454.15254    281.65921    229.43599    36397.316 
  142600    304.01279   -1503.6424    482.93237    339.50271    162.02004    36397.316 
  142700    297.59519   -1517.1732    445.15419    259.48017    212.59997    36397.316 
  142800    316.66718    -1487.752    437.57621    366.65517    699.08654    36397.316 
  142900    297.45852   -1524.7844    464.45733    270.56066     82.32209    36397.316 
  143000    299.32698   -1496.4915    461.35707    304.11308     -192.465    36397.316 
  143100    301.81831   -1511.7051    460.70073    299.38987    31.337926    36397.316 
  143200    297.05311   -1462.6543    460.92549    327.34502   -455.95819    36397.316 
  143300    296.20491   -1509.3436    435.47582    251.41097   -296.85849    36397.316 
  143400     292.7241   -1442.3601    459.86744    327.21227   -834.81534    36397.316 
  143500    302.62625    -1449.071    433.91312     338.8513   -229.47281    36397.316 
  143600    303.86392   -1461.6625    477.64274    375.52697   -122.69137    36397.316 
  143700    301.40333     -1474.15    456.95364    331.34118    192.90333    36397.316 
  143800    291.63677   -1461.9814    469.49467    312.35329    113.30069    36397.316 
  143900    307.53374   -1476.4135    456.41904    355.97177    11.206593    36397.316 
  144000    295.10594   -1500.8931    451.03369    270.50234    118.62201    36397.316 
  144100     299.2181   -1496.5503    452.69901    294.90913     438.3443    36397.316 
  144200    311.57527   -1496.9834    459.46962    356.53497    491.51963    36397.316 
  144300    290.66658   -1499.1878    466.56005    267.87145   -344.03478    36397.316 
  144400    297.02572   -1481.5725    436.08365    283.46246   -310.91879    36397.316 
  144500    298.95659   -1483.5875    439.05584    293.05866   -700.44769    36397.316 
  144600    296.57216   -1471.4039     438.0666    293.58463   -359.34208    36397.316 
  144700    298.91347   -1476.1878    455.52447    316.73406   -345.42357    36397.316 
  144800    294.63474   -1518.1536    445.85194    245.95187    -662.4168    36397.316 
  144900    299.21234   -1508.0251    428.84462    259.55416   -361.30401    36397.316 
  145000    295.13802   -1523.0404    435.36325    232.82815   -430.65889    36397.316 
  145100    297.45286   -1518.5878    432.81373     245.0883    -1.825265    36397.316 
  145200    299.76918   -1511.0425    474.00934    304.19288   -625.19593    36397.316 
  145300     310.1342   -1482.3921    451.61529    356.82435    261.51963    36397.316 
  145400    302.87054   -1518.3476    455.28688     292.0414    329.21127    36397.316 
  145500    298.76274   -1507.3784    434.52844    263.87308   -168.31162    36397.316 
  145600    310.14179   -1539.1755    459.92562     308.3853    203.99393    36397.316 
  145700    297.88006   -1515.1473    439.00546    256.63187    521.11738    36397.316 
  145800    304.01937   -1513.8607    433.48674    279.86826    543.13549    36397.316 
  145900    295.62716   -1511.6582    455.82031    266.85593    592.35846    36397.316 
  146000    292.15319   -1511.4316    459.71011    255.42914    471.00202    36397.316 
  146100    295.56657    -1474.092    468.75008    317.08082    888.88249    36397.316 
  146200    298.77925   -1498.3121    465.76458    304.24942    175.13791    36397.316 
  146300    285.15664   -1495.3036    477.44657    257.98965    153.22273    36397.316 
  146400    302.47905   -1503.0234    447.43573    297.76283    403.33822    36397.316 
  146500    293.09595    -1490.516    444.33027      265.183     132.4852    36397.316 
  146600    303.17172   -1539.5779    479.53876     296.4105   -98.759548    36397.316 
  146700    309.63093   -1495.8825    470.35704    359.82394   -313.55796    36397.316 
  146800    306.76508   -1493.2809    462.78628    342.03239   -565.86623    36397.316 
  146900    305.06218   -1472.5485    440.66129    333.02079   -568.53617    36397.316 
  147000    293.73556   -1464.4756     473.0297    322.78458   -257.18913    36397.316 
  147100    306.64842   -1457.6012    457.45975    371.86367    426.77177    36397.316 
  147200     305.6896   -1477.3359    456.29038    346.66962    325.94823    36397.316 
  147300    311.69517   -1505.3523    431.59018    320.82314    240.09318    36397.316 
  147400    291.59798   -1473.2179     468.0511     299.4997   -69.996542    36397.316 
  147500    304.95262   -1484.4866    454.87565    334.80686   -22.563286    36397.316 
  147600    292.61197   -1475.6828    491.74786    325.26835    76.981113    36397.316 
  147700    292.22207   -1489.7776    467.32763    285.00882   -251.75939    36397.316 
  147800     313.7677   -1492.5338    464.73116    376.05548   -542.62951    36397.316 
  147900    287.88592   -1474.6166    456.71206    270.15346   -850.76018    36397.316 
  148000     301.9857    -1502.574    465.74878    314.31792   -750.75654    36397.316 
  148100    305.80086   -1462.4533    476.53766    382.29731   -813.60494    36397.316 
  148200    304.81177   -1465.4221     456.2176    354.58304   -350.43297    36397.316 
  148300    299.46024   -1457.7341    470.00548    352.11517   -426.22159    36397.316 
  148400    297.82084   -1436.6608    459.91389    355.76186   -530.05575    36397.316 
  148500    300.49592   -1480.9311    463.45191    326.99844   -85.962975    36397.316 
  148600    301.07541   -1480.2446    457.17873     324.0045   -235.85388    36397.316 
  148700    300.23806   -1486.5933    438.11832    294.84887   -43.855523    36397.316 
  148800    297.14658   -1500.5914    454.84289    283.74345   -447.77187    36397.316 
  148900    303.46695   -1496.4424    448.26639    309.59451    -123.0935    36397.316 
  149000    292.25307   -1486.0299    449.72783    271.29546    268.87074    36397.316 
  149100    299.04879   -1504.6253    466.31627    299.69389    424.62916    36397.316 
  149200    300.08985   -1508.8812    456.40743    290.18699    389.12921    36397.316 
  149300    295.34089   -1486.2464    436.82734    271.99397    114.50829    36397.316 
  149400    298.44868   -1467.3439    473.55299    341.52694     52.19679    36397.316 
  149500    301.80395   -1461.4305    460.98523    349.88468    120.20081    36397.316 
  149600    308.11342   -1457.4315     467.0177    388.14598    161.00966    36397.316 
  149700    297.81499   -1479.9326    451.19639    303.74646    163.36875    36397.316 
  149800    293.04586    -1525.621    467.23924    252.76285    526.62715    36397.316 
  149900    308.63683   -1505.9537     438.1898    313.13773    799.29331    36397.316 
  150000    303.87429   -1462.7267    483.67431    380.54074    504.09216    36397.316 
  150100     292.7835   -1501.8958    451.96031    260.03524    1027.5375    36397.316 
  150200    304.20242   -1498.7068    468.23413    330.58855    898.06332    36397.316 
  150300    289.93629    -1464.083    459.25718    292.40595   -197.28826    36397.316 
  150400    296.36256   -1421.1301     482.8373     387.6913    98.987359    36397.316 
  150500    303.28688   -1480.2285    435.31383    312.05021    210.73043    36397.316 
  150600    292.24766   -1473.2185    475.89226    310.24699    733.85032    36397.316 
  150700    299.92967   -1520.4016    435.42145    256.96398    463.02644    36397.316 
  150800    300.12953    -1472.808    475.15694    345.18731   -51.112606    36397.316 
  150900    292.06293   -1475.1187    461.27075    292.89877   -339.22014    36397.316 
  151000    294.28845   -1489.6378    449.85951    276.92582   -209.37274    36397.316 
  151100    295.38631   -1529.3066     421.8413    214.15097   -626.05588    36397.316 
  151200    304.35824   -1526.4701    452.05507    287.34338   -244.22683    36397.316 
  151300    304.33622   -1497.1607    444.03538    308.53454    366.22235    36397.316 
  151400    301.45092    -1522.817    455.54796     281.4814    332.67191    36397.316 
  151500    293.90827   -1506.4129    481.01583     289.6061    535.83481    36397.316 
  151600    297.47123   -1494.6251    459.49787    295.81735   -219.01266    36397.316 
  151700    293.90006   -1430.2747    451.93671    336.62846    142.13982    36397.316 
  151800    297.02134   -1416.5478    458.97046    371.35431   -177.79675    36397.316 
  151900     301.7599   -1395.3076    489.46347    444.28876   -46.162082    36397.316 
  152000    294.92977   -1415.2488    472.73758    377.06238   -100.73902    36397.316 
  152100    292.49479   -1458.0582    456.52732    307.14814   -65.700529    36397.316 
  152200    304.47638   -1482.4108    435.26103    315.13718   -393.53915    36397.316 
  152300    306.31491   -1503.4631    422.77717    289.82694    -437.2059    36397.316 
  152400    300.16853   -1471.2068    462.99997    334.80594   -515.32689    36397.316 
  152500    301.12026    -1486.509    435.55582    296.31784    90.614887    36397.316 
  152600    301.91988   -1463.6467     443.6873    330.88929   -335.65796    36397.316 
  152700    297.95998   -1462.4248    463.73492    334.44146   -8.7716771    36397.316 
  152800     308.6274   -1490.8856    436.79583    326.76968   -50.474211    36397.316 
  152900     299.3071     -1523.14    449.89786    265.91644    432.24497    36397.316 
  153000    301.69191    -1540.372    445.14339    254.60008    375.15916    36397.316 
  153100    312.55476   -1517.1974    457.99277    339.22656     268.3977    36397.316 
  153200    299.90606   -1508.0664    433.36234    267.13435    190.60999    36397.316 
  153300    297.47552    -1553.139     417.5716    195.39636    6.6081552    36397.316 
  153400    304.50371   -1535.2598     434.8326    261.98207    424.47018    36397.316 
  153500    303.44207   -1533.1661    441.21735    265.71049    263.07625    36397.316 
  153600    305.61335   -1530.0166     443.6092    280.96657    -79.21817    36397.316 
  153700     303.3745   -1560.9519    453.76241    250.16747    476.01984    36397.316 
  153800    296.93231   -1548.4939    443.43581    223.47526    111.76906    36397.316 
  153900    302.08261   -1508.4054    460.58922    303.76061    498.14642    36397.316 
  154000    296.87465     -1554.19    435.78572    209.87108    446.07338    36397.316 
  154100    299.17589   -1527.4298    435.96227    247.10398    365.85843    36397.316 
  154200    301.67488   -1513.3579    485.43007    321.82469    510.25302    36397.316 
  154300     288.5224   -1472.9042    435.65525    253.65679    362.51093    36397.316 
  154400    301.15561   -1510.5544    472.09175    308.96652   -142.36708    36397.316 
  154500    299.97787   -1503.0603    457.75803     296.8575   -173.77693    36397.316 
  154600    310.82601   -1526.3115    445.86682    310.25183   -165.15474    36397.316 
  154700    308.75459   -1508.8693    426.68792    299.24711    -289.6807    36397.316 
  154800    297.52933   -1501.5106    449.91226    279.60612   -452.79083    36397.316 
  154900    297.79481   -1483.8521    439.85179    288.39196   -352.55843    36397.316 
  155000    303.64646    -1484.527    458.00704    332.05376   -321.06423    36397.316 
  155100    304.86718   -1460.1355    453.12319    357.02313    20.745435    36397.316 
  155200    301.73088   -1483.7474    447.40463    313.66033     101.7735    36397.316 
  155300    296.95607   -1485.1009    447.95187     291.4906   -274.81427    36397.316 
  155400    300.34599   -1502.2946     440.8564    282.36864    267.41083    36397.316 
  155500    313.69502   -1514.7544    467.32885    356.10748    572.10182    36397.316 
  155600    290.87245   -1511.2731    435.07962    225.22684    866.03093    36397.316 
  155700    292.07287   -1509.4363    445.75467     243.1096   -426.04428    36397.316 
  155800    294.14241   -1539.8493    420.94778    197.14918    497.46477    36397.316 
  155900    309.77674   -1531.1602    446.22288    301.06449    487.85207    36397.316 
  156000    305.69157   -1482.8106    441.77817    326.69153    236.93465    36397.316 
  156100    300.47976   -1483.0404    464.11297     325.4779    141.07927    36397.316 
  156200    293.52064   -1474.2765    456.35257    295.34487    125.01336    36397.316 
  156300    295.25878   -1497.6766    466.63229     290.0013    268.45949    36397.316 
  156400    300.40324   -1501.9142     457.3986    299.54735    544.33408    36397.316 
  156500    300.29401   -1487.2021    469.42827    325.80041    1070.7332    36397.316 
  156600    293.15839   -1527.0332    451.43994    236.05485    446.01253    36397.316 
  156700    301.54951   -1517.5497    439.60046    271.24229   -1.7791241    36397.316 
  156800    302.15828   -1548.3881    450.92385    254.45105    220.10964    36397.316 
  156900    296.62277   -1499.8212    449.85581    277.18301    178.41261    36397.316 
  157000    299.53235   -1483.9945    466.52051    322.69243     958.0269    36397.316 
  157100      295.695   -1484.3656      469.016    307.64781    478.16176    36397.316 
  157200    308.46116   -1444.2147    458.71389     394.6148    180.47638    36397.316 
  157300    292.11814   -1449.3945    437.96417    295.56338   -73.251808    36397.316 
  157400    305.58585   -1459.3048    477.90951    385.85567    10.560422    36397.316 
  157500    297.44147   -1489.4857    464.44903    305.77474    270.46894    36397.316 
  157600    294.02816    -1462.535    484.53955    337.54412    -284.0299    36397.316 
  157700     294.1647   -1489.2449    460.35483    287.26039   -523.20486    36397.316 
  157800    306.68621   -1463.1314    444.71069    353.75348   -80.851553    36397.316 
  157900    305.56278   -1500.2849    436.37182    303.23463    468.49545    36397.316 
  158000    296.26139    -1447.218     456.0068    334.32032    68.762519    36397.316 
  158100    301.31329   -1451.4835    470.81553    367.46669    732.76341    36397.316 
  158200    296.86652    -1508.141     453.7697    273.86769    297.91294    36397.316 
  158300    308.73601   -1510.8139    468.75156    339.28311    463.46415    36397.316 
  158400    305.70175   -1472.9697    459.64128    354.44112    21.037471    36397.316 
  158500    298.77778    -1478.888    457.90639    315.80872    405.87415    36397.316 
  158600    297.13445   -1562.5119    480.08732    247.01315    231.34033    36397.316 
  158700    311.11859   -1535.3642    464.33213     320.9734      170.174    36397.316 
  158800    302.38118   -1544.3944    461.29382    269.81207    533.48573    36397.316 
  158900    304.46924   -1522.4383    455.76064    295.57737    80.345408    36397.316 
  159000     298.3652   -1446.8343    464.68305    352.79306    -231.7443    36397.316 
  159100    299.58198   -1474.4035    451.67027    317.65521   -105.22461    36397.316 
  159200    306.23285   -1500.2647    451.28632    321.16732    270.58805    36397.316 
  159300    294.14897   -1517.6944    451.77835    250.16401    24.723214    36397.316 
  159400    296.55567   -1446.1873    470.56912    351.22994    225.37871    36397.316 
  159500     303.7398   -1477.0091    465.35981    347.34208   -107.71892    36397.316 
  159600    304.35598   -1511.1426    442.17824    292.78389    218.78474    36397.316 
  159700    295.19804   -1489.1809    449.54081     281.1338    114.42464    36397.316 
  159800    307.53494   -1521.4842    461.84517    316.33252    587.60857    36397.316 
  159900    301.35936   -1487.6787    464.73518     325.3973   -137.57389    36397.316 
  160000    301.72559   -1531.3892      474.245     292.8352     192.8216    36397.316 
  160100    314.46439   -1552.4403    468.04181    322.57681    394.27331    36397.316 
  160200    294.22588   -1523.0028      465.439    258.86046    63.254108    36397.316 
  160300     302.8533   -1543.0338    457.73588    269.72701   -43.244831    36397.316 
  160400    298.92229   -1532.7856    451.82014    256.47147   -427.83668    36397.316 
  160500    293.05365   -1519.7642    462.51819    253.93346    14.300233    36397.316 
  160600    304.61839   -1483.9048    483.49251    362.51008   -212.19543    36397.316 
  160700    311.88598   -1485.7585    452.28059    361.96109   -105.54712    36397.316 
  160800    307.71387   -1456.3501    452.49218    372.91425    34.717874    36397.316 
  160900    304.72367   -1487.6413    449.11782    324.86989   -146.82889    36397.316 
  161000    310.14304   -1491.6479    452.09713    348.08998   -170.51022    36397.316 
  161100    304.71597   -1474.2564    471.80248    360.90507   -354.48484    36397.316 
  161200    301.11213    -1504.826    444.38576    286.79443   -109.59523    36397.316 
  161300    301.57852   -1509.5158    457.35458    297.16015   -325.87931    36397.316 
  161400     299.9837   -1503.0495    483.38534    322.52167   -39.763801    36397.316 
  161500    306.16511   -1501.9099    471.61075    339.54357   -231.89701    36397.316 
  161600     294.3794   -1530.9388     454.2396    240.41184   -315.64374    36397.316 
  161700     303.3201     -1489.19    460.18225    328.10576    17.397393    36397.316 
  161800    299.42602   -1510.7904    456.74373      285.644    449.20113    36397.316 
  161900    296.83665   -1480.7246    467.94026    315.32095    781.40984    36397.316 
  162000    304.80452   -1466.9913    478.05595    374.81977    447.91063    36397.316 
  162100    298.95125   -1448.2041    431.04809    320.41045    531.59682    36397.316 
  162200    297.74005    -1432.249    488.99547    388.89373    66.462566    36397.316 
  162300    295.84431   -1445.7909     451.1609    329.03538    583.82427    36397.316 
  162400    303.48597   -1433.6474    487.28658    411.49485    727.18245    36397.316 
  162500    298.00588   -1472.7447     462.1351    322.72704    285.29579    36397.316 
  162600    307.54808   -1440.9692    472.64013    407.70126    87.101773    36397.316 
  162700    293.49061   -1441.3281    468.84945    340.65581    194.48185    36397.316 
  162800    297.32352   -1439.8413    466.67532    357.11764   -60.702979    36397.316 
  162900    301.62296   -1474.5837    469.37583    344.31235    454.24649    36397.316 
  163000    296.85215   -1469.7718    454.25712    312.65999   -588.90825    36397.316 
  163100    316.36244   -1465.9848    469.62873    419.11143   -267.02159    36397.316 
  163200    308.38462   -1438.6909    488.48813    429.57045    291.74148    36397.316 
  163300    292.79087   -1445.9354    454.81648    318.88482   -479.48547    36397.316 
  163400    293.84282   -1467.5075    468.42341    315.62626    -131.6823    36397.316 
  163500      300.142   -1440.5743    486.22145    388.54123    170.27206    36397.316 
  163600    297.62348   -1418.5353    489.61254    402.70295    545.91693    36397.316 
  163700    304.22577   -1444.0992    469.32184    386.38835     192.6951    36397.316 
  163800    308.86654   -1451.9828    468.59174    398.53832   -687.22526    36397.316 
  163900    295.52854   -1479.2248    454.41366    297.44148   -653.34083    36397.316 
  164000    298.39538   -1494.3278    458.99705    299.74864   -540.18851    36397.316 
  164100    304.60544   -1448.3354    476.07358    390.60252   -331.77054    36397.316 
  164200    291.11146   -1456.2379     446.1453     292.3971   -237.18104    36397.316 
  164300    312.26047   -1436.3995    503.34829    464.06331   -235.60267    36397.316 
  164400    295.92991   -1461.2272    461.60962     324.4308   -404.39504    36397.316 
  164500    301.43896   -1466.7324    457.83254    339.79713   -546.44613    36397.316 
  164600    298.06206   -1474.3165    450.41723    309.68875   -614.05873    36397.316 
  164700      300.646   -1467.0346    454.99834    333.11278   -82.623897    36397.316 
  164800    299.40811   -1521.5511    458.43898    276.49845   -15.333845    36397.316 
  164900    305.34381   -1489.4486    470.29143    347.01083   -47.739109    36397.316 
  165000     310.4381   -1496.8442    485.98709     378.1037   -259.00224    36397.316 
  165100    310.96126   -1483.5614    471.40787    379.14806    487.18448    36397.316 
  165200    293.68196   -1470.5492    452.10537    295.54678    24.773558    36397.316 
  165300    298.29623   -1493.9527    450.95814    291.64124   -281.67978    36397.316 
  165400    288.24942    -1510.052    472.09746    251.72985    189.13409    36397.316 
  165500    292.83831   -1522.3744      437.903    225.74457   -410.17253    36397.316 
  165600    303.40986   -1531.9534    466.27835    291.84009    216.96173    36397.316 
  165700    297.43111   -1438.7708    489.01959    381.01389   -22.182838    36397.316 
  165800    300.70445   -1480.2483    443.90918    309.07146   -76.306004    36397.316 
  165900    297.73446   -1454.5828    445.98884     323.5283    165.33254    36397.316 
  166000     298.1619   -1465.4974    460.33524     328.8726   -509.72505    36397.316 
  166100    303.38654   -1488.7285    493.08537    361.76771   -478.73262    36397.316 
  166200    292.68746   -1503.1442    440.80595    247.20278    206.16772    36397.316 
  166300    294.71215   -1495.9434    492.87169    315.52814   -15.335806    36397.316 
  166400    294.99071   -1483.5605     444.3348    280.62051    221.32144    36397.316 
  166500    303.50851   -1468.6276    480.59247    369.92134    744.18598    36397.316 
  166600    297.80523   -1506.9893    463.83183    289.28141    574.47352    36397.316 
  166700    288.40136   -1512.3695    441.81489    219.80959    189.55243    36397.316 
  166800    308.30872   -1502.9593    457.33884    333.81316   -13.341511    36397.316 
  166900    300.01251   -1533.0035    446.13717    255.44836   -500.78383    36397.316 
  167000     306.2206   -1495.8872    456.71186    330.91556   -464.89067    36397.316 
  167100     303.4297   -1506.7953    456.16484    306.97341    -675.9546    36397.316 
  167200    301.25881   -1505.2264    438.85267    281.51723   -383.31153    36397.316 
  167300    297.94657    -1486.611    444.39564    290.85598   -465.87131    36397.316 
  167400     295.3301   -1538.9202    463.32825    245.77281   -541.11203    36397.316 
  167500    307.88494   -1548.0307     445.0347    274.54155   -392.71897    36397.316 
  167600    293.59772   -1563.3601    464.18103    214.43465   -448.58718    36397.316 
  167700    303.26024    -1499.616    477.69264    334.92236     438.8521    36397.316 
  167800     303.8524   -1478.1019    468.41871    349.81191   -232.27128    36397.316 
  167900    292.45056    -1496.382    470.07651    282.17565   -576.79619    36397.316 
  168000    289.03258   -1483.0907    460.96035    271.05807   -527.13484    36397.316 
  168100    303.73475    -1519.323    452.40867    292.05441   -576.09607    36397.316 
  168200    300.23987   -1514.3302    462.08728    291.08913   -373.37476    36397.316 
  168300    301.05918   -1533.3481    475.81131    289.46092   -75.166832    36397.316 
  168400    311.61516   -1483.9784    484.98003    395.22891   -318.16186    36397.316 
  168500    308.31025   -1478.3251    428.11176    329.22707    391.23029    36397.316 
  168600     308.4469   -1438.8335    495.05245    436.27082    143.80996    36397.316 
  168700    298.97564   -1503.4901    451.24759    285.43304    346.38766    36397.316 
  168800    290.59724   -1558.5436    461.52051    203.16586   -55.529031    36397.316 
  168900     298.4913   -1528.7822    458.19354    264.91988    832.42366    36397.316 
  169000    306.82181   -1496.0941    472.19116    348.87792    581.16069    36397.316 
  169100    297.49261   -1533.0973     421.6947     219.6376    596.85821    36397.316 
  169200    302.14703     -1497.39    439.87352    294.34853    21.750602    36397.316 
  169300    302.97402   -1532.6013    468.79208    291.75587    714.76988    36397.316 
  169400    303.38104   -1528.8426     455.9075    284.45114    803.39571    36397.316 
  169500    291.22145   -1504.0143     449.8382    248.80575    812.92978    36397.316 
  169600    292.20431   -1550.5623    462.83197    219.64896    500.12689    36397.316 
  169700    293.09843   -1531.0554     475.9393    256.26371    834.51345    36397.316 
  169800    310.91078   -1526.9312    446.07149    310.21607    1174.3731    36397.316 
  169900    295.03171   -1551.6352    466.18166    234.57617    785.10239    36397.316 
  170000    318.64015   -1519.1439    481.84834    388.36284    668.21901    36397.316 
  170100    301.43509   -1530.9965    476.64536    294.32854    358.91068    36397.316 
  170200    304.84932   -1495.0687    458.13641    327.02322    500.33226    36397.316 
  170300    296.35668   -1557.6217    457.83566    226.17185    311.67391    36397.316 
  170400     296.3635   -1530.0757    453.18805    249.10066    461.11866    36397.316 
  170500    294.40566   -1538.0723    444.51235    223.66866    619.16825    36397.316 
  170600    291.04009    -1528.393    444.47932    218.25664    675.71894    36397.316 
  170700    302.16333   -1508.1678    479.90009    323.67025    287.68194    36397.316 
  170800    301.44356   -1531.2089    448.67911    266.18773    358.82536    36397.316 
  170900     294.4879   -1543.2128    477.69174    252.07551    98.537786    36397.316 
  171000    304.34016   -1519.6244    440.35533    282.40842    754.35289    36397.316 
  171100    296.49024   -1522.6785    467.36628    271.24324    -479.8625    36397.316 
  171200    310.07584   -1507.6617    442.50874    322.18715     140.4493    36397.316 
  171300    290.39232   -1514.0588    468.51812     253.7314    140.84347    36397.316 
  171400    297.86053   -1485.6211     465.6018    312.66703   -700.92163    36397.316 
  171500    302.32255   -1489.5478    455.15676    318.25929   -158.42665    36397.316 
  171600    292.98948   -1500.7819    458.79185    268.90224   -160.42029    36397.316 
  171700    297.13251   -1545.5261    483.64117    267.54416    318.57644    36397.316 
  171800    293.31205   -1506.8041     428.9535    234.48498    42.117424    36397.316 
  171900    299.50714   -1550.8048    453.40061    242.64946    41.355443    36397.316 
  172000     299.4652   -1499.7532    447.68962    287.80239    342.25551    36397.316 
  172100    291.45327   -1460.8714    463.67249     306.8201    293.18708    36397.316 
  172200    295.60964   -1438.7791    488.50199    372.33833   -162.08682    36397.316 
  172300    302.11408   -1483.1835    473.04981    341.58385   -178.80488    36397.316 
  172400    294.67049   -1478.6698    463.13098    302.87468   -183.12137    36397.316 
  172500    299.59224   -1472.6815     458.0331    325.78592     51.57395    36397.316 
  172600    301.22095    -1479.642    453.45795    321.53753   -155.99038    36397.316 
  172700     307.5334   -1495.7804    456.39117     336.5754   -61.268768    36397.316 
  172800    294.30485   -1455.4567    463.37788    324.69878    56.806888    36397.316 
  172900     301.5119   -1509.3151    462.27894    301.98719   -389.59373    36397.316 
  173000    288.58742   -1511.5312    458.60999    238.27546    436.26067    36397.316 
  173100    294.07333   -1491.5103    446.80501    271.03644    578.49689    36397.316 
  173200    302.22815   -1439.1727    450.80411    363.85932      184.332    36397.316 
  173300    292.11784   -1465.7821    459.17948    300.38979   -284.72883    36397.316 
  173400    292.41474   -1482.9008     458.5965    284.01654    113.51843    36397.316 
  173500    307.28895   -1491.7577    475.35939    358.47265    625.71812    36397.316 
  173600    308.56305   -1452.7542    457.59333    385.41065    522.21925    36397.316 
  173700    299.73788   -1430.9701    469.92394    380.03986    482.10436    36397.316 
  173800    293.95987   -1453.3864    474.84663    336.69423   -591.04795    36397.316 
  173900    306.15851    -1466.601    432.76281     335.9749   -355.25713    36397.316 
  174000    295.66178   -1492.0205    459.93256    290.76077    151.19033    36397.316 
  174100    302.52078   -1490.2881     474.7518    338.00088    218.36774    36397.316 
  174200    314.13106   -1476.7144    469.00806    397.77757    889.57921    36397.316 
  174300     307.0086   -1458.3299    457.23185    372.51854    276.18625    36397.316 
  174400    293.50805   -1501.8218    456.76768    268.15837    470.68082    36397.316 
  174500    295.36936   -1484.8129    462.82724    299.55474    182.27006    36397.316 
  174600    297.48833   -1499.9574    466.31765    297.38131   -103.97193    36397.316 
  174700    296.25213   -1463.4875    463.63672    325.63928    -144.1357    36397.316 
  174800    298.58924   -1502.5875    469.37222    302.73152   -456.42817    36397.316 
  174900    301.38051    -1451.199    468.06206    365.29847    101.84072    36397.316 
  175000    296.26567      -1483.6    474.30226    316.25292    552.42445    36397.316 
  175100    298.38776   -1484.1737    437.25996     288.1315    423.56102    36397.316 
  175200    296.52802   -1467.1944      454.271    313.80109    319.02457    36397.316 
  175300    301.88187   -1487.6688    460.56765     323.5775    416.71857    36397.316 
  175400    310.58981   -1481.2718    440.98211    349.34997    845.08793    36397.316 
  175500    301.28903    -1505.696    476.47512    318.80525    883.42593    36397.316 
  175600    305.71222    -1483.134    455.25189    339.93421     959.9819    36397.316 
  175700    305.74071   -1488.4098    465.07577    344.60976    521.05449    36397.316 
  175800    300.25244   -1502.8393    449.79906    290.34803    305.69962    36397.316 
  175900    286.02758   -1522.6248    469.31591    226.43451   -227.04262    36397.316 
  176000     298.4833   -1471.6395    470.91325    334.74654    467.43425    36397.316 
  176100    298.77506   -1496.4535    471.82228    312.14686    11.089612    36397.316 
  176200    298.64795   -1469.8103    475.73248    342.13162    821.62376    36397.316 
  176300    315.21089   -1465.7307    466.90786    411.49243    115.34741    36397.316 
  176400     294.7336   -1434.0516    453.64031     338.2846   -29.873644    36397.316 
  176500    308.52039   -1534.9313      459.505    304.95442    -521.9303    36397.316 
  176600    301.30843    -1505.272    423.00325    265.84416    112.49925    36397.316 
  176700    295.05807   -1502.0922     455.8089    273.86432   -297.92877    36397.316 
  176800    298.84862   -1456.1372    452.87113    333.84112   -335.93653    36397.316 
  176900    300.24301    -1458.378    474.59313    359.56119   -470.09254    36397.316 
  177000    308.71204   -1508.5407    429.08878    301.78624   -468.87322    36397.316 
  177100    297.49859   -1498.5475    449.58256      282.102   -538.57761    36397.316 
  177200    307.88358   -1479.5014    463.89383    361.92384    83.912917    36397.316 
  177300    306.48597     -1469.36    451.19617     353.1144   -395.82665    36397.316 
  177400    288.64492   -1452.2062    440.12386    279.37155   -283.90937    36397.316 
  177500    297.65671   -1496.6196    480.83144    315.98623    159.18354    36397.316 
  177600    294.33841   -1475.5634    443.85032     285.2146   -280.16333    36397.316 
  177700    300.36304   -1485.2456    457.78414    316.42159   -285.90332    36397.316 
  177800    299.31971   -1444.9726    464.11874    358.36113     21.27598    36397.316 
  177900    293.02805   -1472.4681     471.5219     310.1187    279.11806    36397.316 
  178000    297.49581   -1491.2712    435.71371    275.49704   -226.13707    36397.316 
  178100    284.89224   -1478.6992    455.19245    251.15692    365.93793    36397.316 
  178200    291.64943   -1478.7859    466.60563     292.7164    297.94452    36397.316 
  178300    299.09298   -1440.8507    478.28527    375.63514    224.32041    36397.316 
  178400    298.74465   -1445.9611    455.34439    346.02536    607.48632    36397.316 
  178500    306.58896   -1494.3704    449.64833    327.01701    598.75099    36397.316 
  178600    306.80786   -1493.1172    471.79778    351.39902    774.84769    36397.316 
  178700    304.40337   -1455.6342    447.71634    354.04248    560.42617    36397.316 
  178800    294.73155   -1452.3618    462.08724    328.41218    -460.8641    36397.316 
  178900    302.04721   -1430.3264    485.46007    406.55204   -475.34266    36397.316 
  179000    289.73947   -1411.8975    448.98265    333.43627   -629.41933    36397.316 
  179100    298.88751   -1436.7924    472.13108       372.62   -932.53631    36397.316 
  179200    295.50443   -1441.3445    455.24385    336.04405   -787.13886    36397.316 
  179300    305.81827   -1443.4562    455.33216    380.16682   -931.55464    36397.316 
  179400    296.20134   -1508.3191     454.1815    271.12517   -360.01901    36397.316 
  179500    295.82949   -1439.7748    469.51123    353.33555   -263.72469    36397.316 
  179600     295.7044   -1463.9894    497.36152    356.41152    427.84986    36397.316 
  179700     301.1627   -1456.6907    476.58023    367.35041     397.4982    36397.316 
  179800    301.56033   -1438.8747    446.68258     357.0479    688.15855    36397.316 
  179900    292.80438   -1515.5137    458.96404    253.51454    185.09449    36397.316 
  180000    302.34272   -1475.3844    460.36226    337.71843   -256.44524    36397.316 
  180100    304.65663   -1474.4523    437.95895    326.60004   -667.42558    36397.316 
  180200    300.55706   -1462.2957    444.57744    327.03289    -86.88571    36397.316 
  180300    304.45205   -1498.6392    464.33459    327.87349    487.11781    36397.316 
  180400    305.61264   -1495.6171    466.79529    338.54902    457.45614    36397.316 
  180500    300.31725   -1491.5371    487.55857    339.69971    245.39607    36397.316 
  180600    302.46051   -1429.3424     443.3173    367.24243    292.55497    36397.316 
  180700    299.32874   -1475.6035     454.4477    318.09962    495.47886    36397.316 
  180800    293.10572   -1455.1368    457.31387    313.58947    358.40855    36397.316 
  180900    315.58208   -1504.5163    477.75346    385.21326    97.067415    36397.316 
  181000    303.86719   -1458.4979    462.12606    363.18947    372.86986    36397.316 
  181100    309.40957   -1460.4661    457.49684    381.38981    29.555886    36397.316 
  181200    302.00878   -1436.7454     478.5894    393.09048   -20.671712    36397.316 
  181300    306.82235   -1459.9372    469.13264    381.97877   -91.494497    36397.316 
  181400    294.39667   -1508.9254    460.81646    269.07939   -549.38747    36397.316 
  181500    303.78452   -1494.1534    460.25954     325.2976    16.843298    36397.316 
  181600     298.5469    -1455.659    477.06625    357.16461   -274.51137    36397.316 
  181700    290.37507   -1452.9961     460.4172    306.61602   -132.85395    36397.316 
  181800    299.83048    -1492.101    451.78486    301.18411     -531.452    36397.316 
  181900     302.8211   -1505.6199    455.46083    304.72187   -968.08705    36397.316 
  182000    304.20065   -1485.3804    437.19533    312.86827   -180.51033    36397.316 
  182100    300.64097   -1464.6546    460.55475    341.02675   -689.18717    36397.316 
  182200    300.13979   -1453.8274    449.55955    338.61636   -669.55701    36397.316 
  182300    297.55145   -1473.0283    450.63282    308.90799   -438.22023    36397.316 
  182400     292.1852   -1475.1819    427.89016     260.0021   -319.59058    36397.316 
  182500    307.98619   -1451.9556    454.95083    380.98574   -210.96552    36397.316 
  182600    296.51246    -1465.198    435.93829    297.39511    69.832769    36397.316 
  182700    300.11303   -1482.8381    455.45791    315.38428    185.85475    36397.316 
  182800    309.49723   -1503.4987    471.37266    352.62522    322.41811    36397.316 
  182900    294.32608   -1507.5332     448.8393    258.17864    62.556065    36397.316 
  183000    306.24346   -1486.5851    479.30055    362.90868    176.85564    36397.316 
  183100    300.65371   -1529.3801    440.10391    255.90737   -354.73964    36397.316 
  183200    299.46071   -1532.9589    442.61387    249.50084   -675.16056    36397.316 
  183300    289.55256   -1537.8954     462.6243    220.24376   -618.35184    36397.316 
  183400    316.24603    -1485.274    454.09149    383.76413   -144.64672    36397.316 
  183500    294.09812   -1497.6988    458.39189    276.54565   -279.75177    36397.316 
  183600    303.81294   -1459.5366    463.32736    363.10938    266.63311    36397.316 
  183700    297.96158   -1519.8689    456.31339    269.58294    34.571389    36397.316 
  183800    293.25103   -1515.1746    470.41965     267.3076     628.6176    36397.316 
  183900    300.79687   -1491.2479    468.97295    323.54915    192.99576    36397.316 
  184000    308.89316    -1489.645    457.63447    350.03794    182.51546    36397.316 
  184100    287.05227   -1498.0377    470.89589    257.18628   -324.28554    36397.316 
  184200    293.23603   -1489.1213    467.71156    290.58568   -585.44728    36397.316 
  184300     306.1604   -1534.1162    470.44805    306.15347   -247.72541    36397.316 
  184400    302.15614   -1494.4948    460.88441    318.29541   -559.88325    36397.316 
  184500    298.68173   -1494.4604    455.41297    297.31312   -666.52638    36397.316 
  184600     295.0766   -1477.0855    464.76062    307.90568   -409.69149    36397.316 
  184700    298.77373   -1519.4801    461.38755    278.67961   -1013.7737    36397.316 
  184800    296.60596   -1546.4136    434.87662    215.53621   -579.06561    36397.316 
  184900    311.63423   -1518.7509    450.12269    325.68439    71.313039    36397.316 
  185000    295.68446    -1540.722    481.24142    263.46957    323.81006    36397.316 
  185100     290.2209   -1551.9646    475.85475    222.39537    614.56084    36397.316 
  185200    293.51608   -1529.7979    468.41987    251.87043    399.99781    36397.316 
  185300    295.88517   -1530.7921    462.96714    256.02321   -71.955113    36397.316 
  185400    303.65246   -1563.1167    459.95533    255.43916   -406.43569    36397.316 
  185500    304.90478    -1543.661    472.61851    293.16121   -210.56203    36397.316 
  185600    312.65644   -1525.4634    447.48222    320.90496   -92.865388    36397.316 
  185700    292.48173   -1528.9906    466.46501    246.09498   -210.88372    36397.316 
  185800    318.90663   -1553.6035    455.89326    329.14046    83.824522    36397.316 
  185900      305.893   -1533.0478    462.14395    297.72134   -514.98162    36397.316 
  186000    295.80576   -1522.8333     454.9714    255.63102   -498.61291    36397.316 
  186100    306.73889   -1517.0826    502.58127    357.90857   -829.73008    36397.316 
  186200    307.02996   -1537.9163    457.06534    292.86123   -369.22607    36397.316 
  186300    302.72869   -1527.1289     480.0311    307.36966   -544.36966    36397.316 
  186400    295.95902   -1577.8553    468.37103    214.69435   -34.120713    36397.316 
  186500    299.43973   -1582.8075    447.35397    204.29845    453.92149    36397.316 
  186600    299.42399   -1588.7203    461.48611    212.44739    630.79112    36397.316 
  186700    308.08153   -1595.0787    453.12044    236.45887   -151.21507    36397.316 
  186800     296.7718   -1547.9941    467.84657    247.66761    640.63074    36397.316 
  186900    293.62264   -1554.0908    462.44662      222.081    162.34908    36397.316 
  187000    297.23688   -1551.2867    482.84933    261.45861    613.94074    36397.316 
  187100    296.16521   -1525.5385    454.29704    253.85975    52.463951    36397.316 
  187200    300.24806   -1545.7479    466.80675    264.42754    259.21536    36397.316 
  187300    302.42132   -1506.9023    497.84259    344.03246    346.23169    36397.316 
  187400    296.18603   -1503.5652    449.89447     271.5236   -110.83051    36397.316 
  187500    299.55403   -1510.5766    451.51699    281.20382   -322.99714    36397.316 
  187600    296.37701    -1484.639    456.68144    298.09122     302.5943    36397.316 
  187700    301.14766    -1504.812     463.7308    306.31244    317.01505    36397.316 
  187800    314.70617   -1505.1171     446.3956    349.33549    438.25095    36397.316 
  187900    294.72607   -1508.8228    459.04441    268.88381    302.18114    36397.316 
  188000    270.75949   -1493.6861    461.61298    179.35784    355.48949    36397.316 
  188100    302.18369   -1499.4745     489.2899    341.84439    419.13647    36397.316 
  188200    299.02523   -1504.0592    449.08709    282.92532    557.58319    36397.316 
  188300    303.32261   -1569.3548    484.27403      272.044    636.36605    36397.316 
  188400    297.37826   -1524.3447    482.06295     288.2468    181.30233    36397.316 
  188500    297.33738    -1538.559    477.77206    269.55875    97.267599    36397.316 
  188600    301.02416   -1512.8643    478.50255    312.47936   -15.957316    36397.316 
  188700    299.06003   -1525.7718    447.54584     259.8272   -221.70858    36397.316 
  188800    292.53079   -1533.2162     463.5127    239.13658    398.88165    36397.316 
  188900    301.23539   -1559.6879     472.9052    261.00345    236.23175    36397.316 
  189000    301.12752   -1540.1407    483.23887    290.40169    1373.5854    36397.316 
  189100    303.67113   -1561.6433    471.43492    268.47578    1084.7543    36397.316 
  189200    297.05501   -1577.9418    475.36177    226.50225    772.25893    36397.316 
  189300    299.94024   -1525.6302    466.22871    282.58989    565.20257    36397.316 
  189400    298.40751   -1516.3034    473.39264    292.22293    735.86971    36397.316 
  189500    306.94114   -1516.2596     465.9978    323.05304    175.07365    36397.316 
  189600    307.95184   -1494.4887    477.05497     360.4031   -156.26607    36397.316 
  189700    293.85938   -1518.2894    452.01758    248.51258   -502.80805    36397.316 
  189800      293.091   -1545.6613    451.76116    217.44638   -134.78005    36397.316 
  189900    305.31221   -1531.5007    461.87625    296.40221   -170.01118    36397.316 
  190000    298.05027   -1505.4091     463.5453    291.67154    -172.2654    36397.316 
  190100    297.16091   -1524.5361    460.59991     265.6199    431.13943    36397.316 
  190200     295.1989   -1516.6002    484.77729    288.95476   -628.29117    36397.316 
  190300    290.02236   -1496.1849    454.67671    256.10872    -863.7921    36397.316 
  190400    296.52802   -1429.5821    492.90398    390.04626   -1201.1052    36397.316 
  190500    286.15281   -1460.6874    445.60653    265.22288   -965.84168    36397.316 
  190600    311.34111   -1534.9802    499.12483    357.14572   -618.34641    36397.316 
  190700    297.35112   -1530.0777    446.70203    247.03147    -544.2393    36397.316 
  190800    301.94382   -1523.2033    461.82896    289.58139   -75.392138    36397.316 
  190900    289.98796    -1504.102    471.73915     265.1001   -272.15076    36397.316 
  191000    301.19826   -1521.4357    458.18846    284.37277   -209.26731    36397.316 
  191100    309.95156   -1530.4324    424.61815    280.96977    39.479193    36397.316 
  191200    306.59655   -1509.2046    463.31326    325.88169   -627.65731    36397.316 
  191300    295.63436   -1527.9752    465.68178    260.43266   -177.80368    36397.316 
  191400    299.46819   -1557.3429     443.3775    225.91399   -184.83662    36397.316 
  191500    304.98458   -1570.7889    481.19414    274.96595    378.89242    36397.316 
  191600    304.97924   -1564.4575    476.63497    276.71438     202.7568    36397.316 
  191700    301.08133   -1537.0913    476.17787    286.18339    218.98978    36397.316 
  191800    301.94031   -1561.7211    436.35342    225.57239   -294.87936    36397.316 
  191900    303.59842   -1554.1277    467.40772    271.63886    34.997494    36397.316 
  192000     298.4368   -1555.7377    457.73334    237.26039   -47.334921    36397.316 
  192100    310.23919   -1565.7452     454.1153    276.44103   -57.544905    36397.316 
  192200    303.72613   -1564.8698    435.56436    229.62477   -476.87568    36397.316 
  192300    301.91612   -1575.3158    469.18428    244.70037    215.59257    36397.316 
  192400    302.98172   -1527.8572    458.17948    285.92187   -305.74693    36397.316 
  192500    296.20566   -1529.9515    469.54127    264.87194   -626.73698    36397.316 
  192600      305.553    -1482.285    461.23616    346.05515   -345.19477    36397.316 
  192700    291.61544    -1517.477     460.7764    248.04398   -2.7445012    36397.316 
  192800    295.73499   -1561.2248    454.31196    216.26343    265.49433    36397.316 
  192900    306.71986   -1515.0634    503.32035    360.58165    279.47506    36397.316 
  193000    288.21248   -1442.3324     495.1306    342.31731    281.57278    36397.316 
  193100     310.5051   -1496.2412    456.85065    349.87007    25.732307    36397.316 
  193200    291.00609   -1512.9138    465.51069    254.61513   -286.16394    36397.316 
  193300    307.62904   -1503.1555    444.39497    317.63202    222.10272    36397.316 
  193400    302.58922   -1499.1916     467.8892     322.5411    634.26588    36397.316 
  193500    296.53245   -1501.0481    472.64501    298.34123    850.41218    36397.316 
  193600    298.23532   -1516.1028    475.99072    294.25114    616.83948    36397.316 
  193700    285.52793   -1492.4843    465.11855    250.14219    637.04579    36397.316 
  193800    291.19817    -1505.015    486.33627    284.19889    564.01339    36397.316 
  193900    288.99844   -1482.5833    455.51127     265.9636    419.66035    36397.316 
  194000    301.12085   -1498.6438    457.86172    306.49163   -227.63284    36397.316 
  194100    301.14199    -1507.507    462.66961    302.53087   -276.44772    36397.316 
  194200    299.70235   -1494.5963    487.59336    333.92413    104.15233    36397.316 
  194300    304.42908   -1521.6802    448.65464    289.04983    127.96492    36397.316 
  194400    295.94927   -1508.8259    458.95406    274.26313    447.16864    36397.316 
  194500    308.21294   -1556.5135    463.80208    286.29362   -485.78427    36397.316 
  194600    300.39976   -1524.2651    451.71622    271.49846   -385.61336    36397.316 
  194700     299.0998   -1557.2646    451.79083    232.75735   -753.14776    36397.316 
  194800    306.26003   -1532.4769    462.39385    300.18428   -778.37083    36397.316 
  194900    301.60687   -1519.1765    474.72324    304.99497   -594.31456    36397.316 
  195000    293.31183    -1564.766    449.51294    197.08153   -511.34747    36397.316 
  195100    300.40452   -1562.7844    460.25094     241.5352   -594.50739    36397.316 
  195200    308.57086    -1541.925    465.50624    304.18767   -758.62357    36397.316 
  195300    303.20015   -1522.2388    466.30565    300.64371    230.36855    36397.316 
  195400    304.87932   -1507.5782    484.01296    340.52455    610.01318    36397.316 
  195500    293.22326   -1499.2708    483.71919    296.38669    649.52157    36397.316 
  195600    301.82628   -1469.9046    488.55952    369.08482     661.2457    36397.316 
  195700    286.70263   -1530.9176    453.94788    205.79403   -88.867915    36397.316 
  195800    300.23659   -1535.5442    446.72334    254.49642    -143.1706    36397.316 
  195900    293.43437   -1529.0972    446.95224    230.73785    373.44541    36397.316 
  196000     296.3371   -1581.0088    487.01837    231.87978   -61.107088    36397.316 
  196100    301.81682    -1586.549    444.47905    208.31763   -144.07667    36397.316 
  196200    300.15422    -1554.772    479.27241    267.44922   -23.488334    36397.316 
  196300    287.94996   -1519.7519    456.87681    225.46945   -782.65289    36397.316 
  196400    302.64129   -1543.9377    441.42381    251.56251   -736.53997    36397.316 
  196500    301.76961   -1555.4597    462.29547    257.01206   -384.06449    36397.316 
  196600    305.43744   -1521.7976    473.17334    317.96269   -640.39759    36397.316 
  196700    290.59589   -1504.9387    467.91079    263.15499   -658.19426    36397.316 
  196800    310.29257   -1560.6966    468.67226    296.28543    313.22492    36397.316 
  196900    279.70612   -1583.1903    475.22227    143.49199    603.20313    36397.316 
  197000    285.47459   -1527.0314    501.54757    251.78542    881.96745    36397.316 
  197100    300.47025   -1491.6499    469.61873    322.33162    214.49329    36397.316 
  197200    312.78331   -1505.2826    478.65965    372.83082    298.63561    36397.316 
  197300     310.5491   -1536.7599    469.87307    322.57064    406.47854    36397.316 
  197400    289.84082   -1519.5788    476.52315    253.74893    278.40856    36397.316 
  197500    303.92162   -1503.4942    512.75592    369.06656    717.75444    36397.316 
  197600    295.05639   -1519.2363    445.71206    246.61585    529.34914    36397.316 
  197700    294.25776   -1581.4289    463.87273    199.01069    899.50409    36397.316 
  197800    308.23321   -1555.0292    481.65055    305.71714    562.08622    36397.316 
  197900     299.8739   -1526.5364    458.45366    273.61184     396.9794    36397.316 
  198000    295.26467   -1534.6366    486.21146     272.6468   -36.019633    36397.316 
  198100    295.54222   -1526.0783    481.14778    277.38328   -197.69256    36397.316 
  198200    307.61462   -1496.8297    438.99815    318.49655   -314.09684    36397.316 
  198300    302.50276   -1511.1394    461.63691    303.95413   -205.77177    36397.316 
  198400    308.93319    -1558.177    477.20406    301.25464   -217.52145    36397.316 
  198500    299.97467   -1561.0029    461.89701    243.03952   -591.99176    36397.316 
  198600    303.42884   -1579.2645     457.4138    235.74933   -629.47305    36397.316 
  198700    300.21034   -1529.8955    485.32979    298.63409   -463.64038    36397.316 
  198800    303.66622   -1573.3714    468.50254    253.79322    -1026.612    36397.316 
  198900    298.05758   -1556.8557    504.61697    281.32924     -638.159    36397.316 
  199000    301.79286   -1550.4806     484.2546    284.05432   -875.66327    36397.316 
  199100    297.24007   -1519.3609    472.86254    283.41197    -215.3052    36397.316 
  199200    296.37807   -1527.6231    480.58082    279.01128    956.97162    36397.316 
  199300    305.15972   -1521.0849    466.66307    310.92254    170.61159    36397.316 
  199400    304.26284   -1534.9792    468.17662    294.52902    204.75541    36397.316 
  199500    302.22976   -1532.7108    475.88103    295.40542    437.66392    36397.316 
  199600    287.86185   -1562.4454     473.3232    198.82805    31.475583    36397.316 
  199700    304.69902   -1543.2252    492.07874    312.13661    740.15733    36397.316 
  199800    288.72875   -1584.1677    486.36714    194.02844    590.70087    36397.316 
  199900    293.55627   -1539.0014    474.40675    248.83362    829.76854    36397.316 
  200000    294.70179   -1540.7432    453.65615    231.46644    307.40168    36397.316 
  200100    308.21883    -1554.295    487.81061    312.54707    829.13372    36397.316 
  200200    297.81309    -1568.306    463.65896    227.82711    623.24901    36397.316 
  200300    299.28565   -1560.0199     457.1411    236.18388    1003.3768    36397.316 
  200400    301.42659   -1552.1329    487.48716    283.99588    1217.5336    36397.316 
  200500    301.77876   -1537.0783    491.56263     304.7016    1228.2686    36397.316 
  200600    294.70019   -1539.0739    470.53788     250.0104    646.50257    36397.316 
  200700    304.30202   -1548.2414    451.19295    264.45836    954.32894    36397.316 
  200800    288.96556   -1567.2496    463.08295    188.72193    214.84798    36397.316 
  200900       300.94   -1593.8572    474.07189    226.67922    175.97077    36397.316 
  201000    298.88446   -1591.7456    458.06001      203.582    356.53202    36397.316 
  201100    295.32661   -1538.4142    470.35863    253.29352   -565.55994    36397.316 
  201200    296.77487   -1534.1045    464.26621    257.99056   -634.88821    36397.316 
  201300     290.8648   -1531.5217    466.32426    236.18859   -333.67529    36397.316 
  201400    294.57436   -1517.5679    470.69805    271.11359   -109.42424    36397.316 
  201500    311.45598   -1578.7143    476.45746    291.25818    14.788423    36397.316 
  201600    299.83835   -1587.2394    457.08755    211.38363    221.60569    36397.316 
  201700    292.19337   -1556.1384    475.00801    226.20004    21.928849    36397.316 
  201800    304.39362   -1540.4423    461.54189    283.01625    534.07582    36397.316 
  201900    299.58759   -1543.1759    473.96264    271.20032    302.18087    36397.316 
  202000    303.53076   -1574.7599    452.58343    235.87961    686.47458    36397.316 
  202100    302.14612   -1551.1107     480.8429    281.59316    651.34712    36397.316 
  202200     290.0879   -1566.8617    478.22096    209.26936    1028.2093    36397.316 
  202300    297.26317   -1592.8828    461.67439    198.80525    839.44773    36397.316 
  202400    298.26799   -1602.2192    451.99946    184.28969    591.26361    36397.316 
  202500    292.62583   -1599.7672    445.03095    154.52903    83.485526    36397.316 
  202600    286.98814   -1570.3611    481.92687    195.60698   -365.73102    36397.316 
  202700    310.49561   -1559.2986     435.1985    265.11809   -491.20716    36397.316 
  202800    302.00304   -1571.4828     450.3852    230.12321   -65.548442    36397.316 
  202900    304.56058   -1553.9203    479.84796    288.59135   -748.94137    36397.316 
  203000     302.2592   -1550.4157    447.29656    249.24769   -292.65674    36397.316 
  203100    296.70698   -1581.9205     491.9504    237.55502   -41.064032    36397.316 
  203200    299.60233   -1525.1344    475.66188    291.00701   -2.2807936    36397.316 
  203300    298.61386   -1540.1401     482.1394    278.05623    159.12688    36397.316 
  203400    291.37731    -1546.703    471.01436    227.99051   -245.13043    36397.316 
  203500    308.39303   -1586.0905    476.26898    269.98929   -142.23548    36397.316 
  203600    289.12677   -1601.3724    483.89341    176.13078   -402.18603    36397.316 
  203700    307.69598    -1562.723    487.01879    300.98786   -293.48518    36397.316 
  203800     302.5064   -1551.5699    484.59545    286.49843   -592.51166    36397.316 
  203900    312.56613   -1559.9659    464.73914    303.25527   -365.76502    36397.316 
  204000    303.14837   -1553.4858    470.71222    273.57163   -863.10989    36397.316 
  204100    305.03948   -1563.8436    445.79756    246.76041   -637.98521    36397.316 
  204200    306.98172   -1550.1493    468.26986    291.61687   -301.99669    36397.316 
  204300    298.13802   -1563.1173    472.04158    242.85225   -626.13481    36397.316 
  204400    302.15541   -1582.2449    454.84336    224.50096   -83.531135    36397.316 
  204500    291.11498   -1536.7516    469.62724    235.38111   -53.963794    36397.316 
  204600    294.63031   -1580.3596    488.79762    226.67175   -251.82192    36397.316 
  204700     303.2433   -1576.0074    471.13094    251.89349     352.8774    36397.316 
  204800     294.6157    -1587.033    467.92359    199.05893    975.09843    36397.316 
  204900    291.76094   -1575.5606    459.15345    188.98839    895.26053    36397.316 
  205000     292.9547   -1563.6816    466.46628    213.52134    812.57385    36397.316 
  205100    301.86247   -1530.0586     463.4966     284.0298    977.21722    36397.316 
  205200    301.76931   -1615.3247    453.20844    188.05875    460.67056    36397.316 
  205300    306.29199   -1561.5441    461.17755     270.0438    359.92923    36397.316 
  205400    290.34179   -1586.5427    499.00205    211.50541    777.06075    36397.316 
  205500    292.17581   -1549.9522     472.8196    230.11919    934.52915    36397.316 
  205600     308.0526   -1558.0056    457.04782    277.32994    163.26792    36397.316 
  205700    310.27824   -1596.5476    469.59226    261.29032     122.7322    36397.316 
  205800    303.20041   -1595.4688     465.2889    226.39809    912.97802    36397.316 
  205900      308.429   -1563.7727    471.30892    287.50802   -62.342405    36397.316 
  206000    297.98762    -1543.271    473.21396     263.1979   -499.91743    36397.316 
  206100    304.17052   -1540.1745    470.25526    290.99922   -70.163539    36397.316 
  206200    302.87032   -1509.1523    488.57826    334.52705    -830.6676    36397.316 
  206300    289.18675   -1531.1127    474.26273    237.02822   -398.43904    36397.316 
  206400    291.51885   -1574.6638    453.56979    183.21841   -624.79395    36397.316 
  206500    301.52157   -1604.7239    459.49335    203.83607   -692.72514    36397.316 
  206600    297.09867   -1575.5441    454.23755    207.97102    363.02174    36397.316 
  206700    310.13571   -1588.5104    462.55745    261.65494    215.36516    36397.316 
  206800    300.17924   -1559.1614    465.09392    248.99318    202.83158    36397.316 
  206900     304.9286   -1520.1083     479.9232    324.12517    387.58476    36397.316 
  207000    287.87519   -1527.7493     485.9495    246.21019   -341.21782    36397.316 
  207100    302.39545   -1545.6613    451.12736     258.4425    81.466546    36397.316 
  207200    296.03663   -1516.1311    494.89635    303.29112    322.30823    36397.316 
  207300    288.60787   -1552.6989    489.16025    227.74953    796.18539    36397.316 
  207400     302.5984   -1566.2876    500.66471    288.26168    1049.4296    36397.316 
  207500    292.76316    -1571.527    511.25588    249.60864    1341.1377    36397.316 
  207600    300.73374   -1574.0206    456.80304     228.3241    423.20097    36397.316 
  207700    297.39281   -1547.6658    460.95432    243.88218    423.96242    36397.316 
  207800    303.33696   -1591.8041    478.98621    244.37103    830.68568    36397.316 
  207900    296.52573   -1593.6689    475.85774    208.90307    775.04346    36397.316 
  208000    309.07496   -1554.0591    462.56215    291.36495    747.14334    36397.316 
  208100    297.46436   -1529.6949    475.67529    276.89417    404.87516    36397.316 
  208200    298.34645   -1549.1655     494.0989    279.79386    186.01346    36397.316 
  208300    298.80847   -1585.1435    445.86575    197.64986    335.37583    36397.316 
  208400    302.36479   -1591.8314     481.9299    242.93782   -40.556888    36397.316 
  208500    294.04355   -1576.8025     475.7212    214.52717   -109.27291    36397.316 
  208600    293.54442   -1566.1602    476.44828    223.66335   -8.2590665    36397.316 
  208700    296.84025   -1559.1164    484.74585    253.75087   -150.64323    36397.316 
  208800    308.78679   -1556.0652    456.97784    282.48517    148.95158    36397.316 
  208900     297.8112   -1562.3255    465.76109    235.90129    241.95208    36397.316 
  209000    299.79761   -1554.2694    478.67315    265.75703    465.66555    36397.316 
  209100     293.1517   -1530.1142    487.57317    269.07711    399.69487    36397.316 
  209200    295.50482   -1514.3905    467.92885    275.68481    1074.3286    36397.316 
  209300    304.24347   -1551.9852    482.98298     292.2427    291.64498    36397.316 
  209400    297.91965   -1559.2788    454.53401    228.20609    485.35233    36397.316 
  209500    310.31806   -1564.6782    483.45556    307.20117   -132.38885    36397.316 
  209600     292.4114   -1535.4716    471.26996    244.10422   -106.53115    36397.316 
  209700    300.50898   -1517.0078     461.7404    289.26869    124.10212    36397.316 
  209800    300.55254   -1568.3503    491.58458    267.96521   -403.16094    36397.316 
  209900    309.12519   -1533.0252    464.57911    314.64057   -131.06097    36397.316 
  210000    303.28589   -1534.3095    469.49126    292.14227    308.83226    36397.316 
  210100    292.95606   -1523.7614    481.25885    268.24029    125.71681    36397.316 
  210200    300.48185   -1509.9384    476.39615    310.87238    329.54425    36397.316 
  210300    289.74753   -1526.7631    500.06907    269.69313    642.22218    36397.316 
  210400    300.79305   -1510.8422    481.37146    316.33626     322.3009    36397.316 
  210500    300.71336   -1476.7739    472.06272    340.73927     62.34567    36397.316 
  210600    307.61654   -1497.2851    470.66485    349.71636    246.75732    36397.316 
  210700    299.51392   -1488.2062     474.3759    326.25366    696.08771    36397.316 
  210800    294.36469   -1523.5929    473.30402    266.75644    395.81827    36397.316 
  210900    306.56758   -1528.2193    483.78641    327.21046    375.47671    36397.316 
  211000    299.48437   -1512.8002    468.60386    295.75543    490.32746    36397.316 
  211100    304.69443   -1518.2584    476.99882    322.00296    110.43933    36397.316 
  211200    292.39037   -1521.6252    479.45404    266.04057   -93.102693    36397.316 
  211300     300.4736   -1516.6298    475.64593    303.39389    -634.8831    36397.316 
  211400    297.43597   -1527.0637    468.15143    271.87453   -564.47159    36397.316 
  211500    292.60021   -1545.7436    438.84664    202.25365    112.42386    36397.316 
  211600    300.66978   -1567.1899    479.83912    257.90474   -368.83463    36397.316 
  211700     297.7654   -1504.1744    452.23766    280.32395     281.0905    36397.316 
  211800    300.90968   -1489.9246    470.78989    327.19413    424.82087    36397.316 
  211900    285.88091   -1510.9447    484.55129    252.69381    474.30773    36397.316 
  212000    298.97266   -1526.9295    462.63263    273.36534   -129.47708    36397.316 
  212100    298.53998   -1524.5771    470.05489    281.20409    43.982583    36397.316 
  212200    304.63042    -1538.954    478.79471    302.81692   -77.055908    36397.316 
  212300    305.77686   -1525.4311    463.39926     306.0737    84.948899    36397.316 
  212400     287.1569   -1538.0136    444.71698    191.49963    82.840433    36397.316 
  212500     296.3106   -1543.3894     503.4266    285.78885     871.6024    36397.316 
  212600    304.49858   -1562.6081    467.17406    266.95224    720.12095    36397.316 
  212700    296.39574    -1570.474    462.12654    217.78518    669.81812    36397.316 
  212800    302.91842   -1568.0487    451.86877    239.13644    821.08779    36397.316 
  212900    284.15678   -1544.4363     445.4012    172.33803    564.01356    36397.316 
  213000    303.00174   -1548.8373    472.01964    278.87149    673.59016    36397.316 
  213100    317.02137   -1534.4866    470.92497    354.85407     465.9024    36397.316 
  213200    298.63043   -1557.1313    470.77868    249.77841    50.646835    36397.316 
  213300    301.37453   -1567.6266    462.21555    242.99761    361.22498    36397.316 
  213400     293.1273   -1543.1854     472.8595    241.18305    1098.6769    36397.316 
  213500    298.93611   -1552.1894    473.59386     258.9032    861.55164    36397.316 
  213600    292.62406   -1533.4227    471.66066    247.49532    271.58746    36397.316 
  213700    299.71288   -1521.5323    469.99204    289.43389    185.91141    36397.316 
  213800    304.42659   -1515.6553    477.08212    323.49102   -18.207616    36397.316 
  213900    309.38609   -1481.4549    463.43518    366.23423    38.217305    36397.316 
  214000    292.52408   -1521.5813    479.88231    267.11109    120.68499    36397.316 
  214100    310.40996   -1508.5473    461.87367    342.16137   -189.19597    36397.316 
  214200    288.78984   -1492.4145    465.93624    265.62409   -228.64617    36397.316 
  214300    291.39838   -1490.6276    467.26933    280.41515   -28.651427    36397.316 
  214400    297.80647   -1507.1078    473.54282    298.87953   -49.980846    36397.316 
  214500    306.44629   -1532.9403    456.19349    294.35393    122.12918    36397.316 
  214600    302.35159   -1505.0374    494.03882    341.78168    -38.19202    36397.316 
  214700    300.18553   -1504.7076    497.90616    336.28744   -385.77671    36397.316 
  214800     293.5665   -1525.2575    436.98577    225.20234   -743.61124    36397.316 
  214900    291.07851   -1466.2603    506.65507    342.73702   -538.09312    36397.316 
  215000    303.39176   -1523.2952    476.58147    310.72045   -311.10627    36397.316 
  215100    308.34668   -1485.0423    462.15101    356.71215   -163.86639    36397.316 
  215200      291.183   -1569.6764      456.294    189.42741   -401.61235    36397.316 
  215300    291.22549   -1510.3995    500.51917    293.11959   -255.37659    36397.316 
  215400    298.69028   -1511.5827    479.02194    303.83808   -526.12834    36397.316 
  215500    305.83893   -1525.2007    447.31093    290.49348    -334.7228    36397.316 
  215600    307.42427   -1552.4954    477.73907    300.72007    255.87524    36397.316 
  215700    301.01445   -1517.2726    475.16982    304.69483   -708.75578    36397.316 
  215800    301.39424   -1575.3862    472.94481     246.0555   -393.90535    36397.316 
  215900    298.45389   -1516.6217    455.85282    274.57233   -209.32709    36397.316 
  216000    298.08485   -1510.3898    464.32855    287.62877   -439.41315    36397.316 
  216100    305.74951   -1552.8137    450.39939    265.56888   -64.816157    36397.316 
  216200     297.3248   -1520.5125    474.80581    284.58273   -285.20744    36397.316 
  216300    301.22258   -1538.1723    462.95541    272.51193   -593.57411    36397.316 
  216400    289.87365   -1493.9961    457.13219    260.08765   -419.63249    36397.316 
  216500    306.08741   -1529.3639    460.77131    300.90244    167.65585    36397.316 
  216600    299.61078   -1530.9438    488.13502    297.70857   -290.82723    36397.316 
  216700    306.75818   -1493.3093    476.51914    355.70607   -144.88814    36397.316 
  216800    313.04687   -1516.7805      476.923    360.77556   -44.952656    36397.316 
  216900    302.55729   -1521.2467    449.78512    282.23903   -141.80685    36397.316 
  217000    293.78814   -1493.1339    475.03841    296.37022    373.80081    36397.316 
  217100    292.46434    -1488.797    463.79256     283.5383    316.82306    36397.316 
  217200    310.05606   -1520.2116    461.10561    328.14553    674.11966    36397.316 
  217300    288.73924   -1474.8634    482.98362    299.99611    626.04641    36397.316 
  217400    295.37644   -1501.0714    449.50209    270.00273    215.63653    36397.316 
  217500     303.6258   -1507.9152    440.85255    291.41868    352.88653    36397.316 
  217600    301.95141   -1535.7613    447.51266    262.74109    125.86421    36397.316 
  217700    301.06253   -1526.3654    485.18426    305.83157     106.6619    36397.316 
  217800    302.06732   -1511.9554    465.91722    305.47016     115.6678    36397.316 
  217900     295.8975   -1475.1641    467.70932    316.44862   -336.81566    36397.316 
  218000    310.27178    -1480.318    450.17018    358.06893   -385.59243    36397.316 
  218100    298.03863   -1506.5615    488.65725    315.57893   -259.82981    36397.316 
  218200    299.74278   -1514.1985    468.27866    295.18813    59.152485    36397.316 
  218300    297.71332   -1499.6659    464.13386    296.49565     309.6242    36397.316 
  218400    304.04026   -1515.8804    447.66054    292.11587     268.7819    36397.316 
  218500    301.79289   -1517.7133    476.34119     308.9084    739.34087    36397.316 
  218600    290.98624   -1532.0789    485.90494    255.75546    459.61641    36397.316 
  218700    298.06731   -1510.4015    480.88561    304.09563   -22.235917    36397.316 
  218800    291.31109   -1495.1043    487.55595    295.83458   -101.38665    36397.316 
  218900    303.35063   -1510.0283    466.69954    313.92136     433.4729    36397.316 
  219000     297.7702   -1515.7322    463.79859    280.34863    749.89873    36397.316 
  219100    291.14079   -1491.2762    485.70775    297.05245    545.94952    36397.316 
  219200    313.30477   -1504.7086    518.02548    415.10377    1001.7608    36397.316 
  219300    294.14863   -1538.2277    469.76147     247.6124    935.75717    36397.316 
  219400      301.908   -1502.6759    469.80713    317.92678    701.86816    36397.316 
  219500    296.78931    -1483.893    479.32615    323.32669    766.76407    36397.316 
  219600     312.2503   -1534.0103    448.74307    311.80178    508.97028    36397.316 
  219700    288.50465   -1531.5734    487.51087    246.76384    466.57237    36397.316 
  219800    292.30952   -1532.3645    456.30704     231.7926   -239.98639    36397.316 
  219900    294.98734   -1523.2876    444.50474    241.04827   -302.41916    36397.316 
  220000    298.77471   -1498.0874    457.99203    296.68119    -138.3113    36397.316 
  220100     304.5291   -1550.7164    468.45879    280.26521   -390.70416    36397.316 
  220200    303.77965    -1492.284    498.12397    365.00958    154.81711    36397.316 
  220300    299.42379   -1546.1116    436.96715    230.53621    315.22941    36397.316 
  220400    308.94243   -1567.3198    440.55698    255.50613    287.25537    36397.316 
  220500    290.97291   -1565.8162     461.0047    197.05827   -47.304926    36397.316 
  220600    298.81037   -1563.5292     437.8298    211.23673   -58.844204    36397.316 
  220700     304.1968    -1501.002    470.45703    330.49115   -307.02333    36397.316 
  220800    294.52785   -1525.5686     452.6352    244.84187    123.77833    36397.316 
  220900    293.90523   -1536.4411    450.87965    229.42813    201.79187    36397.316 
  221000    307.84487   -1512.0416     454.7769    320.09357    -29.51378    36397.316 
  221100    303.04869   -1516.1431    467.13417    306.89026    -838.4476    36397.316 
  221200    305.46043   -1540.6816    442.36761    268.37586   -241.25493    36397.316 
  221300    291.37377   -1511.9055    477.14009     268.8979   -342.68843    36397.316 
  221400     300.1182   -1505.5531    478.01419    315.24867    -304.9335    36397.316 
  221500    292.54967   -1493.3176    464.68178    280.28867    589.67978    36397.316 
  221600    286.73308   -1495.8039    477.89357    264.98969    115.89996    36397.316 
  221700    297.23499   -1511.8792    473.98801    291.99636      290.034    36397.316 
  221800    305.63406    -1478.639    444.42152    333.24923    307.02849    36397.316 
  221900    306.69867   -1473.3799     447.8638    346.71387    2.0511341    36397.316 
  222000    308.73866   -1498.1966    456.85602    340.01667    87.978481    36397.316 
  222100    286.43361   -1520.8565     451.3593    212.06284    258.47881    36397.316 
  222200    299.40082   -1469.3266    496.85996     367.1113   -466.65609    36397.316 
  222300    297.33573   -1511.4543    486.68684    305.57081    -497.4214    36397.316 
  222400     301.4866   -1486.8199    501.75982    363.85003   -50.840868    36397.316 
  222500    298.44085   -1490.3039    463.72248    308.70137   -441.50212    36397.316 
  222600    310.96949    -1531.387    473.84491    333.79637   -365.12815    36397.316 
  222700    299.49799    -1534.359    456.89165    262.54533   -78.028901    36397.316 
  222800    310.42847    -1544.581    439.56651    283.90328   -346.65715    36397.316 
  222900    289.59632   -1545.2766    451.94633    202.38041    316.36209    36397.316 
  223000    297.54489   -1590.7757    428.59591    169.09438    58.769473    36397.316 
  223100    309.77873   -1572.0308    458.04376    272.02365    268.22679    36397.316 
  223200    297.71859   -1577.3425    464.11639    218.82516    12.242576    36397.316 
  223300    299.72831   -1561.0539    475.67871    255.66794   -137.22512    36397.316 
  223400    309.99523   -1584.2682    462.80409    265.51527    313.51133    36397.316 
  223500    292.46022   -1561.6052      481.834    228.75312     167.3004    36397.316 
  223600    300.82055   -1541.9612    481.45089    285.41972    502.27877    36397.316 
  223700    293.34689   -1531.4937    471.96052     252.9583   -222.72773    36397.316 
  223800    298.94691   -1524.3357    459.69475     272.9061   -649.80945    36397.316 
  223900    310.15896   -1526.6108     472.4752    333.57631   -1360.2016    36397.316 
  224000    309.22528   -1520.3682    455.79357    318.95984   -826.20794    36397.316 
  224100    287.70296   -1552.0845    467.58746    202.74231   -134.47518    36397.316 
  224200    302.79196   -1536.6848    446.59369    264.65946    143.90096    36397.316 
  224300    299.26255   -1508.9817    441.31921    271.29684   -23.886272    36397.316 
  224400    290.57973   -1506.6919    463.86664    257.28536   -438.14207    36397.316 
  224500    308.35755   -1515.9351    463.90352    327.62048    56.602106    36397.316 
  224600    307.06338   -1532.2336    459.64752    301.27568    969.56596    36397.316 
  224700    297.65026   -1464.9146    464.05268    330.88363    478.44774    36397.316 
  224800    294.96299   -1470.4559    485.67337    334.93971    70.367766    36397.316 
  224900    301.32616   -1497.2648    479.36883    330.29634    188.35329    36397.316 
  225000    296.98913   -1514.3953    477.03366    291.42594    439.23214    36397.316 
  225100     305.0262   -1490.2582    478.49403    352.98274   -298.74645    36397.316 
  225200    293.53733   -1480.3111    472.71122    305.74367   -830.86045    36397.316 
  225300    297.06614   -1519.2391    440.51099    250.40397   -848.15229    36397.316 
  225400    305.02137   -1503.5808    491.66077    352.80538    -493.7507    36397.316 
  225500    301.25512   -1501.2198    460.74964    307.40423   -672.54935    36397.316 
  225600    296.19265   -1511.1877    454.04867    268.08488      -144.11    36397.316 
  225700     297.8308   -1501.2546    438.34224    269.64094   -810.27455    36397.316 
  225800    311.58285   -1495.5841     488.4858    386.98437   -670.26334    36397.316 
  225900    303.45585   -1492.8508    448.86886    313.73901   -336.60938    36397.316 
  226000    307.49199   -1480.1373    463.63726    359.27935   -84.573478    36397.316 
  226100     296.6615   -1462.0964    481.88515    347.11044    732.19466    36397.316 
  226200    295.81002   -1504.0142    503.96711    323.46484    904.36291    36397.316 
  226300    295.86541   -1460.6345    474.91096     338.0363    285.12086    36397.316 
  226400    299.06813   -1454.3438    474.63913    358.38475     467.9793    36397.316 
  226500    308.43328   -1496.8228    478.58528    361.75342    348.69667    36397.316 
  226600        297.7   -1509.6216    488.15089    310.49743    505.68422    36397.316 
  226700    300.98068   -1552.5019    446.53879    240.68335   -17.298061    36397.316 
  226800    306.39702   -1530.6807    434.94526    275.14485   -293.02366    36397.316 
  226900    313.22073   -1510.8267    459.93279    350.51704   -747.37564    36397.316 
  227000     307.8605   -1520.6222    469.17467    325.98065   -132.89722    36397.316 
  227100    290.93782   -1493.4511    471.26399    279.52574    -591.4186    36397.316 
  227200    294.75748   -1518.6462    448.28714    248.44364   -469.60535    36397.316 
  227300    292.94667   -1506.8905    458.84347    262.65377   -358.33826    36397.316 
  227400    302.12989   -1521.2919    467.96023     298.4567   -745.20881    36397.316 
  227500    299.17649   -1506.8027    472.17252    303.94402    331.57422    36397.316 
  227600    287.33506   -1534.3837     467.6485    218.85816   0.23191774    36397.316 
  227700    294.41621   -1573.1875    478.03258    222.12082    249.92319    36397.316 
  227800    310.27866   -1537.2852    452.20954    303.17179    809.74416    36397.316 
  227900    315.15046   -1571.7887    439.86538    278.12157    40.088534    36397.316 
  228000    297.54605   -1595.7797    485.82692    221.32657   -211.87763    36397.316 
  228100    305.64481   -1519.5884    461.61676    309.54317   -102.23922    36397.316 
  228200    309.84206    -1560.931     443.2993    268.66238    285.50245    36397.316 
  228300    308.87984   -1552.6574    461.28233    290.61384   -400.10769    36397.316 
  228400    309.36179   -1509.7117    466.79378    341.22736   -443.92179    36397.316 
  228500    297.08493   -1523.2565    436.05827    242.01791   -827.07186    36397.316 
  228600     313.1531   -1536.5998     475.8079    340.31647   -419.34313    36397.316 
  228700    299.15542   -1541.2856    457.15795    254.35233   -238.11445    36397.316 
  228800    300.22283   -1537.7679    491.43305    296.92088   -150.61541    36397.316 
  228900    309.83015   -1515.4079    491.23023    362.06308    76.717803    36397.316 
  229000     302.4238   -1501.3293    471.07459    322.84863   -39.817224    36397.316 
  229100    304.14721   -1497.2008    449.57297    313.18635   -284.72098    36397.316 
  229200    311.24812   -1473.9766    450.73667    369.34509   -341.39578    36397.316 
  229300    294.70145   -1472.8384    472.27386     317.9875   -665.39907    36397.316 
  229400     299.3921   -1508.7196    469.72141     300.5407   -218.54935    36397.316 
  229500    304.41215   -1471.4336    478.39046    368.95646    -454.8214    36397.316 
  229600    303.14084   -1463.6157    498.81367    391.50944    445.85648    36397.316 
  229700     309.2092   -1497.8333    428.03473    313.66394   -426.38106    36397.316 
  229800      296.807   -1488.1648    506.88305    346.69097     107.8075    36397.316 
  229900    300.11761   -1475.4474    445.89881    313.23644   -511.64894    36397.316 
  230000    305.82215    -1490.531    485.31219    363.08933   -174.84847    36397.316 
  230100    299.59226   -1510.7776    473.08577    302.74264   -349.33895    36397.316 
  230200    289.66369   -1512.3475    456.61681    240.28141   -662.65037    36397.316 
  230300     290.7023   -1485.7704    510.70962    325.59829   -207.37164    36397.316 
  230400    307.16181   -1508.9683    444.83636    310.17021    305.25303    36397.316 
  230500    300.09609   -1515.4877    503.93948    331.14043    363.64614    36397.316 
  230600    298.65342    -1500.636    459.81008    295.40797   -93.708443    36397.316 
  230700    288.38534   -1484.2745    489.46657    295.48457    231.91859    36397.316 
  230800    300.09314   -1465.7149    462.78631     339.7469   -308.12231    36397.316 
  230900    294.29683   -1473.0467    473.59182    317.28674   -54.069454    36397.316 
  231000    292.27885   -1487.3811    473.53999    293.87168   -87.119277    36397.316 
  231100    297.60048   -1503.4515    441.81379    269.88513    284.16407    36397.316 
  231200    303.62853   -1493.6563    465.45888    330.29605   -52.392986    36397.316 
  231300    292.93148   -1482.7638    488.64876    316.51778    164.22889    36397.316 
  231400    293.95513    -1522.842    455.60882    247.97967   -306.13753    36397.316 
  231500    299.70077   -1472.4426    484.48203    352.95937   -882.91538    36397.316 
  231600    293.95994    -1518.658    452.64347    249.21983   -588.31537    36397.316 
  231700    297.66993   -1537.3448    464.72812    259.21685   -115.84073    36397.316 
  231800    302.32469   -1535.1568    457.81442    275.31751    107.00007    36397.316 
  231900    300.55195   -1538.8357    464.31542    270.20804    462.89528    36397.316 
  232000    298.79697   -1538.2705    479.07698    277.68262    598.86294    36397.316 
  232100    304.12539   -1546.2545    479.49297    293.95506    411.75735    36397.316 
  232200    297.07958   -1558.1071    472.79374    243.87886    218.71654    36397.316 
  232300    305.13822    -1551.895    468.79378    282.14696    469.86164    36397.316 
  232400    298.21457    -1556.267    450.24337    228.24676     397.1481    36397.316 
  232500    297.09299   -1540.6697    473.42639     262.0089    119.79807    36397.316 
  232600    296.66773   -1535.1997    481.96355    274.11346    517.25233    36397.316 
  232700    292.45602    -1560.642    449.60858    197.47205   -225.85952    36397.316 
  232800    297.83962   -1540.6106    456.17382    248.15599   -446.26359    36397.316 
  232900    298.40506   -1535.8574    462.75406    262.01941   -259.33256    36397.316 
  233000    300.01384   -1523.4158    453.47145    272.37628   -312.05262    36397.316 
  233100    304.60756   -1544.4783    449.77267    268.16829    454.67406    36397.316 
  233200    292.10646    -1517.221     462.0344    251.75495    112.78115    36397.316 
  233300    295.87059   -1511.0127    469.42791    282.19817   -53.596977    36397.316 
  233400     297.8205   -1506.0877    477.85131    304.27083    54.761215    36397.316 
  233500    295.07284    -1538.951     491.4279    272.69061    2.6145965    36397.316 
  233600    297.91444   -1493.9383    448.86454    287.85381     73.87145    36397.316 
  233700    298.65148   -1506.6174    491.94521    321.55306     304.9928    36397.316 
  233800    299.86319   -1472.1386    472.64631    342.15433    -45.43951    36397.316 
  233900     306.4378   -1486.2311     468.2015    353.03319    307.28687    36397.316 
  234000    302.67952   -1517.4122    458.90469    295.73999    373.82839    36397.316 
  234100    299.40008   -1512.9163    457.45402    284.11236    122.85809    36397.316 
  234200    304.90313   -1534.9971     470.1909     299.3902   -253.58218    36397.316 
  234300       294.67   -1464.9516    459.85723    313.31695    301.36743    36397.316 
  234400    309.07061   -1479.4198    480.69177    384.11443    181.91054    36397.316 
  234500    290.76472   -1480.4492     480.5935     301.0826     474.5211    36397.316 
  234600    303.53811   -1502.6662    487.65125    343.07401    501.13163    36397.316 
  234700    294.50013   -1469.6997     486.0968    334.04836    4.9448269    36397.316 
  234800     293.7559   -1488.1864    464.27426    290.40923   -88.007886    36397.316 
  234900    306.94763    -1510.252    452.90669    315.99852   -50.887066    36397.316 
  235000    289.58371   -1488.5689    456.11175    263.19712    110.80763    36397.316 
  235100    295.31784   -1507.2706    443.97658    258.01584   -71.172365    36397.316 
  235200    299.79374   -1507.8074    454.83088    288.35938    192.87907    36397.316 
  235300    295.46865   -1527.8074    443.81601    237.99329    169.11864    36397.316 
  235400    296.93912   -1524.5779    461.67188    265.65784    676.09477    36397.316 
  235500    305.21985   -1512.6197    468.98875    321.98247    1084.4419    36397.316 
  235600     293.6067    -1498.966    460.12736    274.81529    779.33032    36397.316 
  235700    302.48431   -1476.0133    464.73006    342.09079    509.66066    36397.316 
  235800    301.31821   -1511.6928    453.87793     290.3418    111.64438    36397.316 
  235900    310.15286   -1479.8172    447.91172    355.77921   -340.62468    36397.316 
  236000    299.44122   -1452.6269     438.7162    325.84793    -551.6949    36397.316 
  236100    292.27364   -1465.3418    466.49097    308.83871   -1022.1808    36397.316 
  236200    304.49321    -1440.239    449.51013    371.63338    -1346.218    36397.316 
  236300    304.89819    -1467.329    451.81542    348.66063   -847.08695    36397.316 
  236400    308.79733   -1463.9846    470.98028    388.61541   -298.20633    36397.316 
  236500    301.74955   -1432.6569    491.26846    408.69814   -3.3671742    36397.316 
  236600    302.26763   -1457.4728    452.23817    347.16996   -459.53843    36397.316 
  236700    305.98426   -1463.8555    472.71038    377.88838   -92.354993    36397.316 
  236800    307.32011   -1487.1564     469.9499    357.80385   -80.241706    36397.316 
  236900     302.1383   -1478.1677    453.13155    326.78983    370.20988    36397.316 
  237000    299.15607    -1458.541    477.01309    356.95493    1030.5571    36397.316 
  237100    303.36478   -1493.1814    471.52702    335.65902    328.73761    36397.316 
  237200    299.43177   -1515.7627    442.74857     266.7023    560.80241    36397.316 
  237300    292.83928   -1519.0125    474.95229    266.16012    673.57617    36397.316 
  237400    300.63763   -1522.8513    451.22835    273.48873    1036.3811    36397.316 
  237500    293.87733   -1463.3566    468.41369    319.92186    416.84013    36397.316 
  237600    299.77593   -1478.2735    468.99152    331.97428    239.33773    36397.316 
  237700    295.22256   -1514.9993    477.16854    283.05276    448.97508    36397.316 
  237800    299.25911   -1454.8348    451.61467    335.72372   -47.952116    36397.316 
  237900    304.88763   -1482.3702    453.97422    335.73103   -249.46594    36397.316 
  238000    286.46875   -1497.9426    452.06408    235.83874   -109.22521    36397.316 
  238100     298.4584   -1480.2005    481.23823     336.3991   -305.53753    36397.316 
  238200    287.01211   -1496.8259    444.80608    232.12855    70.683529    36397.316 
  238300    308.51253   -1502.0102    467.74739    346.08273   -16.809693    36397.316 
  238400    299.06902   -1486.6981    456.08119    307.47648    120.63439    36397.316 
  238500    296.54584   -1475.2758    444.77452    296.30295   -34.339665    36397.316 
  238600    310.54006   -1491.4244    442.20903    340.20166    170.86584    36397.316 
  238700    287.74035   -1495.6366    455.86124    247.63135   -316.17624    36397.316 
  238800    301.63339   -1441.5586    453.76502    361.77329    230.64876    36397.316 
  238900    301.42827    -1410.339    458.47296    396.78304    212.10868    36397.316 
  239000    296.89837   -1470.5966    460.11656    317.90144    376.72968    36397.316 
  239100    292.80182   -1495.8964    448.22097    262.37732    263.48287    36397.316 
  239200    293.98652   -1447.8306     467.7067    335.22933    279.58142    36397.316 
  239300    287.97958   -1469.9732    434.44446    252.94828    31.547353    36397.316 
  239400    303.03998   -1493.3465    452.56801    315.08173    610.50306    36397.316 
  239500     297.9318   -1484.9183    419.10959    267.19653   -28.657311    36397.316 
  239600    304.95448   -1464.8736      452.057    351.60946     327.3863    36397.316 
  239700    301.71247   -1517.0681    470.76837    303.62097    492.36495    36397.316 
  239800    300.41171    -1543.375    436.68979    237.41566   -233.67696    36397.316 
  239900    292.60426   -1478.6681     453.2608    283.76149    350.40037    36397.316 
  240000    298.36593   -1477.1886    453.12196    310.88095   -67.085504    36397.316 
  240100    298.22064   -1477.9765    453.62268    309.94373    97.464169    36397.316 
  240200    298.86737   -1473.1943    453.11687    317.11372   -155.20117    36397.316 
  240300    288.09272   -1415.8083    472.78015    345.95515    32.219623    36397.316 
  240400    293.20685   -1445.4907    442.45526    308.82943   -228.51457    36397.316 
  240500    306.03355   -1442.3856    452.00753    378.87594    477.04673    36397.316 
  240600      297.281   -1431.2567     477.8743      376.711   -43.902742    36397.316 
  240700    297.17609   -1445.6035    442.81663    326.83713   -107.68943    36397.316 
  240800    302.49469   -1454.5973    422.92516     321.7483   -625.85024    36397.316 
  240900    301.38952   -1468.0721    455.75169    336.15539   -307.73351    36397.316 
  241000    300.33324   -1482.3502    467.16846    328.56799    180.12688    36397.316 
  241100    292.24818   -1457.3493    450.31101    300.53732    764.92878    36397.316 
  241200    296.52946   -1464.0347    457.41839    320.11464    869.11585    36397.316 
  241300     297.9966   -1443.3364    451.80414    341.76292    304.09641    36397.316 
  241400    301.10536   -1479.5701    452.82391    320.45812    108.64586    36397.316 
  241500    300.22578    -1431.856    464.99402      376.407    283.16776    36397.316 
  241600    296.74133   -1446.4632    438.44465    319.66031   -1.5027399    36397.316 
  241700    296.54989   -1428.6833    451.24282     349.3818   -99.943293    36397.316 
  241800    296.20142   -1443.4797    459.03681    340.82026   -365.30821    36397.316 
  241900    298.30386   -1442.5029    435.17444    327.34145    364.82625    36397.316 
  242000    296.78108   -1437.3198    453.93416    344.47106    310.72454    36397.316 
  242100    303.41258   -1421.7051    469.75372    405.57595     244.4533    36397.316 
  242200    299.83932   -1467.9417    455.71743    329.31559    286.44225    36397.316 
  242300     295.9726   -1438.8138    450.26168    335.68729    529.40769    36397.316 
  242400    302.14245    -1483.146    468.20908    336.90759    602.95303    36397.316 
  242500    304.07216   -1481.9073     465.8196    344.39069    560.69497    36397.316 
  242600    291.85711   -1428.7466    471.94963    349.02894    260.40781    36397.316 
  242700    294.89709   -1431.4411    430.19767    318.18391    336.35048    36397.316 
  242800    302.24496   -1439.4917    479.69205    392.50353    498.82705    36397.316 
  242900    282.60135   -1449.9325    457.04913    271.53038    88.574318    36397.316 
  243000    294.80664   -1437.6353     437.7258    319.11315   -418.83737    36397.316 
  243100    311.54685   -1469.1405    438.46614    363.24726   -172.78625    36397.316 
  243200    303.11501   -1438.0113     472.3867    390.57132   -473.70537    36397.316 
  243300    301.61789   -1463.7184    464.90814    350.68728   -175.55502    36397.316 
  243400    299.04914   -1469.9855    435.46861    303.48753    579.17541    36397.316 
  243500    290.35995   -1506.5925    457.21103    249.74582    878.51565    36397.316 
  243600    300.74798   -1521.3636    445.49906    269.74082    469.25812    36397.316 
  243700    307.66357    -1484.902    450.15614    341.80126    610.25208    36397.316 
  243800    303.51846   -1456.2525    453.31164    355.06012    506.41038    36397.316 
  243900    312.35683   -1484.0539     440.2067    353.69842    81.239124    36397.316 
  244000    291.82261   -1489.8185    445.16999    261.02299    134.76861    36397.316 
  244100    300.30536   -1527.9307    456.05326    271.74762    489.82088    36397.316 
  244200     302.8166   -1510.5387    462.64003    306.96209   -83.948293    36397.316 
  244300    298.68966   -1476.1274    443.57405    303.84275    453.83277    36397.316 
  244400    309.12036   -1470.6618    436.08498    348.48823    532.32951    36397.316 
  244500    304.84982   -1471.7152    470.50067    362.74326    569.73419    36397.316 
  244600    306.36024   -1459.2721    459.14765    370.59132   -156.84842    36397.316 
  244700    290.46086    -1463.014    455.76554    292.33033   -740.57914    36397.316 
  244800    305.36102   -1457.7321    470.68423    379.19717   -412.74679    36397.316 
  244900    295.38386   -1464.0238    466.31593    323.89733   -222.89761    36397.316 
  245000    297.68186   -1456.8051    478.10257    353.18445   -305.41869    36397.316 
  245100    293.55904   -1450.1166    479.98388    343.30792   -284.90348    36397.316 
  245200    298.07283   -1463.0115    445.70452    316.32928   -215.63526    36397.316 
  245300    307.00089   -1434.7751    467.12337    405.93035   -717.19311    36397.316 
  245400    306.63081   -1418.3678    458.26176    411.82027     -790.441    36397.316 
  245500    308.83552   -1445.4415    480.68658    417.03568   -916.42532    36397.316 
  245600    298.56621   -1436.2402    480.90142     380.5049   -653.01684    36397.316 
  245700    299.47648   -1447.2557    462.00504    354.66575   -740.61313    36397.316 
  245800     307.5757   -1472.5154    440.64512    344.28361   -571.76762    36397.316 
  245900     297.9769   -1454.6472    458.18206    336.74186   -984.83492    36397.316 
  246000    292.00854   -1484.7173    479.57864    301.36476    -695.2835    36397.316 
  246100    297.78229   -1494.0862    462.43489    300.68499    248.21919    36397.316 
  246200    308.76585   -1467.2854    479.97089    394.16434    353.52768    36397.316 
  246300    301.27834   -1444.9519    469.14198    372.16838   -72.086834    36397.316 
  246400    298.86432   -1478.2736    453.83476    312.73869    170.53794    36397.316 
  246500    301.62892   -1491.8336    473.58129    331.29459    464.77866    36397.316 
  246600    297.80244   -1466.0145    453.69489    320.10688    862.07638    36397.316 
  246700    297.89837   -1484.7818    452.29581    300.36965    739.95094    36397.316 
  246800    302.00948    -1450.779    477.47124    377.94186    226.97925    36397.316 
  246900    298.62452   -1493.0322    431.63972    274.71217    204.46806    36397.316 
  247000    288.71759   -1492.2593    460.45613    259.97589   -547.82807    36397.316 
  247100    304.02812   -1488.0513    464.89583    337.12587    78.715799    36397.316 
  247200    288.50005   -1539.8428    454.80691    205.76981    34.734289    36397.316 
  247300    309.42938   -1495.7976     458.6178    347.26786     855.2448    36397.316 
  247400    296.64995   -1522.4275    492.31422    297.15668    1146.7812    36397.316 
  247500    303.81715   -1514.6208    458.52719    303.24383    908.24098    36397.316 
  247600    309.82542   -1480.1186    473.01434    379.11531    857.58199    36397.316 
  247700    291.40326   -1496.3854    453.15673    260.56659    461.88606    36397.316 
  247800    294.71663   -1512.9929    431.60247    237.22947    365.37952    36397.316 
  247900    300.94474   -1500.5983    481.24655    327.13393    1.4902583    36397.316 
  248000    299.12015    -1510.447    445.55506    273.43021    11.436452    36397.316 
  248100    302.07454    -1491.878    459.21369     318.8764   -488.57891    36397.316 
  248200    295.62316   -1517.4771    470.06658    275.26541   -417.52086    36397.316 
  248300    299.10719   -1502.9625    454.29577    289.59742   -224.71147    36397.316 
  248400    304.66401   -1472.9292     463.3459    353.54315    27.479482    36397.316 
  248500    293.92043   -1522.2083    467.62974    260.47899    61.447534    36397.316 
  248600    295.16428   -1508.9051    486.48966    298.20741    178.68956    36397.316 
  248700    307.08326   -1499.2991    456.38674    331.03827    169.81001    36397.316 
  248800    298.31516   -1526.9389    466.80894    274.59047   -156.32093    36397.316 
  248900    311.23223   -1509.4865    455.51782    338.54527   -761.42401    36397.316 
  249000    303.99538   -1502.8989    448.02313    305.25908    -439.9302    36397.316 
  249100    307.41053   -1481.8161    461.26789    354.86672   -299.63305    36397.316 
  249200    306.87087   -1470.5839    447.47387    349.89033   -423.88746    36397.316 
  249300     290.8286   -1468.6708    465.84673    298.40005   -454.04124    36397.316 
  249400    309.71302   -1523.6861    447.70847    309.73905   -198.44905    36397.316 
  249500    298.64933   -1504.9106    443.98442    275.28942    616.21234    36397.316 
  249600     309.0659    -1574.645    445.98363    254.15996    702.91163    36397.316 
  249700    298.17735   -1578.1317    453.40201    209.37413    441.87063    36397.316 
  249800    290.71727   -1528.8509    468.56974    240.44488    1149.8484    36397.316 
  249900    301.47423   -1535.0583    451.28422    265.08071    1294.3057    36397.316 
  250000     303.4253   -1481.4831    464.77728    340.87842     675.4467    36397.316 
  250100    288.49664   -1514.9048    458.57271    234.45836     -360.663    36397.316 
  250200    294.90182   -1460.1477    487.58897    346.88976    558.86285    36397.316 
  250300    299.56021   -1465.2367    480.79652    355.85086    253.32689    36397.316 
  250400    304.92345   -1497.8462    479.74526    346.18625   -219.54682    36397.316 
  250500    300.89955   -1511.2855    482.85012    317.84811    178.61451    36397.316 
  250600    309.97553   -1533.8406    455.18185    308.23249   -270.60855    36397.316 
  250700    298.35955   -1549.8261    441.69845    226.79141    415.48033    36397.316 
  250800    301.42163   -1508.1915    475.35142    315.77929    65.946786    36397.316 
  250900    296.13147   -1584.1352     460.4029     201.2179    -437.0668    36397.316 
  251000    307.45164   -1522.8837    493.83536    346.55055   -856.85383    36397.316 
  251100    308.73759   -1489.3026    458.08073    350.13061   -272.26437    36397.316 
  251200    301.91908   -1465.9902     448.7407    333.59561   -31.695282    36397.316 
  251300    294.70677   -1511.0305    478.68325    286.22858    738.04685    36397.316 
  251400      295.416   -1537.3259    474.08464    258.50776    550.57476    36397.316 
  251500    304.14884   -1482.3134    466.32365    344.83167    526.92451    36397.316 
  251600    296.45855   -1497.3958    471.56985    300.58765    699.74053    36397.316 
  251700    295.75382   -1509.5648    477.56589    291.26161    46.191405    36397.316 
  251800    295.90365   -1522.1668    435.06724    236.83136   -143.79042    36397.316 
  251900    299.10474   -1530.2583    470.92172    278.91657    420.45248    36397.316 
  252000    307.25617   -1476.2849    481.60743    380.04678   -457.09648    36397.316 
  252100    304.36209   -1481.4632    446.21428    326.52664   -1092.8243    36397.316 
  252200    292.98458   -1469.6781    457.85101    299.04333   -740.41484    36397.316 
  252300    291.89177   -1516.6338    457.32271    246.66982   -753.82516    36397.316 
  252400     301.9763   -1491.7505    453.20752    312.55815   -197.56328    36397.316 
  252500    306.81346   -1473.3559    487.58525    386.97285   -307.60165    36397.316 
  252600    296.96716   -1505.4942    468.41407    291.60915    173.85501    36397.316 
  252700     297.5765   -1481.1361    466.11124    316.39063   -73.726109    36397.316 
  252800    305.57109   -1517.2539    473.38823    323.31922    168.14929    36397.316 
  252900     292.6621   -1482.1264    466.46305    293.76417    -469.1178    36397.316 
  253000    298.71922   -1488.5358    446.82706    294.81956    -682.6456    36397.316 
  253100    300.48716   -1481.8613    447.96778    310.54496   -294.19601    36397.316 
  253200     291.7075   -1486.2392    461.89227    280.80959   -593.58336    36397.316 
  253300    290.96287   -1489.9156    466.85173    278.76096   -759.83962    36397.316 
  253400    289.92541   -1461.7858    459.30251    294.69975   -580.79662    36397.316 
  253500    306.19286   -1482.3484    456.13014    343.74855   -242.35501    36397.316 
  253600    308.20469   -1514.8485    457.57243    321.69207    -369.8982    36397.316 
  253700    293.82437   -1484.4277    479.37531    309.57535    165.82775    36397.316 
  253800    315.99492   -1482.3227    471.99504    403.49552    91.207185    36397.316 
  253900    312.86056   -1490.4603     447.8195    357.15862    417.97159    36397.316 
  254000    302.81239   -1479.9975    478.88181    353.72623    275.68265    36397.316 
  254100    297.97703   -1439.8368    502.36025    395.73103    -334.3253    36397.316 
  254200    301.10726   -1463.3939     459.0799    342.89887   -627.11819    36397.316 
  254300    301.59193    -1443.559    454.61085    360.43319    -640.0738    36397.316 
  254400    294.37962   -1443.6621    478.80043    352.25042   -653.07141    36397.316 
  254500    306.29414   -1462.7362    440.14499    347.82882    -329.8871    36397.316 
  254600    313.48929    -1468.363    464.00866    398.25815    207.67215    36397.316 
  254700    299.15918   -1517.8137    452.90288    273.58588    376.31157    36397.316 
  254800     288.3296   -1512.6822    448.62877    225.98966    -472.8872    36397.316 
  254900    299.24758   -1507.7064    437.58693    268.77283   -349.83407    36397.316 
  255000    308.91538   -1451.4835    434.58251    365.24692    7.5224949    36397.316 
  255100    302.15216   -1409.1164    459.04728    401.81876   -764.99717    36397.316 
  255200    305.00542   -1455.6749    458.66758    367.64667   -378.32477    36397.316 
  255300    304.26382   -1447.7458    494.27152    407.86162   -130.12998    36397.316 
  255400    297.79406   -1506.2866    454.65885    280.76118   -131.12317    36397.316 
  255500    299.55897   -1478.5365    428.96091    290.70995    28.639781    36397.316 
  255600    299.51684   -1492.5132    478.07011    325.65389   -304.22806    36397.316 
  255700    303.83265   -1527.8933    451.25267    282.76614   -125.68427    36397.316 
  255800    295.27821   -1498.0885    438.05579    261.09982   -226.92107    36397.316 
  255900    302.24308   -1489.2125    482.58127    345.66356    -1.604774    36397.316 
  256000     307.0578   -1539.5534    457.40427    291.68761   -275.32673    36397.316 
  256100    305.18617    -1519.439    455.76903    301.79277    599.32603    36397.316 
  256200    301.83338   -1510.3129    447.15958    287.30836     815.3312    36397.316 
  256300    308.64944   -1505.0347    469.08419    345.00752    268.55721    36397.316 
  256400    297.86631   -1496.5032    471.54554    307.75454    239.53409    36397.316 
  256500    303.42622   -1468.0483    451.05945    340.59951   -54.172612    36397.316 
  256600    282.99773   -1517.5239    462.00347     210.6669   -463.23029    36397.316 
  256700    299.95976   -1554.9316    450.81069    237.95783   -791.64621    36397.316 
  256800    309.47124   -1556.8263    434.02643    261.83507   -374.75193    36397.316 
  256900    288.43456   -1520.3558    466.36225    236.51918   -285.83899    36397.316 
  257000     293.0866   -1533.4843    452.75583    230.59838   -353.01891    36397.316 
  257100    295.52726   -1520.8378    458.98165    260.39065    85.834328    36397.316 
  257200    298.68896   -1515.1324    489.08138    310.34186     717.0962    36397.316 
  257300    300.22545   -1536.1027    450.60476    257.76952    219.32478    36397.316 
  257400    303.27729   -1500.6245    459.69956    315.99703    717.84945    36397.316 
  257500    300.14087   -1511.8694    450.25595    281.27563    484.78522    36397.316 
  257600    308.27219   -1501.2533    477.11411    355.13094    596.57638    36397.316 
  257700    298.26296   -1498.7077    462.23344    298.01262    336.05855    36397.316 
  257800    309.18871   -1564.8136     450.9829     269.5401     681.5696    36397.316 
  257900     313.7774   -1531.5887    453.87881    326.19167   -305.84789    36397.316 
  258000    295.60161   -1506.0223    433.42504    249.98231    -253.0388    36397.316 
  258100    294.95287   -1501.0771    444.25487    262.85464   -327.94953    36397.316 
  258200    303.78556   -1497.1229    484.28261     346.3558    171.11032    36397.316 
  258300    288.82108   -1477.6139    474.06037    288.68859   -48.401738    36397.316 
  258400    301.87568   -1521.8816    433.48271    262.25207    512.78371    36397.316 
  258500    292.70843   -1531.8468    465.61768    243.40571    326.76498    36397.316 
  258600      300.358   -1557.7451    464.37426    250.48965    405.79774    36397.316 
  258700     291.8697    -1518.193    440.06419    227.75337   -35.828778    36397.316 
  258800    299.96893   -1549.8738    441.72513    233.97103    245.69978    36397.316 
  258900    294.53148   -1514.8076     460.1656    263.14954   -31.406683    36397.316 
  259000    300.12387   -1485.9683    485.87916    342.72383    -435.1851    36397.316 
  259100    298.25778   -1496.1255    451.26564    289.60392    148.76481    36397.316 
  259200    300.81521   -1515.9916    432.45721    262.37181    150.12665    36397.316 
  259300    294.96794   -1481.2298     446.0485    284.56307    262.69226    36397.316 
  259400    297.09507   -1494.5341    478.17302    312.90045    707.85479    36397.316 
  259500     289.7623   -1504.4806    459.79204    251.76471    1013.4571    36397.316 
  259600    291.89473    -1471.119    484.69199    319.56718    745.02121    36397.316 
  259700    303.77997   -1511.0967    445.61863    293.69301    657.48293    36397.316 
  259800    296.96836   -1487.8958    456.55399    297.35279    145.92515    36397.316 
  259900    296.18055   -1467.8732    465.64436     322.9409   -424.26943    36397.316 
  260000    306.88117   -1477.1573     452.9537    348.84284   -136.41926    36397.316 
  260100     296.8653   -1474.6432    472.57891    326.16924   -4.3198243    36397.316 
  260200    301.80101   -1470.3278    465.83097    345.81999    880.48732    36397.316 
  260300    294.83185   -1517.4403    454.23966    255.93476   -590.22654    36397.316 
  260400     295.8396   -1487.0559    498.87702    335.46542    239.40161    36397.316 
  260500    313.95716   -1461.9158    461.91302    404.70303    35.040896    36397.316 
  260600    292.99378   -1523.9913    469.38719    256.30744   -354.17183    36397.316 
  260700    302.98215   -1486.7682    472.98726    341.82055   -155.26452    36397.316 
  260800    293.11484   -1479.6937    444.82952    276.58904    -422.5477    36397.316 
  260900    305.29961   -1461.4887    451.31283    355.79434      -754.74    36397.316 
  261000    293.55707   -1462.0418    437.75179    289.14179   -47.887688    36397.316 
  261100    297.95345   -1491.3913    462.25919    303.97005    7.5164904    36397.316 
  261200    311.53903   -1474.6417    445.65407    364.89899    468.38663    36397.316 
  261300    296.85314   -1515.5356    460.05277    272.69628    154.62008    36397.316 
  261400    302.68849   -1490.5685    461.08162    324.80073    10.556292    36397.316 
  261500    293.85515   -1486.2032    438.24239    266.80471   -150.96697    36397.316 
  261600    316.03526   -1498.5944    483.86023    399.26952   -128.34988    36397.316 
  261700     300.3501   -1504.2699    447.22298    286.77824    254.21708    36397.316 
  261800    297.07384   -1478.8692    475.15981     325.4572    457.96943    36397.316 
  261900    292.04192   -1495.0336    466.70556    278.32473    427.96904    36397.316 
  262000    304.98722   -1501.8999    452.45638    315.12909    198.48456    36397.316 
  262100    311.86248   -1529.9662    438.72609    304.09367    275.94456    36397.316 
  262200    303.70156   -1482.3596    432.54792    309.00855    18.499994    36397.316 
  262300    300.58474   -1479.5712    465.71431     331.0181   -13.049005    36397.316 
  262400    300.88071   -1536.5211     453.6282    263.30635   -489.41764    36397.316 
  262500    296.42219   -1456.2971      487.423     357.3768   -338.03232    36397.316 
  262600      299.096   -1469.6081    480.36422    348.97028   -285.68261    36397.316 
  262700    303.88946   -1494.5649    479.61786    344.71398   -36.125884    36397.316 
  262800     301.5459   -1508.6064    472.57566    313.14473    -13.30369    36397.316 
  262900    301.81116    -1484.857    450.99145    316.49669   0.90132243    36397.316 
  263000    309.25239   -1469.8497    442.27717     356.0833    -33.88553    36397.316 
  263100    307.58104   -1506.9742     468.4044    337.60805    267.79787    36397.316 
  263200    301.24995   -1480.3126    471.18452    338.72325   -6.7131955    36397.316 
  263300     300.2583   -1470.5321    470.16683    343.04922    23.186956    36397.316 
  263400    296.97175   -1465.1262    440.58928    304.17291   -293.66357    36397.316 
  263500    300.62628   -1492.9371    462.98626    315.11001   -290.76376    36397.316 
  263600     287.9688   -1493.9902    471.35554    265.79412   -412.72507    36397.316 
  263700     307.4473   -1501.9898    454.87451    328.46417   -138.82977    36397.316 
  263800    297.52288    -1475.532    462.90119    318.54488    293.89838    36397.316 
  263900    285.82263   -1502.7923    471.90494    247.93906   -639.44543    36397.316 
  264000    304.51888    -1517.929    432.59966     277.1478    -738.3581    36397.316 
  264100    307.93094   -1545.2889    453.44069    285.89511    188.22281    36397.316 
  264200    292.03193   -1526.7476    450.28263    230.14314   -258.54652    36397.316 
  264300    303.84007   -1529.1814    468.32924    298.58784   -17.408354    36397.316 
  264400    300.78424   -1520.5975    454.64434    279.81441    164.91047    36397.316 
  264500    297.67421   -1506.0614    502.09646    327.88777   -162.30864    36397.316 
  264600    312.38714   -1507.5536    453.88642    344.01406    -500.4112    36397.316 
  264700    300.26171     -1505.24    456.99924    295.18895    173.60646    36397.316 
  264800     308.7795   -1509.1325    465.19144    337.59888   -446.72036    36397.316 
  264900    298.68468   -1513.1106    451.16272    274.42593    107.32658    36397.316 
  265000      293.155   -1481.7625    455.64275    285.51312   -475.02547    36397.316 
  265100    294.68039    -1473.449    477.12479    322.13355    81.268054    36397.316 
  265200    302.15502   -1494.0554    458.50069    316.34602    175.91328    36397.316 
  265300    291.79668   -1468.3238    475.17986    312.41161       250.77    36397.316 
  265400    311.15981   -1500.8655    465.82424     357.1487    181.74914    36397.316 
  265500    298.17059   -1583.4818    451.59185    202.18364    352.20684    36397.316 
  265600    293.30309   -1554.3747    446.53851    204.45931   -12.626408    36397.316 
  265700     299.1691   -1545.8389    454.12861    246.83085   -171.32133    36397.316 
  265800    301.24054    -1530.847    453.88934    270.85155   -139.35474    36397.316 
  265900    295.41791    -1525.148    456.40735    253.01697   -54.606045    36397.316 
  266000     294.9894    -1514.286    448.72006    254.27438      49.8531    36397.316 
  266100    292.51653   -1496.9977    447.56251    259.34105    452.40248    36397.316 
  266200    303.75559   -1520.6014    481.86034    320.32097    422.20081    36397.316 
  266300    286.75278   -1521.3515    461.52332    223.15997    669.10385    36397.316 
  266400    298.43957    -1541.479    464.04574    257.84386    943.71783    36397.316 
  266500    294.21944   -1563.7305    465.37515    218.04008    948.48302    36397.316 
  266600     296.7936   -1563.2425    470.80071    235.47093    150.01784    36397.316 
  266700    310.57934   -1543.5956    476.92396    322.92116    717.24773    36397.316 
  266800     302.0103   -1575.8155    462.57079    238.00857    534.93872    36397.316 
  266900    294.74686   -1547.3174     459.5506     230.9884    447.46546    36397.316 
  267000    303.69142   -1505.0002    468.64985    322.42459    659.31177    36397.316 
  267100    306.42587   -1542.8554    482.37735    310.53134    637.69262    36397.316 
  267200    305.14746   -1542.3267    466.09428    289.05708    742.65125    36397.316 
  267300    302.77085   -1527.6413    470.00585    297.02063    864.17232    36397.316 
  267400    294.30083   -1528.0392    444.07734    232.79773    804.68747    36397.316 
  267500     300.6844   -1522.2694    477.63023    300.68176    408.90541    36397.316 
  267600    301.55328   -1497.7678    476.69636      328.137   -11.458946    36397.316 
  267700    305.29771   -1503.8414    466.43809    328.55848   -282.77509    36397.316 
  267800    306.33535   -1508.0018    480.47601    343.07853    136.13251    36397.316 
  267900    300.38643   -1521.2629    485.87075    308.59554   -190.59467    36397.316 
  268000    297.99163   -1478.1234    474.86161    330.01113   -376.50606    36397.316 
  268100    297.29407   -1494.4137    470.89769    306.63585    163.66424    36397.316 
  268200    306.55399   -1514.0467    475.33289    332.86884    660.26918    36397.316 
  268300    296.92729   -1523.0496    460.82313    266.28441    667.72356    36397.316 
  268400    299.43811    -1471.738    492.10885     360.1156    20.177206    36397.316 
  268500    299.98141   -1458.6781    485.60387    369.10138    179.62854    36397.316 
  268600    303.16506   -1452.1235    492.92874    397.22513   -183.78931    36397.316 
  268700    295.87866   -1504.8297    446.47745    265.46682    595.34297    36397.316 
  268800    309.15911   -1564.4573    456.33988    275.12099    24.876618    36397.316 
  268900    289.75296    -1486.835    478.07534    287.65179   -429.15861    36397.316 
  269000    308.60436   -1497.8461    483.58616    366.49638   -273.95499    36397.316 
  269100    307.57891   -1520.2362    493.47654    349.40868   -381.92081    36397.316 
  269200    307.90109   -1485.6233    485.89347    377.87993    -45.56363    36397.316 
  269300    312.40223   -1518.5992    484.35611    363.50571   -603.44593    36397.316 
  269400    303.70957   -1510.9953    499.24089    347.10173   -578.75245    36397.316 
  269500    294.94593   -1544.3283    476.25635    251.57389   -291.35915    36397.316 
  269600     306.7696   -1503.4776    476.09302    345.16274   -812.87973    36397.316 
  269700     293.2703   -1512.6238    464.54389    264.06887   -775.43989    36397.316 
  269800    298.57934   -1510.4404    477.57956    303.04159   -92.047951    36397.316 
  269900    288.63485   -1529.8443    478.82974    240.39433    189.84248    36397.316 
  270000     295.7324   -1550.4505    476.99286    249.70702   -529.98258    36397.316 
  270100    301.51768    -1560.373    502.29569    290.97185   -732.75605    36397.316 
  270200    290.31387    -1522.743     491.5185    267.69662   -603.42506    36397.316 
  270300    292.63889   -1558.1642    451.76696    202.92648   -77.937836    36397.316 
  270400    303.11143   -1584.1253    480.30235    252.35694    104.26595    36397.316 
  270500    301.40302   -1602.3806    465.52352    211.67909   -216.06145    36397.316 
  270600    297.75303   -1544.7275    477.99498    265.47291    39.101152    36397.316 
  270700    305.56778   -1522.0341    476.21215    321.34813   -284.85639    36397.316 
  270800    303.45977   -1545.9992    460.42328    272.16255   -487.34855    36397.316 
  270900    294.96722   -1505.6424    471.92773     286.0264   -681.06094    36397.316 
  271000    314.43684   -1480.8999     468.2854    394.23753    -65.49411    36397.316 
  271100    298.81276   -1490.7583    475.70844    321.89698    124.68083    36397.316 
  271200    297.60596   -1524.8475    484.93112    291.63092    107.51643    36397.316 
  271300     299.6382   -1522.0508    487.76977    306.35894   -9.2934743    36397.316 
  271400    299.27468   -1527.0449     483.4212    295.38981    107.72495    36397.316 
  271500    299.13326   -1521.4496    476.70513    293.63634    416.46852    36397.316 
  271600    301.13989   -1495.1149    472.95388    325.19778    234.46102    36397.316 
  271700    305.27994   -1495.8894    477.64089    347.63372   -64.966233    36397.316 
  271800    304.81478   -1505.1518    457.05062     315.6999    -250.9354    36397.316 
  271900    298.66431   -1494.6358    502.73155    344.37833   -342.93956    36397.316 
  272000    299.51293   -1498.8585    467.95263    309.17364   -116.39531    36397.316 
  272100    301.81363   -1502.2279    491.39802    339.54341   -242.40735    36397.316 
  272200    310.45011   -1556.1331    471.97738    304.85894   -413.78604    36397.316 
  272300    309.08936   -1543.6619    477.93137    317.19578   -663.73514    36397.316 
  272400    299.59718   -1556.1242     489.0509    273.38313    32.704235    36397.316 
  272500    297.69272   -1565.8151    477.16043     243.2809    -348.2434    36397.316 
  272600    307.90701   -1556.7553    484.99465    305.87561   -100.65344    36397.316 
  272700    300.11817   -1521.2722    450.09451    271.60978   -1009.2295    36397.316 
  272800    295.77967   -1533.9067    475.98789     265.4574   -1025.0323    36397.316 
  272900    307.88263   -1511.9544    498.40492    363.97777   -661.20168    36397.316 
  273000    309.87074   -1512.7393    459.48592    333.16904   -655.84084    36397.316 
  273100    302.19043   -1486.2821    509.14384    374.92093   -812.54533    36397.316 
  273200    292.46303   -1525.8723    458.75965    241.42421      -617.87    36397.316 
  273300    295.61736   -1503.6428    490.41818    309.42537    -477.5383    36397.316 
  273400    305.19635    -1500.057    501.63573    367.08696   -57.981631    36397.316 
  273500    299.84833    -1546.539    473.08468    268.12587   -40.433571    36397.316 
  273600    304.07156   -1524.1154    492.75662    329.11697   -34.146096    36397.316 
  273700    295.14289   -1487.2927     474.6341    307.86855   -104.15577    36397.316 
  273800    295.63354   -1504.0187    508.69316    327.39679    343.10743    36397.316 
  273900    301.94632   -1546.4887    509.53437    314.01267    279.26499    36397.316 
  274000    290.73571   -1502.6212    483.32509    281.51242    756.07546    36397.316 
  274100    302.76087   -1523.8094    498.73898      329.541     756.3447    36397.316 
  274200    299.37074    -1541.056    504.55669    302.94404    460.75023    36397.316 
  274300    303.05223   -1515.4351    486.12176    326.60174    119.28738    36397.316 
  274400    306.22409   -1515.6221     469.5101    323.99455    15.408634    36397.316 
  274500    300.81829   -1486.2225    489.83991    349.53735    285.05653    36397.316 
  274600    306.93557   -1533.6648    503.19642    342.82153    207.82026    36397.316 
  274700    302.23723   -1497.7564    477.45536    331.96755    125.06431    36397.316 
  274800    293.09134   -1508.5827    463.99518    266.76057   -392.99867    36397.316 
  274900    300.19449   -1508.1778    500.82298    335.77415   -476.18258    36397.316 
  275000      303.615   -1520.9719    475.23658    312.69769   -940.33589    36397.316 
  275100    291.90185   -1510.5078     483.5169    279.03516   -787.25023    36397.316 
  275200    300.56035   -1504.1591    481.13689    321.74367   -431.96424    36397.316 
  275300    296.75277   -1509.5782    460.07336    278.22518   -441.36035    36397.316 
  275400    286.65273   -1499.0318     508.7298    292.23853    228.50983    36397.316 
  275500     300.8242    -1529.941    478.38494    294.39031    523.03343    36397.316 
  275600    292.12157   -1558.1789    473.41921    222.24942    347.90081    36397.316 
  275700    303.20164   -1523.6768    482.80044     315.7072    581.65219    36397.316 
  275800    291.74106   -1546.5235    481.08282    239.86593    294.74864    36397.316 
  275900    295.95597   -1528.4034    511.28206     307.0437    313.08399    36397.316 
  276000    287.28127   -1545.0008    487.27621     227.6281    348.72906    36397.316 
  276100    299.47428   -1531.2347     471.9547     280.6266   -378.86818    36397.316 
  276200    291.66633   -1534.6828    456.74142    227.03093   -316.62948    36397.316 
  276300    297.20148   -1551.7803    470.48945    248.44681   -253.10146    36397.316 
  276400     293.8038   -1539.7053    471.53658    246.36699   -621.84461    36397.316 
  276500    295.85841    -1518.092    463.15492    268.79141    -418.2808    36397.316 
  276600    299.49228   -1464.8223    526.41674    401.58156   -882.96619    36397.316 
  276700    293.93366   -1506.0426    498.23427    307.30846   -53.235231    36397.316 
  276800     292.7539   -1515.2154    494.22206    288.84497   -367.59677    36397.316 
  276900     302.0345   -1538.3566    480.49284    293.49776   -184.55427    36397.316 
  277000    301.06326   -1515.6898    487.64284    318.96902   -504.91192    36397.316 
  277100     300.1974   -1509.7711    463.29674    296.66758    -195.2623    36397.316 
  277200    297.05077   -1517.4223    488.60558    300.24661    242.62386    36397.316 
  277300    285.54473   -1501.7232    471.99527    247.85509    208.83896    36397.316 
  277400    300.82395   -1510.2605    483.76355    319.44835    278.37517    36397.316 
  277500    298.56502   -1516.9698    487.76921    306.63782    164.08204    36397.316 
  277600     299.6533   -1508.9043     462.6664    294.46968    71.495155    36397.316 
  277700    295.11232   -1521.2416    490.46917    289.61786   -96.092965    36397.316 
  277800     300.1224   -1575.8367    454.00386    220.97358    280.06251    36397.316 
  277900     297.6521   -1562.0215    484.16878    253.90105   -244.52109    36397.316 
  278000     308.6565    -1534.392    450.43009    297.02773   -141.47666    36397.316 
  278100    297.58127   -1482.7679    466.33436    315.00333   -35.970227    36397.316 
  278200    295.25533   -1512.2023    489.90015    298.72807    367.32053    36397.316 
  278300    295.71229    -1553.083    448.66088    218.65265    192.03713    36397.316 
  278400    294.81985   -1580.5999    467.67459    206.15641     131.2397    36397.316 
  278500    294.44137    -1531.924    495.75261    281.21693    210.22512    36397.316 
  278600    303.39782   -1543.7866    482.56993    296.24465   -311.32796    36397.316 
  278700     302.8444   -1509.7825    474.45483    319.65752    256.78131    36397.316 
  278800    306.84851   -1555.6974    483.44323     300.6462    225.93491    36397.316 
  278900    302.50466   -1542.1829     481.9772    293.25944    366.93688    36397.316 
  279000    294.95228   -1508.4961    483.38451    294.56268    508.33811    36397.316 
  279100    301.07119   -1541.1177    457.20015    263.13389   -8.8937701    36397.316 
  279200    304.84066   -1512.9765    490.69611    341.63648    555.19472    36397.316 
  279300    298.90284   -1519.9983    451.70813    269.05963    109.93045    36397.316 
  279400    294.90914   -1512.8278    483.54423    290.19775    286.79616    36397.316 
  279500    300.89026   -1554.8311    452.76763    244.17849    297.29677    36397.316 
  279600    292.75614   -1524.6328    495.03125    280.24675    237.16607    36397.316 
  279700    293.52116   -1547.1338    471.12255     237.2599    226.18215    36397.316 
  279800    292.35953   -1503.6198    464.60421    269.05821   -261.68105    36397.316 
  279900    307.44999   -1533.8859    468.22147    309.92707   -133.90196    36397.316 
  280000     310.7808   -1490.7585    456.52044    356.25615   -198.02796    36397.316 
  280100    301.00304   -1512.9848     460.1515     293.9133   -287.18292    36397.316 
  280200    297.27153   -1508.7904     514.8064    336.06708   -580.88846    36397.316 
  280300    296.77025   -1498.5188    493.45883    322.74826   -496.04895    36397.316 
  280400    306.61484   -1530.1493    463.05019     304.7557   -376.94211    36397.316 
  280500    291.09422   -1525.5038    467.78225    244.69103   -121.92036    36397.316 
  280600    301.76995   -1528.6263    480.53785     302.0894   -515.08627    36397.316 
  280700    305.11765   -1568.9872    480.12058    276.28954   -243.49406    36397.316 
  280800     292.6042   -1543.7191    448.25581    213.70524   -489.46319    36397.316 
  280900    293.59999   -1520.6656    475.14459    268.10286   -1406.3978    36397.316 
  281000    319.06232   -1496.7972    462.63754    393.38763   -197.81996    36397.316 
  281100    296.44227   -1497.4094    456.03341     284.9648   -361.82788    36397.316 
  281200    291.87621   -1542.7188    475.20967    238.40218   -337.59942    36397.316 
  281300    306.67689   -1528.8087    469.43135    312.75509   -87.051387    36397.316 
  281400    306.29331   -1539.7675    477.92123    308.56996    514.06244    36397.316 
  281500    297.74097   -1547.7312    488.23169    272.65197    361.18725    36397.316 
  281600    301.97991   -1564.7974    478.17341    264.49329    489.54441    36397.316 
  281700    292.02724   -1567.4894    477.37509    216.47274   -636.57132    36397.316 
  281800     305.4514    -1589.813    462.50618    239.34255   -729.19815    36397.316 
  281900    291.60893   -1601.4372    439.52783    142.80614   -848.31798    36397.316 
  282000    292.50262   -1560.4021    454.14805    202.45995   -501.66405    36397.316 
  282100    297.04606   -1547.4949    474.58256    256.12988    258.69882    36397.316 
  282200    296.59971   -1527.4374    481.47673    281.08452    248.05639    36397.316 
  282300    314.53784   -1549.5796    467.18777    324.91211    1089.3046    36397.316 
  282400    300.71933   -1529.3037    486.84914    303.02259    402.30999    36397.316 
  282500    309.84878   -1532.7849    472.29452    325.83373    165.21229    36397.316 
  282600    303.81332   -1526.6898    481.18748      313.818    177.40122    36397.316 
  282700    291.73955   -1544.0007     504.0217    265.32088    518.24879    36397.316 
  282800    292.58754   -1510.6667    482.88655    281.31383    553.27146    36397.316 
  282900    305.11346   -1547.3053    478.93247    296.76454    766.28522    36397.316 
  283000     308.9187   -1550.4318    460.58053    292.31146     888.7202    36397.316 
  283100    312.42296   -1548.8774    468.04506     317.0092    449.59518    36397.316 
  283200    303.17331   -1524.6909     472.0015     303.7674    819.19446    36397.316 
  283300    296.05503   -1482.5779    486.74844    328.77875    1715.7202    36397.316 
  283400    294.05753   -1526.0988     482.8147    272.38685    1054.4368    36397.316 
  283500    307.09623   -1532.7499    463.56247     304.8212    584.36041    36397.316 
  283600    309.63062   -1550.8094    482.00288    316.54156    144.21603    36397.316 
  283700    305.14232    -1534.502    466.07456    296.83912   -97.750204    36397.316 
  283800    299.08308   -1569.9104    464.52506    232.77097   -379.71903    36397.316 
  283900    305.29718   -1610.9945    461.19414    216.15905   -389.28282    36397.316 
  284000    301.66518   -1592.2377    456.88138    214.35278    355.83663    36397.316 
  284100    288.02993   -1558.2441    444.39249    174.85073    31.120842    36397.316 
  284200    307.63687    -1571.603    512.33624    317.16087     620.2169    36397.316 
  284300    307.14217   -1547.9177    457.18226    283.47877    567.35335    36397.316 
  284400    304.31492   -1597.9264    473.42863    237.06672    406.04822    36397.316 
  284500    299.83146   -1543.8852    473.06485    270.68433    453.25042    36397.316 
  284600    316.35909   -1540.3052    462.97586    338.12315    -233.7828    36397.316 
  284700    313.46494   -1567.6684    471.69121    306.52637   -6.0828446    36397.316 
  284800    296.88699   -1528.2387    460.96336    261.05522     19.66359    36397.316 
  284900    310.63774   -1594.2962    465.25192    260.80982   -132.80583    36397.316 
  285000    296.35015   -1537.5905    482.46935    270.80743    202.25463    36397.316 
  285100    290.68856     -1545.94    476.39406    231.05159    537.96493    36397.316 
  285200    300.19771   -1582.4365     474.6388     235.3457    935.02617    36397.316 
  285300    292.55853   -1591.6575    457.54445    174.85116    58.215712    36397.316 
  285400    302.66874   -1570.4088    459.77314    243.56361     331.2425    36397.316 
  285500    302.99753   -1505.1285    480.90512    331.44693    914.23826    36397.316 
  285600    305.17125   -1542.1481    446.66944     269.9173    531.77824    36397.316 
  285700    298.04037   -1581.4434    461.21755     213.2652    623.53336    36397.316 
  285800    302.17118   -1575.4873    463.38853    239.87425    247.05144    36397.316 
  285900    300.75752   -1544.9765    488.13454    288.80604    130.45154    36397.316 
  286000    297.27529    -1548.496    470.66319    252.23502    197.87077    36397.316 
  286100    311.43059   -1558.8677    462.96196    297.49572   -34.428533    36397.316 
  286200    289.77705   -1554.8925    474.91417    216.54094    624.68375    36397.316 
  286300    311.61782   -1540.1288    478.22322     332.3336    700.64839    36397.316 
  286400    303.57548    -1557.045    474.48677    275.69789    87.611459    36397.316 
  286500    311.29323   -1554.1497    459.92765    298.56487   -221.60515    36397.316 
  286600    306.13844   -1584.9632    471.66342    256.42353    40.234505    36397.316 
  286700    298.28016   -1554.6134    463.85305    243.80348    350.12983    36397.316 
  286800    299.51593   -1566.2622    483.26057    257.09128    22.084101    36397.316 
  286900    289.04359   -1597.1899    484.78141    180.82915    87.945318    36397.316 
  287000    307.06356    -1524.193    483.83078     333.5003    164.20769    36397.316 
  287100    296.79811   -1511.7653    479.45801    295.62558    133.48216    36397.316 
  287200    293.37485   -1586.8801     453.9095    179.64599   -8.2129893    36397.316 
  287300    306.22091   -1592.9039    476.40839    253.59685   -307.02194    36397.316 
  287400    286.24181   -1573.7933    496.00193    202.91052    349.61793    36397.316 
  287500    289.39646   -1560.3006    471.52018    206.03605   -531.44323    36397.316 
  287600    295.08774   -1496.1096    461.22866    285.39939    -165.3447    36397.316 
  287700    309.61704   -1508.0977     465.2841    342.47363    209.02024    36397.316 
  287800    289.30911   -1496.8471    509.22862    306.80718    390.00087    36397.316 
  287900    303.35829   -1513.6138    492.27718    335.94781   -47.507725    36397.316 
  288000    300.09991   -1466.6522    462.32321    338.37685    251.26991    36397.316 
  288100    296.50948   -1500.0133    476.54723     303.1754    252.47993    36397.316 
  288200    306.94486   -1476.2699    470.15212    367.21366    365.43539    36397.316 
  288300    295.64677   -1503.6016    475.70552    294.88545    1165.9803    36397.316 
  288400    307.21463   -1508.2299    473.91456    340.22313    735.64812    36397.316 
  288500    296.44479   -1540.8391    494.03503    279.54804    444.49196    36397.316 
  288600    308.82342   -1526.6931    472.92986    327.97322    544.83277    36397.316 
  288700    288.96928     -1512.39    486.29228    266.80741    401.91348    36397.316 
  288800    300.50951   -1551.1156    467.39541    260.81825   -170.98489    36397.316 
  288900    297.73698   -1547.4117    446.62717    231.34908    106.83145    36397.316 
  289000    296.80255   -1568.3323    447.80959       207.43    296.06374    36397.316 
  289100    301.35278   -1563.8267    480.84202     265.3267    100.56973    36397.316 
  289200    306.74965    -1550.649    492.15596    313.96498   -88.203236    36397.316 
  289300    298.66128   -1561.6449    467.61898    242.24317    180.74404    36397.316 
  289400    286.53662   -1533.0764    465.75391    214.69846    284.33404    36397.316 
  289500    298.87349   -1512.2244    508.28063    333.27481    416.79768    36397.316 
  289600    299.07639   -1496.3774    454.54701    296.29594    799.73538    36397.316 
  289700     297.4556    -1520.163    455.64134    266.35298    625.26134    36397.316 
  289800    298.87503    -1542.382    504.91493    299.75837    564.68508    36397.316 
  289900    298.45997   -1541.2517    493.73159    287.84828    1142.7276    36397.316 
  290000    304.05926   -1522.5402    465.13531    303.01584    521.39883    36397.316 
  290100     293.7225   -1560.6265    451.72229    205.26777    209.27845    36397.316 
  290200    306.11507   -1575.3848    461.38238    255.61641    158.16927    36397.316 
  290300    287.36198   -1562.5269      469.976    193.16284   -137.77636    36397.316 
  290400    302.68718   -1531.5789    464.57399    287.27683    348.69931    36397.316 
  290500    309.77409   -1526.3141    446.71061    306.38642    255.19347    36397.316 
  290600    297.60206   -1538.7852    436.51631    229.26098    -85.23655    36397.316 
  290700    294.51053   -1519.3861    458.19818    256.50992    355.21539    36397.316 
  290800     294.6319    -1510.587    480.48839    288.14224    335.40867    36397.316 
  290900    290.67347   -1522.3363    455.56933    233.76306    400.07597    36397.316 
  291000    305.24611   -1509.4287    488.62915    344.93136    213.63491    36397.316 
  291100    319.34687   -1514.4138    454.73422    369.14086    737.18941    36397.316 
  291200    310.31038   -1547.2371    448.78322    289.93552    395.61231    36397.316 
  291300    307.34993   -1528.5868    460.52188    307.07886    213.20619    36397.316 
  291400    299.09799   -1526.6804    440.68219    252.22474    -16.26322    36397.316 
  291500     302.9158    -1546.959    438.61217    246.95782   -285.45246    36397.316 
  291600    307.36605   -1576.3738    475.75606    274.59817   -166.66271    36397.316 
  291700    294.18889    -1524.701    462.54644    254.10419   -31.060017    36397.316 
  291800    296.73846   -1546.8739    463.53711    244.32923   -572.86401    36397.316 
  291900    297.89454   -1501.2032    491.42404    323.05939   -821.09004    36397.316 
  292000    294.95762   -1512.0121    457.81772    265.50384    154.97166    36397.316 
  292100      309.428   -1500.0942    470.07403    354.42128    241.87848    36397.316 
  292200     298.3138   -1515.6012    442.42825    261.54146   -198.21647    36397.316 
  292300    296.85642   -1490.1653    496.02259    334.05103    475.05564    36397.316 
  292400    288.62442   -1498.3192    439.85399    232.89698    -283.7771    36397.316 
  292500    307.74763   -1460.7662      485.958    402.11498    428.14871    36397.316 
  292600    289.95704   -1462.5628    464.67975    299.44151   -4.9313529    36397.316 
  292700    300.07094   -1489.6527     484.2074    337.13084    418.93871    36397.316 
  292800    304.42675   -1494.9808    457.58645     324.6706    138.66715    36397.316 
  292900    297.48514   -1463.5082    497.49818    364.99674    24.334043    36397.316 
  293000    306.91681   -1498.3529    478.91017    353.76315    547.21765    36397.316 
  293100    298.40668   -1487.6025    441.46129    288.98868    216.91186    36397.316 
  293200    309.57576   -1466.7825     507.5772    425.89733    177.02288    36397.316 
  293300    294.00514   -1517.8586    449.76297    247.34092    456.22131    36397.316 
  293400    303.65461   -1482.9369    470.91436    346.58767    147.71845    36397.316 
  293500    291.49527   -1487.1456    456.12174    273.18306    -56.77306    36397.316 
  293600    310.60607   -1452.0615    479.81846    417.46931   -613.93629    36397.316 
  293700    308.38399   -1494.4482    467.16131    352.48353   -101.18467    36397.316 
  293800    293.65547   -1495.0493    457.30042    276.12321   -671.48065    36397.316 
  293900    292.98336   -1505.2392     453.3858    259.01152   -1222.7307    36397.316 
  294000    302.59389   -1519.3859    494.45425    328.93271   -544.13606    36397.316 
  294100    300.89383     -1490.07    462.61135    318.79928   -131.58462    36397.316 
  294200    299.21927   -1495.3674    486.76422    330.16245   -167.38431    36397.316 
  294300    306.32286   -1521.1051    474.55393    323.99732     250.1791    36397.316 
  294400     289.2683   -1512.2997    455.64473    237.58807    364.75962    36397.316 
  294500    298.54448   -1527.5735    460.06575    268.23876    211.13731    36397.316 
  294600    297.68913   -1506.6036    468.17633    293.49219   -368.69151    36397.316 
  294700    301.75589   -1533.7386    468.82436    285.20075    371.74483    36397.316 
  294800    295.76643   -1573.8904    461.22537     210.6519    545.58547    36397.316 
  294900    297.98557   -1585.6496    453.50466    201.10085    521.55701    36397.316 
  295000    291.32228   -1540.1148    448.11889    211.43709    211.58819    36397.316 
  295100    296.25387   -1540.2381    474.48834     259.7481   -57.386418    36397.316 
  295200    294.27904   -1536.5757    483.52836    263.61468   -122.65683    36397.316 
  295300    305.07554   -1529.9465     460.4242    295.44537    16.498247    36397.316 
  295400    298.74554   -1536.3119    466.91748    267.25166   -57.543836    36397.316 
  295500    298.30259   -1553.2557    455.09448    236.50298   -158.45987    36397.316 
  295600    307.82557   -1520.8268    478.42422    334.86937    322.43933    36397.316 
  295700    296.52168   -1511.6311    499.78028    314.84527    201.88869    36397.316 
  295800     298.4495   -1479.5101    458.13728    313.94874     252.6719    36397.316 
  295900    300.68081   -1524.8058     456.4725    276.97161   -177.90056    36397.316 
  296000    300.84124   -1487.3316    473.72622    332.41724    131.61675    36397.316 
  296100    296.97368   -1504.3377    472.03323    296.41394    729.16245    36397.316 
  296200    299.80169   -1523.5728    440.11268    257.91135   -81.112329    36397.316 
  296300    299.63023   -1547.5836    481.67516    274.69587   -338.86763    36397.316 
  296400    301.62337   -1538.9052    491.79232    302.40913   -262.89306    36397.316 
  296500    301.96033   -1539.0521    463.94885    275.92641   -25.035844    36397.316 
  296600    302.84548   -1570.1758    451.68867    236.50286    -490.7309    36397.316 
  296700    310.00215   -1519.9632     454.1146    321.16178    73.561747    36397.316 
  296800    294.64187    -1525.657    483.92529    276.55375    157.94892    36397.316 
  296900    299.28581   -1533.1249    477.81693    283.75542    441.92015    36397.316 
  297000    304.23209   -1516.0877    478.27232    323.37853    398.19275    36397.316 
  297100    312.06376   -1483.7129    508.10489     420.6264    157.10928    36397.316 
  297200    300.61504   -1507.3261    463.32998    301.01452    606.72434    36397.316 
  297300    305.12292   -1523.5391    488.98417     330.6248    359.99013    36397.316 
  297400    302.18687   -1505.1459     461.6003    308.49766    437.52058    36397.316 
  297500     299.7666   -1491.3162    472.05157    321.94984   -305.79247    36397.316 
  297600    289.39374   -1455.0895    478.75247    318.46725    601.97101    36397.316 
  297700    298.78041    -1530.466    497.38288    303.71898    1210.6217    36397.316 
  297800    295.32828   -1491.8224    488.55287    318.08708    612.48846    36397.316 
  297900     302.0933   -1524.3051     458.4845    285.80396    857.90189    36397.316 
  298000    300.69078   -1504.6389     480.1233    320.83384    879.91443    36397.316 
  298100    289.26554   -1519.1519    461.57927    236.65806    899.64395    36397.316 
  298200    311.06037    -1532.537    455.91095    315.11896    203.87435    36397.316 
  298300    302.40311   -1545.3747    465.60548     273.2415   -94.533134    36397.316 
  298400    293.08685   -1544.5521     448.4087    215.18455   -32.073875    36397.316 
  298500    310.53788   -1551.0412    471.68895     310.0551    686.67422    36397.316 
  298600    292.14184   -1526.2864    458.43551     239.2489      348.845    36397.316 
  298700    308.10712   -1565.8272    465.33631    278.04075    419.48146    36397.316 
  298800    295.04392   -1553.2007    459.80674    226.69034    313.54038    36397.316 
  298900    302.94773   -1526.1384    467.10703    296.41605    29.777699    36397.316 
  299000    306.56304   -1550.8663    443.19728    263.95407   -82.822097    36397.316 
  299100    301.33782    -1511.924    455.22401    291.54446    1044.3342    36397.316 
  299200    290.68736   -1531.6903    483.44957    252.35146    695.69501    36397.316 
  299300    293.10114   -1563.6712     481.0514    228.77209    803.49672    36397.316 
  299400     295.2676   -1562.4475    480.65964    239.29729    153.77666    36397.316 
  299500     301.9379    -1546.623    490.46415    294.77044    50.728276    36397.316 
  299600    306.05565   -1531.3871    466.79899    304.76482   -428.86838    36397.316 
  299700    299.71552   -1548.2583    470.94878    263.67636    -980.4109    36397.316 
  299800    310.64962   -1572.8924    491.97958    308.99442   -1065.4941    36397.316 
  299900    297.69458   -1572.5273    465.51107    224.92767   -940.60748    36397.316 
  300000    303.44398   -1538.9425    471.26875    289.99406   -995.51709    36397.316 
  300100    292.85687   -1529.9216    470.53501    250.91239   -891.40546    36397.316 
  300200    305.03682   -1528.1374    463.36961    300.02669   -351.07223    36397.316 
  300300    299.23984   -1529.4868    466.93772    276.30862    18.537503    36397.316 
  300400    296.74115   -1549.2016    484.44733    262.92375    316.32142    36397.316 
  300500    306.93969   -1550.1573    460.00286     283.1539    120.88107    36397.316 
  300600    288.97236   -1539.8999    478.63022     231.6493    133.62651    36397.316 
  300700    292.54203   -1538.7172    478.43509    248.60823    434.75461    36397.316 
  300800    306.94421   -1520.1094    483.07292    336.29205    448.62092    36397.316 
  300900    302.87003   -1509.3982     474.1448    319.84645     414.9448    36397.316 
  301000     305.9136   -1538.9093    473.33472    303.14273    -42.38898    36397.316 
  301100    307.42046   -1578.9316    464.12204    260.64982   -500.39449    36397.316 
  301200    292.18864     -1612.55    472.13956    166.89875   -1118.0829    36397.316 
  301300    291.47863   -1538.3905    462.91524    228.65728   -344.81281    36397.316 
  301400    290.52208   -1585.1877    469.16518    183.83018   -535.77597    36397.316 
  301500    304.83234   -1567.1082    469.03431    265.80569   -302.64455    36397.316 
  301600    307.15381   -1576.5366    455.76148    253.49114    877.75934    36397.316 
  301700    300.18533   -1566.9796    474.21471    250.32309    662.02387    36397.316 
  301800    290.58706   -1524.8418    466.59946    241.90111     318.2314    36397.316 
  301900     313.8415    -1496.183    469.89996    377.90532    689.26691    36397.316 
  302000    302.40266   -1530.4166    442.81162    265.40374    417.94975    36397.316 
  302100    297.13524   -1510.8162    472.14529    290.77034     281.7792    36397.316 
  302200    304.86322   -1535.2391    487.32331    316.10201    916.43845    36397.316 
  302300    291.87241   -1557.6737    481.77772    229.99835    824.07581    36397.316 
  302400    302.91405     -1521.19    493.24108    327.34781    795.89808    36397.316 
  302500    305.11634   -1547.9609    495.10003    312.28938    602.70456    36397.316 
  302600    299.03718   -1562.7626    478.78492    253.97324     307.8552    36397.316 
  302700    293.46564   -1557.6954    456.25978    211.58714    498.23351    36397.316 
  302800    297.27254   -1525.8112    494.85368    299.09805     501.0912    36397.316 
  302900    297.40484   -1550.3015    457.80555    238.15158    691.62035    36397.316 
  303000    296.51213   -1533.7258    498.72739    291.65491   -238.08639    36397.316 
  303100    304.15962   -1515.2238    458.98849    304.63438   -462.41414    36397.316 
  303200    294.88701   -1515.8465    464.74031    268.27608   -938.39229    36397.316 
  303300    293.08646    -1503.399    444.59336    252.52056    -416.4532    36397.316 
  303400    303.08422    -1528.833    487.17632    314.40149   -968.09359    36397.316 
  303500     295.5931    -1567.075    431.90436    187.37075   -1079.9569    36397.316 
  303600    299.93283   -1546.0173    470.75888    266.69982      -508.33    36397.316 
  303700    299.12037   -1565.6511    471.28504    243.95708   -791.71137    36397.316 
  303800    305.37663   -1543.7827    497.69372    320.22593   -706.14116    36397.316 
  303900    302.69073   -1561.8431    495.13416    287.58867   -667.24278    36397.316 
  304000    289.74832   -1538.8405    463.33685    220.88709   -364.95045    36397.316 
  304100    297.37648   -1536.5242    457.72935    251.72575   -279.53936    36397.316 
  304200    294.33599   -1526.0923    493.21911    284.04367    88.100349    36397.316 
  304300    303.60614   -1550.3548    467.54695     275.5855    837.52237    36397.316 
  304400    298.91183   -1556.4238    486.00817    266.97446    623.61833    36397.316 
  304500    294.46855   -1542.7813    480.28336    255.01206     556.8166    36397.316 
  304600    301.16809    -1531.726    470.15867    285.91766    983.60993    36397.316 
  304700    300.68571   -1532.0043    500.36666    313.68908    498.35654    36397.316 
  304800    292.59849   -1581.2122    470.21208    198.14282    698.43029    36397.316 
  304900     309.5377   -1584.0647     466.2928    267.16038    419.70335    36397.316 
  305000    301.86087   -1548.3968    510.14447    312.33239    454.92082    36397.316 
  305100    297.05914   -1586.3438    457.14452    199.90149    -428.6621    36397.316 
  305200    309.11172   -1556.9057    488.51105    314.63169   -209.90576    36397.316 
  305300    303.35991    -1538.664    475.60632    294.23396   -144.28374    36397.316 
  305400    298.11833   -1551.9877    495.67132    277.52345    231.24648    36397.316 
  305500    309.49563   -1580.2595    462.74181    267.22642     372.6149    36397.316 
  305600    297.47176   -1568.6137    503.11537    265.44858    519.24465    36397.316 
  305700    302.81106   -1580.1195     472.0523    246.76885   -136.49685    36397.316 
  305800    308.36679   -1529.1657    473.80039    324.32809    31.153232    36397.316 
  305900    296.56935   -1531.0441    476.96487    272.83018   -577.72702    36397.316 
  306000    304.36897   -1536.4227    485.18484    310.56849   -285.13024    36397.316 
  306100    303.62822   -1518.9667    489.26907    328.79452    193.52798    36397.316 
  306200    292.35759   -1528.9939    480.65362    259.72482    146.57245    36397.316 
  306300    302.19334   -1542.2421    491.74723    301.57731    257.55239    36397.316 
  306400    295.56153   -1563.4183    484.61062     243.5925   -137.65466    36397.316 
  306500    299.19506   -1548.8687    483.71763    273.50623    224.43042    36397.316 
  306600     308.9118   -1522.9768    486.10675    345.26183    77.757578    36397.316 
  306700    297.04067   -1555.4545    501.42446    274.98808    204.75195    36397.316 
  306800    294.00534   -1520.3257     500.5783    295.69011    404.82543    36397.316 
  306900    306.35731   -1583.1575    469.11134    256.65645     713.3092    36397.316 
  307000     303.6393   -1579.0878    497.61302    277.06693    379.61128    36397.316 
  307100    295.20811   -1574.2556    456.00609    202.56939   -114.63316    36397.316 
  307200    293.80782   -1533.4697    461.46988    242.55389   -441.17567    36397.316 
  307300     305.1455   -1528.1219    454.00056     291.1594   -580.88724    36397.316 
  307400    302.29415   -1529.7655    471.38019    294.13795   -430.13946    36397.316 
  307500    290.34913   -1564.7117    468.01669    202.38389   -636.54808    36397.316 
  307600    292.16606   -1548.9494    463.62787    221.88669   -367.40742    36397.316 
  307700     296.6664     -1543.13    491.66853    275.88211   -366.32281    36397.316 
  307800    298.83845   -1565.7206    461.80368     233.1449   -59.250418    36397.316 
  307900    313.02371   -1571.0416    481.56621    311.05403    468.49533    36397.316 
  308000    311.75782   -1550.8972    480.25445    324.22282    732.05582    36397.316 
  308100    294.99595   -1559.0272    474.90088    235.74329     315.9157    36397.316 
  308200    302.98668   -1523.9873    445.14302    276.77748    504.50254    36397.316 
  308300    308.92959   -1565.1403    475.55002    292.62117    248.70562    36397.316 
  308400    299.76219   -1587.1804    475.44727    229.46168   -68.754407    36397.316 
  308500    301.60992   -1560.9828    492.29388    280.77297    146.49084    36397.316 
  308600    299.18057   -1560.2407     467.3765    245.72833    249.47888    36397.316 
  308700    303.84277   -1564.9878     472.5454    267.00965   -671.78662    36397.316 
  308800    297.79147   -1494.1624    488.46911    326.68409   -132.16439    36397.316 
  308900    292.40302    -1524.038    493.67025    277.90067   -102.27936    36397.316 
  309000     289.7415   -1572.6605    480.34197    204.04169    483.39855    36397.316 
  309100    298.86042   -1553.0337     487.2537    271.38009    625.43563    36397.316 
  309200    295.25742   -1531.9616    455.96806    245.04603    611.05591    36397.316 
  309300     300.7102   -1531.6989    472.51462     286.2521    -70.00639    36397.316 
  309400    307.26333   -1536.4508    459.74093    298.04641    57.872089    36397.316 
  309500    300.40853   -1491.7785    466.86232    319.17045   -156.21153    36397.316 
  309600    291.16239   -1510.7369    484.94351    276.92423    371.56268    36397.316 
  309700     307.9128   -1558.1654      517.655    337.15185    241.45868    36397.316 
  309800    299.46281   -1506.7384    488.38678    321.50368    596.10953    36397.316 
  309900    300.15968   -1553.0869    481.99741    271.88376    135.56543    36397.316 
  310000    312.90144   -1543.6671    485.29383    341.60903   -500.64542    36397.316 
  310100    307.29546   -1515.9792    479.06609    337.98693    39.149265    36397.316 
  310200     305.3382   -1544.9134    494.99828    316.22783    330.48773    36397.316 
  310300    306.95168   -1539.7314    450.70464    284.33523    796.49849    36397.316 
  310400    307.41138   -1553.9398    460.04262    281.52153   -1.0577904    36397.316 
  310500    294.61075   -1560.2409    505.07372    262.97905   -60.642792    36397.316 
  310600    304.81366   -1557.7651       461.57    267.60093   -413.65186    36397.316 
  310700    304.74847   -1529.5182    461.07164    295.05778   -860.06252    36397.316 
  310800    305.97483   -1532.0866    504.81692    341.72163   -190.11745    36397.316 
  310900    295.21653   -1532.7345    460.51198    248.63406   -708.81176    36397.316 
  311000    297.27538   -1512.6194    464.99775     282.4466   -754.85273    36397.316 
  311100    313.82918    -1533.597    460.41745    330.95363   -401.43664    36397.316 
  311200    286.80135   -1511.0648    476.21578    248.35642    -267.2517    36397.316 
  311300    300.31411   -1511.0325    489.49036    322.12207   -160.16971    36397.316 
  311400      298.847   -1513.0366    472.83684    296.90027   -185.06172    36397.316 
  311500    288.63686   -1513.4866    458.53122     236.4625    48.285337    36397.316 
  311600    305.87571   -1532.0796    467.43365    303.90185    2.7188929    36397.316 
  311700    296.93274   -1535.4879      476.183    269.23034    148.82424    36397.316 
  311800    303.59389   -1550.6595    482.13041    289.80946    245.68765    36397.316 
  311900    300.21597   -1524.4622    497.33609    316.09894    418.85641    36397.316 
  312000    299.74482   -1504.9303    484.75398    320.94075    440.73508    36397.316 
  312100    299.27068   -1511.7549    483.26664    310.50735    287.53178    36397.316 
  312200    301.32697   -1533.9745    488.76185    302.98326   -218.60071    36397.316 
  312300    305.64609   -1454.2752    500.44862    413.69392    -319.6561    36397.316 
  312400    298.01607   -1451.7964    469.42704    351.01292   -367.07711    36397.316 
  312500    297.41348   -1419.2977    492.69329    404.08176   -693.15052    36397.316 
  312600    300.94968   -1422.5594    485.56152    409.50993   -327.11341    36397.316 
  312700    301.46249    -1422.224    495.44683    422.02501   -346.24051    36397.316 
  312800    314.55609   -1444.8406    481.28672     443.8317   -196.21983    36397.316 
  312900    300.90579   -1445.0004    464.28519    365.59621   -516.46418    36397.316 
  313000    299.83126   -1485.0441    524.80803     381.2677    41.731464    36397.316 
  313100    296.62619   -1479.9377    458.45941    305.68534    615.37217    36397.316 
  313200    295.67572   -1493.3303    494.36341    323.94422    228.83232    36397.316 
  313300    299.02223   -1465.0886    473.76221     346.5576   -120.27934    36397.316 
  313400    287.78436   -1485.1172     461.7318    264.21825    563.10308    36397.316 
  313500    301.62189   -1451.1061    500.25526     398.6646    1400.6654    36397.316 
  313600    302.44665   -1449.1529    454.03852    358.09115    670.52921    36397.316 
  313700    309.12794   -1483.0307    482.75556    382.82379    125.31653    36397.316 
  313800    284.81498   -1481.8515    465.18149    257.64798    345.69257    36397.316 
  313900    291.18975   -1514.9083    485.29899    273.23064     13.27082    36397.316 
  314000     305.8386   -1485.5577    471.84725    354.67137     545.4711    36397.316 
  314100    307.17563    -1504.596    479.25462    349.02253    192.76423    36397.316 
  314200    295.38483   -1469.5444    465.88528    317.95047    428.12231    36397.316 
  314300    303.77742   -1427.1552    478.76815    410.77265    648.40264    36397.316 
  314400     287.3122   -1506.8391    452.30213    230.95412    380.81338    36397.316 
  314500    300.45393    -1476.017     491.8817    360.15438    331.69008    36397.316 
  314600    306.27563    -1500.641    475.34846    345.04466    183.24715    36397.316 
  314700    296.04187   -1455.6717    459.34139    328.21906    473.12596    36397.316 
  314800    303.67346    -1459.246    482.23291    381.68144   -251.17077    36397.316 
  314900     304.4383   -1449.4782    447.68685    360.32521    187.18982    36397.316 
  315000    305.00847   -1425.7745    463.89815    402.79129   -31.275687    36397.316 
  315100    310.29635   -1426.8637    485.95398    447.41695    305.05455    36397.316 
  315200    308.97259   -1520.0744    463.79817    326.12762    366.11336    36397.316 
  315300    299.41251   -1511.9454    469.99485    297.67962   -25.411953    36397.316 
  315400    294.07608   -1481.8851    448.97522    282.84415    54.782659    36397.316 
  315500    303.77019   -1470.1431     482.9459    371.93015   -263.62044    36397.316 
  315600    306.95773   -1496.6664    462.36785     339.0904    91.926844    36397.316 
  315700    295.85492    -1506.759    481.13675    298.09062   -497.85165    36397.316 
  315800    287.51464   -1489.2615    454.98242    252.11775   -308.43049    36397.316 
  315900    297.60329   -1478.4665    487.08757    340.15649    344.57476    36397.316 
  316000    297.11796   -1530.4681    464.93719    263.83308    191.48129    36397.316 
  316100    310.54081   -1527.0212    446.76271    309.16192     450.2998    36397.316 
  316200    302.33517    -1540.733    456.74859    268.72236    590.27433    36397.316 
  316300    310.44999   -1554.6145    452.53984    286.93943    185.41191    36397.316 
  316400    306.86164   -1544.6675    470.29724    298.58881    418.47753    36397.316 
  316500    298.32048   -1554.1988    441.39437    221.93985    603.46146    36397.316 
  316600    296.15248   -1519.5561    481.02092    286.50901   -242.14256    36397.316 
  316700    302.03696    -1527.258    477.49727     301.6118    55.214762    36397.316 
  316800    300.14972   -1520.9446    439.29328    261.27731   -54.027474    36397.316 
  316900    298.75852   -1561.5755     454.8825    230.01118    60.762478    36397.316 
  317000     292.0202   -1573.3667    474.62036    207.80917   -164.02213    36397.316 
  317100    309.27306   -1529.7912     472.7589    326.71599    49.606844    36397.316 
  317200    293.66239   -1530.1804    458.81817    242.54085    327.89475    36397.316 
  317300    296.00918   -1575.8777    449.97008    198.49544   -95.699161    36397.316 
  317400    296.11029   -1574.0833    462.93195    213.70404   -65.105743    36397.316 
  317500    311.96448   -1533.3988    482.36666    344.75801   -229.11319    36397.316 
  317600    306.92414   -1540.1777    476.88061    309.94169   -107.64672    36397.316 
  317700    303.43347   -1567.4445    477.18862    267.36493    408.73594    36397.316 
  317800    291.53854   -1550.2205    454.54536    208.72542   -612.56668    36397.316 
  317900    307.56282   -1568.2055    462.41964    270.31043   -587.80923    36397.316 
  318000     296.4696   -1553.3327    457.77789    230.90828   -554.46598    36397.316 
  318100    292.56871   -1553.6457     471.1692    226.53327    -474.0589    36397.316 
  318200    291.11947   -1540.3776    447.49092    209.63883   -323.42336    36397.316 
  318300    308.99668   -1541.8042    469.79853      310.506   -146.55698    36397.316 
  318400    308.01187    -1548.675    466.94442    296.37484    351.83946    36397.316 
  318500    289.82521   -1574.3095    467.21597    189.64121   -153.61729    36397.316 
  318600    295.47559   -1533.3029    464.45705    253.16988   -358.66085    36397.316 
  318700    297.56992   -1503.8065    451.86889    279.44846   -151.20369    36397.316 
  318800    305.68438   -1512.3479    476.38328    331.72719   -76.921438    36397.316 
  318900    304.33173   -1532.4778    467.51295    296.67498    275.28199    36397.316 
  319000    306.42553   -1512.9533    480.24634    338.30091    555.78465    36397.316 
  319100    300.85675   -1561.2759      434.573    219.38908   -88.438168    36397.316 
  319200    302.50598   -1551.3177    481.39408    283.54737   -100.09581    36397.316 
  319300    295.16022   -1563.6063    485.73683    242.73519   -250.16127    36397.316 
  319400    300.51012   -1520.0949    482.84086    307.28715    39.480375    36397.316 
  319500     298.5402    -1533.741    448.19401    250.18032   -115.68895    36397.316 
  319600    313.31456   -1581.7608    447.36894    267.43883    224.83259    36397.316 
  319700     311.5977   -1572.8132    443.32793     264.6639   -153.43374    36397.316 
  319800    293.59904   -1588.7871    460.10776    184.94029    132.16008    36397.316 
  319900    299.78423   -1562.8421    464.51928     242.9705   -13.623678    36397.316 
  320000    307.06589   -1551.0982    460.61286    283.38759    -329.2627    36397.316 
  320100    312.07228   -1528.6284    452.19923    319.84339   -428.14085    36397.316 
  320200     307.0255   -1518.1481    430.31689    285.86103   -704.98518    36397.316 
  320300    290.05487   -1518.2725     455.4598    234.94963   -833.27761    36397.316 
  320400    293.65519   -1532.8994    468.27929    249.25076   -454.14273    36397.316 
  320500    299.41695    -1541.832    481.94887    279.76689    437.69807    36397.316 
  320600    292.22989   -1563.7707    462.97112    206.69416     313.7846    36397.316 
  320700    300.84929   -1594.9973     449.9988    201.06015    36.287617    36397.316 
  320800    306.12137   -1528.4264    451.02615    292.24671    422.37918    36397.316 
  320900    293.77914   -1538.6786    508.66289    284.40965    159.14985    36397.316 
  321000     319.1346    -1596.536    484.24632    315.58104    788.30023    36397.316 
  321100     296.9835   -1549.2223    452.17064    231.71067    533.91097    36397.316 
  321200    311.96985   -1525.9599    491.51298    361.36728   -108.96106    36397.316 
  321300    310.97626   -1550.6902    454.77093    295.44941   -35.456133    36397.316 
  321400    303.33064    -1528.337    472.80349    301.62722   -498.36981    36397.316 
  321500    291.43231   -1508.3378     462.1516    257.73903   -769.04091    36397.316 
  321600    300.77455   -1489.1768    478.30588    334.85331   -455.19497    36397.316 
  321700    306.67941   -1522.3538     472.0851    321.87501   -422.74451    36397.316 
  321800    298.95558   -1488.8857    464.24625    312.94631    -89.61111    36397.316 
  321900    292.39834   -1539.6783    456.33223    224.90133    -497.1203    36397.316 
  322000     294.3842   -1521.8239    459.48578    254.79449    134.55243    36397.316 
  322100    306.54344   -1531.6672    491.51606    331.38422    346.17466    36397.316 
  322200    300.09621   -1517.5465    468.00199    293.14471   -225.95046    36397.316 
  322300    307.07366   -1492.7389    463.36182    344.53058   -224.92489    36397.316 
  322400    303.80639   -1502.8268    472.16086    328.62341   -616.79174    36397.316 
  322500    298.32034   -1496.4108    469.02999    307.36277   -981.73843    36397.316 
  322600    293.57154   -1531.0682    487.73509    270.16344   -750.49993    36397.316 
  322700    312.79182   -1546.8848    470.98658    323.59362   -334.57179    36397.316 
  322800     303.0438   -1571.9696    466.90864    250.81635   -191.53511    36397.316 
  322900    303.33041   -1567.1261      460.962    250.99554   -69.779945    36397.316 
  323000    300.13365   -1596.4741    441.99856    188.38118   -413.91271    36397.316 
  323100    313.83405   -1577.0617    477.04683    304.14016   -462.85077    36397.316 
  323200    295.59828   -1569.5737    470.01683    223.00773    12.373188    36397.316 
  323300    300.12461   -1574.5445    480.39412    248.66589    985.16234    36397.316 
  323400    304.48456   -1556.3203    474.75732    280.76056   -322.20264    36397.316 
  323500    292.59252   -1539.7017    479.84813    249.26269   -323.20974    36397.316 
  323600    293.70883   -1523.4461    474.67126    265.33602   -388.45348    36397.316 
  323700     304.4226   -1543.0924    462.58269     281.5367   -444.42079    36397.316 
  323800    302.23814    -1532.583    470.17616    289.86579   -186.45118    36397.316 
  323900    299.49579   -1535.2332    475.07058    279.84025    12.005646    36397.316 
  324000     312.2464   -1560.1287    481.82653    318.74938    389.85204    36397.316 
  324100    300.33665   -1523.1477    481.22735    301.84468    12.606209    36397.316 
  324200    295.30103   -1537.1069    449.86391    233.99162    49.902165    36397.316 
  324300    306.02597   -1515.4176    447.03884     300.8414     366.2299    36397.316 
  324400    297.15018   -1576.0769    470.20577      223.637    346.29699    36397.316 
  324500    293.59274   -1577.3048      492.015    228.30167    334.80489    36397.316 
  324600    311.63975   -1539.9236       472.05     326.4637    274.54632    36397.316 
  324700     293.9846   -1534.8403    483.62138    264.12574     83.39895    36397.316 
  324800    304.71341   -1555.4394    448.74102    256.64908    218.50164    36397.316 
  324900    299.16019   -1485.4841    466.36484    319.38207   -870.27944    36397.316 
  325000    302.98282   -1541.8431    454.42424    268.18566   -680.23426    36397.316 
  325100    290.93837   -1556.9128    479.90054    224.70299   -308.59097    36397.316 
  325200    299.20859    -1517.837     509.2843    330.16509   -603.60085    36397.316 
  325300     305.5856   -1517.7491    460.38044    309.88114   -307.46848    36397.316 
  325400    301.53916   -1518.2496    499.23142     330.1271   -190.87326    36397.316 
  325500    298.37028   -1531.8218    466.19607    269.34136    -45.56272    36397.316 
  325600    304.18268   -1550.5967    466.58212    276.95831   -929.37171    36397.316 
  325700    303.39664    -1496.674    473.02222    333.80424   -592.50138    36397.316 
  325800    298.07869   -1534.9088     477.7068    276.46043    -775.5108    36397.316 
  325900     296.0531   -1555.3804     449.0658    218.28492   -504.10855    36397.316 
  326000    286.76478    -1595.149    439.57233    127.46508   -66.544823    36397.316 
  326100    305.45053   -1587.3026     486.5679    265.91084    613.51186    36397.316 
  326200    302.34896   -1545.3524    469.02985    276.44589    729.88681    36397.316 
  326300    291.64944    -1520.558    483.97171    268.31039    772.69104    36397.316 
  326400    295.51263   -1560.6113    476.97635     238.5464    548.43634    36397.316 
  326500     298.3198   -1541.6401    471.52123    264.62234    630.83806    36397.316 
  326600    303.53689   -1548.2785    461.59826    271.40323     186.4965    36397.316 
  326700    307.43468   -1547.3739    478.57952    306.72857   -57.832406    36397.316 
  326800    304.64585   -1567.3108    472.68359    268.41804    219.01559    36397.316 
  326900     311.2341    -1525.472    455.25748    322.30778    164.52909    36397.316 
  327000    292.20752   -1581.2704    461.13732     187.2606   -72.525553    36397.316 
  327100    301.69433   -1579.3155    481.57098    252.09505   -184.88346    36397.316 
  327200    294.79573   -1572.9857    453.13992     199.1281   -796.84762    36397.316 
  327300    288.64496   -1500.2982    473.59849    264.75436   -712.74149    36397.316 
  327400    299.13103    -1540.141    453.59262    251.82247   -646.28312    36397.316 
  327500     295.8628   -1535.6082     497.8595    285.99937   -515.94665    36397.316 
  327600    305.46234    -1521.419    486.98609    332.26543   -872.97407    36397.316 
  327700    289.95262    -1550.039    476.01483    223.28059   -1221.5965    36397.316 
  327800    306.41695   -1527.4962    452.29316    295.76643   -724.46127    36397.316 
  327900    293.34246    -1544.831     471.3619    239.00251   -126.10461    36397.316 
  328000    298.12951   -1553.5703    489.71941    270.03887     265.4721    36397.316 
  328100    304.11044   -1536.7485    482.37326    306.27442    403.82293    36397.316 
  328200    299.45471   -1568.1096    467.50562    239.21511    232.00316    36397.316 
  328300     303.8272   -1525.5564    492.42026    326.24633    670.19473    36397.316 
  328400     299.4365    -1498.391    499.33634    340.68292     972.3114    36397.316 
  328500    295.44648   -1518.3648    479.57984    283.10051     1073.296    36397.316 
  328600    295.51662   -1510.6911    482.42112    293.92926    1052.6324    36397.316 
  328700    286.34429    -1559.227    477.87357    199.80701    296.99607    36397.316 
  328800    303.71231   -1549.8158     496.8478    305.90036    646.63852    36397.316 
  328900     308.4945   -1497.4605    493.17434    375.97869    622.99869    36397.316 
  329000    301.91206   -1511.7741    487.83121    326.87075    487.69576    36397.316 
  329100      291.868   -1521.1839    476.65684    261.34751    476.56281    36397.316 
  329200      296.261   -1512.6798    473.72119    286.57116     357.3083    36397.316 
  329300    297.53714   -1520.5877    480.20352     290.8552    846.85698    36397.316 
  329400    297.64455   -1554.4801     482.1205    259.36041    590.18383    36397.316 
  329500    293.53685   -1563.5652    487.42454     237.2007    846.26369    36397.316 
  329600    300.37102   -1599.1559    481.02977    225.79265    854.59153    36397.316 
  329700     302.4685   -1565.0999    451.84963      240.053    276.24335    36397.316 
  329800    292.77002   -1551.1916    501.05748    259.77632    904.66858    36397.316 
  329900    298.52625    -1555.064    487.65524    268.25619    785.82345    36397.316 
  330000    297.56271   -1534.1872    492.93477    290.10147    1010.1821    36397.316 
  330100     296.7108   -1554.6326     496.3135    269.22316    387.42855    36397.316 
  330200    295.68726   -1547.2668    460.68671    236.38258     138.8954    36397.316 
  330300    303.09328   -1564.8382    471.14269    262.40319    324.95734    36397.316 
  330400    305.70679   -1550.1999    476.33221    293.92436    481.98949    36397.316 
  330500    299.73927   -1515.4156    502.29123    327.96777   -122.70412    36397.316 
  330600    294.77693   -1519.5188    483.83029    283.20126   -392.73791    36397.316 
  330700     292.9819   -1503.0094     456.5767    264.42574   -127.53989    36397.316 
  330800    299.57194   -1530.3442    472.49059    282.48988    318.91557    36397.316 
  330900    302.04106   -1580.4617    470.95829    241.88748    106.26364    36397.316 
  331000    303.05203   -1522.2267    486.76369    320.45115    222.45125    36397.316 
  331100    289.76357   -1511.4053    488.58737    273.64111   -111.48122    36397.316 
  331200     302.8531   -1534.0697    449.78383    270.73824   -37.511314    36397.316 
  331300    307.12725   -1565.1311    491.69999    300.71637    290.31343    36397.316 
  331400    300.62061   -1519.0827    498.14395    324.09668     184.8853    36397.316 
  331500    307.18006   -1522.3219     462.4668    314.52869    797.19826    36397.316 
  331600    288.62666   -1493.1091    480.71015    278.97324   -140.76336    36397.316 
  331700    299.55932   -1521.5695    485.79738    304.51497      251.132    36397.316 
  331800    295.29804   -1496.3216    483.04188    307.94152   -198.64481    36397.316 
  331900    293.28128   -1514.8328    475.56962    272.93471   -104.83479    36397.316 
  332000    294.29696   -1521.3674    456.60377    251.97861   -533.96155    36397.316 
  332100    299.02335   -1519.6493    495.23232    313.47206    -454.5788    36397.316 
  332200    295.23266   -1502.1809    477.06286    295.81065   -387.41256    36397.316 
  332300    290.19206   -1494.8959    484.18662    287.66685   -639.63542    36397.316 
  332400    305.23692   -1480.2087    499.97704    385.45814   -198.45313    36397.316 
  332500    295.46525   -1488.8682    468.45966    301.56086    339.60603    36397.316 
  332600    294.82137   -1526.7557    467.60537    259.93826    151.31912    36397.316 
  332700    316.36283   -1503.5027    464.68681    376.65338    267.70309    36397.316 
  332800    296.42998   -1501.6745    505.50945    330.12079     205.9944    36397.316 
  332900    290.68682   -1527.3658    486.88937    260.11339    381.00187    36397.316 
  333000    298.64227   -1513.3092     517.5284    340.40327    260.70278    36397.316 
  333100    302.88331   -1518.4888    464.68682    301.35732    653.91092    36397.316 
  333200     301.9436   -1515.8548    456.18159    291.28161    622.10284    36397.316 
  333300    303.25025   -1501.7097    502.26905    357.36039    448.17392    36397.316 
  333400    308.41473   -1549.6696    477.34195    307.58029    292.06997    36397.316 
  333500    294.67184   -1546.2962    489.92243    262.04581   -115.67618    36397.316 
  333600    298.59911   -1489.7693    476.02493    322.24656    148.65409    36397.316 
  333700    304.42178   -1466.5054     504.6649    400.20223    -968.6678    36397.316 
  333800     308.5249   -1481.7938    492.27922     390.8863   -996.89726    36397.316 
  333900    295.53437   -1504.7671    466.32658    283.83819   -1021.4421    36397.316 
  334000    293.25678   -1510.7078    509.71971    311.10025   -230.25345    36397.316 
  334100     294.9336   -1486.9089    499.54378    332.22564   -223.85494    36397.316 
  334200    303.51462   -1493.5273    480.74532    345.20191    396.73187    36397.316 
  334300    297.65372   -1511.5725    497.07933     317.2679    521.50534    36397.316 
  334400     301.3808   -1501.8085    462.91409     309.5423    356.08225    36397.316 
  334500     305.9507   -1495.8833     486.0883    359.08837    382.25134    36397.316 
  334600     299.3315   -1492.5737    502.46644    349.16054    167.39054    36397.316 
  334700    299.53891   -1519.2132    472.24257    293.22507    453.40316    36397.316 
  334800    297.92299    -1552.266    490.40649     271.1063    596.35664    36397.316 
  334900     298.7622   -1519.3357    478.18016    295.56503   -161.66491    36397.316 
  335000    304.96632   -1496.4892    472.79775     340.7876    456.16123    36397.316 
  335100     297.1373   -1512.9262    480.08868    296.61296   -65.046134    36397.316 
  335200    285.01478   -1511.0993    496.56013    260.67279    547.36084    36397.316 
  335300    306.07581   -1529.0742     460.3674    300.73631    382.64744    36397.316 
  335400     295.3499   -1529.1066    494.03495    286.38167   -64.781949    36397.316 
  335500    304.79286    -1510.316    482.15387    335.54085    176.96229    36397.316 
  335600    302.97266   -1544.3546    481.75079    292.95522    592.46559    36397.316 
  335700    301.42838    -1512.508    487.42361    323.56527    440.34049    36397.316 
  335800    291.72693   -1550.2126     466.2102    221.24104   -555.81324    36397.316 
  335900    303.34769   -1535.6207    485.65171    307.26798   -519.69264    36397.316 
  336000     291.3792   -1487.8162    499.96477    315.83618   -310.22802    36397.316 
  336100    304.41874   -1534.4131    501.64384    329.25982   -380.97516    36397.316 
  336200    309.39043   -1528.1637    497.84128    353.95093   -168.60506    36397.316 
  336300    289.84853   -1512.0743    460.83622    245.60101    274.41922    36397.316 
  336400    292.39505   -1541.9146    470.12836    236.44653    409.54818    36397.316 
  336500    301.13845   -1504.2153    486.26817    329.40526     258.4843    36397.316 
  336600    296.93169   -1530.2178    490.10761    288.42034    337.45472    36397.316 
  336700    299.06577   -1524.0386    488.16427     302.2045    369.61245    36397.316 
  336800    294.37315   -1540.0318    495.11471    272.16608    418.96465    36397.316 
  336900    296.72758   -1523.1092    490.55695    295.06503      670.683    36397.316 
  337000    300.80055   -1462.5737    480.39339    363.66031    919.82173    36397.316 
  337100    308.85194   -1510.4004    511.45043    382.91414    714.46626    36397.316 
  337200    301.59012   -1497.0462    465.78999    318.11709    427.48371    36397.316 
  337300    306.03979   -1508.8807    496.47767    356.87889    328.55283    36397.316 
  337400    302.54443   -1488.2272    503.82326    369.23909    57.618538    36397.316 
  337500    292.19046   -1508.6149    477.56479    276.26726   -369.99413    36397.316 
  337600    292.37659   -1515.9781    481.70091    273.87299   -458.29731    36397.316 
  337700    296.72391   -1531.0845    485.97315    282.48956   -387.46541    36397.316 
  337800    302.23135   -1498.4256    488.35847    342.17512   -66.754392    36397.316 
  337900     307.0392   -1499.7404    470.22287    344.23595     59.60815    36397.316 
  338000    312.46258   -1484.3274    462.52775    376.21919    143.17714    36397.316 
  338100    299.41595   -1530.0544    520.33233    329.92356    720.30008    36397.316 
  338200    295.49846   -1540.9151    463.44006    244.64291    116.46159    36397.316 
  338300    299.37449   -1475.6358    466.38796    330.21224    189.85402    36397.316 
  338400    306.24216   -1492.9238    482.77569    360.03931   -465.67461    36397.316 
  338500     291.2243   -1504.9674    470.05159    268.07875   -578.07195    36397.316 
  338600    300.23603   -1470.6338    468.69788    341.37892    -534.9622    36397.316 
  338700    303.48227   -1507.5389    490.69336    340.99356   -299.14087    36397.316 
  338800    298.41278   -1486.0819     458.5228     307.5981    36.396668    36397.316 
  338900    304.28609   -1452.4434    484.43504    393.42717    152.17758    36397.316 
  339000    307.20301   -1485.2389    464.02285    353.27037    119.22559    36397.316 
  339100    293.99216   -1481.6485    494.35703    328.08709   -366.59992    36397.316 
  339200    288.84285   -1496.9536    451.92075    247.30663    100.56825    36397.316 
  339300    311.97059   -1537.2953    466.14757    324.66981     279.2787    36397.316 
  339400    308.03745   -1499.3651    484.19425    363.04909   -86.110803    36397.316 
  339500    301.63638   -1448.3902    483.63267    384.82269   -430.69347    36397.316 
  339600    304.06456   -1487.8388    458.17821    330.78383   -159.36834    36397.316 
  339700     308.9412    -1466.271    467.05522    383.04769   -148.36514    36397.316 
  339800    308.27347   -1488.1258    470.02731     361.1774    329.32803    36397.316 
  339900    300.77361   -1473.4272    497.53347    369.82629    340.43271    36397.316 
  340000     311.2461   -1456.6711    479.74799    415.65288    266.66997    36397.316 
  340100    308.70858   -1469.6992    504.10693    415.63038    161.95929    36397.316 
  340200    304.72113   -1490.5622    485.71618    358.53599     405.2236    36397.316 
  340300    310.22172   -1505.5535    480.86278    363.30206    -409.3792    36397.316 
  340400    304.05183    -1540.913     481.5267    301.00116    790.85669    36397.316 
  340500    306.27801   -1530.4716    475.96149    315.83765   -107.37655    36397.316 
  340600    302.90976   -1549.5335    456.50184    262.24594   -1254.3776    36397.316 
  340700    297.68445    -1523.764    471.81764    279.95218   -1227.4873    36397.316 
  340800    301.87282   -1488.5129    466.01961    328.14483   -838.94589    36397.316 
  340900     299.5863   -1492.5204    468.22662      316.114     32.01029    36397.316 
  341000    306.85201   -1484.9834    460.94896    348.88154    100.03044    36397.316 
  341100    298.20901   -1542.0954    459.32903     251.4792   -120.79223    36397.316 
  341200    305.29701   -1553.4488    459.86118    272.37105   -6.9545976    36397.316 
  341300    304.45866   -1532.8271    488.38552    317.76607   -337.99097    36397.316 
  341400    297.20667   -1537.7522    460.85311    252.86179   -381.15771    36397.316 
  341500    299.66086   -1518.1995    488.95023    311.49216   -824.95112    36397.316 
  341600    295.65402   -1476.9244    462.91653     308.8061     -544.011    36397.316 
  341700    308.22499   -1523.8566     496.7133    351.91574   -141.18514    36397.316 
  341800    301.87149   -1527.1233    477.88861    301.39752    128.45468    36397.316 
  341900    301.29518   -1548.3809    486.24744    285.92024   -12.740276    36397.316 
  342000     301.9817   -1550.0331    462.57085    263.66304    823.60941    36397.316 
  342100    294.99994   -1543.0058    455.96907    232.85083    115.76408    36397.316 
  342200     297.3509   -1527.2406    474.15639    277.32197    -206.8556    36397.316 
  342300    303.54922   -1572.2263    476.67174    262.58406    48.005161    36397.316 
  342400    303.25317   -1582.1748     467.3417    241.98098   -76.667376    36397.316 
  342500     305.3128   -1597.3347    453.98444      222.679   -512.56337    36397.316 
  342600    287.61053   -1549.9368    472.31927    209.20835   -431.58741    36397.316 
  342700    309.91881   -1539.2375    462.38539    309.78537   -143.94481    36397.316 
  342800    300.59831   -1564.4643    485.39675    265.86814    161.51783    36397.316 
  342900    312.35762   -1615.0503    452.54536    235.04421    90.291044    36397.316 
  343000    310.32644   -1641.1956    449.65621    196.92187    403.81451    36397.316 
  343100    294.54295   -1586.8597    502.72096    233.70408   -196.30166    36397.316 
  343200    300.49365   -1609.0687     453.5059    188.90466    140.63922    36397.316 
  343300    300.44672   -1550.1124    482.09213    276.23726    73.722182    36397.316 
  343400    300.56019   -1567.9786    479.31696     256.1035    444.01875    36397.316 
  343500    295.66092   -1564.1182     476.6303    235.35697    72.282751    36397.316 
  343600    299.97252   -1504.7881    489.41113    326.75882    761.34847    36397.316 
  343700    305.84428   -1577.0601    482.45625    273.80341    408.14172    36397.316 
  343800    302.58326   -1540.5147    474.71652    288.01855     201.6926    36397.316 
  343900     303.9451   -1556.0763    467.29661    271.13026    312.50289    36397.316 
  344000     307.8022   -1550.3594    452.05606    278.86404    37.885507    36397.316 
  344100    306.39366   -1570.1611    475.43564    276.13983    588.81642    36397.316 
  344200    290.58194   -1595.9526    483.04631    187.21422    112.54464    36397.316 
  344300    305.44912   -1562.1137    471.93533    276.46088    490.51285    36397.316 
  344400    309.94082   -1589.4187    468.05718    265.37448     170.2505    36397.316 
  344500    291.82649   -1573.7097    474.98392    206.96313   -287.70508    36397.316 
  344600    304.89323   -1594.8888    454.73305    223.99632   -389.31668    36397.316 
  344700     298.7284   -1548.0617    485.65097    274.15864    -112.5087    36397.316 
  344800    296.91655   -1563.7836    453.76387    218.44313   -375.69657    36397.316 
  344900    299.03553   -1552.9797    462.80047    247.76427    -98.57863    36397.316 
  345000    298.68465   -1563.6369    498.21798    270.95469    -742.2848    36397.316 
  345100    295.22387   -1514.9771    472.78712    278.69946   -559.53655    36397.316 
  345200    297.64487   -1556.8569    456.37522    231.23982   -731.86112    36397.316 
  345300    299.34298   -1543.4634    467.18815    263.04382   -141.63019    36397.316 
  345400    299.92581   -1513.7895    490.32564    318.46295    449.46641    36397.316 
  345500    298.65361   -1547.7749     492.2068    280.66665   -257.11992    36397.316 
  345600    306.94548   -1530.2037    485.60241    328.73294   -81.846542    36397.316 
  345700    301.55243   -1584.8677    479.43991    243.77684    420.37678    36397.316 
  345800    310.11828   -1554.6724    474.53916    307.39669     428.0277    36397.316 
  345900    298.29404    -1565.805    460.59734    229.41828   -62.230002    36397.316 
  346000    305.53526   -1536.6724    488.48599    318.83821    90.983724    36397.316 
  346100    301.86395   -1558.1627    464.21964    256.65542     295.2293    36397.316 
  346200    296.35372   -1541.9426    462.48673    246.48872    588.47789    36397.316 
  346300     302.9702   -1552.2986    512.03171    315.28118    284.53976    36397.316 
  346400    297.48917   -1518.7824    480.46703    292.70944    395.29227    36397.316 
  346500    301.16736    -1516.555    480.63758    311.56428    986.13841    36397.316 
  346600    301.23864   -1550.6402    481.60262    278.76315    374.88093    36397.316 
  346700    300.20928   -1581.2622    479.84897    241.78189    693.81247    36397.316 
  346800    302.30509    -1595.191    453.93016    211.31134    443.54076    36397.316 
  346900    301.41123   -1575.4277    436.42674    209.57196    374.01584    36397.316 
  347000    294.55877   -1554.8297    459.22981    222.31373   -48.702732    36397.316 
  347100    302.75246   -1596.7748    455.46917    213.26819    565.67074    36397.316 
  347200    302.98326   -1548.2218    481.30395    288.68861    139.83396    36397.316 
  347300     307.2388   -1579.9408    474.52191    269.22763    54.445056    36397.316 
  347400    297.69626   -1529.6571    458.92547    261.21979   -216.17214    36397.316 
  347500    295.72932        -1569    479.71087    233.86175   -255.07361    36397.316 
  347600    304.38975   -1594.6121    474.04714    241.33438   -104.81089    36397.316 
  347700    297.95161   -1605.4273    436.27951    163.94606   -445.03561    36397.316 
  347800    286.52666   -1555.7324    469.33249    195.57643    232.33815    36397.316 
  347900    296.63641   -1542.2555    472.01749    256.97142    332.25086    36397.316 
  348000     293.2201   -1524.5502    480.40476     267.7787     26.62282    36397.316 
  348100    300.97534    -1557.497    473.68018    262.80585    78.831403    36397.316 
  348200    299.91176   -1563.6775    488.74655    266.93301   -415.42645    36397.316 
  348300    305.08483   -1539.4931    449.58406    275.10026   -25.671872    36397.316 
  348400    291.72818    -1541.136    459.46896    223.58196    240.28649    36397.316 
  348500      299.231   -1584.5503    489.92031    244.18815   -175.84285    36397.316 
  348600    311.88622   -1568.0272    472.91845    300.33131    238.70487    36397.316 
  348700    298.24617   -1571.8141    477.03037     239.6281   -65.896052    36397.316 
  348800     296.5179   -1582.3249    473.01381    217.36814    322.08763    36397.316 
  348900    293.94655   -1608.4126    493.61378    200.37557   -31.599725    36397.316 
  349000    315.96677   -1558.2311    481.64023    337.10632    80.918853    36397.316 
  349100    298.49592   -1547.3654    496.89443     285.0582    127.41476    36397.316 
  349200    306.51491   -1556.0313    480.88836    296.26478    397.12537    36397.316 
  349300    300.24224   -1551.4272    471.99203    263.90737   -176.97607    36397.316 
  349400    299.92378   -1573.0248    464.71205    233.60501    -39.95845    36397.316 
  349500    295.68254    -1593.446    457.58097     187.0766    153.73877    36397.316 
  349600    301.57454   -1558.5969    472.44328    263.14994    230.00339    36397.316 
  349700    300.93256   -1537.4173    489.98845    299.00232    304.47285    36397.316 
  349800    300.76293   -1509.5036     468.9092    305.07785    257.18938    36397.316 
  349900    298.74858   -1532.2423    466.86602    271.28338    121.51691    36397.316 
  350000    293.29613   -1566.9307    492.34845    237.68212    310.25223    36397.316 
  350100    298.25435   -1536.2529    511.09597    309.29142    263.43012    36397.316 
  350200    298.60792   -1547.3846    458.14916    246.79486    280.14608    36397.316 
  350300    304.95461   -1537.9838    523.68384    350.12673    300.58059    36397.316 
  350400    294.48873   -1529.4279    496.82443    284.99679    112.36391    36397.316 
  350500    305.74352   -1545.5535    505.59882    328.00174   -41.477975    36397.316 
  350600      296.525   -1496.6296    517.69608    347.77744    36.102113    36397.316 
  350700    296.94234   -1558.2904     485.3867    255.67454    71.494411    36397.316 
  350800    308.33098   -1525.5131    489.20148    343.22153   -69.394511    36397.316 
  350900    302.80842   -1529.2441    506.81718    332.39727    330.54055    36397.316 
  351000     309.5498   -1563.2602    496.58884    318.31506    300.27726    36397.316 
  351100    298.34461   -1502.3337    483.02753    315.54608    67.486521    36397.316 
  351200    288.39023   -1492.1466    493.78946    291.95729   -310.78944    36397.316 
  351300    298.77403   -1552.5858    492.04452    276.23227   -160.92339    36397.316 
  351400    297.39841   -1573.8401    482.28776    239.06646     254.0874    36397.316 
  351500    299.84962    -1575.232    487.47016    253.82408    454.80064    36397.316 
  351600    299.90389   -1587.2227    484.20867    238.81475    262.46019    36397.316 
  351700    298.89838   -1504.4186    488.94526    321.85653   -537.74186    36397.316 
  351800    309.91342   -1518.2368    465.81356    334.19016   -366.52793    36397.316 
  351900    307.55599   -1509.9875     475.7464    341.82468   -206.57339    36397.316 
  352000    300.11965   -1526.7161    477.30279    293.38081   -395.00454    36397.316 
  352100    303.14657   -1557.3037    486.41785     285.4513    129.79548    36397.316 
  352200    308.42796   -1513.7212    494.68566     360.9316   -69.476539    36397.316 
  352300    293.24324   -1528.4312    499.15824    282.75475   -346.06871    36397.316 
  352400    301.48165   -1526.4263    498.86339    321.32503   -504.79101    36397.316 
  352500    294.00419   -1539.9403    466.74402    242.23612   -178.16228    36397.316 
  352600    296.65835   -1557.3901    479.58062    249.49804   -745.80649    36397.316 
  352700     301.5008   -1531.8511    496.66226    313.78484   -399.51266    36397.316 
  352800    295.27131   -1532.0312    488.17087    277.24134    461.40184    36397.316 
  352900    314.01104   -1530.4416    493.23672      367.742    227.56196    36397.316 
  353000    297.93558   -1503.8194    496.35843    325.56115    96.865791    36397.316 
  353100    298.83116   -1560.7992    481.55743    257.78734   -300.24761    36397.316 
  353200    293.77856   -1582.4141    483.86543    215.87413   -827.67436    36397.316 
  353300    299.31065   -1579.5364     495.4366    255.07472    -942.0618    36397.316 
  353400    294.23955   -1573.7185    472.54503    215.31195   -505.15029    36397.316 
  353500    306.38914   -1553.5495    513.59814    330.89371   -244.73097    36397.316 
  353600     285.2116   -1549.4224    476.45257    203.12278   -287.50302    36397.316 
  353700    304.01355   -1555.1536    488.81124    293.87379    686.71786    36397.316 
  353800    310.18445   -1570.2444    492.12288    309.70448    490.85831    36397.316 
  353900    310.91199   -1577.2591    481.73688    295.55893     751.2856    36397.316 
  354000    302.64633    -1574.071    472.67541    252.70344     177.9885    36397.316 
  354100    299.95448   -1584.9807    453.97494    211.04931   -167.18919    36397.316 
  354200     295.1586   -1603.1494    466.61972    184.06767   -126.81467    36397.316 
  354300    299.39951   -1568.6913    483.94319    254.82394    431.35837    36397.316 
  354400    302.90824   -1578.4292    465.12624    241.96783   -200.30888    36397.316 
  354500    301.26738   -1577.8218    470.05358    240.16104    13.779054    36397.316 
  354600    291.19456   -1538.7205    491.25182    255.39288    283.26669    36397.316 
  354700    300.62157   -1578.2652    466.75528    233.52986    78.170685    36397.316 
  354800    295.93014   -1566.0685     472.9632    230.94411     148.2219    36397.316 
  354900    290.72537   -1507.3339    491.75427    285.18265    -285.5849    36397.316 
  355000    299.63683   -1478.8494    487.25502    349.03948   -234.01031    36397.316 
  355100    301.58945   -1499.4961    498.13742    348.01159   -927.19675    36397.316 
  355200    301.92927   -1483.0093    507.71545    375.59688   -645.62424    36397.316 
  355300     313.0021   -1497.2263    491.29032    394.49671   -347.11069    36397.316 
  355400    296.97687   -1470.9768    483.95534    341.71125    63.041501    36397.316 
  355500    293.84323   -1524.4039    504.51454    294.82281   -482.28847    36397.316 
  355600    307.44623   -1519.2326    465.09298      321.435    160.40509    36397.316 
  355700    299.48641   -1551.8865    472.61653    260.69089   -250.79211    36397.316 
  355800    299.77268   -1561.2143    469.35931     249.3867   -610.04432    36397.316 
  355900    290.57954   -1528.2387    476.94199    248.81309   -200.81275    36397.316 
  356000    297.84874   -1487.2213    493.11017    338.52248    707.98674    36397.316 
  356100    299.43197   -1539.2939    504.19974    304.62314    202.09629    36397.316 
  356200    302.51271   -1555.5874    475.38311    273.29679    41.558902    36397.316 
  356300    304.92974   -1522.1868    466.22614    308.35474   -59.778984    36397.316 
  356400    293.13643   -1512.5717    494.01581    292.99388   -463.50262    36397.316 
  356500     296.0897    -1520.259    458.59138    263.09571   -425.36837    36397.316 
  356600    301.08572   -1550.5237    469.34487    265.93765    79.341233    36397.316 
  356700    294.67999   -1507.7142    476.09873    286.84056    145.32459    36397.316 
  356800    307.75372   -1512.6081    499.09027    363.43256    272.88894    36397.316 
  356900    295.22751   -1536.8928    468.93368    252.94662   -656.25922    36397.316 
  357000    306.14206   -1536.0836    451.58928    285.24518   -37.745357    36397.316 
  357100    306.02885   -1561.6006    488.16775    295.80016     155.8319    36397.316 
  357200    297.59374   -1533.7097    485.16755    282.95056    34.348165    36397.316 
  357300    304.06133   -1516.9666    473.88582    317.34914   -105.87592    36397.316 
  357400     308.3256   -1544.3116    491.08244    326.27997   -45.748811    36397.316 
  357500    297.18952        -1544    491.82043    277.50459   -231.15595    36397.316 
  357600    294.68652   -1550.4908    459.28045    227.27491    12.787705    36397.316 
  357700    303.23436   -1561.3693    484.70173    280.06234   -435.65438    36397.316 
  357800    296.79055   -1565.3353    463.94016    226.50397   -217.64754    36397.316 
  357900    304.15055   -1568.5322    480.29002    272.58694   -498.99814    36397.316 
  358000     298.1069   -1529.5772    494.29409    298.50554   -119.31446    36397.316 
  358100    308.69304    -1505.992    461.14813    336.30922    378.84117    36397.316 
  358200     297.9086    -1593.305    469.27786    208.87429     263.2107    36397.316 
  358300    312.99967   -1517.5782    475.19188    358.03551    493.16786    36397.316 
  358400    303.36436   -1533.9308    484.42351    307.80423    431.81454    36397.316 
  358500    299.58511   -1500.8301    493.14933    332.72166      182.963    36397.316 
  358600    303.34534   -1509.0818    484.08017    332.22488    200.15629    36397.316 
  358700    312.62556   -1525.3921     469.9243    343.28018    917.51841    36397.316 
  358800    289.56816   -1562.6494    476.48497    209.42027    41.025921    36397.316 
  358900    307.08999   -1517.6052    465.15381    321.52934    137.30475    36397.316 
  359000    297.11443    -1533.536    493.34828    289.16038   -117.33135    36397.316 
  359100    313.44579   -1567.6744    463.65451    298.39794    970.15293    36397.316 
  359200    297.95261   -1516.4478    487.82687    304.47736    738.58738    36397.316 
  359300    302.93131   -1525.0478    490.05261     320.3788    225.35105    36397.316 
  359400     303.1069    -1524.199    483.93052    315.89112    319.30178    36397.316 
  359500    307.33004   -1531.6938    488.69395    332.05496    606.94524    36397.316 
  359600    307.21073    -1530.524    490.21088    334.20787    1049.5336    36397.316 
  359700    293.36463   -1546.8236    454.87024    220.61745    470.84621    36397.316 
  359800     294.7777   -1559.9539    478.76766    237.70696     345.4459    36397.316 
  359900    298.87714   -1555.8029    485.79857    267.23056    314.36132    36397.316 
  360000    294.49239   -1541.5622    477.63591    253.69037    632.19512    36397.316 
  360100    291.21524   -1530.0183    503.76979     276.7055   -120.28493    36397.316 
  360200    299.71426   -1543.5742    449.18827    246.59435    120.25628    36397.316 
  360300    289.20201   -1512.7341    492.15359    273.36592    477.84858    36397.316 
  360400    300.32085   -1542.6466    474.93173    275.97948    348.02607    36397.316 
  360500    304.11814   -1491.2135    493.68542    363.15608   -372.16901    36397.316 
  360600    295.01244   -1545.3079    456.38425    231.01983   -845.10871    36397.316 
  360700    307.28775   -1503.7214    500.22591    371.37004   -184.44549    36397.316 
  360800    299.94077   -1554.1998    479.27099    267.06494    110.59015    36397.316 
  360900    310.80003   -1531.1851    458.90336    318.29844   -84.501207    36397.316 
  361000    312.03539   -1537.8257    488.17333    346.45506    153.35745    36397.316 
  361100    303.17786    -1499.225    490.97996    348.23208    417.50898    36397.316 
  361200    302.24723   -1508.0572    485.80588      330.062    252.04326    36397.316 
  361300    291.93253   -1499.6967    482.48432    288.95099    220.63583    36397.316 
  361400    297.45422   -1539.7954    474.97757    266.05068   -371.15007    36397.316 
  361500     295.5615   -1524.4952    484.13466    282.03953   -104.92715    36397.316 
  361600    310.42097   -1482.3197    497.67186    404.23641    281.86817    36397.316 
  361700     298.7232    -1544.194    497.20898    289.56108    237.06609    36397.316 
  361800    303.06301   -1505.6298    465.56027    315.89372    145.52881    36397.316 
  361900    302.34304   -1535.0537     469.6533    287.34162   -209.74255    36397.316 
  362000    299.10231   -1507.9784    488.73022     318.9942   -27.353769    36397.316 
  362100    300.19679   -1507.6207    478.91353    314.43202   -245.98815    36397.316 
  362200      289.099   -1525.5003    485.67505    253.66028    44.451579    36397.316 
  362300    310.74707    -1507.102    465.65184    348.89314   -313.64299    36397.316 
  362400    295.71688   -1546.1466    469.34707    246.29573       80.521    36397.316 
  362500    304.12562     -1505.98    477.00217    331.73977     195.8572    36397.316 
  362600     300.3722    -1507.179    481.11059    317.85561    1050.6464    36397.316 
  362700    296.37731   -1544.7794    485.39544    266.66619    303.63426    36397.316 
  362800    305.42046   -1521.2009    479.98397    325.29402    341.46676    36397.316 
  362900    297.59728   -1520.1925     482.0363    293.35235    818.46894    36397.316 
  363000    296.45355   -1530.5586    457.26312    253.09581    418.03931    36397.316 
  363100    302.65305   -1516.6699    475.08347    312.54261    212.01061    36397.316 
  363200    298.18481    -1536.147    486.79359    284.78385   -53.383665    36397.316 
  363300    300.32636    -1520.589    463.46131    286.59127   -103.80966    36397.316 
  363400    300.40433   -1543.7313    442.19132    242.52784    -489.7936    36397.316 
  363500    300.08441   -1512.3328    490.43796    320.74164   -376.34055    36397.316 
  363600    303.55525   -1496.7687    489.31587    350.71288   -99.397256    36397.316 
  363700    298.09171   -1515.0949    476.42901    295.05477    102.29426    36397.316 
  363800    297.41994   -1519.1525    479.25813    290.82071    379.59393    36397.316 
  363900    297.03314   -1511.3119    468.31388    285.98649   -441.86871    36397.316 
  364000    301.77577   -1518.5248    468.06677    299.74593   -204.36544    36397.316 
  364100    301.53348   -1546.4497    438.46258    241.13269   -651.62817    36397.316 
  364200    315.72524   -1560.8757    473.82913    325.56994   -336.41194    36397.316 
  364300    295.70416   -1553.4757    477.42152    246.98418   -109.32148    36397.316 
  364400    308.48185   -1529.8527    468.97104    319.32655    335.09627    36397.316 
  364500    306.72342   -1562.8604    470.31452    279.79476    246.13831    36397.316 
  364600    297.89895   -1539.5759    457.18893    250.47125    684.74076    36397.316 
  364700      302.279    -1566.002    453.53695    239.99037    218.43662    36397.316 
  364800    306.09235   -1553.4248    476.57268    292.66504    530.04375    36397.316 
  364900    298.50667   -1541.2203    464.23268     258.5897    59.339699    36397.316 
  365000    303.60908   -1534.4237     460.5129    284.49566    403.28464    36397.316 
  365100      294.742   -1546.0033    473.97001    246.70015    696.49983    36397.316 
  365200    300.52998   -1529.3319    470.14848     285.4466    314.98102    36397.316 
  365300    294.20637   -1551.8485     476.0607    240.54919   -100.85488    36397.316 
  365400    306.44944   -1559.4134    462.71977     274.4212   -249.03561    36397.316 
  365500    300.13986   -1570.4208    450.14115    222.60484    140.26548    36397.316 
  365600    299.52361   -1552.0406    509.40449    297.49116    968.03788    36397.316 
  365700    305.96477   -1557.8898     471.8062    282.86272   -46.370485    36397.316 
  365800    295.64669   -1527.4097    463.77443    259.14593   -32.354689    36397.316 
  365900    301.61117   -1517.8662     486.2372    317.83847   -284.20975    36397.316 
  366000    305.34244   -1545.3877    491.14348    311.91772    -123.5212    36397.316 
  366100    294.36652   -1511.0067    443.13366     249.1804   -846.79264    36397.316 
  366200    294.31062   -1495.0904      472.684    294.39697   -180.66262    36397.316 
  366300    310.91705   -1516.3374    487.21525    361.98162   -330.14091    36397.316 
  366400    288.87342   -1562.2626    465.17787    195.39155   -17.052542    36397.316 
  366500    305.01533    -1538.097    472.77642     299.3777    18.418975    36397.316 
  366600    299.32224   -1574.2815    446.67067    211.61544    43.505803    36397.316 
  366700    304.52991   -1525.2942    455.13128    292.36353   -852.23752    36397.316 
  366800     302.8291   -1528.2167    452.89689     279.5969    -716.5524    36397.316 
  366900    295.99998   -1532.2619    477.82251    269.92249   -863.59398    36397.316 
  367000    291.19899   -1552.5686    463.08319    213.39594   -622.35081    36397.316 
  367100    300.82097   -1531.2364      474.008    288.70357    291.93801    36397.316 
  367200    298.58931   -1538.8634    463.48984    260.57348   -114.10155    36397.316 
  367300    296.17626   -1541.0986    466.02523    250.07723   -125.23268    36397.316 
  367400    290.51064    -1516.917    466.77321    249.65776   -176.70776    36397.316 
  367500    294.77671    -1515.755    451.58919    254.72288   -340.79853    36397.316 
  367600    313.76475   -1548.0721    471.00389    326.77679    13.521443    36397.316 
  367700    295.31734    -1518.816    479.03458    281.52622    52.756201    36397.316 
  367800    293.81424   -1504.9055    491.30638    300.98333    498.75015    36397.316 
  367900     308.9212   -1540.0063     488.9448    331.11245    1004.6315    36397.316 
  368000    297.43146   -1554.7924    490.33651    266.31067     837.8843    36397.316 
  368100    297.45947   -1588.7881    476.99195    219.09579    1097.5496    36397.316 
  368200    297.99791   -1527.0562    474.28938    280.53417    694.94878    36397.316 
  368300    305.67169   -1547.7288    491.74189    311.64811   -132.97397    36397.316 
  368400    307.25485   -1554.7784    455.43829    275.37825   -52.714592    36397.316 
  368500    295.88605   -1545.1906    449.18815    227.84963   -482.72932    36397.316 
  368600    295.24944   -1544.5018    472.72567    249.22775   -352.24711    36397.316 
  368700    302.32702   -1580.1673     458.7167    231.21973   -475.01659    36397.316 
  368800    284.61053   -1566.1027    496.70196    204.00255   -511.23436    36397.316 
  368900    294.58638   -1549.2688    476.57757    245.34597   -214.55427    36397.316 
  369000    308.58285   -1524.8458    456.63171    312.44602   -604.96481    36397.316 
  369100    304.88271   -1507.9516    492.76978    348.92316   -236.01328    36397.316 
  369200    295.95963   -1487.2855    484.37192     321.2678   -365.05518    36397.316 
  369300    300.30571    -1516.754    482.17935    309.05191   -193.72916    36397.316 
  369400    303.02747    -1512.331    488.42947    331.90273    52.647906    36397.316 
  369500     303.1196   -1519.0964     481.8844    319.00448    138.87486    36397.316 
  369600    295.30209   -1546.0449    462.93095    238.12549    167.06326    36397.316 
  369700    310.38172   -1541.7816    483.51591    330.44292      540.342    36397.316 
  369800    294.20628   -1490.0295    463.37641    289.68348    647.56538    36397.316 
  369900    297.37634    -1534.812    500.77375    296.48173    404.53874    36397.316 
  370000    292.20562   -1525.3119    476.09541     258.1687    435.76956    36397.316 
  370100    296.25883   -1551.0161     474.8745    249.37848    2.2056985    36397.316 
  370200    300.47845     -1525.63    464.72195    283.49138     621.4008    36397.316 
  370300    295.98375   -1512.5892    487.47374     299.1738    362.80802    36397.316 
  370400    294.25207   -1536.2637    477.14529    257.42301   -247.61635    36397.316 
  370500    298.96558   -1522.5857    494.77305    309.81789   -200.32107    36397.316 
  370600    303.53862   -1531.5775    472.52652    299.04024    238.53988    36397.316 
  370700    291.62622   -1534.2946    491.56218    262.06035    144.13144    36397.316 
  370800    304.73751   -1575.8279    464.54896    252.17636   -283.42054    36397.316 
  370900    305.62107   -1518.3949    475.96371    324.97734   -310.74006    36397.316 
  371000    301.51659   -1524.8905    493.35843     317.5122   -391.15638    36397.316 
  371100    305.22964   -1546.9225    469.94613    288.68085   -92.571875    36397.316 
  371200    314.77522   -1528.4353    465.91081    345.84149    122.38234    36397.316 
  371300    301.71886   -1518.8942    487.94767    319.00277    321.95117    36397.316 
  371400    296.48531   -1574.5106    450.73115    202.75385    74.647884    36397.316 
  371500    300.35981   -1540.2253    496.36465    300.00803     200.6255    36397.316 
  371600    310.92761   -1577.8767    470.45213     283.7265    463.01479    36397.316 
  371700    306.04817   -1543.8191    496.17455    321.67498    132.86787    36397.316 
  371800    299.64412   -1520.7575    473.02332    292.93234    93.600876    36397.316 
  371900    302.36492   -1518.8864      482.946    316.89947   -28.632825    36397.316 
  372000    302.65082   -1557.4218    476.20485    272.90213   -3.5732407    36397.316 
  372100      299.544   -1543.3245     453.1136     250.0076    18.201094    36397.316 
  372200    302.35159   -1575.4332    460.62422    237.97125    236.60408    36397.316 
  372300    300.74693   -1534.0996    485.40825     296.9093   -16.642182    36397.316 
  372400    300.87807   -1576.9308    459.36078    228.61738   -473.89424    36397.316 
  372500    299.10014   -1571.5042    478.33878    245.06723   -699.27097    36397.316 
  372600    301.92913   -1577.7995    441.71149      214.802   -90.470816    36397.316 
  372700    297.58008   -1555.9255    493.80359    269.30965    83.318087    36397.316 
  372800    306.99641   -1531.9175    470.18939    311.83393   -661.76247    36397.316 
  372900    288.49973   -1559.1236    473.17387    204.85457   -634.43883    36397.316 
  373000    290.57099   -1561.4281    470.83103     209.4745   -394.91878    36397.316 
  373100    291.51954   -1544.5599    488.52416    248.27981   -350.50272    36397.316 
  373200    310.63413     -1536.13    469.14017    322.84814   -331.05403    36397.316 
  373300    295.01415   -1563.3131    484.57816    241.21612   -509.32128    36397.316 
  373400    293.36024   -1568.0642    466.30108    210.78808   -333.30027    36397.316 
  373500    293.19422   -1583.9036    485.98433    213.88913   -1119.4843    36397.316 
  373600    298.29501   -1571.0104    457.34472    220.96468   -861.17263    36397.316 
  373700     296.6065   -1529.8736    462.92355     260.1255   -409.77869    36397.316 
  373800    295.19135   -1522.2881    476.67697    275.13275    109.33907    36397.316 
  373900    305.62766   -1499.2894    485.81574    353.96435   -142.01279    36397.316 
  374000    299.85274   -1484.4668     480.1085    337.24156   -57.211944    36397.316 
  374100    293.99783   -1512.3711    478.20313    281.23591    315.83177    36397.316 
  374200    297.94057   -1564.6499    480.51036      248.905   -346.32861    36397.316 
  374300    296.50339   -1555.9087    462.82139    233.52693    602.08306    36397.316 
  374400    295.36276   -1615.8692    458.34597    163.98764    278.40272    36397.316 
  374500    304.00861   -1598.2933       476.72     238.6208    569.41017    36397.316 
  374600    298.03275   -1521.3777    455.96474    268.04399   -16.363791    36397.316 
  374700    299.15475   -1568.9988     472.3668      241.845   -104.67456    36397.316 
  374800    299.58388   -1544.3896    455.19624    251.20357   -801.17772    36397.316 
  374900    306.36152   -1542.3333    461.53878    289.92687   -366.20007    36397.316 
  375000    288.86224   -1531.5891    476.81499    237.65219   -227.91093    36397.316 
  375100    297.57327   -1552.3026    470.55388    249.65236   -255.04733    36397.316 
  375200    299.01466   -1517.3107    488.18952    308.72895    117.96538    36397.316 
  375300    290.31152   -1501.0233    479.26294    277.15021   -62.432137    36397.316 
  375400    294.50665   -1504.5735     480.0983    293.20528    250.22899    36397.316 
  375500     292.0718   -1476.5232    485.26519    315.52844    47.244114    36397.316 
  375600    308.08964   -1515.2065    481.43769    344.68464      73.7775    36397.316 
  375700    296.98916   -1503.3299    472.55111    298.00894   -78.377494    36397.316 
  375800    304.86485   -1456.7471    476.94281    384.22073    -201.3772    36397.316 
  375900    316.87148   -1472.5213     485.9461    431.16985    -667.6914    36397.316 
  376000    305.29921   -1493.1022    466.30383    339.17007   -649.89012    36397.316 
  376100    296.38199   -1498.5494    455.80237    283.32403   -760.39007    36397.316 
  376200    295.96153   -1466.6447    460.64826    318.19338   -531.00587    36397.316 
  376300    305.94899   -1490.3767    482.35163    360.85068    -474.4433    36397.316 
  376400    296.36161   -1526.9446    457.64932    256.68462   -275.78232    36397.316 
  376500    299.76202   -1512.9734     506.3509     334.5715    -112.4417    36397.316 
  376600    305.12476   -1514.3448    474.98171    325.82485    99.686513    36397.316 
  376700     303.2291     -1529.67    467.97722    295.01361    378.17617    36397.316 
  376800    288.99542   -1519.4562    484.24953    257.81541    436.89181    36397.316 
  376900    312.84172   -1526.9907    461.86527    334.58974   -68.390438    36397.316 
  377000    307.55082   -1531.9881    450.90894    294.96346    275.20079    36397.316 
  377100    310.66971    -1560.816    485.47657    314.65769    374.34032    36397.316 
  377200    311.37134   -1588.1195    479.67377    284.69059    233.27496    36397.316 
  377300    292.25103    -1524.936    484.24282    266.89517    333.39814    36397.316 
  377400    285.77271   -1555.7691    460.67664    183.51059    809.18506    36397.316 
  377500    302.83074    -1625.514    453.48307    182.89312    -47.60582    36397.316 
  377600    303.69042   -1600.4509    445.89844    204.21792    140.52296    36397.316 
  377700    302.59186   -1578.7311    495.67412    270.79827     249.7853    36397.316 
  377800    296.89766   -1591.8864    450.44943    186.94131   -181.85804    36397.316 
  377900    292.81147   -1570.5111     477.6886    217.27342    -292.0063    36397.316 
  378000    304.94372   -1560.7591    497.93467    301.55344   -431.75453    36397.316 
  378100    299.84502    -1615.954    463.51698     189.1283   -153.62094    36397.316 
  378200    296.90534   -1585.9877    461.68536    204.11029    563.94436    36397.316 
  378300    310.01146   -1581.7207    457.02744    262.35873   -6.6696643    36397.316 
  378400    307.60325   -1606.0792    456.88012     227.0781    426.69477    36397.316 
  378500    301.74687   -1614.7868     468.0213     203.3091      474.783    36397.316 
  378600    297.09603   -1603.7843     483.2964    208.77792    214.72755    36397.316 
  378700    313.73275     -1579.41    479.36708    303.65883    657.79555    36397.316 
  378800    290.82707   -1553.9709    482.29718    229.54351   -4.9881952    36397.316 
  378900    300.59026    -1576.655    454.18544    222.43014     455.6451    36397.316 
  379000      295.957   -1604.8958    454.52325    173.79706    283.10834    36397.316 
  379100    297.77434    -1571.575    494.82238    255.54812    36.643119    36397.316 
  379200    298.14816     -1572.34     469.0864    230.71967   -28.287639    36397.316 
  379300    308.67233   -1564.4714    465.34056    281.92964    532.92625    36397.316 
  379400    312.66393   -1529.5757    479.31862    348.66255    140.47095    36397.316 
  379500    301.46187   -1553.9476    468.33924    263.19113   -353.35651    36397.316 
  379600    300.02583   -1580.5702    486.10739    247.91155   -5.4178394    36397.316 
  379700    300.06817   -1572.0625    452.96237    223.46359     78.76191    36397.316 
  379800    301.28627   -1598.4937    451.35018    200.87028   -233.81233    36397.316 
  379900    301.69853   -1538.4181    454.18868    265.62886    183.64665    36397.316 
  380000    300.05043   -1568.7628    492.91122    266.63284   -29.678595    36397.316 
  380100    299.35058   -1539.3016    495.24868    295.30015   -192.39875    36397.316 
  380200    310.33451   -1554.0494    454.08778     288.5357   -69.420916    36397.316 
  380300    298.82302    -1568.715    482.14279    250.42055    60.917484    36397.316 
  380400    299.44551   -1536.6368    469.73623    272.87735   -240.53226    36397.316 
  380500    311.40004    -1593.824    453.43681    252.87754    510.20061    36397.316 
  380600    296.63365    -1588.687    452.28252    190.79255    646.32261    36397.316 
  380700    293.12217   -1516.6801    459.95647    254.76236   -44.849312    36397.316 
  380800    289.18179   -1546.1184    463.09943    210.83696   -429.26515    36397.316 
  380900    293.71234   -1575.6806    459.71092    198.15685   -668.40866    36397.316 
  381000      298.158   -1559.5813    470.57918    245.01524   -609.01212    36397.316 
  381100    303.12208   -1568.6143    467.09141    254.70467   -522.52713    36397.316 
  381200    293.65981   -1561.9547    462.71838    214.65518   -1003.5302    36397.316 
  381300    294.62523   -1578.7738    467.07892     206.5161   -581.01029    36397.316 
  381400    296.56426   -1560.4437    471.84047    238.28336    330.17854    36397.316 
  381500    293.82825   -1551.7116    494.24024     257.1738    303.52616    36397.316 
  381600    308.27624   -1554.4892    449.82952    274.62862    643.18452    36397.316 
  381700    302.82429   -1589.8939    475.47013    240.47137    1059.5106    36397.316 
  381800    298.33629   -1571.7218    452.27185    215.36507    800.19265    36397.316 
  381900    312.36189   -1510.4336    499.89173    387.02639    999.05256    36397.316 
  382000    303.72191   -1526.2214    475.75917    308.44908    427.17348    36397.316 
  382100    293.40141   -1548.3957    486.68131    251.02097   -13.097629    36397.316 
  382200     292.6115   -1551.2875    495.50346    253.41717    71.771419    36397.316 
  382300    303.00931   -1533.2885     445.5508    267.98534   -59.719668    36397.316 
  382400    298.21471   -1527.1658    469.59453    276.69979   -198.73188    36397.316 
  382500    312.79156   -1566.9593    459.13604    291.66743   -122.50761    36397.316 
  382600     298.2768   -1543.4955    492.06428    283.11757   -79.945756    36397.316 
  382700    291.65903   -1579.7513    466.64417    191.83246   -448.34148    36397.316 
  382800    310.94705   -1608.6153    455.99152    238.61422    5.6079281    36397.316 
  382900     290.8442   -1565.5096    461.13347    196.91783   -227.57551    36397.316 
  383000    299.82293   -1531.3137     477.3947    287.54755    -352.7174    36397.316 
  383100    301.57948    -1558.429    460.76294    251.65956    -177.0484    36397.316 
  383200    306.45845   -1542.2857     460.9326    289.80205   -371.01709    36397.316 
  383300    288.79786   -1556.9119    453.00235    188.22869   -615.23573    36397.316 
  383400     294.2893    -1548.239    470.56518    239.03417    174.67321    36397.316 
  383500    297.06212    -1517.038    482.97282    295.04891    -27.08037    36397.316 
  383600    305.79415   -1569.6081    462.96976    261.54454   -581.44773    36397.316 
  383700     296.0505   -1582.8472    454.66693    196.40767   -97.657471    36397.316 
  383800    295.46458   -1562.6608    479.35088    238.65652   -186.13275    36397.316 
  383900    295.49091   -1598.1957    459.61156    183.50006    136.22731    36397.316 
  384000    309.48508   -1624.5155    453.39283    213.57425    442.50512    36397.316 
  384100    307.22571   -1621.2858    431.88497    185.18713    267.44911    36397.316 
  384200    300.11245    -1590.403    502.93842    255.29733    90.272634    36397.316 
  384300    299.65621   -1605.1067    455.41825    191.03212   -290.98867    36397.316 
  384400    301.11824   -1590.5014    503.98485    260.74541   -204.89321    36397.316 
  384500    297.22527   -1577.8915    454.59826    206.55083   -4.7772031    36397.316 
  384600    293.35448   -1591.1208    463.27789    184.68249     251.4111    36397.316 
  384700    299.83591   -1592.4969    472.59336    221.62105    338.41322    36397.316 
  384800    296.97449   -1556.1943    463.98321    236.51094   -84.264043    36397.316 
  384900    300.86328   -1562.2797    493.91642    277.75801    17.080427    36397.316 
  385000    302.19926   -1589.0621    464.80294    227.83954     64.06967    36397.316 
  385100    304.43013   -1581.6059    465.98193    246.45611   -362.91913    36397.316 
  385200    302.57326   -1553.5623    446.16468    246.37442   -143.76478    36397.316 
  385300    295.61122   -1609.0676     483.6367    197.19159   -149.83544    36397.316 
  385400     298.2814   -1584.8701    489.93588    239.63522    453.37866    36397.316 
  385500    301.08061   -1654.1626    483.70852     176.6395   -161.43506    36397.316 
  385600    291.99202   -1603.4645    438.93985    141.90485    569.18776    36397.316 
  385700    310.59534    -1622.367    482.16853     249.4659    357.63172    36397.316 
  385800    291.19537    -1575.358    492.64551    220.15263    244.74518    36397.316 
  385900    307.63091   -1590.8112    472.70197     258.2917    437.34357    36397.316 
  386000    291.56858   -1628.7695    473.02282    148.78829    63.810566    36397.316 
  386100     298.7402   -1629.8509    448.35763    155.12896    616.51272    36397.316 
  386200    295.67547   -1619.3165    466.88036    170.47385    451.51022    36397.316 
  386300    302.73422   -1569.9098    502.50816    287.09049   -59.956434    36397.316 
  386400    301.08895   -1598.7501    483.33645    231.71734    342.76567    36397.316 
  386500    297.40173   -1584.6827    461.15551    207.10636     922.9594    36397.316 
  386600    292.74213   -1572.7822        501.5    238.50348    667.39366    36397.316 
  386700    294.73759   -1573.0539    491.70064    237.36043    117.41903    36397.316 
  386800    301.65512   -1553.2863    487.29665    283.67442    605.91309    36397.316 
  386900    304.91468   -1584.4221    495.93397    275.75985   -3.8921216    36397.316 
  387000    297.40367   -1575.7833    449.36267     204.2217    418.81671    36397.316 
  387100    299.78196   -1582.5605    463.00444    221.72719   -404.58798    36397.316 
  387200    304.58416   -1575.5357    480.21772    267.45121   -535.60761    36397.316 
  387300    293.71808   -1569.0947    470.66646    215.72393   -680.77959    36397.316 
  387400    301.84578   -1563.8083     470.7655    257.47432    -697.0826    36397.316 
  387500    306.14728   -1551.0976    470.87084    289.53614   -669.87065    36397.316 
  387600    293.91314   -1532.3581    475.43566    258.10252   -624.35226    36397.316 
  387700    300.21525   -1506.0363     463.4575    300.64303   -284.22668    36397.316 
  387800    308.70429   -1565.6805    489.06976    304.59268    386.48539    36397.316 
  387900    282.87278   -1542.7248    475.89881    198.80227    350.33035    36397.316 
  388000    305.08568   -1528.1583    466.87558    303.73042    88.126227    36397.316 
  388100    309.40868   -1503.5227    477.17962    358.01198   -25.103082    36397.316 
  388200    307.18605   -1536.2818    478.49584    316.62457   -35.641178    36397.316 
  388300    300.64774   -1506.7354    471.92752    310.34903   -300.21058    36397.316 
  388400    298.22996   -1546.6404    473.29801    260.99691   -576.88004    36397.316 
  388500     301.6743    -1535.817    444.07577    258.00873   -611.62486    36397.316 
  388600    297.49329   -1522.5398    476.31927     284.8227    -6.688962    36397.316 
  388700    303.25932   -1531.1852    477.03723    302.69361    154.88986    36397.316 
  388800    302.28419   -1545.4792     490.3284    297.32785    386.35304    36397.316 
  388900    297.83551   -1563.8971    461.56387    230.24116    456.22469    36397.316 
  389000    295.90982   -1537.6341     506.5663     292.8907    220.54609    36397.316 
  389100    302.51277   -1546.9312    475.69156    282.26173    58.319199    36397.316 
  389200    291.85155   -1577.3387    462.56821    191.03047    -204.3044    36397.316 
  389300    295.63335   -1542.3343    482.57963    262.96682    -523.0942    36397.316 
  389400    301.67717   -1544.2887    495.12003    300.59406   -940.37175    36397.316 
  389500    304.01391   -1549.6012    458.71714    269.33368   -88.464224    36397.316 
  389600    310.36701   -1567.5197    459.19748    280.32059    142.49988    36397.316 
  389700    288.75977    -1562.684    484.61673    213.90053    397.36537    36397.316 
  389800    298.02084   -1545.4264    470.57289    258.55007   -51.731395    36397.316 
  389900    295.02079   -1546.3968    499.61569    273.19972    527.33571    36397.316 
  390000    294.45013   -1554.9097     475.3638    237.88168    314.09831    36397.316 
  390100    294.54589   -1557.5505    484.63475    244.94022   -144.85784    36397.316 
  390200    301.04758   -1535.5757    486.34583    297.71598  -0.90438998    36397.316 
  390300    305.65508    -1509.974    501.75037     359.3371   -91.042697    36397.316 
  390400    301.38207   -1550.3111    475.66318    273.79451   -329.60311    36397.316 
  390500    295.96148   -1512.6311    477.37501    288.93358    -575.8447    36397.316 
  390600    304.27595   -1505.6831    491.72665    347.43381   -464.00176    36397.316 
  390700    300.60065   -1533.1018     494.6127    306.45703   -281.07771    36397.316 
  390800    301.17207    -1520.602    487.76639    314.66724    484.71578    36397.316 
  390900    293.49192   -1535.2572    464.67929    242.56246    85.625364    36397.316 
  391000    304.72028   -1533.5934    463.37637    293.16121   -97.227205    36397.316 
  391100     304.7652    -1467.547    514.13931    410.17148    200.87071    36397.316 
  391200    305.52693   -1507.4455    495.24514    354.78699    152.37362    36397.316 
  391300    312.71185   -1467.1064    490.44159    422.46923    294.07096    36397.316 
  391400    305.03125   -1493.3247    520.25031    391.69521   -181.86982    36397.316 
  391500    298.37381   -1517.5586    468.70606    286.13029    192.21974    36397.316 
  391600    296.52548   -1502.8018    480.97365    304.88499    192.00094    36397.316 
  391700     305.3263   -1494.2274    514.77062    386.63293    138.91273    36397.316 
  391800    291.59973   -1529.3775    468.52939    243.82623   -721.80349    36397.316 
  391900    301.49633   -1520.7367    500.76865     328.9856   -506.46884    36397.316 
  392000    300.16976   -1516.5787    486.27593    312.71554   -817.23132    36397.316 
  392100    300.64805   -1531.8971    495.60804    308.86921   -739.71969    36397.316 
  392200     300.9843   -1529.9851    479.15416    295.83183   -350.19441    36397.316 
  392300    303.45007   -1565.7882     454.9654    246.87229   -138.45844    36397.316 
  392400    301.88535   -1564.9564    456.26264    242.00038   -269.40042    36397.316 
  392500    300.19872   -1534.4241     487.4956     296.2194    120.09197    36397.316 
  392600    292.89057   -1531.8975    486.02405    264.57637    -143.5719    36397.316 
  392700    301.04834   -1538.6361    457.57405    265.88721     -440.398    36397.316 
  392800    305.70074   -1540.6362    487.99636     315.1252   -795.97657    36397.316 
  392900    298.00508   -1502.9717     504.1506    334.51197    286.73891    36397.316 
  393000    298.51113   -1516.1315    486.94825    306.41407    164.51627    36397.316 
  393100    311.23328   -1585.6281    471.82219    278.71278   -298.73176    36397.316 
  393200    295.36616   -1548.1948    470.80038    244.13166    269.60234    36397.316 
  393300    309.19284   -1556.2346     469.8298     296.9845    218.49713    36397.316 
  393400    312.90225   -1571.6981    466.21782    294.50566   -48.700771    36397.316 
  393500    295.65703   -1568.4577    469.68733     224.0571   -291.37698    36397.316 
  393600    301.46087   -1627.1325    461.41079    183.07326   -424.91469    36397.316 
  393700    305.69423   -1585.4968    464.53206     246.7711    -176.3943    36397.316 
  393800    300.13377   -1593.4427    487.77213    237.18671    301.18773    36397.316 
  393900    303.66043   -1520.6962    492.75448    330.69448   -137.92497    36397.316 
  394000    311.67743     -1523.96    493.07889    363.62475    538.33323    36397.316 
  394100    298.26811   -1562.5902    476.74258     248.6623   -17.224813    36397.316 
  394200    302.01403   -1596.7652    475.37568    229.88043      68.5207    36397.316 
  394300    306.59719   -1578.3259    476.20359    269.65359    -306.1369    36397.316 
  394400    292.73407   -1535.7266    455.59512    229.61812   -583.28707    36397.316 
  394500    293.78734   -1522.9891    496.29703    287.77005    -502.6353    36397.316 
  394600    289.35573   -1534.1501    479.39143    239.87558   -1039.7647    36397.316 
  394700    309.30061   -1505.5405    449.95132     328.2823   -305.87262    36397.316 
  394800    296.93008   -1498.2577    478.15617    308.42178   -279.56242    36397.316 
  394900    297.52013   -1505.0502    498.62675    324.73992   -38.970993    36397.316 
  395000    302.97416    -1519.408    481.28717    317.44492    196.73199    36397.316 
  395100    291.53211   -1511.9253    463.09364    255.54008     543.3487    36397.316 
  395200    301.04704   -1532.1468    473.34279     288.1394    92.360574    36397.316 
  395300     307.9908   -1567.5858    497.81135    308.23675    407.14843    36397.316 
  395400    298.29223   -1535.9883    450.72949    249.35903    814.51892    36397.316 
  395500    307.43793   -1522.8505    511.64616    364.33319    175.74122    36397.316 
  395600     299.9353   -1513.1548    454.54664    283.36109    136.32185    36397.316 
  395700    300.33526   -1517.9442    504.53181    330.34633    55.132345    36397.316 
  395800    297.45643   -1497.4211    467.23019    300.68743   -165.93242    36397.316 
  395900    297.13796   -1499.7186    476.70464    306.43948    77.577889    36397.316 
  396000    292.13496   -1514.2713    482.74494    275.54271    355.28555    36397.316 
  396100    296.21105   -1502.3041    491.17853     314.1807   -214.29472    36397.316 
  396200    294.38655   -1492.2759    472.54355    297.41078   -320.93292    36397.316 
  396300     301.7456   -1517.3312    482.33126    315.06898    238.31823    36397.316 
  396400    301.32552   -1512.8871    484.38761    319.68987     22.61763    36397.316 
  396500    307.12063   -1516.1688    470.56713    328.51618   -375.09029    36397.316 
  396600      300.175    -1512.265    446.86803    277.64475   -679.89456    36397.316 
  396700    313.13146   -1526.2462    482.71958    357.48485   -696.02227    36397.316 
  396800    306.59457     -1500.18    482.85579    354.43996   -300.45577    36397.316 
  396900    301.30827   -1450.1395    466.47396    364.44674      -184.75    36397.316 
  397000    291.89438   -1524.7653    465.41946    246.64674   -347.99612    36397.316 
  397100    302.74079   -1546.7663    479.90958    287.66484    289.16741    36397.316 
  397200    294.68749   -1533.7081    478.29646    263.07789    -27.42073    36397.316 
  397300     286.6494   -1510.6949    476.78342    248.61405    554.46152    36397.316 
  397400    301.85194   -1489.9493    475.71104     336.3065    13.312614    36397.316 
  397500    302.89875   -1484.2927    500.60592    371.54156   -289.94466    36397.316 
  397600    296.65884   -1571.8295    478.90705    234.38731   -429.09983    36397.316 
  397700    293.48768   -1496.8645    473.17319    289.43003   -180.54866    36397.316 
  397800    301.29374   -1521.3552    488.19516    314.88714   -446.51031    36397.316 
  397900    295.53559   -1524.6709    445.44707    243.06026    99.481323    36397.316 
  398000    301.66558   -1511.7025    524.01679    362.02519     51.86643    36397.316 
  398100    300.27851   -1537.1593    474.34293    280.68856   -143.34065    36397.316 
  398200    290.78474   -1502.8926    478.71437    276.84967   -216.09692    36397.316 
  398300    301.94131   -1529.5275    481.51776    302.93487    -287.7446    36397.316 
  398400    304.40602   -1494.6219    483.65445    351.00473   -129.11297    36397.316 
  398500    298.95619   -1483.8989    489.04891    342.73862   -242.17593    36397.316 
  398600    302.56591   -1538.3254    473.27076    288.68455   -28.844947    36397.316 
  398700     305.6157   -1539.5717     473.9976    301.81042   -257.92521    36397.316 
  398800    293.14762   -1571.2362    497.07447     237.4382   -194.44212    36397.316 
  398900    291.89142   -1576.6189    500.67793    230.03838     527.9134    36397.316 
  399000    298.79814   -1581.3763    494.95745    250.46258    48.111556    36397.316 
  399100    308.42476   -1577.7544    472.79862    274.99702   -45.047553    36397.316 
  399200    299.39361   -1566.3779    465.94658    239.11437   -646.87844    36397.316 
  399300    288.92458   -1546.6257    445.55251    191.63194   -149.43052    36397.316 
  399400    306.25189   -1567.4029    484.05823     286.8863    229.07065    36397.316 
  399500     306.7313   -1533.1086    491.13607    330.40336    701.06009    36397.316 
  399600     292.6771   -1556.2461    468.07459    221.32317    313.84653    36397.316 
  399700     293.3894   -1553.0688    461.69829    221.31117    183.77112    36397.316 
  399800    310.33515   -1579.9732    485.01358    293.54062    570.67005    36397.316 
  399900    296.39989   -1548.6192    469.77354    247.30548   -467.31479    36397.316 
  400000    304.11319   -1488.7197    482.36138    354.30372    179.65871    36397.316 
  400100    290.35088   -1544.8778    488.05075    242.25965   -412.61686    36397.316 
  400200    296.48433   -1497.0918    484.40248    313.83969   -839.70157    36397.316 
  400300    298.40274   -1539.8131    465.08968    260.38893   -1093.2325    36397.316 
  400400    305.22472   -1571.0018    452.26337    246.89678   -378.95455    36397.316 
  400500    307.50698   -1570.6691    477.85295    283.03034   -440.83829    36397.316 
  400600    298.16347   -1572.6755    487.18148    248.54775   -334.38552    36397.316 
  400700    316.65765   -1583.4283    483.77334    317.13337   -174.54283    36397.316 
  400800    302.86823    -1584.298    467.97618       238.77    266.05702    36397.316 
  400900     299.2278   -1545.2384    476.52912    270.09452   -54.544509    36397.316 
  401000    294.16448   -1523.3713    487.80547    280.58364    141.43589    36397.316 
  401100    291.68745   -1560.5627     482.1821    226.68618    456.23114    36397.316 
  401200    304.50333   -1555.5987     476.8267    283.63552    460.96857    36397.316 
  401300    293.28863   -1535.1716    508.38717    285.44632    567.90452    36397.316 
  401400    298.23961    -1532.188    483.81532    286.00976    87.547494    36397.316 
  401500    307.00646   -1519.2609    495.96698    350.31316    306.86988    36397.316 
  401600    302.85485   -1553.1983    459.15635    260.99001   -196.37816    36397.316 
  401700     297.1346   -1552.0658    501.68266    279.05526    -327.8422    36397.316 
  401800    299.76556   -1537.2999    472.81893    276.72886    198.80185    36397.316 
  401900    308.69228   -1547.7838    480.89863    314.26453   -197.08931    36397.316 
  402000    302.50257   -1561.7595    476.16114    267.85736    13.640759    36397.316 
  402100    295.01318   -1569.5465     462.8442    213.24447     520.8155    36397.316 
  402200    293.29471   -1517.7788    475.46525    269.94446    209.85423    36397.316 
  402300    304.60129   -1523.8738    477.53841     316.5105    835.81818    36397.316 
  402400    290.53508    -1501.984    513.47463    311.40149    45.250737    36397.316 
  402500    306.17952   -1533.6004    474.14824    310.45502     325.3968    36397.316 
  402600    301.24156    -1505.659    503.94872    346.10349    154.48923    36397.316 
  402700    307.88784   -1517.3742    488.78628    348.96258    116.73061    36397.316 
  402800     294.9952   -1559.7792    495.38762    255.47474    606.43449    36397.316 
  402900    302.38835   -1566.7566    480.94487    267.13295    149.34597    36397.316 
  403000    298.13729   -1567.0099     498.0233    264.93808    378.25648    36397.316 
  403100    307.73278   -1553.0432    468.11033    291.92384   -73.564496    36397.316 
  403200    290.90172   -1554.4997     500.5603    247.61187   -566.88218    36397.316 
  403300    308.17071   -1575.7579    478.75041    281.80861    864.08397    36397.316 
  403400    291.80379   -1553.7388    494.69702    246.54552    367.96931    36397.316 
  403500    291.00068   -1571.7114    475.91192    206.19458    815.67377    36397.316 
  403600    296.84201   -1543.7631    471.86268    256.22887     413.4555    36397.316 
  403700    295.00629   -1572.6789    482.25314    229.49017   -36.406025    36397.316 
  403800    297.86227    -1554.934    491.52051    269.28069    15.643231    36397.316 
  403900    317.38283   -1520.7032    475.55075    374.88048    -199.4918    36397.316 
  404000    309.84629    -1542.339    469.71397    313.68801   -36.994479    36397.316 
  404100    304.00012   -1564.7223    485.42394    280.85768   -420.41619    36397.316 
  404200    304.86665   -1563.5257    455.28236    255.78977    21.791685    36397.316 
  404300    287.46111   -1542.4055    485.20004    228.95185   -236.59914    36397.316 
  404400    293.72191   -1518.5989    503.90018    299.47061   -364.20411    36397.316 
  404500    302.17469   -1540.2128    453.64713    265.42303    10.508767    36397.316 
  404600    288.37151   -1544.9083    470.63936    215.96169    236.51476    36397.316 
  404700    295.07459   -1534.3743    516.54132    302.38851    617.30578    36397.316 
  404800    309.68307   -1571.5653    482.11546     296.1329    656.62966    36397.316 
  404900    297.73506   -1582.6983    503.81401    253.24072    252.20414    36397.316 
  405000    292.62811   -1558.6115    469.95168    220.61563   -123.37379    36397.316 
  405100    289.49567   -1508.8592    510.53958    296.94073    -406.9994    36397.316 
  405200    303.71633   -1544.3987    492.64909    307.13672   -604.72181    36397.316 
  405300    298.17708   -1584.8568    464.59016    213.83605   -45.218565    36397.316 
  405400    303.30719   -1600.8153    483.82629    240.06677    398.97268    36397.316 
  405500    300.40069   -1559.2193    490.81214    275.64437    124.85926    36397.316 
  405600    296.45634   -1550.9194    463.44298    238.92727    -683.1262    36397.316 
  405700    299.03891   -1549.3461    464.41934    253.03191    -164.6019    36397.316 
  405800    302.65593   -1586.7121    471.45053     238.8804    134.55383    36397.316 
  405900    293.84249   -1568.7648    503.06969     249.0138     846.8869    36397.316 
  406000    298.96083   -1542.6484    505.05636    300.01729    439.85915    36397.316 
  406100    299.70343   -1569.8402    501.34737    272.43897    72.932427    36397.316 
  406200    308.14142   -1561.6435    458.45824    275.49982    245.15629    36397.316 
  406300     302.2185   -1591.5354    480.77373     241.4231    93.223541    36397.316 
  406400    292.88007   -1569.1657    518.77685    260.01397    278.12201    36397.316 
  406500    295.95859   -1547.8156    486.33246    262.69356     504.5068    36397.316 
  406600    302.32675   -1516.3899    503.26935    339.54859    359.96294    36397.316 
  406700    302.85819    -1512.778    504.92136    347.19024    574.06172    36397.316 
  406800    295.61496   -1514.7759    518.12855    325.99184    679.87333    36397.316 
  406900    294.59696   -1537.7929    489.99007    270.28173   -81.097965    36397.316 
  407000     299.6138   -1540.3534      484.009    284.18647    149.59264    36397.316 
  407100     303.4469   -1536.0536    498.41305    320.04031    127.06647    36397.316 
  407200    291.74821   -1518.7696    494.62887    281.19796    169.60156    36397.316 
  407300    314.19861   -1524.8897    519.69039    400.58681    -430.5321    36397.316 
  407400    295.51276   -1533.1886      459.726    248.71939   -73.502931    36397.316 
  407500    292.22782    -1544.822    478.90402     241.5665     18.01705    36397.316 
  407600    307.82758   -1560.1047    508.11866    325.29484    90.673662    36397.316 
  407700    296.38997    -1585.472    500.68904    241.32379   -46.386543    36397.316 
  407800    294.21827   -1576.4243    478.50868    218.47456    177.60684    36397.316 
  407900    298.73423   -1570.2579     498.9848     265.3224    247.02095    36397.316 
  408000     306.6906    -1569.213    497.25056     300.2314     141.2101    36397.316 
  408100    314.40481   -1581.1219    463.90969    289.49646    632.90951    36397.316 
  408200    295.62486   -1606.2327    482.00524    198.45608    280.34408    36397.316 
  408300    287.52717   -1624.9152    484.95241    146.49003    247.21125    36397.316 
  408400     299.6836   -1606.5424    491.26921    225.56998   -58.413964    36397.316 
  408500    303.01178   -1596.4306    477.22088    236.52435    94.650844    36397.316 
  408600    298.28101   -1602.2313    509.67329     242.0097    584.58431    36397.316 
  408700    302.21485   -1567.7763    489.10236    273.49449    672.54797    36397.316 
  408800    301.06414   -1611.5323      483.567    219.05467    464.43844    36397.316 
  408900     296.7755    -1581.604    511.46877    257.69648    839.89112    36397.316 
  409000    302.49736   -1548.7321     492.9285    297.62881    353.11246    36397.316 
  409100    298.47079   -1549.0371    504.63307    291.01276    3.4710388    36397.316 
  409200    302.43671   -1582.3635    449.23254    220.03009   -331.27752    36397.316 
  409300    297.89603   -1622.1524    468.48625    179.17906   -229.55969    36397.316 
  409400    311.07153    -1602.685    465.35457    254.46455   -508.64821    36397.316 
  409500    302.11024   -1591.8582    481.73579    241.57802    -51.60302    36397.316 
  409600    293.92123   -1559.5495    486.98113    242.49278   -188.37003    36397.316 
  409700    298.46619   -1595.9617    501.90554    241.34008   -320.66276    36397.316 
  409800    308.12157    -1589.981    496.65358     285.2688   -275.88912    36397.316 
  409900    305.84156   -1586.4862    474.77132    256.68021   -303.58815    36397.316 
  410000    298.50812   -1593.6509    475.45981    217.39265   -295.60512    36397.316 
  410100    293.07541     -1563.85    487.35227    234.77904   -281.69945    36397.316 
  410200    305.84201   -1583.7833    490.39643    275.01022    84.000428    36397.316 
  410300     305.7546   -1549.6765    497.71359    316.04308    872.31437    36397.316 
  410400     301.0356   -1575.2389    510.43468    282.08803    524.45363    36397.316 
  410500    302.13028   -1618.4269    497.34899    230.71219    363.20811    36397.316 
  410600    299.57203   -1609.8687    489.61668     220.0919    483.92918    36397.316 
  410700     296.0841   -1619.4049    472.37922    177.71256    394.46886    36397.316 
  410800    305.89194   -1604.5244    484.37572     248.4718    367.62117    36397.316 
  410900    295.39907   -1571.4219    493.76306    244.01442    415.69475    36397.316 
  411000    310.04073   -1603.7847    492.86187    276.26014    834.37622    36397.316 
  411100    293.18565   -1573.4112    493.55168    231.91049   -66.658935    36397.316 
  411200    297.31188   -1569.3298     473.9792    234.88097    -50.16227    36397.316 
  411300    303.44515   -1557.2674    492.97956    293.38515    28.940964    36397.316 
  411400    307.02664   -1538.7822    505.67575    340.59087    344.17217    36397.316 
  411500    309.30992   -1555.2713    498.58707    327.22897    181.41994    36397.316 
  411600    304.44835   -1547.7458    492.94791     307.3637    48.199533    36397.316 
  411700    303.95919   -1516.9926     492.6225    335.60287    31.530738    36397.316 
  411800    292.91966   -1513.0647     482.4305     279.9457    -229.5162    36397.316 
  411900    301.02125   -1562.7715    498.86266    282.91917    75.689368    36397.316 
  412000    300.21355   -1569.6407    482.02136    255.59491     -396.949    36397.316 
  412100    297.20135   -1571.2058    475.63171    234.16296   -633.12213    36397.316 
  412200    292.56613   -1597.6639     480.9386    192.27286   -694.61087    36397.316 
  412300    307.76979   -1561.9259    462.70307    277.79947    -200.6856    36397.316 
  412400     294.4894   -1592.2241    471.82235    197.20153    127.83092    36397.316 
  412500    302.11599   -1547.1579    472.50909    277.07733   -263.58302    36397.316 
  412600    307.88752   -1561.8123    441.87936    257.61617    -672.1683    36397.316 
  412700    299.92462    -1593.297    465.39142    214.01588     -1069.88    36397.316 
  412800    299.13191   -1542.5957    465.93258    261.71162    212.13334    36397.316 
  412900     302.5472   -1559.8643     504.6134    298.40448   -322.09313    36397.316 
  413000    293.71276    -1562.891    479.31448    230.55184    -371.3429    36397.316 
  413100    305.67794   -1595.2672    471.05746    243.45324    254.70623    36397.316 
  413200    298.83978   -1612.4358    484.29272    208.92461    484.64076    36397.316 
  413300    309.55041   -1538.9434    501.89956    347.94536    323.68785    36397.316 
  413400    295.45247   -1552.3069    487.46975    257.07512   -176.96685    36397.316 
  413500    296.06575   -1526.6433    511.98553    309.99839   -8.3586559    36397.316 
  413600    312.07543   -1534.8296    482.47886     343.9359    412.45958    36397.316 
  413700    304.60293   -1616.8956    489.04426    235.00186   -35.535204    36397.316 
  413800    301.66127   -1550.6787    464.03109    263.04401   -385.27997    36397.316 
  413900     307.4705   -1544.9239    492.91564    323.67494    446.61142    36397.316 
  414000    292.11023   -1538.9747    500.78178    268.76544    968.46828    36397.316 
  414100    298.74545   -1572.8543    495.36097    259.15236    998.94509    36397.316 
  414200    302.38535   -1567.3497    516.74054    302.32216    1216.9242    36397.316 
  414300     301.4383   -1547.3775    460.13298    261.44945    281.59064    36397.316 
  414400    301.77676   -1551.0453    479.64928    278.81233    706.33565    36397.316 
  414500    295.91144   -1562.0851    497.18593    259.06655    581.44702    36397.316 
  414600    291.35747    -1529.997    501.44381    275.03724    478.61018    36397.316 
  414700     307.5461   -1533.5072    476.57046    319.08479    477.76268    36397.316 
  414800    310.16883   -1542.8097    490.95094     335.8974    310.57534    36397.316 
  414900    298.68131   -1589.8274    488.56357    235.09483   -293.62215    36397.316 
  415000     290.2351   -1548.4018     454.1604     204.3273    194.36588    36397.316 
  415100    301.49679   -1580.2797    485.50311    254.17913   -58.850067    36397.316 
  415200     283.6007   -1565.2746    498.27157     201.8821    120.84835    36397.316 
  415300    296.84671   -1560.4354    486.96416    254.67909    641.24031    36397.316 
  415400    307.21738   -1553.3056    486.21476    307.45983    959.54612    36397.316 
  415500    302.87756   -1625.6636     471.1216    200.59152    246.44126    36397.316 
  415600    297.37428   -1582.5615    485.66667     233.6159   -122.71264    36397.316 
  415700     295.4874   -1558.2449    468.30212    232.12571   -119.05043    36397.316 
  415800    295.73306   -1558.2689    484.90414    249.80292   -598.46039    36397.316 
  415900    293.76133   -1558.1089     492.4671     248.7039   -618.99549    36397.316 
  416000    303.18896   -1535.0324    472.62766    294.12208    30.889768    36397.316 
  416100    302.53219   -1561.2261    474.07781    266.43996   -214.80723    36397.316 
  416200    298.46785   -1551.9864    474.95192    258.36919   -297.56119    36397.316 
  416300    295.32425    -1550.089    483.17192     254.4214   -36.442274    36397.316 
  416400    312.09016   -1530.2927    468.25058    334.31037   -891.99072    36397.316 
  416500    307.57955   -1563.8983     474.5654    286.83825    234.52995    36397.316 
  416600    292.54445   -1541.1545    492.38938    260.13604   -579.84748    36397.316 
  416700    303.46083   -1510.8167     488.1754    335.10188   -134.82526    36397.316 
  416800    294.29803    -1564.217    461.89377    214.42381   -504.56219    36397.316 
  416900    301.47108   -1587.1178    491.32195    253.04479    -254.8247    36397.316 
  417000    301.26786   -1618.0502    459.95238    189.83356    42.199292    36397.316 
  417100    308.66933   -1592.7218     511.6208    299.94608    505.92182    36397.316 
  417200    298.57509   -1615.6035    449.01138    169.29129     106.8749    36397.316 
  417300    302.51983   -1554.4977    482.68455    281.71978    332.59875    36397.316 
  417400    297.04765   -1566.8079    470.21312    232.45461    56.077086    36397.316 
  417500    308.73649   -1554.2256    493.15357    320.27543    216.63867    36397.316 
  417600    299.38828    -1549.516    469.29282    259.29865   -316.29065    36397.316 
  417700    307.15436   -1533.3906    506.94898    347.82714    61.707342    36397.316 
  417800    294.42563   -1574.3189    475.81764    218.81671    221.57559    36397.316 
  417900    299.13545   -1598.0144    518.21926    258.59542   -64.792463    36397.316 
  418000    294.86535   -1570.3035    497.00592    245.98772   -253.55234    36397.316 
  418100    308.97436   -1565.1093    488.17606    305.47859   -34.388674    36397.316 
  418200    297.23503   -1566.2442    496.20022    259.84377    664.11243    36397.316 
  418300     304.0046    -1549.246    494.24484    305.17492    491.87352    36397.316 
  418400    297.59601   -1567.4699    465.41958    229.45256    482.04598    36397.316 
  418500    306.71391   -1565.5117    485.47908    292.26551    513.89621    36397.316 
  418600    297.27099   -1580.7052    487.04379    236.38721    -703.9514    36397.316 
  418700    296.41439   -1541.1312    511.59387    296.67878   -496.95706    36397.316 
  418800    293.50856   -1544.7511    507.87358    276.33728   -948.19808    36397.316 
  418900    306.73615   -1548.4467    484.39806    308.34897   -799.23813    36397.316 
  419000    294.81039   -1555.8199    471.97181    235.19138   -594.51764    36397.316 
  419100     300.6835   -1536.8544    507.89708    316.35958   -163.74247    36397.316 
  419200    297.71771   -1517.3682    494.33268    309.01183   -342.02898    36397.316 
  419300    302.71721   -1538.7069    469.75996    285.46917   -290.83542    36397.316 
  419400    296.99298   -1504.8462    491.37405    315.33261   -628.56026    36397.316 
  419500    297.85746   -1501.7885    523.14159    354.02574     -278.452    36397.316 
  419600    302.68195   -1521.7091    502.92178    335.47098    115.19191    36397.316 
  419700    291.61383   -1560.1378     499.8824    244.48198    287.46109    36397.316 
  419800    301.71109   -1535.7087    498.60336    312.80915    332.25887    36397.316 
  419900    299.67207   -1526.3524     490.1171    304.55622    275.49027    36397.316 
  420000    299.06068   -1567.2474    480.55817    251.36682   -435.80115    36397.316 
  420100    297.86322   -1539.5046     493.1763    286.37004   -446.47293    36397.316 
  420200    304.24908   -1544.6363    526.72745    343.36114   -217.32602    36397.316 
  420300    298.91818   -1558.0259    470.32819    249.72081   -335.01099    36397.316 
  420400    310.17079   -1566.1533    505.27855    326.89007   -300.37782    36397.316 
  420500    306.27187   -1576.5833    481.34255    275.07953   -305.63466    36397.316 
  420600    290.64396   -1595.8543    486.46121    191.00496   -584.13877    36397.316 
  420700    291.40824   -1582.4536    484.07541    205.43933   -8.2386148    36397.316 
  420800    300.35476   -1587.1207    509.18463    265.90992   -110.67362    36397.316 
  420900    309.06953   -1600.5663    469.79709    252.06843    450.50197    36397.316 
  421000    286.63333   -1583.4894    505.43732     204.4016    538.61799    36397.316 
  421100    296.33669   -1541.3143    524.46578    309.01988    99.179342    36397.316 
  421200    307.18023   -1565.4709    467.87834    276.79201   -100.87146    36397.316 
  421300    297.96589   -1595.0108    477.47971    215.62665   -540.95043    36397.316 
  421400    289.52233     -1524.77    509.83623    280.44588   -502.56713    36397.316 
  421500    295.83991   -1576.6213    484.97674    232.00113   -533.40165    36397.316 
  421600    294.91371   -1600.6789    509.19178    228.01458   -669.70078    36397.316 
  421700    295.39461   -1576.5627    498.24265     243.3333   -21.231864    36397.316 
  421800    297.58333   -1602.7604    507.18839    235.87411    250.00186    36397.316 
  421900    299.41274   -1608.9644    474.03019    204.69708    191.84437    36397.316 
  422000    306.95412   -1612.4004    471.29391     232.2664    43.681742    36397.316 
  422100    295.08256   -1586.0604    513.78986    247.98669    27.786917    36397.316 
  422200    288.17598   -1599.6541    501.43469    191.13636   -69.441573    36397.316 
  422300    311.86578   -1617.6805    525.90858    303.57669    149.24724    36397.316 
  422400    300.29639   -1609.9551    501.40392    235.03373   -458.63695    36397.316 
  422500    305.92836   -1610.5962    502.54293    260.73014    -289.4852    36397.316 
  422600     300.0637   -1580.4373    479.53931    241.64584   -241.00926    36397.316 
  422700    299.57359   -1559.0316    514.35264    295.67202   -221.67924    36397.316 
  422800    301.70494   -1585.6076    479.49075    243.77013   -696.32706    36397.316 
  422900    304.15886   -1557.4679    486.77907    290.17751   -319.19564    36397.316 
  423000    296.39463   -1526.1206    510.86845    310.87551   -833.49382    36397.316 
  423100    292.90921   -1580.3445     465.3784    195.56711   -1045.4029    36397.316 
  423200    296.87658   -1575.9822    499.01003    251.31184   -618.15984    36397.316 
  423300    304.46699   -1609.8219    497.09786    249.52089    104.07518    36397.316 
  423400    292.61279   -1592.2119    514.73796      231.733    -424.1655    36397.316 
  423500    307.06225   -1619.0286    458.32068    213.14876    106.53826    36397.316 
  423600    300.09437   -1627.4923     481.1508    196.33947    -376.2323    36397.316 
  423700    305.05194   -1596.0611    487.21827    256.01929   -300.69316    36397.316 
  423800    304.76612      -1622.2    518.49493    259.87827    136.42497    36397.316 
  423900    308.16534   -1614.4394    522.44671    286.79941   -324.14274    36397.316 
  424000    298.32219   -1605.4306    467.66402    196.98533    421.13048    36397.316 
  424100    306.60107   -1608.2931    484.51703    248.01718    161.42907    36397.316 
  424200    305.13686   -1569.0518    514.76741     310.9577    313.71573    36397.316 
  424300    308.39721   -1572.7202     498.1069    305.21625    290.44194    36397.316 
  424400    297.92069   -1572.0136    477.89081     238.8327   -121.68095    36397.316 
  424500    301.45258   -1551.1933    475.89203    273.45664   -171.03433    36397.316 
  424600    291.15264   -1528.1571    509.79182    284.30868   -636.50596    36397.316 
  424700    290.36178   -1572.7137    470.88683    197.30855   -817.98368    36397.316 
  424800    297.76688    -1603.508    490.58508    219.34438   -730.41847    36397.316 
  424900    306.48167   -1557.3317     493.5026    307.42999    -512.7032    36397.316 
  425000    295.93863   -1602.1691    463.17551    185.09382   -449.58464    36397.316 
  425100     309.9166   -1597.6483    471.12321    260.10247   -886.30814    36397.316 
  425200    298.86805   -1584.9076    492.96953    245.25607   -957.05378    36397.316 
  425300    291.79492   -1591.4692    521.93573     236.0141   -288.06131    36397.316 
  425400    300.63673    -1578.268    494.23941    261.07898   -343.03355    36397.316 
  425500    295.21554   -1575.0655    476.47138    222.25798   -276.19595    36397.316 
  425600    305.95363    -1589.723    473.32265    252.49611   -132.63372    36397.316 
  425700    305.48126   -1624.9387    492.62381    234.46814   -614.72904    36397.316 
  425800    303.80419   -1591.8326    495.01262    262.45946   -122.47029    36397.316 
  425900    303.76889   -1594.2463    489.48777    254.36303   -62.266888    36397.316 
  426000    307.70204   -1571.2571    481.06574    286.52788    34.053119    36397.316 
  426100    296.75037   -1571.2992    490.58232     247.0024    -414.3755    36397.316 
  426200    296.11644   -1575.3096    478.43312    228.00644    451.91019    36397.316 
  426300    300.64169   -1556.1405    507.66325    296.65261    358.12076    36397.316 
  426400    294.58028   -1547.7427    494.12568    264.39281    303.47061    36397.316 
  426500    309.57525   -1547.3478    489.88454    327.63702    217.47296    36397.316 
  426600    296.18045    -1574.905    490.92575    241.19008   -97.150326    36397.316 
  426700    295.99844   -1532.8198    481.81679    273.35202   -195.94323    36397.316 
  426800    298.35874    -1587.565     471.0211    218.37156   -282.04258    36397.316 
  426900    294.52494   -1549.7627    464.75983    232.75941   -154.81638    36397.316 
  427000    301.33602   -1531.2678    493.27156    310.24011   -523.13919    36397.316 
  427100    297.74113   -1572.2472    503.02281    262.92773   -735.33377    36397.316 
  427200    300.23524   -1554.6794    493.42562    282.05753   -405.47404    36397.316 
  427300    298.53225   -1549.4146    504.09149    290.36867   -703.04869    36397.316 
  427400    299.62505   -1548.0946    478.61882    271.10537    295.86918    36397.316 
  427500    305.81871   -1571.4508     506.1647    303.00668   -660.30359    36397.316 
  427600    304.79888   -1529.4184    492.35311    326.66463    247.05572    36397.316 
  427700    300.69416   -1508.4187    527.77226    364.71819   -83.321885    36397.316 
  427800    302.68337   -1573.1397    470.10538     251.2304   -128.13193    36397.316 
  427900    295.83754   -1527.6783    498.64356     294.6004   -776.49148    36397.316 
  428000    308.97331   -1548.2379    497.62881    331.79803    -449.3498    36397.316 
  428100    305.18718   -1576.2148    484.20391    273.45629   -195.27161    36397.316 
  428200    297.93708   -1587.6321    493.49314    238.88991   -573.97431    36397.316 
  428300    286.86779   -1540.4421    511.52178    254.58239   -808.06245    36397.316 
  428400    302.86687   -1538.0951    503.53458     320.5252   -345.93293    36397.316 
  428500    306.69999   -1573.7357    487.09884    285.59894   -502.49638    36397.316 
  428600    302.47001   -1564.0645    511.81944    301.06502   -332.28108    36397.316 
  428700    288.46184   -1583.1497    469.00856     176.4936   -97.343532    36397.316 
  428800    301.32197   -1568.9307    493.38654    272.62931   -114.90216    36397.316 
  428900    299.48742    -1578.727    480.23258      241.471    419.25573    36397.316 
  429000    295.85489   -1611.6466    468.90861    180.97477   -44.431557    36397.316 
  429100    287.60505   -1595.5377    481.63583    172.89942    234.70637    36397.316 
  429200    300.20288   -1569.6171    489.08381    262.63319    109.05302    36397.316 
  429300    299.47247   -1562.4345    488.50882    265.97282   -343.68412    36397.316 
  429400    298.40765   -1556.7767    476.33568    254.69321    206.43015    36397.316 
  429500     292.0941   -1562.0783    515.90904    260.71698   -217.80646    36397.316 
  429600    297.17012   -1547.8246    500.67136    282.44406   -530.24291    36397.316 
  429700    312.91525   -1557.0341    475.17908    318.18909   -26.731137    36397.316 
  429800    297.31634    -1552.307     477.5033    255.44782    45.653114    36397.316 
  429900    307.88278   -1577.6363    492.76276    292.65437    265.17692    36397.316 
  430000    295.37282   -1574.3381    480.39577     227.6135    194.71513    36397.316 
  430100    308.95664   -1561.0809    482.62442    303.87602    364.87413    36397.316 
  430200    295.25638   -1539.0836    483.85234     265.8036    317.36301    36397.316 
  430300    297.23635   -1538.5933    517.29273    308.59312    522.64153    36397.316 
  430400    308.85475   -1551.7863    500.95647    331.04676    677.60485    36397.316 
  430500    298.17906    -1566.802    478.31308    245.62263    460.89686    36397.316 
  430600    297.70576   -1590.7418    496.41113    237.66325    301.14052    36397.316 
  430700    292.66664   -1571.5058    504.15779    242.09985   -551.53549    36397.316 
  430800    296.93446   -1544.0141    507.43222    291.96105   -266.65558    36397.316 
  430900    303.25216   -1553.9728    502.49023    305.32707    -186.3619    36397.316 
  431000    306.25949   -1529.4067    503.14004    343.99828   -274.12433    36397.316 
  431100    292.24635   -1531.7628     517.7897    293.59432    555.98028    36397.316 
  431200    309.30244   -1540.5106    510.61113    353.98023    715.48653    36397.316 
  431300    310.47499   -1576.0523     506.2705    319.34409    529.52863    36397.316 
  431400    293.64605   -1527.1193    482.72663    269.43724    311.92085    36397.316 
  431500    300.10833   -1494.8732    523.13092    371.00115    757.18723    36397.316 
  431600     303.6991   -1548.0586    519.39645    330.14708     693.6643    36397.316 
  431700    310.15071   -1574.1965    495.49985    308.97838    590.91213    36397.316 
  431800    305.44378   -1545.3748    488.48847    309.72896     821.1691    36397.316 
  431900    297.48101   -1563.6887    500.28511    267.58472    471.03908    36397.316 
  432000    290.96992   -1568.6191     529.9448    263.18215    36.768063    36397.316 
  432100    295.09649   -1562.2664    486.59908    244.65222    412.91696    36397.316 
  432200    295.68781   -1542.2041    504.58926    285.35034    209.41404    36397.316 
  432300      301.009   -1601.2622    517.87303    263.38405    85.337625    36397.316 
  432400    291.72722   -1582.6785      505.813    228.37924   -252.12435    36397.316 
  432500    296.34965   -1534.1933    503.31539    295.04849    241.62891    36397.316 
  432600    303.24716    -1559.659     527.1174    324.24561   -59.160668    36397.316 
  432700     292.2113   -1551.9196    526.77432    282.26536   -487.05436    36397.316 
  432800    304.98662   -1534.9705    486.60334    316.20277    98.322925    36397.316 
  432900    287.87291    -1538.259    532.26156    282.00236   -183.84104    36397.316 
  433000    292.14699   -1570.9156    489.24746    225.45474   -480.92696    36397.316 
  433100    309.38507   -1584.4904    495.63782    295.39678     171.5138    36397.316 
  433200    293.66175    -1578.633    493.22752    228.49469    108.60682    36397.316 
  433300    292.57914   -1564.0599    500.01009    245.00659    589.87674    36397.316 
  433400     294.1539   -1605.7444    489.99037     200.3481    616.42657    36397.316 
  433500    294.65482   -1662.6593    508.41371    164.09775    362.69687    36397.316 
  433600    308.86787   -1560.8285    508.80876    329.91565    66.710666    36397.316 
  433700    313.15071   -1572.4644    521.50045    350.13369    211.33037    36397.316 
  433800    307.75595   -1567.7693    504.18248    313.37364    366.53751    36397.316 
  433900     286.6164    -1565.837    487.24068    203.78155    385.26665    36397.316 
  434000    301.59899   -1616.4893    474.22787    207.15156    248.68609    36397.316 
  434100    294.23847   -1599.8284    502.28146    218.93355    343.35876    36397.316 
  434200    292.63436   -1629.0314    484.40519    164.67721   -174.63927    36397.316 
  434300    304.53532   -1575.5713    492.97217    279.95149    185.23837    36397.316 
  434400    293.83177   -1599.3479    494.24556    209.55862   -167.65545    36397.316 
  434500    298.72352   -1595.8403    472.38282    213.09011    112.14536    36397.316 
  434600    295.84782   -1574.2843    518.27697    267.67378     -152.712    36397.316 
  434700     290.7337   -1597.1292    475.33558     179.0059   -273.20364    36397.316 
  434800    303.16833   -1615.0932    497.65006    238.99137   -390.56687    36397.316 
  434900    304.91252   -1591.4906    480.78809    253.53583    69.180395    36397.316 
  435000    295.19312   -1555.8455    495.43179    260.33811     185.0008    36397.316 
  435100    303.99516   -1538.5408    511.46222    333.05534    381.25136    36397.316 
  435200    288.11848   -1552.2409    485.66134    222.51891   -251.52119    36397.316 
  435300    302.40766   -1556.8805    516.22499    312.37562    215.05656    36397.316 
  435400    312.46395    -1554.386     490.6854    334.32428     758.7363    36397.316 
  435500      292.918   -1596.2655    515.98214    230.28916    529.61737    36397.316 
  435600    307.51457   -1600.4781    521.93384    297.33614    427.85324    36397.316 
  435700    298.79292   -1590.1833    508.24265    254.91736    162.98583    36397.316 
  435800    301.21241   -1560.9312    513.40245    300.15455   -155.77241    36397.316 
  435900    293.95678   -1534.9875    490.22811    270.46083   -173.53925    36397.316 
  436000     301.3201   -1560.1735    504.81948    292.81114   -646.46961    36397.316 
  436100    295.90016   -1553.8233    505.69339    275.78542   -325.87657    36397.316 
  436200     312.0691   -1522.6835     504.1887    377.76351   -423.86572    36397.316 
  436300    296.83373   -1514.1073    510.03317    324.01816   -857.69149    36397.316 
  436400    297.25817   -1510.6322    512.32206    331.68117   -1372.0006    36397.316 
  436500    290.29145    -1518.647    489.90359    270.07736   -1501.5734    36397.316 
  436600    296.62769   -1571.3428    477.19881    233.02634   -965.68948    36397.316 
  436700    307.03118    -1537.583    501.09567    337.23032   -802.74567    36397.316 
  436800    288.84176   -1562.4614    492.34439    222.21755   -370.36805    36397.316 
  436900    308.68324   -1567.6288    491.93784    305.41828   -175.38377    36397.316 
  437000      296.822   -1548.7901    535.25291    314.50257   -185.71284    36397.316 
  437100    309.34518   -1545.9912    498.79248    336.87222   -55.358885    36397.316 
  437200    300.66817   -1581.0406    499.71611    263.92378   -831.68663    36397.316 
  437300    290.42797   -1555.9101    498.45275    241.97434   -375.09587    36397.316 
  437400    298.51576    -1586.601    475.36698    224.38398   -328.63775    36397.316 
  437500    303.35423   -1577.6218    482.75541    262.39986   -395.05314    36397.316 
  437600    298.42787   -1569.6159    476.42097    242.02987    209.32835    36397.316 
  437700    305.84322   -1549.9224    519.56545    338.04555    472.18173    36397.316 
  437800    295.81053   -1598.2781    508.30746    233.54361    447.26116    36397.316 
  437900    311.01383   -1633.9873    497.66288    255.21241    531.61242    36397.316 
  438000    300.52052   -1590.1627    506.33801    260.76293    998.43332    36397.316 
  438100    296.98062   -1626.4572    514.83222    217.12447    605.13103    36397.316 
  438200    297.97682   -1598.7834    497.66702    232.09034     897.3524    36397.316 
  438300    290.81481   -1596.5726    502.46693    207.05678    806.89848    36397.316 
  438400    297.17473   -1625.8225    503.15722    206.95267    279.09508    36397.316 
  438500    300.18679   -1591.0453    491.62313    243.67228    143.14727    36397.316 
  438600    286.50106   -1582.0835    493.54797    193.32637     16.86494    36397.316 
  438700    292.57083   -1565.7925    480.30155    223.52822   -447.10412    36397.316 
  438800    293.18709   -1545.5264    482.64273    248.89286   -388.29213    36397.316 
  438900    304.96206   -1559.3537    519.20579    324.31214   -316.29266    36397.316 
  439000    299.31191   -1565.7773    490.45377    263.85664   -334.16496    36397.316 
  439100    294.31787   -1578.7904    480.16331    218.20875    142.31772    36397.316 
  439200     298.4404   -1557.4338    514.88677    292.73379    128.27848    36397.316 
  439300    293.94442   -1561.4786     477.1625    230.84876   -478.69284    36397.316 
  439400    293.88607   -1591.6719    497.71245    220.94439   -367.23896    36397.316 
  439500    302.10829   -1573.0734    487.74874    266.36696   -322.10681    36397.316 
  439600    308.13756   -1625.7071    477.82122    230.78186    124.63705    36397.316 
  439700    308.47358   -1599.4682    476.81857    257.52161    48.660003    36397.316 
  439800    295.98095   -1643.5937    455.64029    136.32336   -393.17949    36397.316 
  439900     299.6847   -1615.3555    490.91465    216.40717    483.50898    36397.316 
  440000    302.80971    -1617.174    508.33947    245.99541    107.36453    36397.316 
  440100    302.00579   -1608.3189    470.20179    213.11598        34.85    36397.316 
  440200    302.70196   -1655.1412    480.14609    179.35272    517.66298    36397.316 
  440300    297.00806   -1614.9417    513.37228    227.30287    460.58585    36397.316 
  440400    291.72496   -1612.4805    473.69667    166.45079    24.247903    36397.316 
  440500    295.89183   -1621.1787    516.95844    219.65774    95.081459    36397.316 
  440600    300.24708   -1639.5521    463.58307    167.39519    622.15679    36397.316 
  440700    287.62382   -1641.5265    492.77774    138.13659    407.76472    36397.316 
  440800    297.82347   -1622.3294     477.4216    187.61278    280.15549    36397.316 
  440900     295.9197   -1643.0762    462.63226    143.55876    373.59813    36397.316 
  441000    307.34284   -1686.7172    460.83819    149.23301    84.135152    36397.316 
  441100    307.04272   -1657.3096    455.27964     171.7393   -263.87103    36397.316 
  441200    306.78697   -1648.9129    473.82732    197.53936    281.16873    36397.316 
  441300    305.13506   -1606.1836     485.9745    245.02495   -336.99253    36397.316 
  441400    293.57944    -1629.133    478.84162    163.24053    161.11022    36397.316 
  441500    303.41045   -1641.0331    489.54045    206.02516    471.59167    36397.316 
  441600    298.34357   -1597.3207     479.7117    217.23851    366.71631    36397.316 
  441700    300.53997   -1602.2442    469.53298    211.96344    93.107084    36397.316 
  441800    296.89298   -1604.3184    470.95416    194.99312   -254.60189    36397.316 
  441900    300.37832   -1606.3691    456.14724    193.72963    210.53941    36397.316 
  442000    294.45855   -1585.4047    486.68178    218.74233    580.81043    36397.316 
  442100    306.07951   -1528.9244    489.91718    330.45252    27.900653    36397.316 
  442200    303.57626   -1566.7653    513.76726    305.26155    482.72688    36397.316 
  442300    300.11019   -1562.2134     468.4958    249.03425     375.7566    36397.316 
  442400    310.61741   -1588.7886     491.7376    292.71207    580.67417    36397.316 
  442500    291.23047   -1612.2994    501.50376    192.22657    581.53746    36397.316 
  442600    304.10769   -1571.7571    474.54907    263.42939    480.86067    36397.316 
  442700     306.9792   -1529.3958    491.13467    335.22388   -28.772957    36397.316 
  442800    307.58058   -1529.5838    487.29717    333.88909   -213.50295    36397.316 
  442900    297.67244   -1556.0563    487.41355    263.20208   -125.91979    36397.316 
  443000    297.86058   -1565.8328    503.28114    270.13488   -65.967674    36397.316 
  443100    303.48431   -1575.0171     447.8698    230.70096   -639.82837    36397.316 
  443200    298.03535   -1564.3125    496.33977     265.4958   -652.03502    36397.316 
  443300    315.13244   -1510.1059    469.82712    369.68551    237.77134    36397.316 
  443400    303.30546    -1553.662    469.17381    272.55981    387.70997    36397.316 
  443500    304.07906    -1572.872    494.39625    282.03357   -109.73635    36397.316 
  443600    294.40647   -1525.6378    497.44383    289.03826    386.31787    36397.316 
  443700    292.56187   -1512.3545    508.69825    305.32281   -645.37734    36397.316 
  443800    312.83364   -1559.0487      491.295    331.92527    47.297603    36397.316 
  443900    299.31332   -1570.6335    470.73794    239.29087   -568.37716    36397.316 
  444000    290.32663   -1528.8122    468.60634    238.77229   -259.84981    36397.316 
  444100    304.97062   -1543.9173    490.12582    310.70684   -682.28939    36397.316 
  444200    288.32931   -1543.9504    475.77878    221.87023   -73.428266    36397.316 
  444300    295.50722   -1561.1145    470.94326    231.98592    31.758437    36397.316 
  444400    300.41648   -1560.4347    496.48264    280.17016    54.055178    36397.316 
  444500    304.00166   -1554.3245    467.51136    273.34984    16.825563    36397.316 
  444600    305.60534   -1544.0798    495.08208     318.3404    102.21946    36397.316 
  444700    299.71545   -1570.0386    474.47318    245.42024   -123.95209    36397.316 
  444800    304.62068   -1532.1786    473.86421    304.61818   -1190.7334    36397.316 
  444900    289.83554   -1496.4633    486.82889    287.14658   -724.80141    36397.316 
  445000    298.50866   -1525.1853    494.99599    305.39696   -803.13107    36397.316 
  445100    309.23743   -1525.9675      481.316    338.93729   -792.27262    36397.316 
  445200    299.28877   -1526.1395    524.70547    337.64256   -1194.5058    36397.316 
  445300    293.83239   -1491.6573    481.16039    304.16681   -778.39277    36397.316 
  445400    302.87829   -1509.9743     508.0575    353.22002   -719.30733    36397.316 
  445500    292.06238   -1562.1825    494.08205    238.64389   -380.13531    36397.316 
  445600    287.38567   -1531.9483    468.65046    222.52196   -48.502793    36397.316 
  445700    313.32478   -1522.8775    494.46592    373.46484    142.54188    36397.316 
  445800    297.20065   -1560.5946    471.95421    241.09357    84.483694    36397.316 
  445900    308.53213   -1524.4695    460.79422    316.75788    291.91805    36397.316 
  446000    300.26859   -1565.1512    496.97098     275.2803   -303.74016    36397.316 
  446100    301.11298   -1586.2829    479.49089    240.44647    384.14039    36397.316 
  446200    304.33773   -1586.0686    452.60923    228.20726   -124.03809    36397.316 
  446300    308.89898   -1560.5628    492.28918     313.8009    -84.53455    36397.316 
  446400    301.40642   -1528.7621    478.58429    298.37354   -386.07525    36397.316 
  446500    289.49596   -1568.7095    462.75715    189.30922   -572.92671    36397.316 
  446600    292.15217   -1559.4002    498.13685    245.88268   -76.607502    36397.316 
  446700    289.85149    -1565.836    460.34157    191.35784    207.96678    36397.316 
  446800    301.28054   -1570.0252    492.44553    270.40853   -256.36189    36397.316 
  446900    296.65277     -1557.08    489.20877    259.41134    160.15983    36397.316 
  447000    291.19533   -1605.5472    465.00131    162.31907    608.24816    36397.316 
  447100    300.61232    -1630.521    509.70224    224.17963    105.43119    36397.316 
  447200    310.23346   -1585.7525    459.56585    261.85866    741.48944    36397.316 
  447300    296.35589   -1594.1964    485.84057    217.59845    404.77911    36397.316 
  447400      294.016   -1556.4191    474.98825    234.05429   -408.26899    36397.316 
  447500    301.28011    -1541.568    469.89879    276.31701   -367.74488    36397.316 
  447600    306.81147   -1498.6401    495.48538    369.57992    49.857149    36397.316 
  447700    291.89026   -1601.5838     469.8092    174.19962   -232.55414    36397.316 
  447800    300.86455   -1576.3777    476.06398    245.81322   -174.83699    36397.316 
  447900    294.85934    -1543.506    497.97133    273.72375   -695.69147    36397.316 
  448000    285.09248   -1531.6512    463.38851     207.2969   -1413.5488    36397.316 
  448100    316.79574   -1537.2886    466.66091    346.77852   -312.33931    36397.316 
  448200    301.09472   -1527.4087    471.48748    291.23556    181.76609    36397.316 
  448300    302.17301   -1544.2796    496.16374    303.86536   -101.81861    36397.316 
  448400    303.11694   -1535.7478     446.1791    266.63584   -279.31345    36397.316 
  448500    298.03036   -1531.1788    485.25529    287.52268   -19.582788    36397.316 
  448600    304.25059   -1512.8148    498.20972    346.67172   -60.640237    36397.316 
  448700    304.36252    -1472.964    496.01106    384.82456    776.89306    36397.316 
  448800    292.47749    -1475.933    480.84314    313.51167    239.61243    36397.316 
  448900    302.14828   -1518.9063    481.34345    314.30776    654.37009    36397.316 
  449000    294.22235   -1522.2371    461.52858    255.69986    208.44775    36397.316 
  449100    307.11686   -1511.2082    503.58808    366.48084    643.30909    36397.316 
  449200    291.90866   -1518.8485    456.94688    244.15488    581.90506    36397.316 
  449300    305.97235   -1534.3159    496.11134    330.77569    730.44781    36397.316 
  449400    299.52517   -1535.8542    468.36339    272.64344     376.2453    36397.316 
  449500    295.74152   -1542.3565    480.32776    261.17673   -308.71399    36397.316 
  449600     291.2983   -1527.5922    474.71981    250.45327   -626.87262    36397.316 
  449700    312.54297   -1514.5719     452.2553    336.06183   -167.64267    36397.316 
  449800     292.4925   -1543.0544    489.56654    255.18085   -629.26608    36397.316 
  449900    309.32509   -1494.2536    481.40697    371.13441   -235.24826    36397.316 
  450000    300.14515   -1555.3078     491.2652    278.86562    296.26688    36397.316 
  450100    290.67026   -1542.5953    449.65926    207.57961   -19.950706    36397.316 
  450200     303.4551   -1516.9336    495.05125    335.83522    333.55013    36397.316 
  450300     296.4934   -1538.4225    459.16345    247.31053    83.860833    36397.316 
  450400    300.30154   -1549.7815    500.61056    294.43695   -70.215045    36397.316 
  450500    307.93864   -1566.1384     480.2124    291.85181     102.6404    36397.316 
  450600    287.06012   -1580.6088    451.64091     155.3953   -279.09732    36397.316 
  450700    298.53815   -1583.5936    458.74814    210.87271    351.47271    36397.316 
  450800    299.17949   -1583.0426    449.75091    205.29594    662.91302    36397.316 
  450900    290.26587   -1596.6307     458.3828    160.45844    900.06708    36397.316 
  451000    301.09979   -1573.3986    493.25615      267.037    880.50668    36397.316 
  451100    301.31172   -1533.5634    449.96288    264.52715    690.74582    36397.316 
  451200    309.95606    -1537.416    455.41596    304.80409    832.43988    36397.316 
  451300    312.28766   -1577.6411    442.98698     262.5821    150.10647    36397.316 
  451400    291.68046   -1562.0199    478.67102    221.68659   -263.90927    36397.316 
  451500    294.96629   -1508.1009    487.45828    299.09437    95.211457    36397.316 
  451600    297.54446   -1508.6299    484.66435    307.30663     231.1709    36397.316 
  451700    303.55079   -1545.8344    474.23473    286.54596   -43.509357    36397.316 
  451800    298.75652   -1521.3764    449.72904    265.04783   -365.83592    36397.316 
  451900    303.82007   -1520.1168    481.89616    321.12984   -344.13218    36397.316 
  452000    302.69609   -1541.5163    480.87677    293.68208   -446.36641    36397.316 
  452100    296.41277    -1539.598    460.49879    247.10962   -208.37686    36397.316 
  452200    303.44029   -1522.9803    463.05907    297.73004   -637.52983    36397.316 
  452300    296.07591   -1555.9262    446.75991    215.53531   -95.910172    36397.316 
  452400    297.84216    -1559.056     451.5211    225.06925    27.801859    36397.316 
  452500    291.33694   -1497.0533    503.62659    310.07187   -135.61054    36397.316 
  452600    297.76975   -1499.1691     487.5549    320.66597    155.18786    36397.316 
  452700    298.72316   -1470.5597    456.19522    322.18148    147.55916    36397.316 
  452800      305.161   -1464.0122    453.01877     354.3567   -48.681199    36397.316 
  452900    298.89362   -1479.7905    490.17617    347.69425    -571.2979    36397.316 
  453000    314.27292   -1483.5905    447.82799    370.35608   -436.26354    36397.316 
  453100    296.23317   -1486.4002    475.81769     314.8227   -548.76807    36397.316 
  453200    301.45819     -1517.91    493.71805    324.59107   -43.287316    36397.316 
  453300    306.53766   -1517.9563    481.03241    334.58567   -15.433897    36397.316 
  453400     297.2272   -1547.2438    467.25334    249.86224   -357.00138    36397.316 
  453500    301.60484     -1559.13    452.40412    242.71322    201.47863    36397.316 
  453600    307.82369    -1547.483    484.46808    314.24857    55.764312    36397.316 
  453700    308.18475    -1522.462    450.96402    307.38097    157.85355    36397.316 
  453800    301.23188   -1521.9495    498.95602    324.77695    726.09274    36397.316 
  453900     299.8201   -1511.0935    469.00186    299.36217    650.21595    36397.316 
  454000      304.891   -1505.3935    496.09985    354.84839    726.43195    36397.316 
  454100    304.57031   -1531.0668    482.36362    314.00404    781.54159    36397.316 
  454200    281.60968   -1543.5049    478.11572    194.58772     398.9196    36397.316 
  454300    307.37942   -1570.0531    464.72162    269.94427    85.997324    36397.316 
  454400    305.68866   -1572.0347    481.08686    276.76313     356.2484    36397.316 
  454500    301.90297   -1547.2397    465.58611    269.11942    54.314204    36397.316 
  454600    306.89984   -1517.3156    482.86037     338.6748   -286.23295    36397.316 
  454700    293.76444   -1550.1718    451.77361    215.96143   -735.47104    36397.316 
  454800    308.49779   -1541.8691    452.81913    291.22957   -733.72717    36397.316 
  454900    288.95859   -1592.7284    466.17772    166.30669   -559.81401    36397.316 
  455000    314.26722   -1536.3942    490.56335    360.26222   -357.54397    36397.316 
  455100    298.33027   -1530.9162    468.39507    272.26692   -340.39065    36397.316 
  455200    291.93019   -1559.5754     471.9792    218.55664   -538.95124    36397.316 
  455300     304.4916   -1563.1682    452.59451    251.78134   -572.97945    36397.316 
  455400    302.42871   -1522.4057    463.71605    294.43567   -199.00325    36397.316 
  455500    301.91514   -1471.4358    506.56768    385.95931     265.3371    36397.316 
  455600    298.02981    -1474.109    479.12433    338.45904     437.8419    36397.316 
  455700    307.43405   -1561.4835    450.74632    264.78302   -57.837105    36397.316 
  455800    302.52656   -1600.0262    455.22649    208.76341   -121.34813    36397.316 
  455900    304.55822   -1559.6851    477.47965    280.44773   -910.13266    36397.316 
  456000    306.23019     -1520.57     472.1569    321.72072   -411.36224    36397.316 
  456100    306.20974   -1536.0597    478.74975    312.73244   -465.63738    36397.316 
  456200    299.99088   -1491.4206    476.58342    327.38081    144.08626    36397.316 
  456300    301.09844   -1495.3918    504.62717    356.40875   -248.18971    36397.316 
  456400    304.22254   -1514.7868    475.95498     322.3194   -316.07079    36397.316 
  456500     296.7386   -1531.5692    467.08426    263.18168   -82.251487    36397.316 
  456600    301.10905   -1536.0206    459.63941    270.83964    -42.31749    36397.316 
  456700    308.58819   -1519.9343     485.7421    346.49184   -681.25207    36397.316 
  456800    298.20818   -1500.3251    460.59805    294.51477   -82.283854    36397.316 
  456900    304.74147   -1542.1141    484.35081     305.7097   -533.24226    36397.316 
  457000    300.21947   -1564.9705    457.09925    235.36952   -503.06124    36397.316 
  457100    298.01828   -1542.7911    459.59891        250.2     103.6413    36397.316 
  457200    298.84375   -1519.3528    473.69412    291.42683    162.77526    36397.316 
  457300    306.16472   -1539.1752    469.39843    300.06414    7.3787832    36397.316 
  457400    296.32439   -1540.2928    459.20883    244.72942    152.11806    36397.316 
  457500    308.86656   -1566.6826    479.27315    294.52001   -538.24723    36397.316 
  457600    296.23555   -1546.1987    457.29775    236.51495   -431.15553    36397.316 
  457700    298.07328   -1541.0221    471.19871    263.81482   -468.19671    36397.316 
  457800    294.28906   -1577.0116      476.782     216.4773   -364.87878    36397.316 
  457900    299.50014   -1537.5345    485.18987    287.67769   -416.22133    36397.316 
  458000    283.79761   -1566.2548    467.92814    171.43942   -332.22927    36397.316 
  458100    311.42326   -1538.0561    491.45471     346.7673    311.63335    36397.316 
  458200    288.85937   -1551.0639    464.57772    205.92722    1026.2676    36397.316 
  458300    300.87417   -1558.8357    473.21138    260.54567    1137.5482    36397.316 
  458400     297.1386   -1558.0669    459.84376    231.23318    1122.1476    36397.316 
  458500    288.17697   -1543.6824    468.72822    214.40609    671.27264    36397.316 
  458600    292.47674   -1560.4594     469.5404    217.67923    1396.9266    36397.316 
  458700     303.6268   -1530.5112    484.35814    312.33279    890.79927    36397.316 
  458800    300.02247   -1494.2852     488.1033    336.17744    980.42074    36397.316 
  458900    300.22662   -1544.7062    485.28859    283.85509    307.75601    36397.316 
  459000    298.41179   -1567.6235    447.51195    215.04123   -3.0725041    36397.316 
  459100     301.2499   -1514.2361     467.7347    301.34968     43.48489    36397.316 
  459200     301.4919   -1526.1272    471.88852    294.69513    272.65117    36397.316 
  459300    314.95533   -1517.1967    461.76375    353.73894    416.01302    36397.316 
  459400    306.03109   -1532.4265    497.81498    334.63153    599.10065    36397.316 
  459500    293.38522   -1556.0353    482.56257     239.1902    141.51863    36397.316 
  459600    309.24174   -1537.8366    504.34576     350.1173    669.48484    36397.316 
  459700    302.03586    -1536.613    456.19738    270.95192    5.3873229    36397.316 
  459800    307.12166    -1551.726     486.3794    308.77581    357.75682    36397.316 
  459900    295.43239   -1489.1924    480.52512    313.15506    -769.9864    36397.316 
  460000    304.87941   -1487.6006    485.39395    361.88356    -837.8294    36397.316 
  460100    304.96498   -1478.5597    464.10797    350.02128   -931.25751    36397.316 
  460200    291.77295   -1528.9109    486.84777    263.38615   -552.75266    36397.316 
  460300    293.08662   -1562.8013    469.75754    218.28313   -43.794124    36397.316 
  460400    303.50142   -1517.2348    482.81784    323.50785   -9.1734787    36397.316 
  460500    289.05849   -1527.0587    453.41515     219.6607    123.59467    36397.316 
  460600    298.63067   -1548.4279       464.72    252.42423    215.79782    36397.316 
  460700    309.33495   -1517.4259    426.36967    292.96896    -226.2605    36397.316 
  460800    305.18437   -1535.9827    430.13578    259.60771   -467.16404    36397.316 
  460900    305.73146   -1576.9186    469.98006    260.96391   -396.08918    36397.316 
  461000    303.74416   -1565.3986     434.0833    227.69559   -37.495904    36397.316 
  461100    291.70415   -1521.0918    470.51197    254.56172   -248.56522    36397.316 
  461200    289.90878   -1529.7491    491.06785    258.42741   -247.37666    36397.316 
  461300    290.45978   -1623.4957    434.73559    110.81389   -703.41139    36397.316 
  461400    295.90592   -1611.5947    425.81308    138.15943   -331.31157    36397.316 
  461500     293.7718   -1577.2293    505.66542    242.82867    -86.44989    36397.316 
  461600    296.70146   -1561.9868    442.88161    208.39525   -286.45405    36397.316 
  461700    301.47267   -1575.4357    451.48448    224.89662   -949.49831    36397.316 
  461800    297.25955   -1533.6566    445.67193    242.01283   -1400.8726    36397.316 
  461900    302.86264   -1565.8292    427.32868    216.56624   -940.37222    36397.316 
  462000    291.74147   -1579.4602    461.40944     187.2577   -769.85899    36397.316 
  462100     302.5704   -1583.1385    465.11675    235.73747   -163.78669    36397.316 
  462200    302.19761    -1566.047    469.14729     255.1916    539.81903    36397.316 
  462300    307.42302   -1546.9717     474.0019    302.50098    188.28309    36397.316 
  462400    308.52385   -1527.3299    453.41383    306.48008    604.76276    36397.316 
  462500    298.19071   -1481.0374    475.80389    328.93011   -69.072858    36397.316 
  462600    299.03653   -1536.2186    459.91805    261.64744    20.450864    36397.316 
  462700    301.35825   -1531.1708    495.03906    312.20404    457.96851    36397.316 
  462800    301.43709   -1531.7791    482.01322    298.92271    218.59269    36397.316 
  462900    294.04293   -1566.4051    457.48501    206.68559     494.3732    36397.316 
  463000    295.10305   -1574.5853    473.18041    218.94391    483.81312    36397.316 
  463100     306.1513   -1528.2227    480.26385    321.82205    445.21969    36397.316 
  463200     293.8589   -1556.4207    479.10022    237.46182    60.405646    36397.316 
  463300    292.00178   -1550.5778    475.78688    231.68227     485.3351    36397.316 
  463400    307.99209    -1565.938    471.68643    283.76535    15.335182    36397.316 
  463500    308.94242   -1544.9885    483.80177    321.08219    182.22013    36397.316 
  463600    296.16943   -1571.9855     473.9745    227.10901    367.41752    36397.316 
  463700    301.88154   -1558.6245    469.08365    261.13625    490.34179    36397.316 
  463800    297.02293   -1573.4442    477.87896    233.37353    20.682549    36397.316 
  463900     303.3743   -1633.1792    456.88867    181.06549    671.51173    36397.316 
  464000    304.91701   -1614.3986    469.07015    218.92998    403.46331    36397.316 
  464100    294.03375   -1571.8662    466.30833    210.00676    232.64316    36397.316 
  464200    301.62536   -1543.0906    461.38832    267.82868   -429.45055    36397.316 
  464300    297.44999   -1522.1745     474.6939    283.36891     30.62503    36397.316 
  464400    297.18436   -1559.9049    470.97437     240.7305    278.79101    36397.316 
  464500    302.51743   -1573.0794    495.01049    275.45329    418.22702    36397.316 
  464600    300.99844   -1553.7321     496.4853    289.47914    742.64323    36397.316 
  464700     297.4025   -1561.0406    470.53776    240.13423    736.58998    36397.316 
  464800    296.86392   -1559.9167    473.45024    241.76088    -205.4184    36397.316 
  464900    300.09384   -1556.4939    473.87254    260.05729   -87.185246    36397.316 
  465000    309.40062   -1546.2594    478.04611    316.10572   -383.22672    36397.316 
  465100    300.70037   -1520.1939    457.21256    282.41102   -229.51709    36397.316 
  465200    303.76401   -1518.1921    484.34922    325.25685   -170.15451    36397.316 
  465300     293.6164   -1548.4359    478.13753    243.39895    409.26162    36397.316 
  465400    294.02208   -1543.0841    481.98137    254.40966    197.43539    36397.316 
  465500    310.23178   -1547.7367    495.53143    335.83248    256.26565    36397.316 
  465600     301.1066   -1506.3311    452.64529    293.52416   -143.42371    36397.316 
  465700    302.82731   -1507.6159    487.20164    334.49444   -341.86397    36397.316 
  465800    301.59015   -1496.4503    490.59248    343.51558    128.36476    36397.316 
  465900    304.40054   -1532.9105    474.26259    303.29969    489.19962    36397.316 
  466000    304.41141   -1547.8779    485.82869    299.94703    815.74416    36397.316 
  466100    302.16113   -1506.3942    476.48557    322.01948    1046.5678    36397.316 
  466200    300.43068   -1540.9329    485.78713    289.03999     922.8167    36397.316 
  466300    305.18094   -1540.3864    477.90339    302.95625    694.74386    36397.316 
  466400    305.84249    -1556.909    477.14442    288.63467   -33.599524    36397.316 
  466500    300.81044   -1495.3818    467.53933    318.04236    21.812082    36397.316 
  466600    295.41486   -1542.7261    484.16741    263.18524   -95.067392    36397.316 
  466700    298.80271   -1512.5748    478.41983    302.74688    -156.6133    36397.316 
  466800    306.56384   -1501.1313    518.47721    388.97264    388.47292    36397.316 
  466900    291.53901    -1522.528    468.48023    250.35491    317.04801    36397.316 
  467000     301.7695   -1541.3861    476.03298    284.82276    261.73724    36397.316 
  467100     295.5041   -1539.3594     470.8996    253.68346    30.360624    36397.316 
  467200    306.76433   -1554.4986    471.57541    289.60053    436.19915    36397.316 
  467300    303.58401   -1562.5052    481.09348    276.88255    215.74685    36397.316 
  467400    298.38932   -1607.1385    470.10282    198.01657    218.46484    36397.316 
  467500    304.81468   -1543.6847    471.99241     292.1083    265.91886    36397.316 
  467600    294.53441   -1552.7017    497.88942    262.99241    352.13477    36397.316 
  467700    299.31929   -1508.0899    484.50215    315.62542    371.39563    36397.316 
  467800     298.4805   -1544.8101    483.41566    274.06573    439.76295    36397.316 
  467900     308.5463   -1533.2387    470.72191    317.97983    928.27658    36397.316 
  468000    309.04139   -1546.7109    484.25953     320.2603    777.58874    36397.316 
  468100    311.27651    -1559.342     476.6259    309.99593    570.27212    36397.316 
  468200    295.26721   -1543.5683     459.5788    237.09382   -26.160583    36397.316 
  468300    303.43028   -1553.7697    460.28326    264.12001   -603.58415    36397.316 
  468400    311.28203   -1529.4422    463.24144    326.53603   -682.06085    36397.316 
  468500    299.11941   -1503.7956    481.49331     316.0166   -1030.2089    36397.316 
  468600     317.9493   -1560.2385    480.35098    342.67998   -303.42712    36397.316 
  468700     308.1499   -1563.6172    500.46842    315.57421   -237.83134    36397.316 
  468800    297.98251   -1560.6309    493.79172    266.39294   -390.37371    36397.316 
  468900    301.73013    -1569.257    473.33752    254.08024   -706.23227    36397.316 
  469000    307.19219   -1561.7841    470.23227    282.88614   -540.46261    36397.316 
  469100    300.27811   -1573.5513    437.75111    207.70286    102.86006    36397.316 
  469200    288.55437   -1537.6259     473.3738    226.79666   -260.39921    36397.316 
  469300    294.93193   -1514.4837     482.8118    287.91134    120.67187    36397.316 
  469400     300.9546   -1499.3586    484.13196    331.30314   -114.81639    36397.316 
  469500    291.74944    -1533.752    472.68962    244.28178   -840.54477    36397.316 
  469600    298.08493   -1548.1869    478.63831    264.14179   -791.76485    36397.316 
  469700    297.81449   -1559.5995     491.6159    264.49679    241.08076    36397.316 
  469800    311.20611   -1532.1085    481.90749    342.19605   -673.85594    36397.316 
  469900    303.93083   -1492.2442     473.2352    340.83704   -349.27265    36397.316 
  470000    297.43546   -1521.7349    495.83399    304.88361   -369.69532    36397.316 
  470100    311.74895   -1571.9009    456.70173    279.62668    600.46619    36397.316 
  470200     301.8057   -1535.0515    489.08873    304.37511   -62.558838    36397.316 
  470300    289.05752   -1527.9967    499.62394    264.92719   0.98380602    36397.316 
  470400    295.60845   -1526.6914    466.85024    262.76894     207.0283    36397.316 
  470500    301.23915    -1566.451    487.46621    268.81818   -1.8871706    36397.316 
  470600    301.86682   -1552.9712    453.01858    250.65866   -139.68352    36397.316 
  470700     298.5938   -1540.2368    468.68142    264.41174   -302.68462    36397.316 
  470800    306.23956   -1538.1224    514.30784    346.36126    -310.7391    36397.316 
  470900    304.74264   -1489.8607    479.19589    352.81343   -150.69813    36397.316 
  471000    290.31215   -1516.7221    497.35861     279.5499   -142.05923    36397.316 
  471100    295.73476    -1504.356    483.46403    302.28322   -330.95963    36397.316 
  471200    299.78431   -1550.5928     492.2557    282.95664   -182.04458    36397.316 
  471300    307.23357   -1568.8681    493.92163    299.67667    64.506075    36397.316 
  471400    287.63485   -1594.2605    452.86763    145.54179    49.721728    36397.316 
  471500    299.08988   -1619.1716    464.23673    183.25185   -486.01534    36397.316 
  471600    308.95468   -1581.9914     471.7025    272.03489   -24.226768    36397.316 
  471700    292.95818   -1564.9641    484.74507    230.53327    226.52019    36397.316 
  471800    304.38206   -1581.7989     486.1184    266.18444   -13.253044    36397.316 
  471900    290.60367    -1577.534    454.28801     176.9718    496.97488    36397.316 
  472000    305.27433   -1555.8145    496.68502    306.72772    473.86273    36397.316 
  472100    293.74288   -1549.4136    496.28834    261.13792    7.9366803    36397.316 
  472200    299.89135   -1574.2316    446.51436    214.05543    13.510921    36397.316 
  472300    290.97891   -1578.4621    472.93727     196.3718   -100.70742    36397.316 
  472400    306.21741   -1595.9025    470.94105    245.11521    408.65471    36397.316 
  472500    301.46055   -1607.5778    476.32474     217.5405   -204.30915    36397.316 
  472600    298.83596   -1590.4029    493.33017    239.97793   -32.298142    36397.316 
  472700    309.27006   -1566.5956    477.92612    295.06535   -467.53637    36397.316 
  472800    297.79188   -1597.5295    480.14282    214.99253   -17.052562    36397.316 
  472900    307.50941   -1580.3726    468.29301    263.77772    93.823207    36397.316 
  473000    305.32506   -1573.9132    490.66602      282.837    348.54228    36397.316 
  473100    298.22955   -1630.6693    446.25054    149.91871    441.46532    36397.316 
  473200    306.36836   -1562.2738    471.83184    280.31011    612.44041    36397.316 
  473300    299.63048   -1613.9415    469.65064     196.3146   -368.90097    36397.316 
  473400    298.70909   -1569.8796    465.39847    232.00184   -543.99254    36397.316 
  473500    299.52443   -1588.7501    464.07395     215.4548   -606.91832    36397.316 
  473600    298.85505    -1576.763    474.62439    234.99746   -90.893364    36397.316 
  473700    308.18088   -1574.9534    469.24457    273.15282    169.62499    36397.316 
  473800    304.72898   -1558.6939    489.37761    294.10086    241.70881    36397.316 
  473900    302.21243   -1564.1474    471.58226    259.59242     66.59016    36397.316 
  474000    306.85453   -1554.4887    444.11286    262.55138   -366.03033    36397.316 
  474100    295.10405   -1557.6819    468.28172    230.95319   -85.554413    36397.316 
  474200    294.39771   -1592.5925    464.99423    189.59475    91.442974    36397.316 
  474300    297.46494   -1608.8192    481.56472    203.66187    203.72525    36397.316 
  474400    291.35598   -1562.9987    472.66942    213.25448    224.70163    36397.316 
  474500    306.71723   -1555.5688    472.61695    289.36111    473.76247    36397.316 
  474600    299.95821   -1545.5433    486.85727    283.38571    651.49385    36397.316 
  474700    300.00137   -1617.4992    458.30556     183.0712    622.25013    36397.316 
  474800    296.32873   -1570.7624    489.09995    244.17035     302.4799    36397.316 
  474900     300.7421   -1607.2392    449.41108    187.75096   -338.18218    36397.316 
  475000     304.0315    -1585.295    466.83149    241.83302   -281.08544    36397.316 
  475100    311.15089   -1580.8658    469.47557    280.75982    -145.8557    36397.316 
  475200    290.45731   -1628.7794    460.51915    131.30265    18.548683    36397.316 
  475300    304.00604   -1644.6306    456.27404    171.82606    353.08919    36397.316 
  475400    304.70707   -1581.6465    440.37387    222.04646    688.79477    36397.316 
  475500    304.98259   -1556.1942    490.76161    299.11926    117.89351    36397.316 
  475600    300.96235   -1533.5479    453.69521     266.7118   -43.224503    36397.316 
  475700    300.55756   -1600.6538    471.73304    215.83262    385.36462    36397.316 
  475800    297.58033   -1559.2046    446.49301    218.72108    37.277417    36397.316 
  475900    299.52699   -1573.7805    453.79239    220.15435   -1014.3145    36397.316 
  476000    301.45382   -1554.5359    436.27413    230.50164    -426.3034    36397.316 
  476100    301.34523   -1549.3302    486.80954    285.75687    53.948195    36397.316 
  476200    296.20742   -1575.2813    465.01998    215.02873    121.33047    36397.316 
  476300    307.88757   -1532.3656    440.73773    285.92141    40.522345    36397.316 
  476400    303.79714   -1523.5066    501.32577    337.06706    142.08877    36397.316 
  476500    299.25187   -1539.7032    432.53073    231.73904   -70.648265    36397.316 
  476600    296.72143   -1502.7474    473.55762    298.40001   -115.23452    36397.316 
  476700    316.15829   -1557.0581    458.15862    315.65467    467.60126    36397.316 
  476800    293.67379   -1587.8778    479.10351    205.17975    670.84642    36397.316 
  476900    308.54645   -1577.8253     463.1788    265.85078    1137.5017    36397.316 
  477000    308.10037   -1530.0104     490.4141    338.90506    712.28455    36397.316 
  477100     299.4876   -1542.3768    463.46685    261.05624    810.17439    36397.316 
  477200    297.96081   -1542.3541    473.00285    263.78376    181.01557    36397.316 
  477300    292.21435   -1530.6007    461.83413    238.65773   -43.081973    36397.316 
  477400    301.12096   -1550.4312    471.96465    268.80759   -120.73211    36397.316 
  477500    300.73731   -1532.4868     466.7138    279.78466    351.21627    36397.316 
  477600    299.77477   -1561.5987    451.51708    231.16941   -127.87638    36397.316 
  477700    295.00482   -1534.0196     485.1702    271.05997    447.03539    36397.316 
  477800    297.85576   -1575.1835     483.4513    240.93282    887.05705    36397.316 
  477900    292.82871   -1595.8411    474.55524    188.88716    441.62613    36397.316 
  478000    289.19013   -1546.1017    457.31588    205.10746    204.46036    36397.316 
  478100    301.81632   -1582.1894    481.77978    249.97576    114.97156    36397.316 
  478200     296.6457   -1586.5648    436.19244    176.87859    128.85626    36397.316 
  478300    301.67193   -1541.2856    462.25883    270.71255   -116.59138    36397.316 
  478400    298.15602   -1528.7699    496.08345    301.32202   -461.22177    36397.316 
  478500    296.36523   -1549.1878    489.70678     266.5151   -770.29338    36397.316 
  478600    299.89534   -1571.3015    470.52644    241.01545   -157.69896    36397.316 
  478700    296.17724   -1607.6197    476.11617    193.65145    -232.0401    36397.316 
  478800    310.78259   -1503.5841    468.72488    355.64295    20.153803    36397.316 
  478900    310.08332   -1546.2821    451.04867    292.14011    4.9918611    36397.316 
  479000    296.89507   -1559.2295    487.13675    256.27396   -437.17208    36397.316 
  479100    302.07975   -1554.0576    462.96791    260.47426   -181.88037    36397.316 
  479200    298.51743   -1568.0552    453.95849    221.52877   -243.50834    36397.316 
  479300    293.92886   -1579.8304    468.99231    204.25719   -555.07092    36397.316 
  479400    303.43729   -1551.2744    465.43933    271.80275   -237.75533    36397.316 
  479500    309.21484   -1584.6651     454.2303    253.05291   -153.68904    36397.316 
  479600    296.85638   -1558.8131    474.05084    243.43131     47.31767    36397.316 
  479700    302.64433    -1532.793    469.27861    290.57565   0.79740914    36397.316 
  479800    298.10447   -1526.0897    477.27459    284.96266   -678.35809    36397.316 
  479900    294.06492   -1559.1555     466.3915    222.94006   -131.04024    36397.316 
  480000    295.00247   -1579.6005    432.39402    172.69233   -206.08645    36397.316 
  480100    305.31346   -1507.7356    473.62851     331.9251    301.88732    36397.316 
  480200    298.38683     -1543.29    490.65934    282.41045    134.10668    36397.316 
  480300     313.0559   -1539.2603    454.23459    315.64769    38.113011    36397.316 
  480400    304.33008   -1567.7182    479.50974    273.42391   -30.251992    36397.316 
  480500    288.86348   -1573.4663    480.79873    199.76426    638.74394    36397.316 
  480600    303.26821   -1572.9445    436.93021    220.86713    625.00016    36397.316 
  480700    301.72865   -1570.2087    498.78162    278.56599    351.12488    36397.316 
  480800    299.40312   -1538.8879    451.85223    252.55255    436.74396    36397.316 
  480900    303.35604   -1567.9758    462.77484    252.07332   -110.51212    36397.316 
  481000    293.44401    -1561.738     486.9809    238.16891   -218.88596    36397.316 
  481100    298.67781   -1567.3302    462.59721    231.61001   -151.12616    36397.316 
  481200    298.55145   -1547.0796    475.06249    263.76057    66.551807    36397.316 
  481300    306.46795   -1521.1156    473.45297    323.53499   -246.09566    36397.316 
  481400    315.81596   -1527.1204    505.66478     391.5669    169.16684    36397.316 
  481500    296.16955   -1555.1416    473.52026    243.49927    97.842954    36397.316 
  481600    292.80631   -1563.0331    469.21988    216.25956   -26.601117    36397.316 
  481700    299.16211   -1546.5464    462.73898    254.70249    169.37393    36397.316 
  481800    291.86604   -1552.5608    481.39493    234.69998     107.2512    36397.316 
  481900    298.52247   -1511.6694    468.09495     292.0736    30.160442    36397.316 
  482000    302.76702   -1549.6462    481.29247    286.28529     145.6865    36397.316 
  482100    287.03393   -1551.2042    470.03888    203.08071   -276.75275    36397.316 
  482200    303.57499   -1566.5432    467.60672     259.3175    5.7151332    36397.316 
  482300     306.9444    -1548.716    451.65406    276.26743   -413.02158    36397.316 
  482400    309.25204   -1557.7259    469.42336    295.35169    75.668469    36397.316 
  482500    293.01864   -1546.7442    476.46664     240.7452   -29.433886    36397.316 
  482600    299.04391   -1586.0502    454.04022    205.97105   -166.47822    36397.316 
  482700    303.20208   -1542.4097      491.939    306.11478      129.404    36397.316 
  482800    299.58581    -1567.373    452.59649    225.62906   -172.45647    36397.316 
  482900    295.04959   -1551.8533    463.02203    231.27834    194.91266    36397.316 
  483000    299.26031   -1588.6964    465.95391    216.20671    160.06656    36397.316 
  483100    302.50233   -1603.5312     469.9904    219.91388      68.7847    36397.316 
  483200    302.22227   -1548.6079    487.24465    290.83839    627.83656    36397.316 
  483300    300.66285   -1563.5917    463.55495     245.1877    4.1395032    36397.316 
  483400    299.90506   -1521.9087    472.87049    292.79579    143.12201    36397.316 
  483500    297.57695   -1532.4967    482.98976    281.91068    325.31868    36397.316 
  483600    295.46107   -1505.6679     485.5206    301.80342   -57.275947    36397.316 
  483700    315.34886   -1518.8883    469.93799    361.98229     264.8207    36397.316 
  483800    304.41837   -1552.9726    476.43658    285.49143    668.83665    36397.316 
  483900    301.76882   -1519.8021    491.47234    321.84308    862.50056    36397.316 
  484000    307.72789   -1530.4497    482.30549    328.69067      410.306    36397.316 
  484100    292.73243   -1524.4631    469.91184    255.19092    1245.7075    36397.316 
  484200    306.26619   -1487.5225    472.90599    355.67846    425.39181    36397.316 
  484300    296.10946   -1517.6275    459.22223    266.44648    530.75879    36397.316 
  484400    308.04179   -1505.3189    473.21531    346.13569    710.19402    36397.316 
  484500    303.13385    -1503.669    468.41058     321.0218    972.68843    36397.316 
  484600    309.55331   -1558.7598    478.89259    305.13496     696.7475    36397.316 
  484700    292.68992   -1583.1017    452.30799    178.75835    277.29799    36397.316 
  484800    298.92655   -1593.4261    461.45082    205.48064   -241.62328    36397.316 
  484900    308.81849   -1563.9485    443.28007    261.04602   -7.4933769    36397.316 
  485000    299.69315   -1533.8533    473.69244    280.72501   -387.23402    36397.316 
  485100    306.92497   -1531.4044    468.26304    310.10112     -284.581    36397.316 
  485200     302.7131   -1528.9433    460.66092    286.11529   -100.32611    36397.316 
  485300    302.11762   -1519.2398    462.66773    295.16132   -486.25882    36397.316 
  485400    293.71707   -1498.2158    453.76519    269.69712    271.02449    36397.316 
  485500    290.89762   -1561.2036    463.25176    203.58106    305.46825    36397.316 
  485600    299.61506   -1537.1836    445.00461    248.35749    559.42154    36397.316 
  485700    310.30033   -1564.4687    451.66606    275.54176    730.16468    36397.316 
  485800     303.5383   -1546.0482    444.46602    256.50757     787.8988    36397.316 
  485900    296.51387   -1528.3947    453.82687    252.09326    429.75109    36397.316 
  486000    297.40299   -1546.6102    456.45132    240.48032    387.00669    36397.316 
  486100    290.02822   -1551.3021    478.55402    224.89502    355.02745    36397.316 
  486200     324.7897   -1558.6734    458.63846    353.13781    958.50253    36397.316 
  486300    293.47161   -1526.8885    444.05186    230.21285    1032.5345    36397.316 
  486400    301.58853   -1508.6893    456.42075    297.09763   -82.394876    36397.316 
  486500    303.00265   -1570.5312    466.23624    251.39824   -234.63992    36397.316 
  486600     291.2943   -1557.3548    472.18558    218.13857   -152.13468    36397.316 
  486700    302.27812   -1571.6817    472.39602    253.16578   -372.40107    36397.316 
  486800    310.37776    -1556.297    467.50014     299.8941   -17.058393    36397.316 
  486900    309.29285   -1545.8237    480.09186    318.10494   -206.82137    36397.316 
  487000    297.61453   -1508.5138    470.89699    293.96886   -685.29649    36397.316 
  487100    302.40026   -1558.2455    474.22575    268.97822   -1057.6581    36397.316 
  487200    303.37775   -1590.5035    463.86007    230.72807   -738.94628    36397.316 
  487300    299.36227   -1560.1244    452.73339    232.01447   -465.88662    36397.316 
  487400    306.36627   -1532.2481    454.81245    293.30703   -526.99946    36397.316 
  487500    294.34684   -1565.8989    473.38818    224.45474   -938.99608    36397.316 
  487600    313.06795   -1565.9778    460.43951    295.18904   -312.93593    36397.316 
  487700    304.72693   -1549.4238    485.52965    299.51381    220.36326    36397.316 
  487800    310.00634   -1546.0265    482.86647    323.86904   -152.54519    36397.316 
  487900    288.24246   -1555.2237    439.60894    174.03847   -1009.6469    36397.316 
  488000    298.32205   -1573.8891    459.08506    219.94727   -768.24208    36397.316 
  488100    295.78556   -1507.7391    473.63303    289.29647    129.24926    36397.316 
  488200     308.1362   -1517.1759    457.94992    319.43574    546.91132    36397.316 
  488300    290.99095   -1536.3643    478.95213    244.53839   -423.22467    36397.316 
  488400    295.81681   -1564.0631    481.81166     241.2909   -296.38325    36397.316 
  488500    301.36879   -1546.0326    474.42015    276.77057   -573.11148    36397.316 
  488600    303.12686   -1521.8066    463.82777    298.27007   -613.35435    36397.316 
  488700    290.99013   -1565.4386    450.92602    187.43424   -190.83175    36397.316 
  488800    304.01195   -1570.7044    451.06394     240.5686    46.476231    36397.316 
  488900    292.89989   -1578.6293    463.43216    195.29436    320.83183    36397.316 
  489000    302.61393   -1574.9219    496.32045    275.35257    317.78419    36397.316 
  489100    309.25721    -1546.672    441.86892    278.87422    435.91592    36397.316 
  489200    305.10849    -1563.292    489.11619    290.93941    -524.3476    36397.316 
  489300    291.27715   -1525.9852    476.93868    254.18446   -472.52373    36397.316 
  489400    304.22804   -1537.1414    467.90916    291.94364    -583.1628    36397.316 
  489500    291.87975   -1533.5503     473.1872    245.56409   -321.07362    36397.316 
  489600    298.94397   -1536.4265    483.55565    284.66305    576.49374    36397.316 
  489700    295.55047   -1551.9839    476.16321    246.52995   -262.30441    36397.316 
  489800    310.77499    -1554.347    462.37334    298.49453   -486.43544    36397.316 
  489900    300.00013   -1534.1929     456.8846    264.95101   -257.06263    36397.316 
  490000     303.6387   -1561.8229     480.5021     277.2182   -53.822221    36397.316 
  490100    293.12177   -1587.1731     466.6893    191.00046   -344.64987    36397.316 
  490200    310.20115   -1491.7789    482.09362    378.21542    557.89534    36397.316 
  490300    294.26871   -1499.0581    488.01044    305.56813    157.52517    36397.316 
  490400    298.60699   -1515.7462    472.53562    292.81561   -455.72718    36397.316 
  490500    298.35781   -1500.2899    489.18844    323.80987   -181.50184    36397.316 
  490600    294.34787   -1501.3935    468.38806     283.9646     24.87507    36397.316 
  490700    302.78242   -1538.4153    462.58298    278.87551    177.19992    36397.316 
  490800    300.60401   -1570.6608     487.2481     261.5485   -67.656913    36397.316 
  490900    290.96897   -1578.4118    459.23952    182.67989   -265.39182    36397.316 
  491000    302.92848   -1507.9331    490.88788    338.31608   -138.33757    36397.316 
  491100    294.96706   -1570.9865    485.73839    234.49235    580.34274    36397.316 
  491200    306.87568   -1571.2919    481.93128     283.6613    44.833254    36397.316 
  491300    298.04921   -1565.8496    481.65264    249.33361    37.722587    36397.316 
  491400    297.98342   -1579.0967    475.70041    229.83989    24.014715    36397.316 
  491500    292.56473   -1572.8876    450.21859    186.32292    434.99626    36397.316 
  491600    301.89703   -1564.3764    494.83406    281.20413    219.14408    36397.316 
  491700    298.96934   -1544.1332    455.53134    249.04554   -422.89903    36397.316 
  491800    305.80975   -1523.0075    502.00207    347.24732   -1157.7775    36397.316 
  491900    306.05094   -1506.4486    503.71327    366.59647   -37.853126    36397.316 
  492000    297.17566    -1524.486     485.7458    290.88193    40.023159    36397.316 
  492100    301.52128   -1509.4008    498.00655    337.67096    596.90493    36397.316 
  492200    296.21861   -1547.0197    489.06805    267.38843    293.23091    36397.316 
  492300    291.76627   -1514.1968    484.84514    276.06775    -42.67955    36397.316 
  492400    305.66966   -1470.0076    488.58236    386.20073    653.35469    36397.316 
  492500    298.17565    -1533.788    471.35249    271.66075   -58.332233    36397.316 
  492600    296.24728   -1496.4945     495.4474    324.42132    116.23389    36397.316 
  492700    297.00431   -1487.0505    485.51718    327.32213    222.43676    36397.316 
  492800    305.47314   -1528.5113    486.66544    324.90079    720.20944    36397.316 
  492900    293.69589   -1497.7341    478.25999    294.57883    332.64851    36397.316 
  493000    293.50305   -1531.6741    497.95424    279.47029   -16.423556    36397.316 
  493100    292.17551   -1571.0866    450.44325    186.60708   -235.75557    36397.316 
  493200    302.79839   -1540.7707    469.84251    283.85118   -681.65766    36397.316 
  493300    308.24946   -1547.7336    469.29171    300.72658   -435.46207    36397.316 
  493400     297.4392   -1590.9121    503.30298    243.19212    278.95288    36397.316 
  493500    293.97578   -1573.4258    470.51722    212.39668    193.37793    36397.316 
  493600    302.86606   -1549.8847    478.82447    284.02191    466.16661    36397.316 
  493700    298.24847   -1547.6666    493.47167    280.22713    287.01148    36397.316 
  493800    301.14563   -1554.9028    462.69112     255.1729     190.9613    36397.316 
  493900    297.72945   -1536.6636    491.54074    286.97705    237.49194    36397.316 
  494000    295.31113   -1552.0045    484.18031    253.45566     107.4189    36397.316 
  494100    302.93904   -1567.8407    475.87521    263.44315    41.254516    36397.316 
  494200    299.72828    -1555.804    485.12727    270.36626    59.199185    36397.316 
  494300    304.55854   -1549.1334    483.48588    297.00709   -95.981474    36397.316 
  494400    298.24223   -1554.1589    478.04328    258.27851   -323.51499    36397.316 
  494500    302.36867   -1543.1907    469.31658     278.9825   -138.30793    36397.316 
  494600    306.92456   -1563.9143    489.35046    298.67682   -464.43885    36397.316 
  494700    303.72413   -1552.1676    470.97659    277.73029    20.019881    36397.316 
  494800    307.17235   -1560.0737    507.43874     321.7143     437.9141    36397.316 
  494900    302.74407   -1567.6474    474.82458    261.71339    533.52914    36397.316 
  495000    304.52077   -1544.3192      476.354    294.52038    243.53116    36397.316 
  495100    306.96049   -1566.4159    473.03562     280.0211    502.20022    36397.316 
  495200    305.21384   -1576.2768    475.29242    264.60215    230.95461    36397.316 
  495300    299.89622   -1496.2543    501.40785    346.94794    48.530176    36397.316 
  495400    310.61812   -1521.0279    506.48612    375.22451    137.08484    36397.316 
  495500    300.94778   -1507.7771    494.45278    333.17501   -378.78492    36397.316 
  495600    291.10008     -1552.35    484.85672     234.9455   -827.56152    36397.316 
  495700    310.85367   -1555.4797    463.40481    298.74529   -305.65305    36397.316 
  495800    305.32007    -1557.625    504.75848    313.19531   -137.28785    36397.316 
  495900    306.34502   -1539.6397    453.61302    284.62089    166.48462    36397.316 
  496000    294.56725   -1544.0762    477.73003    251.60542    -16.29147    36397.316 
  496100    309.05223   -1566.4581    471.71499    288.01708    175.11155    36397.316 
  496200    306.41779   -1573.6704    479.64718    276.95003    321.40572    36397.316 
  496300    305.05686   -1556.2233    489.98088    298.64173    210.90902    36397.316 
  496400    295.87667   -1518.8137    485.74426    290.74071   -188.82649    36397.316 
  496500    296.53561   -1553.6093    493.15847    266.30759   -379.84051    36397.316 
  496600    308.43316    -1573.056    483.29196     290.2263    407.73823    36397.316 
  496700    292.72534   -1547.7878    458.98261    220.90535    244.98797    36397.316 
  496800    297.69443   -1551.3962    497.04574    277.59279    347.27344    36397.316 
  496900    293.93658   -1557.9686    484.33862    241.49989   -140.07342    36397.316 
  497000    308.78719   -1547.0549    473.38957    307.90908   -619.88972    36397.316 
  497100    304.43401   -1561.2949     448.9087    249.71123   -349.09303    36397.316 
  497200    298.84928   -1575.3051    503.77651    265.58168    18.567171    36397.316 
  497300    300.21687   -1548.8637    448.53556      242.901    464.63249    36397.316 
  497400    303.09576   -1541.1937    496.49302    311.40913   -410.15104    36397.316 
  497500     305.5965   -1543.3647    476.64215    300.57602   -58.470418    36397.316 
  497600    309.79556   -1547.6485    469.16679    307.60436    313.51339    36397.316 
  497700    297.51793   -1566.1274    493.88374    258.90988    117.91154    36397.316 
  497800    300.44872   -1572.4583    488.75136    260.55943     205.5436    36397.316 
  497900     294.6867   -1567.6939    463.14326    213.93532   -505.74391    36397.316 
  498000    289.13349   -1525.1551    505.92891    274.41368   -567.11181    36397.316 
  498100    301.71728    -1542.849    513.55848    320.65172   -459.29742    36397.316 
  498200    281.89458    -1540.244    484.15262    205.16022   -566.73375    36397.316 
  498300    300.39245   -1544.7903     484.6583    283.88271   -462.10641    36397.316 
  498400    295.97039   -1545.8332    493.07698    271.47333   -817.54472    36397.316 
  498500    294.76072    -1551.252    500.55405    268.11925   -487.08911    36397.316 
  498600    306.02553   -1577.4926    481.75027    273.47579   -527.14771    36397.316 
  498700    294.22012    -1540.319    515.07951    291.15898   -89.991025    36397.316 
  498800    294.46531   -1519.6318    476.01169     273.8754    13.756667    36397.316 
  498900    294.45224   -1577.3611    501.81349    241.88941    550.86642    36397.316 
  499000    300.34348   -1561.2396    503.05941    285.61534    149.18084    36397.316 
  499100    310.82727   -1518.0407    458.51736    331.17874    642.29006    36397.316 
  499200    311.14712   -1572.6048    496.06936    315.59772   -330.58099    36397.316 
  499300    309.13569   -1526.2247    490.05765    346.96655   -669.84674    36397.316 
  499400    312.55765   -1543.5832    458.70604      313.567   -196.82604    36397.316 
  499500    302.18697   -1548.3407    497.88118    301.58415   -966.02106    36397.316 
  499600    303.34879   -1525.5493    505.72972    337.42233   -467.93853    36397.316 
  499700    298.12217   -1575.9576    498.40564    256.30504   -197.18942    36397.316 
  499800    308.87639   -1537.3005    484.23974    328.91268    -20.89386    36397.316 
  499900    291.88252   -1547.9922     448.3337    206.28108     22.01985    36397.316 
  500000    313.04632   -1574.8284    474.21163    300.01378   -565.37194    36397.316 
  500100    302.96778   -1559.5276    468.99767    265.00726   -831.29978    36397.316 
  500200    307.67553   -1576.7924    492.71899    292.52723   -464.47821    36397.316 
  500300    305.62016   -1585.5713    488.52928    270.36249   -467.69518    36397.316 
  500400     317.7858   -1576.6481    481.81711     327.0049   -342.74043    36397.316 
  500500    295.81057   -1578.7116    474.75373    219.55654   -308.26821    36397.316 
  500600    307.20704   -1594.2092     474.4122    254.70746   -716.03597    36397.316 
  500700    305.41046   -1619.6494    472.40122    219.21801   -630.32803    36397.316 
  500800    309.81949   -1565.6698    474.25658    294.77984   -668.66887    36397.316 
  500900    307.14974   -1544.1822    485.28776    315.35365   -444.68767    36397.316 
  501000    300.77195   -1545.9228     460.4253    260.21511   -79.688745    36397.316 
  501100    297.58372   -1581.9004    498.85076     248.3982   -504.39297    36397.316 
  501200    298.68954   -1542.4001    481.87471    275.87011   -411.69106    36397.316 
  501300    300.17302   -1561.4771    521.38942     302.9452    673.53115    36397.316 
  501400    296.71131   -1587.1918    463.20924    203.56193     288.3668    36397.316 
  501500    299.70061   -1566.3672    482.70876    257.26081    35.733795    36397.316 
  501600    296.63602   -1577.4838    474.20147    223.92536    269.95047    36397.316 
  501700    293.38102   -1559.7824    483.70561    236.56738    133.79838    36397.316 
  501800    315.47715   -1557.7986    504.93502      358.643    186.61833    36397.316 
  501900    305.11051   -1585.4827    484.38378    264.02523    140.26558    36397.316 
  502000    298.21065   -1604.7509    529.18913    258.69112    57.917314    36397.316 
  502100    293.64434   -1604.3661    446.25502    155.71125   -59.289557    36397.316 
  502200    298.49255   -1533.7235    481.88686    283.67752    42.929265    36397.316 
  502300    301.19528   -1589.0074    492.41438    251.01366   -285.95012    36397.316 
  502400    303.72498   -1577.6061    468.55284    249.87181   -796.05926    36397.316 
  502500    289.85809   -1571.0514    466.91616    192.74665   -376.44558    36397.316 
  502600    293.30029   -1571.2588    493.52715     234.5513      106.161    36397.316 
  502700    307.16514   -1566.7023    498.25732    305.87199    507.36668    36397.316 
  502800    306.46854   -1543.7081    487.73433    315.22651    342.42807    36397.316 
  502900    301.80314   -1603.1578    482.03204     229.2006    794.87745    36397.316 
  503000    300.88651    -1584.613    489.55858    251.17074    683.99326    36397.316 
  503100    290.06989   -1571.2623    457.81313    184.38034     906.0394    36397.316 
  503200    297.30335   -1562.2557    497.27874    265.21643   -50.433621    36397.316 
  503300    298.16931   -1556.0441    490.25757    268.28142    456.04619    36397.316 
  503400    308.81134   -1583.9218    489.76343    287.52408     195.4885    36397.316 
  503500     299.6454   -1553.3169    492.22845     279.5838   -13.516733    36397.316 
  503600    303.69266     -1554.07    488.35527     293.0657   -448.26393    36397.316 
  503700    299.74041    -1580.651    473.14426    233.59057   -113.77365    36397.316 
  503800    309.01401   -1543.7962    488.02558    326.81857    163.39928    36397.316 
  503900    298.81378    -1555.975    469.26371    250.24015   -84.504306    36397.316 
  504000    297.99067   -1593.7517    506.13957    245.65644     61.26185    36397.316 
  504100    300.35773   -1566.0665    486.42156    264.21436    650.19274    36397.316 
  504200    307.39151   -1550.3994    480.73637    305.66684   -86.136977    36397.316 
  504300    301.19321   -1578.9497    477.26468    245.91236   -102.47694    36397.316 
  504400    301.27081   -1589.7926    447.45782    205.60982   -97.707108    36397.316 
  504500    306.70048   -1599.5192    440.69778    213.41658   -659.87264    36397.316 
  504600    304.44315   -1582.4203     480.7605    260.47854   -631.28897    36397.316 
  504700    295.02001   -1576.0138    471.08876     215.0523   -1063.9167    36397.316 
  504800    301.39512   -1596.6784    491.93878    243.76114   -586.62637    36397.316 
  504900    292.37871   -1628.1583    441.13971    121.14105   -176.30295    36397.316 
  505000    298.75144   -1581.1409    514.49555     270.0271    336.77317    36397.316 
  505100    306.31916   -1553.5038     481.7442    298.77233   -306.14404    36397.316 
  505200    308.68183    -1580.954    482.92595    283.07494   -163.56287    36397.316 
  505300    303.37782   -1542.6468    496.11058    310.83558   -208.45289    36397.316 
  505400    322.34216   -1579.3163    494.83743    357.74308   -24.450918    36397.316 
  505500    290.45202   -1553.3837    474.54097     220.6965   -163.54895    36397.316 
  505600     301.7004     -1525.31    511.03004    335.58675   -41.353747    36397.316 
  505700    302.31109   -1517.2739    461.92439    297.24947    275.70688    36397.316 
  505800     292.0454   -1527.5999    495.87499    274.94341   -354.57574    36397.316 
  505900    296.27802   -1544.9297    502.65209     283.3283   -555.10672    36397.316 
  506000    288.36512   -1542.5646    494.28585    241.92325   -318.54202    36397.316 
  506100    301.47037    -1506.109    491.80891    334.53736     183.2343    36397.316 
  506200    296.64952   -1524.4809    499.87617    302.66332   -64.041069    36397.316 
  506300    309.63856   -1526.1408    503.14978    362.39256     576.6371    36397.316 
  506400    298.57388     -1549.83    455.31453    241.36258    533.27159    36397.316 
  506500    316.47733   -1551.7995    493.45794    357.63999    357.76381    36397.316 
  506600    294.89548   -1569.1021    499.51662    249.83463    647.72817    36397.316 
  506700    300.62607   -1571.1365     480.7686    254.69205    1057.2662    36397.316 
  506800     296.6651   -1604.8277    497.66612    220.17621    314.31349    36397.316 
  506900    310.46763   -1517.0945    464.81622    336.81471    -259.1171    36397.316 
  507000    297.94411   -1570.6567     447.1962    209.59976   -508.47843    36397.316 
  507100     306.3936   -1595.0572    494.43425    270.24204    2.1229027    36397.316 
  507200    309.96225   -1566.5715    461.65729    281.91759   -714.20269    36397.316 
  507300    308.24425   -1563.9897     471.5593    286.71472   -44.469881    36397.316 
  507400    295.91322   -1601.4679     483.6473    206.15311   -322.59761    36397.316 
  507500    293.05788   -1643.1868     477.2361    145.24764    147.92267    36397.316 
  507600    298.10857    -1629.373    459.45556    163.87869    482.68802    36397.316 
  507700    298.00116    -1622.371    476.63145    187.57603    271.93323    36397.316 
  507800    289.03143   -1548.4809    489.24535    233.94763    585.42217    36397.316 
  507900    299.19047   -1572.1122    496.71576    263.24033        553.6    36397.316 
  508000    295.29545   -1552.6473    457.00176    225.56416    87.669222    36397.316 
  508100    307.15082   -1577.5823    473.12903    269.79967   -66.057509    36397.316 
  508200    309.82506   -1547.1618    485.33734    324.39358    395.40508    36397.316 
  508300    304.48917   -1610.4802    486.37728    238.24129    603.55955    36397.316 
  508400      303.594   -1574.3116    471.47811    255.50552    635.15146    36397.316 
  508500    297.57812   -1546.5809    495.77294    280.61489    473.55895    36397.316 
  508600    292.53548   -1597.3421    458.18724    169.70614    126.53197    36397.316 
  508700    306.16122   -1559.2768    496.44811    306.99657    563.79252    36397.316 
  508800    294.39765   -1548.0664    482.46795    251.59425    260.39501    36397.316 
  508900    296.32328    -1593.859     464.7443    196.69367    134.25838    36397.316 
  509000     303.0445   -1581.2195    464.73117    239.39217   -437.93743    36397.316 
  509100    294.62915   -1527.2644    478.85147    269.81566   -402.36232    36397.316 
  509200    304.25282    -1606.603    471.36003    226.04378   -520.30774    36397.316 
  509300    299.60811   -1598.5356    484.60288    226.57271    524.19902    36397.316 
  509400    298.83584   -1604.0237    475.84472     208.8711    554.87944    36397.316 
  509500    301.58614   -1557.8166    501.02399    292.56283    283.47103    36397.316 
  509600    295.63127   -1558.1584    483.13291    247.68673    176.30179    36397.316 
  509700    295.02174   -1567.5595    478.08504    230.51061    251.36792    36397.316 
  509800    291.27095   -1541.9557    503.53845    264.78601   -115.91237    36397.316 
  509900    310.15889   -1547.5949    493.63416    333.75091    311.28386    36397.316 
  510000    305.36606   -1552.5163    502.82762    316.57888   -102.06203    36397.316 
  510100    299.02684   -1548.5709    483.28208    272.61588   -412.82666    36397.316 
  510200    300.06415   -1546.3389    488.98082    285.18768   -737.78098    36397.316 
  510300    308.76419   -1532.2614    485.03841    334.24842   -550.99189    36397.316 
  510400    307.74555   -1531.1014    458.60677     304.4192   -904.10775    36397.316 
  510500     301.4992   -1609.4905    503.26479    242.74076   -35.352536    36397.316 
  510600    289.73031   -1569.3214    477.77088    204.75964      10.3416    36397.316 
  510700    304.23577   -1594.3288    484.96098    251.84266   -623.18484    36397.316 
  510800    302.75793   -1572.4204    470.42122    252.59908   -521.28449    36397.316 
  510900    295.29608   -1531.5676    499.98593    289.63086    -361.1132    36397.316 
  511000    292.28261   -1550.4566    492.90751    250.18057   -560.91732    36397.316 
  511100    310.47966   -1563.4529    469.90905    295.60297    -372.8659    36397.316 
  511200     306.5137    -1539.742     506.3949    338.05524   -214.13304    36397.316 
  511300    300.03939   -1558.6527    458.87327    242.65554    83.661999    36397.316 
  511400    305.90628   -1542.3825    513.37945    339.68162   -716.40197    36397.316 
  511500    291.55907   -1552.6081     490.5593    242.44362    2.9516946    36397.316 
  511600     296.1105   -1554.8838    493.32078    263.29333   -18.253857    36397.316 
  511700    292.84582   -1536.1471    502.15635    276.25887    281.96619    36397.316 
  511800    292.11516   -1513.2505    501.58399    295.31393    36.714987    36397.316 
  511900      296.679    -1504.052    469.15535    292.50333   -158.00386    36397.316 
  512000    300.75197   -1561.0586    498.50608    283.07069    10.539582    36397.316 
  512100    298.04485   -1534.1979    476.17105    275.48424    497.99993    36397.316 
  512200    301.34129   -1549.8218    517.64372    316.08191    679.92724    36397.316 
  512300    300.64264   -1580.4342    512.84812    277.54796    624.92591    36397.316 
  512400    302.08329   -1533.3956    500.03696    318.22114    107.31709    36397.316 
  512500    301.15187   -1534.7092    496.24333    308.94656    10.550516    36397.316 
  512600    304.56252   -1572.7281    480.62031    270.56455   -61.911088    36397.316 
  512700    303.19677   -1563.7549      491.411    284.21783   -17.686184    36397.316 
  512800    283.23592   -1552.6793     464.6677    179.24145   -623.60768    36397.316 
  512900    286.21364   -1547.6086    508.29563    241.26285   -549.46843    36397.316 
  513000    302.88423   -1559.9188    467.76537    263.01001   -679.68882    36397.316 
  513100     303.5803   -1538.8591     486.1845    305.60315   -766.55324    36397.316 
  513200     289.6792   -1521.4789    491.85514    266.45768   -176.39835    36397.316 
  513300     297.7863   -1549.4306    486.79853    269.72218    -159.1955    36397.316 
  513400    310.68212   -1561.8532    487.17611    315.37563    1095.6095    36397.316 
  513500    295.47934   -1531.2369     503.8358    294.63141    968.53381    36397.316 
  513600    294.89718   -1533.8921      512.388    297.92368    676.21839    36397.316 
  513700    296.75765   -1576.4849    480.85075    232.11773    867.29802    36397.316 
  513800    305.26145   -1546.0397    485.18362    304.94342   -208.44322    36397.316 
  513900    306.71176   -1506.7655    505.64818    371.17115    584.16491    36397.316 
  514000    286.49997   -1547.5141    506.54999    240.89291   -176.18805    36397.316 
  514100    290.11233    -1561.228    472.84793    209.63929   -0.5818003    36397.316 
  514200    296.84233    -1569.768    492.97618    251.33893      319.857    36397.316 
  514300     297.4424   -1538.9537    504.98687    296.84872    541.32297    36397.316 
  514400     295.6887   -1532.0165    506.14377    297.09643    161.49083    36397.316 
  514500    308.18113   -1555.1867    496.90874    320.58478    540.52633    36397.316 
  514600    306.86619   -1575.7823    474.28135    271.47846    431.28362    36397.316 
  514700    293.20304   -1589.9241    497.38631    219.31004    254.09077    36397.316 
  514800    302.10212   -1550.6615    490.35547    291.35801    343.05524    36397.316 
  514900    302.37571    -1542.408    470.93297    281.41317    528.28388    36397.316 
  515000    300.51087    -1550.727    527.32765    321.14516   -167.38579    36397.316 
  515100     286.6116   -1509.2122    496.04519    269.18945    28.094729    36397.316 
  515200    300.80154    -1534.128    485.85351    297.57055   -147.53081    36397.316 
  515300    288.15087    -1502.526    473.43303    260.15048    80.998233    36397.316 
  515400    295.48346   -1519.2002    500.07596    302.92664    484.29468    36397.316 
  515500    288.12154   -1560.7879    486.88628    215.21058    268.73266    36397.316 
  515600    293.95531   -1538.7569    492.66832    269.12505    142.38975    36397.316 
  515700    308.25017   -1545.1621    507.90595    341.91544   -391.09361    36397.316 
  515800     295.4783   -1540.7575    486.43176    267.70209   -189.24368    36397.316 
  515900    302.40999   -1567.9938    481.54192    266.58966   -159.11594    36397.316 
  516000    304.19825   -1547.4719    479.08268    292.65334    161.25824    36397.316 
  516100    301.15111   -1548.4099    490.94591    289.94506    4.9543056    36397.316 
  516200    287.60287    -1551.305    488.03957    223.52619   -344.33528    36397.316 
  516300    294.40853   -1474.9715    464.99792    307.26788   -555.12244    36397.316 
  516400    301.32914   -1488.5233     514.6921    374.37435   -135.95962    36397.316 
  516500    305.50071   -1502.6846    486.17598    350.36137    57.849569    36397.316 
  516600    295.87572   -1574.4837    516.76287    266.08515   -297.46809    36397.316 
  516700    308.66654   -1538.6455    504.61958    347.00866    460.89336    36397.316 
  516800    305.02098   -1526.4619    491.33522    329.59688    131.02765    36397.316 
  516900     300.5278   -1580.7073    470.56567    234.47863    -83.65887    36397.316 
  517000    301.87371   -1576.7061     507.9103    281.84626    469.55176    36397.316 
  517100     305.8413   -1549.9112    474.75933    293.24207    82.953552    36397.316 
  517200    295.28522    -1537.655    484.02501    267.53395   -399.24958    36397.316 
  517300    299.32532   -1533.0262    487.83307    294.04701    247.97894    36397.316 
  517400    297.18468   -1553.7148    469.39717    245.34482    370.38192    36397.316 
  517500     292.6959   -1552.9995    488.78907     245.3684    415.63106    36397.316 
  517600    289.91821   -1545.7464    498.10031    249.50479    11.988195    36397.316 
  517700    300.48491   -1516.5875    500.39145    328.23234    423.74177    36397.316 
  517800    300.45028   -1520.6725    501.03143    324.63237    524.89676    36397.316 
  517900    307.91162   -1560.1006     481.0146    298.57094    218.04396    36397.316 
  518000    300.79122   -1496.5114    495.65208    344.93949    340.39003    36397.316 
  518100    301.83621    -1539.386    508.26663    319.35498    997.48516    36397.316 
  518200    287.29395   -1598.0184    511.06282    198.45382     522.8618    36397.316 
  518300     292.9047   -1563.3008     470.4635    217.67575   -145.71363    36397.316 
  518400    303.29475   -1524.9324    472.87576    304.94349   -286.55488    36397.316 
  518500    304.33644    -1539.529    499.78818    321.91998   -373.48308    36397.316 
  518600    287.51065   -1563.6828    494.81588    217.51205   -220.30519    36397.316 
  518700     292.8558   -1515.0854    471.88614     267.0949   -66.273318    36397.316 
  518800    294.78204   -1575.1322    504.48439    248.26483     156.2818    36397.316 
  518900    298.09733   -1612.9036     493.3182    214.16049    67.091034    36397.316 
  519000    299.36589   -1571.2033    502.62973    270.84808    176.62678    36397.316 
  519100    285.89253   -1609.8862     489.9754    159.22839   -711.55472    36397.316 
  519200    304.08801   -1581.3048    484.44945    263.69394   -208.57186    36397.316 
  519300    307.35165   -1524.3606    504.70795    355.49886   -83.678974    36397.316 
  519400    304.86391   -1544.4794    478.72368    298.26514   -331.57881    36397.316 
  519500    294.38534   -1541.7011    490.90552    266.34211   -192.38521    36397.316 
  519600     295.9212   -1559.5723     476.4114    240.84851   -284.49087    36397.316 
  519700    304.92489   -1604.0234    473.42791    233.69814    111.23658    36397.316 
  519800     297.3333    -1614.589    475.11024    190.84869   -323.25853    36397.316 
  519900    307.90198   -1610.0041    449.18997    216.79967   -201.62337    36397.316 
  520000    298.32332   -1562.6988    494.55137    266.60956   -749.25646    36397.316 
  520100    304.43702     -1543.02    465.74698    284.83785   -459.25488    36397.316 
  520200     295.2906   -1560.2669     466.1435    227.06457   -781.68023    36397.316 
  520300    303.52432   -1598.2527    492.70735     252.4819    -407.3995    36397.316 
  520400    306.50502   -1570.0234    484.72466     286.0648    32.276381    36397.316 
  520500    302.74468   -1570.0081    469.62357    254.15441    208.60231    36397.316 
  520600    299.35523   -1617.9921    468.10699    189.48884    657.54368    36397.316 
  520700    291.81755   -1596.4384     503.0113    212.22176    780.74411    36397.316 
  520800    295.16637   -1580.9362    502.78038     242.4763    1234.8633    36397.316 
  520900    291.05057   -1607.7717    481.93406    176.37966    739.43801    36397.316 
  521000    307.05145    -1586.318     496.1612    283.65155    753.71295    36397.316 
  521100    308.92645   -1563.6864    485.91735    304.42838    398.96777    36397.316 
  521200    301.05742   -1559.7917    489.15817    276.35636   -106.61727    36397.316 
  521300    290.71528   -1557.7971    490.70543    233.62544   -704.41674    36397.316 
  521400    298.58361   -1557.4549    509.42946    287.89614   -419.90023    36397.316 
  521500    292.26427   -1551.4365    493.88934    250.10047   -706.63115    36397.316 
  521600    288.31198   -1563.0034    477.78181    204.74274    -605.1874    36397.316 
  521700    291.69871   -1561.7203    490.36355    233.76036   -3.5943036    36397.316 
  521800    295.86137   -1567.8451    498.23251    254.12916   -309.97328    36397.316 
  521900    307.54667   -1552.0433    450.01822    273.99894   -685.18737    36397.316 
  522000    301.53896   -1565.9828    493.67364    276.83515   -206.30067    36397.316 
  522100     307.3784   -1525.8317    489.21798    338.65742   -398.65001    36397.316 
  522200     297.8375   -1522.7207     496.2893    306.15192   -38.865178    36397.316 
  522300    296.74853   -1531.3881    465.93752    262.26045    129.60086    36397.316 
  522400    300.47174    -1532.352    486.18145     298.1989    352.17666    36397.316 
  522500    299.40125   -1553.6321    490.85308    276.80082    582.27822    36397.316 
  522600     311.1125   -1532.1944    480.84187    340.62571    387.76347    36397.316 
  522700    299.45001   -1556.8322    506.79277    289.75858    50.869053    36397.316 
  522800    302.34049   -1579.9631    472.38333    245.15083    123.26532    36397.316 
  522900    294.78376   -1573.3304    473.69738     219.2873    517.52649    36397.316 
  523000    307.18592   -1567.0065    507.44882    314.85234    340.59177    36397.316 
  523100    301.14944   -1582.6304    483.13286    247.90406    568.53932    36397.316 
  523200      299.062   -1559.8186    486.18077    264.42409     328.1542    36397.316 
  523300    295.12341   -1580.9496    474.45087    213.94121    95.430672    36397.316 
  523400     307.3509   -1571.4579    489.26484    292.95507   -458.92147    36397.316 
  523500    306.80772   -1555.1642    482.79047    300.34411   -55.477631    36397.316 
  523600    295.97415   -1562.4541    467.36887    229.16113   -123.40232    36397.316 
  523700    289.24207   -1550.6738     492.7274    236.17926   -167.20433    36397.316 
  523800     307.5235   -1555.9163    475.50589       295.51    640.41374    36397.316 
  523900    299.97517   -1537.4289    490.55193    295.27075   -13.757261    36397.316 
  524000    294.87495   -1496.5181    483.15134    305.96158   -464.33162    36397.316 
  524100     301.0779   -1552.1194    488.19887    283.16098   -186.59091    36397.316 
  524200    298.70308   -1553.9715    465.76572    248.25031   -107.54585    36397.316 
  524300    290.70705   -1557.9422    490.27152    233.00958   -40.909972    36397.316 
  524400    307.25097   -1588.1044    462.53842    249.13508    109.18585    36397.316 
  524500    294.91512   -1600.0834    472.11284    191.53745     489.3785    36397.316 
  524600    290.81979   -1567.1594    478.44242    212.46772     433.5473    36397.316 
  524700    306.07771    -1587.241    483.85218    266.06282    404.07213    36397.316 
  524800    298.57319   -1604.2103    489.03341    220.69806    816.37899    36397.316 
  524900    305.94264   -1596.0996    464.63348    237.38123    907.68584    36397.316 
  525000    290.00358   -1602.7143    463.29358    158.11213    119.25111    36397.316 
  525100    297.34751    -1565.018    489.01709    254.39007    407.55982    36397.316 
  525200    294.35249   -1535.1788    466.11672    247.92855    160.19353    36397.316 
  525300    302.58723   -1533.2084    465.77064    286.39674    293.41188    36397.316 
  525400    296.60956   -1552.0108    499.87456    274.95303   -4.9551625    36397.316 
  525500    296.82799    -1563.075    479.69486    244.68639    63.662311    36397.316 
  525600    295.76446   -1567.3028    463.71551    219.72087    54.183565    36397.316 
  525700    299.93428    -1550.503    496.37558    287.83733   -365.87707    36397.316 
  525800    300.94376   -1549.4854    478.68251    275.67841   -537.30696    36397.316 
  525900    301.37441   -1563.7895    496.11094     280.7296   -304.60624    36397.316 
  526000    297.23389   -1579.3154    452.00151    202.56874   -277.27222    36397.316 
  526100    307.21593   -1531.9072    500.24663    342.88367   -352.84733    36397.316 
  526200    297.46382   -1536.0621    464.02468    258.87399   -350.01809    36397.316 
  526300    293.19718   -1496.8815    461.86051    276.80063   -39.007241    36397.316 
  526400    304.16797   -1501.9332    513.35647    372.33036    50.895346    36397.316 
  526500    302.72205   -1480.8666    464.00777    337.57889    387.45577    36397.316 
  526600    302.55052   -1508.4206    500.80853    346.05824    936.35074    36397.316 
  526700    302.05323   -1528.4525    474.58996    297.58282    763.62212    36397.316 
  526800    301.74448   -1506.7441    488.55694    331.87673     903.8945    36397.316 
  526900     303.3885   -1519.9599    488.38188     325.8416     424.9115    36397.316 
  527000    293.05673    -1479.609    490.02202    321.60621   -2.2646236    36397.316 
  527100    294.65809   -1493.9667    463.04958    287.44089   -168.87686    36397.316 
  527200    299.81964   -1513.8872    477.51365    305.07822   -361.51749    36397.316 
  527300    296.97232    -1511.594    466.88352    284.00188    14.451819    36397.316 
  527400     301.1139   -1499.5109    482.26339    329.99502    280.13816    36397.316 
  527500    301.59905   -1530.6333    467.48576    286.26568    466.65144    36397.316 
  527600    309.87738    -1523.209    483.80971    347.05279    458.63659    36397.316 
  527700    287.81386   -1484.9962    463.37849    266.11789   -38.097991    36397.316 
  527800    300.77005   -1508.9474    494.86055    331.61724    -220.4776    36397.316 
  527900    302.41074   -1522.4837    476.93003    307.49122    410.05037    36397.316 
  528000    288.34741   -1508.5693      489.387    270.94052    223.61959    36397.316 
  528100    292.16654   -1488.2509    497.42025     316.3797    497.35581    36397.316 
  528200    306.65057    -1495.171    472.83668    349.68044    363.88583    36397.316 
  528300    308.41852   -1500.6476     484.0503    363.32757    474.53423    36397.316 
  528400    293.09959   -1528.4196    473.86445    256.82982    408.04584    36397.316 
  528500    290.78832   -1538.1908     497.1598    260.01287    202.15965    36397.316 
  528600    289.69757   -1555.5367    451.96471    192.59164    411.47925    36397.316 
  528700    311.84171   -1527.2841     468.0347    335.99148    277.31875    36397.316 
  528800    293.87907   -1562.2472    499.92415     252.5495   -18.112689    36397.316 
  528900    300.58725   -1529.0592    465.09864    280.92572    500.65811    36397.316 
  529000     303.1081   -1558.3579    480.06468    277.87176     819.5353    36397.316 
  529100     306.3978   -1552.8559    460.91083    278.93867    13.816365    36397.316 
  529200    294.91223   -1554.7935    481.13636    245.83797    406.03758    36397.316 
  529300    293.55309   -1560.3546    449.27277    202.33223    313.09982    36397.316 
  529400     304.1319   -1577.9945    473.95359    256.70481    549.47889    36397.316 
  529500    300.98483   -1570.6984    467.93602    243.90273    155.08177    36397.316 
  529600    309.78966   -1567.7433    501.37522    319.69157    14.246289    36397.316 
  529700    292.08583   -1564.0199     484.0809    226.91021   -33.306366    36397.316 
  529800    289.91031   -1574.3511    477.27754    200.04198   -205.59488    36397.316 
  529900    309.80706   -1560.4326      482.615    308.31985   -809.45096    36397.316 
  530000    301.06746   -1609.4209    457.92218    195.53604    -104.5564    36397.316 
  530100    307.84413   -1613.8293     479.8203    243.34592   -152.01634    36397.316 
  530200     306.3338    -1617.545    478.56285     231.6153    101.46243    36397.316 
  530300    295.01644   -1583.8532    459.42387    195.53199    278.44948    36397.316 
  530400    296.40006   -1561.5998    475.12843    239.68053   -67.092403    36397.316 
  530500    305.96358   -1559.7183      485.364    294.58669    363.77243    36397.316 
  530600    308.69547   -1594.6923    503.51823    289.98989    244.06115    36397.316 
  530700    306.21838   -1591.2879    460.19528    238.98835    416.89608    36397.316 
  530800    294.25765   -1591.2123    465.47808    190.83211    388.13082    36397.316 
  530900    311.33785   -1608.7154    452.78092    237.05209    238.70868    36397.316 
  531000    299.30975   -1634.0761    462.15786    167.25222    261.80627    36397.316 
  531100    293.55406    -1602.046    486.30375     197.6761    356.50982    36397.316 
  531200    304.46247   -1563.9776    492.15214    290.39928    -180.5955    36397.316 
  531300    299.26596   -1604.3579    451.27847    185.89505   -288.53995    36397.316 
  531400     300.5993   -1578.1236     465.5964    232.41298   -172.83231    36397.316 
  531500    307.34233   -1592.2292    465.85231     248.7329     63.18199    36397.316 
  531600    308.79363   -1566.8836    482.62938    297.34903   -185.30481    36397.316 
  531700    306.42087   -1566.2339    448.63052    253.38359    18.261036    36397.316 
  531800    293.12867   -1566.3676    480.95745    226.10495     618.6535    36397.316 
  531900    300.45305   -1533.6748    500.85959    311.47063    643.48719    36397.316 
  532000    303.61545   -1524.8913     477.2051    310.74884   -100.42444    36397.316 
  532100    292.42511   -1545.5253     420.6105    183.45242   -53.074233    36397.316 
  532200    295.99177   -1582.7464    466.16893    207.74766    124.25826    36397.316 
  532300    291.29965   -1540.8679    467.58672    230.05053    264.03307    36397.316 
  532400    300.60702   -1551.1364    477.13537    270.97368     207.5438    36397.316 
  532500    295.55756    -1503.598    479.21166     297.9961    260.97902    36397.316 
  532600    294.60065   -1521.0387    482.24747    279.30985   -393.67113    36397.316 
  532700     293.3871   -1523.3682    502.93007    292.23329   -311.25682    36397.316 
  532800     308.1569   -1531.3947    486.89394    334.25356    -138.2645    36397.316 
  532900    294.27356   -1485.6275    489.44377    320.45383   -448.83153    36397.316 
  533000    304.97041   -1526.4409    473.26479    311.32121    -339.3142    36397.316 
  533100    304.12805   -1557.4664    465.33885    268.60093   -289.74306    36397.316 
  533200     298.7324   -1532.9118    485.30803    288.98353    6.0725428    36397.316 
  533300    303.47666   -1516.9741    480.97531    321.81529   -356.29696    36397.316 
  533400    302.18084   -1606.1436    452.33959    198.21225    227.02357    36397.316 
  533500    302.89749   -1557.7184    476.76123    274.26556    137.47942    36397.316 
  533600    293.97851   -1558.2675    452.71093    209.76092   -199.89922    36397.316 
  533700    296.29208   -1540.3685    497.60382    282.90411   -10.060526    36397.316 
  533800    303.98273   -1553.0537    478.64345    285.66804    36.682655    36397.316 
  533900    299.92134   -1535.5869    483.60716    289.92714   -650.86021    36397.316 
  534000    307.86718   -1509.9389    493.70361    361.22281    -155.3956    36397.316 
  534100    300.53852   -1533.5121    492.46235    303.61851   -194.82413    36397.316 
  534200    296.63768   -1564.2539    474.36663    237.32778    27.127829    36397.316 
  534300    304.66339   -1545.7671    488.49775    305.85432   -202.83438    36397.316 
  534400     301.3073   -1542.5412    467.44674    273.01343   -314.98871    36397.316 
  534500    303.05103   -1518.9442    470.91157    307.87705   -774.13358    36397.316 
  534600    306.80845   -1566.9102    468.95924    274.77009   -187.60303    36397.316 
  534700     313.5748   -1567.1172    507.13388    343.01172    412.48196    36397.316 
  534800    305.73152   -1576.3469    478.48036    270.03621     892.2781    36397.316 
  534900    303.49832   -1557.2401    479.46465    280.13543    572.11808    36397.316 
  535000    300.11373   -1549.0435    463.85714    257.58121   -85.651076    36397.316 
  535100    306.54565   -1581.8631    461.38448    251.06661   -405.48115    36397.316 
  535200    300.80961   -1572.3293    469.06517    242.61702   -64.030809    36397.316 
  535300    298.59653   -1587.9933    488.94417    236.93019    233.85306    36397.316 
  535400    298.31029   -1574.3897     452.5225    212.83151   -87.128558    36397.316 
  535500    295.27127   -1534.3114    490.63412     277.4242    493.62788    36397.316 
  535600    294.13163   -1565.8072    467.73979     217.9351    488.40914    36397.316 
  535700    310.20734   -1540.0684     487.0087    334.86869    251.59208    36397.316 
  535800    295.40421   -1529.4016    487.82174     280.1165    545.48792    36397.316 
  535900    295.08006   -1544.2523     511.8738    287.86751    294.85153    36397.316 
  536000    298.21173   -1550.0128    480.52179    264.76669   -561.73725    36397.316 
  536100    309.66173   -1555.8975    481.30185    310.89153   -545.77396    36397.316 
  536200    296.44871   -1594.1721    451.49912    183.69668    172.98723    36397.316 
  536300    303.91461   -1561.2996    503.05743    301.53133    539.65641    36397.316 
  536400    300.22811   -1564.6797    453.97679    232.57646    365.84659    36397.316 
  536500    304.00623   -1538.6086    490.01598    311.59077    1049.9012    36397.316 
  536600    299.97875   -1550.6758    484.38798    275.87589    1085.1738    36397.316 
  536700    298.34468   -1543.4692    489.30928    280.69261    397.27696    36397.316 
  536800    298.43939   -1552.5284    471.27188    254.01974    394.01524    36397.316 
  536900    293.39966   -1562.3206    472.39606    222.80296    586.53342    36397.316 
  537000    300.53159   -1604.6835    481.43502    221.38869    64.245607    36397.316 
  537100    306.34225   -1553.7453    467.34641    284.23639    348.61902    36397.316 
  537200    299.33829   -1554.1818    473.43951     258.5559    490.39531    36397.316 
  537300    291.33592   -1574.4545    481.39706    210.43648   -275.28818    36397.316 
  537400    297.95897   -1545.4542     508.0035    295.67609    608.57912    36397.316 
  537500    296.67572   -1540.9106     504.8167     291.2914    15.808467    36397.316 
  537600     307.0887   -1545.7563    477.20394    305.42262    24.182345    36397.316 
  537700    308.32327    -1562.923    479.09689    295.67259   -221.51924    36397.316 
  537800    311.87336    -1531.206    468.23824    332.41477   -122.24456    36397.316 
  537900    310.12131   -1548.7393    471.79109    310.59532    282.35212    36397.316 
  538000    301.33471   -1557.7183    481.43487    271.94712   -218.23923    36397.316 
  538100    299.32528   -1544.4745    466.06639    260.83184    428.28588    36397.316 
  538200    295.33265   -1511.3901     481.1997     291.1857    322.88524    36397.316 
  538300    297.42077   -1505.0202    478.24481    303.94343   -82.052421    36397.316 
  538400    304.09157   -1501.7483    495.71012    354.52712    365.86273    36397.316 
  538500    303.23536   -1539.4379    497.54751    314.84401    -20.06225    36397.316 
  538600      296.797   -1508.9471    497.81802    316.79884    1046.0321    36397.316 
  538700    304.52709   -1552.4956     482.3042    292.32248    433.83763    36397.316 
  538800    300.33917   -1560.9246    480.11781    262.96944    691.56308    36397.316 
  538900    306.70111   -1562.3509    459.15246    269.04242    380.50272    36397.316 
  539000    296.89503   -1499.0865    485.78164    315.06168     364.6491    36397.316 
  539100    308.07362   -1561.1529    501.61104    318.83984   -207.40993    36397.316 
  539200    292.71745   -1525.5348    447.88296     232.0234    264.51978    36397.316 
  539300    293.22345   -1551.2722    459.97283     220.6398    85.842257    36397.316 
  539400    308.63183   -1564.1151    513.03183    329.79603    1036.0653    36397.316 
  539500    304.61825   -1567.7498    460.33962    255.51154     264.8208    36397.316 
  539600    297.16872   -1587.9634    472.76313    214.39082    325.91764    36397.316 
  539700    297.19598   -1601.0409    476.47704    205.14913    341.17473    36397.316 
  539800    303.23913   -1555.1121    467.66724    269.30643    277.85838    36397.316 
  539900    303.13169   -1552.5556    483.98297    287.69795   -143.08454    36397.316 
  540000    294.25058   -1553.5963    468.07679     231.0152    79.601846    36397.316 
  540100    313.03908   -1565.4887    457.29909    292.40852   -132.53723    36397.316 
  540200    312.75621   -1612.5366    486.10435    272.90031    198.79014    36397.316 
  540300    300.07376   -1559.8806    463.37948    246.08766    553.49953    36397.316 
  540400    300.81953   -1585.3679     471.1523    231.70993    430.52253    36397.316 
  540500    302.99922   -1570.3623    477.71486    263.03042    155.21313    36397.316 
  540600    292.01813   -1590.0952    471.09652    187.54761    576.01682    36397.316 
  540700    300.01703   -1562.5271    461.46949    241.27736    648.10048    36397.316 
  540800    298.33327   -1575.4896    495.65513    254.96701    405.57704    36397.316 
  540900    304.51644   -1560.4527    477.86625     279.8797    757.26039    36397.316 
  541000    294.88188   -1553.9573    465.96001    231.36199    590.72934    36397.316 
  541100    290.10338   -1529.7894    473.53945    241.72943    252.33107    36397.316 
  541200    305.36769   -1565.7851    475.59441    276.08413     -306.797    36397.316 
  541300    300.07477   -1552.1918    468.99513    259.39665   -190.69511    36397.316 
  541400    294.83034   -1527.2324    473.32586    265.22217    626.09792    36397.316 
  541500    311.00246   -1560.2005    481.06024    312.34566     881.6039    36397.316 
  541600    296.04917   -1582.8798    483.28877    224.99094    1081.9939    36397.316 
  541700    295.49758   -1575.4036    495.20324    241.91369    668.57412    36397.316 
  541800    301.95322   -1576.5724    488.48762    262.91309    309.32749    36397.316 
  541900    300.24734    -1586.507    470.06033    226.91873    267.76336    36397.316 
  542000    297.78207   -1618.4824    464.62038    178.47327    -374.9267    36397.316 
  542100    305.18333   -1596.6532    465.91172    234.70856   -92.640735    36397.316 
  542200    300.81112   -1551.3251     482.3158    276.87857   -60.921375    36397.316 
  542300    295.86769   -1542.1346    472.49716    254.13253   -554.85195    36397.316 
  542400    292.64905   -1544.2369    487.70422     252.8365    42.350402    36397.316 
  542500    300.18179   -1560.1875    509.33609    292.22068    330.04809    36397.316 
  542600    291.64753   -1552.2097    467.43867    220.11717    317.20893    36397.316 
  542700    290.24585   -1552.2086    493.78798    240.19611    474.36439    36397.316 
  542800    301.71719   -1581.7038    482.53559    250.77358    1011.8434    36397.316 
  542900    305.70021   -1624.7204    470.66614    213.70833    858.80539    36397.316 
  543000    289.30468   -1568.3404    492.21625    218.28171    905.04781    36397.316 
  543100    297.26895   -1580.0467    471.06457    221.05732    414.46621    36397.316 
  543200    300.55576    -1568.225    469.74091    246.26126    675.19722    36397.316 
  543300     306.0242   -1593.7569    474.50397    249.95932    1365.6662    36397.316 
  543400    293.60512   -1592.9092    451.18693    171.92454    360.54014    36397.316 
  543500    290.05056   -1575.0889    465.62681    188.28095    144.07781    36397.316 
  543600    290.45479   -1587.2537    480.04955    192.34747    552.05646    36397.316 
  543700    300.89179   -1593.9907    480.51716    232.77525    312.84054    36397.316 
  543800    302.06238   -1542.8641    483.84773    292.46985    328.25324    36397.316 
  543900    296.11952   -1599.9832    482.22942    207.14297    240.71619    36397.316 
  544000    300.57731   -1573.7068    465.46338    236.59833    244.09738    36397.316 
  544100    297.97757   -1593.5734    461.28593    200.92254   -242.76942    36397.316 
  544200    304.69306   -1585.8765    444.07777    221.45774    -374.9523    36397.316 
  544300     295.5174     -1539.33    471.09313     253.9658    296.94106    36397.316 
  544400    300.69328   -1558.9575    442.77809    229.18119    159.61298    36397.316 
  544500    300.41178   -1550.9527    467.10226     260.2507    84.201394    36397.316 
  544600    301.52419   -1550.7113    485.97652    284.34349    223.89981    36397.316 
  544700    299.96468   -1563.2215    464.32025    243.19947    243.45533    36397.316 
  544800    301.27528   -1573.1456    461.03912    235.85815    -69.27226    36397.316 
  544900    293.72301   -1543.0008    471.55844    242.73191    296.59779    36397.316 
  545000    289.99242   -1554.9081    466.61748    209.19229    436.58386    36397.316 
  545100     301.2948   -1559.7352    449.33279    237.64952    144.68635    36397.316 
  545200    303.23359   -1512.2547    470.23228    314.70406     53.64972    36397.316 
  545300    301.64742   -1540.4607    436.42075    245.58968    85.359936    36397.316 
  545400    312.97756    -1489.909      485.206    395.61991    45.148299    36397.316 
  545500    299.67766   -1525.6676    463.82333     278.9723   -267.43427    36397.316 
  545600     294.0994   -1541.5957    460.45895    234.72153    104.59321    36397.316 
  545700    304.94813   -1529.4504    456.48237    291.42964   -180.18323    36397.316 
  545800    292.00751   -1553.9174    456.29496    208.87641    60.709895    36397.316 
  545900     301.8965   -1527.3434    471.71075    295.11141    49.214075    36397.316 
  546000    306.47102   -1593.0778    471.77188    249.90546   -177.96051    36397.316 
  546100    295.47749   -1568.4266    431.56243    185.15996   -285.90469    36397.316 
  546200    303.87788   -1574.2593    508.97989    294.32975    591.53948    36397.316 
  546300    299.28097   -1600.8547    450.61749    188.80445    258.97978    36397.316 
  546400    293.20505   -1548.9705    445.27101    208.15739   -270.40838    36397.316 
  546500     295.2675   -1543.6413    493.67525    271.11862   -55.265704    36397.316 
  546600    305.96587   -1566.9331    463.33441    265.35257    678.09836    36397.316 
  546700    286.94199    -1513.832    477.66787    247.67051    416.24785    36397.316 
  546800    300.35008   -1564.5195     489.5937    268.89925    345.33766    36397.316 
  546900    301.80649   -1552.6017    476.40867    274.14831    535.47403    36397.316 
  547000     293.6816   -1556.2696    437.16101    194.88048    48.958857    36397.316 
  547100    288.75744   -1565.0007    460.16151    187.11812    350.86456    36397.316 
  547200    303.36866   -1509.3868    485.60971    333.55369     21.35309    36397.316 
  547300    295.24572    -1521.337    482.07348    281.72371   -137.43687    36397.316 
  547400    297.58656   -1549.7047    472.06321    253.81905   -328.50393    36397.316 
  547500    288.70316   -1482.3534    460.89211    270.25321    187.76519    36397.316 
  547600    301.28003   -1509.5475    472.26147    310.69986   -121.02581    36397.316 
  547700     304.1814   -1512.5714    460.86068    309.25647   -45.516501    36397.316 
  547800    302.29207   -1514.0174    470.46645    308.96302    272.04072    36397.316 
  547900    298.34725   -1499.6625     483.9012    319.10274   -163.14586    36397.316 
  548000    308.94984   -1482.2276    489.39232    389.46682   -376.50013    36397.316 
  548100     301.3052   -1517.5246    465.47338     296.0473   -32.951799    36397.316 
  548200    305.27602   -1547.3398    475.20556    293.73049    596.76889    36397.316 
  548300    301.92825   -1540.3988     460.5957    271.08298     24.91268    36397.316 
  548400    297.21466   -1567.2464      465.895    228.44519    152.34558    36397.316 
  548500    302.73855   -1508.5206    456.34402    302.33498    528.59187    36397.316 
  548600    309.90562   -1536.1471    465.65018    316.08155   -512.71051    36397.316 
  548700    307.62474   -1493.9153    482.65835    365.11638   -268.45048    36397.316 
  548800    304.72246   -1549.0292    450.57984     264.9386    95.351372    36397.316 
  548900    311.12364   -1564.0821    462.80523    290.75128    309.21621    36397.316 
  549000    292.60278   -1526.3563    473.97213    256.77797    167.68068    36397.316 
  549100    299.98917   -1527.5655    487.45618    302.10098    168.86709    36397.316 
  549200    288.03984   -1552.2282    451.06186    187.58026   -344.73648    36397.316 
  549300    303.27276    -1529.437    476.30819    303.77292   -120.47005    36397.316 
  549400    291.09619   -1521.8106    476.67476    257.28552    330.00843    36397.316 
  549500    306.45505   -1530.2581    479.19528    320.07711   -186.43796    36397.316 
  549600     311.9477   -1526.8523    455.26892    324.13175   -306.22131    36397.316 
  549700    304.59149   -1536.6761    480.76239    306.88824    232.52942    36397.316 
  549800     294.2174   -1561.5779    451.93779    206.74618   -420.76307    36397.316 
  549900    298.64762   -1534.3019    476.48785    278.39387    210.97976    36397.316 
  550000    302.44401   -1571.2048    466.70986     248.6988     710.3161    36397.316 
  550100    296.72011   -1593.7854    456.11118    189.90965    337.65146    36397.316 
  550200    287.03212   -1563.2017    474.36796    195.40417    255.67492    36397.316 
  550300    295.43058   -1567.8186    464.63198    218.62769    605.59605    36397.316 
  550400    295.87973    -1520.719    464.15013      267.255    613.06257    36397.316 
  550500    301.21032   -1561.6731     480.0071    266.00802    339.15608    36397.316 
  550600    294.19492   -1588.1882    457.76109    185.85854    393.56777    36397.316 
  550700    299.45437   -1570.2339    476.10643    245.69004    803.38656    36397.316 
  550800    296.33977   -1552.9088    485.42004    258.39341    305.45306    36397.316 
  550900    296.34854   -1502.2296    471.73192    295.42373    372.96356    36397.316 
  551000    304.19027   -1523.1439    461.32114    299.18411    576.36735    36397.316 
  551100    296.26403   -1522.0824    491.70007    295.16102     903.9111    36397.316 
  551200    299.54735   -1516.4022    492.91477    316.74611    642.55697    36397.316 
  551300    307.87719   -1572.9097    455.28856    259.88176    483.12089    36397.316 
  551400    299.46509   -1548.9834    476.03626    266.91834    118.46782    36397.316 
  551500    297.67597   -1497.0875    468.35209     303.1252    244.79023    36397.316 
  551600    298.56779   -1521.0596     466.4826    281.27378    208.67903    36397.316 
  551700    295.09209   -1547.0353    471.60989    244.87442     291.0466    36397.316 
  551800    305.05515   -1550.3155    473.38399    287.94499   -221.87303    36397.316 
  551900    309.20637   -1561.7597     463.3718    285.06198    579.92177    36397.316 
  552000    305.64794   -1544.8735    446.41812    269.07336    428.83455    36397.316 
  552100    305.06879   -1535.0166    452.92085    282.84175   -337.18936    36397.316 
  552200    296.02738   -1521.9997    469.98389    272.46864   -772.60992    36397.316 
  552300    297.54268   -1541.2549    458.49448    248.50385   -649.37604    36397.316 
  552400    307.79081   -1507.8109    453.20478    322.51025    -451.2576    36397.316 
  552500    302.28446   -1533.1913    482.80087     302.0894   -347.51033    36397.316 
  552600    298.98578   -1506.0987    452.07743    283.69965   -527.53561    36397.316 
  552700    290.90748   -1554.6933    462.33523    209.21898   -590.17373    36397.316 
  552800    296.96723   -1537.2689    455.08375     246.5044   -821.69869    36397.316 
  552900    298.96694   -1557.1831    497.57824    278.03179   -414.93706    36397.316 
  553000    294.54967   -1521.2326    473.88214    270.52251     252.7793    36397.316 
  553100    295.82667   -1576.1964    484.11545    231.50555    765.19277    36397.316 
  553200    307.83019    -1563.414    456.76435    270.64297    106.99847    36397.316 
  553300    296.26418   -1565.8419    448.88384     208.5859   -229.64508    36397.316 
  553400    301.16222   -1559.3023    478.91434    267.07084    20.125933    36397.316 
  553500    298.80109   -1531.6168    469.15361    274.43139    91.144989    36397.316 
  553600    301.30703   -1546.9604     491.4893    292.63552    62.314662    36397.316 
  553700    290.86249   -1533.3381    477.95969    245.99736    173.62966    36397.316 
  553800    308.25061   -1558.5267    465.23377    285.88071    340.03422    36397.316 
  553900      303.075   -1537.3461    461.74163    280.41238    192.13801    36397.316 
  554000    294.90987   -1553.4197    490.68611    256.75095   -435.43055    36397.316 
  554100    297.83573   -1523.8784     428.8927    237.58974   -837.87363    36397.316 
  554200    296.34775   -1543.6493    475.87915    258.14772    117.73012    36397.316 
  554300    293.90433   -1559.9219    449.43891    204.50259    562.09658    36397.316 
  554400    305.42197   -1557.3421    495.33543    304.51102    492.39463    36397.316 
  554500    301.87806   -1520.8114    490.75677    320.60693    338.12295    36397.316 
  554600    296.64984   -1506.2607    492.99049    313.99927   -22.344591    36397.316 
  554700    300.39336   -1517.7712    485.10268    311.35015    322.77483    36397.316 
  554800    312.05785   -1565.2405     465.9169    296.88435   -383.33127    36397.316 
  554900    299.91182   -1533.3018    466.51336    275.07577    179.04928    36397.316 
  555000     309.8248   -1525.8991    490.43479    350.75255    367.95205    36397.316 
  555100    300.73538    -1487.598    488.68048    346.63148   -150.19037    36397.316 
  555200    309.54141   -1525.3432    482.48493     342.0906   -894.47765    36397.316 
  555300    297.62396   -1510.9558    477.54449    298.21656   -407.81397    36397.316 
  555400    296.19842   -1571.2596    469.83852    223.82863   -213.70576    36397.316 
  555500    303.54378   -1541.7853    479.13642    295.46546    132.37885    36397.316 
  555600    299.04228   -1525.0495     480.4713    293.39551    66.569341    36397.316 
  555700    292.29204   -1528.5513    470.20832    249.42885   -153.99331    36397.316 
  555800    285.66388   -1553.2606     505.1255    229.98108    55.703299    36397.316 
  555900    296.29348   -1569.0752     496.6012    253.20106    169.18879    36397.316 
  556000    294.42792   -1599.9102    450.62194    168.03997    386.65427    36397.316 
  556100    290.42549   -1593.2655    517.32636    223.48134   -619.04632    36397.316 
  556200    306.78594   -1590.7296    478.24372    260.13445    57.078805    36397.316 
  556300    298.75282    -1563.588     475.7616    248.85223    59.677414    36397.316 
  556400    301.57391   -1542.2003    482.71419    289.81465    550.86659    36397.316 
  556500    306.04275   -1538.0505    508.66687    339.91165    569.26397    36397.316 
  556600    308.08159   -1561.1945    474.74094    291.96379    844.37574    36397.316 
  556700    300.26877   -1531.1986    496.91517    309.17787     758.0953    36397.316 
  556800    297.76585   -1532.2086    490.81501    290.86912    324.25599    36397.316 
  556900    294.25404   -1512.2014      467.923    272.27185   -189.03301    36397.316 
  557000     306.0121   -1552.4699    459.47396    276.16214    344.89812    36397.316 
  557100    288.61943   -1543.8939    487.64718     235.0931    29.005273    36397.316 
  557200    297.33001   -1557.9233    488.95139    261.34081    517.67372    36397.316 
  557300    296.43349   -1565.2465    496.46085    257.51585    487.54922    36397.316 
  557400    297.79701   -1551.5254    508.68452    289.56124    131.67313    36397.316 
  557500    302.14351   -1549.0905    492.65892    295.41764    440.30449    36397.316 
  557600    298.98805    -1546.942    499.28219    290.07124   -205.11009    36397.316 
  557700    312.09563    -1548.515    504.41836    352.28037    317.62957    36397.316 
  557800     307.7905   -1534.0986    456.77732    299.79369    266.16622    36397.316 
  557900    301.96724   -1505.1168    502.56801    348.51182    -498.7859    36397.316 
  558000    300.73521   -1523.5605    496.37428    318.36203   -292.15195    36397.316 
  558100    304.74449   -1529.0768    500.17056    334.58027    53.616936    36397.316 
  558200    294.00641   -1535.4046    463.67716    243.71484   -344.63158    36397.316 
  558300    302.15874   -1520.6339     496.5796    327.86305    411.53679    36397.316 
  558400    300.40397    -1531.155     496.9508    309.86206    411.48988    36397.316 
  558500     298.0475   -1540.4384    504.96268    298.04713    84.476872    36397.316 
  558600    305.43697   -1522.2496    491.43432    335.76957    844.63147    36397.316 
  558700    294.21368   -1511.9839    522.09238    326.47816    560.78294    36397.316 
  558800     299.0465   -1460.0018    487.83939    365.83026    561.21478    36397.316 
  558900    298.33486   -1490.9821    517.21687    361.04332    10.437002    36397.316 
  559000    296.94348   -1501.3979    468.13245    295.31781   0.58007294    36397.316 
  559100    301.99352   -1511.9384     511.6279    350.86772   -200.54736    36397.316 
  559200    290.35017   -1492.8441    513.65672     319.8961   -500.74584    36397.316 
  559300    305.92551   -1485.2143     495.3617    378.91807    132.11682    36397.316 
  559400    304.56851   -1471.9882    507.21361     397.9246   -1.5846473    36397.316 
  559500    292.49985   -1472.6108    489.13565    325.22643   -1028.5517    36397.316 
  559600    310.57549   -1495.3824    473.37108     367.5643   -494.63341    36397.316 
  559700    306.43249   -1531.7301    496.54825    335.85716   -464.08505    36397.316 
  559800    309.01599   -1529.8367    483.65169    336.41305   -474.64773    36397.316 
  559900    307.47745   -1524.0436     487.7921    339.46281   -443.03513    36397.316 
  560000    310.27319   -1510.1544     480.3841    358.45279    45.591827    36397.316 
  560100    297.25262   -1542.5371    503.56943    290.99876    56.623681    36397.316 
  560200      304.235   -1536.8426    503.03049    327.39489    -328.8305    36397.316 
  560300    300.40839   -1515.3999    477.29995    305.98598   -414.51387    36397.316 
  560400    305.65759   -1559.3094    495.55226    303.81476   -42.424335    36397.316 
  560500    299.56959   -1564.7242    502.18546     277.7943   -294.73983    36397.316 
  560600    289.86906   -1577.6078    493.07407    212.39726    -30.30772    36397.316 
  560700    294.38335   -1581.6439    480.34431    215.82917    202.50714    36397.316 
  560800    300.82129   -1560.2102    513.53605    299.25919    134.90031    36397.316 
  560900    305.45573   -1562.4228    501.55836    305.80431     611.0815    36397.316 
  561000    305.17072   -1526.6786    478.43556    317.15052    598.34669    36397.316 
  561100    306.30993   -1561.1015    531.70256    341.09167    1439.7128    36397.316 
  561200    304.74655   -1538.9043    502.14436    326.73583    355.12508    36397.316 
  561300    303.85956   -1532.2768    485.57234    312.82279    131.21154    36397.316 
  561400    294.47479   -1528.1834    501.35478    290.70922   -305.54715    36397.316 
  561500    317.17517   -1511.6674    478.80093    386.23736   -595.68947    36397.316 
  561600    297.48687   -1502.8436    523.86464    352.03562   -350.59481    36397.316 
  561700    292.15164   -1552.2724    468.57241    223.44367    529.67111    36397.316 
  561800    286.68597   -1546.7868    509.01069    244.91312     25.68423    36397.316 
  561900     292.7684   -1516.6838    503.98783    297.20715     -6.51002    36397.316 
  562000    298.13036   -1514.4055    469.12168    288.60984   -89.268357    36397.316 
  562100    305.70339   -1552.6957    495.77922    310.86041     156.0787    36397.316 
  562200    299.07611    -1570.223    515.07631    282.97845    127.25758    36397.316 
  562300    289.76677   -1544.2453    494.33179    246.55974   -591.53794    36397.316 
  562400    304.18774   -1546.4565    481.90927    296.44829    76.245605    36397.316 
  562500    311.61939   -1532.2115    479.37436    341.40911   -180.56185    36397.316 
  562600    292.03279   -1518.9078    501.46036     289.1645   -147.92336    36397.316 
  562700    310.65712   -1480.4429    494.43382    403.93176    13.880321    36397.316 
  562800    299.72129   -1514.1571     481.8408     308.6955    139.39583    36397.316 
  562900    292.32802   -1487.0294    505.31175    326.21521   -143.76979    36397.316 
  563000    294.69482   -1512.1608    487.95542    294.31693    -393.0902    36397.316 
  563100    301.59619   -1549.1727    469.83466    270.06243    228.43825    36397.316 
  563200    290.36183   -1519.9923    481.30194     260.4454   -1.2221087    36397.316 
  563300    311.12858   -1530.1635    510.59098    372.47772     355.5273    36397.316 
  563400    301.12143   -1522.7823    521.19128    345.68527   -103.99412    36397.316 
  563500    299.11557   -1524.1754    486.91461    301.04089    118.81258    36397.316 
  563600    288.05765   -1508.0315    498.40665    279.20147   -330.66267    36397.316 
  563700    287.81431   -1516.1061    500.53524    272.16669   -160.03153    36397.316 
  563800    287.86716   -1499.2865    488.96651    277.65404   -648.46035    36397.316 
  563900    285.89812   -1508.1802    498.93225    269.91624    49.179229    36397.316 
  564000    307.67192    -1497.967    502.56939    381.18686    109.37778    36397.316 
  564100    300.22665   -1544.7861    478.06581    276.55256   -230.75787    36397.316 
  564200    299.00279   -1530.9395    478.26799     285.1255    112.61749    36397.316 
  564300    310.02101    -1536.388    469.90469    320.61143    323.18377    36397.316 
  564400     296.1351   -1590.7402    477.65303    211.87923   -188.41443    36397.316 
  564500    294.15722   -1537.4214    475.61354    254.30921   -385.17792    36397.316 
  564600    295.76607   -1555.5488     492.1933    259.95988   -686.92557    36397.316 
  564700    309.28448   -1550.9925    488.82399    321.63087    210.09421    36397.316 
  564800    296.09352   -1554.3356    486.40602    256.85081    173.35039    36397.316 
  564900    299.22868   -1544.8176    479.73198    273.72212    194.94217    36397.316 
  565000    295.26823    -1521.799    488.51489    287.80375   -365.88806    36397.316 
  565100    290.38581    -1530.203    505.92506    274.96513   -681.88637    36397.316 
  565200    305.33277   -1556.2357    451.54751    261.43046   -397.12469    36397.316 
  565300    292.14067   -1518.0537    495.52269    284.56357    -472.7091    36397.316 
  565400    313.60325   -1506.6224    495.48173    391.98171   -115.65471    36397.316 
  565500    293.61733   -1540.2062    492.18396    265.67924   -265.14884    36397.316 
  565600    303.54271   -1515.3868    482.89421    325.61698   -340.13263    36397.316 
  565700    292.79832   -1552.3246    486.06796    243.78041    -134.7199    36397.316 
  565800    294.11499    -1510.338    470.19925    275.78929   -134.30528    36397.316 
  565900    287.25033   -1514.1357    527.52104    298.59955    581.58673    36397.316 
  566000    306.83949   -1510.7241    517.40389    379.53981    841.70455    36397.316 
  566100    296.54723   -1536.2255    481.58437    272.16925   -490.91691    36397.316 
  566200    304.10784   -1545.3457     469.1337    284.42608    108.49452    36397.316 
  566300    299.54571   -1556.9868    481.88252    265.12195    100.21339    36397.316 
  566400    295.29895   -1507.5868    473.04054    286.67914    432.38292    36397.316 
  566500    301.35134   -1536.0579    488.65762    300.90461    563.29062    36397.316 
  566600     300.8232   -1528.8599    481.37141    298.45345    652.90042    36397.316 
  566700    309.81242   -1515.5419    480.02153    350.64114    1047.1641    36397.316 
  566800    295.11011    -1504.585    492.50041     308.2959    105.13991    36397.316 
  566900    303.07407   -1551.0213    478.47507    283.46653     178.6294    36397.316 
  567000    298.52366   -1515.1663    476.68422     297.1713    493.85071    36397.316 
  567100    314.61771   -1565.3889    475.00343     317.2758    35.434927    36397.316 
  567200    298.17289   -1533.1669    478.69503    279.61206   -265.55522    36397.316 
  567300    298.03528   -1547.2741    480.39322    266.58731   -78.886698    36397.316 
  567400    303.60614   -1534.3684    459.72066    283.74559    104.96521    36397.316 
  567500    310.47372   -1585.4903    499.25485    302.88477    -4.877835    36397.316 
  567600    295.46755   -1546.4929    469.24657    244.73336     34.45398    36397.316 
  567700    306.39301   -1547.8505     477.8941    300.90591     563.2198    36397.316 
  567800    307.78118   -1498.7147    496.00467    374.36328    700.83772    36397.316 
  567900    297.88835   -1517.4382     483.6703    299.04298   -42.667982    36397.316 
  568000    295.90112   -1466.2519    508.74218    366.40984   -178.39819    36397.316 
  568100    302.50317   -1484.6679    474.73506    343.52562   -43.572698    36397.316 
  568200    302.32694    -1492.136    455.84344    316.37737    8.0771944    36397.316 
  568300    297.02815   -1505.4881    502.47111    325.94512    39.497524    36397.316 
  568400    307.89099   -1469.0778    470.73939    379.22622    10.011786    36397.316 
  568500    293.74982   -1496.6979    496.59904    314.19539   -67.932448    36397.316 
  568600     304.7469   -1480.9065    489.22449    371.81538   -417.42909    36397.316 
  568700    296.91474   -1489.9783    440.52192    278.99827   -531.28221    36397.316 
  568800    304.59347    -1497.898      494.469     359.3819   -483.70686    36397.316 
  568900    297.47855   -1523.6912    457.35586    264.64196   -574.49089    36397.316 
  569000    295.31253   -1512.7563    492.23057    300.76033    -441.4398    36397.316 
  569100    289.86806   -1520.2399    494.75874    271.44532   -334.30907    36397.316 
  569200    296.57192   -1608.1625    444.49174    163.25014   -432.27157    36397.316 
  569300    298.56709   -1519.2466     495.7904    312.39147   -432.48525    36397.316 
  569400    291.34112   -1538.5618    470.46956    235.42501   -168.24725    36397.316 
  569500    301.13362   -1530.9891    484.84402    301.18574   -61.531123    36397.316 
  569600    307.56553   -1499.8138    463.41312    339.70769    137.18935    36397.316 
  569700    300.21743   -1486.5876    471.24582    327.88978   -211.89175    36397.316 
  569800    287.45814    -1509.099    470.73031    247.77532    19.889691    36397.316 
  569900    298.25624   -1490.6673    491.82286    335.61235    33.639607    36397.316 
  570000    299.24884   -1541.7549    489.16835    286.31143    346.88737    36397.316 
  570100    305.73288   -1532.2323    450.09522     285.7717     398.1675    36397.316 
  570200    306.64151   -1514.5265    488.23169    345.67938     433.5332    36397.316 
  570300    296.69433   -1493.8291    479.46461    313.10405    327.76364    36397.316 
  570400    295.85506   -1538.9887    497.66416    282.38898   -129.70226    36397.316 
  570500     294.1618   -1522.3252    492.83557    286.64784    204.98832    36397.316 
  570600    313.55608    -1519.913    474.09779    357.09617     450.1263    36397.316 
  570700    309.46476   -1573.8858    470.69104    281.41122    126.53433    36397.316 
  570800    304.08411   -1534.1895    490.19365    316.53597    37.703152    36397.316 
  570900    299.46022   -1562.2323    475.27235     252.8837   -92.420469    36397.316 
  571000    297.66192   -1587.3264    466.68713    211.15842    728.81771    36397.316 
  571100    302.50354   -1608.8599    476.15671     220.7569    1004.6733    36397.316 
  571200    302.54058   -1564.2421    497.47307    286.85684    139.34928    36397.316 
  571300    308.95737     -1566.85    482.01756     297.5034    628.05084    36397.316 
  571400     305.5457   -1544.6896    497.42261    319.80437     326.5896    36397.316 
  571500    297.01004   -1541.3072    468.02636    255.60023   -369.94065    36397.316 
  571600    318.87252   -1544.3319     457.1977    339.56393    21.459213    36397.316 
  571700    295.25851   -1590.5994    479.45036    209.89532     -353.073    36397.316 
  571800     307.9544   -1569.8126    492.76777    300.80344    189.79795    36397.316 
  571900    299.31427   -1587.6491    458.70976    210.25128    -352.3086    36397.316 
  572000    297.81801    -1551.403      480.945    262.03812   -869.06922    36397.316 
  572100     302.8289   -1574.0551    438.53788    219.39855   -523.77451    36397.316 
  572200    292.46991   -1536.4883    470.16415    242.24356   -637.09665    36397.316 
  572300    292.27856   -1539.2896    463.58879    232.01075   -967.54442    36397.316 
  572400    309.52752   -1537.9622    478.97568    325.90026   -550.05196    36397.316 
  572500    297.97993   -1512.9046    465.24428    285.56028   -335.33364    36397.316 
  572600    289.77084   -1541.1814    492.96536    248.27544    223.95353    36397.316 
  572700    299.49588   -1552.2113    484.26913     272.0611    172.31911    36397.316 
  572800    294.09273   -1502.7821    467.80046    280.84684    199.46937    36397.316 
  572900    294.60604   -1507.8434    486.97733    297.25907   -453.57608    36397.316 
  573000    293.86883   -1541.4447    475.64279    249.02486   -407.94736    36397.316 
  573100    298.28253   -1535.1907    468.41962    267.80343   -590.67113    36397.316 
  573200      306.124   -1502.2964    479.31328    346.67564   -465.19673    36397.316 
  573300    299.53324   -1535.1086    455.54167    260.60343   -376.90351    36397.316 
  573400    292.80524   -1556.0144    459.17623    213.22979   -819.17021    36397.316 
  573500    307.93438   -1525.3063    463.88776    316.34021   -776.35964    36397.316 
  573600     292.9646   -1511.5198    464.90869     264.1699   -554.27161    36397.316 
  573700    301.02156   -1512.1659    496.06751    330.73105    -83.64773    36397.316 
  573800    297.31801   -1515.1653    481.10462    296.19837    5.9749308    36397.316 
  573900    316.80287   -1556.3402    502.69324    363.79109    23.657257    36397.316 
  574000    308.21308   -1547.8477    479.13567    310.29366   -2.4503918    36397.316 
  574100    300.98792   -1554.6825    470.34762    262.34403    655.02768    36397.316 
  574200    296.47877   -1520.0263    475.06584    281.54358    202.20061    36397.316 
  574300    297.23892   -1558.4968    467.65437    239.06273    293.65965    36397.316 
  574400    297.74319   -1532.9611    486.99147    286.19168    229.73958    36397.316 
  574500    306.08385   -1537.4825    507.48233    339.47891     460.1977    36397.316 
  574600    312.01563   -1533.1539    460.06308    322.92829      148.526    36397.316 
  574700    292.64317   -1547.6646    472.24425    233.92255    -225.4095    36397.316 
  574800    297.34538   -1525.2366    502.87559    308.02048   -83.169945    36397.316 
  574900    291.41682   -1524.3551    483.08701    262.58788    746.34635    36397.316 
  575000    302.48197   -1499.8162    482.01477    335.56214    233.37871    36397.316 
  575100    292.73036   -1508.7326     496.6406      297.641    384.13907    36397.316 
  575200    306.96929   -1542.6859    452.38069    283.13554   -236.38206    36397.316 
  575300     293.2181   -1538.7325    459.16843    232.35115   -528.60578    36397.316 
  575400    298.60307   -1561.0252     464.0392    239.02267   -368.75911    36397.316 
  575500    296.83206    -1557.873    499.03048    269.24228   -336.74634    36397.316 
  575600    309.49823    -1538.245    453.19221    299.70289   -527.14949    36397.316 
  575700    309.77063   -1528.5814    477.62754    335.02063   -484.01412    36397.316 
  575800    291.03471   -1544.4005    476.46251     234.2083    -550.4066    36397.316 
  575900    299.50932   -1552.7942    468.52959    255.79872   -45.591139    36397.316 
  576000    304.91708   -1573.7801    473.75192    264.23059   -128.89144    36397.316 
  576100    303.59127   -1588.0347    448.80369    219.09577   -177.42673    36397.316 
  576200    297.02956   -1569.9781    493.50919    252.49952   -265.58676    36397.316 
  576300    282.09081   -1578.7332    468.83665    152.23296    107.12056    36397.316 
  576400    285.21763   -1592.3298    473.48159    157.27131   -52.891201    36397.316 
  576500     295.2573   -1550.6709    502.13651    272.50463    -259.2721    36397.316 
  576600    302.68899   -1577.8363    442.07776    218.53125    119.91816    36397.316 
  576700    302.26917   -1537.2675    473.32615    288.47012    199.42016    36397.316 
  576800    296.88945   -1516.5678    482.78378    294.55753    -561.6451    36397.316 
  576900    297.30215   -1516.7184    472.68638    286.15606    -1317.611    36397.316 
  577000    302.67737   -1529.0166    475.44232    300.66358   -1303.8494    36397.316 
  577100    299.92556   -1532.3689    470.05623      279.613   -1352.7475    36397.316 
  577200    289.94931   -1516.3007    468.99474    249.98409   -781.92713    36397.316 
  577300    294.35839   -1557.9173    469.56535    228.66512    -535.3963    36397.316 
  577400    297.26844   -1587.2264    454.44036    197.25117   -298.48474    36397.316 
  577500    298.33671    -1549.275    475.15973     260.7016   -486.05678    36397.316 
  577600    296.01533   -1578.7098    475.70629    221.42701   -63.691856    36397.316 
  577700    311.58277   -1544.5131    463.45862    313.02786   -365.57684    36397.316 
  577800     307.2931   -1527.8639    474.71082    321.73642   -750.59427    36397.316 
  577900    288.99773    -1527.313    478.38724    244.10664   -405.25192    36397.316 
  578000    291.86927    -1541.505      449.346    213.72128   -468.93726    36397.316 
  578100    302.72816   -1494.9804    482.62783    342.11251   -340.76356    36397.316 
  578200    303.52168   -1523.2635    443.57815    278.33008   -205.32986    36397.316 
  578300    295.75284   -1479.4851    473.02788    316.79889   -549.90022    36397.316 
  578400    306.08276   -1530.7507    467.26793     305.9915   -327.44486    36397.316 
  578500    305.76653   -1483.9542    478.55613    362.66123   -207.61612    36397.316 
  578600    295.94772   -1514.2367     435.5012    245.39255   -825.72553    36397.316 
  578700    306.44042   -1509.8042    471.58793    332.85823   -483.89832    36397.316 
  578800    297.11339   -1512.2272    496.73525    313.85157   -969.19787    36397.316 
  578900     293.2692   -1528.5167    477.93042    261.55752   -858.53179    36397.316 
  579000    316.93006   -1511.4744    473.77517    380.30798    270.94069    36397.316 
  579100    312.22064   -1508.0316    459.82977    348.73448    -86.88002    36397.316 
  579200    306.41375   -1558.6791    496.59359    308.86959   -88.101078    36397.316 
  579300    302.46414   -1517.4766     483.1653    318.97255    200.89937    36397.316 
  579400    297.45863   -1503.9306      466.334    293.29158   -182.19755    36397.316 
  579500    296.37088   -1518.0641    469.68963    277.64693    -296.0808    36397.316 
  579600    296.02472   -1538.6577    465.94148    251.75635   -169.70266    36397.316 
  579700    294.35443   -1517.7864    477.46377    276.67671   -237.11762    36397.316 
  579800    306.87948   -1540.6384    472.87575    305.27625   -64.529178    36397.316 
  579900    307.30156   -1576.0426    470.12774    269.01253    367.62913    36397.316 
  580000    305.41319   -1564.6146     457.9687     259.8325   -12.870146    36397.316 
  580100    292.47972   -1571.1966    471.95034     209.3653   -22.589192    36397.316 
  580200    300.64905   -1557.3192    483.18129    271.02482    275.56636    36397.316 
  580300    302.06298    -1522.301     501.5612    330.74918    418.54176    36397.316 
  580400    299.40534   -1535.8545    483.20946     286.9531    509.60245    36397.316 
  580500    305.77454   -1492.9994    462.30985    337.40567    122.63947    36397.316 
  580600    294.84959   -1508.7799    469.72973    280.16463   -428.27885    36397.316 
  580700    300.43454    -1546.701    463.46995    260.97191    -104.1713    36397.316 
  580800    297.72572   -1496.0697    498.29824    334.31175    207.86894    36397.316 
  580900    301.59726   -1538.1812    473.95055    285.17454    328.63192    36397.316 
  581000    290.99143   -1543.6056    486.06309    244.41015    327.44959    36397.316 
  581100     305.7063   -1545.4722    469.52846    291.84612    141.19512    36397.316 
  581200    296.52642   -1520.9426    467.29623    273.07088    485.89848    36397.316 
  581300    299.16032   -1563.5548    477.05139    251.99845     491.7169    36397.316 
  581400    302.58971   -1530.3996    474.59263    298.03871    497.55557    36397.316 
  581500     290.8839   -1513.9782    473.28954    260.78291    309.14682    36397.316 
  581600     297.7743   -1563.2357    486.49791    255.56278    320.38001    36397.316 
  581700    286.69657   -1544.6339     470.7718    208.87452   -130.59952    36397.316 
  581800    301.12713   -1568.3012    475.47419    254.47478    229.56846    36397.316 
  581900    297.92982   -1544.8545    467.53378    255.67565   -253.12135    36397.316 
  582000    299.36066   -1544.0504    447.17832    242.52614   -139.59479    36397.316 
  582100    302.58043   -1558.9757    461.43345    256.26183   -350.60559    36397.316 
  582200    304.93245   -1557.3486    455.63472    262.61364   -1238.9788    36397.316 
  582300    298.36352   -1544.3356    474.28743    264.88863   -208.55371    36397.316 
  582400    296.85808   -1585.5571      453.707    196.35113    33.943868    36397.316 
  582500    291.24465   -1589.1993    468.76799    182.65428   -545.28977    36397.316 
  582600     305.7898   -1585.1407    471.47902     254.5018   -230.18524    36397.316 
  582700    297.80858   -1563.7863    488.39672    257.06431    -253.7955    36397.316 
  582800    301.12201   -1608.9401    459.84583    198.18458     618.0434    36397.316 
  582900    291.75107   -1589.7018    435.65805    151.30771   -72.141433    36397.316 
  583000    302.67139   -1614.3012    462.85432    202.76416    464.97045    36397.316 
  583100    309.65819   -1603.7675    458.69323    240.39712    492.42437    36397.316 
  583200    293.09893   -1576.5643      460.805    195.62271     -228.991    36397.316 
  583300    307.45687   -1553.5342    484.17557    306.26367    -102.5626    36397.316 
  583400    305.81465    -1562.185    480.48288     286.5725    639.80111    36397.316 
  583500     293.7595    -1608.958    477.01852    182.39805    318.74861    36397.316 
  583600    294.27111   -1578.4456    468.91729    207.09829    248.29127    36397.316 
  583700    300.30298   -1541.7808    482.76569    284.59926    335.89503    36397.316 
  583800    290.02064   -1549.0788     491.3438    239.87413   -227.50845    36397.316 
  583900    312.74334   -1510.1718    465.44888      354.552    -221.9298    36397.316 
  584000    295.17288   -1538.8912     460.0364    241.80647   -300.13694    36397.316 
  584100    287.18103   -1565.8582    469.00125    188.04722   -54.744788    36397.316 
  584200    298.82943   -1547.5201     503.0998    292.60108    467.13281    36397.316 
  584300    295.16893   -1558.3677    471.21344    233.48936    857.73293    36397.316 
  584400    296.40007   -1565.5976    492.62959    253.18398    953.68134    36397.316 
  584500    291.73246   -1516.1067     496.0916    285.25303    251.66805    36397.316 
  584600    297.31122   -1527.7473    445.44718     247.9285   -729.25481    36397.316 
  584700    293.74375   -1523.6048    487.04875    277.71105   -166.64435    36397.316 
  584800    300.39591   -1547.2229    493.54808     290.3553    391.62514    36397.316 
  584900     290.7508   -1561.1925    495.75634    235.43987   -266.64008    36397.316 
  585000    308.24017   -1500.1836    495.94122    374.88451    345.10089    36397.316 
  585100    293.14805    -1552.237    481.97706    241.34189   -399.37494    36397.316 
  585200    306.68983   -1547.8468    470.62358    294.96716    196.44628    36397.316 
  585300    299.40817   -1514.4838    476.11014    301.23718    95.087111    36397.316 
  585400    308.54686   -1557.2847    483.26934     306.4837    689.07962    36397.316 
  585500    305.02634   -1546.4073    481.85328    300.19359     506.4789    36397.316 
  585600    316.45134   -1513.4531    468.55513    370.96726    228.59591    36397.316 
  585700     294.3742   -1515.9227    456.08793    257.25307   -591.42479    36397.316 
  585800    292.91491   -1516.1807    467.41632    261.79426   -219.53371    36397.316 
  585900     291.5348   -1552.5971    507.02133    258.80803    2.5841409    36397.316 
  586000    301.82609   -1494.9392    505.20126    360.69114    269.17119    36397.316 
  586100    301.24133    -1527.842    481.64211    301.61282   -186.81298    36397.316 
  586200    288.45232   -1538.6167    489.48395    241.45944    649.08738    36397.316 
  586300    306.69711   -1522.9858    500.57839    349.81551     220.2279    36397.316 
  586400    300.69177    -1546.499    475.82861    274.68353   -137.98773    36397.316 
  586500    300.87279   -1497.6321    478.24785    326.77949    -762.9001    36397.316 
  586600    297.09551   -1485.4955    485.12429    328.89224   -643.03759    36397.316 
  586700    292.87091   -1502.5422    479.02743     286.8471   -902.08434    36397.316 
  586800    302.17403   -1454.7919    517.83098    415.02483    -485.0024    36397.316 
  586900      313.972   -1509.3702    475.54357    370.94559   -380.90643    36397.316 
  587000    311.51624   -1503.6941    479.02641      369.117   -887.26704    36397.316 
  587100     297.0944   -1500.2786    486.96569    315.94563    -260.2905    36397.316 
  587200    304.82912   -1497.0419    480.14062    346.96389    194.57215    36397.316 
  587300    301.81145   -1556.6407    482.35049    276.07336    202.12763    36397.316 
  587400    307.40186   -1518.6923    465.02946    321.71328    459.86258    36397.316 
  587500    297.70737   -1571.8815    469.78733    229.90696    215.32453    36397.316 
  587600     310.0302   -1538.7159    485.78553    334.20547   -332.13505    36397.316 
  587700    305.81527   -1526.0107    452.87857    295.14531   -133.30894    36397.316 
  587800    311.47641    -1529.882    472.29061    336.01507    94.932109    36397.316 
  587900    304.65249   -1562.7834    445.06314    245.35469    21.485532    36397.316 
  588000     304.7113     -1536.96    486.17229    312.55035     -197.885    36397.316 
  588100    296.80532   -1574.2698    474.33125    228.02656   -175.82213    36397.316 
  588200     306.1711    -1551.432    468.04678    286.48421    66.670697    36397.316 
  588300    304.98769   -1592.4648    473.92476    246.03463    697.77122    36397.316 
  588400    306.27715   -1535.2009     496.4249    331.56795     968.2954    36397.316 
  588500    293.75119   -1574.7937    464.81921     204.3259     708.8702    36397.316 
  588600    297.61175   -1591.2566    449.47522    189.79187    734.22825    36397.316 
  588700    299.31406   -1568.2324    470.57366    241.53098    1278.5714    36397.316 
  588800    310.94809   -1545.6846    489.31373    334.87176    740.63466    36397.316 
  588900    288.57388   -1521.7813     508.4592    277.81396    652.96198    36397.316 
  589000    286.40711   -1604.0316    455.67656    133.08644    29.956846    36397.316 
  589100    297.97518   -1547.2496    479.20652    265.15623    568.48429    36397.316 
  589200    293.47225   -1582.5275    472.54174    203.06655    55.771052    36397.316 
  589300    300.48278   -1545.6012    489.14185    287.95945    -373.3951    36397.316 
  589400    298.50134   -1547.6032    472.73017    260.68039   -438.94486    36397.316 
  589500    296.40266   -1569.3796    450.83644    207.62044   -434.68774    36397.316 
  589600    301.17582   -1558.2234    459.36572    248.66197   -363.51088    36397.316 
  589700    301.20112   -1545.9289    482.63595    284.33984   -279.86229    36397.316 
  589800    295.84452   -1576.7084    511.50457    258.46247    -47.83954    36397.316 
  589900    292.99157   -1579.9737    460.96039    191.88833    292.90796    36397.316 
  590000    293.04078   -1582.7366    443.59796    171.98321    293.16841    36397.316 
  590100    297.59222   -1565.2628    497.77789    264.00099   -98.677414    36397.316 
  590200    303.62633    -1540.491    455.08849    273.08121   -29.306745    36397.316 
  590300    296.63163   -1544.9061    457.32075    239.60264   -198.78244    36397.316 
  590400    296.90699   -1546.6798    470.30685    252.04706   -583.60368    36397.316 
  590500    297.14908   -1544.3987    484.73992    269.84439   -1223.3462    36397.316 
  590600    299.74559   -1560.9981    463.71988    243.84226   -103.91239    36397.316 
  590700    305.76838   -1587.8599    467.67531    247.88309   -244.78951    36397.316 
  590800    294.51607    -1602.374    472.67708    188.02565    171.77178    36397.316 
  590900    283.34664    -1556.666    448.96439    160.04676     322.0258    36397.316 
  591000     295.3413   -1562.5865    470.68569    229.51407    424.63271    36397.316 
  591100    287.56684   -1517.5174     479.7957    248.90863   -2.8648406    36397.316 
  591200    306.11322   -1549.3781    468.55126    288.78362   -46.201252    36397.316 
  591300    303.38555   -1559.9142    469.83289    267.32507    277.72536    36397.316 
  591400    299.85825   -1563.5293    469.56192    247.65713   -199.98066    36397.316 
  591500    313.01943    -1550.117    484.83146    335.22472   -62.812083    36397.316 
  591600    297.78318   -1590.4214    459.89302    201.81192   -480.94794    36397.316 
  591700    290.59471   -1555.6678    496.07308    240.58291   -261.56118    36397.316 
  591800    297.60665   -1542.7148    501.27875    290.11437   -153.26868    36397.316 
  591900    301.28034   -1532.6218    478.79392    294.15942   -716.23533    36397.316 
  592000    301.37737   -1548.3618     480.4787     280.5383   -280.56403    36397.316 
  592100    300.65301   -1537.5014     472.9303    280.60933    127.39358    36397.316 
  592200    304.60344   -1544.0557    452.13398    270.93372   -339.34151    36397.316 
  592300    296.01152   -1478.0391    470.52271    316.89715   -650.33366    36397.316 
  592400    299.77903   -1517.8043    479.12176    302.58754   -499.02405    36397.316 
  592500    293.97758   -1541.7666    471.98415    245.53085    -90.11231    36397.316 
  592600    294.83595   -1531.0081    478.54742     266.6931   -218.43797    36397.316 
  592700     299.2344   -1521.3232      478.667    296.17716    -251.1548    36397.316 
  592800    294.08577   -1511.7287    458.50673    262.57541   -779.91112    36397.316 
  592900    305.82347   -1501.1123    488.12162    355.32344   -518.10294    36397.316 
  593000    298.36754    -1536.627    498.27122     296.5991   -330.33135    36397.316 
  593100    302.14771   -1491.8387    508.21071    368.24005   -140.57078    36397.316 
  593200    295.46563   -1523.8778    499.11618    297.20947    244.71654    36397.316 
  593300    300.90561   -1512.2436    484.34368    318.41077    167.67666    36397.316 
  593400     302.8493   -1512.3491    504.57665    347.23464   -277.16642    36397.316 
  593500    296.65914   -1531.1957    504.62751    300.74286   -218.97964    36397.316 
  593600    302.27334    -1547.794    494.27595    298.91214   -40.832389    36397.316 
  593700    299.37879   -1505.8424    492.69751    326.33447   -646.13894    36397.316 
  593800    301.79758   -1526.8709    497.03336    320.46391   -9.4216378    36397.316 
  593900    298.51265   -1513.2086    494.57463    316.97012    275.20777    36397.316 
  594000    291.69196   -1516.6687    472.59545    261.01367   -273.33305    36397.316 
  594100    296.95511   -1539.0537    497.09223    286.67387   -98.885232    36397.316 
  594200    294.26634   -1582.5198    504.44969    238.53512   -253.39371    36397.316 
  594300    290.44162   -1565.1291    502.07336    236.43693   -310.97822    36397.316 
  594400    294.03138    -1545.972    488.89904    258.48103    142.96667    36397.316 
  594500    293.73084   -1524.8642    487.30308    276.64821   -169.38297    36397.316 
  594600    292.40639   -1524.6994    485.71216    269.29622    243.15419    36397.316 
  594700    308.68494   -1547.4583    473.62918    307.28779    274.08169    36397.316 
  594800     299.8441   -1515.3825    490.61761    316.79638    -92.32678    36397.316 
  594900     302.2611   -1498.5478    513.79439     367.6219    101.56993    36397.316 
  595000    299.65817   -1545.2625    498.36817    293.83504   -104.32151    36397.316 
  595100    302.20957   -1512.4559    482.12194    321.81083     176.8686    36397.316 
  595200    293.71071   -1556.1079    484.97625    242.98765    313.83542    36397.316 
  595300    302.12044   -1492.6591    494.42748     353.5144   -25.410073    36397.316 
  595400    302.45046   -1508.2744    486.32137    331.26954     596.8306    36397.316 
  595500    301.28923   -1505.9326    477.39414    319.48858    927.75961    36397.316 
  595600    301.25455    -1522.535    470.83657    296.17349    500.49477    36397.316 
  595700    284.10167   -1507.0715    485.90487    249.95993    280.40762    36397.316 
  595800    298.79951   -1510.3996    480.78944    307.27743    680.02625    36397.316 
  595900     308.3136   -1537.9598     496.6662    338.16187    933.11381    36397.316 
  596000    302.06529   -1542.3075    477.45289    286.64468    30.979812    36397.316 
  596100    300.46085   -1525.9233    462.97718    281.37458   -399.87179    36397.316 
  596200    300.77655   -1519.7024    480.60881    306.63964   -501.31013    36397.316 
  596300    294.73922   -1516.3466    472.23253    274.60695   -547.10924    36397.316 
  596400    296.84113   -1495.0733    480.75752    313.80955   -294.26882    36397.316 
  596500    293.47122   -1530.4283    491.50456    274.12396   -54.579597    36397.316 
  596600    295.64209   -1503.1229    482.59921    302.23689   -188.86927    36397.316 
  596700    299.61732    -1502.358    481.51141    319.70001    123.82022    36397.316 
  596800    304.25967   -1542.5781    510.78202    329.52127    610.62413    36397.316 
  596900    306.71886   -1556.3048    469.82719    285.84264    451.53494    36397.316 
  597000    307.91111    -1575.441    487.46923    289.68281    369.25511    36397.316 
  597100    305.04723   -1586.0813    454.25671    233.01651    679.60009    36397.316 
  597200    311.08839   -1569.0886    456.04623    278.82809    -283.3715    36397.316 
  597300    291.09138   -1522.1368    474.20429    254.46731    -370.4855    36397.316 
  597400     300.5105   -1504.9881    465.88263    305.43737   -139.58997    36397.316 
  597500    299.58329   -1567.6248    483.64438    256.41392   -285.96895    36397.316 
  597600    298.64257   -1548.7685    485.28451    272.70132    -262.4389    36397.316 
  597700    298.31122   -1541.2412    452.91087    246.37248   -366.08563    36397.316 
  597800    297.08322   -1520.9207    483.05447    291.34234   -408.81601    36397.316 
  597900    299.23241   -1561.8408    484.81299    261.79663    28.044987    36397.316 
  598000    297.92762   -1562.2941    473.12056    243.81293    448.21256    36397.316 
  598100    301.54518   -1541.5608     493.4688    301.08018    456.72572    36397.316 
  598200    307.70119   -1513.5917    515.86271    378.98643   -13.516549    36397.316 
  598300    298.74636   -1527.4004    502.19694    311.44628   -184.94993    36397.316 
  598400    298.96858   -1516.1068    470.23215    291.76937    -795.0483    36397.316 
  598500    302.09229   -1517.9546    499.29397    332.95946   -1150.0491    36397.316 
  598600    297.04929   -1463.5118    485.14203    350.68689   -398.27651    36397.316 
  598700    297.72341   -1491.3767    503.56335    344.25954   -499.23594    36397.316 
  598800    297.82292   -1477.2509    511.89059    367.15775    450.21804    36397.316 
  598900    301.52493   -1510.2986    485.13892    323.92193   -663.90548    36397.316 
  599000    294.30302   -1500.9592    493.48417    309.29437   -765.80206    36397.316 
  599100    302.47813   -1495.1321    481.44699    339.66131   -875.37483    36397.316 
  599200    302.87685   -1498.5717    476.23598    332.79465   -442.73021    36397.316 
  599300    299.90885   -1489.6468    484.11468    336.31878   -316.86877    36397.316 
  599400    308.13865   -1519.9692    477.89844     336.6019   -416.74703    36397.316 
  599500    299.36013   -1525.9998     510.1587    323.55471   -81.050782    36397.316 
  599600    307.42063   -1498.1617    478.67022    355.96859    66.474232    36397.316 
  599700    302.39666   -1538.2918    478.83369    293.52377   -58.341611    36397.316 
  599800    306.34161   -1485.6486    497.46864    382.45239    565.29641    36397.316 
  599900    316.04545   -1479.7227    474.96496    409.29146    689.13643    36397.316 
  600000    294.11693   -1470.5064    490.41931    335.84968   -44.605305    36397.316 
  600100    303.52368   -1467.6953    463.17846    353.50754   -418.23166    36397.316 
  600200    301.46539   -1495.1019    467.25619    320.96952   -519.65605    36397.316 
  600300    287.01314   -1486.2807    487.87182    285.74417   -162.52359    36397.316 
  600400     303.4728   -1492.4226    502.38698    367.76111   -308.77659    36397.316 
  600500    307.59354   -1541.6168    497.75939    332.37632   -92.560271    36397.316 
  600600    294.04047   -1540.2019    480.96152    256.35429   -827.98624    36397.316 
  600700    295.47901    -1551.074    484.18326    255.14023    134.27503    36397.316 
  600800     299.1384   -1598.6147    467.72159    207.51069    242.48353    36397.316 
  600900    296.06882   -1565.8306    491.00693     249.8462    110.33708    36397.316 
  601000    297.19437   -1568.9455    503.43388    264.19423      579.655    36397.316 
  601100    306.83807    -1562.645    486.45928    296.66786    142.83192    36397.316 
  601200    303.02302    -1537.292    461.13966      279.632   -210.80345    36397.316 
  601300     303.4718   -1525.3144    482.48251    314.96036   -16.309589    36397.316 
  601400    289.71909   -1528.1327    485.13949    253.26673   -638.07112    36397.316 
  601500    303.66663   -1561.9504    474.55403    271.26762   -38.610845    36397.316 
  601600    303.26945   -1556.7815    462.64018    262.74561    703.25206    36397.316 
  601700    297.22355    -1571.944    471.72453    229.61696    480.87484    36397.316 
  601800      308.774   -1592.9479    461.53095    250.09839    19.643983    36397.316 
  601900     293.6416   -1585.1279    475.67095    204.35315    -269.9658    36397.316 
  602000    299.01811   -1552.9198    472.17277    257.11852    -637.4458    36397.316 
  602100    307.59043   -1566.4806    476.23081    285.97004    271.98868    36397.316 
  602200    304.19769   -1532.9122    456.43764    284.56548    248.50225    36397.316 
  602300    296.81976   -1578.5039    472.32815    221.85404   -142.22876    36397.316 
  602400    282.31295   -1576.7058    472.34749    158.76516    752.91381    36397.316 
  602500    300.97922   -1598.9426    465.29686    212.99426    690.27653    36397.316 
  602600    292.44422   -1636.8206    465.21876    136.85089    381.18202    36397.316 
  602700    302.12199   -1582.7789    468.82447     237.7985    381.70748    36397.316 
  602800    296.65303   -1588.0051    471.35142    210.63007    555.60078    36397.316 
  602900    301.46565   -1556.0609    480.00801    272.76348    85.994914    36397.316 
  603000    297.39993    -1537.838    489.11686    281.90436    443.12213    36397.316 
  603100    288.54457   -1555.6973    478.18881     213.4964    38.500278    36397.316 
  603200    313.01168   -1538.8061    465.37445    327.04398    432.99933    36397.316 
  603300    302.57136   -1517.4204    470.41282    306.75599    97.857769    36397.316 
  603400    296.24557   -1533.8052    508.67044    300.32592    348.88068    36397.316 
  603500    299.34312    -1572.523    500.66853    267.46532    95.845807    36397.316 
  603600    288.39492   -1535.8622    483.19087     237.6641    79.252994    36397.316 
  603700    299.20425   -1565.7526    459.81813    232.76399    44.786242    36397.316 
  603800      309.021    -1552.806    459.39973    289.21426    39.521916    36397.316 
  603900    293.93461   -1553.4208    479.00183    240.70205    345.19362    36397.316 
  604000    288.24998   -1504.9866    478.51926    263.21957    352.15781    36397.316 
  604100    299.06578   -1526.2031    497.88985    309.76558    290.40124    36397.316 
  604200    299.54905   -1532.3826    466.31165     274.1702   -14.376865    36397.316 
  604300    295.79086   -1507.2915    487.29589    303.43069   -444.41555    36397.316 
  604400    295.00667   -1566.2995    478.87342    232.49157   -247.33601    36397.316 
  604500    290.18939   -1561.5542    490.19221    227.00213    96.488786    36397.316 
  604600    301.11258    -1521.221    481.57662    307.59229   -677.52765    36397.316 
  604700    289.73985   -1529.0286    498.43883    265.76309   -574.82467    36397.316 
  604800    297.55668   -1524.5797    462.20061     268.9478    -224.5897    36397.316 
  604900    287.29925   -1516.8744     484.6749    253.23358   -576.41504    36397.316 
  605000    292.62976   -1498.7004    474.25337    284.83584   -138.28042    36397.316 
  605100    293.58485   -1538.0798    495.41973    270.89602   -492.56881    36397.316 
  605200     304.2886   -1574.8129    473.05376    259.68767    68.259059    36397.316 
  605300    297.53662   -1583.3678    452.25267    200.12196    159.92008    36397.316 
  605400     299.5169   -1543.3737    502.84399    299.56751    584.28148    36397.316 
  605500    308.33809   -1560.2548    469.98936    289.29956    1175.0069    36397.316 
  605600    296.01059   -1571.4293    480.60829    233.58834    1258.9107    36397.316 
  605700    303.41476   -1579.7045    489.19575     267.0283    1747.8173    36397.316 
  605800    294.00122   -1553.1252    473.35094    235.64482    1460.4097    36397.316 
  605900    304.01823   -1579.1486    482.71829    263.80682    589.64482    36397.316 
  606000    299.63931   -1554.8545    465.16842    250.95891    92.365862    36397.316 
  606100    305.45926    -1553.529    472.43666    285.59221   -451.34741    36397.316 
  606200    301.30729   -1573.4684    458.81933    233.45878    -544.8296    36397.316 
  606300    296.11257   -1567.7709    491.26191    248.35661   -802.35511    36397.316 
  606400    307.98716   -1548.0852    463.39367    293.30339   -572.48995    36397.316 
  606500      296.762   -1545.6115    480.24048    262.40029    -365.5869    36397.316 
  606600    303.52752   -1521.1484    491.10686    328.00008     -486.051    36397.316 
  606700    289.61867   -1533.9735    447.72954    209.56672    31.300978    36397.316 
  606800    301.48947   -1533.5071    466.82495    282.24084   -413.19702    36397.316 
  606900    294.96713   -1518.2913    477.90156    279.35104   -653.91735    36397.316 
  607000    292.30921   -1492.1531     469.5727    285.26825    196.49071    36397.316 
  607100    303.54076   -1506.9883    468.72993    319.84241   -98.692445    36397.316 
  607200    296.30195   -1503.9953    509.43534    331.15301   -401.76053    36397.316 
  607300    300.12998   -1495.0755    474.44661    322.21146    82.708503    36397.316 
  607400    288.54304   -1525.0989    480.75831    246.65749    142.35752    36397.316 
  607500    299.64307   -1540.4672     475.4453    275.63988    86.060432    36397.316 
  607600    295.69417   -1519.9426    471.68189     274.7329    107.36885    36397.316 
  607700    306.23398   -1532.0348    458.46401    296.58002    226.91039    36397.316 
  607800    299.52536   -1568.8119    479.07867     250.4019    24.744425    36397.316 
  607900    303.34264   -1535.9591    469.57655    290.83182    142.65161    36397.316 
  608000     299.9956   -1566.7467    481.23392    256.72627    297.40666    36397.316 
  608100    308.10268   -1537.4543    469.98818     311.0456    86.871116    36397.316 
  608200    305.43649   -1550.4935    488.34494    304.43412    316.11581    36397.316 
  608300    304.90108   -1535.7849    467.68666    296.08886    519.31632    36397.316 
  608400    303.28201   -1565.1477     459.0756    250.87103    87.791667    36397.316 
  608500     294.1599   -1602.2006    465.14203    179.07038    246.00973    36397.316 
  608600    309.51958   -1604.0717     454.4405    235.22005     469.3315    36397.316 
  608700    300.96991   -1575.2097    444.19369    215.58232    -157.3875    36397.316 
  608800    304.39015   -1568.4657    478.28587    271.72132   -750.39711    36397.316 
  608900    300.20464   -1571.3014    470.28411    242.15703   -252.72513    36397.316 
  609000    296.61304   -1555.9368    451.77844    222.94654    501.00921    36397.316 
  609100    306.55897   -1569.0367    444.18194    246.75014    252.27153    36397.316 
  609200    297.75436   -1543.8925    477.94819    266.26703    39.798664    36397.316 
  609300    296.31028   -1533.0011    466.72798    259.47714    243.28607    36397.316 
  609400    299.76518   -1542.0319    484.28282    283.45908   -518.54965    36397.316 
  609500    297.97373   -1506.8751     504.1278    330.44559   -180.98942    36397.316 
  609600    304.17994    -1529.094     479.0246    310.89122   -10.271993    36397.316 
  609700    293.00948   -1512.7377    457.00334    255.24749    297.90807    36397.316 
  609800    297.40422    -1545.078    470.65226    256.21902    47.796479    36397.316 
  609900    311.85714   -1548.6943    490.64693    337.26255    3.8355082    36397.316 
  610000    314.20509   -1525.9366    467.51207    347.39063    65.478168    36397.316 
  610100    300.56506   -1548.2693    494.48463    291.00229    51.102254    36397.316 
  610200    302.19599   -1542.2889    493.47316    303.26831    257.03871    36397.316 
  610300    306.47293   -1534.2855    478.68625    315.62068    526.41846    36397.316 
  610400    301.89958   -1540.5982    483.18775    293.34735    913.67857    36397.316 
  610500    304.26865   -1565.8621    484.17029    279.66573    910.78996    36397.316 
  610600    304.43547   -1615.4726    470.31231    216.94359    470.05066    36397.316 
  610700    304.65558   -1568.3987    451.53138    246.22145    203.89332    36397.316 
  610800    292.01282   -1619.2269    481.90403     169.1997     223.2808    36397.316 
  610900    306.53449   -1594.1595    470.54716      247.883   -85.529218    36397.316 
  611000    304.20147   -1559.8163    468.72719    269.96786    94.525491    36397.316 
  611100    302.37105   -1551.7738    462.42304    263.51657   -470.48401    36397.316 
  611200    282.18531   -1543.8702     474.7635    193.44562   -521.11957    36397.316 
  611300    309.71273   -1551.5609    496.67569    330.83024   -565.95992    36397.316 
  611400    299.60269   -1515.2515    486.28226    311.51186   -212.04828    36397.316 
  611500    305.73201    -1555.577    470.74924    283.07712   -209.95428    36397.316 
  611600    308.91651   -1540.8953    473.70052    314.95825    109.31984    36397.316 
  611700     313.3519   -1544.2889    480.46473    338.17365     258.0881    36397.316 
  611800    296.94928    -1537.145    475.10321     266.5674    167.71122    36397.316 
  611900    299.92535    -1523.801    461.87105    279.99477    519.95788    36397.316 
  612000     302.9326   -1511.8401    465.51038    309.05007   -14.287704    36397.316 
  612100    292.66505   -1524.7216    470.61673    255.33594    60.320433    36397.316 
  612200    301.93958   -1500.8273    464.98971     315.0992    763.89263    36397.316 
  612300    301.60167    -1470.736    463.42835    342.11728    930.33127    36397.316 
  612400    301.05888   -1472.5207    486.78051    361.25618    472.89063    36397.316 
  612500    306.52474   -1481.8323    475.65815    365.27763    391.72169    36397.316 
  612600    303.15665   -1502.6751     467.7859    321.49299    252.38266    36397.316 
  612700    307.14612   -1516.9861    483.89121    341.13704    392.67709    36397.316 
  612800     291.9285   -1499.8679    483.15392     289.4313    137.96308    36397.316 
  612900    290.70253   -1506.9921    461.22999    254.89801   -7.1431208    36397.316 
  613000     293.7398   -1534.5761    446.38981    226.06308    66.877882    36397.316 
  613100    305.26693   -1518.4226     497.8187    345.22015    60.819137    36397.316 
  613200    303.53741   -1523.7175    478.17947     312.5478    138.49449    36397.316 
  613300     297.8583   -1552.8168    460.24307    240.10267   -94.531645    36397.316 
  613400     304.5179   -1568.9798    463.33125    256.82422   -66.742571    36397.316 
  613500    293.64109   -1563.2334    448.61892    199.19327    161.13461    36397.316 
  613600    298.05067   -1537.7711     483.2891    279.05507    114.32897    36397.316 
  613700    298.77123    -1573.517    435.22378    198.46777   -468.04094    36397.316 
  613800    301.50412   -1581.3313    462.67345    230.33064   -183.52292    36397.316 
  613900    293.00806   -1580.1582    492.34283     223.1601   -517.72107    36397.316 
  614000    303.47698   -1561.4417    475.93199     272.3058   -602.20825    36397.316 
  614100     309.8109    -1568.066    465.38902    283.47767   -850.65477    36397.316 
  614200    293.23862   -1555.1145     469.1467    226.03921   -698.38798    36397.316 
  614300    294.92006   -1504.6752    481.87243    296.72736   -342.73729    36397.316 
  614400    300.32991   -1564.9267    478.45369    257.26183   -297.63765    36397.316 
  614500    300.90427   -1523.1758    480.90363     304.0325   -76.013346    36397.316 
  614600    291.61011    -1593.212    454.28215    165.79086   -230.99154    36397.316 
  614700    300.32766   -1552.1689    479.83843    271.39424    332.22574    36397.316 
  614800    297.75884   -1590.2529      492.611    234.58948   -280.34634    36397.316 
  614900    301.09632   -1558.2083    467.01287    255.96849   -622.30055    36397.316 
  615000    302.72461   -1525.5555    470.02621    298.91992   -368.40636    36397.316 
  615100    294.85185   -1511.8231    467.53064    274.93246   -494.03578    36397.316 
  615200    305.34351   -1517.0108    465.26154    314.41743   -196.18362    36397.316 
  615300    308.83171   -1522.4883    483.86677    343.15205    739.83426    36397.316 
  615400    298.16502   -1523.6348    516.14964    326.56358   -46.714858    36397.316 
  615500    300.18998   -1514.7403    489.62401    317.99246    -131.7395    36397.316 
  615600    299.20942   -1545.1644    438.38475    231.94186   -228.06416    36397.316 
  615700    308.06768   -1522.3561    468.90599    324.90506   -467.80794    36397.316 
  615800    297.71098   -1501.7311    462.30122     292.5874   -116.40866    36397.316 
  615900    307.98878   -1475.9944    494.98567    396.99344    352.64684    36397.316 
  616000    302.83226   -1504.6891    462.57018    312.81199    123.90517    36397.316 
  616100    308.92215   -1515.9025    497.46235    363.73806    372.47523    36397.316 
  616200    304.38807    -1508.665    470.17595    323.40286    305.60828    36397.316 
  616300    303.51667   -1519.6599    484.04555    322.37866   -83.397035    36397.316 
  616400    289.72321   -1523.9832    479.05146    251.34668    35.524336    36397.316 
  616500    307.68977   -1488.7847    454.62693    342.50657   -467.07589    36397.316 
  616600    306.51856   -1526.8851    474.94338    319.48231   -369.11955    36397.316 
  616700     287.9051   -1537.3667    465.52464    216.30181   -223.54545    36397.316 
  616800    299.14752   -1520.2694     468.5965    286.77173    489.59533    36397.316 
  616900    304.37659   -1542.3589    492.10153    311.58306    214.67093    36397.316 
  617000     300.2862   -1537.4713    464.92828    270.99632    14.951159    36397.316 
  617100    303.33921   -1515.1967     492.1699    334.17227    -23.67176    36397.316 
  617200    300.46642    -1520.973    453.38073    276.75339   -399.58704    36397.316 
  617300    298.15663   -1536.1655    469.13448    266.98019    162.83616    36397.316 
  617400    311.43473    -1559.191    488.66117    322.89013    273.30905    36397.316 
  617500    306.93979   -1557.0912    457.62727    273.84482    540.11905    36397.316 
  617600    297.29991   -1545.4252     470.3912    255.14401    928.06782    36397.316 
  617700    297.06212   -1546.5176    500.23547    282.83198    1176.3653    36397.316 
  617800    294.12111    -1582.471    453.33282    186.81732    898.82248    36397.316 
  617900    304.51077   -1582.3169    466.63199    246.75596    842.53424    36397.316 
  618000    301.28559   -1569.6836    473.44307    251.77022    701.24542    36397.316 
  618100     298.3343   -1564.7763    452.97407    223.00384    1093.0098    36397.316 
  618200    300.25684   -1569.0902    468.35338    242.67107    561.63616    36397.316 
  618300     298.6765   -1510.0791    505.69006    331.94814    134.17682    36397.316 
  618400    301.73897   -1500.7705    475.52879    324.79758     299.4499    36397.316 
  618500    289.45515   -1529.4034    490.86167    256.53729   -338.43793    36397.316 
  618600    299.04589   -1542.7046    465.83367    261.11897   -102.50574    36397.316 
  618700    309.76327   -1495.7457    505.28857    395.48436    16.020075    36397.316 
  618800    295.76273   -1492.0709    445.08534    276.31485    157.33841    36397.316 
  618900    302.52602   -1460.0231    497.16388    390.70142    466.39379    36397.316 
  619000    298.27867   -1508.7659    494.53212    320.32336    347.15868    36397.316 
  619100    303.03794   -1562.5656    470.95372    264.23917    399.27981    36397.316 
  619200    302.78077   -1542.4854    467.89307    280.10819    542.97497    36397.316 
  619300    302.54901   -1533.1209    474.15961    294.70224    662.61135    36397.316 
  619400    294.99173   -1526.0048    463.31629    257.16225    139.85465    36397.316 
  619500    296.91606   -1534.3538    464.22098    258.32775   -99.599489    36397.316 
  619600    296.31733   -1524.6956    499.54626    300.63244   -37.311592    36397.316 
  619700    304.29316   -1557.4417    456.35628    260.38179   -843.13689    36397.316 
  619800    305.48265   -1532.4875    454.12365     288.4254   -748.35923    36397.316 
  619900    296.69185   -1476.3211    465.30666    316.44299   -415.34731    36397.316 
  620000    295.04436   -1503.0232    459.95071    277.01373   -51.308084    36397.316 
  620100    305.17085   -1538.1023    471.67513    298.96701   -113.08583    36397.316 
  620200    296.67518   -1495.6557    462.07649    293.80365   -156.19782    36397.316 
  620300    300.03128   -1525.3155    474.92839    292.01166    73.042542    36397.316 
  620400    300.22282   -1528.2736    490.96981    305.95188     537.2979    36397.316 
  620500    299.50669   -1519.4022    474.13959      294.789    552.32692    36397.316 
  620600    297.21408   -1499.0472    502.60631    333.35313    1298.2765    36397.316 
  620700    286.06694   -1523.6159    467.23932    223.54293    1266.4754    36397.316 
  620800    297.52395   -1511.6585    458.95884    278.48073    886.42399    36397.316 
  620900    302.18905   -1549.1193    441.79858    244.73229    521.75144    36397.316 
  621000    291.85631   -1564.8167    439.19854    180.20415    318.31932    36397.316 
  621100    297.77737   -1487.5385    474.12341    318.89921    9.8511755    36397.316 
  621200    304.22732   -1523.4142    462.28234    300.04081    258.86871    36397.316 
  621300    299.48535   -1496.4394    466.28373    309.80044    660.30209    36397.316 
  621400    305.19509   -1490.9574    485.15665    359.70191     1004.209    36397.316 
  621500    295.10504   -1542.9768    481.11109    258.49205    1148.3355    36397.316 
  621600    292.32023   -1526.9571    457.65241    238.59326    1188.4532    36397.316 
  621700    309.54143   -1567.5481    465.87438    283.27527     886.8289    36397.316 
  621800    292.36171   -1575.2066    487.49055     220.3675    441.09959    36397.316 
  621900    296.28958   -1569.3527    427.22874    183.53366      223.428    36397.316 
  622000    300.25842   -1560.8441    448.22825     230.7991    167.75172    36397.316 
  622100     293.5638   -1570.2156    459.84475    203.09107    394.26564    36397.316 
  622200    299.46445   -1562.7957    444.60304    221.66995     237.0991    36397.316 
  622300    299.30481    -1573.157    474.80052    240.79182    401.96741    36397.316 
  622400     293.2347    -1588.682    465.95341    189.26093   -49.746388    36397.316 
  622500    293.67916   -1569.7126    467.70168    211.96712    -223.1662    36397.316 
  622600    302.33368   -1536.5198    446.60764    262.78797   -222.42686    36397.316 
  622700    291.55562   -1501.6661    500.99136    303.80219   -456.73982    36397.316 
  622800    292.59764   -1524.6875    464.98624    249.43788   -513.86197    36397.316 
  622900      301.029   -1485.5486    467.13472    328.44884    -54.54209    36397.316 
  623000    296.91017   -1459.0327    456.35104    325.75259   -389.78327    36397.316 
  623100    295.23303   -1499.8514    489.72909    310.80812   -325.10656    36397.316 
  623200    306.55107   -1465.8628    488.43759    394.14434   -163.97649    36397.316 
  623300    313.14562   -1456.3318    468.65613    413.39915    168.31031    36397.316 
  623400    308.00133   -1514.5548    487.30593    350.80943   -286.63361    36397.316 
  623500    309.61441   -1511.8554    465.88424    339.30435   -146.11586    36397.316 
  623600    306.78051   -1552.5883    488.58564    308.59342   -194.72795    36397.316 
  623700    297.95838   -1485.0499    459.21791    307.29218   -199.51588    36397.316 
  623800    291.27998   -1500.9693    483.37014    285.64448   -199.21517    36397.316 
  623900    306.56127   -1512.5204    488.88446    347.97918   -75.991744    36397.316 
  624000     296.3676   -1512.2224    499.46944    313.25367   -348.96823    36397.316 
  624100    295.68174   -1547.9179     447.7827    222.80287    -236.7936    36397.316 
  624200    296.26007   -1522.6043    456.02139    258.94265   -710.42046    36397.316 
  624300    300.24729   -1535.9131    474.88921    282.34126   -238.61222    36397.316 
  624400    298.99017   -1511.2965    464.87345     291.3175    106.92436    36397.316 
  624500     289.2803   -1518.3993     482.5668    258.46423    163.57619    36397.316 
  624600    301.40409   -1537.1662    461.76483    273.13963    -401.9284    36397.316 
  624700    304.59521   -1505.4855     476.4517    333.78485    206.91851    36397.316 
  624800     294.1254   -1503.9965     484.7812    296.75937    346.88862    36397.316 
  624900    304.06416   -1497.0826     477.6661    341.02608   -251.76596    36397.316 
  625000    293.41683   -1541.7447    440.33986    211.39959   -359.63444    36397.316 
  625100    312.15364   -1481.4222    496.72231    411.93668   -259.29465    36397.316 
  625200    289.95639   -1505.4702    454.81483    246.66637   -269.81968    36397.316 
  625300     299.1739   -1521.5594    447.33053    264.33381   -516.67154    36397.316 
  625400    307.42797   -1492.2105    488.52102    371.80345   -475.94171    36397.316 
  625500    306.77517   -1549.4705    463.56557    286.66731   -835.26602    36397.316 
  625600    291.77949   -1505.2563    478.29627     278.5186   -668.83294    36397.316 
  625700    301.94598   -1487.6104    477.36957    340.72465      109.763    36397.316 
  625800     299.0619   -1520.5768    439.23803    256.72281   -296.02571    36397.316 
  625900    311.64366   -1522.4701    469.69305     341.5777    61.118135    36397.316 
  626000    302.84728   -1531.9227    459.64857    282.72397   -43.225139    36397.316 
  626100    299.86276   -1511.6724    477.02735    306.99966   -327.52867    36397.316 
  626200    304.46947   -1497.0854     468.0511    333.22178   -243.84096    36397.316 
  626300    287.20884   -1541.9112    483.80319    226.92059   -229.77539    36397.316 
  626400    298.80971   -1527.0436    466.67882    276.56838   -314.81274    36397.316 
  626500    299.07545   -1507.4343    463.27335    293.96122    -650.1241    36397.316 
  626600    299.07304   -1457.9486    467.70318    347.86593   -533.85686    36397.316 
  626700    301.13974   -1528.9139    464.48804    282.93233     9.650326    36397.316 
  626800    304.63608   -1523.5991    486.04953     325.4519    658.92532    36397.316 
  626900    312.27611    -1508.166    453.46239    342.48082    320.29946    36397.316 
  627000    291.98369    -1491.924    469.10741    283.57563    475.73176    36397.316 
  627100    307.17604   -1519.3068    462.20542    317.26442    662.49555    36397.316 
  627200     307.1437    -1510.925    461.74994    325.04601    695.74879    36397.316 
  627300    308.16783   -1523.6899    492.81881     347.9322    55.453585    36397.316 
  627400     297.5539   -1538.6068    493.51701     286.2246    330.31282    36397.316 
  627500    292.74904   -1521.1867    465.85148    254.48135    175.22425    36397.316 
  627600    296.02393    -1520.834    479.48293    283.11799     60.76162    36397.316 
  627700    299.33702   -1502.2863    486.47389    323.48002    162.07755    36397.316 
  627800    301.31435    -1507.763    466.86596    307.24233   -412.82979    36397.316 
  627900    298.12516   -1549.7856    476.31709    260.40187   -24.827943    36397.316 
  628000    295.05782   -1498.4495    467.20339    288.90038   -306.27297    36397.316 
  628100    291.00957     -1537.95    473.80737    237.89117    122.82529    36397.316 
  628200    296.74007    -1541.407    515.65146    301.91768    -188.9896    36397.316 
  628300    290.81734   -1505.7556    486.55455    281.97269    257.73984    36397.316 
  628400    295.01929    -1483.001    478.04854    315.02159    337.01477    36397.316 
  628500    299.08156   -1536.0391    489.41385    291.52425     646.7825    36397.316 
  628600    300.11908   -1495.6159    459.32238    306.49809    152.98988    36397.316 
  628700    306.20305   -1489.7387    474.67924    354.95299   -326.70204    36397.316 
  628800    299.68725   -1511.9654    453.94563     282.8397    58.197168    36397.316 
  628900    302.32343   -1502.7458    456.84595     306.7544    95.785784    36397.316 
  629000     295.7091   -1523.6211    494.12976    293.56908    669.90303    36397.316 
  629100    307.45474   -1509.4443    496.64125    362.80971      543.349    36397.316 
  629200    294.13159   -1540.2529    441.87138     217.6208   -546.18064    36397.316 
  629300    294.17163   -1574.6521    446.48162    188.01098   -574.83093    36397.316 
  629400    308.77909   -1570.3497    460.69257    271.88102   -542.03464    36397.316 
  629500     307.4561   -1544.6091    472.03386     303.0436   -441.14934    36397.316 
  629600    304.71265   -1516.3277    445.66556    292.68195   -37.445819    36397.316 
  629700     302.4632   -1497.7226    455.73089    311.28786   -254.45501    36397.316 
  629800    300.68893   -1495.9244    463.58114    312.99787   -343.17258    36397.316 
  629900    297.16126   -1530.6591    472.31147     271.2101   -531.14863    36397.316 
  630000    290.11395   -1548.2688    465.23529    214.99309   -622.15889    36397.316 
  630100    288.80137    -1540.589    451.73119     203.2961   -616.30171    36397.316 
  630200    305.08119   -1541.9488    488.02613    311.07034   -503.00034    36397.316 
  630300    304.21578   -1513.1325    439.42552    287.41397   -353.65288    36397.316 
  630400    308.29685   -1503.6322    500.28837     376.0367   -732.46368    36397.316 
  630500    299.25457   -1515.0616    451.88008    275.74211   -714.06383    36397.316 
  630600    311.03109   -1533.8183    476.30314    334.09886   -1334.3012    36397.316 
  630700    308.88271   -1492.8421    470.88433    360.04403   -369.10158    36397.316 
  630800    302.17589   -1493.5825    466.13611    324.54773   -439.99941    36397.316 
  630900    314.97074   -1498.5258    456.13905    366.85403    279.29272    36397.316 
  631000    310.16631   -1530.8203    458.52504    315.44956    92.308311    36397.316 
  631100    306.77508   -1493.2179    497.73233    377.08626   -159.62437    36397.316 
  631200    302.21157   -1498.8151    476.09919    329.43782    856.54985    36397.316 
  631300    302.17698   -1508.2146    473.13036    316.91472    940.07811    36397.316 
  631400    305.49759   -1502.8145    484.03706    348.07862    678.46844    36397.316 
  631500    294.98714   -1496.4123    486.71545    310.13346    147.11894    36397.316 
  631600    293.61537   -1496.7968    465.39608    282.29202    38.729767    36397.316 
  631700     290.2315   -1528.8931    479.78133    249.44076    43.020163    36397.316 
  631800     292.9769   -1512.1141    457.87388    256.59579   -325.46687    36397.316 
  631900    287.56703   -1519.8994     478.9456     245.6774   -259.42265    36397.316 
  632000    300.39237   -1524.6817    464.41006    283.74262   -237.82871    36397.316 
  632100    314.64592   -1515.4476    467.69439    360.03429    14.138501    36397.316 
  632200    308.86495     -1533.86    456.82734    304.88965    46.125484    36397.316 
  632300     304.2169    -1518.649    462.80217    305.27916   -203.45103    36397.316 
  632400    301.76926   -1493.9317    464.00936    320.25242    -211.8526    36397.316 
  632500    306.02109   -1470.7446    449.02637    347.48004   -289.64395    36397.316 
  632600    306.83673   -1498.6345     464.1729    338.38599    602.75173    36397.316 
  632700    298.87795   -1492.3661    472.05938    316.93179    581.86881    36397.316 
  632800    305.05001   -1509.3302    456.24278    311.76612     327.7022    36397.316 
  632900    300.94529   -1508.2577    446.52832    284.75878     10.93938    36397.316 
  633000    300.33091   -1494.8578    458.72748    307.60896   -28.644963    36397.316 
  633100    303.71684   -1504.5069    456.30623    310.68798    136.14544    36397.316 
  633200    294.33018   -1501.9552    467.45588    282.39158    401.88567    36397.316 
  633300     301.8335   -1554.7454    462.48886    258.20566    363.59052    36397.316 
  633400    301.22656   -1493.3603    464.57074    318.95704    512.12108    36397.316 
  633500     300.7714   -1518.9907    465.78945    292.50893    179.87927    36397.316 
  633600    299.17049   -1513.4811    459.63492    284.70122    333.81966    36397.316 
  633700    293.48465   -1522.5281    478.98053     269.5602    506.40175    36397.316 
  633800    299.44642   -1489.8823    485.90098    335.80065   -334.41772    36397.316 
  633900    293.85981   -1522.3467    457.85114    250.29085   -88.281884    36397.316 
  634000     304.8592   -1536.3902    487.97838    315.58795    302.90738    36397.316 
  634100    294.96666   -1519.8081    436.18995    236.12051   -390.81571    36397.316 
  634200     303.8742   -1503.9268    467.43823    323.10416   -414.55761    36397.316 
  634300    301.20133   -1506.9749    468.09599     308.7548     -14.7709    36397.316 
  634400    302.91813   -1527.0458    466.75151    295.02078   -142.54264    36397.316 
  634500    297.82254   -1485.5046    465.38713    312.39888    197.49436    36397.316 
  634600    296.04109   -1499.1647    446.43806     271.8192    330.40774    36397.316 
  634700    309.10913   -1476.6025    487.70645    394.11869    221.54494    36397.316 
  634800    296.93891   -1492.9942    472.83864    308.40732    82.540749    36397.316 
  634900    299.97381   -1525.5839    462.20035    278.75799   -116.45428    36397.316 
  635000    299.60328   -1496.7893    492.03024    335.72467    508.53209    36397.316 
  635100    300.33005    -1527.125     445.1422     261.7527   -353.20116    36397.316 
  635200    298.22415     -1490.71    483.66975    327.27304   -87.043468    36397.316 
  635300    290.69159   -1556.6967    468.33717    212.25161   -603.56558    36397.316 
  635400    293.69715   -1523.4278    462.15531    252.78606    -316.8245    36397.316 
  635500    290.31726    -1515.653    492.77582    276.05911   -57.508124    36397.316 
  635600    287.64875   -1512.9766    472.80336    246.82361   -470.13544    36397.316 
  635700    292.15784   -1506.6539    475.31442    275.83189    175.08768    36397.316 
  635800    296.26707   -1521.4935    459.27604    263.33944    405.93373    36397.316 
  635900    298.04405   -1488.0479    469.41806    314.87765   -11.481377    36397.316 
  636000    302.05346   -1529.0999    468.15492    290.50135    477.89955    36397.316 
  636100     296.1271    -1495.033    472.71497    302.61262    198.55775    36397.316 
  636200     300.8642   -1500.7201     479.8437      325.249    299.24934    36397.316 
  636300    293.96906   -1515.7045    460.46519    260.03585    470.36202    36397.316 
  636400    301.14025   -1502.2865    459.50119    304.57515    405.66814    36397.316 
  636500    304.55185   -1500.9078    510.02984    371.74661    677.40768    36397.316 
  636600    293.15836   -1504.0618    456.56928     264.1554    96.499306    36397.316 
  636700    302.96625   -1522.7424    479.74943    312.53737   -27.965639    36397.316 
  636800    305.81465   -1559.4939    472.94593     281.7267   -657.58968    36397.316 
  636900     289.9297   -1540.9752    471.23327    227.46031   -195.97978    36397.316 
  637000    309.64094    -1527.819    457.61997    315.19524    178.64685    36397.316 
  637100    305.00781    -1497.054    460.31471    327.92534    47.720927    36397.316 
  637200    289.60008    -1522.415    465.06896    238.38144   -76.859376    36397.316 
  637300    298.74617   -1504.8244    471.95449    303.77896    679.47713    36397.316 
  637400    301.91771   -1574.8064    443.38803    219.42061    590.72075    36397.316 
  637500      312.196   -1513.0367    478.67834    362.46768    849.04382    36397.316 
  637600    295.99408    -1547.405    454.29283    231.22335    516.75885    36397.316 
  637700    296.96015   -1513.6755    442.80931    257.79172    442.26263    36397.316 
  637800    291.49764   -1513.6202    456.05022     246.6476   -43.293333    36397.316 
  637900    288.80218   -1512.7299    503.91573    283.34339   -707.79001    36397.316 
  638000    298.06963   -1512.1801    473.64324    295.08501   -318.27942    36397.316 
  638100     302.8677   -1500.8729    455.08369    309.30019   -733.51219    36397.316 
  638200    301.63338   -1507.1158    461.66543    304.11651   -224.42822    36397.316 
  638300    299.21971   -1539.7454     457.2926    256.31479   -46.426765    36397.316 
  638400    300.47205   -1514.3987    471.56187      301.534   -104.47889    36397.316 
  638500    291.69162   -1550.1922    481.15822    236.05147   -365.26571    36397.316 
  638600    297.23556   -1546.5475    468.33391    251.67658   -511.16225    36397.316 
  638700    302.03297   -1559.2021    457.63332    249.78594   -711.55823    36397.316 
  638800    289.09439   -1545.3046    448.54939    196.70972   -130.87843    36397.316 
  638900    305.44621   -1547.6242     452.6705    271.67253    -482.2426    36397.316 
  639000    300.96696   -1507.3342    475.64761    314.89859   -32.550081    36397.316 
  639100    293.07736   -1524.7433     469.5546    256.09682   -105.26409    36397.316 
  639200    301.76257   -1537.4934    459.66531    272.31673    339.80022    36397.316 
  639300    289.37271   -1528.5123    467.85416    234.05205   -54.399023    36397.316 
  639400    296.38485   -1507.5994    464.87263    283.35706    101.87751    36397.316 
  639500    310.48905    -1500.518    487.59839    376.26916     215.1257    36397.316 
  639600    298.28048   -1489.4283    474.66296    319.79995   -86.570379    36397.316 
  639700    293.91912   -1486.9186    490.07893    318.21205   -247.89048    36397.316 
  639800    295.12257   -1487.6431    492.37914    325.17221   -33.209639    36397.316 
  639900    304.22467   -1452.4154    498.82368    407.56905   -168.20388    36397.316 
  640000    301.63833   -1490.5456    493.35584    352.39919    42.610208    36397.316 
  640100    299.72211   -1522.2201    460.18408    278.97938    225.50362    36397.316 
  640200    297.30475   -1507.7555    469.20286    291.64708    426.08478    36397.316 
  640300    297.22931   -1502.0929    474.64618    302.41544   -154.09486    36397.316 
  640400    291.39906   -1466.1616    482.60204    320.21693   -499.37052    36397.316 
  640500    295.77951   -1453.5595    476.07628    345.89219   -230.87011    36397.316 
  640600    298.85052   -1490.3436    486.43172    333.20393   -266.68006    36397.316 
  640700    308.74805   -1438.5017    458.05367    400.95128    446.97617    36397.316 
  640800    300.47608   -1467.6563    494.80005    371.53264   -698.22216    36397.316 
  640900    303.20308    -1477.026    445.96391    325.52793   -655.55846    36397.316 
  641000     302.7386   -1431.8531     510.5729    433.23161     678.7369    36397.316 
  641100    294.68948     -1443.67    493.69697    368.52548    391.39588    36397.316 
  641200    295.75803   -1466.2338    468.89534     325.9409    21.261084    36397.316 
  641300    298.79223   -1502.6742     466.5221    300.70287    -132.1599    36397.316 
  641400     308.2375   -1505.7591    492.47718      365.833   -126.78843    36397.316 
  641500    299.21399   -1489.4015    459.56055    308.90101   -67.865204    36397.316 
  641600     303.2991   -1531.9469    470.55201    295.62466    57.560799    36397.316 
  641700    302.82091     -1526.69    472.31248    300.50251    487.51402    36397.316 
  641800    309.19632   -1508.9878     449.3827    323.79985   -16.371986    36397.316 
  641900     293.9794    -1538.381    459.66164     236.6021    -123.2636    36397.316 
  642000    302.16809   -1563.9133    465.28153    253.32748    363.45764    36397.316 
  642100    324.15996   -1552.8523    480.70881    378.21167    811.01371    36397.316 
  642200    302.60078   -1574.2042    455.46504    235.15596   -192.73887    36397.316 
  642300    295.24715   -1526.7943    447.20965    241.40899   -244.89666    36397.316 
  642400    293.44461   -1531.9194    471.13712    252.14638   -796.69069    36397.316 
  642500    296.38706   -1473.8241    442.51564    294.78528   -970.50326    36397.316 
  642600    287.62867    -1547.696    465.53415    204.74517   -574.57409    36397.316 
  642700    309.36209   -1482.2998    462.51394    364.36071   -148.14342    36397.316 
  642800    296.78509    -1569.885     446.0453    204.03494   -346.77735    36397.316 
  642900    300.45753   -1511.7297    465.47474    298.05089    246.70237    36397.316 
  643000    294.59029   -1514.2481    487.58247      291.389    232.81548    36397.316 
  643100    300.52899   -1473.8701     467.7441    338.49959    373.41652    36397.316 
  643200     299.5743   -1506.4135    452.12568    286.06626    176.41389    36397.316 
  643300     295.3807   -1478.8813    471.46676    314.17659     730.1546    36397.316 
  643400    306.33111   -1484.8078     495.8857    381.66331    152.78694    36397.316 
  643500    301.12333   -1460.1585    455.60572    342.73201   -151.42939    36397.316 
  643600    295.54044   -1484.3824     468.1936    306.11707     199.0254    36397.316 
  643700    303.18907   -1453.5723    465.30355    368.25857    400.47612    36397.316 
  643800    308.80917   -1500.4124    460.38063    341.64097    664.01488    36397.316 
  643900    294.35838   -1507.8626    456.24609    265.40057    32.785582    36397.316 
  644000    292.10323   -1498.4792    461.27452    269.72242    64.848375    36397.316 
  644100    314.81231   -1523.5078    459.00023    344.02434   -270.06759    36397.316 
  644200    303.51725   -1531.9369    463.85227    289.91105   -57.953044    36397.316 
  644300    292.61654    -1526.405    457.74535    240.56407   -297.66909    36397.316 
  644400    301.15041   -1488.1406    466.56045    325.82572     357.5564    36397.316 
  644500    300.69249   -1490.5172    477.65521    332.49512   -97.625064    36397.316 
  644600    296.33177   -1514.9879    447.66191    258.52045   -10.169499    36397.316 
  644700    307.09706    -1474.468    485.94329    385.48769     236.9389    36397.316 
  644800    300.90363   -1491.6262    483.76422    338.43974   -104.15635    36397.316 
  644900    289.64826   -1503.3942    487.29218    279.84099   -64.359493    36397.316 
  645000    301.90241   -1490.5476    478.98894    339.21184   -102.41415    36397.316 
  645100    306.13662   -1479.3823    475.06181    365.39473    579.15687    36397.316 
  645200    300.71845   -1510.2442    465.74314    300.97215    11.773479    36397.316 
  645300    296.37896   -1520.8053    456.94916    262.20136    77.881098    36397.316 
  645400    293.98886   -1528.7502    474.61071     261.2243    450.19916    36397.316 
  645500    301.08891   -1507.8995    475.05149    314.28274    384.75507    36397.316 
  645600    297.62847   -1515.9175    490.81925    306.54981     933.5233    36397.316 
  645700    310.43426   -1501.4459    453.38116    340.87892    605.51495    36397.316 
  645800    301.87713   -1483.0383    471.82902    339.44809    835.17956    36397.316 
  645900     300.5408   -1500.9591    467.47096    311.19029     581.0653    36397.316 
  646000    288.46662   -1495.8406    465.96223    260.77784    355.26545    36397.316 
  646100    295.86082   -1530.6579    448.55096    241.63234     448.8513    36397.316 
  646200    300.54639   -1511.3458    458.34894     291.7065    418.70563    36397.316 
  646300    308.36822   -1491.9694    476.79592    364.52637    27.077363    36397.316 
  646400     295.6847   -1499.0764    455.22727    279.10211    156.21306    36397.316 
  646500    287.75615   -1501.5379     479.2743    265.21374    120.89971    36397.316 
  646600    310.51137   -1492.5665    466.69649    363.41867    398.94324    36397.316 
  646700    302.72095   -1521.3144    443.72176    276.84016   -166.07114    36397.316 
  646800     294.7748   -1510.0214    485.28867    294.14747    -341.6507    36397.316 
  646900     297.3653   -1524.8472    442.32207    247.94541   -312.93513    36397.316 
  647000    314.53067   -1529.7362    460.44083    337.97652   -403.43432    36397.316 
  647100    302.14894   -1534.0525    461.74784    279.56885   -381.84763    36397.316 
  647200    298.83711   -1533.2006    476.27181    280.12698    49.239549    36397.316 
  647300    300.51837   -1530.2498    457.87384    272.20208   -342.86279    36397.316 
  647400    296.44598   -1515.9079    443.60029    254.04978   -210.32792    36397.316 
  647500    295.90404   -1487.5402     484.4582     320.8507    184.18702    36397.316 
  647600    296.96007   -1492.7962    456.06328    291.92462   -119.40206    36397.316 
  647700    294.23262   -1505.6256    483.60192    294.43073    293.91434    36397.316 
  647800    305.59675   -1523.6214    447.11342    290.79176    113.78752    36397.316 
  647900     295.0163   -1545.5874    470.28725    244.66059    -13.95054    36397.316 
  648000    299.71995   -1509.4482    478.90079    310.45835   -269.80101    36397.316 
  648100    299.96807   -1507.7461    451.34361     285.7134   -270.28989    36397.316 
  648200    290.86134   -1524.0818    459.19528    236.48407    56.832101    36397.316 
  648300    308.89887   -1547.3215     491.4162    326.16871    1.4815211    36397.316 
  648400    301.46881   -1535.3724    455.72758    269.18569    477.40196    36397.316 
  648500    302.79926    -1533.964    455.72796    276.54717    388.49843    36397.316 
  648600    306.38838   -1530.1449    488.73048    329.42717    338.84295    36397.316 
  648700    300.13605   -1506.8781     451.1621    287.15146   -200.20069    36397.316 
  648800     293.0973   -1517.4469     465.8385    259.76637    34.009172    36397.316 
  648900    307.16744   -1508.9096    479.09631    344.51401    607.10968    36397.316 
  649000    303.01398   -1527.5548    461.16481    289.35396   -250.11797    36397.316 
  649100    292.38063   -1571.4895    474.09709    210.77581   -9.5886783    36397.316 
  649200     303.6687   -1580.0479    467.78735     246.4127   -284.79305    36397.316 
  649300    291.32865   -1563.1503      456.086    196.39718   -234.66187    36397.316 
  649400    299.60159    -1520.606    468.06418    287.93433   -395.46088    36397.316 
  649500    299.51147   -1477.0124    492.62203    355.68265   -394.25499    36397.316 
  649600    284.24486   -1539.1866    465.69042    198.27102   -182.89583    36397.316 
  649700    301.51939   -1502.9635     470.0619    316.15526    648.33343    36397.316 
  649800    303.98599   -1494.8312    491.64918    356.91086     162.2293    36397.316 
  649900    295.59089   -1555.6806     471.3193    238.17025    431.68651    36397.316 
  650000    290.32281   -1521.4411    454.21369    231.73372    222.81811    36397.316 
  650100    302.04007   -1478.8672    467.00549    339.52475     318.8976    36397.316 
  650200    299.46975   -1465.0913    467.74231    342.53736    248.72119    36397.316 
  650300    292.12966   -1515.6316    492.37529    283.78905   -62.160616    36397.316 
  650400    306.17321   -1492.3577    471.54629    349.06749   -667.73941    36397.316 
  650500    299.02632    -1512.648    462.50616    287.76048   -620.35424    36397.316 
  650600    298.47977   -1497.9372     477.5485    315.06832   -403.48242    36397.316 
  650700    301.73277   -1517.8232    494.64456     326.8329   -333.89195    36397.316 
  650800    296.92877   -1522.4955    471.54886    277.57082    314.77454    36397.316 
  650900    300.07861   -1497.5754    474.87791    319.91297   -70.917455    36397.316 
  651000    309.05353   -1514.0958    458.15547    326.82572   -165.15377    36397.316 
  651100    290.34211   -1501.3966    461.34411    258.99499   -423.77791    36397.316 
  651200    301.49563   -1482.3422    476.02257    342.63088   -85.514325    36397.316 
  651300    291.52887    -1470.264    470.50997    304.60323   -9.8530984    36397.316 
  651400    288.92114   -1519.7069    468.51691     241.4998   -606.42339    36397.316 
  651500    295.88735   -1511.9899    473.13719    285.00522    -695.7761    36397.316 
  651600     291.3635   -1495.2598    464.65235    273.00993   -704.66833    36397.316 
  651700    295.31469   -1503.0353    479.95782    298.21824   -725.69603    36397.316 
  651800    291.46669    -1528.532     467.9726    243.51968     -175.154    36397.316 
  651900    298.66385    -1505.286     481.6496    312.64417   -121.02936    36397.316 
  652000    298.89317   -1528.6375    464.69537    273.36447    8.1107899    36397.316 
  652100    299.00109   -1530.1461      472.333    279.97638    95.750481    36397.316 
  652200    292.26917   -1494.2225    474.52485     287.9719    262.30558    36397.316 
  652300     289.0404   -1487.7778    471.14935     276.5949    60.582318    36397.316 
  652400    300.23474   -1513.7093    449.98012    279.57986    245.48081    36397.316 
  652500    305.07552   -1502.5947    453.47222    315.84519   -96.292609    36397.316 
  652600    299.18328   -1505.4214    480.56505    313.74828   -59.081786    36397.316 
  652700    300.10149   -1486.9958    462.96447    318.68151    691.11464    36397.316 
  652800    300.82516   -1517.4174    488.11316    316.64642    370.64648    36397.316 
  652900    291.23413   -1556.9911    458.20777    204.25519    716.79473    36397.316 
  653000     306.4306   -1549.1039    493.73621     315.6629    798.64529    36397.316 
  653100    302.97677   -1515.6025    490.96447    330.93939    396.34474    36397.316 
  653200    310.52734   -1527.4802    483.02355    344.90355   -154.27557    36397.316 
  653300    312.99121   -1536.2569    468.03269    332.15976    96.592833    36397.316 
  653400    294.62302    -1527.452    462.91373    253.66284    240.60707    36397.316 
  653500    302.20849   -1507.3377    484.54606    329.34829    381.39904    36397.316 
  653600    292.83964    -1532.946    465.46709    242.74295   -522.75083    36397.316 
  653700     293.2757   -1524.4888    452.57031    240.25446   -511.25425    36397.316 
  653800    294.13429   -1581.5652    469.65111    204.10036    267.08531    36397.316 
  653900    304.20238   -1563.0617     478.4816    276.48092   -327.32291    36397.316 
  654000    300.98429   -1541.7688     467.9992    272.89313   -245.04151    36397.316 
  654100    287.77831    -1518.049    469.09123    238.61872   -328.86827    36397.316 
  654200    288.38087   -1589.3348    459.26219    160.19995    92.015288    36397.316 
  654300    311.39452   -1552.2554    466.50544    307.49007    222.24504    36397.316 
  654400    307.00546   -1514.1795    487.70027    347.12336   -32.704567    36397.316 
  654500    293.47998   -1577.9789    462.32603    197.43411   -495.90748    36397.316 
  654600    291.43007   -1570.3096    463.32376    196.92937   -372.64464    36397.316 
  654700       302.78   -1602.1784    463.07447     215.5931    227.49057    36397.316 
  654800    299.41121   -1566.7494    454.49472    227.36969   -108.86219    36397.316 
  654900    298.69326   -1589.3781    441.14439    188.17849    226.60196    36397.316 
  655000    301.13491    -1643.095    453.19523    157.43676    107.41729    36397.316 
  655100    297.67434   -1582.2873    449.78928    199.35533    46.226824    36397.316 
  655200    296.05503   -1586.7659    429.40628     167.2486    283.53542    36397.316 
  655300    299.78039    -1590.979    439.84213    190.13933    465.95911    36397.316 
  655400    305.78644   -1572.1908    461.13571    257.09335    724.55385    36397.316 
  655500    287.49015   -1557.5721    483.47948    212.19462     449.3522    36397.316 
  655600    285.74451   -1559.1801    473.55086     192.8476    328.27606    36397.316 
  655700    275.84562   -1562.9898    502.23225    173.42978    181.19828    36397.316 
  655800    294.96777   -1550.4722    444.65417    213.92558    406.16175    36397.316 
  655900    295.14352   -1544.3723    472.38321    248.54081    104.94434    36397.316 
  656000    299.48099   -1488.3347    481.28287     332.8848    59.262775    36397.316 
  656100      292.985   -1485.7498    474.00015    299.12266    567.88215    36397.316 
  656200    289.34341   -1567.8809    493.69463    220.39283    368.27543    36397.316 
  656300     305.9939   -1573.3888    443.99327     239.6811    -7.999673    36397.316 
  656400    298.06775   -1595.2626    462.17556    200.52651    50.972235    36397.316 
  656500    291.44009    -1546.685    451.53404    208.80906    -282.6603    36397.316 
  656600     293.8518    -1590.163    470.84941    195.43691   -555.99763    36397.316 
  656700    294.08435   -1603.6793     474.3863    186.49795    30.545723    36397.316 
  656800    303.38121   -1565.6819    465.05987    256.76488    177.89615    36397.316 
  656900    296.38677   -1539.5614    467.57055    254.10162    -657.5753    36397.316 
  657000    294.50916   -1534.5159    482.10809     265.2838   -358.90259    36397.316 
  657100    296.76606   -1531.3616    445.33148    241.75937   -585.70774    36397.316 
  657200    303.79074   -1523.0578    452.72255    288.88409   -1050.1078    36397.316 
  657300    304.05337   -1554.2777    445.28042    251.39702   -746.86556    36397.316 
  657400    300.25047   -1504.9795    485.14669    323.54654   -685.21127    36397.316 
  657500    293.09499   -1544.4172     484.5452    251.49242   -158.67495    36397.316 
  657600    298.33803   -1520.9455     455.5874    269.46473    41.436333    36397.316 
  657700    298.43716   -1507.3065    459.58629    287.54605     19.50042    36397.316 
  657800    305.30218   -1512.8646    478.40625    331.52345   -295.44245    36397.316 
  657900    284.29635   -1526.0804    459.01015    204.92737    235.98103    36397.316 
  658000    306.48974   -1552.5224    472.87094    291.64365   -104.95331    36397.316 
  658100      303.804   -1546.4192    479.21495    292.07437   -239.56502    36397.316 
  658200    305.20196   -1517.9049    453.91575    301.54415   -84.826362    36397.316 
  658300    301.01173   -1543.2698    455.50758    259.02326   -218.73315    36397.316 
  658400    293.02628   -1555.2911    475.42396    231.18986      599.524    36397.316 
  658500    290.26983   -1538.1827    492.07571    252.61711    238.60533    36397.316 
  658600     303.0285   -1505.8742    467.35887    317.29353     260.0472    36397.316 
  658700    293.64958   -1513.2597    482.14092    282.72696    -468.4091    36397.316 
  658800    299.58998   -1547.8093    474.22245    266.83739   -143.95723    36397.316 
  658900    295.90201    -1572.699    491.50321    242.72775   -69.789602    36397.316 
  659000    301.35881   -1512.2698    469.73742    305.80598    86.212891    36397.316 
  659100    295.92141   -1510.4492    499.68165    313.24286   -358.14585    36397.316 
  659200    289.57735   -1523.0941    473.57527     246.1069   -69.307076    36397.316 
  659300    292.81578   -1534.6669    467.19903    242.64729    498.80209    36397.316 
  659400     302.7806   -1512.2184     505.8465    348.32784    247.20986    36397.316 
  659500    292.88077   -1489.9121    460.06183    280.55569   -127.36824    36397.316 
  659600     310.4852    -1512.245    449.24812    326.17471    98.844788    36397.316 
  659700    299.00738   -1493.5169     480.3744    324.67503   -469.73224    36397.316 
  659800    297.62676   -1521.6691    460.84451    270.81585   -321.01022    36397.316 
  659900    293.71409   -1542.8477    464.30524    235.59187    93.685319    36397.316 
  660000    296.03677   -1561.6753    458.61381    221.46498   -593.96251    36397.316 
  660100    307.28683   -1524.6215    483.32866    333.56867   -858.34096    36397.316 
  660200    296.76342   -1505.1834    451.54655    274.14079   -848.36592    36397.316 
  660300    288.42579   -1512.1321    451.05368    229.39502    -582.1546    36397.316 
  660400    294.38004   -1565.5778    469.75005    221.28622   -258.90882    36397.316 
  660500    297.33475   -1530.7231    482.59684    282.20762    156.54601    36397.316 
  660600    299.50698   -1528.5048    468.25918    279.80727    544.24115    36397.316 
  660700    294.46823   -1528.5095    478.22535    267.22444   -19.946803    36397.316 
  660800    314.45137   -1519.4114    506.84705    394.35267    435.36284    36397.316 
  660900    289.21861   -1504.5799    460.15613    249.59692   -97.599727    36397.316 
  661000    291.80915   -1509.8691    466.87444    262.61666   -198.60913    36397.316 
  661100     300.8965   -1523.6025    472.50548    295.17289   -264.05758    36397.316 
  661200    302.24068   -1552.2572    486.68857    286.71538    104.41043    36397.316 
  661300    292.52004    -1548.465    453.17207    213.49899   -110.97269    36397.316 
  661400    295.21201    -1523.618    478.39584     275.6142    455.38789    36397.316 
  661500    300.68231   -1539.6432    457.80014    263.46852    313.85507    36397.316 
  661600    306.66835   -1540.5502    481.41825    312.96234    41.021306    36397.316 
  661700    303.08936   -1560.3823     428.5223    224.22119     418.8662    36397.316 
  661800    296.57313   -1547.3662    455.30901    234.86908    476.78035    36397.316 
  661900    296.12691   -1555.2186    450.27349    219.98466    97.437673    36397.316 
  662000    298.94863   -1589.4637    490.75635    238.84736    354.80651    36397.316 
  662100    309.70931   -1541.2457    466.15749    310.61191    233.34057    36397.316 
  662200    301.03698   -1547.7457    466.29161    265.44434   -122.37756    36397.316 
  662300     305.5412   -1570.2154    465.74407    262.57985   -798.12899    36397.316 
  662400     290.3704   -1532.5552    488.09872    254.71758    168.54505    36397.316 
  662500    308.40682   -1519.6481     461.7019    321.92633   -261.17546    36397.316 
  662600    303.73639   -1538.8938    471.87174     291.9541   -165.76128    36397.316 
  662700    293.62996   -1568.7919    469.78748    214.75358    498.00059    36397.316 
  662800    307.30549    -1519.705    473.30737    328.54736     1339.359    36397.316 
  662900    311.18775   -1531.7423    478.46059     339.0332    1016.9672    36397.316 
  663000    303.36714   -1508.6147    460.94769    309.65697    153.74904    36397.316 
  663100    299.38297   -1504.1874     432.2843    267.59499    192.90611    36397.316 
  663200    303.80228   -1526.3083    468.66852     301.6311    190.74572    36397.316 
  663300    303.02711   -1528.8222    469.63365    296.61404    361.18016    36397.316 
  663400    294.78991   -1522.6125    490.46168    286.79699    230.35087    36397.316 
  663500    301.60188    -1521.979    456.03373    283.48058    220.94123    36397.316 
  663600    303.53674   -1539.3972    450.85321    269.53883    63.909432    36397.316 
  663700    301.30631   -1561.8403    460.42831    246.69145   -378.12766    36397.316 
  663800    301.24447   -1544.5052    478.82534    282.14687   -532.20363    36397.316 
  663900     296.8132    -1519.851    448.49973    256.64909    299.73402    36397.316 
  664000    302.36796   -1533.6591    472.53011    291.72447    256.10075    36397.316 
  664100    293.96087   -1527.9234    476.92969    264.24476    429.06142    36397.316 
  664200    306.41635   -1572.6916    475.53609    273.81123   -19.827648    36397.316 
  664300    288.40859   -1548.1082    448.23842     190.5267    541.25003    36397.316 
  664400    307.27598    -1573.582    474.45616    275.68712    385.95149    36397.316 
  664500    293.96831   -1535.0233    482.83943    263.08787    785.65559    36397.316 
  664600     292.4817     -1510.67    472.74447     270.6949    497.77499    36397.316 
  664700    308.30916   -1502.3884    483.87132    360.91849    381.31718    36397.316 
  664800    297.40457   -1505.4346    473.89448    299.10616     250.9861    36397.316 
  664900     302.6592   -1500.1498    476.77099    330.77771   -357.32607    36397.316 
  665000    297.63667   -1493.0424    482.51733    321.15967    317.01704    36397.316 
  665100    293.18164   -1495.7278     480.4071     296.4314   -393.58589    36397.316 
  665200     308.3443   -1524.7302    451.98124    306.84379    493.00539    36397.316 
  665300    286.47287   -1480.8971    472.24494    273.08357    358.07222    36397.316 
  665400    296.82027    -1504.565    464.49131    287.95837     90.88476    36397.316 
  665500    309.22967   -1527.4184     482.4773    338.61299    86.955249    36397.316 
  665600    301.70839   -1561.6836    462.42416    250.64298   -223.95814    36397.316 
  665700    300.12069   -1550.0846    452.20979    244.92396   -327.31283    36397.316 
  665800    296.88998   -1551.3474    476.28606    253.28257   -515.24626    36397.316 
  665900    298.54038   -1549.1137     469.7901    256.40455   -358.37782    36397.316 
  666000    297.73044   -1545.4208    447.84319    234.52665    58.305808    36397.316 
  666100    298.61275   -1546.4358    472.76405    262.38015   -14.044818    36397.316 
  666200    295.81072   -1510.6759    487.76703    300.60619   -200.33673    36397.316 
  666300    303.72182   -1530.2947    473.41581    302.03204    541.25473    36397.316 
  666400    300.02339   -1548.7903    468.00407    261.57713    932.11315    36397.316 
  666500    299.83121   -1571.5816    476.22446    246.14641    506.52921    36397.316 
  666600    304.47179   -1563.4512    470.53358    269.34877    -60.81921    36397.316 
  666700    293.62634   -1560.4869    462.69741    215.95232   -161.14272    36397.316 
  666800    302.94662   -1497.6028     462.6938     320.5335   -662.16209    36397.316 
  666900    294.67193   -1519.7973    472.55365    271.17633    -1124.522    36397.316 
  667000    305.25891   -1513.4059    465.87582    318.25809   -732.27241    36397.316 
  667100     306.2821   -1518.7712    470.87182     322.4667   -919.22418    36397.316 
  667200    300.00952    -1509.081     465.7976    299.01795   -787.42305    36397.316 
  667300    305.41485   -1575.8573    464.08836    254.71694   -856.08952    36397.316 
  667400    308.72975   -1516.9158    483.34433    347.74589    78.422098    36397.316 
  667500    302.72476    -1533.179    476.87749    298.14839    419.51402    36397.316 
  667600    300.27932   -1537.0713    469.99384     276.4311     93.22416    36397.316 
  667700    298.78735   -1539.2404    475.94694     273.5397    51.508439    36397.316 
  667800    294.84729   -1548.8039    465.26236    235.66294    -331.8968    36397.316 
  667900    301.79165   -1540.3221    489.15813    299.11102   -572.55046    36397.316 
  668000    297.20325   -1588.3775    486.18393    227.55199   -873.40332    36397.316 
  668100    297.57364   -1573.9082    495.02381     252.5184   -310.90895    36397.316 
  668200    294.64423   -1555.1326    456.59947     219.7629   -308.44964    36397.316 
  668300    303.37181   -1583.8113    480.40536    253.93902   -343.42446    36397.316 
  668400     300.7039   -1526.4386    484.82585    303.79538   -78.753177    36397.316 
  668500     301.3968   -1579.4332    472.28633    241.36143   -238.30421    36397.316 
  668600    300.71268   -1521.6527    471.00769    294.80246   -57.496315    36397.316 
  668700    295.10661   -1589.4898    481.82816    212.70312    118.13182    36397.316 
  668800    291.56141   -1615.4753    472.96205    161.98963   -4.5162222    36397.316 
  668900    294.99876   -1561.8272    486.05016    244.10517   -51.072219    36397.316 
  669000    291.73771   -1552.5112    472.96786    225.74831   -49.678359    36397.316 
  669100    304.15414   -1600.6172    457.10854    217.33657    273.55282    36397.316 
  669200    298.39117    -1624.159    466.04825     176.9498    116.07544    36397.316 
  669300    303.13645   -1586.1194    469.97109    240.14353    -136.7985    36397.316 
  669400    298.90768   -1542.2591     459.3339    254.44632    311.87392    36397.316 
  669500    305.79021    -1545.215     470.6651    293.61537    487.16181    36397.316 
  669600    302.55079   -1541.4777     473.3185    285.51233    279.43929    36397.316 
  669700    292.72858    -1561.416    485.08943    233.39843    449.52759    36397.316 
  669800    302.22416    -1533.261    495.20864    314.15772   -2.8292861    36397.316 
  669900    296.67535   -1551.1884    460.84393    237.03919    3.7052081    36397.316 
  670000    311.96771   -1527.8379    460.25583    328.22254    236.30993    36397.316 
  670100    296.98965    -1548.677    488.38857     268.5014    266.93458    36397.316 
  670200    302.77358   -1578.3463    455.03683    231.35878    586.82353    36397.316 
  670300    302.63372   -1580.7173    474.71212    248.03736     769.6252    36397.316 
  670400    302.52469   -1580.9875    469.09722    241.66441    1181.3677    36397.316 
  670500    293.75065   -1544.3436    499.32057    269.27495    663.95058    36397.316 
  670600    289.30476   -1539.2216    490.59439    245.77898     813.4554    36397.316 
  670700    300.93563   -1579.0843    502.75309    270.11376    810.60299    36397.316 
  670800     301.3736   -1560.8034    505.26192    292.86304    756.32532    36397.316 
  670900    298.70571   -1544.2481    488.52556    280.74531    478.51001    36397.316 
  671000    303.36208   -1548.0516    491.58064    300.83037    133.26081    36397.316 
  671100    294.90586   -1562.1195    493.83316    251.18022   -144.95164    36397.316 
  671200    303.72668   -1558.4068    483.46047    283.98636   -152.47155    36397.316 
  671300    296.47213   -1560.2538    488.45302    254.67361   -29.863069    36397.316 
  671400    296.06616   -1540.8863    492.07805    275.84973    30.697908    36397.316 
  671500    304.94736   -1560.0923    484.34588    288.64781     651.4326    36397.316 
  671600    297.90757   -1590.3353    479.27269     221.8342   -123.19448    36397.316 
  671700     292.4091   -1584.0524     478.9343    203.17753   -313.40455    36397.316 
  671800    301.10293   -1563.4502    475.64253    259.38584    95.149972    36397.316 
  671900    309.93026    -1596.553    488.24118    278.37688   -152.08826    36397.316 
  672000    294.08323   -1540.5502    490.68637    265.92213   -31.575011    36397.316 
  672100    304.43372    -1556.065    477.92729    283.95839   -5.5284079    36397.316 
  672200    306.52443   -1555.3692    500.93146    317.01257   -108.58191    36397.316 
  672300    293.67322   -1532.6045    462.66002    244.00704    233.91003    36397.316 
  672400    294.22024   -1531.9253    525.48693    309.96062   -1187.1828    36397.316 
  672500    295.74233   -1520.8598    475.90669    278.25605   -238.41863    36397.316 
  672600    298.59517   -1522.9174    450.11422     263.1701   -556.25804    36397.316 
  672700     301.1262   -1535.9281    510.44589    321.81542   -728.36835    36397.316 
  672800    297.54198   -1524.6356    451.01537    257.64084    -632.6838    36397.316 
  672900    307.58598   -1498.0195    473.16191    351.34238    30.263438    36397.316 
  673000    294.25192   -1518.7756    499.86372    297.62883   -104.33764    36397.316 
  673100    300.93272   -1549.2046    465.41819    262.64548    289.08418    36397.316 
  673200    294.62944   -1557.7381    468.10138    228.59316   -132.89323    36397.316 
  673300    307.68446   -1584.6581    494.29146    286.27389    280.60155    36397.316 
  673400    295.80132   -1573.0845    457.08809    207.47665    207.30286    36397.316 
  673500     306.0022   -1548.7639    506.41347    326.76337   -375.76644    36397.316 
  673600    302.78919    -1537.108    472.85867    290.48882   -79.936795    36397.316 
  673700    294.73475   -1528.8431    477.84652    267.70442    296.92348    36397.316 
  673800     305.9678   -1544.1014    479.47808    304.33653    450.29611    36397.316 
  673900    304.91438   -1538.7502    508.43348     333.9299    -216.1569    36397.316 
  674000    300.83388   -1529.1118    462.98754     279.8655    176.12497    36397.316 
  674100    303.00917   -1602.6591     486.2598    239.32313   -58.470908    36397.316 
  674200    300.69573   -1549.7279    483.10737    278.75113    -460.7233    36397.316 
  674300    299.57429   -1541.9375    493.77577    292.19234   -530.15674    36397.316 
  674400    302.86659   -1535.2268    461.65312     281.5108   -456.20024    36397.316 
  674500    284.06304   -1540.3327    471.52385    202.14486   -219.06943    36397.316 
  674600    298.80956   -1529.3704    481.96181    289.52394   -49.804926    36397.316 
  674700    295.90347   -1573.0622    479.90486    230.77278   -562.37968    36397.316 
  674800    295.42625   -1592.5699    472.66893      201.894   -742.05762    36397.316 
  674900    303.30715   -1558.6558    477.19766    275.59748    131.67918    36397.316 
  675000    294.93779   -1526.3689    478.88362    272.12419    9.9530029    36397.316 
  675100    301.98025   -1538.5843    485.19981    297.73427   -275.87471    36397.316 
  675200    299.18674   -1491.9235    510.70844    357.40503    155.56043    36397.316 
  675300    302.29509   -1503.1642    496.31729     345.6805   -394.74486    36397.316 
  675400     305.3738   -1536.7286    481.31265    310.88622   -317.95026    36397.316 
  675500    305.06671   -1515.0341    477.53704     327.4312   -650.87454    36397.316 
  675600    297.80778   -1545.2161    488.28638    275.52063    -578.8368    36397.316 
  675700    301.07046   -1531.3757    496.10602    311.77854    291.62836    36397.316 
  675800    310.87826   -1523.2253    458.87247    326.57747    355.34741    36397.316 
  675900    297.95858    -1567.333    485.18469    250.97673    57.153834    36397.316 
  676000    303.66648   -1571.5839    479.68204    266.76142    37.797924    36397.316 
  676100    295.20763   -1621.3039    478.80156    178.31438    162.65312    36397.316 
  676200    304.14705   -1594.8592    478.88931     244.8436   -414.88633    36397.316 
  676300    295.83357   -1583.8397    476.74099     216.5186   -729.53953    36397.316 
  676400    291.88825   -1570.8683    473.21275    208.30966   -328.65272    36397.316 
  676500    303.31274   -1572.3968    488.70793     273.3918    353.19995    36397.316 
  676600    293.41638   -1589.9568    505.36307    228.20865   -602.67942    36397.316 
  676700    290.66888   -1656.6118    459.85121    103.74889   -761.67514    36397.316 
  676800    304.43811   -1594.2315     457.7321    225.61638    116.26799    36397.316 
  676900    289.77567   -1603.6498    454.00939    146.87268   -309.71125    36397.316 
  677000    304.30933   -1534.4516    489.40108    316.48904   -142.75995    36397.316 
  677100    298.92024   -1602.7887    467.60665    202.24562     426.4144    36397.316 
  677200    310.72063    -1548.064     473.6972    315.85815    380.92071    36397.316 
  677300    294.58767   -1603.8479    478.82662    193.02166   -41.338627    36397.316 
  677400    298.87502   -1574.8051    463.97059    226.39089     219.9999    36397.316 
  677500    291.47426   -1586.5229    456.11112    173.70118   -31.303259    36397.316 
  677600    303.21126   -1533.1379    511.42638    334.91508    113.17107    36397.316 
  677700    300.94952   -1549.0672    485.35165    282.79157    19.484764    36397.316 
  677800    291.85668   -1594.1685      457.433    169.08843   -378.72273    36397.316 
  677900    292.85699   -1541.0919    479.64802     248.8556    27.105847    36397.316 
  678000    292.57992   -1537.6112    461.01716    232.46584   -15.861932    36397.316 
  678100    294.97405   -1549.6872    465.47736    235.56181   -136.55956    36397.316 
  678200    304.42437   -1572.7393    482.76808    272.08302    109.36302    36397.316 
  678300    304.96397   -1531.4358    489.48273    322.51544   -277.70642    36397.316 
  678400    302.20639   -1534.3704    487.24955     305.0097   -631.84562    36397.316 
  678500    317.01772    -1514.353    483.12561    387.17196    618.05989    36397.316 
  678600    297.35217    -1558.979    472.81254    244.24536    218.63206    36397.316 
  678700    310.63818   -1538.9043    506.63778    357.58951    1060.1475    36397.316 
  678800    301.54556   -1524.6072    481.91852    306.48521    1060.9672    36397.316 
  678900    293.29146   -1557.8095     515.9717    270.40563    623.94908    36397.316 
  679000     302.3642   -1570.9057    457.21629    239.14727    548.90584    36397.316 
  679100    305.18325   -1559.2124    491.65212    297.88935    1211.3096    36397.316 
  679200    296.56193   -1596.9113    459.43425    189.39907    695.74865    36397.316 
  679300    299.31368   -1526.9164     482.7465    295.01816    615.52371    36397.316 
  679400    303.76715   -1544.2982    488.51799    303.33351    566.65143    36397.316 
  679500    295.13637    -1539.332    484.82197    265.98788   -175.75541    36397.316 
  679600    292.33689   -1519.1602    476.51458    265.32686   -283.67081    36397.316 
  679700     293.8306   -1550.1334    485.28566    249.80789    -186.3957    36397.316 
  679800    308.40021   -1541.4706    453.66585    292.03822   -125.24126    36397.316 
  679900    300.05269   -1599.9678    479.33461     221.8613    155.20613    36397.316 
  680000     302.0667   -1558.9032    475.23498    267.83738    -30.57433    36397.316 
  680100    307.85216   -1587.2251    476.29321    266.45898    497.94833    36397.316 
  680200    305.01434   -1545.1632    472.33157    291.86229    337.36455    36397.316 
  680300    308.34426   -1532.9451     494.9725    341.62005     616.8528    36397.316 
  680400    299.80682   -1588.5518    475.45601    228.29863    71.919372    36397.316 
  680500    300.56842    -1556.281    474.61815     263.1391   -335.59445    36397.316 
  680600    296.93851   -1563.2644    473.38749    238.68418   -468.54821    36397.316 
  680700    299.36781   -1570.5508    497.55524    266.43466    -801.0206    36397.316 
  680800    306.26919   -1509.0881     508.8632    370.08349    129.49333    36397.316 
  680900     304.3839   -1545.7408    496.10904    312.24142   -138.54373    36397.316 
  681000    304.44366   -1593.3789    499.41156    268.17322   -30.560662    36397.316 
  681100     284.8037   -1531.3096    484.63946    227.59743     577.0804    36397.316 
  681200    305.36488   -1558.5631    480.67889    288.37811    758.01088    36397.316 
  681300    293.23964   -1558.3111    460.66497    214.36547    231.13142    36397.316 
  681400    297.48538    -1609.683    500.39751    221.72237    517.44653    36397.316 
  681500    299.86567   -1571.9954    470.21404    239.87636    823.60629    36397.316 
  681600    299.70155   -1561.8694    489.57331    268.62738    232.86156    36397.316 
  681700    294.24549   -1582.8157    468.88393    202.58015   -437.63785    36397.316 
  681800    302.37053   -1562.0342    463.84878    254.67955   -55.676868    36397.316 
  681900    304.12758   -1552.7408     456.9758    264.96131    113.28284    36397.316 
  682000    302.42584   -1567.2379    501.96394    287.83846    117.06957    36397.316 
  682100    293.07652   -1585.5496    499.64203    225.37424    517.57856    36397.316 
  682200    294.14037   -1595.4702    463.63531    184.20671    327.68827    36397.316 
  682300    298.63332   -1579.9893    468.84708    225.00171     278.1033    36397.316 
  682400    295.99833   -1562.0729    498.60418    260.88579    474.59615    36397.316 
  682500    305.41924   -1541.5824     472.0903    297.01343   -22.071738    36397.316 
  682600    297.43026   -1541.8852    464.64955     253.5256   -704.31216    36397.316 
  682700    293.02033   -1503.0058    490.81017     298.8347   -840.68741    36397.316 
  682800    297.53615   -1527.9886    478.00765    281.25403   -825.85884    36397.316 
  682900    293.09966   -1532.2598    494.28768    273.41313   -554.71599    36397.316 
  683000    298.95821   -1567.5629     483.5298    253.56456   -984.84458    36397.316 
  683100    299.93157   -1541.2022    496.40541    297.15578   -977.06671    36397.316 
  683200    288.93316   -1534.5222    481.51531    239.73671   -605.67221    36397.316 
  683300    304.26333   -1578.0551    467.16095    250.43963   -994.54423    36397.316 
  683400    298.81295   -1597.6658    457.21257    196.49438   -304.23942    36397.316 
  683500    299.95643   -1587.6624    479.43592    233.83736   -174.94678    36397.316 
  683600    293.62021   -1596.6386    476.59231    193.66806   -316.29653    36397.316 
  683700    294.72733   -1579.9637    477.88548    216.58954   -835.29932    36397.316 
  683800    303.52538   -1586.7788    447.77579    219.02903   -933.22768    36397.316 
  683900    298.70259   -1582.8622    468.19869    221.79041   -639.46189    36397.316 
  684000    297.32461   -1609.8701    475.70631    196.12481   -425.10422    36397.316 
  684100    296.09059   -1574.1015    459.31388    209.97969   -540.61538    36397.316 
  684200    289.59673   -1578.8254     478.8268    195.71394   -958.62023    36397.316 
  684300    287.83921   -1531.2553    495.61417    252.20784   -450.84501    36397.316 
  684400    307.82485   -1534.5004    476.19439    318.96266   -9.5593418    36397.316 
  684500    300.38975   -1542.3638    498.13166    299.77049    235.55322    36397.316 
  684600     307.8779   -1564.6088    480.64641    293.54361   -286.24136    36397.316 
  684700    301.44616   -1583.9101    479.77571    244.59479   -585.98441    36397.316 
  684800    304.66264   -1580.3522    479.30435    262.07248   -838.50381    36397.316 
  684900    305.47673   -1597.6052    465.90861    235.06609   -84.717767    36397.316 
  685000    298.40917   -1633.0901     473.8786    175.92955     -255.857    36397.316 
  685100    298.57158    -1601.253    501.97203     236.5867   -239.62673    36397.316 
  685200    293.56415   -1563.3351    467.49251     217.6209    278.37754    36397.316 
  685300    300.52719   -1572.3162    458.64447    230.94584     73.02809    36397.316 
  685400    297.92227   -1602.0151    479.62467    210.57212   -269.84465    36397.316 
  685500    298.35639   -1633.7976     468.3435    169.45085    259.51134    36397.316 
  685600    298.23213   -1606.0723     477.6734    205.95004    1004.1131    36397.316 
  685700    301.80851   -1621.2262     481.4891    210.61331    339.00363    36397.316 
  685800    301.16145   -1572.6594    462.87538    237.67134   -212.16774    36397.316 
  685900    289.12775   -1563.7457     497.6904    227.55885   -1078.3626    36397.316 
  686000     306.6908   -1547.7577    496.42887    320.86592   -862.61299    36397.316 
  686100    314.15338   -1560.2109    456.36599    301.73885   -456.47324    36397.316 
  686200    300.28769   -1532.8877     482.9242     293.5825   -9.6354324    36397.316 
  686300    289.21092   -1577.9658    457.19655    173.21709   -532.15656    36397.316 
  686400    303.85149   -1572.2445     487.1165    274.36309   -344.32282    36397.316 
  686500    305.62152   -1566.0101    481.13801    282.53847   -300.93073    36397.316 
  686600    302.24685   -1522.5126    468.83431    298.63332   -140.95206    36397.316 
  686700     297.4885   -1587.6083     483.0515    226.46505   -318.06945    36397.316 
  686800    300.24389   -1585.0426    502.68431    260.99167   -12.282075    36397.316 
  686900    293.89607   -1518.6009    478.01099    274.35862   -7.8066659    36397.316 
  687000    297.01309   -1551.7202    490.69352    267.86802   -608.68826    36397.316 
  687100    291.75504   -1537.1332    499.42041    267.65641   -177.66018    36397.316 
  687200    303.70629   -1565.4075    464.04497    257.47889   -176.28556    36397.316 
  687300    296.37691   -1574.7232     488.8806    240.20573   -27.702144    36397.316 
  687400    299.74126   -1606.1107    476.85621    211.84662   -187.10817    36397.316 
  687500     296.9195   -1560.3432    487.44757    255.58038   -88.584934    36397.316 
  687600    305.06243   -1535.6513    506.89586    336.15363   -12.054341    36397.316 
  687700    300.19262   -1578.1197    468.42194    233.42287    -161.1393    36397.316 
  687800    297.54792   -1586.5262    476.83894     221.6004    224.38573    36397.316 
  687900    300.14787   -1597.7001    509.10955    254.32979   -10.080269    36397.316 
  688000    305.39099   -1566.9676    491.66137    291.07287    8.4540972    36397.316 
  688100    304.30581   -1563.7432    477.65448    275.43506    194.74628    36397.316 
  688200    299.98028   -1581.7137    468.34385     228.8007    143.87087    36397.316 
  688300    317.11586    -1567.621    489.07483    340.29229    245.14464    36397.316 
  688400     294.8666   -1567.8921    474.73875     226.1376   -447.19584    36397.316 
  688500    306.57356   -1615.9792    434.24234    189.93328   -605.62655    36397.316 
  688600    300.93033   -1576.2259    472.69407    242.88937     -350.066    36397.316 
  688700    305.50399   -1544.6114    476.60241    298.87568   -241.54406    36397.316 
  688800    309.00924   -1567.1351    489.16517    304.59793   -355.05898    36397.316 
  688900    300.19945   -1566.0151    471.07701    248.21308   -412.58634    36397.316 
  689000    308.53417   -1593.5271    497.60963    284.52483    421.11867    36397.316 
  689100    293.93479    -1626.351    458.95132    147.72215    340.91358    36397.316 
  689200    315.37572   -1596.8013    512.33416    326.58565    244.71244    36397.316 
  689300    293.65717   -1600.4341    473.67415    187.11976    290.00091    36397.316 
  689400    299.33469   -1549.4015    476.00661    265.88712    579.56228    36397.316 
  689500    300.32934   -1560.4526    486.12819    269.40783    760.09806    36397.316 
  689600    298.20253   -1553.5285    476.90562    257.59369    536.33798    36397.316 
  689700    290.94239   -1548.1672    497.55112    251.11714    933.24604    36397.316 
  689800    299.29714   -1582.7255    460.49267    216.88126    222.61415    36397.316 
  689900    300.68038   -1547.4974    508.04619     305.8517    296.90677    36397.316 
  690000    305.52902   -1548.7293    472.41514    290.68253    187.42383    36397.316 
  690100    292.24346   -1575.4114      493.274    225.41707   -113.28938    36397.316 
  690200    296.94509   -1573.1376    463.41196    218.86487   -335.91227    36397.316 
  690300    302.21274   -1549.0964    483.76807    286.83062   -642.01532    36397.316 
  690400    312.73596   -1544.5736    498.60538     353.2737     5.825579    36397.316 
  690500    301.73579   -1583.3884    496.26375    262.90034   -190.95013    36397.316 
  690600    305.88171   -1570.0222    488.45104    287.00348   -421.44313    36397.316 
  690700    295.52634   -1574.9573      493.699    240.98445   -463.47289    36397.316 
  690800    303.76659   -1545.8417    469.90527    283.17476   -345.37425    36397.316 
  690900     300.4983   -1520.1403    498.79956    323.14756   -352.41862    36397.316 
  691000    301.46693   -1537.7967    464.35237    275.37776   -520.23271    36397.316 
  691100    302.13398   -1561.8412    482.13785    272.10325   -575.31537    36397.316 
  691200    306.02234   -1546.6537    505.24514    327.79536   -338.38476    36397.316 
  691300    304.20661   -1556.0341    468.96355    274.00938     275.1732    36397.316 
  691400    297.55687   -1508.8658    490.25064    312.71256    81.561105    36397.316 
  691500    300.51433   -1578.3634    483.50106    249.69764    223.45116    36397.316 
  691600     303.0925   -1598.7536    478.11114    235.45274   -213.69008    36397.316 
  691700    302.82488   -1596.3251    448.43457    207.00735    268.30115    36397.316 
  691800    293.26569   -1563.4744    509.23141    257.88519    354.04001    36397.316 
  691900    298.97288   -1580.5167    470.88056    228.02706    314.68804    36397.316 
  692000    301.08957   -1531.9719    475.06839    290.23022    457.33984    36397.316 
  692100    296.15648   -1552.0579    480.09668    253.10092    394.69169    36397.316 
  692200    297.24997   -1568.6459    463.43321    224.74189    308.21337    36397.316 
  692300    303.84836   -1570.1328    466.81526    256.15954    312.24297    36397.316 
  692400    310.09554   -1543.6232    470.57402    314.37903    120.99728    36397.316 
  692500    304.23797   -1572.8399    489.58017     277.9605    316.16292    36397.316 
  692600    293.54226   -1574.8948    467.82819    206.29897   -119.21045    36397.316 
  692700    304.13507   -1538.9705    462.41602     284.2054     269.5141    36397.316 
  692800     304.4748   -1570.4287    480.43986    272.29112   -45.657909    36397.316 
  692900    283.71021   -1584.7327    493.91288    178.55519   -56.686641    36397.316 
  693000     304.1714   -1593.0715    473.10151     240.9525   -287.79081    36397.316 
  693100    290.93829    -1556.087    483.02543    228.65334   -505.43394    36397.316 
  693200    308.10753   -1559.9249    454.08563    272.69412   -1403.7291    36397.316 
  693300     302.8737   -1522.1368     462.1283    295.10779   -1512.4489    36397.316 
  693400    286.33505   -1521.7859    509.90802    269.24119   -700.96058    36397.316 
  693500    297.46152   -1541.9475    454.29106    243.24473   -679.10614    36397.316 
  693600    301.47517   -1556.2676    460.36845    252.95984   -413.64758    36397.316 
  693700    299.17955   -1536.4359    485.59023    287.74225   -515.68539    36397.316 
  693800    290.75258    -1553.849      495.645    242.68002   -127.73507    36397.316 
  693900    305.33239   -1596.0451    484.95306    255.02486    146.28405    36397.316 
  694000    295.72623   -1555.1797    493.48298    261.44035    131.59086    36397.316 
  694100    299.73223   -1568.3914      486.664    259.33334    236.78976    36397.316 
  694200    299.53975   -1537.8056    499.19981    301.59376   -267.28549    36397.316 
  694300    303.10813    -1559.242    468.71654    265.63966   -759.02405    36397.316 
  694400    301.18831   -1594.9939    466.14905    218.73068   -673.12717    36397.316 
  694500    306.01991   -1558.4742    484.42286    295.14167   -156.61757    36397.316 
  694600    309.61806    -1539.976    478.89543    324.21125   -576.71319    36397.316 
  694700    305.55655   -1574.5134    514.88903    307.49553   -158.96393    36397.316 
  694800    298.60701   -1531.4948    482.11388    286.64531    464.63629    36397.316 
  694900    296.78848   -1612.8737     480.9945    196.01057    186.65595    36397.316 
  695000    302.45705   -1583.3516    466.52513    236.42558     -420.606    36397.316 
  695100    297.61049   -1625.0688    478.49692    184.99576   -62.708736    36397.316 
  695200     304.7897   -1573.0407     467.6344    258.28249   -358.25588    36397.316 
  695300    300.37487   -1569.6823    502.71105    276.96481   -486.81221    36397.316 
  695400     294.1071   -1588.1506     471.9897    199.73192   -833.58978    36397.316 
  695500    295.98752   -1607.2934    471.33879    188.35156   -837.39155    36397.316 
  695600     300.2793    -1615.428    462.09229    190.17268   -788.62147    36397.316 
  695700    292.41353   -1622.2179    481.96045      168.058   -574.47477    36397.316 
  695800    300.39416   -1630.4097    470.28172    183.89435   -344.45511    36397.316 
  695900    309.99305   -1630.5116    468.41279    224.87081   -422.97962    36397.316 
  696000    298.15714   -1588.3868    491.09503    236.72172   -447.80245    36397.316 
  696100    305.89877   -1618.6028    459.39883    209.44706   -152.79288    36397.316 
  696200    282.36782    -1644.717    458.33404    76.985992   -531.96149    36397.316 
  696300    301.82798   -1637.2478    470.05015    183.23984     -198.925    36397.316 
  696400    292.53919   -1588.3933    463.86797    184.35229    592.16814    36397.316 
  696500    306.41981   -1611.3095    498.25445    257.92714   -74.428391    36397.316 
  696600     301.6066   -1569.1465    477.10906    257.40956   -78.491477    36397.316 
  696700    298.14355   -1622.0573    479.86161    191.75697   -291.40965    36397.316 
  696800    301.86592   -1628.8457    481.09519    202.85673   -591.91403    36397.316 
  696900    306.73837   -1600.3523    519.64153     291.6968   -861.61552    36397.316 
  697000    297.82156   -1590.8495    487.72589    229.38838   -1192.3539    36397.316 
  697100    302.73834   -1567.9491    467.22424    253.78579   -961.93439    36397.316 
  697200    286.78772   -1617.1763    466.27031    132.23841   -606.37333    36397.316 
  697300    293.53881   -1612.2083    501.02747    202.16932   -457.84418    36397.316 
  697400    295.39904   -1600.0568    473.27307    194.88943    251.24463    36397.316 
  697500    303.77386   -1580.4728    500.59331     279.2643     93.60569    36397.316 
  697600     302.8892   -1580.8432    494.86551    269.20793    628.99194    36397.316 
  697700    299.40307   -1591.1199    481.51415    229.98223    189.81833    36397.316 
  697800    279.61536   -1577.6262    513.84677    187.27443    586.32136    36397.316 
  697900    301.05364   -1603.8168    500.56211    243.71823    591.54761    36397.316 
  698000    302.56553    -1581.271    467.54864     240.0151     617.4473    36397.316 
  698100    301.56884   -1570.6816    496.61027    275.20671    443.29584    36397.316 
  698200     298.5418   -1545.7856    498.89494     288.8438    454.62193    36397.316 
  698300    294.25512   -1587.3673    487.17138     216.3591    94.422799    36397.316 
  698400     297.6171   -1597.8278    493.06453    226.83389   -694.56505    36397.316 
  698500    291.67826   -1579.1042     483.6078    209.52929   -598.49234    36397.316 
  698600    310.05679   -1570.0939    499.38362    316.54458   -200.50874    36397.316 
  698700    298.06296   -1560.8042    490.47866    263.26649   -169.25297    36397.316 
  698800    310.75792   -1596.0741    490.79752    285.11527    203.26165    36397.316 
  698900    306.20212   -1558.5544    492.46985    303.92371    94.632081    36397.316 
  699000    295.50834   -1583.3096    473.99616    212.84876    -156.7998    36397.316 
  699100    303.75209   -1572.4796     504.7911    291.35791   -575.11622    36397.316 
  699200    297.91728   -1604.1792    498.80286    227.56394   -235.20997    36397.316 
  699300    306.58952   -1528.9345    501.64269    344.44979   -604.85166    36397.316 
  699400     291.0219   -1501.6314    483.78584    284.24343   -327.77797    36397.316 
  699500    300.82266    -1560.514    479.21194    264.63749   -218.75641    36397.316 
  699600    314.60302   -1574.3596    479.46037    312.69631    607.50116    36397.316 
  699700    302.87562   -1584.5291    496.30921    266.90494    56.858761    36397.316 
  699800    299.24452   -1551.5037    486.27826    273.65318    147.92347    36397.316 
  699900    294.04073   -1564.0446    482.61201    234.16327   -172.63733    36397.316 
  700000    307.46894   -1563.7202    464.04822    276.00428   -5.6165218    36397.316 
  700100    295.79625   -1583.2677    469.79703    209.97966   -416.09228    36397.316 
  700200    310.22071   -1562.8469    500.47968    325.62105   -130.38334    36397.316 
  700300    298.66108   -1589.8103    453.05818    199.51606    401.63627    36397.316 
  700400    306.01534   -1585.4459    461.57831      245.305    135.77636    36397.316 
  700500    309.85339   -1551.3547      488.679    323.66908    99.833558    36397.316 
  700600    303.86677   -1554.6091    510.17879    315.12917    97.043006    36397.316 
  700700    305.82929   -1593.2209    455.66306    230.78236   -218.64414    36397.316 
  700800    305.68867   -1566.0004    491.01408    292.72472   -269.17609    36397.316 
  700900    297.42827   -1535.5887    489.98085     285.1445   -837.36281    36397.316 
  701000    297.27568   -1557.7541    467.54227    239.85777   -225.21984    36397.316 
  701100    313.77893   -1592.9476     484.1488     295.1096    19.336485    36397.316 
  701200     293.2595   -1554.8624    488.98131    246.21932   -232.39606    36397.316 
  701300     309.1512   -1563.1086    488.95083    309.04523   -183.56003    36397.316 
  701400    307.27223    -1592.183    489.68836    272.30153    161.54244    36397.316 
  701500    294.61803   -1569.3686    475.36437    224.17456   -404.64551    36397.316 
  701600    296.71451      -1623.2    462.84712    167.20593   -295.27441    36397.316 
  701700    301.58525   -1633.6079    477.68645    193.43001   -632.77739    36397.316 
  701800     290.5077   -1593.0242    509.00918    215.77328   -298.69891    36397.316 
  701900    301.13335    -1612.285    469.06228     204.1069     43.97251    36397.316 
  702000    300.15793    -1602.383     482.8525    223.43492   -121.52834    36397.316 
  702100    296.51632   -1606.7039    461.92283    181.89102   -88.395464    36397.316 
  702200    298.83384   -1630.8643    510.90884     217.0857     231.8418    36397.316 
  702300    312.33158   -1604.4782      486.643    279.59752    -264.3274    36397.316 
  702400    291.53213   -1603.2386    477.47536    178.60861    233.27506    36397.316 
  702500    301.21133   -1596.6627    466.20263     217.2184    -118.2231    36397.316 
  702600      295.317   -1588.5576    439.57833    172.32686    40.879966    36397.316 
  702700    296.97222   -1587.6982    471.42909    212.44277    47.944246    36397.316 
  702800    304.78763   -1602.8159    476.98041    237.84407    104.69015    36397.316 
  702900    304.22405   -1596.0023    468.23474    233.39043    227.96207    36397.316 
  703000    295.52201   -1629.8654      443.333    135.69098   -335.77834    36397.316 
  703100    304.04937   -1553.5461    460.85529    267.68562    -108.9656    36397.316 
  703200    299.55118   -1582.2675    475.61635     233.5995   -453.20238    36397.316 
  703300    287.65763   -1591.4776     479.4595    175.01849   -67.092784    36397.316 
  703400    280.11392   -1605.8525    483.22377    130.65578    140.58199    36397.316 
  703500    303.64098   -1530.2267    471.02564    299.34814    677.05547    36397.316 
  703600    311.37962   -1574.9656    457.73383    275.94167    691.17813    36397.316 
  703700     306.2993   -1538.7117    454.13355    285.86497     220.5926    36397.316 
  703800    307.45128   -1571.1102    465.16883    269.65589   -87.811676    36397.316 
  703900    294.80217   -1624.6676    458.36235    152.69742    349.74789    36397.316 
  704000    301.31975   -1610.7021    468.95082    206.41232   -78.453036    36397.316 
  704100    294.81198   -1551.3472    477.19629    244.89567   -482.67486    36397.316 
  704200    298.51514    -1500.187    480.11325    315.54143   -248.12189    36397.316 
  704300    297.16989   -1510.4629    480.76948    299.90292   -787.44009    36397.316 
  704400    299.36975   -1528.8668    474.09341    284.66553   -182.43348    36397.316 
  704500    297.76201   -1523.0622    498.60839    307.79177    271.48793    36397.316 
  704600    307.38603   -1539.9527    469.06197    304.41455    596.78239    36397.316 
  704700    291.29976    -1540.397    499.19824    262.13345     1231.718    36397.316 
  704800    304.28018   -1565.4426    475.92704    271.89363    1228.8001    36397.316 
  704900    291.02137     -1510.96    503.86872    294.99539     642.9322    36397.316 
  705000    313.06807   -1516.9539    467.62446    351.39843    788.39054    36397.316 
  705100    310.09056   -1536.6016    469.64069    320.44503    548.69245    36397.316 
  705200    301.04351    -1489.594    461.38841    318.72199    192.13881    36397.316 
  705300    299.88254   -1500.2556    475.23952    316.71718    441.09595    36397.316 
  705400    310.37062   -1529.6648    471.64271    330.63689    96.926112    36397.316 
  705500    305.23803   -1526.3472    510.16084    349.50836    -214.4254    36397.316 
  705600     295.1916   -1520.2546    493.41501    293.90547   -335.54545    36397.316 
  705700    297.03726    -1558.799    461.03309    231.23698    282.22065    36397.316 
  705800     311.8116   -1524.9009    464.70245    334.90777   -140.15667    36397.316 
  705900    294.66587   -1540.2743    488.45325    266.57177   -500.03316    36397.316 
  706000    303.31126   -1508.0129    481.98404    331.04517   -490.10494    36397.316 
  706100    299.91732     -1490.19    473.73554    325.43439    -158.8008    36397.316 
  706200    295.05264     -1513.59    501.70598    308.23925   -324.89264    36397.316 
  706300    283.91962   -1513.2691    462.74819    219.79108   -30.360362    36397.316 
  706400    300.04689   -1549.8427    490.00232    282.62819   -124.22158    36397.316 
  706500    291.90109   -1510.5743    494.35836    289.80672    18.216908    36397.316 
  706600    293.03093   -1516.1953    469.06849      263.951    114.87672    36397.316 
  706700    294.15074   -1485.2065    505.70468    336.58624   -9.2920535    36397.316 
  706800    298.86569   -1468.0497    495.97298    365.10696    -253.4406    36397.316 
  706900    301.48673   -1495.8376    478.05892    331.13199   -149.49529    36397.316 
  707000    300.60259   -1517.1162    477.05065    304.88933   -246.75608    36397.316 
  707100     300.8205   -1485.0395    486.89204    347.78236   -439.59912    36397.316 
  707200    301.16873   -1514.1655    469.20146    302.52383   -383.20754    36397.316 
  707300     305.0262   -1493.9846    481.65355    352.41597   -122.23235    36397.316 
  707400    286.99921   -1528.1091     466.4918    222.47343   -153.88415    36397.316 
  707500    301.97324   -1520.8273    477.49957    307.75971    605.93081    36397.316 
  707600    294.30372   -1493.4879    493.44661    316.73125    113.90532    36397.316 
  707700     290.7337   -1516.7476    493.09892    277.15083   -502.22356    36397.316 
  707800    297.23626   -1527.3223    468.58718    271.15807   -35.446831    36397.316 
  707900    291.52814   -1553.2702    475.66156    226.74534    707.48541    36397.316 
  708000    302.55681   -1589.3071     465.7597    230.15104    232.74913    36397.316 
  708100    298.92691   -1570.3897    515.75328    282.82109    207.42357    36397.316 
  708200     299.3878   -1545.8783    473.68007    267.32142   -29.035137    36397.316 
  708300    299.50824   -1567.0988    487.93403    260.89375    -475.5663    36397.316 
  708400    291.84025   -1536.6681     493.0466    262.12896   -136.97434    36397.316 
  708500    302.89156   -1485.6798    468.08701    337.60343   -780.95927    36397.316 
  708600    308.99296   -1552.5349    472.38901    302.34912   -193.25232    36397.316 
  708700    296.84632    -1527.177    471.80754    272.77914    43.519071    36397.316 
  708800    299.91607   -1513.8261    456.20019    284.25734   -728.38641    36397.316 
  708900    305.19698   -1524.6043    476.78344    317.69024   -358.85465    36397.316 
  709000    289.39114   -1529.2192    490.42789    256.00134   -580.49376    36397.316 
  709100    290.13974   -1505.9383    472.75088    264.95458   -220.67737    36397.316 
  709200    313.04784     -1571.89    473.07254    301.81993   -468.37396    36397.316 
  709300     290.9112   -1523.5009    465.62432    243.71711   -585.98789    36397.316 
  709400    293.81738   -1508.3101    473.40307    279.68953   -267.84848    36397.316 
  709500    299.88562   -1528.1328    486.57396    300.18811    27.679052    36397.316 
  709600    299.12453   -1528.7085     491.7986    301.43182   -188.93193    36397.316 
  709700    288.65286   -1537.1973     458.7306    213.02271     294.3453    36397.316 
  709800    296.67485   -1550.1096    477.72909    255.00083    468.09769    36397.316 
  709900    297.84996   -1544.7882    482.63268    270.48351    501.87191    36397.316 
  710000    292.33627   -1532.3278    440.06962    215.71155    562.16819    36397.316 
  710100    301.59764   -1546.1927    499.16481      302.379      215.448    36397.316 
  710200    292.28892   -1518.2286    494.31597    283.84529   -121.83676    36397.316 
  710300    306.78677   -1546.2498    468.01823    294.39254   -411.53553    36397.316 
  710400    295.14235   -1518.9529    467.76223    269.33397   -479.52888    36397.316 
  710500    316.50213   -1531.4863    485.15705    369.76328    286.88131    36397.316 
  710600    306.19354   -1489.9109    460.80402    340.86294    140.07607    36397.316 
  710700    300.60623   -1482.9843    498.60717    360.59399    481.16018    36397.316 
  710800    294.09058   -1486.8113    478.54849    307.55605    278.88552    36397.316 
  710900    302.40498   -1542.4134    473.26209    283.86782    231.98725    36397.316 
  711000    309.04485   -1479.1509    484.13547    387.71177    -12.76407    36397.316 
  711100    302.00033   -1445.2482    483.92978     389.8902   -287.88944    36397.316 
  711200    304.65587   -1465.9104    489.70891    386.88854   -149.61823    36397.316 
  711300    289.94873   -1508.4764     497.7553    286.56632    1129.9415    36397.316 
  711400    301.85453   -1512.0846    489.28144    327.75315    -65.65882    36397.316 
  711500    298.20402   -1541.7922    466.29592     258.7269    265.34543    36397.316 
  711600    279.06542   -1503.8964      523.516    268.21295   -206.26674    36397.316 
  711700    296.54128   -1496.0188    479.17688    309.94181   -322.55803    36397.316 
  711800    303.66837     -1507.73     486.3873    337.32905   -176.52752    36397.316 
  711900     287.8234   -1521.2784    472.45659    238.95647   -744.21442    36397.316 
  712000    292.81401   -1540.1023    492.50387    262.50883   -161.03827    36397.316 
  712100    296.50644   -1528.8852    484.89018    282.63291   -67.989523    36397.316 
  712200     291.5908   -1525.0821    478.16122    257.71354   -137.04869    36397.316 
  712300    301.57109   -1486.0893    467.93774    331.13659   -566.73871    36397.316 
  712400    300.42529   -1497.1701    478.17685    325.16841   -168.66562    36397.316 
  712500    296.90483   -1484.1425    500.93101    345.19893   -462.37469    36397.316 
  712600     298.9391   -1556.1383    443.42342     224.7972   -284.19597    36397.316 
  712700    296.32435   -1480.1326    496.94059    342.62117     -45.4376    36397.316 
  712800    290.95538   -1467.4946    478.34766    312.64446    171.84742    36397.316 
  712900    297.60321   -1519.3481    474.87583    287.06284    297.09113    36397.316 
  713000      310.905   -1520.8978    482.05922    352.21131    134.17161    36397.316 
  713100    292.54397   -1528.4684     472.8916    253.32226    664.22613    36397.316 
  713200    304.33861   -1531.1336    490.53833    321.07526    609.09376    36397.316 
  713300    294.12709   -1569.1032    472.51277    219.39176    641.23617    36397.316 
  713400     294.4592   -1535.0085    467.84557    250.30521    277.81684    36397.316 
  713500    298.66527    -1507.213    482.13556    311.20943   -87.877611    36397.316 
  713600     295.1906   -1518.6442    468.38252    270.47892   -363.57143    36397.316 
  713700    298.28282   -1535.8227    488.17984    286.93292   -336.28968    36397.316 
  713800    294.63501    -1492.384    473.72183    299.59255   -602.05148    36397.316 
  713900    300.80006   -1509.5189    476.02277     312.3423   -1012.4777    36397.316 
  714000    303.08769   -1549.6614    461.14549    267.55776   -624.36067    36397.316 
  714100    297.91223   -1545.8687    438.55557    225.60451   -532.81513    36397.316 
  714200    296.15481   -1542.0594    482.04202    265.03724   -261.33945    36397.316 
  714300    309.20259    -1536.354     462.9183    309.99727   -133.18004    36397.316 
  714400    302.72692   -1534.7849    460.31498    279.98958   0.85345056    36397.316 
  714500    288.46341   -1539.8557    486.12711    236.91316   -101.08554    36397.316 
  714600    305.46065   -1561.1717    466.28007    271.79919   -403.33447    36397.316 
  714700     300.2121   -1541.3987    478.12189    279.93091    3.2605257    36397.316 
  714800    294.44442   -1526.2738    477.04566    268.17383   -584.75297    36397.316 
  714900    304.70593   -1538.1815    439.69101    264.82356   -696.84748    36397.316 
  715000    305.85385   -1541.9004    476.45456    303.00421   -211.81027    36397.316 
  715100    296.41784   -1519.1947    467.35142    274.38818   -118.44335    36397.316 
  715200    300.82633   -1521.4147    473.24593    297.78716    155.06639    36397.316 
  715300     309.8681    -1540.426    496.67768    342.66227    322.47184    36397.316 
  715400    306.93059    -1558.842    471.05978    285.48533    672.71303    36397.316 
  715500    295.42196   -1534.7608    474.83186    261.84679   -295.65313    36397.316 
  715600    297.97462   -1583.8785    471.02568      220.344   -61.611109    36397.316 
  715700    300.95699   -1531.1644       475.45    290.82609   -107.02587    36397.316 
  715800    300.50522   -1575.4416    460.01513    229.09272    2.6307032    36397.316 
  715900    279.39494   -1552.1697    499.05232    196.95025   -223.00734    36397.316 
  716000    297.76784   -1551.9811    492.74654    273.03705    76.105047    36397.316 
  716100    308.99545   -1562.3632    467.02457    287.16754   -117.27814    36397.316 
  716200    298.71132   -1530.1508    462.74452    269.08672   -539.48453    36397.316 
  716300    297.63114   -1531.7002    444.13684     244.0967   -196.17455    36397.316 
  716400    292.25679   -1501.7811    476.33772    282.17079   -79.838323    36397.316 
  716500    304.71443   -1528.7001    476.07666    310.72863   -240.93108    36397.316 
  716600    306.50126   -1528.3734    482.29691     325.2702   -235.90211    36397.316 
  716700    290.50696   -1548.4567    490.66854    241.99689    -355.4663    36397.316 
  716800    294.78778   -1514.9485    482.41819    286.40792    -884.7902    36397.316 
  716900    296.85152    -1543.648    477.62356     262.1474   -1329.2539    36397.316 
  717000    293.27449   -1537.3542    448.55554    223.36885   -650.57275    36397.316 
  717100    310.77339   -1541.2281    482.70481    331.93771    165.44204    36397.316 
  717200    303.15445   -1511.3767    483.30525    328.30093    225.80659    36397.316 
  717300    307.09802    -1541.953    446.61823     278.6819   -224.06987    36397.316 
  717400    309.74134   -1556.9504    468.17327    297.06634   -384.00291    36397.316 
  717500    293.40536   -1553.1504    485.36591     244.9686    -358.0302    36397.316 
  717600    305.09448   -1579.9176    490.77658    275.91139   -11.525658    36397.316 
  717700    310.86955   -1558.5573    479.35356    311.68757     89.57335    36397.316 
  717800    303.82587   -1532.9528    489.37537    315.79902   -169.57407    36397.316 
  717900    299.58735   -1519.8653    478.99929    299.54651   -337.98958    36397.316 
  718000    299.62279   -1534.7682    468.77361    274.57648   -299.83281    36397.316 
  718100    294.69643   -1539.1284    493.67627    273.07739    258.32723    36397.316 
  718200    286.11232   -1542.5501    465.89047    203.46294    169.62453    36397.316 
  718300    298.95356   -1562.8847    436.88575    211.57781    677.64654    36397.316 
  718400    294.93014    -1527.491    451.20594    243.29018   -56.622862    36397.316 
  718500    295.33833   -1569.2827     476.5762    228.69502    -102.4849    36397.316 
  718600    299.26256   -1560.1495    459.05935    237.86911    95.118891    36397.316 
  718700    306.39937    -1561.788    460.15661    269.25939    5.8605567    36397.316 
  718800    297.80977   -1570.3587    486.86798     248.9685    487.18324    36397.316 
  718900    295.68174   -1557.1228    474.42527     240.2405     1378.804    36397.316 
  719000    296.85611   -1589.3242    470.01616    208.88435    1085.1333    36397.316 
  719100    306.08943   -1549.9963    497.73667    317.24439    947.01583    36397.316 
  719200    294.16018   -1535.6662    499.52992    279.99399    455.42804    36397.316 
  719300    296.89258   -1546.5666    461.14302    242.93195    279.84269    36397.316 
  719400    313.53021   -1565.4208    481.22854    318.60332    710.68278    36397.316 
  719500    291.62458   -1504.3761    484.18169    284.59109     655.1544    36397.316 
  719600    303.26291   -1518.8956    480.92542    318.88748    768.59442    36397.316 
  719700    295.49907    -1525.694     463.2998     259.7265    970.27544    36397.316 
  719800    301.64207   -1535.0283    481.21432    295.79169    719.93014    36397.316 
  719900    301.68424   -1554.8666    449.09248    244.02026    404.89705    36397.316 
  720000    298.12666   -1547.4125    486.25187    272.71646    724.94278    36397.316 
  720100    306.28073   -1547.8559    473.92298      296.427     573.6839    36397.316 
  720200    293.02317   -1500.5826    477.10595    287.56643    598.47407    36397.316 
  720300    295.67434   -1530.1465    488.05398     280.8124    237.76891    36397.316 
  720400    297.54811   -1551.7906    451.59489    231.09286    -516.8063    36397.316 
  720500    295.89519    -1481.671    476.96008    319.18211   -39.115561    36397.316 
  720600    304.27895   -1514.7812    473.83195    320.45432   -515.34345    36397.316 
  720700    286.38053   -1516.5244    474.75544    239.55363   -292.01311    36397.316 
  720800    291.41076   -1519.4349    475.14189    259.53577   -538.99376    36397.316 
  720900    308.17746   -1506.9288    458.08509    330.00264    104.17579    36397.316 
  721000    298.77977   -1495.7033     466.4435    307.53942   -122.30693    36397.316 
  721100    297.63308   -1477.8469    475.53885    329.36064   -391.88726    36397.316 
  721200     306.6253    -1479.536    485.81598    378.18164   -17.791837    36397.316 
  721300    306.86324   -1518.6063    503.80065    358.16058    21.076042    36397.316 
  721400    295.30171   -1463.7746    461.57466    319.03775   -88.249258    36397.316 
  721500    302.95124   -1529.3978    474.60833    300.67373   -709.84314    36397.316 
  721600    294.22768   -1518.2336    513.44858    311.64726   -672.88293    36397.316 
  721700     299.2686    -1498.675    464.74993    305.06128   -544.40258    36397.316 
  721800    299.03201   -1500.8638    496.19305    333.25707   -321.25848    36397.316 
  721900     301.0949   -1585.9075    488.85242    250.10245    77.143563    36397.316 
  722000    292.01108   -1608.7047    447.28761    145.09767   -317.58669    36397.316 
  722100    292.64843   -1567.5657    466.05927    207.85993   -384.50429    36397.316 
  722200    297.14753   -1540.2274    489.79946    279.06836   -56.166693    36397.316 
  722300    302.68203   -1569.1678    476.53711    261.62798   -26.144049    36397.316 
  722400    292.80118   -1528.5507    471.01453    252.51367    283.77185    36397.316 
  722500    304.40922   -1555.2283    517.23633    323.99454    1134.8052    36397.316 
  722600    293.05906   -1562.7302    469.34913     217.8226    1535.6211    36397.316 
  722700    303.61527   -1528.9103    488.47536    317.99931    1239.5765    36397.316 
  722800    296.58252   -1519.4269    479.80149     287.3429    904.64793    36397.316 
  722900    295.34563   -1515.5767    507.69327    313.55075    805.48444    36397.316 
  723000     302.8274   -1492.3066    483.83574    346.43822     263.8525    36397.316 
  723100     303.8461   -1463.8769    479.50653    375.09659    107.25321    36397.316 
  723200    312.44587   -1527.6371    495.13872    365.44565    201.38485    36397.316 
  723300    310.92496   -1520.4415    440.92088     311.6185    459.51768    36397.316 
  723400    305.93393   -1524.5085     495.1352    339.43499    150.19798    36397.316 
  723500     299.7155   -1571.7772    470.58393     239.7926   -195.82533    36397.316 
  723600    296.64042   -1548.0526    469.24708    248.42177    147.83585    36397.316 
  723700     304.2563   -1553.9546    464.76392    272.11161    799.04589    36397.316 
  723800    299.43606   -1575.5265    470.42757    234.63662    475.67701    36397.316 
  723900    301.63217   -1544.2497    491.81735    297.12906    191.47068    36397.316 
  724000     299.9359   -1503.8677    465.49306    303.59726    887.23835    36397.316 
  724100    297.71073   -1535.8902    472.74551    268.87143    1162.6863    36397.316 
  724200    295.46982   -1557.2341    494.81655    259.57235    254.45875    36397.316 
  724300    305.76282   -1499.9517    482.62295    350.71398    923.09706    36397.316 
  724400    301.19403   -1551.2425    482.69986    279.05845   -71.199242    36397.316 
  724500    298.16864   -1503.7464    504.48909     334.8076   -433.30724    36397.316 
  724600    289.57391   -1507.9983    461.00917    248.62126   -150.93149    36397.316 
  724700     312.0506    -1497.959    512.87867    411.09517   -123.52629    36397.316 
  724800    309.87048   -1525.7236     452.6566    313.35425   -325.44267    36397.316 
  724900    301.12686   -1541.3153    459.70138    265.68669    479.34595    36397.316 
  725000    296.23881   -1523.8406    521.56857    323.15843    620.18257    36397.316 
  725100     301.2263   -1544.1741    460.09303    263.66438    1060.1587    36397.316 
  725200     306.5225   -1585.7954    491.03195    276.67829    1405.6679    36397.316 
  725300    296.11993   -1561.9409    458.22716    221.18486    1137.7961    36397.316 
  725400    301.77604   -1540.1011    487.68617     297.7902    267.71681    36397.316 
  725500    301.60015   -1600.2825    488.99889    238.13459    201.83015    36397.316 
  725600    296.83903   -1608.7607     465.4271    184.78236     218.5385    36397.316 
  725700    294.87392   -1548.2917    455.68505      226.717    575.65695    36397.316 
  725800    298.82526   -1552.6073    503.78795    288.18345    471.61502    36397.316 
  725900    304.02282   -1515.2866    500.09361    345.06468    44.691883    36397.316 
  726000    293.24485   -1543.9124    449.68591    217.80842    311.68595    36397.316 
  726100    297.28376    -1514.295     490.4648    306.27553    524.57889    36397.316 
  726200    301.35655   -1546.2341    537.71755    339.81168    491.74843    36397.316 
  726300    291.22785    -1568.065    467.82997    202.77542    463.09216    36397.316 
  726400    294.66536   -1545.5969    497.55534    270.34897   -343.48892    36397.316 
  726500    294.06316   -1572.1413    468.98054    212.53539   -4.3852755    36397.316 
  726600    303.25668   -1560.5598    450.83335    247.10336   -822.27736    36397.316 
  726700    295.61145   -1524.5373    465.52851    263.61472   -763.01127    36397.316 
  726800    309.14395   -1518.3234    470.94455    335.79171    113.73808    36397.316 
  726900    294.91092   -1533.2358    498.80674    285.06018    341.61407    36397.316 
  727000     303.9286   -1595.6045    480.74373     244.9753    765.39835    36397.316 
  727100     294.4017   -1547.9376    488.56244    257.83578     947.8719    36397.316 
  727200    298.99028   -1549.5747    489.66567    277.83209    649.20204    36397.316 
  727300    303.75685   -1556.4372    478.76275    281.39318    951.14249    36397.316 
  727400    295.60527   -1527.6817    492.48555    287.39971    156.66338    36397.316 
  727500    292.76951   -1524.8278    473.02116    258.10145    541.90982    36397.316 
  727600    307.47224   -1523.2553    503.28829    355.72399    665.99264    36397.316 
  727700    295.07705   -1584.5763    491.82653    227.48278      470.192    36397.316 
  727800    313.03109   -1565.9983      493.747    328.31106   -24.679581    36397.316 
  727900    294.09279   -1480.2521    478.55064    314.12732   -600.41984    36397.316 
  728000    306.65289   -1495.6981    471.69265     348.0196   -394.01666    36397.316 
  728100    307.37575   -1521.0498     496.8624    351.07191   -31.053527    36397.316 
  728200     304.2387   -1515.3581    498.19793    344.06341   -210.60142    36397.316 
  728300    302.90375   -1534.8862    503.48408    323.84859    112.41472    36397.316 
  728400    301.31907   -1517.5267    477.37201    308.00584    663.28693    36397.316 
  728500    293.85267   -1558.3024    505.58831    262.04033   -197.75065    36397.316 
  728600    286.64075   -1549.7709    477.87207    210.58803   -154.46454    36397.316 
  728700    304.16774   -1586.1593    503.89116    278.63792   -492.10974    36397.316 
  728800    294.58331   -1531.7713     446.2704    232.52248   -701.29362    36397.316 
  728900    302.72272   -1560.2438     484.1528    278.34979   -737.37432    36397.316 
  729000     296.7277   -1580.0172    500.01895    247.61959   -827.37854    36397.316 
  729100    305.25968   -1512.6136    463.53377    316.71179   -184.87549    36397.316 
  729200    304.24889    -1573.017    470.02668     258.2788    617.50116    36397.316 
  729300    296.22788   -1520.4024    508.02307    313.00227    250.78422    36397.316 
  729400    297.33307   -1500.8619    488.47931    317.94379    670.54068    36397.316 
  729500    298.43416   -1475.9437    528.34413    387.65327    630.18823    36397.316 
  729600    298.50349   -1498.2718    476.58112    313.87242    1336.0018    36397.316 
  729700    303.34544   -1524.7555    470.87366    303.34506     851.1099    36397.316 
  729800     299.8183   -1539.7083    457.15637    258.89385    317.03103    36397.316 
  729900    293.07639   -1508.4317    473.15435    276.00384     152.3769    36397.316 
  730000    293.21128   -1544.4351    505.97957    273.42915      242.037    36397.316 
  730100    302.19399   -1518.0945    476.17465     310.1552     214.1988    36397.316 
  730200    304.39068   -1519.3725    451.46719    293.99821     208.5337    36397.316 
  730300    299.01214   -1537.9002    470.83638    270.77505    719.24039    36397.316 
  730400    298.20051   -1527.3618    481.47716    288.32285     646.8513    36397.316 
  730500     296.2156   -1521.1061    480.26939     284.4899     19.37244    36397.316 
  730600    298.20922   -1548.8496    489.87653    275.27335   -871.09861    36397.316 
  730700    308.21546   -1572.5666    474.59804    281.04776    -10.51419    36397.316 
  730800     308.0461   -1597.3743    440.72708    221.61136   -161.58964    36397.316 
  730900     292.3333   -1588.6152    486.67273    206.01399   -174.81949    36397.316 
  731000    292.91245   -1562.5584    459.99791    207.98719   -581.62463    36397.316 
  731100    295.10537   -1591.0247    458.91173    188.24621   -1128.5786    36397.316 
  731200    297.33075     -1597.04    453.37038    186.64641   -257.19753    36397.316 
  731300    303.41209   -1585.3166    466.22124    238.42974   -63.976579    36397.316 
  731400    303.43044   -1546.5456    488.05059    299.11223   -172.41423    36397.316 
  731500    303.25582   -1558.5011    486.70027    285.02516   -24.682241    36397.316 
  731600    279.44835   -1564.4738    460.02441    145.85729    272.19328    36397.316 
  731700    314.96755   -1551.1432    509.74627    367.82962    553.33976    36397.316 
  731800     306.7828   -1564.8749    460.22017    267.95165   0.98132438    36397.316 
  731900    300.35141   -1565.6366    449.47806    227.67246    447.52689    36397.316 
  732000    296.92775   -1584.0475    472.15106    216.61648   -599.72447    36397.316 
  732100     300.8567   -1570.7864     467.1988    242.50415   -538.28665    36397.316 
  732200    295.61387   -1523.6763    500.83879    299.79684   -393.74824    36397.316 
  732300    293.63221    -1525.995    456.77488    244.54789     207.8014    36397.316 
  732400    302.81694   -1546.1094    493.50775    302.26064    441.47063    36397.316 
  732500    308.91452   -1576.0627    467.37502    273.45643    160.76356    36397.316 
  732600    296.03086   -1569.7216    455.46493    210.24338   -189.08857    36397.316 
  732700    295.30827   -1539.1687    485.65513    267.75354   -310.98773    36397.316 
  732800    302.39593   -1524.0403    474.82707    303.76541   -421.69466    36397.316 
  732900    298.04171   -1526.1503    489.86282     297.2095   -452.30757    36397.316 
  733000    288.76643   -1554.4361    485.69534    223.25685    15.752012    36397.316 
  733100    311.67329   -1544.1821    454.17171    304.47698    41.496468    36397.316 
  733200    303.38041   -1545.6349    482.68131    294.42972    783.41098    36397.316 
  733300    305.51219    -1553.553    472.01081    285.37922    1070.7722    36397.316 
  733400    293.71142   -1516.1686    477.64867    275.60246    340.51705    36397.316 
  733500    306.60615   -1529.9245    474.10726    315.99877   -566.65783    36397.316 
  733600    292.99405   -1541.4087    460.03784     229.5419    -410.7073    36397.316 
  733700     292.7889   -1576.7886    467.18385    200.39015   -3.7280308    36397.316 
  733800    301.80515   -1539.0103    476.66334    287.98837   -819.76908    36397.316 
  733900    291.20112   -1568.6998    469.43064    203.62166   -273.88282    36397.316 
  734000    298.37764      -1573.8    464.29833     225.4984   -134.35213    36397.316 
  734100    293.48992   -1574.1887    472.93173    211.87438    301.47124    36397.316 
  734200    302.47286   -1560.1493    471.30454    264.47809    456.07971    36397.316 
  734300    301.03571   -1549.8544    466.69341    263.73172    415.79693    36397.316 
  734400     292.2893   -1539.7973    466.79034    234.75263    499.48183    36397.316 
  734500    298.83697   -1545.9122    505.43829    296.58121    749.42223    36397.316 
  734600    301.80251   -1482.9771    475.41331    342.75972    342.44351    36397.316 
  734700    302.07109   -1513.0289      466.775    305.27132    87.470295    36397.316 
  734800     294.8826   -1494.3608    501.16172     326.1634    598.71628    36397.316 
  734900    304.52576   -1538.3268    482.66455     306.8457    327.41708    36397.316 
  735000    298.11882   -1566.5214    492.30031    259.62093    760.11303    36397.316 
  735100    302.21642   -1506.5071     483.3405    329.00893    334.74248    36397.316 
  735200    292.35516   -1543.9683    445.02486    209.11077    388.73949    36397.316 
  735300    298.98745   -1539.9441    483.06199    280.84635    452.09975    36397.316 
  735400    307.84475   -1556.2952    487.64432     308.7068   -230.96849    36397.316 
  735500     298.2403   -1521.1268    452.63643    265.89515   -503.88765    36397.316 
  735600    297.98944    -1550.765    492.95242    275.45054   -448.67938    36397.316 
  735700    303.18619   -1516.2232    466.97147    307.26263   -172.21312    36397.316 
  735800    299.35453   -1562.2398    465.90836    243.03936   -101.17728    36397.316 
  735900    299.67414   -1528.5664    454.33199    266.56643   -329.01051    36397.316 
  736000    307.58205   -1515.9385    471.53077     331.7746    325.85711    36397.316 
  736100    293.11886   -1517.7488    453.46508    247.18752     670.4176    36397.316 
  736200    302.28692    -1513.767    475.51993    314.24383    357.05698    36397.316 
  736300    299.97222   -1512.1492    480.76063    310.74589    505.70041    36397.316 
  736400    311.17054   -1468.3103    486.52609    410.45372     341.8409    36397.316 
  736500    294.70104   -1495.9931    477.34421    299.90127    430.14453    36397.316 
  736600     304.2492   -1536.3111    465.49697    290.45633     636.0416    36397.316 
  736700    296.75188   -1511.1713    470.53893    287.09362    621.67326    36397.316 
  736800    299.15138   -1538.5965    457.21373    257.07913   -145.75114    36397.316 
  736900    305.85333   -1514.4004     492.9656    347.01298    -332.5553    36397.316 
  737000    293.51546   -1546.1383    471.50412     238.6115   -23.776181    36397.316 
  737100    310.15921   -1541.5255    455.84107    302.02862   -129.06829    36397.316 
  737200    295.16479   -1543.5449    456.61381    233.69403   -378.20672    36397.316 
  737300    302.40824   -1563.4333    466.37961    255.97998   -285.30625    36397.316 
  737400    293.29005   -1554.7861    451.37876    208.82981   -554.95159    36397.316 
  737500    292.49161   -1505.4946     458.5869    261.75702   -46.971252    36397.316 
  737600    306.08842   -1518.7719    462.35382    313.08144    127.59067    36397.316 
  737700    307.41543   -1566.0368     464.9439    274.34396    480.74419    36397.316 
  737800    305.87139   -1557.1218      485.128    296.53469    210.96007    36397.316 
  737900    302.30427   -1548.1916    461.08887    265.46581    408.85893    36397.316 
  738000    299.96986   -1573.5727     469.0145    237.56574   -179.72224    36397.316 
  738100    300.06662   -1492.2637    477.05337     327.3465   -363.53327    36397.316 
  738200    298.18932   -1525.0209    448.96222    258.09872   -251.32193    36397.316 
  738300    291.82282   -1514.2066    492.23794    283.70383   -447.63048    36397.316 
  738400    305.20534   -1497.0105    460.78128    329.31929   -1024.1241    36397.316 
  738500    299.63136   -1513.3342    480.73028    308.00552   -613.44893    36397.316 
  738600    295.71234   -1534.7715    485.12271    273.42619   -402.96762    36397.316 
  738700    292.83368   -1515.4509    480.68559    275.42996   -696.26988    36397.316 
  738800    305.28355   -1508.4723    464.42541    321.85146   -460.61875    36397.316 
  738900    303.76378   -1473.9229    484.29042    369.46618   -461.71477    36397.316 
  739000     307.3625   -1546.0456    462.04622    291.20068   -365.22391    36397.316 
  739100    302.44969   -1504.5132    471.59651    320.30245   -506.51134    36397.316 
  739200     304.0133    -1481.943    460.15703    338.42911   -567.06312    36397.316 
  739300    305.26836   -1474.3002    487.75079    379.28102   -560.13354    36397.316 
  739400    299.69924   -1499.0463    475.11174    316.97852   -685.85388    36397.316 
  739500    301.80102   -1502.3538    494.22536    342.18842    -321.6053    36397.316 
  739600    291.89627   -1446.5725    498.16886    357.59744   -308.50377    36397.316 
  739700    300.80736   -1507.3648    468.43232    306.93855    725.43914    36397.316 
  739800    293.12378   -1498.9943    470.22738     282.7263    585.02239    36397.316 
  739900    305.16699   -1487.5522    481.91428    359.73893    105.34214    36397.316 
  740000    281.83489   -1523.2098    473.12172    210.89642    280.09736    36397.316 
  740100    304.00717   -1499.4012    481.20981    341.99619    254.00477    36397.316 
  740200    304.72236   -1488.3107     471.6508    346.72759    518.68213    36397.316 
  740300    294.27386   -1544.1581    449.13766    221.61842    661.96389    36397.316 
  740400    305.04871   -1549.8249    475.99331    291.01615    656.62803    36397.316 
  740500    297.43166   -1520.3916    478.84941    289.22536    317.65705    36397.316 
  740600    294.65692   -1529.0058    452.45844    241.80541   -272.53225    36397.316 
  740700    299.84196   -1550.1007    459.25746     250.7084   -376.21604    36397.316 
  740800    301.35953   -1569.1738    487.88785    267.05562     187.2677    36397.316 
  740900    310.59485   -1534.2995    466.62319    321.98585   -256.39576    36397.316 
  741000    299.49388   -1536.6888    481.12757    284.43303   -633.64427    36397.316 
  741100     296.2231   -1528.0832    461.35275    258.62976   -664.00638    36397.316 
  741200    303.29135   -1532.2498    474.98897    299.72408   -414.10106    36397.316 
  741300    307.52976   -1550.7835    465.13306    290.29798   -630.18688    36397.316 
  741400    297.42069   -1506.1954    479.93955    304.46263   -44.155239    36397.316 
  741500    286.86636   -1566.8515    448.31228    164.95708    -297.9369    36397.316 
  741600     298.3847    -1518.462    478.71898    295.28861    143.28205    36397.316 
  741700    305.53491   -1528.5171    467.40109    305.90706   -79.671487    36397.316 
  741800    311.08875   -1510.4206    451.64592    333.09731   -151.74504    36397.316 
  741900    302.98536   -1524.0534    504.65453    336.21699     606.7993    36397.316 
  742000    304.77882   -1538.3123    470.54423    295.87204    206.83124    36397.316 
  742100    298.60763   -1551.3706     473.7869    258.44536   -116.80168    36397.316 
  742200    288.26085   -1558.5433    471.44888    202.64111   -58.072821    36397.316 
  742300    294.79155   -1561.8868    488.58688     245.6552   -17.989455    36397.316 
  742400     305.6307   -1559.7265    437.50243     245.2275   -134.09683    36397.316 
  742500    293.27381    -1538.767    480.45659    253.85407   -414.77022    36397.316 
  742600    300.54397   -1500.7805    488.95464    332.86671   -662.25502    36397.316 
  742700    311.52223   -1484.1438    489.80494    399.47256   -454.76585    36397.316 
  742800    305.54485   -1490.6278    473.59431    350.03402   -692.03357    36397.316 
  742900    306.31163   -1531.5729    454.32968    293.25498   -772.72768    36397.316 
  743000    299.82716     -1508.04     489.5284    322.97382   -569.16146    36397.316 
  743100    301.70922   -1501.8892    488.24049    336.25742   -218.52386    36397.316 
  743200    295.48436   -1526.6885    469.03804    264.40448   -963.02036    36397.316 
  743300    302.86376   -1540.3248    507.06303       321.81   -195.95924    36397.316 
  743400    298.63663   -1540.2125    462.94205    258.88838   -55.294346    36397.316 
  743500    290.56856   -1553.4652    487.91446    234.50995   -553.00699    36397.316 
  743600    291.53418   -1566.1355    477.12772    215.37318   -600.66819    36397.316 
  743700    310.65494   -1533.2385     456.8863    313.57889   -544.87074    36397.316 
  743800    301.89654   -1550.4544    470.91632    271.20615   -843.74198    36397.316 
  743900    289.09685   -1499.2008    485.99257    280.26772   -348.97594    36397.316 
  744000    310.89094   -1497.7088    481.75823    375.03634    -238.2167    36397.316 
  744100    297.92902   -1498.3086    505.73849    340.42267   -505.59842    36397.316 
  744200    296.97719   -1525.6874    477.52647    280.57319     122.2123    36397.316 
  744300    304.26969   -1554.0052    480.42595    287.78301    78.734735    36397.316 
  744400    288.52106   -1531.9733    471.00616    229.93259   -109.75995    36397.316 
  744500    312.36897   -1522.6849    466.94735    341.86236   -384.47074    36397.316 
  744600    299.02675   -1543.3184    457.62664    252.21255   -578.52813    36397.316 
  744700    298.00235   -1506.7389    485.04053    311.62251   -331.12505    36397.316 
  744800    293.38456   -1526.6842    470.86388     256.8397   -529.78212    36397.316 
  744900    302.36581   -1522.3225    500.01509    330.53649   -320.50887    36397.316 
  745000    299.67512   -1561.4868    452.39405    231.71246   -394.35052    36397.316 
  745100    294.47734   -1546.8492    502.21219    272.91227    -929.1563    36397.316 
  745200    296.82678   -1538.9175    452.12532    241.26896   -635.58657    36397.316 
  745300    299.38064   -1513.9682    491.77643    317.29581   -747.06662    36397.316 
  745400    301.08742   -1528.3105    472.99563    291.80921   -604.97688    36397.316 
  745500    291.61184   -1513.1819    482.65599    274.20256   -448.23561    36397.316 
  745600    299.78024   -1549.3869    478.47617    270.36482   -343.46716    36397.316 
  745700    300.49381   -1560.2984    470.51924    254.68904   -462.78504    36397.316 
  745800    303.43931   -1582.9582    469.72508    244.41382   -493.17393    36397.316 
  745900    301.75425   -1573.7325    509.85318    286.22827   -292.64553    36397.316 
  746000    298.27823   -1539.7453    479.92663    274.73653   -715.15567    36397.316 
  746100    305.15979   -1543.5747    487.08272    308.85272   -307.63019    36397.316 
  746200    308.12732   -1557.7212    473.46575    294.36654   -436.63103    36397.316 
  746300    301.27144   -1556.5689    456.42171    247.80023   -424.66745    36397.316 
  746400    306.17649   -1541.1627    487.81159    316.54249    -45.85888    36397.316 
  746500    307.25028   -1547.2784    480.50167    307.92118   -518.45057    36397.316 
  746600    302.75404   -1547.6421    479.69041    286.62922    209.23704    36397.316 
  746700    308.93815   -1519.4116    488.85638    351.69461    31.959278    36397.316 
  746800    297.84304   -1530.8138    493.72282    295.51709    13.484399    36397.316 
  746900    301.99418   -1537.8725    477.25548    290.56408   -157.99941    36397.316 
  747000    299.75235   -1587.5693    484.37609    237.95747    11.490462    36397.316 
  747100    301.31351    -1560.188    451.79031    239.73792   -98.991498    36397.316 
  747200    302.91207   -1544.2385    495.91214    306.96162    -1078.376    36397.316 
  747300    299.34115   -1554.5737    451.36873    236.10596   -284.05805    36397.316 
  747400    289.79116   -1583.8803    454.14895    166.85105   -537.86332    36397.316 
  747500    315.91961   -1582.4493    481.08092    312.11784   -1105.7318    36397.316 
  747600    296.48126   -1604.6818    469.54113    191.37459   -768.83649    36397.316 
  747700    296.59575   -1607.4237    470.44276    190.04649   -951.89826    36397.316 
  747800    304.42425   -1572.6941    481.20349    270.56316   -772.52332    36397.316 
  747900      297.488   -1599.5828    464.67137    196.10819   -366.56066    36397.316 
  748000    310.69339   -1579.1672    468.50256    279.43841   -194.16524    36397.316 
  748100    288.54811     -1541.27    483.66447    233.41529   -541.26492    36397.316 
  748200    304.97634   -1527.5142    470.45145     307.4611   -198.39633    36397.316 
  748300    296.82092   -1547.6486     472.7449    253.13122   -187.59162    36397.316 
  748400    296.42095    -1568.823    501.08068     258.5031    -141.2353    36397.316 
  748500    297.63341   -1548.2079    463.61666    247.07892   -3.0481527    36397.316 
  748600     305.0469   -1574.3122     464.7845    255.31191    825.18084    36397.316 
  748700    307.20294   -1606.5001    497.12327    265.10933    1034.0429    36397.316 
  748800    294.63604   -1571.4926    471.43628    218.20306   -12.048078    36397.316 
  748900    298.15189   -1628.3965    449.74582    155.33931    143.05305    36397.316 
  749000    311.02389   -1580.2391    477.49778    288.84052   -102.04612    36397.316 
  749100      306.223   -1571.6337    463.64369     262.1117    120.55923    36397.316 
  749200    289.08999   -1573.2598    494.73568    214.92111  -0.38046344    36397.316 
  749300    297.16055   -1551.7924    469.62574    247.38787    87.431627    36397.316 
  749400    296.15597   -1550.3021    495.82997     270.5877    131.07039    36397.316 
  749500    304.16852   -1564.5593    465.17784    261.52806    104.08972    36397.316 
  749600    300.53934   -1591.5248    471.09041    224.23747   -18.933271    36397.316 
  749700    303.73831   -1595.4652    479.31025    242.82975    466.10483    36397.316 
  749800    310.78333   -1575.3777    455.49185    270.61964    586.52025    36397.316 
  749900    296.46404   -1565.1215    501.19972    262.51637    580.92337    36397.316 
  750000     290.4598   -1566.9243    473.60923     206.2589    613.02344    36397.316 
  750100    289.59403   -1592.8007    471.10288    174.00257    146.05295    36397.316 
  750200    294.03133   -1528.7586     480.6428    267.43797    580.21999    36397.316 
  750300    312.12877   -1542.0115    477.48218    331.99596    277.87701    36397.316 
  750400    296.55513   -1579.8625    502.59776    249.58099   -456.43676    36397.316 
  750500    305.82648   -1588.0399     456.8074    237.09505   -317.18818    36397.316 
  750600    309.20987    -1568.264    481.87596    297.07753   -704.31467    36397.316 
  750700    292.13276   -1572.0349    488.33656    223.36087   -30.653306    36397.316 
  750800    292.56828   -1561.8412    479.84685    227.01349    324.08683    36397.316 
  750900    309.80878    -1573.381    490.92931    303.69351    381.80134    36397.316 
  751000    309.47186    -1539.149    482.25267     327.7414    224.67891    36397.316 
  751100    294.65916   -1534.7018    465.12702    248.78798    171.41651    36397.316 
  751200    292.66022    -1593.331     461.5499     177.6381   -142.80088    36397.316 
  751300    306.50401   -1587.3603     481.5522    265.55087   -843.40904    36397.316 
  751400    307.23763   -1582.1468    469.32598    261.82048    292.86216    36397.316 
  751500    302.37316   -1602.7042    476.89626    227.06881   -279.35447    36397.316 
  751600    295.47923   -1556.4202    469.19851    234.81029   -254.02626    36397.316 
  751700     348.4369   -1562.4428     501.4033    497.93547     391.1406    36397.316 
  751800    284.51774   -1545.8778    466.49021    193.60052    73.525537    36397.316 
  751900    307.65253   -1566.9103    522.87457    332.46191   -180.99593    36397.316 
  752000    296.17389   -1496.0456    468.19239    297.28679    82.799871    36397.316 
  752100    304.44309   -1522.6267    499.13423    338.64558   -525.23489    36397.316 
  752200    289.17161   -1538.0086    480.21962    236.02147   -536.45704    36397.316 
  752300    301.63602   -1563.4837    500.93792    287.03283    576.64916    36397.316 
  752400    280.95362   -1547.8418    507.52064    216.72039    463.35399    36397.316 
  752500    295.19234   -1517.9897    483.99989    286.75852    158.08897    36397.316 
  752600    302.04505    -1540.197    467.36057    278.57226    28.075071    36397.316 
  752700    292.88101   -1532.3811    485.69128    263.71719   -345.09484    36397.316 
  752800    292.80705   -1537.0526    482.52329    255.54683   -155.56632    36397.316 
  752900      313.901   -1510.9898     469.4101    362.87489   -150.49419    36397.316 
  753000    293.23828   -1541.7118    483.23756    253.53126    168.60156    36397.316 
  753100    302.62904   -1577.1916    474.86629     251.6963   -95.956272    36397.316 
  753200    301.85704   -1549.2486    490.19964    291.51852    127.53896    36397.316 
  753300    303.10912   -1539.8554    483.46786    299.78204    304.36447    36397.316 
  753400     298.8639   -1535.0836    479.14868    281.24067   -11.788294    36397.316 
  753500    298.14071   -1528.2861    472.96334    278.61715   -178.07959    36397.316 
  753600    309.81365   -1537.0923    505.01591    354.09061   -418.18493    36397.316 
  753700    298.67419   -1529.2196    500.35252    307.45976   -675.41944    36397.316 
  753800    298.92456   -1531.3062    485.94996    292.09083    -566.0537    36397.316 
  753900    295.58754   -1540.5325    476.53871    258.52273   -1251.4731    36397.316 
  754000    298.20513   -1508.3213    491.62544    317.53227   -680.08934    36397.316 
  754100    299.09334   -1508.5037     481.4532    311.15163   -560.04704    36397.316 
  754200    296.94583    -1547.917    488.26725    268.94404   -269.02857    36397.316 
  754300    297.94457   -1524.9248    507.50031    315.63787    350.73083    36397.316 
  754400    306.01314   -1546.3592    491.92099     314.7245    352.99494    36397.316 
  754500    308.10719    -1561.033    477.68736    295.18625     260.5693    36397.316 
  754600    303.95819   -1545.2986     474.4803    289.15013    277.86198    36397.316 
  754700    310.08044    -1568.311    470.73674    289.78636    269.87982    36397.316 
  754800    303.37176   -1574.6274    473.46565    256.18291    69.905035    36397.316 
  754900    303.66331    -1553.347    481.63871    286.94079    92.949848    36397.316 
  755000    296.64319   -1553.6866    481.02793    254.58112   -353.26401    36397.316 
  755100     296.8594   -1616.6355    500.04636    211.61796    4.2245933    36397.316 
  755200    300.87802   -1582.4819    474.28245    237.98772    202.01062    36397.316 
  755300    310.83726   -1574.4212    490.69674    307.02235   -76.283897    36397.316 
  755400    296.45152   -1600.3318    484.82226    210.87261     86.39147    36397.316 
  755500    296.87507   -1562.1656    478.41501    244.52664   -84.869086    36397.316 
  755600    292.85298    -1532.795    481.34715    258.83377    301.58933    36397.316 
  755700    296.24474   -1557.1512    492.52555    260.83128    32.165334    36397.316 
  755800    296.24975   -1542.8384    489.84783    272.48882    2.9828839    36397.316 
  755900    316.16559   -1578.0473    472.98148    309.52101    213.95909    36397.316 
  756000    289.42023   -1587.4706    477.35546    184.80767    132.47639    36397.316 
  756100    303.43936   -1587.7012    481.03072    250.97665    411.47284    36397.316 
  756200    298.85593   -1556.9317    478.85968    259.06792    390.64365    36397.316 
  756300    302.69624   -1563.8816    493.54314    283.98378   -36.764417    36397.316 
  756400    298.85364   -1549.8101    478.05781     265.3774     38.83211    36397.316 
  756500    298.96314   -1511.8184    494.26666    320.06795    301.79531    36397.316 
  756600    294.52563    -1547.331    506.50162    276.93597   -44.164092    36397.316 
  756700    293.68882   -1525.1894    486.05259    274.88451   -469.99292    36397.316 
  756800    299.96958   -1554.1296    466.41505    254.40809     -332.752    36397.316 
  756900    302.44781   -1591.4918    479.56535    241.28428   -69.671735    36397.316 
  757000    306.47722   -1569.4455    477.14697    278.94061   -225.96519    36397.316 
  757100     287.7063   -1516.0655    484.02963    255.21847    535.29619    36397.316 
  757200    296.28259    -1565.893    476.82558    236.55892   -368.56225    36397.316 
  757300    293.03032   -1560.1927    456.96822    207.85057   -470.67873    36397.316 
  757400    289.83509   -1517.4471    490.16288    269.49479   -97.598036    36397.316 
  757500    299.30871   -1565.2511    486.87999    260.79474    250.41503    36397.316 
  757600    293.68555   -1538.9355    501.17341    276.24465    644.66409    36397.316 
  757700    299.28248   -1558.5123    490.06246    270.59864    397.70416    36397.316 
  757800    301.56183   -1559.4572    524.97182     314.7613    853.99979    36397.316 
  757900    302.81933   -1572.4828    463.47457    245.86477    426.61469    36397.316 
  758000    298.29596    -1580.827    493.51659    247.32417   -83.207305    36397.316 
  758100    299.18661   -1558.3041    489.46916    269.78451    358.10993    36397.316 
  758200    290.60303   -1531.6189    496.79926    265.39529    346.75527    36397.316 
  758300    305.82596   -1532.5591    504.07162    339.83775       595.77    36397.316 
  758400    309.00924   -1521.9157    478.25345     338.9056    285.13607    36397.316 
  758500    297.30326   -1533.0588    494.63034     291.7646   -15.562332    36397.316 
  758600    299.52286   -1547.2084    483.45339    276.36894   -162.37061    36397.316 
  758700    316.78655   -1560.3617    486.99338    343.99674   -76.196918    36397.316 
  758800    305.36207   -1507.5843    504.79627    363.46167   -322.36973    36397.316 
  758900    302.20357   -1520.7694    474.66329    306.01181   -246.63173    36397.316 
  759000    301.14422   -1524.0974    462.78345    286.06431   -1078.8604    36397.316 
  759100    297.53317   -1522.6413    487.21007    295.79043   -649.27724    36397.316 
  759200    300.38934   -1570.8001    472.43052    245.63115   -1014.9419    36397.316 
  759300    298.64757   -1564.8457    457.56867    228.93071   -645.93407    36397.316 
  759400    302.28005   -1536.7571    498.70921    314.41226   -434.57487    36397.316 
  759500    301.81644   -1530.3616    495.49855    315.52281    -68.10187    36397.316 
  759600    298.91751   -1548.6409    470.79464    259.56919    318.26287    36397.316 
  759700    303.46009   -1576.7215    483.66204    264.68043    513.78658    36397.316 
  759800    298.17003   -1513.5802    494.26956    314.76054    520.07938    36397.316 
  759900    299.25081   -1517.0511    478.27492    300.13053    545.87188    36397.316 
  760000    288.95336   -1513.1322    488.99908     268.7008     886.3902    36397.316 
  760100     294.5439   -1502.4393    507.79483    323.20261    692.07821    36397.316 
  760200    303.11909    -1542.035    487.54052    301.71975   -553.46776    36397.316 
  760300    301.45863   -1543.6995    469.67519    274.76067   -621.24374    36397.316 
  760400    300.71447   -1495.5709    471.45311    321.33762   -187.50933    36397.316 
  760500    296.62008   -1528.8699    477.35123    275.61769   -332.25038    36397.316 
  760600    289.44301   -1508.2561    486.21164    272.98029    -519.3795    36397.316 
  760700     302.4428   -1523.9782    467.93656    297.14667   -513.82403    36397.316 
  760800    309.82584   -1530.7137    473.70665    329.21446   -77.979274    36397.316 
  760900    308.50536   -1470.4645    487.28968    397.13858   -375.09202    36397.316 
  761000    308.75469   -1542.9228    484.29595    322.80209   -397.41099    36397.316 
  761100    297.70523   -1546.8604    478.12954    263.26059   -318.98496    36397.316 
  761200    296.08605   -1539.3802    494.23244    279.59919   -146.97057    36397.316 
  761300    310.71676   -1526.9988    495.17858    358.38746   -190.64092    36397.316 
  761400    295.25392   -1564.9746    488.68624     244.7355   -692.42532    36397.316 
  761500    296.88452   -1576.7842    489.57285    241.10815   -363.43689    36397.316 
  761600    302.26715   -1529.1637    481.12016    304.35886    90.293681    36397.316 
  761700    293.81618   -1542.6791    497.96766    269.87966   -442.37204    36397.316 
  761800    305.65957   -1619.1092    477.85721    226.32877   -12.504446    36397.316 
  761900    306.01429    -1585.158    474.14957    258.15946    520.70899    36397.316 
  762000    293.61996   -1554.3873    448.38165     207.7076    246.53897    36397.316 
  762100    292.04783   -1568.2898    493.14798    231.53741    525.03639    36397.316 
  762200    298.01101   -1600.3199    493.49426    226.53397    264.53013    36397.316 
  762300    297.71429   -1572.1669    468.49685      228.362    654.03332    36397.316 
  762400    301.11195   -1576.2114    499.62799    270.65045    650.69136    36397.316 
  762500    288.05625     -1542.87    484.12355    230.07368   -194.37412    36397.316 
  762600    305.49137   -1532.5516    518.55526    352.83189   -83.887036    36397.316 
  762700    303.32757   -1590.9849    487.55015     253.7122   -152.50826    36397.316 
  762800    309.06421   -1600.7723     511.3142    293.35574    254.77142    36397.316 
  762900    311.76649   -1594.6584    445.54593    245.79189   -1.1939838    36397.316 
  763000    300.03915   -1565.7216    536.89506    313.60743     -186.933    36397.316 
  763100    291.10194   -1558.4987    483.14254     227.0909   -292.73817    36397.316 
  763200    295.53612   -1535.9337    527.61523      313.968   -80.306367    36397.316 
  763300    305.77571    -1551.197    478.96349    295.86693    22.044973    36397.316 
  763400    295.31856   -1575.1449    465.87864    212.04686   -464.14113    36397.316 
  763500    297.25985   -1561.6892    476.84218    245.15174   -161.02892    36397.316 
  763600    293.59154   -1606.9684    495.74555    202.36315   -475.36972    36397.316 
  763700    290.87523   -1602.1218    485.77862    185.08954   -343.59571    36397.316 
  763800    307.34067   -1575.1542    500.07602     300.0242   -54.749324    36397.316 
  763900    296.35708   -1546.1299     461.5147    241.34443   -425.76357    36397.316 
  764000     297.8884   -1542.5798    492.29304     282.5243   -452.04076    36397.316 
  764100    298.89737   -1608.5649    463.25962    192.02012    161.68916    36397.316 
  764200    303.43931    -1593.509    526.64943    290.78729   -530.79256    36397.316 
  764300     306.1655   -1628.2703    480.40952    221.98366   -402.87877    36397.316 
  764400    300.09177   -1571.7482     502.1974    273.11855     233.0548    36397.316 
  764500    293.73238   -1576.2728     491.7615    229.70492    42.948912    36397.316 
  764600     301.3157   -1550.1419    487.84812    285.85167   -370.44094    36397.316 
  764700    292.09923   -1567.6863    491.54278    230.76562   -116.62671    36397.316 
  764800    300.83829    -1603.723    536.53085    278.81731   -164.55124    36397.316 
  764900    293.81781   -1574.1325    467.02827    207.49418   -181.70296    36397.316 
  765000    297.30919   -1551.9978    513.90925    292.13103    63.502794    36397.316 
  765100     306.0409   -1572.8855     520.1608    316.56223    350.80021    36397.316 
  765200    306.22773   -1562.7424    504.56559    311.94606     654.5457    36397.316 
  765300    300.30456   -1537.5806    486.62571    292.66656    518.53939    36397.316 
  765400    301.86812   -1547.1431    518.04214    321.51616    482.95696    36397.316 
  765500    302.14649   -1580.2447    502.68014    274.29803    523.48576    36397.316 
  765600    307.02054   -1562.4658    507.54015    318.74438   -42.512191    36397.316 
  765700    297.66794    -1538.667    514.22413    307.38177    52.054776    36397.316 
  765800    295.32314   -1543.8604    523.77119    301.24441    44.061177    36397.316 
  765900    305.77185   -1531.5501    503.20493    339.73803   -125.62565    36397.316 
  766000      292.794   -1524.9968    512.12058    297.14149    173.47309    36397.316 
  766100    293.18026    -1572.209    527.97364    267.51053    464.96543    36397.316 
  766200    288.77184   -1544.5344    485.78375    233.27112    1050.2312    36397.316 
  766300    295.95449   -1562.1776    523.95121    285.93193    585.08832    36397.316 
  766400    293.63324   -1586.3856    496.91459    224.30169    418.36314    36397.316 
  766500    304.28572   -1583.5532    490.37135    268.25201    544.74432    36397.316 
  766600    289.13273   -1623.8381     510.0108    179.80915    701.54959    36397.316 
  766700    297.02993   -1574.9751    492.33313    246.32813    582.05165    36397.316 
  766800    303.03204   -1602.1985    455.09414    208.72037    390.40962    36397.316 
  766900    294.68198   -1572.9495    502.83247    248.34794    27.418121    36397.316 
  767000    295.34021   -1576.9539    507.12492      251.581   -579.18209    36397.316 
  767100    296.19613   -1583.5774    510.36636    252.02844   -815.48334    36397.316 
  767200     294.5865   -1528.4138    520.78237    310.40624   -806.79958    36397.316 
  767300    295.46875   -1555.3189    492.94563    259.61179    -13.92662    36397.316 
  767400    293.93162   -1552.3395    504.67091    267.43903   -245.58933    36397.316 
  767500    281.79763   -1576.7973    496.58438    180.60491   -551.29558    36397.316 
  767600    293.39411   -1573.8296    516.63913    255.51218   -857.86853    36397.316 
  767700    310.01645   -1581.7381    479.74108    285.07727   -381.51053    36397.316 
  767800    288.94503   -1598.4614    491.20715    185.54243   -386.89076    36397.316 
  767900    300.79078   -1565.7857    497.20922    277.22043   -306.58404    36397.316 
  768000    296.78726    -1591.007    474.17166    211.04898   -319.08398    36397.316 
  768100    287.17751    -1593.429    488.54054    179.99997   -565.80145    36397.316 
  768200    299.76367   -1565.1864    480.76964    256.78463   -338.81998    36397.316 
  768300    304.65435   -1558.1286    499.24959    304.20426   -235.22775    36397.316 
  768400    296.35617   -1566.0328    481.67882    241.60159    64.804624    36397.316 
  768500    308.50982   -1589.7916    492.28488    282.82662   -191.87437    36397.316 
  768600    297.99171   -1565.8231    488.11303    255.56324    385.62451    36397.316 
  768700    297.60632   -1581.7985    501.19083     250.9413    58.407912    36397.316 
  768800    300.13288   -1553.6797    497.37656    286.55012    413.70903    36397.316 
  768900    299.15404   -1541.6554    500.47719    297.29559    263.52628    36397.316 
  769000    303.31639   -1561.5072    499.35462    294.94436     491.9246    36397.316 
  769100    292.46526   -1539.8413     503.2569    271.96245    444.40625    36397.316 
  769200    297.45317   -1521.2525    485.67413    295.28533     473.3956    36397.316 
  769300    299.70458   -1514.0165    484.78138    311.70185    523.07909    36397.316 
  769400    288.47865   -1535.7168    501.67124    256.66443    853.83534    36397.316 
  769500    303.50688   -1541.8676    482.93159    299.01318    496.70417    36397.316 
  769600     294.9979   -1550.7171    526.72989    295.89113    583.55929    36397.316 
  769700    312.99591   -1574.0353    481.11325    307.48293   -61.948737    36397.316 
  769800    300.75177   -1552.1761    509.99757    303.44375    733.70139    36397.316 
  769900    308.67144   -1530.5602    493.02207    343.51837    91.655376    36397.316 
  770000    297.53669   -1571.5467    485.57632    245.26702    -399.9214    36397.316 
  770100    305.17338   -1520.9519     504.8433    349.29691   -977.02094    36397.316 
  770200    307.48882   -1532.5047    486.30933    329.56985   -657.35091    36397.316 
  770300    301.43887   -1570.2478     456.3304    234.77914   -265.32257    36397.316 
  770400    297.53035   -1526.9481    494.90563    299.16658    -226.1814    36397.316 
  770500    293.28211   -1560.3698    498.81358    250.64536   -146.64235    36397.316 
  770600    302.45986   -1554.9083     483.7859    282.14228   -390.32696    36397.316 
  770700    292.72148   -1555.9782    504.71696    258.43199   -61.205633    36397.316 
  770800    289.32241   -1583.4361    486.82451    197.87352   -335.18907    36397.316 
  770900    307.56985    -1608.456    485.33806    253.00986      -35.737    36397.316 
  771000     306.8353   -1553.4339    468.39416    287.80152    143.56252    36397.316 
  771100    303.77509   -1583.1677    490.44029    266.42185    198.33203    36397.316 
  771200    296.20619   -1567.1701    521.01977    279.13418   -979.94053    36397.316 
  771300    290.88595    -1563.915     448.8319    186.39763   -537.47297    36397.316 
  771400    299.65439   -1562.5973    514.99492    293.11005    326.71744    36397.316 
  771500    301.75849   -1580.2179    483.25868    253.16733    171.39849    36397.316 
  771600    306.38356   -1624.5491    461.65526    207.92626    331.98557    36397.316 
  771700    307.77184   -1599.0345    457.92745    235.92442    376.00043    36397.316 
  771800    307.02144   -1617.8699    499.30905     255.1132    382.42867    36397.316 
  771900    293.74346   -1567.9692    480.72659    227.02318    283.83203    36397.316 
  772000    297.88114   -1605.6329    486.79256    213.93826    366.84372    36397.316 
  772100    303.01489   -1577.4954    511.63425    289.88682     315.2007    36397.316 
  772200    303.21904   -1541.6394    492.07194    307.09396   -176.99809    36397.316 
  772300    303.38934   -1584.6863    491.90919    264.64627   -92.360422    36397.316 
  772400    308.05232   -1583.3062    490.18723     285.1674   -617.40889    36397.316 
  772500    294.86506   -1588.7393    493.11024    223.65494   -64.282128    36397.316 
  772600     296.1808   -1544.9505    480.07751    260.29796   -557.82722    36397.316 
  772700      302.201   -1533.5973    505.32901    323.83815   -843.28314    36397.316 
  772800     302.5505   -1543.8364    488.06516    297.89896   -334.10711    36397.316 
  772900    301.76615   -1564.4352    460.37612    246.10176    189.12062    36397.316 
  773000    297.18814   -1522.5719    494.24231    301.34835   -69.196645    36397.316 
  773100    298.28666   -1559.4932    494.81947    269.91918     778.8845    36397.316 
  773200    314.51126   -1545.1819    474.51015    336.51326    805.53633    36397.316 
  773300     295.7892   -1536.6516    483.34991    270.11708    294.32236    36397.316 
  773400    289.90179   -1557.5478    510.21373    249.74337    344.30769    36397.316 
  773500    299.57006   -1554.3591    476.22853    262.20455   -49.360352    36397.316 
  773600    302.95543   -1531.2647     494.0409    318.25812   -137.19383    36397.316 
  773700    299.90815   -1523.5665     515.5108    333.79213    121.90206    36397.316 
  773800    299.78277   -1542.0093    469.73478    269.01237    263.75641    36397.316 
  773900    295.41559   -1595.2467    491.04431    217.54477   -214.18074    36397.316 
  774000    290.87335   -1585.2852    475.14602    191.28517    395.66629    36397.316 
  774100    297.20451   -1591.9591    479.81276    217.60491    -471.3922    36397.316 
  774200    291.13787   -1582.8162    479.26101    199.05263   -356.90827    36397.316 
  774300    297.89144   -1532.7729    488.20082    288.25254    260.55164    36397.316 
  774400     287.9253   -1541.5527    483.86146    230.54294     392.8577    36397.316 
  774500    305.92158   -1525.7224     511.3062    354.33683    99.003292    36397.316 
  774600    294.77572   -1564.4995    488.76742    243.15225    562.60313    36397.316 
  774700     303.6182   -1551.9141    484.40769    290.94094    55.746593    36397.316 
  774800     296.0142   -1514.9362     485.3074    294.79676   -277.26879    36397.316 
  774900    302.33989   -1494.7376    496.92573    354.91603   -35.000464    36397.316 
  775000    310.49045   -1518.6476    517.09857    387.64609   -312.55301    36397.316 
  775100    308.03727   -1504.1333    471.28797    345.37373    31.940381    36397.316 
  775200    309.68603   -1495.0784    501.43094    391.94852    125.56028    36397.316 
  775300    290.89244   -1504.8917     492.7918    289.40984    -342.6976    36397.316 
  775400    293.83317   -1531.1799    473.02967    256.51695   -50.588138    36397.316 
  775500    298.69597   -1523.9751    479.33503     291.7842    -9.235346    36397.316 
  775600    308.23246   -1564.3979    477.32758    292.02211    3.1028976    36397.316 
  775700    295.83975    -1567.769    495.40579     251.2818    34.364399    36397.316 
  775800    296.24691   -1553.3484    474.28421    246.40257    139.62642    36397.316 
  775900    298.43095   -1559.2033    518.44423    294.47949    514.22619    36397.316 
  776000     301.5881    -1588.204    473.62066    234.78086   -211.24894    36397.316 
  776100    297.26481   -1548.9524    446.99519    228.06376   -142.69363    36397.316 
  776200    302.94677   -1550.8878    475.19028    279.74567    -155.5329    36397.316 
  776300    290.61861   -1508.0568    487.02107    279.24884     37.97707    36397.316 
  776400    291.57435    -1539.999    458.01953    222.58133    49.912188    36397.316 
  776500    300.38902   -1532.0325     511.1073    323.07408    518.15613    36397.316 
  776600    287.06782   -1523.7782    491.96491    252.58438    85.131866    36397.316 
  776700    311.10702   -1577.6251    474.97914    289.30781   -185.49355    36397.316 
  776800    320.01378   -1575.0663     474.2606    330.99862   -471.76614    36397.316 
  776900    299.35847   -1561.6886    481.85977    259.55958   -345.24947    36397.316 
  777000     309.1333   -1599.2136    478.33966      262.249   -595.74034    36397.316 
  777100     302.1491   -1576.3655    474.92202    250.43079   -755.56624    36397.316 
  777200    295.59496   -1548.4908    492.93429     266.9932   -878.76491    36397.316 
  777300    299.11171   -1555.7047    472.43171    255.01136   -588.66344    36397.316 
  777400    292.07276   -1540.6574    508.43273    274.56614   -473.41318    36397.316 
  777500    305.82784   -1511.4846     489.5018    346.35089   -355.10225    36397.316 
  777600    304.36216   -1529.5606    481.24449    313.45979   -703.12195    36397.316 
  777700    295.11941   -1569.3938    478.17097    229.19924   -912.87522    36397.316 
  777800    301.33375   -1526.7197    477.66887    299.17538   -1025.8199    36397.316 
  777900    293.81674   -1532.9559    478.60626      260.244   -411.87386    36397.316 
  778000    307.29143   -1562.2957    495.48441    308.07075   -57.951881    36397.316 
  778100    291.55879   -1565.5649    468.19627     207.1225    257.76896    36397.316 
  778200    304.28168   -1549.4642    500.90075    312.85241     78.44562    36397.316 
  778300    299.19197    -1552.959    494.52359     280.2081    155.68639    36397.316 
  778400    306.20323   -1559.4008    486.08051    296.69294   -316.27038    36397.316 
  778500    310.21119    -1550.601    471.85526     309.1999   -451.41615    36397.316 
  778600    294.17517   -1554.1402    511.02218    273.07933   -101.84061    36397.316 
  778700    291.05482   -1556.2274    507.15026     253.1591   -409.65377    36397.316 
  778800    294.87148   -1546.0918     506.3737    279.59471    394.05063    36397.316 
  778900    294.07877   -1554.2364    499.29312    260.82273    526.83241    36397.316 
  779000    294.97106   -1512.7423    464.89735    271.91337    237.89747    36397.316 
  779100    311.30271   -1542.8857    484.37343    334.31698   -4.2023664    36397.316 
  779200     308.9826   -1527.2946    482.51251    337.66658    315.98922    36397.316 
  779300    303.69079   -1548.3661    481.49115    291.89711    218.02331    36397.316 
  779400    300.05436   -1567.5938    487.12681    262.03503   -440.83698    36397.316 
  779500    302.60355   -1552.4208    472.08041    273.56715    220.36077    36397.316 
  779600    310.93586   -1534.5399    522.09939    378.74749   -139.37813    36397.316 
  779700    308.78405   -1525.5291     487.0384    343.06957   -861.96303    36397.316 
  779800    297.51275   -1505.3504    494.95003    320.72996    -586.1144    36397.316 
  779900    298.46676   -1520.0636    499.58208    314.91719   -631.42612    36397.316 
  780000    298.18354    -1542.718    506.54995    297.96351    106.33294    36397.316 
  780100    306.64555   -1531.4091    481.71538    322.29853    254.95211    36397.316 
  780200    304.84725   -1535.4703    509.81477    338.29078   -2.5415526    36397.316 
  780300    301.40609   -1559.5736    479.24251    268.21883    253.83917    36397.316 
  780400    303.68606   -1571.7941    475.41276    262.36953    511.72309    36397.316 
  780500    301.56854   -1560.2163    492.27686    281.33725   -8.2315604    36397.316 
  780600    302.14338   -1540.7504    480.00681    291.10506    -264.9876    36397.316 
  780700    301.23055   -1540.9295    482.77804    289.61299    244.33085    36397.316 
  780800    299.67805   -1546.6335    509.51937    303.70412    190.10639    36397.316 
  780900    306.96092    -1532.543    469.10484    309.96508   -355.59284    36397.316 
  781000    298.88555   -1558.9699    471.50852    249.81118     196.3671    36397.316 
  781100    304.16372   -1525.0899    508.00367    343.80184   -379.56886    36397.316 
  781200    294.03942   -1562.8869    503.61751    256.32056    317.46277    36397.316 
  781300    298.28672   -1536.4499    492.58729    290.73065     365.9949    36397.316 
  781400    313.91426    -1589.912    492.18924    306.79107    623.07595    36397.316 
  781500    304.49599   -1550.6128    498.23602    309.99793   -163.24434    36397.316 
  781600    301.04399    -1529.656    478.54861    295.82243    410.72818    36397.316 
  781700    303.45854   -1514.5237     513.6811    356.89037    190.01691    36397.316 
  781800    303.38642   -1542.1625    488.17155    303.41936   -234.79922    36397.316 
  781900    294.16539   -1512.4156    490.87719    294.61515   -387.76962    36397.316 
  782000     296.5498    -1479.396    477.88342    325.30931   -210.15425    36397.316 
  782100    299.14374   -1496.9634    493.70004    335.16438   -186.56254    36397.316 
  782200    300.34324    -1526.391    506.15205    323.55547   -375.03186    36397.316 
  782300     293.9115   -1508.0108     495.7447    302.75153   -462.01159    36397.316 
  782400     307.4907   -1506.7643    495.07218    364.08151     -937.498    36397.316 
  782500      296.207   -1482.5845    490.60075    333.30441   -475.67149    36397.316 
  782600    292.93514   -1514.7953    475.45463    271.30854   -514.12866    36397.316 
  782700    300.76209   -1514.6456    489.94682    320.96978   -284.13062    36397.316 
  782800    299.20901    -1522.686    492.70729    308.74102   -259.53498    36397.316 
  782900    292.78785    -1510.816    511.56993    310.74409   -213.87234    36397.316 
  783000    299.92783   -1542.2197    474.95918    274.67539    272.28493    36397.316 
  783100    286.90942   -1549.9698    486.09339    219.81256   -478.83441    36397.316 
  783200    292.76163   -1519.4762     471.3999    261.79654   -311.94336    36397.316 
  783300      299.122   -1536.7318    490.08896    291.68753    168.12562    36397.316 
  783400    310.63412    -1583.671    467.91128    274.07815    317.66682    36397.316 
  783500      296.942   -1557.8399    488.68969    259.42647    609.66826    36397.316 
  783600    302.91454   -1568.3787    489.92655     276.8468    47.608769    36397.316 
  783700    293.41022   -1567.7083    498.62988    243.69641   -334.10567    36397.316 
  783800     291.1521   -1574.0026    463.22896    191.89794   -146.40149    36397.316 
  783900    293.86331   -1546.3419    501.26948    269.72966    125.60518    36397.316 
  784000    296.40952   -1590.9345    482.88551    218.14525    498.98517    36397.316 
  784100    301.46421   -1564.8639    470.80683    254.75284   -147.20206    36397.316 
  784200    286.91815   -1592.3055    470.68826    162.11081   -659.18974    36397.316 
  784300    296.23733   -1609.5713    494.29072    210.14323   -723.12519    36397.316 
  784400    303.12504   -1569.2938    471.04601    257.99303    161.16504    36397.316 
  784500    303.93158   -1603.6625    486.10679    242.29375    106.26794    36397.316 
  784600    300.06478    -1631.205    479.23446    190.57805    474.70491    36397.316 
  784700    299.70235   -1583.3761    489.31637    246.86731     339.2903    36397.316 
  784800    293.23683   -1552.7002    500.32403    259.62281    289.58848    36397.316 
  784900     303.6471   -1531.8367    495.69312    322.43302    51.580308    36397.316 
  785000    306.16259   -1544.8928     463.9563    288.89492   -299.54474    36397.316 
  785100    295.30427   -1501.7381    474.69173     294.2028   -384.39146    36397.316 
  785200    297.68788   -1534.5853    498.68515    296.01371   -98.546234    36397.316 
  785300    294.90966   -1531.7276    482.74236    270.49835   -163.18795    36397.316 
  785400    309.25538   -1537.8159    509.94586    355.79908    722.55824    36397.316 
  785500    296.28467   -1526.8972    458.85032    257.58879    363.54614    36397.316 
  785600    294.22412    -1557.737    500.13892    258.81827    594.10729    36397.316 
  785700    310.75944   -1531.2269    472.14944    331.32111    338.16686    36397.316 
  785800    309.09613   -1536.5721    499.57345    345.95801   -33.458847    36397.316 
  785900    282.29844   -1550.0032    518.11445    231.16975    -30.37927    36397.316 
  786000    299.40847   -1567.3534    475.80412    248.06283    269.99988    36397.316 
  786100    294.88887   -1549.3648    470.91188    240.93762    375.79748    36397.316 
  786200    290.76047    -1523.665    500.53294     277.7873    71.697851    36397.316 
  786300    301.34447   -1546.1738    492.72691    294.82728    777.30099    36397.316 
  786400    299.89076   -1525.9734    480.38174    296.17836    856.17332    36397.316 
  786500    296.97215   -1527.8599    486.09348    286.94512    490.57952    36397.316 
  786600    307.71771   -1583.1103    458.17365    251.85266     14.60199    36397.316 
  786700    307.50976   -1558.4202     459.4737    276.91235    -91.19658    36397.316 
  786800    307.07334   -1558.7585    461.21819    276.36598    53.118032    36397.316 
  786900     292.3619   -1573.0178    469.05352    204.12015    56.232788    36397.316 
  787000    308.13098   -1571.8649    481.54671    288.32011      333.226    36397.316 
  787100    295.04312   -1520.9751    486.31306    285.41865    213.36288    36397.316 
  787200    293.99562   -1535.7278    490.91435     270.5805    394.40205    36397.316 
  787300    294.13664   -1534.9227    429.30476    210.40698    344.79851    36397.316 
  787400    310.58003   -1559.0015     506.6609    337.25533    217.82133    36397.316 
  787500    296.28543   -1528.3623    452.35834    249.63506    58.764946    36397.316 
  787600    302.67039   -1530.8869    488.95237    312.27208   -270.54547    36397.316 
  787700    293.77033   -1516.7992    483.10199    280.68876   -390.69711    36397.316 
  787800    299.96014   -1512.2988    487.79079    317.57243   -221.73074    36397.316 
  787900    300.80684   -1510.3411    492.65369    328.18127    4.6988763    36397.316 
  788000    295.68089   -1529.4412    479.46465    272.95764   -15.185254    36397.316 
  788100    311.13707   -1530.6879    472.47681    333.87714   -178.19489    36397.316 
  788200    300.21079   -1538.3671    478.21179    283.04654   -90.476489    36397.316 
  788300    313.60009   -1534.8559    481.10182    349.35422    594.34285    36397.316 
  788400    301.96983   -1474.7404    495.21534     371.5471     137.9008    36397.316 
  788500    297.18769   -1510.3816    457.12862    276.42296    55.381513    36397.316 
  788600    300.95092   -1505.4601    472.15523    313.20845    254.88431    36397.316 
  788700    298.58505   -1491.1802    462.21608    306.96388   -577.41731    36397.316 
  788800    301.78156   -1480.7711    463.76115    333.21991    229.27116    36397.316 
  788900    301.63919   -1526.4193    475.03867    298.21222   -157.48478    36397.316 
  789000    307.72622   -1527.7277    469.62922    318.72897   -177.26888    36397.316 
  789100    294.80245   -1523.0206    475.26658    271.24995   -57.496813    36397.316 
  789200    302.12918   -1494.8293    474.09078    331.04664    435.78591    36397.316 
  789300    298.71368   -1519.3096    465.18599    282.37993    21.287097    36397.316 
  789400    299.70989   -1500.2699    477.90073     318.5916    182.30017    36397.316 
  789500    302.30513   -1519.0976    471.43685    304.91164    -297.1167    36397.316 
  789600    301.34016   -1526.0821    459.26828    281.44108    -16.38292    36397.316 
  789700    302.53575   -1528.3386     459.6119    284.87749    314.62312    36397.316 
  789800    293.55717   -1521.5731    473.69727     265.5565    39.306543    36397.316 
  789900    305.66035    -1584.096    482.53196    266.02024    252.10639    36397.316 
  790000    294.19078    -1556.803    468.73534    228.19954     903.7699    36397.316 
  790100    304.26571    -1513.098    501.63985    349.88619    662.32642    36397.316 
  790200    296.43924   -1539.4723    482.29902    269.15391    469.51117    36397.316 
  790300    282.05176   -1560.2163    479.20315    180.94169    813.18062    36397.316 
  790400    296.54376   -1527.5203    486.24141    285.51604    744.27487    36397.316 
  790500    282.04284   -1499.6595    459.04116    221.29655    363.50209    36397.316 
  790600    300.22367    -1528.714    473.61399     288.1595      260.062    36397.316 
  790700    293.89526   -1526.4622    478.01179    266.49461    483.20008    36397.316 
  790800    295.66384   -1526.1852    475.05785     271.7306   -123.94118    36397.316 
  790900    297.67488   -1506.3106    487.67952    313.22469    22.140439    36397.316 
  791000    297.29374    -1536.342    476.99401    270.80246    198.62256    36397.316 
  791100     299.5831   -1521.1597    510.51706    329.75086    91.349874    36397.316 
  791200    294.41491   -1515.3623    482.71936      284.627    136.25275    36397.316 
  791300    298.02682   -1490.2058    472.40709    315.63164   -118.06027    36397.316 
  791400    299.99089   -1519.2109    484.78883     307.7959   -270.09258    36397.316 
  791500    304.11048   -1531.7739    478.20142    307.07733   -416.34367    36397.316 
  791600    295.42634   -1503.1948    497.41574    316.01621    39.586957    36397.316 
  791700    297.00287   -1514.2117    471.41982    286.05712    -267.9718    36397.316 
  791800    309.37177   -1528.3789    503.43369    359.24469   -47.245301    36397.316 
  791900    296.81092   -1516.1844    486.78106    298.58682     219.9519    36397.316 
  792000    291.97863   -1570.7261    470.23873    205.88222   -114.81464    36397.316 
  792100    293.60317   -1534.9485    483.36124    262.05089    284.69797    36397.316 
  792200    300.03641    -1528.645    497.09441    310.87113    179.29396    36397.316 
  792300    292.38916   -1540.6054    464.62637    232.22738     304.5318    36397.316 
  792400    308.18405   -1545.9873    481.62994    314.51846    41.212999    36397.316 
  792500    301.22103   -1494.7372    485.38975    338.37442   -319.66716    36397.316 
  792600    295.08835   -1533.4368    476.96198    263.80828   -395.63132    36397.316 
  792700    296.59867   -1486.2927    482.36555    323.11342   -485.95213    36397.316 
  792800    296.92865   -1509.6153    459.44562     278.3473    181.18053    36397.316 
  792900    308.30758   -1548.6145    490.79861    321.61257    256.01554    36397.316 
  793000    305.06424   -1527.9528    505.80675    342.77108   -194.09097    36397.316 
  793100     317.6933   -1517.7372    520.89945    424.58428   -97.779845    36397.316 
  793200    297.21106   -1530.2519    477.11132    276.63993    261.10054    36397.316 
  793300    307.04903   -1537.1517    467.36777    304.01362   -326.68905    36397.316 
  793400    291.63151   -1520.6911    456.06753    240.19294   -46.870628    36397.316 
  793500    296.25672   -1558.1049     468.2565    235.66215    28.543782    36397.316 
  793600    286.34515   -1538.5686    502.51396    245.10966    25.339339    36397.316 
  793700    304.64295   -1527.6735    463.98899    299.34769    81.851181    36397.316 
  793800    305.42082   -1549.1113    468.86447    286.26576    499.63136    36397.316 
  793900    296.69786   -1542.0701    462.16142    247.57568    434.93601    36397.316 
  794000    304.15617   -1532.2872    506.35603    334.92311    1108.6687    36397.316 
  794100    296.22545   -1517.6405    481.69052    289.42072    638.40905    36397.316 
  794200    301.28709   -1538.5057    485.94946    295.46118      1081.17    36397.316 
  794300    296.33911   -1515.9928    480.14861    290.03498    810.70491    36397.316 
  794400    302.78045   -1501.7596    485.99373     338.9332    292.47887    36397.316 
  794500    309.91012   -1522.5562    458.39123     322.4336    427.35681    36397.316 
  794600    312.16977   -1500.5117    498.14007    394.33706    308.19193    36397.316 
  794700    299.82836   -1522.6024    501.78684    320.67529    -92.88744    36397.316 
  794800    304.96723   -1490.5977    463.79884    337.68422    430.24868    36397.316 
  794900    298.60862   -1486.1875    464.57977    314.42573     804.3222    36397.316 
  795000    309.37527   -1507.5036    486.33155    363.03349    470.95747    36397.316 
  795100    302.40139   -1530.5035    499.87832    322.37792    122.79627    36397.316 
  795200    308.02081   -1526.9138    454.01864    305.25027    113.40331    36397.316 
  795300    307.46219   -1538.2495    465.07378    302.47037    189.46812    36397.316 
  795400    296.32983   -1509.6403    474.25052     290.4479   -189.31713    36397.316 
  795500    301.79788   -1502.1394    472.43904    320.60251    278.27977    36397.316 
  795600     305.6358   -1529.0057    479.20554    317.67434     574.4775    36397.316 
  795700    293.80438   -1551.6729    457.44378    220.30926    197.02011    36397.316 
  795800    297.83539   -1536.6833    475.79611     271.6867    612.92053    36397.316 
  795900    300.21151   -1520.0752    479.70544    302.83533    1207.5251    36397.316 
  796000    299.77231   -1537.9329    484.53767    287.84476    905.14411    36397.316 
  796100    297.19799   -1564.9698    475.92379    240.67605    179.85482    36397.316 
  796200    301.43846   -1510.2477    468.07695      306.524    330.05519    36397.316 
  796300    303.75843   -1517.4139    466.59713    308.25792   -135.94778    36397.316 
  796400    296.44351   -1575.5262    478.27045    229.09056    181.07859    36397.316 
  796500    300.67878   -1543.9965    478.47478    279.77404    20.959737    36397.316 
  796600    289.37267   -1571.4334    486.57499    209.85161   -407.80361    36397.316 
  796700    309.94259   -1558.5088    472.34871    300.58374    173.87797    36397.316 
  796800    299.21998   -1558.5312    471.60773    251.84535   -195.94825    36397.316 
  796900    290.33471   -1575.8935     463.0859    186.20682   -247.05299    36397.316 
  797000    307.22814   -1501.2972    482.17587    355.47762   -73.162479    36397.316 
  797100    308.45423   -1527.0267    471.31196    324.36992    142.55479    36397.316 
  797200    297.58652   -1525.7606    482.25492    287.95473    264.63482    36397.316 
  797300    293.97427   -1541.9181    481.78323    255.16362    147.16655    36397.316 
  797400    311.16381   -1570.0185    495.78232    317.97171    148.29853    36397.316 
  797500    293.54713   -1576.3464    460.30238     197.3433    131.35133    36397.316 
  797600    303.64422   -1568.6931    448.14114    238.01178    290.63561    36397.316 
  797700    297.11351   -1525.4667    489.90472    293.78209   -37.247544    36397.316 
  797800    302.56364   -1547.0581    452.15411    258.82501    173.17522    36397.316 
  797900    302.64711   -1539.4015    453.46114    268.16211    322.96442    36397.316 
  798000    296.61777   -1537.4303    486.69725    276.39293    307.36062    36397.316 
  798100    291.23197   -1550.7507    488.82127    241.09947  -0.62580467    36397.316 
  798200    298.16423   -1556.5405    458.81743    236.32207    -13.59939    36397.316 
  798300    306.77549   -1548.8811     462.6574     286.3499    270.23821    36397.316 
  798400    293.65527   -1536.1426    489.47563    267.20422    142.07759    36397.316 
  798500    293.23751   -1518.0793    459.71291    253.63572    503.76834    36397.316 
  798600     302.4393   -1544.2954    491.44953    300.32676   -152.28556    36397.316 
  798700    299.70204    -1583.768    471.86402    229.02167   -448.34884    36397.316 
  798800    294.43695   -1588.5819    448.78426    177.57098    61.243377    36397.316 
  798900    289.68867   -1611.0469    465.08837    150.16537   -11.547889    36397.316 
  799000    307.87177   -1633.6063    460.73853     204.6109    229.09461    36397.316 
  799100    303.95704   -1614.1767    455.56166    201.34825    127.74545    36397.316 
  799200    295.56303   -1584.1902    474.38359    212.60032   -231.12599    36397.316 
  799300     299.3719   -1566.3691    468.02125    241.10065   -284.28826    36397.316 
  799400    295.50225   -1582.6547    473.70198     213.1822   -590.84272    36397.316 
  799500    302.02562    -1562.286    459.42007    248.45588    -105.2215    36397.316 
  799600     303.3949   -1556.6834    475.56821      276.333   -483.20017    36397.316 
  799700    296.98562   -1543.7049    460.10246    245.16945   -270.60281    36397.316 
  799800    288.52861   -1510.3154    472.95703    253.57514   -676.27493    36397.316 
  799900    300.99494   -1503.4185    481.79208    325.08389   -278.91749    36397.316 
  800000    302.22131   -1505.8455    468.41693    314.76873   -296.25035    36397.316 
  800100    305.73327   -1510.6214    455.59432    312.88343   -33.321206    36397.316 
  800200    291.78826   -1501.1997    485.77681     290.0949   -163.33824    36397.316 
  800300    300.13136   -1521.4188    463.53004    284.95775   -118.58145    36397.316 
  800400    293.69037   -1506.6662    474.07925    281.44132   -169.94269    36397.316 
  800500    297.74765   -1585.1375    455.37182     202.4156   -319.36396    36397.316 
  800600     300.3223   -1548.3994    462.70774    258.00911    165.48133    36397.316 
  800700    297.33232   -1578.6994    452.82549    204.44914    257.78808    36397.316 
  800800    297.73711   -1604.5947    461.84433    189.38379   -387.89365    36397.316 
  800900    303.01924   -1612.7105    463.09998    206.15691    124.62752    36397.316 
  801000    299.23165   -1592.4313    469.49237    215.88212    569.97961    36397.316 
  801100    296.08001   -1566.2036    472.82618    231.34251    -330.7835    36397.316 
  801200    305.09958   -1564.0749    464.15964       265.16   -94.506607    36397.316 
  801300     291.1339   -1529.6169    457.92007    230.89332    248.95113    36397.316 
  801400    291.55061    -1599.957    489.81684    194.31434   -23.168444    36397.316 
  801500    294.23543   -1590.3366    467.66762    193.79795   -517.23799    36397.316 
  801600    301.63012   -1585.2913    466.13168     230.3926   -428.91168    36397.316 
  801700    290.54688   -1591.0666    476.44212    185.33912   -490.72097    36397.316 
  801800     294.9136   -1552.4333    456.98391    224.05189   -301.87601    36397.316 
  801900    293.71759   -1485.5725    471.40265    299.98015   -667.01659    36397.316 
  802000    304.71937   -1513.6058    472.35017    322.11847   -68.896444    36397.316 
  802100    287.90903   -1513.7396    479.78778     254.2096   -203.00282    36397.316 
  802200    297.56508   -1519.2547     471.5854    283.69516   -8.7087714    36397.316 
  802300     302.6725   -1546.3462    469.13738    277.00725    48.492758    36397.316 
  802400    294.62188   -1527.3689    491.65558    282.48268   -37.224744    36397.316 
  802500     291.7739   -1522.9304    461.04686    243.56999   -295.50189    36397.316 
  802600    299.12667   -1514.0921    465.19545    289.45466   -183.28364    36397.316 
  802700    299.68862   -1508.8106    484.23036    316.28531    740.65935    36397.316 
  802800    305.19374   -1556.0199    462.19522    271.67191    750.92087    36397.316 
  802900    297.54655   -1583.3926     470.2703    218.15927   -179.06597    36397.316 
  803000    300.12018    -1583.711    469.34676    228.43227   -1.5420614    36397.316 
  803100    304.45894   -1537.6222    472.63159    297.21835   -143.87033    36397.316 
  803200    293.58502   -1512.8007    483.69948    284.45563   -178.22358    36397.316 
  803300    309.35572   -1529.4651    464.62197     319.2749   -48.504559    36397.316 
  803400    305.24643   -1543.9667    492.60939    314.37504     276.5247    36397.316 
  803500    297.95547    -1538.405    481.89459    276.60069    133.12599    36397.316 
  803600    295.51477   -1534.6588    495.38845    282.92067    339.49346    36397.316 
  803700    304.54421   -1580.3787    477.16834    259.38007    300.01053    36397.316 
  803800    298.26707   -1616.4477     451.6741    169.73168    655.52671    36397.316 
  803900    303.15559    -1604.904    472.34367    223.81713    469.71444    36397.316 
  804000    304.12852     -1543.12    449.28015    266.89069    412.33369    36397.316 
  804100    304.84995   -1553.8396    449.80229    259.92106    155.37084    36397.316 
  804200    305.04541   -1571.2327    463.75882    257.35904   -213.64551    36397.316 
  804300    299.35634   -1566.7072    453.57725    226.24895    1062.7747    36397.316 
  804400    305.55344   -1562.2177    468.65605    273.54427    711.77632    36397.316 
  804500    296.04146   -1611.6239    446.79093    159.71456    827.23157    36397.316 
  804600    302.58297   -1553.2246    462.39658    262.98744    1224.5199    36397.316 
  804700    303.53341   -1547.4332    483.28638     293.9211    777.41612    36397.316 
  804800    290.36301   -1514.4177    459.98444    244.70768     393.1039    36397.316 
  804900    304.37107   -1535.6035    454.18091    280.39319    5.9850169    36397.316 
  805000    308.24893   -1544.5485    469.74246    304.36006   -57.849518    36397.316 
  805100    291.48637   -1525.9792    458.90931    237.09725    245.84234    36397.316 
  805200    308.44814   -1542.1858    473.73613    311.60775    56.818706    36397.316 
  805300    308.91922   -1534.7922    484.40708    331.78001   -5.6754644    36397.316 
  805400    289.83826   -1529.1736    472.85187    240.47136    48.601668    36397.316 
  805500    297.20555   -1505.9852    472.22059    295.99122    801.03126    36397.316 
  805600    297.04634   -1569.0557    484.62074    244.60853    158.30679    36397.316 
  805700    293.82039   -1536.5546     469.9342    247.98956    368.46727    36397.316 
  805800      295.621   -1529.9617    495.97868    288.68325     828.0523    36397.316 
  805900    292.06106   -1558.1419    492.78437    241.38086    503.21269    36397.316 
  806000    303.29336   -1537.5243    464.21045    283.68006    578.31943    36397.316 
  806100      294.362   -1543.3323    483.78322    257.48416   -161.69935    36397.316 
  806200    305.09068   -1566.4258    436.73318    235.34287    162.18187    36397.316 
  806300     302.7745   -1591.2464    470.01099      233.437    185.66494    36397.316 
  806400    308.70067    -1555.971    460.60795    285.82423    449.99477    36397.316 
  806500    310.39846   -1566.9273    495.70624    317.56243    491.09742    36397.316 
  806600    311.87941   -1582.2302    473.63196    286.81137    26.942098    36397.316 
  806700    314.04399   -1538.6427    467.93614    334.38773    60.751566    36397.316 
  806800    296.91418    -1531.672    475.25406    272.03424   -331.06305    36397.316 
  806900    300.50898   -1565.4585    481.20531    260.28283    275.84891    36397.316 
  807000    311.34491   -1535.9579    477.21424     334.2744    12.574112    36397.316 
  807100     289.0836   -1490.9032    495.17535    297.68884   -247.67325    36397.316 
  807200    308.41895   -1528.3769    462.05371    313.60356    394.92633    36397.316 
  807300    295.01901   -1543.3229    472.22363    248.87358    289.44102    36397.316 
  807400    299.91577   -1555.8193    463.42304     249.4856    236.08565    36397.316 
  807500    295.55344   -1543.8566    451.21685    229.72424   -190.12176    36397.316 
  807600    303.21504   -1556.5273    461.69233    261.80855    320.59025    36397.316 
  807700    301.29415   -1542.3973    472.12027    277.77198    632.65346    36397.316 
  807800    296.28653   -1559.0975    478.32019    244.86669    575.60579    36397.316 
  807900    302.01177   -1532.0012    478.43456     297.6932    -101.8643    36397.316 
  808000    292.18653   -1522.3874    481.94527    266.85768   -281.76327    36397.316 
  808100    296.74095   -1531.5782    469.82376    265.92267   -32.556153    36397.316 
  808200    296.60999   -1528.7024    451.15944    249.54819    74.106158    36397.316 
  808300    303.13798   -1527.4547    462.80724    291.65127   -109.01586    36397.316 
  808400    292.38555   -1543.8496    486.43778    250.77837     387.1606    36397.316 
  808500    305.50603   -1555.7706    490.59273    301.71591    768.76077    36397.316 
  808600    311.63665   -1534.1899     461.5687     321.7022    199.91593    36397.316 
  808700    304.39548   -1538.1978    463.13999    286.86715    19.387462    36397.316 
  808800    302.92112   -1583.7311    471.22473    242.82202    449.00564    36397.316 
  808900    298.37156   -1608.5211    415.47674    141.92842    263.84327    36397.316 
  809000    299.06369   -1583.5685    470.31659     224.8176   -63.442168    36397.316 
  809100    308.98771   -1543.7939    419.34206    258.01973   -518.28805    36397.316 
  809200    298.96842   -1568.0839    456.71536    226.27469   -500.43751    36397.316 
  809300    298.22196   -1525.7094    480.07737    288.67146   -389.70189    36397.316 
  809400    309.93663   -1557.7635    444.33743    273.29112    -305.8982    36397.316 
  809500    305.32064   -1543.3475    459.75384     282.4707   -769.03428    36397.316 
  809600    289.88539    -1556.884    460.07442     200.1944   -568.31752    36397.316 
  809700     300.2294   -1515.7421    499.99594    327.53899    523.47429    36397.316 
  809800    305.09871   -1578.9262    472.10103    258.24618    181.66277    36397.316 
  809900    296.14499   -1539.0468    465.23055    251.19447    138.30033    36397.316 
  810000    295.48597   -1537.0647     445.1043    230.10172   -242.98445    36397.316 
  810100    291.88755    -1570.113    453.67836    189.52743   -683.08726    36397.316 
  810200     298.2226   -1563.6252    476.95373    247.63487   -258.30048    36397.316 
  810300    290.25227   -1576.5324    435.44635    157.55948    56.889982    36397.316 
  810400    308.06681   -1539.4657    444.39383    283.27937   -93.872013    36397.316 
  810500    300.29882   -1548.2853    445.12789    240.43839   -314.89015    36397.316 
  810600       303.63   -1561.7194     463.6856    260.46634   -744.63123    36397.316 
  810700    292.92369   -1556.2149    477.51337    231.89647   -74.007427    36397.316 
  810800    304.30854   -1600.7954    440.82749    201.56809   -366.38532    36397.316 
  810900     298.8533     -1499.81    459.90083    297.21899    15.422829    36397.316 
  811000    286.52349     -1505.03    475.04329    251.97553    -398.1645    36397.316 
  811100    297.17807   -1512.0853    463.60692     281.1545     278.5293    36397.316 
  811200    312.79345   -1507.3657    482.90868    375.04211    100.80344    36397.316 
  811300    297.79454   -1501.9668    464.15867    294.58301   -315.87032    36397.316 
  811400    302.51475   -1517.0344    454.44615    290.92202   -198.24937    36397.316 
  811500    297.50492   -1504.4439    512.10448    338.75587   -99.205807    36397.316 
  811600    293.34856   -1485.8229    468.69457    295.37062   -47.798177    36397.316 
  811700    306.39293   -1502.6794    471.63519    339.81775   -574.14492    36397.316 
  811800     316.0182   -1480.5704    451.38154     384.7385   -328.54872    36397.316 
  811900    299.47577   -1490.3709    488.27554     337.8179   -549.66574    36397.316 
  812000    298.43966   -1524.3314    482.06318    293.00933   -584.53677    36397.316 
  812100    307.55103   -1543.0167    461.04139    294.06823    378.74958    36397.316 
  812200    299.72172   -1488.1389    451.63114    304.50588    113.16274    36397.316 
  812300    302.32841   -1509.1938    451.94431    295.42707    186.08698    36397.316 
  812400    283.20044   -1504.7588     436.7347     199.0701    224.74951    36397.316 
  812500    302.54354   -1493.3344    484.00344     344.3081   -92.179302    36397.316 
  812600    305.37207   -1511.7509    479.38927    333.93278    8.1960647    36397.316 
  812700    306.62656   -1483.4246    467.49468    355.97736     224.7056    36397.316 
  812800    299.08282   -1476.7396    485.35803    346.77362    266.61193    36397.316 
  812900    301.73749   -1542.2179    451.06317    258.87791    182.21355    36397.316 
  813000    291.87574    -1493.039    476.28214    289.15239     316.8217    36397.316 
  813100    300.05206   -1526.1765    455.39072    271.70592    225.51524    36397.316 
  813200    297.04128   -1540.6323    458.78134    247.16991    356.79532    36397.316 
  813300    300.08215   -1497.1218    492.36426    337.86885    66.218298    36397.316 
  813400    290.99813   -1547.9376    467.52162    221.56667   -418.69936    36397.316 
  813500    297.99885   -1539.3186    459.10141    253.08802    19.188069    36397.316 
  813600    297.19449   -1520.5486    471.28327    280.44105    472.62146    36397.316 
  813700    300.23269   -1532.5816    469.87096    280.58919    8.9293548    36397.316 
  813800    301.48475    -1522.744    473.89227    300.05008    453.60395    36397.316 
  813900    310.78233   -1487.2779    467.85439    371.07758    1013.2207    36397.316 
  814000    285.53993   -1506.9296    463.07764    233.70963    458.44533    36397.316 
  814100    298.76948   -1571.0771    476.91133    242.58737    850.26388    36397.316 
  814200    297.84826   -1547.0841    469.96127     255.5086    714.75059    36397.316 
  814300    303.57612   -1506.4922    459.54009     311.3069    258.26182    36397.316 
  814400    304.69065   -1537.0655    487.71228    313.89245    193.69089    36397.316 
  814500    290.64579   -1518.5956    460.69858     242.5092    74.726646    36397.316 
  814600    302.07408   -1532.1684     488.4429    307.81309   -13.487302    36397.316 
  814700    294.67885   -1513.5813    468.85973    273.72932   -87.734042    36397.316 
  814800    301.53074   -1524.9687    482.15515    306.29404    386.91151    36397.316 
  814900    303.71099   -1516.8345    489.17079    331.19881    59.208259    36397.316 
  815000    296.31252   -1512.6068    489.40862    302.56209     603.0806    36397.316 
  815100    306.94787   -1544.9388    454.21979    282.62586    375.65768    36397.316 
  815200    299.37727   -1517.7676    461.47567    283.18061    425.06735    36397.316 
  815300    291.05421   -1465.3068     460.0554    296.98215   -10.442707    36397.316 
  815400    292.45571   -1462.3383    470.01313    316.17893   -178.53056    36397.316 
  815500    298.92586   -1470.2135     467.1492    334.38857 -0.085607294    36397.316 
  815600     298.0223   -1529.8952    467.88643    271.40138    167.39451    36397.316 
  815700    288.43287   -1517.6461    464.49125    237.35031    463.92805    36397.316 
  815800    306.48868   -1514.4741     453.6562    310.47251   -475.27122    36397.316 
  815900    300.29974   -1504.5702    469.94246    308.97217   -754.06516    36397.316 
  816000    298.96224   -1501.6047      452.389    288.39991   -212.18198    36397.316 
  816100    306.93362   -1514.5808    461.84721    320.54756   -209.48873    36397.316 
  816200    294.58542   -1477.3534    449.09334    289.77284    -730.4342    36397.316 
  816300    299.87113   -1522.2823    465.11347    284.51337   -496.75703    36397.316 
  816400    301.27016    -1529.752    472.17152    290.36124    -890.2069    36397.316 
  816500    300.33516   -1481.0775    454.49442    317.17526   -215.23084    36397.316 
  816600    307.56474   -1498.4932      489.572    367.18367    225.25536    36397.316 
  816700    298.97952   -1519.3845     474.5775     292.8859    37.365699    36397.316 
  816800     305.0095    -1501.911    450.13203    312.89324    493.41601    36397.316 
  816900    291.60029   -1488.9393    480.00122    295.73877    884.60764    36397.316 
  817000    299.51502   -1530.2654    473.89963    283.72312    622.97546    36397.316 
  817100    296.97416   -1549.2571    469.21281    248.67626    329.60581    36397.316 
  817200    305.06976    -1578.866    485.81834    271.89423    445.60365    36397.316 
  817300    298.72935   -1541.3634    467.00524    262.21544   -227.13646    36397.316 
  817400    296.66785   -1532.9422    471.67851    266.08635    -452.2077    36397.316 
  817500    293.83626    -1523.344    475.94469    267.28169   -567.37734    36397.316 
  817600    305.28957   -1516.2426    452.80647     302.4892   -545.40345    36397.316 
  817700    292.61341   -1524.9426     460.8211    245.08818    368.16569    36397.316 
  817800    297.80074   -1548.3243    443.39852    227.49304   -139.56081    36397.316 
  817900    302.91212   -1584.2596    426.59508    197.62365   -110.65669    36397.316 
  818000    318.06165   -1537.9671    447.03002    332.13302    549.81621    36397.316 
  818100    299.49971   -1569.5452    455.48318    225.95838    48.121757    36397.316 
  818200    289.55874   -1535.7369    444.58366    204.38928    731.69677    36397.316 
  818300    306.71313    -1552.364    448.18278     268.1134    884.23131    36397.316 
  818400    302.34992   -1552.7508    450.87523    250.89724    129.75771    36397.316 
  818500    299.91549    -1562.449    469.31435    248.74599    30.651738    36397.316 
  818600    298.51821   -1574.8994    452.74227    213.47182     299.1042    36397.316 
  818700    297.88109   -1574.5355    443.74075    201.98363    -514.0377    36397.316 
  818800    303.62133   -1557.0966    426.98237     228.3471   -542.95177    36397.316 
  818900    300.06726    -1557.388    473.89528      259.067   -1239.3312    36397.316 
  819000    311.66088   -1495.4462    456.34246    355.32804   -614.44606    36397.316 
  819100    286.62621   -1496.5072      456.265    242.17963   -1104.7496    36397.316 
  819200    296.30978   -1497.2333    454.77249    283.28717   -100.05238    36397.316 
  819300    295.17175   -1538.4377    450.22615    232.44471   -37.490413    36397.316 
  819400    290.13152   -1580.2837    456.50132    174.32283    131.37334    36397.316 
  819500    297.04483   -1498.6948    473.14505      303.487    333.73174    36397.316 
  819600    300.46011   -1534.2444    449.09549    259.16849    473.39688    36397.316 
  819700    294.60399   -1530.4784    456.68705    244.32462    245.33014    36397.316 
  819800    302.23951   -1525.1333    479.27255    306.41805    105.42537    36397.316 
  819900    302.26537   -1545.7241    434.29198    240.96235    725.98146    36397.316 
  820000    300.14165   -1546.7321    455.78473    251.94515    256.91257    36397.316 
  820100    306.65456   -1512.3843    458.33097    317.97924   -8.5769923    36397.316 
  820200    308.08796   -1501.3248    462.92315    340.04427    296.72438    36397.316 
  820300    306.33593   -1529.3064     457.5759    298.87642   -83.165659    36397.316 
  820400    299.48515   -1459.2217    470.80381    351.53734   -313.74926    36397.316 
  820500     307.2975   -1448.8164    444.65725     370.7501   -233.94828    36397.316 
  820600    310.68728   -1496.8245    460.13343    353.38467   -614.94845    36397.316 
  820700    310.25978   -1494.8498    467.70453    361.01772   -668.42466    36397.316 
  820800    291.76006   -1521.9482    455.29046    238.73389   -263.70474    36397.316 
  820900    307.42549   -1499.5574    458.73766    334.66211   -247.64758    36397.316 
  821000    294.68805   -1515.9747    472.96136    275.47874    119.55383    36397.316 
  821100     306.6012   -1526.8525    437.94609    282.88744    -86.82976    36397.316 
  821200    295.93037   -1514.1794    444.61063    254.48172   -129.14232    36397.316 
  821300    298.16704   -1530.0879    457.11727    261.08707    27.316914    36397.316 
  821400     300.7027   -1555.1961    408.44131    198.64798   -545.99289    36397.316 
  821500    294.44126   -1538.3022    485.13355    264.21925    72.447726    36397.316 
  821600    296.32947   -1536.1346     452.9476    242.64913    81.107846    36397.316 
  821700    297.41745   -1500.6156    455.78864    285.87702    299.61073    36397.316 
  821800    289.16867   -1494.5192    460.60406    259.88214   -352.30952    36397.316 
  821900    306.56432   -1499.7625    461.24822    333.11452   -563.63393    36397.316 
  822000    302.39966   -1460.1936    451.24105    344.04273    250.71673    36397.316 
  822100    289.70578   -1496.2194    447.59846    247.57949   -136.41551    36397.316 
  822200    301.28154   -1482.4459    466.03012    331.57681   -29.662394    36397.316 
  822300    300.45988   -1530.2975    474.16294    288.18182   -98.610432    36397.316 
  822400    298.09564    -1523.117    418.42849     229.0498    114.41054    36397.316 
  822500    301.62773   -1498.5568    464.71271    315.69744   -45.133269    36397.316 
  822600    291.77086    -1500.783    453.98918    258.64615    274.63524    36397.316 
  822700     308.0754   -1559.2558    472.99633    292.13026   -263.54111    36397.316 
  822800    307.38182   -1518.9762    472.37916    328.68941   -98.308033    36397.316 
  822900    303.51547   -1518.8445    428.67741    267.82063    300.40676    36397.316 
  823000    313.88229   -1500.7702      466.467    370.06769    15.743024    36397.316 
  823100    302.14702   -1483.7098    472.42552    340.58072   -94.865605    36397.316 
  823200    292.56064   -1503.9925    476.36264    281.34371   -136.72853    36397.316 
  823300    294.81595   -1488.9147    472.15792    302.30749    -116.5888    36397.316 
  823400    300.19527   -1527.9705    448.85387    264.01581     12.29606    36397.316 
  823500    306.08845   -1488.0331    463.30414    344.77075    417.19041    36397.316 
  823600    302.53167   -1490.2452    460.13241    323.47315    451.59818    36397.316 
  823700    296.89991   -1560.4521    475.22019     243.1565    -608.3641    36397.316 
  823800    303.08485   -1510.1829    457.56473    303.44281   -398.40945    36397.316 
  823900    288.59091   -1522.9123    474.56806    242.86802    -915.5166    36397.316 
  824000    296.04845   -1545.6355    489.48662    268.42984   -76.539036    36397.316 
  824100    301.91699   -1520.9674    463.34079    293.20915    -125.8879    36397.316 
  824200    289.38254   -1502.5657    481.78527    273.97377    303.93977    36397.316 
  824300    306.62205   -1499.2631    474.57125    347.19533    483.22064    36397.316 
  824400    304.73723   -1530.9756    462.44063    294.91911    65.258489    36397.316 
  824500    313.45432   -1496.7157    478.17963    383.91995    502.62656    36397.316 
  824600    297.66545    -1507.008    486.21587    311.02136   -416.72114    36397.316 
  824700    304.88592   -1504.2735    457.81675    317.66255   -159.49657    36397.316 
  824800    299.41175   -1522.0981    486.87346    304.40219    106.01058    36397.316 
  824900    306.37221   -1578.5072    466.65922    258.92132    178.15088    36397.316 
  825000    308.07223   -1549.1237     473.1319    302.38369    17.535802    36397.316 
  825100    295.57214   -1513.9155    486.03584    294.56804    846.91412    36397.316 
  825200    306.22764    -1523.444    464.51298    311.19141    654.13234    36397.316 
  825300    308.49829   -1491.9743    477.69018    365.99766    677.84479    36397.316 
  825400    295.91923   -1532.9567    471.00703    262.05092    704.26888    36397.316 
  825500     299.2347   -1529.3743    460.70385    270.16417    505.58408    36397.316 
  825600    302.73486   -1496.7976     465.4499    323.14736    209.81782    36397.316 
  825700    296.93742   -1546.9381    499.11146    280.72961    -72.55768    36397.316 
  825800    296.81094   -1501.7712    457.04422    283.26335    16.051119    36397.316 
  825900    293.59639   -1503.3203    487.80412    298.09162   -227.22801    36397.316 
  826000    294.67451   -1538.0079    459.56922    239.99278   -325.00236    36397.316 
  826100    304.73294   -1577.6443    467.26146    253.05205     91.11956    36397.316 
  826200    294.79574   -1508.2345    481.05985    291.79925    60.568677    36397.316 
  826300    304.55307   -1503.8708    492.34209    351.10143     139.7859    36397.316 
  826400    290.77582   -1540.9339    496.01888    256.07301    132.89545    36397.316 
  826500    294.42407   -1514.0408    471.96408    275.23427   -37.374134    36397.316 
  826600    294.33181   -1489.8402    468.24866    295.30663    419.12769    36397.316 
  826700    308.29442   -1512.6244    478.86458    345.60983    136.17519    36397.316 
  826800    292.10117   -1497.3309    469.69482    279.28175   -515.50134    36397.316 
  826900    304.96942   -1486.4282    468.27638    346.34114   -92.758653    36397.316 
  827000    297.59707   -1486.2763    478.08079    323.31203   -300.68866    36397.316 
  827100    286.79327   -1534.6033    454.40165    202.96767     30.16599    36397.316 
  827200    298.68172   -1547.4292    476.07153     265.0028    157.77097    36397.316 
  827300    298.84704   -1518.2573    480.31934    299.16225    563.83585    36397.316 
  827400    305.27884   -1480.1425    457.27366    343.00849    650.58889    36397.316 
  827500    306.87958   -1477.0021    503.68008    399.71734    153.77863    36397.316 
  827600    303.05115   -1454.4444    486.12692    387.59271   -617.37456    36397.316 
  827700    301.75725   -1522.5508     449.4904    277.06068   -394.22329    36397.316 
  827800    296.76898   -1543.4919    469.47641    253.78709   -702.33411    36397.316 
  827900    292.34131   -1536.1301    477.54658    249.40877   -589.17355    36397.316 
  828000    289.82186   -1495.2612    480.80392    282.26245   -533.10756    36397.316 
  828100    292.96678   -1530.3382    483.44986    263.90238   -599.04306    36397.316 
  828200     294.7804   -1507.9197    447.75069    258.73622   -328.94666    36397.316 
  828300     294.2699      -1513.3    460.41388    263.73504   -668.78355    36397.316 
  828400    298.67673   -1463.5646    482.55068    355.32428   -280.32128    36397.316 
  828500    288.71168   -1483.2282    469.84882    278.37327   -651.15154    36397.316 
  828600    300.93782   -1524.6062    468.71342    290.56195   -165.32651    36397.316 
  828700    309.72017   -1501.3575     452.1067    336.49794   -804.30761    36397.316 
  828800    303.88859   -1534.7107    448.25006    273.19641   -149.14233    36397.316 
  828900    292.29179   -1571.0199    462.96715    199.71791    16.225102    36397.316 
  829000    302.21184   -1554.7166    463.84654    261.28489    774.17188    36397.316 
  829100    307.15297   -1575.0251    471.36868    270.60618    531.57978    36397.316 
  829200    303.09124   -1548.2011    466.70836     274.5968    470.16886    36397.316 
  829300    309.81134   -1576.1517    452.11598    262.12091    750.29121    36397.316 
  829400    296.09448   -1546.1524    460.47217    239.10441   -805.37818    36397.316 
  829500     300.6637   -1564.3741    452.79058    233.64483   -728.69944    36397.316 
  829600    295.05206   -1552.9776    467.52245    234.66558    9.0123997    36397.316 
  829700    301.52861   -1539.8011    449.52176    258.81876     629.8408    36397.316 
  829800    295.07198   -1557.3104     484.8574     247.7568     114.2364    36397.316 
  829900    298.65396   -1551.3075    467.27597    252.20482    390.77406    36397.316 
  830000    294.52047   -1544.6863      484.206      257.262   -302.31613    36397.316 
  830100    302.83578   -1506.5508    467.15307    315.54891    399.26907    36397.316 
  830200    297.55275   -1505.1319    486.47464    312.65199     510.1244    36397.316 
  830300    297.23953   -1500.0405    457.62893    287.49633    397.08767    36397.316 
  830400    303.22599   -1522.0613     485.3417    319.97285    4.7223074    36397.316 
  830500     310.0134   -1522.1732    462.09617    326.98363   -76.077637    36397.316 
  830600    307.78807   -1506.0001    465.45876    336.56277    60.361741    36397.316 
  830700    303.53224   -1524.6998    473.16749    306.53037    344.04513    36397.316 
  830800     294.6429   -1505.4621    478.53689    291.36484    711.23088    36397.316 
  830900    310.42454   -1523.4394    466.82537    332.28622    475.46317    36397.316 
  831000    295.83851   -1475.8491    479.25276    327.04314    113.98773    36397.316 
  831100    300.58118   -1499.7259    494.10356    339.23672    222.91172    36397.316 
  831200    299.88724   -1516.1492    473.08353    298.68855   -74.424956    36397.316 
  831300    308.45056   -1530.8824    490.46728     339.6531   -381.43265    36397.316 
  831400    303.75183   -1565.1052    457.75362    251.69357   -5.5358777    36397.316 
  831500     304.9167   -1535.2563    468.00665    297.00735   -922.82999    36397.316 
  831600    296.67599   -1519.8251     476.0409    283.60231    216.86745    36397.316 
  831700    286.41698   -1531.6322    467.90189    217.75532   -104.68204    36397.316 
  831800     310.8057   -1544.2285    472.06163     318.4387   -168.21872    36397.316 
  831900    295.54263   -1527.6462    470.75173    265.42119   -185.75783    36397.316 
  832000    293.37147   -1522.6019    464.52158    254.52105   -567.51835    36397.316 
  832100    299.25563   -1513.2693    472.53446    298.19344   -817.89087    36397.316 
  832200    297.11715   -1501.1766    467.48355    295.66727   -503.53882    36397.316 
  832300    303.67882   -1474.8723    490.66146    374.50769    175.88765    36397.316 
  832400    302.00559   -1474.2678     475.4357    352.40005   -382.90772    36397.316 
  832500    290.36669   -1484.5248    466.23995    280.87263    245.46638    36397.316 
  832600    297.39683    -1492.194    473.68361    312.10129    411.39867    36397.316 
  832700    295.86271   -1525.3823     482.5171    280.88249    229.67639    36397.316 
  832800    292.34052    -1510.442    487.63389    285.18062   -139.34039    36397.316 
  832900    300.80552   -1525.0766     482.3514    303.13763     482.5852    36397.316 
  833000    299.50154   -1531.8561     488.3362    296.50865    151.35589    36397.316 
  833100    311.73017    -1512.608    477.00419    359.13802   -89.269584    36397.316 
  833200    314.11064   -1542.1412    472.85594    336.10728    44.009096    36397.316 
  833300     295.0818   -1519.0528    483.01736    284.21837   -17.967532    36397.316 
  833400    299.08644   -1488.2276    476.88094    326.82469    20.834693    36397.316 
  833500    295.89923   -1538.4221    462.13022    247.61918   -219.28876    36397.316 
  833600    297.67776     -1545.48     473.0687    259.45729   -325.22718    36397.316 
  833700    298.87954   -1530.3625    483.92612    290.80917    49.683403    36397.316 
  833800    296.21682    -1558.935    480.12501    246.52208    23.786149    36397.316 
  833900    295.11536   -1575.1898    483.08934    228.30348    223.00771    36397.316 
  834000    291.55663   -1550.8081    475.88707    229.56042    250.76377    36397.316 
  834100    299.25809   -1550.0597    466.22261     255.1022   -380.41279    36397.316 
  834200    295.13346   -1566.7483    473.77295    227.50952   -323.81005    36397.316 
  834300    292.52824   -1529.5366    469.83924    249.13135   -410.29238    36397.316 
  834400    303.53768   -1537.8992    463.14379    283.33169   -257.26864    36397.316 
  834500    291.93372   -1512.4998    488.91373    282.58259   -383.31831    36397.316 
  834600    301.37745   -1535.0403    471.49461    284.87602   -601.61525    36397.316 
  834700    297.41293   -1528.3534    447.59114    249.92144   -275.93532    36397.316 
  834800    307.85347   -1526.2266    460.02078    311.19085   -308.63115    36397.316 
  834900    294.47347   -1515.7643    473.62432    275.39204   -615.98575    36397.316 
  835000    302.03567   -1511.9584     467.4545    306.86285   -237.53331    36397.316 
  835100    300.23716   -1541.9973    477.85808    279.18065    479.28812    36397.316 
  835200    296.49729   -1514.4982      497.418    309.50674      173.861    36397.316 
  835300     305.6978   -1530.5734    490.29162    327.47006     489.5609    36397.316 
  835400    306.68313   -1553.4681    464.84256    283.53486    277.45192    36397.316 
  835500    295.84126   -1565.6844    460.29201     218.2593    292.72938    36397.316 
  835600    299.61059   -1582.5839    466.05344    223.98601     69.41021    36397.316 
  835700    304.14097   -1564.7349    473.02367    269.07503    71.810003    36397.316 
  835800    293.40298   -1539.9609    485.39232    258.17381    607.75196    36397.316 
  835900    309.46394   -1570.4408    461.98487    276.14633    704.18126    36397.316 
  836000     301.6642   -1531.8432    486.89065    304.75218    713.28695    36397.316 
  836100    290.85672   -1516.0654     471.4257    256.71026    673.34076    36397.316 
  836200    307.55209   -1505.3012    466.09493    336.84209    -126.1662    36397.316 
  836300    307.96871   -1510.8622    466.55249    333.60261   -183.64328    36397.316 
  836400    303.57854   -1508.5278    477.86991    327.61192    -674.8128    36397.316 
  836500     294.0602   -1490.3976    486.81611    312.10143   -772.48308    36397.316 
  836600    289.48465   -1500.1939    460.11441    255.13154   -985.92262    36397.316 
  836700    308.20133   -1508.9158    492.55804    362.59534   -341.33106    36397.316 
  836800    302.40994   -1536.5876    458.71862     275.1723   -368.60002    36397.316 
  836900    304.82606   -1484.2373    468.18252    347.79667    1026.5235    36397.316 
  837000    297.29424   -1498.0534    457.55724    289.65646    413.26464    36397.316 
  837100    295.82772   -1478.0003    501.20245    346.79336    195.36998    36397.316 
  837200    303.01723   -1517.1201    454.54236    293.18064   -19.371268    36397.316 
  837300     297.9248   -1535.5501    482.10676    279.53059    25.379873    36397.316 
  837400    301.06343   -1502.6909    495.45051    339.77632    483.09007    36397.316 
  837500    304.80241   -1521.7174    463.69797    305.72625     560.2766    36397.316 
  837600    304.71608   -1547.8767    479.45849    294.94119    380.35653    36397.316 
  837700    299.31028   -1520.5378     484.3875    303.02254   -134.49614    36397.316 
  837800    299.93642   -1518.0266    463.79009     287.7378   -259.22426    36397.316 
  837900    303.38321   -1488.8382    494.29433    362.85205     478.2057    36397.316 
  838000    302.45652   -1504.1107     498.3036    347.44259    879.44075    36397.316 
  838100    297.25982   -1521.9554    482.88509    290.92839    1284.4167    36397.316 
  838200    305.56801   -1513.1134    476.08203    330.13975     349.5732    36397.316 
  838300    303.00122   -1564.3964    457.64806    248.93845    83.871249    36397.316 
  838400    296.50863   -1551.0162    437.40939    213.03094    288.37843    36397.316 
  838500     307.6497   -1553.3293     466.7798    289.93548    326.20745    36397.316 
  838600    308.34463   -1549.2451     427.4277    257.77689    517.31462    36397.316 
  838700    308.39963   -1489.1833    493.91968    384.57671    191.73022    36397.316 
  838800    297.67253   -1493.6702    442.96277    281.13775    12.450143    36397.316 
  838900    302.21121   -1497.3852    472.22621    326.99315   -121.77537    36397.316 
  839000    291.91939   -1511.0716    480.39959    275.43252     521.5555    36397.316 
  839100     301.1236   -1558.4948    458.31396    247.10517   -45.759018    36397.316 
  839200    297.78344   -1559.8903    485.18842    257.63954    112.98428    36397.316 
  839300    289.89375   -1511.2844    484.58616    270.34318    221.42189    36397.316 
  839400    307.72431   -1536.1516    475.98108    316.64828    396.75051    36397.316 
  839500    309.14958   -1553.4094    476.48027    306.26666   -55.571022    36397.316 
  839600    296.19072   -1543.1894    485.05777    267.08365    286.41644    36397.316 
  839700     307.7204   -1550.5029    464.33439    290.63286    131.38299    36397.316 
  839800     297.4768    -1543.367    459.20714    246.80967    264.70256    36397.316 
  839900        307.9   -1545.9796    441.83102    273.45638    381.84197    36397.316 
  840000    308.12386   -1549.8884    465.81266    294.53074    885.41804    36397.316 
  840100    292.69201   -1530.5521    477.75045    256.75973    46.863363    36397.316 
  840200     310.4757   -1548.0579     467.6635    308.73474    617.20214    36397.316 
  840300    309.96223     -1559.78    441.24906    268.30079    231.77427    36397.316 
  840400    300.21752   -1592.8106    462.02189    212.44322   -75.982267    36397.316 
  840500     305.6891   -1561.2541    463.17615    269.63499   -467.31003    36397.316 
  840600    290.98821   -1551.8012    498.17269    248.30973    23.307055    36397.316 
  840700    301.41175   -1554.3194    468.49659    262.75244    121.53362    36397.316 
  840800    298.26862   -1575.1044    471.43431    230.84213    -310.5624    36397.316 
  840900    299.34047   -1547.1217    471.08735    263.27357     15.90669    36397.316 
  841000    294.87681   -1534.1307    479.39957    264.60547   -485.36694    36397.316 
  841100    291.94921   -1546.6392    471.64777    231.24654   -278.51496    36397.316 
  841200    308.23684   -1535.1171    463.78095    307.77582   -392.59149    36397.316 
  841300    293.67428   -1507.6166    489.68122    296.02091   -407.75819    36397.316 
  841400    299.04008   -1547.0545    481.92785    272.83721   -785.99994    36397.316 
  841500    301.71326   -1530.4489     478.3728    297.84818    -143.7035    36397.316 
  841600    308.15779   -1515.4956    476.07453    339.33727   -384.25728    36397.316 
  841700    301.61308    -1518.525    480.11303    311.06398    89.499453    36397.316 
  841800    305.64292   -1549.6925     450.3306    268.14444    242.88343    36397.316 
  841900    304.06928   -1540.4405    451.54677    271.57181    290.14139    36397.316 
  842000    293.45078    -1550.793    471.44519    233.60846    250.18939    36397.316 
  842100    299.96874   -1548.1989    461.40672    255.32668    160.79309    36397.316 
  842200    297.90489    -1544.662    455.50303    243.72592   -131.42487    36397.316 
  842300    302.28299    -1524.802    449.32512    276.99643   -368.72105    36397.316 
  842400    283.83035   -1522.9828    462.41611    209.34584     -272.344    36397.316 
  842500    304.13573   -1489.0175      475.033     346.7783    140.50748    36397.316 
  842600    297.84993    -1512.018    451.92505    272.54596   -119.49396    36397.316 
  842700    314.23658   -1493.0703    480.40028    393.28599    185.32781    36397.316 
  842800    299.49579   -1526.8367    436.21995    249.38602    117.79975    36397.316 
  842900    296.65127   -1538.0864    475.32687    264.51641    338.33297    36397.316 
  843000    307.67427    -1557.913    473.92429    292.60624   -127.40875    36397.316 
  843100     292.1907   -1541.2036    427.35913    193.47397   -387.50025    36397.316 
  843200    300.61533   -1517.5264    475.31951    302.80493     132.4222    36397.316 
  843300    301.18494   -1544.5433    448.57173    251.58879   -80.491133    36397.316 
  843400    291.12467   -1562.8964    467.61025    207.26262    856.63435    36397.316 
  843500    309.87092   -1559.3605    444.23801    271.30071    732.70875    36397.316 
  843600    290.90073   -1548.8353    466.77639    219.48799     214.9428    36397.316 
  843700    295.83181   -1576.0342    460.74752    208.32274    201.48638    36397.316 
  843800    296.24262   -1556.4478    468.83046    237.83018   -163.63186    36397.316 
  843900    305.68142   -1551.9827    470.77409    286.46997   -352.07963    36397.316 
  844000    295.21068   -1515.0951    464.77318    270.50854   -251.05072    36397.316 
  844100    304.39689   -1528.5854     455.2088    288.55468   -148.69099    36397.316 
  844200    299.53803   -1544.1327    475.89303     271.9521   -426.48091    36397.316 
  844300    298.62384   -1524.1085    473.76931    285.76236    12.729933    36397.316 
  844400     303.1546   -1557.3315    454.38468    253.42622    103.62624    36397.316 
  844500    292.85098   -1522.2663     473.1885    261.19486   -219.36346    36397.316 
  844600    290.58578   -1499.2705    474.98815    275.85535   -355.53924    36397.316 
  844700    294.26222   -1504.5664    448.63998    260.66034     108.7477    36397.316 
  844800    318.16547   -1527.3167      480.825    377.04299    192.34573    36397.316 
  844900    298.01965   -1529.8385     458.6002    262.15999   -163.41499    36397.316 
  845000    302.79903   -1539.5956     469.8665    285.05306     336.6281    36397.316 
  845100    291.58539   -1523.3089    480.04078    261.34204    320.91069    36397.316 
  845200     300.8451   -1543.6195    452.46282     254.8832   -87.532294    36397.316 
  845300    300.85547   -1512.8588    458.33678    291.56428   -336.91429    36397.316 
  845400    304.06359   -1535.2872    442.86558    268.01848   -666.21572    36397.316 
  845500    299.19022   -1539.5303    484.32268    283.42799   -115.32623    36397.316 
  845600    306.10706   -1448.3473    470.53475    391.77044    443.38851    36397.316 
  845700     303.0437   -1506.5675    478.25199    327.56134     356.2521    36397.316 
  845800    302.82786   -1495.5013    464.28696    323.69687    245.16753    36397.316 
  845900    313.25619   -1487.4903    477.44874    391.52799   -53.147434    36397.316 
  846000    296.78932   -1489.0873    472.25381    311.06003    718.06904    36397.316 
  846100    291.09559     -1506.62    458.64903    254.44769    810.82871    36397.316 
  846200    301.58704   -1528.3235    476.41869     297.4547    67.006968    36397.316 
  846300    303.68326   -1525.8284    436.44761    269.35759     506.1994    36397.316 
  846400    298.03234   -1508.7958    467.86839    292.52767   -303.43398    36397.316 
  846500    301.74914   -1519.0389    452.19978    283.24558   -65.266391    36397.316 
  846600    294.67191   -1497.0054    464.24256    285.65696    265.95926    36397.316 
  846700     301.7714   -1515.2681    463.98281    298.89903    238.92166    36397.316 
  846800    297.94545   -1472.6076    465.73203    326.19075    144.37797    36397.316 
  846900    291.29509    -1537.908    471.26452    236.66784   -182.74267    36397.316 
  847000    305.47831   -1517.5594      436.555    285.76542   -11.881115    36397.316 
  847100    316.88387   -1506.0173      449.901    361.68418    364.04857    36397.316 
  847200    296.83203   -1517.6226     458.4636    268.92563    49.709397    36397.316 
  847300     289.6204   -1501.4033     461.8339    256.24897    449.83454    36397.316 
  847400    307.02787   -1526.7393    476.96661     323.9301    960.83394    36397.316 
  847500    298.78187   -1560.4439    456.38184    232.74653    331.94267    36397.316 
  847600    290.30975   -1561.5662    471.75336    209.08984    697.22298    36397.316 
  847700    304.73804   -1517.1381     435.4362    281.75585    1291.3324    36397.316 
  847800    296.28029   -1579.8765    469.65784    215.39739   -158.09517    36397.316 
  847900    307.51814   -1524.4183    454.90128    306.37938    352.92825    36397.316 
  848000     310.3501   -1541.3041    437.69728    284.96031    419.04991    36397.316 
  848100    308.28468   -1573.5224    453.13069     258.9343    228.01821    36397.316 
  848200    298.73722   -1566.8099    466.10645    235.90536    81.093307    36397.316 
  848300    298.84194   -1567.2237    437.44744    207.30113   -7.5076483    36397.316 
  848400      303.886   -1513.0543    497.36955    343.96075     664.0445    36397.316 
  848500    292.99036    -1584.923    443.58224    169.55549    630.88265    36397.316 
  848600    289.79212   -1547.6595    467.29015    216.21735    111.66427    36397.316 
  848700    297.74598   -1556.6565    437.90191    213.41923   -73.208219    36397.316 
  848800    291.99416   -1581.2947    452.65799    177.80237    141.12447    36397.316 
  848900    296.18381   -1544.6748     461.6063    242.11588    110.33777    36397.316 
  849000    311.35954   -1523.8022    450.33247    319.61387    32.300274    36397.316 
  849100    326.44237   -1550.4529     465.5514    375.66564     139.9206    36397.316 
  849200    298.19437   -1554.7577     457.9854    237.40776   -27.982251    36397.316 
  849300    296.43141   -1526.3024     459.2624    259.25222   -293.62161    36397.316 
  849400    304.67562   -1538.1987    470.54686    295.52655    -571.0436    36397.316 
  849500    298.27035   -1547.9826    457.57748    244.11479   -130.91937    36397.316 
  849600    295.14834   -1520.3671    465.13553    265.31996    176.85453    36397.316 
  849700    298.48473   -1541.2608    467.92736    262.14573   -911.89546    36397.316 
  849800    302.90332   -1473.6054    445.40036    327.04378   -1040.5478    36397.316 
  849900    309.50872   -1537.3261    477.68835    325.16489    -661.3199    36397.316 
  850000    291.05182    -1523.601    461.66076     240.2826   -1219.2525    36397.316 
  850100    309.22279   -1561.0413    478.67661    301.15863   -178.91016    36397.316 
  850200    301.99841   -1546.9171     473.0744    277.35735   -324.60806    36397.316 
  850300    290.74514   -1518.6617     477.5143    259.70331   -147.80835    36397.316 
  850400    301.89361   -1567.1126    445.80039    229.41898   -521.06023    36397.316 
  850500    307.46175   -1529.2614    449.09076    295.47351    58.335057    36397.316 
  850600    297.86432   -1521.4531    456.87669     268.1269   -466.80465    36397.316 
  850700    299.57706   -1541.8759    466.37597    264.86653   -390.64366    36397.316 
  850800    307.78695   -1551.5408    451.53588     277.0942   -774.65711    36397.316 
  850900    299.20818   -1556.0733    454.16182    236.80454   -435.64732    36397.316 
  851000     301.3803   -1535.7149    475.58361    288.30324   -352.36276    36397.316 
  851100    301.00148   -1545.1761    433.63337    235.19684   -339.10838    36397.316 
  851200    297.24871   -1569.7726    451.39798    211.57435   -282.67031    36397.316 
  851300    304.51667   -1569.7523    470.63949    263.35441   -37.779881    36397.316 
  851400     299.7966   -1560.4789    487.10378    267.97363    99.448796    36397.316 
  851500    293.52165   -1533.6365    492.57426    272.21115    351.83968    36397.316 
  851600    288.69316   -1571.1001    460.46039    181.03004    263.57667    36397.316 
  851700    303.05439    -1538.496    472.00189    289.43056    335.50673    36397.316 
  851800    293.60249    -1526.792    475.04051    261.88357    295.33532    36397.316 
  851900    310.61775   -1532.3758      467.655    325.04384    165.64838    36397.316 
  852000    306.01923   -1535.3909    482.35898    316.15804    813.86313    36397.316 
  852100    310.91858   -1541.9431    491.18421    340.35173    873.68777    36397.316 
  852200    303.65861   -1549.6091    471.13168    280.15073    663.93475    36397.316 
  852300    293.71836   -1531.3685    468.89322     251.6782     441.4454    36397.316 
  852400    305.92459   -1549.0969     475.5232    295.19279    194.36625    36397.316 
  852500    291.41927   -1531.5861     468.1925    240.47325   -40.935992    36397.316 
  852600    299.33696    -1511.647    467.66219    295.30733   -319.85348    36397.316 
  852700    304.07138   -1554.7268    458.98281    264.73094    208.16416    36397.316 
  852800    297.85556   -1551.5869    480.09638    261.17357    363.78317    36397.316 
  852900    300.31375   -1581.6745    477.67739    239.66543   -39.360608    36397.316 
  853000    294.61869   -1525.6812    502.51624    295.01682    28.956953    36397.316 
  853100     299.2556   -1513.8828    476.44824    301.49358    265.31168    36397.316 
  853200    291.89054   -1549.3452    478.67251     235.3027    467.20143    36397.316 
  853300    290.47417   -1557.2602    463.51212    205.89026    928.96744    36397.316 
  853400    305.83927   -1532.1686    487.64416     323.8604    777.53806    36397.316 
  853500    301.62872   -1548.4254    467.79345    268.91404   -149.84591    36397.316 
  853600    300.02463   -1558.5906    458.17719    241.95555    202.52068    36397.316 
  853700    300.66678   -1574.7171    477.90266    248.42759    59.705028    36397.316 
  853800    303.26226   -1519.8311    470.50733    307.53101    -161.7436    36397.316 
  853900    296.76958   -1548.7761    472.26717    251.29633   -328.97621    36397.316 
  854000    292.92453   -1505.7662    474.02117    278.85667   -236.20867    36397.316 
  854100    299.90415   -1552.8696    460.38343    249.34377   -765.63443    36397.316 
  854200    302.61448   -1559.0159    477.28872     272.2293   -201.80397    36397.316 
  854300    292.24269   -1556.1101    441.41619     192.8571    450.03022    36397.316 
  854400    291.01536    -1555.533    461.13001    207.65672    330.89162    36397.316 
  854500     288.4442    -1572.685    488.26404    206.13488    143.63388    36397.316 
  854600    306.18578   -1591.1812    444.92863    223.68261   -316.30104    36397.316 
  854700     293.8464    -1523.933    458.90699    249.70035   -289.35941    36397.316 
  854800    303.25741   -1532.1641    461.78805    286.45699   -14.416802    36397.316 
  854900    295.04076   -1562.3307    473.02013    230.75955    114.85769    36397.316 
  855000    302.31287   -1562.1255     466.8567    257.33821    175.50183    36397.316 
  855100    295.03682   -1543.4818    453.23085    229.80164    419.91956    36397.316 
  855200    298.72495   -1565.1826    446.80316    218.17452     851.9706    36397.316 
  855300     315.0527   -1500.1249    489.32719     398.8098    298.25223    36397.316 
  855400    298.58224   -1533.4903    458.84856    261.27365     68.67874    36397.316 
  855500    301.17561    -1535.819    473.93793    285.63764   -147.87883    36397.316 
  855600    292.01842   -1518.6672    487.74585    275.62626   -144.59969    36397.316 
  855700    292.08198   -1536.4432    451.76634    222.15514   -195.66611    36397.316 
  855800    295.68427   -1519.1569    470.09428    273.88677   -244.68619    36397.316 
  855900    296.72695   -1516.0779    487.80847    299.34509    291.69914    36397.316 
  856000    293.52829   -1512.3542    466.57617    267.52499    18.439509    36397.316 
  856100     310.3191   -1524.6645    460.89078    324.65475   -207.08366    36397.316 
  856200    310.53628   -1508.0412    441.36089    322.71982   -927.26251    36397.316 
  856300    295.25575   -1513.6083    469.96632    277.39012   -380.52601    36397.316 
  856400    318.01378   -1509.1408    465.23682    378.95195   -254.45292    36397.316 
  856500     290.9808   -1532.9821    458.02533    226.94833   -973.89522    36397.316 
  856600    303.92821   -1527.2847    458.45936    291.00898   -154.55827    36397.316 
  856700    294.38484   -1529.5193    452.28871    239.90487     257.8078    36397.316 
  856800    291.55404   -1563.0124    492.37337    233.83087   -177.68657    36397.316 
  856900    296.51221   -1490.6377    481.89416    317.91021   -76.818208    36397.316 
  857000    302.17721   -1468.1559    477.96316    361.80725    114.86761    36397.316 
  857100    306.28418    -1502.601    451.36997    319.14437    483.62884    36397.316 
  857200     297.6721   -1500.3922    435.00899    266.46005    204.51705    36397.316 
  857300     300.1237   -1521.2191    467.65564    289.24878    523.93707    36397.316 
  857400    299.14621   -1505.1613    468.37968    301.65713     458.1748    36397.316 
  857500    308.65323    -1512.552    481.84191    350.26491    154.37754    36397.316 
  857600    297.98666   -1522.0648    485.70493    296.89082     72.41688    36397.316 
  857700    295.86833   -1507.9715    465.19856    280.99995    395.56305    36397.316 
  857800    294.01258   -1520.5605    455.12364    250.03301    566.00902    36397.316 
  857900    294.81108   -1534.0035    468.94956    253.98864    123.46977    36397.316 
  858000    298.51662   -1512.3035    443.52896     266.8473      -372.27    36397.316 
  858100    294.24703   -1487.0871    472.94447    302.37623   -74.813983    36397.316 
  858200    298.47996    -1488.582    493.34865    340.22452    139.96155    36397.316 
  858300     301.9894   -1558.6597    457.04023    249.54029    191.50484    36397.316 
  858400    291.81957   -1530.9408    488.80389    263.52101   -420.31932    36397.316 
  858500    284.28792    -1524.094    466.82194    214.68774   -353.00905    36397.316 
  858600    305.73923   -1537.4923    448.85707    279.30201   -138.80207    36397.316 
  858700    294.98432   -1514.4556    460.75651    266.11854    37.552613    36397.316 
  858800    313.86593   -1486.3124    438.91245    356.89766    41.621601    36397.316 
  858900     299.0095   -1510.4223    472.00729    299.41211    421.10914    36397.316 
  859000    298.87501   -1488.0788    451.70939    300.85592     432.2009    36397.316 
  859100    308.55823    -1477.304    453.48451    356.73047    863.16485    36397.316 
  859200    309.43322   -1428.6514    501.33536    457.14882    773.22395    36397.316 
  859300    306.11411   -1509.6406    452.49021    312.46411     827.5755    36397.316 
  859400    289.24483   -1473.1325    469.65369     290.6592    543.20878    36397.316 
  859500     301.7631    -1474.332    491.00086    366.81603    341.58502    36397.316 
  859600    290.04827   -1504.3006    469.00018    262.43239    124.44296    36397.316 
  859700    300.24457   -1508.4007    478.56202    313.51432    37.956797    36397.316 
  859800    307.71666   -1485.0024    469.07966    360.86182     148.0136    36397.316 
  859900    305.21406    -1474.024    509.82447      401.388    142.42682    36397.316 
  860000    295.94276   -1500.4492    457.47659    281.13331    14.862152    36397.316 
  860100    293.34806   -1498.0105    521.08373    335.56994    591.99668    36397.316 
  860200    308.46826   -1539.2054    468.14423    309.08623     867.7698    36397.316 
  860300    299.92339     -1516.42    465.26818    290.76417     461.2574    36397.316 
  860400     289.2363   -1526.3168    469.27077     237.0538   -459.50722    36397.316 
  860500     306.7009   -1470.7391    466.60308    368.10393   -436.06233    36397.316 
  860600    297.14896   -1496.5643    483.91086    316.84917   -826.50276    36397.316 
  860700    295.53551     -1532.31    487.02706    277.00077   -45.549379    36397.316 
  860800    297.82335   -1565.2263    441.40388    208.69766   -125.06428    36397.316 
  860900    306.67097   -1551.4953    470.60928    291.21996   -105.93163    36397.316 
  861000    296.37682   -1547.7731    455.34309    233.61799   -602.73173    36397.316 
  861100    305.85282   -1492.7658    472.63396    348.31362   -57.506031    36397.316 
  861200    300.30307   -1539.8494     480.8346    284.59996   -601.80752    36397.316 
  861300    289.52738   -1503.2569    471.87667    264.02201   -161.85011    36397.316 
  861400     300.1109   -1529.0486    465.06992    278.77624   -74.610016    36397.316 
  861500    298.17429   -1495.4769    482.31414    320.92745   -71.476257    36397.316 
  861600    296.45836   -1518.0547      463.175     271.5331   -303.83744    36397.316 
  861700    294.70873   -1562.7344    455.57961    211.42977   -232.89468    36397.316 
  861800    294.79806   -1524.6039    476.92067    271.30103   -479.66628    36397.316 
  861900    302.76697   -1539.0902    468.41161    283.96012   -187.46866    36397.316 
  862000     296.9505   -1532.7446    464.07788    259.94802   -1047.4827    36397.316 
  862100    296.85212   -1570.8261    457.36104    214.70942    -658.2663    36397.316 
  862200    304.72822   -1536.7733    463.12304    289.76348   -219.15318    36397.316 
  862300     288.5212   -1576.3269    468.00559    182.57907   -259.34203    36397.316 
  862400    294.37249   -1564.2836    453.31465    206.11123    -172.5614    36397.316 
  862500    299.16254   -1522.3661    466.78098    282.92672   -220.88874    36397.316 
  862600    299.88857    -1549.083    460.99804    253.67526    140.66474    36397.316 
  862700    294.60516   -1576.0779    484.91298    226.95623    829.46959    36397.316 
  862800    299.90028   -1529.9939    464.34807    276.16679    121.69393    36397.316 
  862900    300.24796   -1537.8035     470.5966    276.16132   -241.50979    36397.316 
  863000    301.94216   -1598.7644    462.62909    214.81304    187.76606    36397.316 
  863100    305.28828   -1539.0657    487.61794    314.47178    983.78825    36397.316 
  863200    311.34875    -1536.873    472.30513    328.46746    550.00702    36397.316 
  863300     306.9836   -1515.1316    485.50561    343.87872    745.06268    36397.316 
  863400    300.87226   -1500.6924    466.99372    312.46276    157.34715    36397.316 
  863500    295.06526   -1475.1945    466.13016    311.11538    601.05605    36397.316 
  863600    300.97946   -1526.8276    502.59201    322.40544    74.458438    36397.316 
  863700    296.41955   -1528.9811    472.81566    270.07372    176.06296    36397.316 
  863800    303.76748   -1520.7016    473.38661    311.80023    235.67621    36397.316 
  863900    300.37052   -1524.8503    512.50075      331.567    10.567554    36397.316 
  864000    292.11453   -1548.7314    479.23588    237.48207    210.89755    36397.316 
  864100    294.95094   -1567.4913      466.395    218.57199     267.4948    36397.316 
  864200    301.45713   -1569.0987    486.73113    266.41066    398.48571    36397.316 
  864300     301.0052   -1585.0519    452.44523    214.14956    368.12748    36397.316 
  864400    295.87751   -1591.5554    464.46072    196.71922   -287.69968    36397.316 
  864500    307.56585   -1584.3926    463.96067    255.67799   -359.18511    36397.316 
  864600     304.0547   -1625.0189    478.28523    213.66659   -113.52305    36397.316 
  864700     294.7888   -1580.2544    474.90135    213.58975   -239.12754    36397.316 
  864800    291.46485   -1579.9774    470.32619    194.41966    165.48445    36397.316 
  864900    310.94059   -1612.1764    439.86598     218.8987    6.8016217    36397.316 
  865000    310.60783   -1607.9808    485.05742    266.79696    709.34759    36397.316 
  865100    298.81697   -1584.2287    472.44705    225.18397    668.83732    36397.316 
  865200    314.36067   -1594.5904    472.08042    284.00123   -39.741991    36397.316 
  865300    294.22036   -1559.1424       475.14    232.39713    579.58755    36397.316 
  865400    301.92101   -1560.9318    486.44432    276.36625    67.420813    36397.316 
  865500    303.83186   -1625.3104    446.79612    180.88899     396.2323    36397.316 
  865600    303.76414   -1572.4517    475.68572    262.33434   -404.67099    36397.316 
  865700    294.66763   -1568.3735    470.89136    220.91852   -662.41969    36397.316 
  865800    302.30913   -1545.0933    450.81518    258.31218   -367.87433    36397.316 
  865900     301.2656   -1514.4615    496.07906    329.53888   -282.41351    36397.316 
  866000    295.94659   -1538.1106    485.18878    271.20121   -110.68235    36397.316 
  866100    299.74064   -1553.7222    472.52397    259.90013   -99.035177    36397.316 
  866200    297.65769   -1534.4576    486.36858    283.68977   -30.813798    36397.316 
  866300      305.901   -1583.6919    474.98745    259.95662   -167.25979    36397.316 
  866400    306.98293   -1572.8346    479.74075    280.40796    510.72155    36397.316 
  866500    301.95111   -1595.9176    465.52596    220.59674   -70.012551    36397.316 
  866600    292.93733   -1582.7952    478.33109    206.19492    57.988048    36397.316 
  866700    300.60051   -1552.5974    504.86804    297.21616    470.96745    36397.316 
  866800     298.3836   -1559.5249    471.56266     247.0644    -315.7909    36397.316 
  866900    294.99206   -1522.6952     493.7092    290.86626    -455.5257    36397.316 
  867000    303.15591   -1543.6538    500.76334     313.4884   -271.23509    36397.316 
  867100      299.163   -1552.7254    458.81765    244.60615   -389.70726    36397.316 
  867200    307.66563   -1564.0697    476.02959     288.5162   -819.96526    36397.316 
  867300    315.39192   -1539.6193    469.07824    340.58421   -299.30871    36397.316 
  867400    300.18577   -1565.3718    485.10517    262.82331   -3.2715577    36397.316 
  867500     295.0709   -1542.4237    495.75475    273.53607    497.35546    36397.316 
  867600    282.33874    -1551.513    461.43003    173.15585   -164.35923    36397.316 
  867700     298.4714   -1541.7017    474.68848    268.40626    139.00862    36397.316 
  867800    301.69665   -1514.6886     467.1409    302.30225    90.753054    36397.316 
  867900    290.06786   -1499.0176    507.08283    305.88564   -60.819239    36397.316 
  868000    308.21576   -1537.2019    495.96288    337.77869    108.35902    36397.316 
  868100    303.54997   -1530.9255    470.45928    297.67576   -206.68143    36397.316 
  868200    306.67408   -1477.6665    493.88524    388.33868   -72.222654    36397.316 
  868300     293.2502   -1501.1431    488.46895     299.3847   -310.59964    36397.316 
  868400    290.28084   -1510.7288     486.2635    274.30808   -714.42739    36397.316 
  868500    297.63329   -1559.2137    475.08028    247.53619   -668.79996    36397.316 
  868600    297.95526   -1581.9352    467.19668    218.37164   -262.92276    36397.316 
  868700    299.24795   -1527.6883    477.85242     289.0581    547.82697    36397.316 
  868800    286.56396   -1548.8977     475.1666    208.41216    300.97433    36397.316 
  868900     302.5467   -1569.3822    493.89115    278.16219   -95.862524    36397.316 
  869000    290.71426   -1549.9743    489.23386    239.97208   -110.94749    36397.316 
  869100    297.56893    -1530.979     480.2528    280.65552   -163.60097    36397.316 
  869200    297.56148   -1556.9822      498.428    272.79417    210.21879    36397.316 
  869300     287.6834   -1542.6011     461.6975    206.24831   -493.11713    36397.316 
  869400     314.5713   -1582.2105    491.65718    316.90031    476.01008    36397.316 
  869500    299.83964   -1579.3162    482.51226    244.73733    548.36079    36397.316 
  869600    302.43348   -1570.5129    471.31497    253.94864    618.15616    36397.316 
  869700    301.59018   -1568.7399    474.81259    255.44626      -384.47    36397.316 
  869800    306.70634   -1569.6739    483.68202    286.27235   -774.43966    36397.316 
  869900    301.25032     -1556.01    469.26397     261.1069   -703.76285    36397.316 
  870000    292.95148   -1579.8461    450.03515    180.91136   -1097.9883    36397.316 
  870100    303.16056   -1532.9405    484.73752    308.19676   -558.36278    36397.316 
  870200    309.33561   -1550.9544    495.45714    328.53086   -1026.7439    36397.316 
  870300    286.55631   -1520.1326    484.27972    246.25623    148.49032    36397.316 
  870400    299.71721   -1551.9281    511.30003    300.36543   -1.2843713    36397.316 
  870500    301.99728   -1533.2631    470.77049    288.70241    -105.0716    36397.316 
  870600    292.16102   -1605.7534    478.69425    180.12651    186.04584    36397.316 
  870700    299.46923   -1576.1171    457.71547    221.48242   -287.18722    36397.316 
  870800    310.25093   -1571.2571    460.34111    277.20739   -35.798114    36397.316 
  870900    307.28522   -1541.6774    461.90157    295.07842   -97.674602    36397.316 
  871000    296.10996    -1588.489    480.93291    217.29789   -535.22792    36397.316 
  871100    292.60439    -1559.021     460.8206    210.96894   -361.27116    36397.316 
  871200    293.18406    -1546.617    483.57021    248.71615   -232.26015    36397.316 
  871300    300.68414   -1544.2784    494.03437    295.07571   -665.85936    36397.316 
  871400    295.78171   -1507.0879    490.47353    306.77094   -311.13415    36397.316 
  871500    305.27059   -1552.4621    489.40652    302.78485   -307.70365    36397.316 
  871600     301.4644   -1519.0549    477.32533    307.08119   -54.660492    36397.316 
  871700    298.67557   -1576.0871    476.35026    236.59619    306.45047    36397.316 
  871800    297.81409   -1576.4432    476.43563    232.47099    232.63102    36397.316 
  871900    306.51745   -1559.1533    482.21802    294.48383   -391.00749    36397.316 
  872000    309.12888   -1560.1354    489.86402    312.83173   -137.95169    36397.316 
  872100      294.819   -1572.8008    482.83365    229.11084    -59.65467    36397.316 
  872200    299.21094   -1595.9035     480.4431    223.26794   -105.69484    36397.316 
  872300    307.52045   -1627.9706    477.75029    225.68643    513.60965    36397.316 
  872400    296.09638   -1561.5489    476.03238    239.27667    127.16055    36397.316 
  872500     308.2984   -1515.9684    503.21389    366.63296     6.853329    36397.316 
  872600    300.33508   -1539.6632    484.25362    288.34839    35.211737    36397.316 
  872700    292.93625   -1483.1601    489.42695    316.92105   -202.28768    36397.316 
  872800    297.95013    -1510.112    475.95522    298.93044   -841.57041    36397.316 
  872900    307.85077   -1542.0907    493.33513    328.62904   -317.17764    36397.316 
  873000    286.25827    -1570.551    482.46416    192.68877   -221.31104    36397.316 
  873100     303.4863   -1612.3219    471.48024    217.01548    452.14821    36397.316 
  873200    303.09135   -1581.7183    476.60684    250.97857    238.43926    36397.316 
  873300     293.6646   -1584.9451    505.42506    234.39285    421.48137    36397.316 
  873400    291.19067   -1556.5509    483.21402    229.50716    355.34768    36397.316 
  873500    306.01594   -1565.5519    480.45756    284.08093    530.18857    36397.316 
  873600    298.57536   -1577.0483    487.96025    246.79654    527.54543    36397.316 
  873700    294.48872   -1597.5132    503.47285    223.55982    277.51519    36397.316 
  873800    298.24506   -1565.2378    481.18511    250.35412    863.27329    36397.316 
  873900    306.90668   -1527.6548    481.97322    327.47901    1007.2626    36397.316 
  874000    297.46635   -1556.7265    480.35424    254.55045    372.70815    36397.316 
  874100    295.78356   -1563.6188    471.76222    231.53703    602.00191    36397.316 
  874200    302.51795   -1521.7138    500.31823    332.12896    448.32321    36397.316 
  874300    293.14899   -1559.4244    502.14906    254.33066   -55.570796    36397.316 
  874400    295.65624   -1532.2084    460.92725    251.54275   -517.21791    36397.316 
  874500    308.53693   -1567.1857     478.5721    291.84109   -77.285179    36397.316 
  874600    295.77277   -1565.7394    477.35692    234.96289    72.958697    36397.316 
  874700    287.55267   -1537.6256    516.92013    265.86147    264.08523    36397.316 
  874800     296.5159   -1522.1773    477.59214    282.08503    5.8299407    36397.316 
  874900    291.36728   -1572.2316    506.62519    238.02786    669.09864    36397.316 
  875000    303.59144   -1580.3349     484.5903    262.58299    783.78212    36397.316 
  875100    303.36729   -1574.8154    449.58391    232.09317    415.51064    36397.316 
  875200    289.64046   -1552.2646    469.11072    212.75431    -634.7496    36397.316 
  875300    308.71773   -1569.8177    498.07363     309.5195   -289.60092    36397.316 
  875400    291.26507   -1568.0842    457.03902    192.13178   -377.37066    36397.316 
  875500    303.73735   -1492.0418    512.95538    379.89404    431.32311    36397.316 
  875600    288.21615   -1531.0862    458.62007     217.0694   -514.34056    36397.316 
  875700    306.08541   -1544.7778    499.58539    324.29361      -305.94    36397.316 
  875800    305.13612    -1575.914    483.60099    272.92574   -134.99577    36397.316 
  875900    298.89668   -1562.8819    509.14782    283.58823   -270.24397    36397.316 
  876000    300.31528   -1560.8208     453.7802    236.62881   -377.53806    36397.316 
  876100    300.36924   -1570.1735    501.59298    275.33028   -677.09031    36397.316 
  876200    308.18467   -1528.6734    477.61507    327.82028   -227.38208    36397.316 
  876300    297.66107   -1578.8824    496.82886    249.74039   -201.44175    36397.316 
  876400    295.60922   -1564.6762    483.31933    241.25665   -250.49483    36397.316 
  876500    289.51556   -1563.1456    515.96611    248.16986   -722.97921    36397.316 
  876600    303.35943   -1554.2296    505.50467    308.56456   -129.63738    36397.316 
  876700    302.09268   -1578.9417    493.15774    265.83787    88.072649    36397.316 
  876800    303.88668   -1550.8309    480.79633    289.61398    405.18018    36397.316 
  876900     295.8822    -1556.299    461.32679    228.86273   -145.76682    36397.316 
  877000    299.16008   -1529.6449    492.51157    301.36748   -523.92519    36397.316 
  877100    306.38532   -1530.0042    489.46476    330.28852    114.60425    36397.316 
  877200    309.46289   -1570.9763    470.72999    284.35131    397.49963    36397.316 
  877300    292.69708   -1629.2082    465.13912    145.51499    164.29965    36397.316 
  877400    307.43551   -1592.1919    494.14219    277.47701    648.29344    36397.316 
  877500    309.18187   -1599.6471    507.77965    291.47278    565.69666    36397.316 
  877600    301.09259   -1613.2233    467.04441    200.96838    408.85626    36397.316 
  877700    302.61882    -1564.427    484.14463    273.69351   -254.26325    36397.316 
  877800     299.4474   -1581.8525    483.27045    241.20428    -416.3555    36397.316 
  877900    304.58385   -1550.2307    501.26585     313.8029   -97.237358    36397.316 
  878000    300.74269   -1603.5324     496.4851    238.53439   -347.19267    36397.316 
  878100    292.16551   -1589.9349    470.08666    187.35744     81.61847    36397.316 
  878200    295.73759   -1561.5433    518.09199    279.73666   -297.54038    36397.316 
  878300    305.88408   -1603.1517    483.40208    248.83567    199.38123    36397.316 
  878400    293.84775   -1617.4153    474.03096    171.34803   -156.97378    36397.316 
  878500    295.52324   -1566.9287    458.06555     213.3657    355.54087    36397.316 
  878600    308.53224   -1600.5792    463.38386    243.23839    540.44509    36397.316 
  878700    292.90466   -1582.8793    468.12808    195.76163   -336.78888    36397.316 
  878800     310.1814   -1610.8409     483.2681    260.23956   -12.855827    36397.316 
  878900    282.33081   -1550.0594    485.15553    198.29946    -317.3227    36397.316 
  879000    300.01305   -1602.6841    487.73812    227.37114   -370.61926    36397.316 
  879100    286.75121   -1587.0316    482.59955    178.54901   -701.01735    36397.316 
  879200    299.54949   -1598.0848    483.67575      225.834   -527.34599    36397.316 
  879300    299.37052   -1578.6335    471.62288    232.43179   -668.88667    36397.316 
  879400    294.87377   -1599.1165    484.30576    204.51225    246.12968    36397.316 
  879500    290.78965   -1574.4108    471.89095    198.53004    251.36378    36397.316 
  879600     290.9374   -1546.0941    503.65159    259.26841    646.77872    36397.316 
  879700    290.78474   -1548.2455    496.93589    249.71833    53.932977    36397.316 
  879800    310.18043   -1550.2751     474.7198    312.25267    420.24001    36397.316 
  879900    294.10491   -1560.4206    485.31706    240.77941   -92.494772    36397.316 
  880000    296.38163   -1542.8919    498.68586     281.8634   -58.886825    36397.316 
  880100    300.13356   -1580.3174    486.15729    248.69625    -185.5148    36397.316 
  880200    312.51763   -1572.9917    491.44679    316.72017   -716.49781    36397.316 
  880300    307.93401   -1599.5038    476.34348    254.59675   -310.19857    36397.316 
  880400    293.57511   -1553.1932    481.74937    242.06871   -517.81304    36397.316 
  880500    303.54928   -1544.0364    460.40923    274.51175   -609.16274    36397.316 
  880600    294.54265   -1507.8141     503.8363    313.86366    -394.7744    36397.316 
  880700    300.04171   -1535.3468    474.13297    281.23159    171.30796    36397.316 
  880800    296.12411   -1540.3686    497.10204    281.65069    453.26987    36397.316 
  880900    300.00144   -1592.6226    475.15003    224.79268    300.69869    36397.316 
  881000    302.10987   -1544.1007    497.32045    304.91853    195.95191    36397.316 
  881100    301.83077    -1562.035    469.84633    258.26136   -30.865496    36397.316 
  881200    300.23752   -1534.1449    500.13549    309.31202    1023.8685    36397.316 
  881300    302.82707   -1538.8238    457.11036    273.19418    116.00692    36397.316 
  881400    303.87671   -1575.3418    474.68414    258.94626    489.88638    36397.316 
  881500    301.22456   -1542.3396    485.95981    291.35789    188.77989    36397.316 
  881600    300.06683   -1553.5143     510.6154    299.65888   -19.080083    36397.316 
  881700    292.62792   -1618.3401     477.1806    168.11517    792.35251    36397.316 
  881800    307.76037   -1574.9742    462.15391    264.15993    410.55852    36397.316 
  881900    284.84235    -1603.595    458.38099    129.22642   -223.35133    36397.316 
  882000    302.63237   -1618.2149    491.94855    227.77012   -256.31804    36397.316 
  882100     287.0998   -1612.3812    482.95263    155.11218    428.67338    36397.316 
  882200    303.37537   -1580.8433    475.08474    251.60232   -64.366248    36397.316 
  882300    306.07962    -1583.498    456.28637    242.24855   -553.74825    36397.316 
  882400     300.0892   -1547.6441    470.96115    265.97493   -575.10943    36397.316 
  882500    294.90542    -1534.909    455.71346     240.2691   -595.16821    36397.316 
  882600    304.07543   -1531.8765    480.25423    308.87074   -795.00387    36397.316 
  882700    300.83398   -1544.9373    465.92533    266.97816   -99.787548    36397.316 
  882800    293.50341   -1513.2805    490.59296    290.50418   -364.31164    36397.316 
  882900    298.11722   -1534.9068    475.95431    274.88234   -322.46733    36397.316 
  883000    299.79747   -1520.0037    468.38043    289.72937    -175.7411    36397.316 
  883100    309.60072   -1558.3656    479.51241    306.36114    119.74018    36397.316 
  883200     289.1466   -1540.4444    487.10469    240.35878   -326.11456    36397.316 
  883300    305.94029   -1565.5661    478.45271    281.72338   -142.12733    36397.316 
  883400    294.20175    -1531.894    484.79891    269.22114   -342.22169    36397.316 
  883500    299.19341   -1529.5561    490.70035    299.79417    236.46442    36397.316 
  883600    294.31626   -1568.9605    484.50188    232.37001    35.976661    36397.316 
  883700    306.68022   -1591.0074    476.00925    257.14919     101.5281    36397.316 
  883800    303.89526   -1594.1672    477.62378    243.14355    395.57341    36397.316 
  883900    290.60352   -1577.7801    480.64125     203.0782    1043.6901    36397.316 
  884000    297.85419   -1588.4415    464.95019    209.16673    834.92387    36397.316 
  884100    299.62318   -1568.1847    494.18261    266.57071    972.48015    36397.316 
  884200     302.1984   -1605.0096    464.88367    211.96886    590.99109    36397.316 
  884300    298.59774   -1621.6306     485.8112     200.1654    917.00326    36397.316 
  884400    293.88128   -1633.8125    445.47993    126.54982    809.38218    36397.316 
  884500    297.23577   -1572.2211    479.90667    237.57663    265.77568    36397.316 
  884600    292.76773   -1609.4612    487.34075    187.77968    67.148166    36397.316 
  884700    304.02923   -1597.1484    459.27994    222.41783    121.34968    36397.316 
  884800    293.15541   -1560.3903    480.24353    231.48798   -387.09196    36397.316 
  884900    291.99825   -1573.2271    460.01558     193.2459   -595.71736    36397.316 
  885000    294.70457   -1636.5137    478.19588    160.24821    211.58075    36397.316 
  885100    297.74406   -1611.3734    479.65503    200.44688   -391.59674    36397.316 
  885200     301.1519    -1547.898    467.81069    267.32522    649.55077    36397.316 
  885300    307.43453   -1573.8406    474.36549    276.04713    115.79646    36397.316 
  885400    294.63823   -1577.0837    463.77112    204.95661   -196.37114    36397.316 
  885500    301.17586   -1590.2517    472.84169    230.10979    -513.3694    36397.316 
  885600    296.40701   -1548.5998    467.46177    245.04495   -30.555376    36397.316 
  885700    300.43416   -1557.6059    486.07599    272.67139   -418.08753    36397.316 
  885800    298.90551   -1535.4237    494.43731    296.37546   -138.79972    36397.316 
  885900    303.89104   -1538.1027    485.79843    307.36373   -162.20513    36397.316 
  886000    308.44258   -1581.4917    491.06397    289.60478    145.13563    36397.316 
  886100    310.07746   -1555.6844    497.21677     328.8797   -154.06938    36397.316 
  886200    310.92627   -1560.8885    472.58072    302.83726    54.082986    36397.316 
  886300    304.53443   -1604.9555    464.04888    221.64008   -329.24522    36397.316 
  886400    293.77757   -1614.4278    470.11401    170.10458    194.37612    36397.316 
  886500    299.94861   -1606.5293    475.12496     210.6245   -226.93671    36397.316 
  886600     303.2716   -1620.6435    473.68433    209.93736    117.35002    36397.316 
  886700    287.21507   -1593.0269    489.44586     181.4755   -282.32724    36397.316 
  886800    305.51698   -1635.9371    467.39051    198.39623    785.48281    36397.316 
  886900    308.95667   -1608.0759    481.58289    255.83965    514.55948    36397.316 
  887000    293.50315   -1574.6763    487.27093    225.78521    264.98583    36397.316 
  887100    308.84734   -1559.5013    472.93031    295.27247    111.72766    36397.316 
  887200    302.67851   -1570.6275     466.4686    250.08402   -547.76745    36397.316 
  887300    311.77202   -1559.6505    476.96851    312.24713   -402.89526    36397.316 
  887400    293.65832   -1589.7692    468.83669    192.95237   -479.74041    36397.316 
  887500    291.25419   -1529.2066    498.09695    272.01868   -794.59918    36397.316 
  887600    304.59089   -1606.8614    472.89148    228.82941   -38.880786    36397.316 
  887700    299.33778   -1576.0119    488.90394    252.18789    756.04549    36397.316 
  887800    295.00671   -1530.3966    472.09043    261.61159    341.39595    36397.316 
  887900    300.25256   -1581.9186    475.97506    237.44524   -137.72001    36397.316 
  888000    302.21135   -1551.7615    465.02588    265.41715    334.93071    36397.316 
  888100    301.57232   -1547.1181     483.4203     285.5958   -190.34102    36397.316 
  888200     292.8565   -1537.3746    467.93211    240.85487     570.4771    36397.316 
  888300    303.07999   -1603.2852    485.67033    238.42442    650.22918    36397.316 
  888400     295.7419   -1524.9237    472.22714    270.51057    473.82925    36397.316 
  888500    300.92667    -1557.762    480.64292    269.28577    1093.8302    36397.316 
  888600    298.95779   -1530.2559    486.82035    294.16014    1050.1758    36397.316 
  888700     304.9363   -1561.3334    471.10646    274.11781    4.1431223    36397.316 
  888800    305.44124   -1542.6197    473.16994    297.15421   -382.23732    36397.316 
  888900    300.09499   -1558.9788    483.08485    266.78982   -213.48664    36397.316 
  889000    292.51931   -1559.3526    464.58344    214.01957   -777.63702    36397.316 
  889100    308.49818   -1545.3584     467.5048    302.42771   -752.09842    36397.316 
  889200    286.78032   -1515.6644    470.87552    238.32247   -774.67442    36397.316 
  889300    307.64965   -1546.8862    493.52246    323.12104   -354.30241    36397.316 
  889400     293.5105   -1550.2038    451.39888     214.4185   -755.51606    36397.316 
  889500    299.50696   -1562.3404    463.60947    241.32193   -1502.3396    36397.316 
  889600    304.74858   -1599.8045    464.95408    228.65441   -1136.7548    36397.316 
  889700    303.21319   -1567.9043    489.02873    277.75967    -86.50098    36397.316 
  889800    309.42139   -1523.3634    483.55855    344.60708    -24.00099    36397.316 
  889900    305.76119   -1535.0907    479.29067    312.23543    280.10335    36397.316 
  890000    296.24398   -1497.2065    475.99827    304.24543    664.35067    36397.316 
  890100    293.90664   -1539.9748    491.81413    266.83525    434.99265    36397.316 
  890200    297.63445   -1583.2034    470.88642    219.35789    458.72716    36397.316 
  890300    304.46902   -1560.1347    476.91481     279.0341   -89.525911    36397.316 
  890400    304.42138   -1518.4039    484.94304    328.58002     489.0159    36397.316 
  890500    315.23114   -1537.5442    469.09733    341.95894    749.58278    36397.316 
  890600    291.32692   -1577.5019    448.76387    174.71567   -114.61674    36397.316 
  890700    300.44433   -1555.3649     496.2702    285.15205    559.78734    36397.316 
  890800    301.15816   -1570.7197    487.59697    264.31784    434.84575    36397.316 
  890900    300.54755   -1550.2102     466.8068    261.30517    87.872788    36397.316 
  891000    301.71881   -1556.6952    473.02053    266.27439    238.57355    36397.316 
  891100    306.36104   -1583.4888    502.95776    290.18828    202.83281    36397.316 
  891200    308.18364   -1555.5451    462.74518    286.07402    108.71407    36397.316 
  891300    309.51336   -1528.1586    491.56451    348.22932   -25.022076    36397.316 
  891400    282.66131    -1516.218    478.34967    226.81375   -534.12206    36397.316 
  891500    304.08604   -1449.8801    509.84506     420.5055   -598.93212    36397.316 
  891600    306.18703   -1522.2695    485.55588    333.22714    121.92576    36397.316 
  891700    295.83035    -1547.757    466.58441    242.43038   -411.08606    36397.316 
  891800    301.42491   -1546.8974    485.32046    287.05717    208.97787    36397.316 
  891900    295.50139   -1551.7393    470.97242    241.36424   -276.64292    36397.316 
  892000    293.33428   -1551.6177    463.82461    224.64197    221.15105    36397.316 
  892100    300.72269   -1513.0667    507.71716    340.14272   -75.651344    36397.316 
  892200    300.81768   -1533.9964    499.06871    310.98951    241.02319    36397.316 
  892300    295.25028   -1556.6679    493.60611    257.94579    636.86134    36397.316 
  892400    308.07806   -1557.0968    502.80324    324.10806    750.14117    36397.316 
  892500    302.22226   -1535.7172    479.47933    295.96372    385.90452    36397.316 
  892600    306.28748   -1522.7224    481.08687    328.75461    -58.65538    36397.316 
  892700    296.85877   -1506.5192    472.79025     294.4753    931.09735    36397.316 
  892800    298.66926   -1491.8868    479.27385    323.69185    964.00204    36397.316 
  892900    292.76673   -1516.6178     475.6456    268.92349     328.7553    36397.316 
  893000    295.71028   -1503.8512    492.03213    311.24659    99.489457    36397.316 
  893100    295.47851   -1487.8825    503.76132    337.90756    325.00794    36397.316 
  893200    300.35814   -1520.8537    477.92931    300.93672    102.08055    36397.316 
  893300    298.81514   -1560.6885    461.60546    237.87443    66.874413    36397.316 
  893400    306.84515   -1533.1458    495.86056     335.6001    507.59614    36397.316 
  893500    299.53445   -1603.0151    461.23181    198.39253   -211.18711    36397.316 
  893600    296.98238   -1563.0743    485.96229    251.64534    334.95634    36397.316 
  893700    307.64858   -1590.0858    462.52506    248.91929    465.60558    36397.316 
  893800    296.82819   -1559.8574    484.53969    252.74974    273.72407    36397.316 
  893900    292.56766    -1579.148    473.39797    203.25503    1095.4599    36397.316 
  894000    299.12407   -1615.9504    473.85531    196.24463    656.98966    36397.316 
  894100     301.8593   -1552.3704    489.58863    287.79588    411.88466    36397.316 
  894200     299.2905   -1565.9149    459.00512    232.17455     111.0238    36397.316 
  894300    303.22683   -1523.3817    488.18793    321.50244    126.59818    36397.316 
  894400     304.6123   -1552.8173    463.71959    273.79746   -202.91228    36397.316 
  894500       292.99   -1522.0289    472.60271    261.46847   -848.96754    36397.316 
  894600    302.07036   -1563.7956    462.60088     250.3273   -720.74818    36397.316 
  894700    296.85013   -1530.6351    483.99516    281.52567   -257.72563    36397.316 
  894800    302.75431   -1545.6337    470.41589    279.36431    199.06505    36397.316 
  894900    299.52077   -1551.0344    499.66346    288.74361   -228.53507    36397.316 
  895000    294.55172   -1536.6935     484.2498    265.43835   -128.57513    36397.316 
  895100    306.79311   -1515.2943    476.88962    334.24778    236.65383    36397.316 
  895200    306.78082   -1525.3917    471.61016    318.81599   -156.99199    36397.316 
  895300    293.19829   -1518.1705    498.88389    292.53994   -327.65222    36397.316 
  895400    315.39918   -1525.6921    488.69486    374.16044    -208.4864    36397.316 
  895500    294.47044   -1495.5924    491.20794    313.13404    106.20175    36397.316 
  895600    302.18121   -1470.7073    490.66536    371.97602   -511.30422    36397.316 
  895700    307.68125     -1493.16    492.18607    375.65225    290.13309    36397.316 
  895800    293.24206   -1488.7983    468.90302    292.12715   -458.80392    36397.316 
  895900    301.26276   -1490.5331    488.17094    345.54644   -505.67981    36397.316 
  896000    286.71503   -1498.6511     501.0186    285.18667   -696.38731    36397.316 
  896100    301.55298   -1564.9925    452.67002    236.88462   -494.81341    36397.316 
  896200    308.36985   -1560.7527     473.3933    292.34766    245.79662    36397.316 
  896300    292.31266   -1574.7996     475.0395    208.10398   -171.67327    36397.316 
  896400    301.70355   -1566.4643    472.97674    256.39325    148.10586    36397.316 
  896500    298.92091   -1546.0083     509.2921    300.71453    622.36217    36397.316 
  896600    298.55366    -1541.724    451.13391    245.19748   -259.50631    36397.316 
  896700    292.91658    -1529.058    464.36662    245.87481    462.78424    36397.316 
  896800    305.40818   -1557.2922    499.57341    308.73723    364.39421    36397.316 
  896900    311.19448   -1528.8492    456.82097    320.31684    1479.1711    36397.316 
  897000     303.0186   -1533.7306    483.83353    305.86744     1718.456    36397.316 
  897100    308.85841   -1560.0575    494.59393    316.42945    2075.3741    36397.316 
  897200    299.95773   -1553.1446    463.50672    252.43174    1426.7266    36397.316 
  897300       299.27   -1562.9262     501.8927    277.95908    1294.3458    36397.316 
  897400    307.12629   -1545.1504       468.58    297.57277    1059.2422    36397.316 
  897500    311.68985    -1524.863    481.12942    350.82782    565.90178    36397.316 
  897600    299.42858    -1520.943    494.50117    313.26031    12.075021    36397.316 
  897700    307.95965   -1499.9475    472.13394    350.05826    398.83466    36397.316 
  897800    293.88505   -1530.8268    481.51452    265.58701     -17.3628    36397.316 
  897900    308.25881   -1516.7723    489.43551    351.87352   -478.86855    36397.316 
  898000    313.81407   -1520.8698    463.00261    346.19847     45.15728    36397.316 
  898100    304.71484   -1481.1419    472.50403    354.71604    392.27181    36397.316 
  898200    309.27033   -1516.6832    499.51151    366.56437    602.88678    36397.316 
  898300    292.80281   -1525.2341    486.31156    271.13458    19.004079    36397.316 
  898400    297.66041   -1511.0417    490.11607     310.8654   -448.74093    36397.316 
  898500    292.32487   -1500.8892    474.60376    281.63331   -237.82954    36397.316 
  898600    296.42229    -1488.757    478.01595    315.51028   -15.194646    36397.316 
  898700    297.02412   -1492.5355    471.98645    308.39508    464.91171    36397.316 
  898800    308.66596   -1529.3527    476.01754     327.6968   -162.37094    36397.316 
  898900     288.4744   -1465.7737    474.09613    299.01336    -243.4552    36397.316 
  899000    305.73159   -1502.6335     468.9145    334.18399   -307.90546    36397.316 
  899100    307.79862   -1543.8109    473.31233    306.65276    268.18351    36397.316 
  899200    306.95726   -1523.2469    469.35913    319.49915   -39.831344    36397.316 
  899300    303.92173   -1512.6691    457.69248    304.82871    53.019778    36397.316 
  899400    306.12014   -1531.7809    478.77953    316.64006   -31.151766    36397.316 
  899500    288.52647   -1531.6174    466.84938    226.15596   -402.84733    36397.316 
  899600    309.99984   -1525.0623    449.57601    311.51374   -357.82735    36397.316 
  899700    298.01779   -1523.9833    463.91801    273.32467    181.84275    36397.316 
  899800    303.66001   -1543.1231     474.6504    290.16169    273.00881    36397.316 
  899900    294.96977   -1540.8277    480.08517    259.01003    632.83128    36397.316 
  900000    295.37269   -1562.4076    473.26245    232.41016    437.82476    36397.316 
  900100    297.35236   -1573.5074    456.13028     213.0356    499.95335    36397.316 
  900200    301.43348   -1594.9892     443.9272    197.61039    606.17366    36397.316 
  900300    303.72313   -1571.3744    494.54604    282.08842    1133.7998    36397.316 
  900400    290.45438   -1574.3981    441.58821    166.73992     321.3232    36397.316 
  900500     292.3077   -1574.4474    474.31713    207.71167    446.76648    36397.316 
  900600    300.08836   -1527.0043    476.66764    292.31745    89.159295    36397.316 
  900700    294.87707   -1542.8198    460.92361    237.44162    134.17523    36397.316 
  900800    292.61332   -1558.2315    477.25531     228.2331   -13.213729    36397.316 
  900900    302.33328   -1550.4072    465.79676    268.08793    416.52817    36397.316 
  901000    299.75063   -1560.2461     453.8191    234.71599    275.49351    36397.316 
  901100    297.55109   -1549.7595    458.13326    239.67559    498.92663    36397.316 
  901200    307.97079   -1567.3394    442.91203    253.49429    104.42081    36397.316 
  901300    315.05563    -1567.793    466.82877    308.65637    685.43738    36397.316 
  901400    293.40424   -1586.3421    482.26923    208.67519    349.73504    36397.316 
  901500    296.00329   -1515.7716    462.49667    271.10182   -111.33581    36397.316 
  901600    310.66969   -1550.1409    465.04764     304.9038   -349.84482    36397.316 
  901700    299.31294   -1527.9504     456.3946    267.62898    -298.7349    36397.316 
  901800    299.15449   -1557.9984    461.80052    242.27792     483.5766    36397.316 
  901900    296.23101   -1571.5502    450.38814    204.23353    714.36316    36397.316 
  902000    306.04778   -1538.1407    462.12619    293.30322    1127.5478    36397.316 
  902100     315.4762   -1558.1827    499.52669    352.84633    1332.2194    36397.316 
  902200    292.47571   -1534.2226    463.78028    238.15132    1050.3983    36397.316 
  902300    299.18668   -1534.7435     467.0605    270.93679    952.88008    36397.316 
  902400    294.38103   -1544.3165    467.39558     240.1975    171.04212    36397.316 
  902500     303.5666   -1553.9614    481.36442    285.61947    408.61226    36397.316 
  902600    294.63137   -1540.6035    438.55576    216.19068   -42.695792    36397.316 
  902700    293.25357   -1546.0075    454.12226    220.18869   -280.89547    36397.316 
  902800    297.66643   -1532.4692    452.46207    251.81082   -308.13426    36397.316 
  902900    306.07997   -1537.1362    451.68996    284.01549    277.44954    36397.316 
  903000    306.31309   -1535.8689    477.55644    312.19234    149.19755    36397.316 
  903100    301.57173    -1513.144    469.98056    306.12752   -536.92558    36397.316 
  903200    289.24148   -1522.0102    472.18645    244.29925    83.985269    36397.316 
  903300    294.97728   -1540.2802    498.26796    277.77389     991.1776    36397.316 
  903400    299.53511    -1527.399    467.03556    279.81528     492.6637    36397.316 
  903500    304.45668   -1575.4379    473.70931    260.47023    921.79682    36397.316 
  903600    305.94112   -1550.7622    453.40247    271.48071    894.12987    36397.316 
  903700    308.01791    -1533.091    436.62831    281.66971    270.91959    36397.316 
  903800    294.51355   -1524.6531    484.91385    277.97206   -26.788537    36397.316 
  903900    290.83517   -1494.7071     462.2314    268.77784   -645.40145    36397.316 
  904000    301.03627   -1507.7191    469.60696    308.78305   -348.96453    36397.316 
  904100    298.29701   -1530.3109    484.75724    289.08559   -208.30835    36397.316 
  904200    309.38592   -1536.6154    459.12835    306.76614    -114.6807    36397.316 
  904300    297.11612   -1529.5986     457.9223    257.67936   -5.7495084    36397.316 
  904400    302.63245   -1509.8493    472.34212    316.52963    306.71382    36397.316 
  904500    294.24913   -1520.1872    438.80428    235.14538   -146.68103    36397.316 
  904600    294.42428   -1558.6865    455.00481    213.63022    81.297507    36397.316 
  904700    302.18666   -1569.2325    450.84036    233.65018   -589.30488    36397.316 
  904800    309.49104   -1541.5033    446.58916    289.80943    664.77368    36397.316 
  904900    301.40045   -1580.5451    468.28486    236.26442    567.95571    36397.316 
  905000    302.42695   -1553.4549    489.52419    289.18672     404.5278    36397.316 
  905100    289.42108   -1563.3156    469.93318    201.54422    1004.9978    36397.316 
  905200    307.67178   -1552.7247    458.44358    282.30269    1025.4305    36397.316 
  905300    306.16639   -1562.7348    485.68586    292.79942    997.02325    36397.316 
  905400    299.31236   -1572.7745    468.98188    235.38948    896.55646    36397.316 
  905500    290.62165   -1559.3674    464.84895     205.7797     203.6441    36397.316 
  905600    288.10982   -1540.4115    452.49017    201.13847    138.32633    36397.316 
  905700    295.60045   -1515.2154    465.18416     272.5431   -338.12245    36397.316 
  905800    307.29796   -1524.1598    473.21703     323.9685   -217.49812    36397.316 
  905900    306.01184    -1532.755    465.29646    301.69842    -365.6256    36397.316 
  906000    292.65708   -1469.3535    485.52297    325.57456    37.208562    36397.316 
  906100    310.93339   -1480.8103    506.40222    416.76878    -344.7631    36397.316 
  906200    291.58353   -1473.2795    468.05345    299.37579   -123.23513    36397.316 
  906300    299.39361   -1508.8621    457.14676     287.8303    466.98067    36397.316 
  906400    299.69839   -1517.0816    466.21305    290.04074     647.9194    36397.316 
  906500    294.08539   -1529.7529    470.48404    256.52676    450.81649    36397.316 
  906600    302.13693   -1522.7364    470.02687    299.11031    940.53611    36397.316 
  906700    300.14844   -1523.3935     475.7323     295.2617    365.03083    36397.316 
  906800    312.54605   -1496.2165    521.54194    423.71765    578.33877    36397.316 
  906900    302.81537   -1533.5669    464.05822     285.3466     101.6367    36397.316 
  907000    293.66368   -1561.5495    442.18103    194.54037   -326.54147    36397.316 
  907100    295.17572   -1538.1931    466.80198    249.28291   -643.42595    36397.316 
  907200    309.98162   -1526.8814    472.93257    332.96968    488.42958    36397.316 
  907300    301.90782   -1563.4293    472.59461    259.96002    199.44419    36397.316 
  907400    301.79365   -1564.5197    475.40438    261.16861     556.4376    36397.316 
  907500    306.24972   -1525.2435    497.74926    342.72698    121.23906    36397.316 
  907600    293.00594   -1531.6179    445.79164    225.13971    33.212262    36397.316 
  907700    304.40621   -1535.1481    484.14869    310.97361    369.77818    36397.316 
  907800    301.63339   -1529.4459    476.42031    296.54126    520.26091    36397.316 
  907900     296.4868    -1505.326     480.3315    301.54548    591.29869    36397.316 
  908000    292.97521   -1509.2449    475.70104    277.28458   -63.246636    36397.316 
  908100    292.99173   -1481.8836     474.1721    303.19087   -347.85582    36397.316 
  908200    307.44435    -1501.797    488.34908    362.11831   -80.840087    36397.316 
  908300    296.18187   -1509.7562    465.13847    280.55802    244.76382    36397.316 
  908400    306.08447   -1535.8123     485.9228    319.59236   -288.55571    36397.316 
  908500    316.43269   -1561.7661    453.93212    307.94787     552.0144    36397.316 
  908600    303.11095   -1534.4652    486.15296    307.86552    272.37786    36397.316 
  908700     301.8186   -1519.2156    486.61849     317.7984    576.16162    36397.316 
  908800    300.07762   -1524.8573    484.30465    302.05343     533.8808    36397.316 
  908900    284.64324   -1538.7881    467.93981     202.7013   -56.507497    36397.316 
  909000    298.00633   -1583.8506    455.69731    205.18545   -292.71997    36397.316 
  909100    291.30608   -1564.3564    490.13904    229.14312   -13.101188    36397.316 
  909200    301.59241   -1495.1723     495.9328    350.14406   -43.760863    36397.316 
  909300    293.29406   -1480.9473    484.72276     316.0305    60.526427    36397.316 
  909400    289.54171   -1520.3486    489.69935    264.81712   -319.63366    36397.316 
  909500    311.09022   -1497.7812    470.16209    364.25948    60.799475    36397.316 
  909600     305.9686   -1513.1624    510.32189    366.12289   -38.402836    36397.316 
  909700    294.31809   -1557.2528    474.39407    233.97812    589.80949    36397.316 
  909800    295.09452   -1542.4084    459.79935    237.70162   -183.79827    36397.316 
  909900    300.00036   -1533.3544    486.72453    295.63048    81.474797    36397.316 
  910000    296.31352   -1536.1783    476.11676    265.70319   -383.77173    36397.316 
  910100    295.63437    -1561.039    485.86548     247.5526   -561.89741    36397.316 
  910200      283.747    -1565.473    455.62892    159.69555   -595.21707    36397.316 
  910300    307.00984   -1525.0377    453.42988    302.01437   -244.68829    36397.316 
  910400    291.56657   -1547.2496    458.17872    215.45513     -141.209    36397.316 
  910500    303.57304   -1544.5962    474.02396    287.67302   -670.63987    36397.316 
  910600    309.91983   -1525.6087    439.07285    300.10617   -522.30586    36397.316 
  910700     310.3024   -1533.2807    480.16693    335.23995    240.67438    36397.316 
  910800    301.65576   -1560.7299    478.37516    267.31228   -88.764146    36397.316 
  910900     308.1216    -1550.798    473.38467    301.18306    174.47451    36397.316 
  911000    293.90412   -1567.4095    468.88146    216.45657    619.73178    36397.316 
  911100     298.5525   -1556.6697    464.02703    243.13972    202.15828    36397.316 
  911200    298.23592   -1522.5651    456.75645    268.55732    203.57175    36397.316 
  911300    290.61895   -1524.9835    454.80597    230.10861   -398.47631    36397.316 
  911400    297.94398   -1502.1569    486.69228    317.59514     -891.103    36397.316 
  911500    298.24497   -1507.7713    438.46804    265.10312   -371.30775    36397.316 
  911600    304.77198   -1491.5412    498.48268    370.55108   -83.103083    36397.316 
  911700    292.73319   -1546.2855    453.44597    216.90612   -174.62754    36397.316 
  911800    297.44463   -1517.2097    490.17827     303.7941   -670.27984    36397.316 
  911900    303.33653    -1527.594     454.0073    283.60034   -72.373009    36397.316 
  912000    302.50407   -1516.6959    480.14352     316.9101    -854.0532    36397.316 
  912100    296.80782   -1525.5233    475.18897    277.64193    118.89936    36397.316 
  912200    301.70452   -1538.5172    473.11909    284.48702    178.91674    36397.316 
  912300    297.78012   -1524.2028    481.04006    289.16387   -208.46022    36397.316 
  912400    307.90091   -1532.8189    458.22698    303.01711   -10.574922    36397.316 
  912500    296.70665   -1525.2719    470.36181    272.61362   -207.64879    36397.316 
  912600    300.52559   -1511.4671    463.73594     296.8792    316.26004    36397.316 
  912700    300.30554   -1540.1777    487.69973    291.14783    292.77229    36397.316 
  912800    308.75787   -1521.9489    459.55763    319.05189    279.43516    36397.316 
  912900    298.12862   -1488.7073    448.16683    293.34536   -39.438982    36397.316 
  913000    292.77039   -1533.0689    462.50601    239.34917   -446.77775    36397.316 
  913100    305.69571   -1580.0311    459.06663    246.77803    352.21278    36397.316 
  913200    304.04035   -1535.5488    453.74363    278.53091    248.56725    36397.316 
  913300    296.01616   -1533.7304    471.50988    262.21376    390.43172    36397.316 
  913400    299.66699   -1567.1843    440.42231    214.00679    -98.80507    36397.316 
  913500    301.76873   -1525.9995    455.88826    280.06115    7.8861054    36397.316 
  913600    299.67343   -1518.8583    466.24251    288.18186    510.16605    36397.316 
  913700    302.47911   -1554.7474     448.3032    246.90658    135.72759    36397.316 
  913800    305.05073   -1542.1915    450.05947     272.7247    117.72525    36397.316 
  913900    295.40241   -1514.7883    441.82599    248.72595   -143.23236    36397.316 
  914000    301.61906   -1516.4309    460.33309    293.40492   -167.60027    36397.316 
  914100    298.35134   -1506.1562    427.31036     256.0365   -221.95755    36397.316 
  914200    311.16371   -1507.6258    507.18982     391.7714    501.26118    36397.316 
  914300    294.16828   -1516.7712    441.15786    240.55314    305.84497    36397.316 
  914400    301.41119   -1504.8693    468.62826    312.33169   -449.02829    36397.316 
  914500    294.67629   -1498.1621    454.03287    274.31028    -422.0945    36397.316 
  914600    300.35979   -1548.6023    458.54265     253.8089   -298.31219    36397.316 
  914700    297.26143   -1499.9129    482.61834    312.71132   -297.88605    36397.316 
  914800    297.22838   -1518.5078    443.76562    255.11579   -279.78554    36397.316 
  914900    305.39573   -1484.2287     454.0117    336.18329   -270.61308    36397.316 
  915000    296.67125   -1513.6191    455.80425    269.55044    200.43585    36397.316 
  915100    295.70955   -1492.3091    444.23249    274.98582   -133.84906    36397.316 
  915200    303.57902   -1535.1115    444.50523     267.6657   -81.894772    36397.316 
  915300    302.57243     -1529.15    448.32079     272.9391    350.70422    36397.316 
  915400    307.61454    -1523.124    447.74241    300.94612    25.540156    36397.316 
  915500    291.95648   -1524.4538    476.00722    257.82395    115.62615    36397.316 
  915600    304.41741   -1492.3276      477.096    346.79152    -295.6699    36397.316 
  915700    289.78768   -1496.3667    440.58485    240.78498   -1057.8853    36397.316 
  915800    285.53342    -1511.855    445.98077    211.65825   -578.21669    36397.316 
  915900    304.96107    -1495.141    458.54526    327.85985   -459.61324    36397.316 
  916000    303.41842   -1497.6082    467.55593    327.50118   -343.14217    36397.316 
  916100    298.29724   -1507.7193    446.12315    273.04411   -511.57861    36397.316 
  916200    295.77771   -1467.2194    455.35135    311.49934   -72.300427    36397.316 
  916300    304.94283   -1514.4059    453.39239    303.36045   -358.58745    36397.316 
  916400    302.12132   -1468.4838    462.86725     346.1334   -521.12697    36397.316 
  916500    306.39125   -1501.3503    459.35275    328.85693    81.435048    36397.316 
  916600    300.68459   -1487.6647     478.1664    335.82346   -271.89429    36397.316 
  916700    304.27561    -1484.583    457.44308    334.24879     101.3205    36397.316 
  916800    298.27252   -1477.0469    454.70975    312.19258    354.27853    36397.316 
  916900    303.33252   -1480.5154     459.0921    335.74579    207.05338    36397.316 
  917000    297.90228   -1488.0724    462.26626    307.06706    388.15867    36397.316 
  917100    294.47448   -1528.0468    457.39465    246.88433   -183.56691    36397.316 
  917200    303.39741   -1520.6866    450.11148    286.88435    148.13208    36397.316 
  917300    299.76824   -1508.7075    436.39167      268.906   0.10617044    36397.316 
  917400    302.11218   -1460.9804     461.9345    352.66319   -227.75886    36397.316 
  917500    298.68043   -1506.5403    457.53774    287.35219   -177.48918    36397.316 
  917600    299.14751   -1495.9317    454.47577    296.98865    67.267392    36397.316 
  917700    297.89615   -1477.1831    483.17935    338.84198    165.34984    36397.316 
  917800    305.58813   -1471.2223    468.80937    364.84822   -375.35499    36397.316 
  917900    295.15261   -1460.7535    443.49886    303.31598    235.71082    36397.316 
  918000    299.86412   -1479.6241     463.7887    325.81537   -114.41523    36397.316 
  918100     297.5865   -1424.8603    466.70548    373.30548   -493.86475    36397.316 
  918200    305.77538   -1461.9766    450.23221    356.35456   -587.12638    36397.316 
  918300    300.96208   -1456.8514    457.18978    346.90166   -124.74313    36397.316 
  918400    288.40744   -1452.5472    491.21748    329.06165   -237.78866    36397.316 
  918500    294.68503   -1404.1858    452.12402     366.4168    157.55959    36397.316 
  918600    305.72566    -1432.187    454.26457     389.9541    236.49225    36397.316 
  918700    302.28232   -1426.6926    491.78718    417.56486    19.134161    36397.316 
  918800    310.79285   -1423.8759    457.09434    423.76658    79.568181    36397.316 
  918900    294.61618   -1451.8428    455.75824    322.08595   -163.69254    36397.316 
  919000    298.14505   -1452.7441    459.40108    340.61633    111.14076    36397.316 
  919100    305.73499   -1458.9653    467.47561    376.42856   -180.16101    36397.316 
  919200    310.01969   -1478.4581    438.78066    347.41136   -175.04377    36397.316 
  919300     299.2002   -1431.5221    471.91833    379.07657    781.86085    36397.316 
  919400    296.33447   -1457.9431    463.27631    331.19165    268.42916    36397.316 
  919500    296.92051   -1457.7982    468.90926    339.59161   -148.00683    36397.316 
  919600    300.27605   -1473.3638    433.51061     303.6407   -121.29718    36397.316 
  919700    301.22826   -1442.1842    467.29976     372.8698   -186.07087    36397.316 
  919800    307.43427   -1461.8604    450.56986    364.23057   -20.676075    36397.316 
  919900    308.40179   -1400.0632     471.8988    451.68568   -211.15458    36397.316 
  920000    306.32098   -1409.2972    450.07385    411.31673   0.50990918    36397.316 
  920100    305.74965   -1403.1345    467.52961    432.37898    468.21696    36397.316 
  920200    293.62364   -1439.0601    460.89292    335.56254    60.730067    36397.316 
  920300    296.75886   -1434.1891    451.57185       345.14   -30.323638    36397.316 
  920400    310.08233   -1499.5162    462.77984    350.63272     195.1377    36397.316 
  920500    303.45562   -1471.0899    448.72873    335.35871    641.88482    36397.316 
  920600    291.25931   -1463.4833    455.73928    295.40722    67.084941    36397.316 
  920700    288.07527   -1488.6023    462.98486    263.28773    96.744642    36397.316 
  920800    310.43962   -1454.5677    449.62675    384.02678    808.22926    36397.316 
  920900    289.94726    -1441.842       468.69    324.12879    522.13456    36397.316 
  921000     294.5647    -1463.039    483.97085    338.87203    264.50291    36397.316 
  921100    296.85613   -1477.7495    434.91662    285.35963   -134.28788    36397.316 
  921200    295.56902   -1474.1312    449.88623    298.18866    413.70311    36397.316 
  921300    291.13259   -1466.7813    461.02117    296.82415     424.3397    36397.316 
  921400    304.05609   -1479.0196    486.14319    367.53009    266.87174    36397.316 
  921500    290.13721   -1479.0429    464.65579    283.74357   -258.48397    36397.316 
  921600     298.8632   -1451.2737    442.05043    327.94918   -771.44794    36397.316 
  921700    300.31487   -1433.2814    470.48141    380.86763   -209.14059    36397.316 
  921800    300.69119   -1491.6093    478.86823    332.61021    427.25093    36397.316 
  921900    294.29572   -1482.0565    419.81028     254.4905   -303.74981    36397.316 
  922000    295.26211   -1470.1468    462.94505     313.8588   -484.98077    36397.316 
  922100    296.68452   -1446.8003    431.76911    312.39347    -423.4487    36397.316 
  922200    289.26947   -1456.4775    466.52975    304.30057   -626.12996    36397.316 
  922300    297.22361   -1454.9677    449.29481    324.16377   -139.68106    36397.316 
  922400    302.09892   -1492.3266    467.04149    326.36459   -710.24192    36397.316 
  922500    291.77411   -1475.6796    454.16062    283.93558   -1028.7682    36397.316 
  922600    298.57184   -1464.7093    436.37784    307.53743   -822.25862    36397.316 
  922700    310.85955   -1475.3141    446.77238    362.30482   -497.53472    36397.316 
  922800    298.60304   -1437.8213    457.75343     355.9406   -591.92659    36397.316 
  922900    296.24427   -1472.0579    457.24136    310.63831   -325.02471    36397.316 
  923000    295.14211   -1491.9223    454.86483    283.46614   -3.6760589    36397.316 
  923100    281.96817   -1527.3276    461.69586    195.94906    603.49895    36397.316 
  923200    302.10856   -1530.3732    454.68646     276.0061   -165.01973    36397.316 
  923300    301.95212    -1494.864    442.12007    298.24904   -84.872767    36397.316 
  923400    307.45576   -1488.3467    439.74391    327.01453    162.01071    36397.316 
  923500    296.22451   -1522.4924    436.03207     238.9061   -651.51241    36397.316 
  923600     300.0569   -1496.8627    439.18669    284.83735   -419.95506    36397.316 
  923700    297.74497   -1488.9258    434.82867    278.07218   -483.43464    36397.316 
  923800    296.94314   -1445.4001    466.74606    349.92776   -558.18257    36397.316 
  923900    295.66784   -1451.0943    431.40176    303.18326   -454.40179    36397.316 
  924000    299.55326   -1489.9939    441.13488    291.40098   -297.18016    36397.316 
  924100     299.4092   -1454.8564    452.12918    336.88816     248.8029    36397.316 
  924200    300.53592   -1493.8036    446.58376    297.43676    184.50947    36397.316 
  924300     305.7782    -1461.441    459.10008    365.77064    256.15384    36397.316 
  924400    309.03946   -1473.4302    477.49579    386.76863    358.29318    36397.316 
  924500    300.56899   -1488.5403    464.39368    320.65794   -12.010346    36397.316 
  924600    311.63759   -1472.2817    450.88963    372.93553   -25.689733    36397.316 
  924700    296.76772   -1454.4719    442.59042     315.9154   -817.26197    36397.316 
  924800     296.5027   -1479.2808    458.27033    305.60071   -596.20532    36397.316 
  924900    307.16951    -1468.912    451.15935    356.58391   -339.83139    36397.316 
  925000    294.51621     -1449.33    455.42535    323.81858   -574.96599    36397.316 
  925100    301.46778   -1414.9882     448.8819    382.71965   -38.761284    36397.316 
  925200    299.89984   -1469.8001     478.4207     350.4312    139.41849    36397.316 
  925300     289.7108   -1490.4971    479.19104    284.91681   -110.17569    36397.316 
  925400     293.7154   -1468.8298    454.05846    299.36886    176.76133    36397.316 
  925500    296.41736   -1433.4921    438.82093    331.55819    216.32665    36397.316 
  925600    293.23276   -1456.6856    456.37962    311.67485    27.172811    36397.316 
  925700    309.16685   -1460.9541    496.22975    418.54872    -77.00823    36397.316 
  925800    303.09707   -1436.0235    442.13503    362.22725    -437.9405    36397.316 
  925900    298.13748   -1418.1281    458.10783    373.90522   0.82908611    36397.316 
  926000    301.57905   -1442.8242    454.51662    361.01615   -475.63565    36397.316 
  926100    308.69485   -1440.6809    464.08679    404.56706   -741.84758    36397.316 
  926200     303.7113   -1476.3141    465.00761    347.55736   -116.95258    36397.316 
  926300    299.55476   -1456.4426    439.47826    323.30231   -512.40212    36397.316 
  926400    309.18216   -1421.3985    479.83352    441.77659   -518.20008    36397.316 
  926500    314.17471   -1438.4466    451.24075    418.47339   -591.97052    36397.316 
  926600    296.02161    -1426.347    457.52467    355.63632    -560.3222    36397.316 
  926700    295.19406   -1415.2575    454.16866    359.66725   -921.64814    36397.316 
  926800    294.45901   -1426.2409    476.39226    367.61862   -836.38047    36397.316 
  926900     308.7937    -1488.266    443.71396    337.05148   -162.56802    36397.316 
  927000    302.04061   -1476.3159     457.6228    332.69575    401.42658    36397.316 
  927100    304.27174   -1458.1479    486.50743    389.73094   -17.207516    36397.316 
  927200    311.37308   -1484.4131     460.8092    369.54024    364.42928    36397.316 
  927300    296.46907   -1472.1197    462.91808    317.25913    197.26688    36397.316 
  927400    288.63484   -1465.7148    460.51206    286.20606     160.2981    36397.316 
  927500    300.49086   -1471.7666    464.58429    337.27272     124.7785    36397.316 
  927600    298.94953   -1503.4629    471.80918    305.90508   -261.32389    36397.316 
  927700    311.56196   -1496.6162    457.56654    354.93957    480.76797    36397.316 
  927800    304.13938   -1494.1249    449.25704    315.91125   -141.40815    36397.316 
  927900     302.0707   -1525.2913    451.23608    277.46826   -471.79035    36397.316 
  928000    288.41593   -1510.4182    442.16899    222.18014    93.438356    36397.316 
  928100    309.06667   -1518.6943    467.94608     332.0766   -205.34769    36397.316 
  928200    302.02614   -1501.5888    446.38384    296.11918    148.45468    36397.316 
  928300     293.4413   -1485.2146    447.65162    275.35092   -342.75134    36397.316 
  928400    291.23915   -1516.1291    485.53734    272.46925    10.452812    36397.316 
  928500    307.21818   -1539.0167    431.80435    267.34194    686.59297    36397.316 
  928600    296.40581   -1532.8029    461.08199    254.45674    366.46709    36397.316 
  928700    293.92719   -1523.5097    460.28542    251.86357    622.51349    36397.316 
  928800    304.02754   -1469.6475    448.15707    338.78839    719.53071    36397.316 
  928900    304.00871   -1504.6962     441.7563     297.2546    233.61015    36397.316 
  929000    303.78553   -1497.5386    461.00312    322.66047   -69.137873    36397.316 
  929100    294.78287   -1491.3062    438.36464    265.97471    102.98941    36397.316 
  929200    295.72901   -1489.6724    467.21937    300.69651   -511.20221    36397.316 
  929300    296.52226   -1473.6476    491.05621     344.1073   -297.57321    36397.316 
  929400    297.85041    -1449.008    475.96584    359.59887    152.37814    36397.316 
  929500    309.31422   -1468.3403     450.5408    366.13289    98.105066    36397.316 
  929600    298.96411   -1461.6448    452.38115    328.36033   -217.28059    36397.316 
  929700    302.61064   -1478.7068     475.0639    350.29637   -106.72253    36397.316 
  929800    316.61147   -1530.4786    450.45478     336.5579     -213.749    36397.316 
  929900    297.69817    -1522.727    453.80735    263.04031   -111.08474    36397.316 
  930000    297.19674   -1515.7361    485.64878    299.62908     76.65129    36397.316 
  930100    287.93892    -1505.292    477.78941    260.79256     212.5418    36397.316 
  930200    306.99413   -1492.2552    455.37489    336.67162    293.77814    36397.316 
  930300    297.99821   -1483.1976    484.94384    335.04861    851.39192    36397.316 
  930400    296.59474   -1497.2624    489.06713    318.82765     26.67751    36397.316 
  930500    303.74516   -1462.7166    464.93352    361.23231    116.72332    36397.316 
  930600    295.85289   -1466.3301    462.54825    319.92193   -179.10579    36397.316 
  930700    294.86997   -1460.0526    497.53797    356.79135   -255.83092    36397.316 
  930800    301.47122   -1448.2455    473.50628    374.10207   -160.59491    36397.316 
  930900    295.70318   -1455.3148    497.05027    364.76943   -384.71314    36397.316 
  931000    302.91758   -1442.1554    468.59285       381.75   -347.84165    36397.316 
  931100     295.7309   -1462.9066    465.03358    325.28493    -310.1882    36397.316 
  931200    308.50985   -1515.7161    454.62425    319.24164   -750.29741    36397.316 
  931300    307.68315   -1536.6737    471.50456    311.46552   -184.14409    36397.316 
  931400    306.16687   -1488.1737    458.83749    340.51433    82.740289    36397.316 
  931500      308.946   -1481.9166    471.70481     372.0731    262.09478    36397.316 
  931600    294.69674   -1479.5102    453.52464     292.5454     11.53258    36397.316 
  931700    298.74774   -1495.2294    456.11049    297.53703    133.56735    36397.316 
  931800    310.49108   -1511.6355    468.53386    346.09625   -249.56279    36397.316 
  931900    303.81501   -1446.3566    471.91625    384.88748   -598.80455    36397.316 
  932000    308.20738   -1501.2643     463.4857    341.20157   -88.301536    36397.316 
  932100    303.17865   -1512.0872    461.13149      305.525   -13.297234    36397.316 
  932200     302.8115    -1519.845    470.24236    305.23531    380.03876    36397.316 
  932300    305.00497    -1551.783    449.72791    262.59688    255.89494    36397.316 
  932400    299.38809   -1517.3021    448.39297    270.61178    309.25976    36397.316 
  932500    299.49355   -1510.5881    477.88356    307.28827   -45.771813    36397.316 
  932600    302.12204   -1487.7487    456.83415    320.83861   -9.3431044    36397.316 
  932700    304.09154   -1477.3956    460.53167    343.70124    344.21923    36397.316 
  932800    291.56606   -1459.4253    473.29268    318.39104     346.4696    36397.316 
  932900    294.81852   -1462.7323    465.52755    321.87106    231.80876    36397.316 
  933000    297.92234   -1463.2888    476.83738    346.51144   -313.56545    36397.316 
  933100    299.16326   -1491.4622    450.03008    297.08296   -237.80665    36397.316 
  933200     308.9039   -1501.7061    460.38646    340.77691   -614.00061    36397.316 
  933300    306.64835   -1490.4841     423.7152    305.23591   -88.722805    36397.316 
  933400    307.58058   -1479.2041    477.67483    374.64657   -362.36565    36397.316 
  933500    298.08632   -1496.6811    453.94079    290.95622   -534.54986    36397.316 
  933600    307.75975   -1482.2459    453.52962    348.26109    32.009471    36397.316 
  933700    298.48263    -1493.355    458.36812    300.48282   -38.796674    36397.316 
  933800    309.05913    -1423.064    491.66175    451.38884   -87.711414    36397.316 
  933900     307.1151   -1456.4769    446.92304    364.53927    166.34917    36397.316 
  934000    296.07632   -1408.3439    443.20182    359.56142   -68.195201    36397.316 
  934100    296.09933    -1451.268    464.53025    338.06863   -526.68247    36397.316 
  934200    295.83147    -1460.231    467.65502    331.03199    341.89877    36397.316 
  934300    298.81345   -1489.9491    487.27112    334.27189    -94.61191    36397.316 
  934400    308.91029   -1459.1218    463.10404    386.10743    26.380738    36397.316 
  934500     279.3794   -1459.9417    461.45883    251.51531   -402.76748    36397.316 
  934600    296.63184   -1502.7126    458.97366    283.45001   -992.01738    36397.316 
  934700    292.83778   -1491.1938    457.42653    276.44627   -400.77412    36397.316 
  934800    292.78979   -1447.2585    465.37865    328.11906   -42.800028    36397.316 
  934900     308.7962   -1452.5269    463.95755    393.04532    131.76721    36397.316 
  935000    304.02531   -1412.2701    470.44606    418.44478   -252.51087    36397.316 
  935100    302.82664   -1495.4702    463.73793    323.17345   -663.20778    36397.316 
  935200    299.84387   -1505.8939    472.39268    308.05902   -791.94102    36397.316 
  935300    307.34996   -1486.2888    451.60524    340.46039   -241.64318    36397.316 
  935400    284.56513   -1469.5491    468.84013    272.49118   -471.88664    36397.316 
  935500    295.56128   -1471.5963    462.64728    313.45006   -459.74615    36397.316 
  935600    297.69502   -1459.5738    458.81895    331.19099    -489.0052    36397.316 
  935700    304.27419   -1480.2386    466.99629    348.14007   -218.64386    36397.316 
  935800    298.63061   -1519.6129    443.62349    260.14244   -581.39906    36397.316 
  935900    297.73556   -1507.3661    447.19905    271.96016   -774.58878    36397.316 
  936000    300.11509   -1539.1928    457.83967    261.42059   -14.299767    36397.316 
  936100     307.2418   -1576.4366    440.87377    239.09712    446.50185    36397.316 
  936200    295.38255   -1511.0584    455.65607    266.19701   -44.608283    36397.316 
  936300    305.41294    -1531.612     439.0594    273.92474   -76.159129    36397.316 
  936400    294.70028   -1474.1054    476.45977    320.90118    257.95379    36397.316 
  936500     296.2188   -1449.8291    473.13668    348.64856     221.6162    36397.316 
  936600    293.04725   -1475.8332    459.36068    294.67823   -175.03217    36397.316 
  936700    302.10449   -1468.9243    468.02357    350.77389   -130.27923    36397.316 
  936800    312.48617   -1461.8853     468.9333    405.17228   -328.46629    36397.316 
  936900    290.72209   -1496.0775    431.79152     236.4616   -76.900826    36397.316 
  937000    299.72581   -1479.9458    480.83154    341.91774   -219.72501    36397.316 
  937100    306.23684   -1499.2122    445.78715    316.73856    300.71913    36397.316 
  937200    292.99435   -1511.8195    464.78716    263.88179    140.90654    36397.316 
  937300     291.9302   -1498.1112    457.07542    265.11717    390.87847    36397.316 
  937400    296.24014   -1502.7612    448.59845    271.27363   -166.60672    36397.316 
  937500    294.95787   -1530.2061    453.20419    242.69737    307.95658    36397.316 
  937600     304.1453   -1506.1901    453.47226    308.08784    113.43395    36397.316 
  937700    308.08703   -1502.9494    460.81044    336.30274   -269.94221    36397.316 
  937800    302.15201   -1505.4497    450.84223    297.27983   -501.77854    36397.316 
  937900     297.1449   -1533.5835     449.8842    245.78524   -375.77112    36397.316 
  938000    298.77585    -1538.336    465.13107     263.5768   -213.94303    36397.316 
  938100    298.12319   -1511.6494    430.05214    252.26428    293.72131    36397.316 
  938200    303.36832   -1507.3441    480.49565    330.48086    841.72138    36397.316 
  938300     298.4614   -1498.0327    430.27164    267.61377    101.49155    36397.316 
  938400    305.24529   -1423.9034    460.18519    402.00903    745.95787    36397.316 
  938500    294.47223   -1481.6006    480.21297    316.13884    503.59307    36397.316 
  938600    309.45521   -1507.9784    446.84092    323.42578    399.79753    36397.316 
  938700    297.85609   -1513.3856    451.56128    270.84222   -129.67298    36397.316 
  938800     289.4335   -1454.4699    453.86126    294.37353   -639.89738    36397.316 
  938900    307.02587   -1486.6527    442.73542    329.77666   -771.85152    36397.316 
  939000    295.26752   -1476.5234    460.52056    305.08191   -1102.9408    36397.316 
  939100    310.42589   -1454.9664    462.96666    396.90646    10.065766    36397.316 
  939200    296.89109   -1478.2456    462.69854    312.80186   -537.49268    36397.316 
  939300    298.39679   -1481.5726    452.85494    306.36806   -478.51452    36397.316 
  939400    297.97837   -1507.6691    464.89919    290.44371   -454.15401    36397.316 
  939500    297.72162    -1513.966    436.83462     254.9335   -547.26883    36397.316 
  939600    297.29401    -1546.889    448.47659    231.73922   -404.35355    36397.316 
  939700    292.04276   -1526.5219    468.67228    248.80686   -293.86065    36397.316 
  939800    295.91182     -1539.52    440.19162    224.63912   -344.13472    36397.316 
  939900    297.19071   -1515.8226    449.06942    262.93627    -727.4673    36397.316 
  940000    295.96926   -1531.4539    446.08946    238.86003   -378.94211    36397.316 
  940100    298.45786   -1537.8499    425.31389    222.82287   -473.77311    36397.316 
  940200    301.40485   -1474.3875    471.83705    345.99391     183.0644    36397.316 
  940300    296.25283   -1519.8652    423.79409    229.42205    240.79025    36397.316 
  940400    300.87072   -1530.1246    463.10067    279.13062    307.30927    36397.316 
  940500    299.64598   -1478.8675    466.00057    327.80784     968.6815    36397.316 
  940600    303.79742   -1511.8281    471.76082    319.18187    727.56013    36397.316 
  940700    304.05762   -1473.1412    466.79225     354.0644    827.50114    36397.316 
  940800    290.01586   -1509.8296    461.99698    249.75518   -5.8235598    36397.316 
  940900    304.38172   -1491.9797    470.26603    340.14971   -685.30791    36397.316 
  941000    293.44784   -1539.4796    479.53138    252.99493   -465.78884    36397.316 
  941100     299.7776   -1536.1392    450.31504    255.43952   -107.98071    36397.316 
  941200    306.77394   -1523.4698    457.81194    306.90883    143.27702    36397.316 
  941300    307.72607   -1507.5016    489.32767    358.65282    494.40682    36397.316 
  941400    297.93798   -1494.9096    462.09223    300.21553     242.8239    36397.316 
  941500    296.68432   -1552.9973    455.80426     230.2307   -7.7469124    36397.316 
  941600    297.81535   -1516.8832    464.92527    280.52629    66.535216    36397.316 
  941700    302.86665   -1473.4426    459.77308    341.41523    178.36447    36397.316 
  941800    302.37781   -1483.4258    482.23444    351.70615    117.53091    36397.316 
  941900    301.31011   -1484.5592    446.62055    310.18177    151.79612    36397.316 
  942000     302.2281   -1512.5617    475.52786    315.19384    195.45029    36397.316 
  942100    301.15523   -1496.0383    492.02422    343.41342    224.72185    36397.316 
  942200    296.96491   -1510.7024    471.60067    289.57744     472.2088    36397.316 
  942300    289.28662   -1513.3417     489.7687    270.75206     378.6212    36397.316 
  942400    298.74718    -1548.268      459.481    247.86637   -32.177248    36397.316 
  942500    295.18211   -1495.1992    477.62536    303.12873    351.88495    36397.316 
  942600    298.65046   -1524.6911    480.40308    291.93269    165.87502    36397.316 
  942700    298.00677   -1460.7741    458.15687    330.72345    124.43538    36397.316 
  942800    298.37632   -1547.6884     459.1714    246.47706    262.20954    36397.316 
  942900    298.76136    -1505.165    440.16075    271.71265    123.86012    36397.316 
  943000    298.57177   -1518.4787    452.50278    269.89265   -435.16765    36397.316 
  943100    290.52605    -1492.261    459.09594    266.70544   -837.13158    36397.316 
  943200    295.20727   -1499.5263     468.9168    290.20568   -766.71757    36397.316 
  943300    299.11028    -1475.617     463.2006    325.86154   -735.76787    36397.316 
  943400    297.15934    -1460.707    459.09573    327.93784   -818.74404    36397.316 
  943500    300.41347    -1447.111    502.70383    399.70152   -228.96228    36397.316 
  943600    296.62891   -1519.2051    466.37873    274.34943   -38.111522    36397.316 
  943700    306.13712    -1547.742    467.60437     289.5798    188.92963    36397.316 
  943800    300.93479   -1530.5332    471.52816    287.43612   -63.267604    36397.316 
  943900    307.07924   -1561.3609    449.55455    262.12639   -730.18519    36397.316 
  944000    306.75175   -1531.8191    466.53106    307.17943    379.81301    36397.316 
  944100      302.215   -1488.1319    504.76109    368.79827    105.36635    36397.316 
  944200     303.4903   -1506.5154    473.54955    324.90922   -359.19668    36397.316 
  944300    301.10341   -1510.1739    434.56693    271.58866    393.42482    36397.316 
  944400    301.37502   -1513.9337     453.7466     288.2238    474.89714    36397.316 
  944500    294.44932   -1539.6547    459.61336    237.38255   -63.491206    36397.316 
  944600     298.1234   -1508.1843    457.43236    283.11052    287.54378    36397.316 
  944700    288.71923   -1507.9168    475.86256    259.73216    37.984453    36397.316 
  944800    294.59828   -1521.0296    488.16895    285.22975    652.77556    36397.316 
  944900    306.70492   -1512.1057    460.54583    320.69802    16.544464    36397.316 
  945000    300.71804   -1520.3503     472.1282     297.2493    343.30092    36397.316 
  945100    307.00671   -1514.7677     480.6231    339.46355    141.00187    36397.316 
  945200    306.81418   -1502.9045    449.46964    319.31189    173.48757    36397.316 
  945300    308.99614   -1499.0429    457.99557    341.46197    8.5056083    36397.316 
  945400    302.43202   -1463.8781    494.48999    383.75194    242.23522    36397.316 
  945500    306.91295   -1454.0188    479.92601    399.09589    1048.8737    36397.316 
  945600    305.61426   -1470.3933      485.421    382.40575    238.40895    36397.316 
  945700    290.34809   -1474.4994    491.56136    316.13617    253.31112    36397.316 
  945800    305.90552   -1509.8096    487.31218    346.18381    209.71862    36397.316 
  945900    300.22817   -1538.6175    483.52486      288.187    350.98922    36397.316 
  946000    296.19363   -1523.1533    439.15096    241.22598   -421.62012    36397.316 
  946100    305.30849   -1505.0988    463.48828    324.39944   -380.26835    36397.316 
  946200    303.67849   -1512.6963    450.15086    296.17165   -47.114328    36397.316 
  946300    304.43645    -1464.029    465.65731    363.73662   -404.51349    36397.316 
  946400    290.05967   -1478.7472    475.23074    294.26729    150.92082    36397.316 
  946500    300.84064   -1494.4598    464.14221    315.70241    68.034785    36397.316 
  946600    300.11459   -1522.1394    462.65461    283.28663    494.25203    36397.316 
  946700    291.36064      -1516.3    471.65795    258.96255    399.49666    36397.316 
  946800    292.07616   -1528.7193    465.79382     243.8805    631.66475    36397.316 
  946900    296.35294   -1531.6903    457.27743    251.52822    517.07736    36397.316 
  947000    309.36916    -1558.773    464.56221    289.96737     214.3029    36397.316 
  947100    299.82075   -1607.0255    456.83986    191.27111    212.48705    36397.316 
  947200    297.19615   -1543.3606    477.39411    263.74734     584.4794    36397.316 
  947300    310.35156   -1492.7779    479.91744    375.71317    183.57659    36397.316 
  947400    308.27768   -1476.1489    482.84576    385.99155   -117.50878    36397.316 
  947500    300.26917   -1464.5009    466.38098    345.34314   -125.68011    36397.316 
  947600    299.79487    -1497.029    475.45615    319.76806   -820.40922    36397.316 
  947700    296.72665   -1476.9383      438.454    289.12881   -724.88883    36397.316 
  947800    305.87551   -1481.3851    463.98626    351.14808    90.851757    36397.316 
  947900    308.05279   -1517.7754    459.54277    320.05592    78.155123    36397.316 
  948000    294.77959   -1534.1224    454.43613    239.21535    151.97638    36397.316 
  948100    298.77142   -1543.9945    456.76377    249.53113     182.4216    36397.316 
  948200     302.9642   -1569.0518    476.26086     262.7302    58.674338    36397.316 
  948300    310.65229   -1559.7737    458.21468    288.36013    922.81507    36397.316 
  948400    293.88376   -1552.9823    461.11578    223.02696    663.11139    36397.316 
  948500    302.93659   -1545.3459    452.22108     262.2728    518.57654    36397.316 
  948600    299.26267   -1533.8363    438.97227    244.09571    133.51742    36397.316 
  948700    294.99564   -1511.7903    462.52985    270.60786    155.45705    36397.316 
  948800    306.42235   -1560.6123    448.27408    258.65537   -353.46537    36397.316 
  948900    300.87971    -1549.186    455.42413    252.43291   -532.87657    36397.316 
  949000    304.84244   -1549.8038    478.50104    292.62207    9.5548714    36397.316 
  949100    293.93146   -1523.3673    474.66317    266.40286    355.65346    36397.316 
  949200      296.993   -1557.6791    459.84503    230.97082   -211.84179    36397.316 
  949300    310.55162   -1557.3926    472.42483    304.50098    321.84437    36397.316 
  949400    308.02093    -1573.186     459.3079    264.26789   -88.091315    36397.316 
  949500    304.44646   -1530.4517    472.81405    304.51545    248.82925    36397.316 
  949600     299.6419   -1559.8871    457.71964    238.48911     112.1599    36397.316 
  949700    297.49604   -1549.3524    456.27652    237.97967   -82.168848    36397.316 
  949800    308.98711   -1564.6977    477.43617    295.20727    803.93712    36397.316 
  949900    297.56299   -1558.3688    458.89729    231.88355    100.86784    36397.316 
  950000    294.46936   -1570.3508     461.8281    208.99086    153.42026    36397.316 
  950100    309.56133   -1562.3793    468.38802    291.04673    125.07469    36397.316 
  950200    303.30968   -1553.2362    432.90053     236.7313   -168.14367    36397.316 
  950300    299.20944   -1525.9992    448.48912    261.21155    223.72704    36397.316 
  950400    301.40908   -1541.9894    463.40548    269.97932    192.43035    36397.316 
  950500    302.20601   -1530.9373    479.98197    301.17355    154.80696    36397.316 
  950600     303.2078   -1545.3216    468.09189    279.38141    142.16945    36397.316 
  950700    312.99521   -1568.1816    467.02137    299.24164   -182.43497    36397.316 
  950800    303.72828   -1530.7841    469.51887     297.6746    223.02328    36397.316 
  950900     297.4966   -1530.8721    490.99767    291.18361    477.21656    36397.316 
  951000    293.59221   -1541.1763    471.82472    244.23746    263.61107    36397.316 
  951100     302.9643   -1498.0699    487.36907    344.82078    14.238207    36397.316 
  951200    307.57291   -1520.8503    463.72936    319.02045   -71.150729    36397.316 
  951300    299.45184   -1568.8016    450.39302    221.39764    -533.9542    36397.316 
  951400    305.86859   -1568.0506    469.31911    269.78453   -511.13362    36397.316 
  951500    310.91521   -1548.0964     459.5031    302.50227   -101.40435    36397.316 
  951600    302.52697   -1525.1805    455.39798    283.78238   -973.43532    36397.316 
  951700    304.22792   -1529.6457    441.91291    273.44257   -501.19805    36397.316 
  951800    296.03521   -1555.1781    479.42403     248.7655   -248.71182    36397.316 
  951900    301.54023   -1568.8702    476.70598    256.98586    112.34514    36397.316 
  952000     295.2782   -1615.8671    442.11109    147.37647   -18.796174    36397.316 
  952100    297.89934   -1573.8978    471.19047    230.15269   -177.19201    36397.316 
  952200    299.85116   -1550.3986    473.68234    264.87653   -257.67121    36397.316 
  952300    305.56934   -1566.2595    464.22787    265.14543    52.329978    36397.316 
  952400    299.09911   -1562.8284    446.19497    221.59458   -480.88011    36397.316 
  952500    295.85539   -1527.4384    458.69485    254.97136   -354.78928    36397.316 
  952600    297.78583   -1547.0369    450.55897    235.87417   -436.00854    36397.316 
  952700     296.7784    -1580.398    467.63018    215.07688   -355.74747    36397.316 
  952800    296.82704    -1582.527    454.53644    200.07176   -188.90709    36397.316 
  952900    291.91442   -1606.0707    443.56565    143.57728   -41.209451    36397.316 
  953000    299.85437   -1548.8629      446.887    239.63131   -463.19515    36397.316 
  953100    303.63588   -1545.2611    471.09476     284.3601    13.825862    36397.316 
  953200    304.34009   -1524.0243    459.81472     297.4676   -73.698394    36397.316 
  953300    285.55834   -1557.3016    472.38311    192.72545   -10.715969    36397.316 
  953400    308.18644   -1542.7505    476.74321    312.87924    519.70926    36397.316 
  953500    300.11799   -1524.3997    474.67205    293.05905    233.79633    36397.316 
  953600    298.43199   -1519.6331    465.16191    280.77195    254.47618    36397.316 
  953700    297.22595   -1512.2657    470.47464    288.05608    37.710761    36397.316 
  953800    292.68033   -1544.0076    444.52841    210.02997    116.91366    36397.316 
  953900     298.2584    -1512.593    468.58143    290.45495    32.234802    36397.316 
  954000    291.05675   -1497.6978    475.83452    280.38166    90.412373    36397.316 
  954100    298.41024   -1533.1582     461.2109    263.19853    -250.8605    36397.316 
  954200    300.69797   -1541.2041    448.88967    253.06724    167.66182    36397.316 
  954300     300.6028   -1514.4432    465.32355     295.8361   -278.68816    36397.316 
  954400    302.82825   -1521.2116    452.34439     286.0457    95.856492    36397.316 
  954500     300.4328   -1502.9655    470.64764    311.87732    232.04066    36397.316 
  954600    303.62002   -1500.8256    469.64732    327.27715   -67.771414    36397.316 
  954700    301.43302   -1507.6111    465.69893     306.7582     -93.0455    36397.316 
  954800    307.46839   -1530.5585    475.27054    320.38587   -1.2376707    36397.316 
  954900    301.35254   -1501.0428    466.49629    313.76375    264.90789    36397.316 
  955000    296.31032   -1522.0046    470.39844    274.14422    394.28487    36397.316 
  955100    307.64528    -1522.132    468.34658    322.67989    1065.3792    36397.316 
  955200    288.17548   -1510.5785    486.41193    265.18693    1292.8592    36397.316 
  955300    302.34811    -1454.952    481.39309    379.20574    1001.4411    36397.316 
  955400    297.45855    -1467.492    494.34817    357.74395    966.52083    36397.316 
  955500    301.13098   -1475.0121    471.54701    343.85393    299.28317    36397.316 
  955600    301.17637   -1513.0981    456.01387     290.4379   -130.76447    36397.316 
  955700    302.26459   -1500.6338    477.97104    329.72827    285.77575    36397.316 
  955800    294.76626   -1476.6622    473.04236    315.22211   -158.98102    36397.316 
  955900    300.40449   -1497.0629    454.29383     301.2995    304.20523    36397.316 
  956000    302.90847   -1528.9451    503.48214    329.80891   -9.6556213    36397.316 
  956100    293.30587   -1478.4681    446.74661    280.58644     -264.895    36397.316 
  956200    308.93132   -1495.8789    488.38052    374.72083   -696.91187    36397.316 
  956300    295.15393   -1480.9244    477.76648    317.41861   -480.84232    36397.316 
  956400    307.88429   -1497.1028    482.86355    363.29542   -838.70164    36397.316 
  956500    292.65919   -1495.9706     478.0132    291.45713   -871.78394    36397.316 
  956600     291.9035   -1493.4013    465.41337     278.0455   -399.34459    36397.316 
  956700    294.44505   -1492.5929     470.8316    295.64357   -699.24269    36397.316 
  956800    292.48145   -1472.1179    514.33603    350.83738   -527.81022    36397.316 
  956900    303.62833   -1475.9753    435.17866    317.69602     101.8883    36397.316 
  957000    305.27583    -1506.134    487.99843    347.72832    171.71244    36397.316 
  957100     289.4969   -1499.7606    462.77966    258.28493   -484.80685    36397.316 
  957200     297.4805   -1486.6844    494.42076     338.7224   -63.764776    36397.316 
  957300    302.77443    -1488.808    451.72494      317.589    188.74786    36397.316 
  957400    295.34655   -1446.7802     458.9499    333.60796    600.39216    36397.316 
  957500    304.78674    -1482.079    484.99703    366.59363    199.44464    36397.316 
  957600    296.71275   -1518.1637    456.25346    265.64074    9.0273018    36397.316 
  957700     297.2101   -1508.2306    458.84311    280.38873   -305.66189    36397.316 
  957800    302.07063   -1483.0432    518.25517    386.73511    93.813001    36397.316 
  957900    294.47078   -1472.2765     452.0621    297.30557   -531.94708    36397.316 
  958000    295.50289   -1450.6797    450.07902     321.5371   -769.76263    36397.316 
  958100    304.44578   -1442.0534    466.79219    386.88887   -404.28629    36397.316 
  958200    254.50193   -1448.9833    451.98712    141.69527   -929.27427    36397.316 
  958300     299.5406   -1434.7237    482.11314    387.59278   -582.07158    36397.316 
  958400    307.22519   -1451.4389    465.04493    388.19171    245.23506    36397.316 
  958500    294.18863   -1452.7284    486.44559    349.97471   -189.61331    36397.316 
  958600    314.45231   -1449.7999    477.29182    434.41314    452.28092    36397.316 
  958700    304.23713   -1477.1701    473.58599    357.63242    79.524836    36397.316 
  958800     308.6395   -1471.5093    450.16329    359.56753    -188.5571    36397.316 
  958900     306.2316   -1459.0516    458.14545    369.23398     65.20848    36397.316 
  959000    297.90855   -1449.2893    462.81533    346.42724   -190.00257    36397.316 
  959100    295.91729   -1444.8085    474.77988    353.96331   -382.32082    36397.316 
  959200    298.30929   -1473.5022    453.03258    314.22459    492.45351    36397.316 
  959300    290.81911   -1450.2636    486.15566    337.07374   -115.32646    36397.316 
  959400    295.07767     -1476.73    457.51586    301.02111   -588.10023    36397.316 
  959500    299.19778   -1460.5657    470.17173     348.2755    19.967707    36397.316 
  959600    300.14173   -1460.8776    462.88457    344.89984   -106.45238    36397.316 
  959700    288.16694   -1510.8154    446.00841    224.50834   -439.35113    36397.316 
  959800    301.69915   -1534.3982    455.93576    271.39864    126.29054    36397.316 
  959900    302.53937    -1509.069    469.62146    314.17289   -104.43714    36397.316 
  960000    296.37652   -1516.9324    451.59044    260.70468   -257.19284    36397.316 
  960100    296.84065   -1477.6896    468.24197    318.67561     352.4881    36397.316 
  960200    303.49583   -1505.1281    467.53268    320.30437    203.37452    36397.316 
  960300    295.74456   -1484.8049    464.20817    302.62236   -470.59394    36397.316 
  960400    292.30836   -1502.6683    450.78235    255.95895   -710.57747    36397.316 
  960500    296.33268   -1472.0445    483.48948    337.29542   -211.68029    36397.316 
  960600    296.54005   -1504.1472    466.85582    289.48687   -21.237929    36397.316 
  960700    292.09615   -1502.1165    461.88442    266.66337    77.296845    36397.316 
  960800    304.51794    -1527.038    453.40541    288.84034    264.62305    36397.316 
  960900    304.40306   -1469.8337    454.74733    346.87255    401.17642    36397.316 
  961000    301.67958   -1538.3545    458.57884    269.99791    704.12232    36397.316 
  961100    298.21156   -1504.7881    438.66829     268.1371    548.52063    36397.316 
  961200    296.30539   -1460.6105    458.13731    323.25516    13.986492    36397.316 
  961300    310.93984   -1461.1225    467.81764    397.90087   -240.62675    36397.316 
  961400    305.75236    -1519.454    462.86268    311.40465   -163.20988    36397.316 
  961500    306.20831   -1486.0834    455.20215    339.15474   -259.23508    36397.316 
  961600    304.07691   -1465.4373    467.16446    362.22682   -385.43766    36397.316 
  961700    289.76198   -1491.6259    462.61758    267.44353   -416.42168    36397.316 
  961800    294.97466    -1511.274    461.42949    269.92984   -223.29604    36397.316 
  961900    298.61786   -1479.7156    451.08783    307.44707   -503.21668    36397.316 
  962000    301.71432   -1480.3123    455.41103    325.02769   -557.29761    36397.316 
  962100     297.7504    -1477.693    456.26989    310.77052    -684.3187    36397.316 
  962200    296.59284   -1513.2909    462.78569    276.50926   -126.11298    36397.316 
  962300    304.39585   -1517.6227    462.33925    306.64324    -194.4074    36397.316 
  962400    293.86592   -1480.4149    453.32082    287.71962   -227.66146    36397.316 
  962500    308.47645   -1459.8169    462.50284    382.86999   -363.16173    36397.316 
  962600    306.16926   -1472.1462    460.31967    358.03465   -231.66914    36397.316 
  962700     297.9817   -1517.8319    457.77026    273.16682    -888.9277    36397.316 
  962800    288.47606   -1524.7395    464.73206    230.69099   -508.54307    36397.316 
  962900    296.39894   -1517.8785    452.74936    261.01782   -317.19649    36397.316 
  963000    295.50566   -1502.0407    492.70316     312.8127    -279.9857    36397.316 
  963100    299.58583   -1458.6041    456.61825    338.41986   -240.12977    36397.316 
  963200    297.24071   -1482.4152    435.29151    282.78947   -73.143266    36397.316 
  963300      285.307   -1485.3448    470.80603    261.98058   -614.94009    36397.316 
  963400    307.05737    -1449.059     491.9547    416.73056    -92.35761    36397.316 
  963500    292.42428   -1477.6089    459.57783    290.33245    -498.4631    36397.316 
  963600     306.0329   -1488.9469    470.63572    350.93992   -120.60659    36397.316 
  963700    299.74111   -1466.4234    458.19219    332.86924   -525.07942    36397.316 
  963800    307.73873   -1435.4582    478.10987    419.53507   -282.73081    36397.316 
  963900    300.34013   -1449.4673    460.29412    354.60742   -462.55432    36397.316 
  964000    296.74636   -1448.7124    438.37623    317.36511   -185.86721    36397.316 
  964100    295.01157   -1463.6603    439.45584    295.73508    43.380819    36397.316 
  964200    300.04337   -1432.0975    470.42539    380.78067    105.62356    36397.316 
  964300    296.69422   -1453.0129    455.84934    330.30448    801.10139    36397.316 
  964400    312.40737   -1426.6561    473.70215    444.81786    582.23584    36397.316 
  964500    306.00918   -1487.6633    457.67224    339.15392    361.80685    36397.316 
  964600    303.82351   -1468.7978    459.92574    350.49384    152.33289    36397.316 
  964700    294.32008   -1474.6355    479.11874    321.32893    272.48683    36397.316 
  964800    309.91622   -1468.0327    468.26139    386.85452    471.20347    36397.316 
  964900    293.01654   -1474.0371    456.17843    293.15472   -234.44673    36397.316 
  965000     294.9683   -1439.8276    490.13635    370.05471    432.04552    36397.316 
  965100    299.46856   -1484.0702    472.96436     328.7751   -78.653852    36397.316 
  965200    307.37341   -1486.1515    461.06702    350.16437    36.012817    36397.316 
  965300    284.73136   -1469.5441    476.32063     280.7204   -118.56739    36397.316 
  965400    293.44277   -1460.4604    459.60839    312.06841    451.47398    36397.316 
  965500    302.44434   -1467.3896    458.68616    344.49179    346.82445    36397.316 
  965600    294.78957   -1474.3741    455.73214    300.30438   -31.852312    36397.316 
  965700    304.85559   -1452.1602    480.36361    392.18698    331.34152    36397.316 
  965800    296.22627   -1487.1629    467.92547    306.13692    342.74423    36397.316 
  965900    298.08236   -1454.3298    457.90681    337.25591    8.1311663    36397.316 
  966000    283.02772   -1449.7984    496.67585    313.19893   -392.44398    36397.316 
  966100      302.392   -1470.3593    479.81694    362.41873   -613.30544    36397.316 
  966200     295.6952   -1523.4336    456.32104    255.88572   -784.73003    36397.316 
  966300    293.17289   -1520.3589    460.59529    251.94934   -790.11767    36397.316 
  966400     294.3976   -1526.6199    448.72893    239.30159   -1031.7288    36397.316 
  966500    304.32291   -1513.7917    472.39345    320.20208   -155.98748    36397.316 
  966600    311.55301   -1508.5588    474.82869    360.21903   -112.08554    36397.316 
  966700    305.69767   -1504.2372    464.02472    327.53875   -469.72121    36397.316 
  966800    297.22812   -1474.5474    469.48401    324.79345     384.3468    36397.316 
  966900    302.27044   -1526.1858    489.74877    315.98017   -101.19203    36397.316 
  967000    301.68804    -1472.374    469.74344    347.18088    90.687027    36397.316 
  967100    311.05863   -1506.0176    475.24691    360.96659    111.55659    36397.316 
  967200    305.89503    -1530.592    449.60146    287.64374   -197.19329    36397.316 
  967300    307.23657   -1543.1331    462.97056    294.47411      719.956    36397.316 
  967400    300.18785   -1519.5764    485.85252    309.37536    223.33158    36397.316 
  967500    308.37409   -1552.3003     449.8403    277.26602    310.94201    36397.316 
  967600    294.03857   -1490.6679    468.08367    293.00187    182.40308    36397.316 
  967700    295.42081    -1443.962    495.31374    373.12232    1033.7797    36397.316 
  967800    296.56256   -1526.0408     476.3069     277.1451    581.69389    36397.316 
  967900    304.76765   -1530.5316    493.71259     326.7712     900.6062    36397.316 
  968000    302.87177   -1500.9117    472.77363    326.96959    981.31208    36397.316 
  968100    296.41573   -1487.7326    452.69983    291.18929    427.38119    36397.316 
  968200    300.76759   -1565.4822    447.54714    227.75804    417.40803    36397.316 
  968300    295.93599   -1517.7646     481.5146    287.82564    963.74161    36397.316 
  968400    305.34685   -1535.5413     451.2545    281.89479    592.89102    36397.316 
  968500    308.32434   -1552.8287    448.16113    274.83592     431.5023    36397.316 
  968600    296.32792   -1561.1252    498.06348    262.76743    352.81396    36397.316 
  968700    305.94879   -1507.6777    473.61057    334.80773   -97.277133    36397.316 
  968800    305.70832   -1534.9973    454.97945    287.78102   -681.71161    36397.316 
  968900    300.27394   -1519.6134     476.8941    300.76512   -593.72628    36397.316 
  969000    295.02307   -1495.1186    474.31938    299.19182   -575.32499    36397.316 
  969100    309.23378   -1524.4261    424.97731     284.1237   -777.29248    36397.316 
  969200    286.29712   -1513.8948    472.41699    239.47161   -619.62151    36397.316 
  969300    302.57335    -1509.626    457.49625    301.64267   -368.52103    36397.316 
  969400    297.46075   -1525.5483    469.42146    274.77078    81.391903    36397.316 
  969500    296.23623   -1527.7721    465.10038    262.74714    4.8348517    36397.316 
  969600    295.21081   -1519.2219    470.83838    272.44752   -161.43945    36397.316 
  969700    304.72437   -1520.0927    472.68276    315.98653   -320.23774    36397.316 
  969800    294.21291   -1524.9573      464.732    256.14092   -210.10622    36397.316 
  969900    298.70783   -1523.3944    477.34518     290.4281    -219.7378    36397.316 
  970000    300.00224   -1554.4096    451.95167    239.81086    214.20787    36397.316 
  970100    296.25268   -1549.6186    460.67179    236.54573   -184.56493    36397.316 
  970200    304.10084   -1551.4313     458.8872    268.06265   -262.09743    36397.316 
  970300    302.36183   -1579.0643    450.34852    224.11029   -646.95253    36397.316 
  970400    303.78935   -1513.1336    481.19736    327.27683    232.32329    36397.316 
  970500    290.24905     -1542.08    464.69722    221.24829    227.36802    36397.316 
  970600    295.63937   -1556.6804    446.63217    212.70017    -80.26667    36397.316 
  970700    297.87485   -1535.6619    458.93858    256.02711   -108.58563    36397.316 
  970800    303.71764   -1557.4184     457.5539    259.02769   -114.96615    36397.316 
  970900    298.97547   -1550.4034     453.8812    241.15262    32.393322    36397.316 
  971000    291.35306   -1538.3949    465.42503    230.60083    165.79824    36397.316 
  971100    308.23597   -1578.0631     454.2451    255.29016    3.5348127    36397.316 
  971200    288.37643   -1549.6254     477.6177    218.24494   -538.82966    36397.316 
  971300    298.87512   -1532.4633    459.52853    264.29109    40.504588    36397.316 
  971400     303.2857    -1548.644    466.60122    274.91689    99.455693    36397.316 
  971500     299.4597   -1524.8582    481.30736    296.29051   -54.828272    36397.316 
  971600    298.90724   -1556.4135    461.43046    242.38645   -428.15832    36397.316 
  971700    298.44191   -1494.5425    481.21595      321.961   -388.73495    36397.316 
  971800        301.4   -1533.0097    443.58276    259.09574   -404.05272    36397.316 
  971900    308.71587   -1517.4233    471.10012    334.93214   -121.94867    36397.316 
  972000     305.9962   -1492.2116    453.04538    329.92076   -518.75686    36397.316 
  972100    300.74959   -1481.4109    480.59979    344.80144   -248.95389    36397.316 
  972200    304.71093   -1509.7462    456.61861    310.20877   -390.53645    36397.316 
  972300    307.98492   -1526.3314    446.58493    298.23838   -336.93239    36397.316 
  972400    290.93537   -1550.7895    483.79128     234.7036     269.3738    36397.316 
  972500    294.29687   -1521.3224    472.57922    267.99867   -137.76743    36397.316 
  972600    292.00349   -1516.0045     457.9237    248.39996   -231.81483    36397.316 
  972700    301.69296   -1480.6315    508.55452    377.75645    60.038683    36397.316 
  972800    306.92455   -1533.6664    470.95922    310.53342    250.02698    36397.316 
  972900    308.48092   -1527.3972    462.85899    315.66585   -287.54962    36397.316 
  973000    303.09722   -1543.6619    452.79606    265.25052   -442.53933    36397.316 
  973100    303.72686   -1552.5436    491.79084    298.18073    121.07703    36397.316 
  973200    297.64229   -1525.6466    467.40232    273.46563   -238.97319    36397.316 
  973300    289.39817   -1540.8141    463.67452    217.68453    284.02689    36397.316 
  973400    305.18275   -1546.2654    460.82132    280.00338    553.91578    36397.316 
  973500    293.77458   -1509.5355    482.38498    287.25449    271.90745    36397.316 
  973600    292.56985   -1531.6831    470.67598    248.00771    75.927338    36397.316 
  973700    302.00787   -1525.6432    445.74188    271.34109    547.34886    36397.316 
  973800    296.54783    -1494.569     488.7779    321.02202    406.96889    36397.316 
  973900    292.73425   -1527.7651    480.44515    262.43049    373.43249    36397.316 
  974000    301.12442   -1498.2728    460.77536    309.79224    498.31883    36397.316 
  974100    300.98518   -1503.2152    488.55502    332.00647    364.83784    36397.316 
  974200    291.92965   -1504.7107    468.23961    269.67937   -82.219897    36397.316 
  974300    300.70721   -1530.7509     476.1942    290.86631    398.34494    36397.316 
  974400    309.21384   -1538.4739    451.48594    296.49535    74.407367    36397.316 
  974500     296.9555   -1516.7077    471.21632    283.14572    31.535005    36397.316 
  974600    312.35774   -1471.3255     470.2682    396.49246   -77.989235    36397.316 
  974700    299.31737   -1484.5331    483.77321     338.4447   -195.47576    36397.316 
  974800    308.16361   -1517.4401    468.09947    329.44371    24.478313    36397.316 
  974900     304.9204   -1512.0655    471.31238     323.5205    457.57712    36397.316 
  975000    298.04465   -1579.6571    453.42191    207.27496    174.41383    36397.316 
  975100    299.60857   -1546.6502    476.42091    270.27817   -237.43553    36397.316 
  975200    306.94879   -1528.4994    471.14867    315.99823    161.63612    36397.316 
  975300    324.34972   -1474.4225    483.88458    460.66621    594.54116    36397.316 
  975400    297.08057    -1547.968    466.91125    248.13995   -266.05146    36397.316 
  975500    303.40637   -1498.9304    463.09966    321.66879      7.66491    36397.316 
  975600    302.98428   -1524.5796      500.239    331.27041   -123.05264    36397.316 
  975700    295.68726    -1518.042     469.1525    274.07319   -244.28243    36397.316 
  975800    301.28701   -1518.8649    468.07984    297.23203   -640.61249    36397.316 
  975900    291.90617   -1521.6834    496.40839    280.77035   -543.13131    36397.316 
  976000    298.34786    -1504.877    484.39327    314.38299    219.71447    36397.316 
  976100    306.56643   -1510.9441    484.26901    344.96315   -41.709216    36397.316 
  976200    292.39602   -1537.9508    490.43198    260.71819   -70.445145    36397.316 
  976300    295.13126   -1553.2621      484.383    251.59593   -132.07007    36397.316 
  976400    304.89358   -1535.2684    498.20564    327.09087    173.17553    36397.316 
  976500    300.73303   -1531.5466    470.53768    284.52954   -382.02489    36397.316 
  976600    299.01875   -1524.8361    473.64597    286.67835    -869.8116    36397.316 
  976700    296.25157   -1507.1226    481.20384     299.5688   -807.08827    36397.316 
  976800    300.10931   -1553.7438    469.28273    258.28673   -116.31411    36397.316 
  976900    299.88079   -1540.7609    481.10224    282.06673   -50.984016    36397.316 
  977000    293.79144   -1522.5242    508.71096    300.66724    40.386924    36397.316 
  977100     304.9481   -1540.8311    467.05475     290.6212    6.2742035    36397.316 
  977200    285.10936   -1530.2626    477.12085    222.49336   -43.520188    36397.316 
  977300    303.14663   -1491.4706    498.03793    362.90469    57.795373    36397.316 
  977400    315.20318   -1548.3718    452.61351    314.52251     93.80935    36397.316 
  977500    299.00672   -1528.5108    479.49232    288.79613    461.06155    36397.316 
  977600    297.86343    -1540.496    448.44702    240.65035    201.91077    36397.316 
  977700      287.563   -1544.3877    475.27778    217.50329     280.3359    36397.316 
  977800    318.25831   -1516.6564    485.61654    392.91019    557.95884    36397.316 
  977900    286.00811   -1494.8458    479.22372    264.03425   -403.86095    36397.316 
  978000    299.30403   -1512.9491     471.7933    297.98905    563.10154    36397.316 
  978100    295.38919   -1514.8426    486.12373    292.91019    87.949308    36397.316 
  978200    297.61443    -1506.893    469.07439    293.76662    18.122514    36397.316 
  978300     295.6961   -1507.3307    480.43277    296.10434     250.7693    36397.316 
  978400    287.67151   -1461.1657    488.18111    314.11405   -516.81452    36397.316 
  978500    300.96451   -1491.6653    481.77238    336.68119   -509.92233    36397.316 
  978600    307.10639   -1472.7111    485.53725    386.88028   -257.51508    36397.316 
  978700    301.64944   -1443.3532    490.88258    397.16811   -72.264482    36397.316 
  978800    300.46887   -1489.8109     466.8035    321.34915   -259.96647    36397.316 
  978900    304.98139   -1529.2184    488.60891      323.937   -279.28704    36397.316 
  979000    298.85243   -1496.4511     461.2229    301.89615   -101.84571    36397.316 
  979100    305.82563   -1482.4778    471.28451    357.13043    266.21325    36397.316 
  979200     289.4348   -1496.7058    475.96818    274.25036    372.82158    36397.316 
  979300    298.05828   -1531.9443    455.50958    257.13639    384.85954    36397.316 
  979400    306.34149   -1555.2837    496.91868     312.2668    328.13163    36397.316 
  979500    306.36258   -1574.8986    463.84636    259.67394    550.49813    36397.316 
  979600    299.80644   -1564.4477    450.87082    227.81588    491.02884    36397.316 
  979700    308.16002    -1579.807     492.6366    291.59788    518.59999    36397.316 
  979800    298.70807   -1527.4757    462.47908    271.48178    752.43208    36397.316 
  979900    307.97659    -1510.617    482.34057    349.67109    829.17251    36397.316 
  980000    295.25085   -1524.0032    459.99047     256.9974   -89.277219    36397.316 
  980100    294.67324    -1516.385    493.28451     295.3253    14.637335    36397.316 
  980200    300.38619   -1549.3028    460.39034    255.07425   -15.047346    36397.316 
  980300    296.14558   -1489.8174    494.74584    329.94178   -332.20254    36397.316 
  980400    299.87954   -1498.9072    468.68732     311.4999   -473.62652    36397.316 
  980500    293.07573   -1540.1458    472.05241    243.18485   -493.71199    36397.316 
  980600    309.12678   -1509.1694    439.71508    313.63942   -1004.3744    36397.316 
  980700    298.18416   -1548.2064    461.18846    247.11644    -733.4149    36397.316 
  980800    299.96446   -1520.4323    457.41338    279.08077   -995.90324    36397.316 
  980900    294.53177    -1517.763    466.83669    266.86655   -338.81917    36397.316 
  981000    300.95106   -1515.0991    471.90217    303.31703    33.057537    36397.316 
  981100    293.01717   -1474.9757    497.74609    333.78662    30.887328    36397.316 
  981200      303.292   -1467.6943    477.88871    367.18227    263.61453    36397.316 
  981300    310.88461   -1539.6927    446.27403    297.53995    1105.4853    36397.316 
  981400    304.06218   -1521.9102    462.95056    301.47414    161.71822    36397.316 
  981500    298.34183   -1549.4305     454.9235    240.33278     144.8865    36397.316 
  981600    298.40956   -1535.8739    445.22099    244.48987     306.5191    36397.316 
  981700    297.97473   -1558.8174     487.5788    261.95876    93.606483    36397.316 
  981800    299.33322    -1515.685    464.61443    288.20494    506.28151    36397.316 
  981900    300.54028    -1483.201    465.97006    327.44519    276.35475    36397.316 
  982000    294.86332   -1514.5484    475.78345    280.51136   -550.00377    36397.316 
  982100    296.16973   -1476.1836    486.19942    335.13724    -727.9662    36397.316 
  982200    294.38442   -1482.2002    467.15863    302.09198   -909.63678    36397.316 
  982300    297.10456   -1505.5142    480.16548    303.95531   -939.24315    36397.316 
  982400    296.21661   -1499.4174    486.53059     312.4443    29.266676    36397.316 
  982500    309.84761   -1504.5564    492.83752    374.60003    175.31389    36397.316 
  982600    302.95572   -1481.3262    463.89611    338.05309    93.729524    36397.316 
  982700    292.26026   -1518.9592    493.60833    282.27875    165.07175    36397.316 
  982800    306.58799   -1541.8423    475.76039    305.65279   -19.340253    36397.316 
  982900    294.17562   -1488.7202    495.40593    322.88505    82.115644    36397.316 
  983000    310.56892   -1553.1144    443.18138    279.61314   -110.61417    36397.316 
  983100     296.5239   -1532.6292    452.69533    246.77216   -73.593853    36397.316 
  983200    289.94582   -1551.5157    487.22736    232.98605    438.44206    36397.316 
  983300    301.73226   -1564.7361    460.51346    245.78658    704.63441    36397.316 
  983400    301.20123    -1552.209    477.16801    272.59236    596.80911    36397.316 
  983500    305.84526   -1498.4318    477.94379    347.92358    630.67445    36397.316 
  983600    301.38068   -1496.4561    487.61741     339.5975    402.91089    36397.316 
  983700    294.11714   -1495.3283    470.69657    291.30593    248.74316    36397.316 
  983800    304.10057     -1508.18    475.97111    328.39662    488.61979    36397.316 
  983900    304.08754   -1483.3559    462.75021    339.94151    415.17892    36397.316 
  984000    308.66143   -1490.2669    456.64767     347.3925    244.41211    36397.316 
  984100    296.87053   -1508.9335    476.61395    295.93738     523.5275    36397.316 
  984200    307.49333   -1481.7704    472.56411    366.57907    50.455847    36397.316 
  984300    299.18471   -1441.7815    462.46118     359.2907    303.31006    36397.316 
  984400    317.00866   -1481.1929    470.03982    407.20581   -154.18185    36397.316 
  984500    299.72369   -1525.5818    466.56941    282.01007   -253.70933    36397.316 
  984600    293.79139   -1546.3616    474.40206    242.52066   -1069.8575    36397.316 
  984700     301.2504   -1539.7315    449.16648     257.2883   -863.13682    36397.316 
  984800     305.9989   -1476.6164    481.28084    373.76349   -962.55642    36397.316 
  984900    297.47101   -1506.2452    461.96833    286.66673   -1292.4911    36397.316 
  985000    308.11883   -1521.5611    459.82112    316.84398   -526.39253    36397.316 
  985100    299.72295     -1589.13    461.18844    213.07765     142.5125    36397.316 
  985200    305.96224   -1544.8854    449.88453    273.93415   -4.5844098    36397.316 
  985300    289.74508   -1563.0354    448.36227    181.70311    326.88224    36397.316 
  985400    299.92764   -1563.8257    462.98351    241.09281    24.080932    36397.316 
  985500    306.44591   -1548.0635    462.07037    285.10591    309.59876    36397.316 
  985600    306.18004   -1553.5525    477.41888    293.77584    75.408145    36397.316 
  985700    299.77451   -1570.6945    457.14506    227.70046   -109.77199    36397.316 
  985800    310.37013   -1566.5659     452.7893    274.88013    89.156729    36397.316 
  985900    293.16368   -1514.0056    462.12141    259.78752    428.53239    36397.316 
  986000    302.59432   -1550.6229      445.783    249.02638   -141.24601    36397.316 
  986100    307.46081    -1529.839    455.76202     301.5629     -330.826    36397.316 
  986200     300.9038   -1520.7922    455.27625    280.78662   -58.919541    36397.316 
  986300    295.21595   -1532.2134    477.85425    266.49485   -104.68634    36397.316 
  986400    291.79566   -1570.3204    449.11188    184.34245    86.268653    36397.316 
  986500    298.35943    -1545.538    459.49679    248.87729    253.28604    36397.316 
  986600    295.19002   -1542.9898    481.63021     259.3784    348.75592    36397.316 
  986700    303.32525   -1534.0648    443.25405    266.32583    654.82482    36397.316 
  986800    293.56739   -1552.5871    452.04678    212.93773     354.4542    36397.316 
  986900    307.83078   -1534.5586    480.84997    323.58663    1043.2512    36397.316 
  987000    291.80573   -1519.8736    447.28189    233.00425     271.9664    36397.316 
  987100    309.93473   -1545.4068    464.60498    305.90686    1105.9511    36397.316 
  987200    303.09722   -1525.3084    476.57297    307.38093   -57.245734    36397.316 
  987300     302.7684   -1483.5507    492.52823    363.62266    101.21371    36397.316 
  987400    305.36253   -1550.3951    471.65217    287.50884    506.23751    36397.316 
  987500    296.91365   -1572.6533    471.47679    227.27334    242.47552    36397.316 
  987600    293.46041    -1529.002    462.58651    246.58386    292.69725    36397.316 
  987700    305.06457    -1561.301    461.88196    265.49958     301.6913    36397.316 
  987800     310.6846   -1523.2406    465.50255    332.32572    110.08043    36397.316 
  987900    304.42188    -1531.999    505.84945    335.89355    261.74689    36397.316 
  988000    300.67381   -1569.9997     448.8498    224.12366   -289.18289    36397.316 
  988100    291.18547   -1520.1016    475.89563    258.61492   -125.29296    36397.316 
  988200    312.45033   -1542.9713     452.2355    307.22825   -183.35847    36397.316 
  988300    296.80823    -1536.154    484.51099    276.33519   -154.86879    36397.316 
  988400    306.34341   -1527.4558    450.63329    293.81793   -221.77266    36397.316 
  988500    299.21127   -1458.4236    474.25582    354.56205   -9.9179043    36397.316 
  988600    295.05238   -1460.5418    478.99024    338.57061     -21.2424    36397.316 
  988700    294.72881   -1506.6842    467.21499    279.20519   -63.023847    36397.316 
  988800    304.52487   -1537.7345    482.11319    306.88257    159.75095    36397.316 
  988900    292.68437   -1518.9194    446.95123    237.55908    52.876599    36397.316 
  989000    294.96916   -1511.7217    459.77357    267.80171    376.59097    36397.316 
  989100    303.48075    -1504.954    499.66824    352.54657    929.68089    36397.316 
  989200    302.28187   -1521.7894    442.17854    272.85741   -151.45482    36397.316 
  989300    297.33303   -1521.8709    467.47659    275.93188    495.23315    36397.316 
  989400    310.18512   -1531.8102     492.2142    348.23301    946.76009    36397.316 
  989500    297.95915    -1476.239    493.77062    350.65916    794.52994    36397.316 
  989600    294.05335   -1530.2194    462.15455    247.58747     779.6732    36397.316 
  989700    305.63543    -1515.815    474.36489     326.0227    1200.2033    36397.316 
  989800    304.55894   -1540.1933    476.08702    298.55005    1213.9971    36397.316 
  989900    310.83321   -1558.6189    489.67393     321.7837    681.02523    36397.316 
  990000    296.27568   -1543.3616     465.8392    248.07302    906.00703    36397.316 
  990100     302.5147   -1551.0534    468.33737    270.79398    434.82089    36397.316 
  990200    299.34944   -1539.8444    472.20789    271.71151    541.46065    36397.316 
  990300    297.29582    -1500.135    476.38069    306.40541   -347.82726    36397.316 
  990400    307.69682   -1487.5814    469.20747    358.32196   -170.32867    36397.316 
  990500    304.62064   -1489.5351    462.42689    335.82419    15.423513    36397.316 
  990600    285.38276   -1570.3274    479.06048    185.59147   -236.81527    36397.316 
  990700    304.88873   -1575.5738    476.78612    265.34427    442.68961    36397.316 
  990800    309.47957   -1569.6742    476.28525    291.28324   -342.43825    36397.316 
  990900    297.61576   -1576.3658    450.51824    205.74368   -211.04447    36397.316 
  991000    295.36286   -1539.0654     453.4021    235.84803   -352.76261    36397.316 
  991100    292.48608   -1535.0726    454.02705    227.59442   -14.178029    36397.316 
  991200    301.48635   -1515.7156    448.55897     281.7524   -42.712241    36397.316 
  991300    296.31971   -1511.1071    451.87568    266.56098   -125.49445    36397.316 
  991400    302.85116   -1516.4429    475.56808    314.14066    -265.9482    36397.316 
  991500    311.64822   -1515.5858    446.35375    325.14319   -192.89246    36397.316 
  991600    292.02506   -1518.0168    475.39308    263.95363     64.05523    36397.316 
  991700    294.62467   -1505.4449     483.2316    295.99514    195.77294    36397.316 
  991800    290.75111   -1539.2857    465.51472    227.10647    144.47649    36397.316 
  991900    297.47579   -1541.1147     484.9476    274.79785    1022.6904    36397.316 
  992000    302.32736   -1542.6749     479.6266    289.62355    767.64542    36397.316 
  992100    298.21122   -1487.4334    472.03656    318.85854    568.51786    36397.316 
  992200    292.58314   -1522.3229    483.52047    270.27179    544.04732    36397.316 
  992300    297.00299   -1552.0165    448.95357    225.78663   -53.307268    36397.316 
  992400     306.3006   -1546.5115    458.23474    282.17213   -169.97404    36397.316 
  992500    286.83167   -1551.3296    466.52849    198.53997   -408.96228    36397.316 
  992600    301.79021   -1554.0938    475.78714    271.96187   -432.06114    36397.316 
  992700     298.5845   -1528.1576     467.5071      275.275   -80.117108    36397.316 
  992800    310.50178    -1524.656     466.4891    331.07892   -710.87678    36397.316 
  992900    308.68056   -1546.8797     471.7901    306.00764   -396.70057    36397.316 
  993000    296.97066   -1520.2147    479.45687    287.94705    -324.8771    36397.316 
  993100    296.84882   -1553.9299    467.37294    241.60278   -296.90807    36397.316 
  993200    297.06732   -1526.0451    492.48365    295.57587   -192.72912    36397.316 
  993300    292.01421   -1504.6378    474.08002    275.97099    271.99886    36397.316 
  993400    292.35982   -1494.1038    458.29772    272.26901   -76.429797    36397.316 
  993500    296.87299   -1501.7427    477.85875    304.38392   -226.75474    36397.316 
  993600    303.57126    -1485.659    495.10787    367.68618    415.68606    36397.316 
  993700    305.29556   -1500.7295    473.61409     338.8368    85.084754    36397.316 
  993800    296.92508   -1527.9839    466.66342    267.18043   -302.87415    36397.316 
  993900    303.44192    -1479.575    488.59424    366.67788   -102.23752    36397.316 
  994000    304.40969   -1511.1781    471.96943    322.77995   -763.04482    36397.316 
  994100    302.12861   -1503.6999    484.95429    333.03701   -1046.2232    36397.316 
  994200    291.91518   -1497.6446    440.22042    248.66153   -872.02165    36397.316 
  994300    300.70269   -1470.8575    487.33343    361.87866   -318.61924    36397.316 
  994400    294.56343   -1515.3649    454.69108     257.2607   -921.46138    36397.316 
  994500    286.98193   -1506.7962    469.80649    247.02362   -498.17408    36397.316 
  994600    298.42161   -1499.0217    483.26755    319.44254    -360.6747    36397.316 
  994700    295.09835   -1492.8686    472.30027    299.75945   -67.260583    36397.316 
  994800    304.62893   -1519.9182      453.019    296.07024   -82.652983    36397.316 
  994900    298.92229   -1515.3797    463.13502    285.19221   -136.38814    36397.316 
  995000    292.57363   -1514.3791    441.92077     236.5734   -587.08966    36397.316 
  995100    309.22217   -1523.4325    463.25605    323.34415   -980.43794    36397.316 
  995200    297.93233    -1489.056    464.23945    308.19102   -24.378704    36397.316 
  995300    299.25367   -1518.2694     456.5245    277.17468    5.9460989    36397.316 
  995400    296.99482   -1526.8707    490.76442    292.70679   -724.95534    36397.316 
  995500    295.95614   -1518.3342    444.97267     250.8042   -161.30671    36397.316 
  995600    303.49928   -1515.2259    470.04147    312.73072    654.81679    36397.316 
  995700    305.48537   -1535.6065    489.66644    320.86135    597.52827    36397.316 
  995800    291.99187   -1511.3925     473.1695    268.20586   -163.36525    36397.316 
  995900     304.1051   -1534.5735    472.52613    298.57841   -1125.9478    36397.316 
  996000    290.70783   -1506.8557    472.23656    266.06467   -710.02781    36397.316 
  996100     298.6088   -1529.2579    450.58363    257.36004   -162.50071    36397.316 
  996200     294.3227   -1516.4611    479.88236    280.27868   -435.65984    36397.316 
  996300    301.29605   -1496.4953    497.20232    348.76452    18.481493    36397.316 
  996400    286.17007   -1441.3335    455.33843    294.38588    37.441797    36397.316 
  996500     299.4116    -1463.331    480.88488    357.17999   -54.170925    36397.316 
  996600    304.31458   -1508.1452    475.56122    328.97899   -425.35679    36397.316 
  996700    307.76032   -1484.2119    475.71177    368.47988   -208.49768    36397.316 
  996800    291.63273   -1520.8588    474.58778    258.55089   -28.038349    36397.316 
  996900    299.09795   -1500.7227    446.34917    283.84925    -237.1607    36397.316 
  997000    294.64544    -1533.559    478.14537    262.88782   -799.07628    36397.316 
  997100    289.27935   -1477.2549    475.66245    292.70002   -146.93679    36397.316 
  997200    298.51416   -1521.1624    454.52223    268.97066   -808.22442    36397.316 
  997300    312.71778   -1499.2767    465.67311    365.55705   -645.96974    36397.316 
  997400    303.81274   -1483.8126    477.35252    352.85759    -902.9438    36397.316 
  997500     290.9937   -1507.0948    448.77114    243.63911   -482.88828    36397.316 
  997600    302.77576   -1536.7808    495.63085    313.52816    288.28258    36397.316 
  997700    313.11448   -1523.0409    480.80463    358.69924    27.649375    36397.316 
  997800    306.02741   -1542.2253    503.54345    330.54476    152.40221    36397.316 
  997900    297.89977   -1599.6997     463.1587    196.32089    227.97187    36397.316 
  998000    290.77187   -1599.0637    471.03269    172.93932    985.50221    36397.316 
  998100    309.34738   -1600.4789    458.29176    241.89368    1070.7569    36397.316 
  998200    306.73556   -1550.6725    484.90187    306.62437     361.2096    36397.316 
  998300     298.6616   -1593.4792    476.98817     219.7795    607.70029    36397.316 
  998400    295.99565   -1591.8725    504.95412    237.42413    366.17908    36397.316 
  998500     304.6871   -1608.2929    442.78287    197.71978    80.761653    36397.316 
  998600    296.22362   -1560.5722    468.41749    233.20775    41.522482    36397.316 
  998700    286.38701   -1507.7736    478.39856    251.97653   -585.96828    36397.316 
  998800    298.67449   -1507.7909    483.70564    312.24291   -223.49202    36397.316 
  998900    293.03571   -1512.0115    484.68922    283.77692   -235.76436    36397.316 
  999000    300.97874   -1515.3566    474.92709     306.2083   -24.839615    36397.316 
  999100    300.55378   -1573.9327    463.68374    234.48749   -175.54671    36397.316 
  999200    305.71015   -1497.1611    509.17467    379.82067    374.96064    36397.316 
  999300    294.37303   -1572.8237    471.53739     215.7963    496.67484    36397.316 
  999400    301.90006   -1529.4556    510.90688    332.21127    489.78917    36397.316 
  999500    300.56569   -1499.8878    472.78502    317.68698    967.20605    36397.316 
  999600    288.05348   -1537.9639     496.7719    247.61572    529.40622    36397.316 
  999700    306.10591    -1520.628    474.13613    323.08593    560.60857    36397.316 
  999800    293.04469    -1521.222      469.349    259.26631    2.5918703    36397.316 
  999900    293.88135   -1556.2253    481.67534    240.33272    353.03114    36397.316 
 1000000    292.22342   -1542.2029     491.8294    257.09137    68.746972    36397.316 
 1000100      291.198   -1522.0226    489.50152    270.35576   -250.66307    36397.316 
 1000200    295.66163     -1541.62    461.37128     242.5993    474.93339    36397.316 
 1000300    295.20402   -1542.7969    502.60382    280.60752    340.51642    36397.316 
 1000400    295.69489   -1528.1859    468.29318    263.10411    42.217544    36397.316 
 1000500    294.74135   -1517.6177    491.34943    292.46232    111.39253    36397.316 
 1000600    299.85281   -1523.9004     490.7328    308.43258   -176.95201    36397.316 
 1000700    301.01807   -1561.6694    464.07656      249.221   -99.285581    36397.316 
 1000800    304.22815   -1508.5876    493.79735     346.3861   -536.48143    36397.316 
 1000900    319.16225     -1541.72    471.99499    358.26939   -399.62127    36397.316 
 1001000    295.54663   -1542.0911    484.99565    265.23804   -309.08603    36397.316 
 1001100    302.12823   -1527.3914    476.28432     300.6738   -236.71418    36397.316 
 1001200    301.87059   -1491.2366    471.32273     330.7143   -183.27759    36397.316 
 1001300    297.15249   -1508.9661    474.54501    295.09733   -501.06529    36397.316 
 1001400    295.50625   -1500.7059    479.41743    300.86442    93.265883    36397.316 
 1001500    300.66258   -1497.2215    480.09126    328.09306     389.6794    36397.316 
 1001600    322.32899   -1550.9402    478.37912    369.60198    7.8301937    36397.316 
 1001700     309.3105   -1565.5242    469.64725    288.03882    102.19453    36397.316 
 1001800    304.07111   -1534.3985    467.86283    293.93808    296.69864    36397.316 
 1001900    294.62132   -1530.3994    482.87183    270.66592   -352.51145    36397.316 
 1002000    287.23174   -1526.7221    470.61378    229.02273   -445.32486    36397.316 
 1002100    294.55951   -1546.7936     449.1985    220.32189   -682.99395    36397.316 
 1002200    301.34674   -1534.3841     478.5907    292.49091   -495.29429    36397.316 
 1002300    302.07424   -1492.8097    483.20778     341.9374   -369.95958    36397.316 
 1002400    299.55762   -1536.6928     480.6907    284.27738   -60.655474    36397.316 
 1002500    294.64307   -1510.2337    471.46535    279.52241    462.87141    36397.316 
 1002600    296.68793   -1543.1245    470.56889    254.88431     797.5874    36397.316 
 1002700      300.094   -1497.6219    482.65831    327.71579    270.26556    36397.316 
 1002800    287.50072   -1498.9446    464.85351    252.24339    153.39082    36397.316 
 1002900    297.35534   -1517.5569    452.85938    265.72851    110.86694    36397.316 
 1003000    302.69193   -1538.2265    477.21585    293.29233    348.80957    36397.316 
 1003100    291.23976   -1537.4075    445.20614    210.86232   -264.04237    36397.316 
 1003200    309.04789   -1527.0961    487.70263    343.34737   -265.92092    36397.316 
 1003300    298.25816    -1519.462     476.0965    291.09991   -499.28552    36397.316 
 1003400    295.28457   -1545.7876    444.38578     219.7592    90.299055    36397.316 
 1003500    291.53759      -1501.3    489.49242    292.58868   -314.56065    36397.316 
 1003600    295.84139   -1522.8557    494.19493    294.99157   -254.48284    36397.316 
 1003700     298.8336   -1532.2461    445.44876    250.24277   -148.44678    36397.316 
 1003800    309.70204   -1500.1677    481.06407    366.56394   -354.30954    36397.316 
 1003900    290.99673   -1552.4575    464.49477    214.01363   -968.18265    36397.316 
 1004000    300.96328   -1569.5481    479.68326    256.70382   -423.49411    36397.316 
 1004100    305.33289   -1557.4295    480.84449    289.53418   -16.282906    36397.316 
 1004200    292.55805   -1566.0954     468.9717    211.83833    489.97334    36397.316 
 1004300    302.41719   -1523.5598    457.10563    286.61956   -39.678848    36397.316 
 1004400    307.51348   -1521.0892    471.96143    326.74783    -279.3395    36397.316 
 1004500    298.40471   -1482.2323    476.91701     329.8058   -750.43971    36397.316 
 1004600    297.37479   -1528.7314     439.1249    240.90653   -669.97043    36397.316 
 1004700    316.80125   -1517.2564    510.72883    410.90326   -252.12007    36397.316 
 1004800    300.28829   -1516.4427    469.60805      296.714    385.64599    36397.316 
 1004900    300.62589   -1507.0539    480.11189    318.11709   -94.767229    36397.316 
 1005000    296.66618   -1527.9769    488.64938    288.01509   -279.45639    36397.316 
 1005100    295.26648   -1501.5751    466.71636    286.22134   -146.22818    36397.316 
 1005200    299.26963   -1464.1035    476.41682    351.30424   -38.154167    36397.316 
 1005300    308.35472   -1457.7881      505.025    426.87631    699.12172    36397.316 
 1005400      294.449   -1484.6906    456.87738    289.60925    201.16551    36397.316 
 1005404    293.83004   -1494.5148    503.01266    323.15104   -556.06508    36397.316 
Loop time of 598.458 on 32 procs for 1000000 steps with 1502 atoms

Performance: 144.371 ns/day, 0.166 hours/ns, 1670.961 timesteps/s
100.0% CPU use with 32 MPI tasks x no OpenMP threads

MPI task timing breakdown:
Section |  min time  |  avg time  |  max time  |%varavg| %total
---------------------------------------------------------------
Pair    | 255.59     | 281.16     | 320.09     |  93.3 | 46.98
Bond    | 1.3679     | 1.4677     | 1.6345     |   5.5 |  0.25
Neigh   | 38.491     | 38.552     | 38.611     |   0.7 |  6.44
Comm    | 226.87     | 266.29     | 291.75     |  96.1 | 44.50
Output  | 0.39066    | 0.40745    | 0.85755    |  12.7 |  0.07
Modify  | 7.5068     | 7.7976     | 8.0114     |   4.8 |  1.30
Other   |            | 2.779      |            |       |  0.46

Nlocal:        46.9375 ave          72 max          25 min
Histogram: 1 5 2 3 6 5 5 3 0 2
Nghost:        2016.28 ave        2071 max        1956 min
Histogram: 2 0 3 4 5 5 7 3 2 1
Neighs:        5246.19 ave        9281 max        2497 min
Histogram: 4 4 4 3 5 5 4 2 0 1

Total # of neighbors = 167878
Ave neighs/atom = 111.76964
Ave special neighs/atom = 1.9986684
Neighbor list builds = 49667
Dangerous builds = 0

# Output the system volume
variable v equal vol
print 'The system volume is $v'
The system volume is 36397.3164107168

# Outputs
variable A equal xhi-xlo
variable B equal yhi-ylo
variable C equal zhi-zlo
variable D equal xy
variable E equal xz
variable F equal yz
print 'Lattice vectors'
Lattice vectors
print '$A 0 0'
33.1403014641473 0 0
print '$D $B 0'
0 33.1403014641473 0
print '$E $F $C'
0 0 33.1403014641473
Total wall time: 0:10:02
